<?xml version="1.0"?>
<VTKFile type="UnstructuredGrid" version="0.1" byte_order="LittleEndian">
<UnstructuredGrid>
<Piece NumberOfPoints="31780" NumberOfCells="11173">
<Points>
<DataArray type="Float64" NumberOfComponents="3" format="ascii">
-0.5 -0.5 0 -0.48319190646450588 -0.47711482349794371 0 -0.49999999999999728 -0.45408921047276563 0 -0.48499620119032921 -0.50000000000000266 0 -0.5 -0.5 0 -0.48319190646450588 -0.47711482349794371 0 -0.48319190646450588 -0.47711482349794371 0 -0.47237275176400723 -0.48865574153886299 0 -0.4633446523784247 -0.47851346393110239 0 -0.48319190646450588 -0.47711482349794371 0 -0.4633446523784247 -0.47851346393110239 0 -0.47022046138236362 -0.46613061359957347 0 -0.48499620119032921 -0.50000000000000266 0 -0.48319190646450588 -0.47711482349794371 0 -0.47237275176400723 -0.48865574153886299 0 -0.48499620119032921 -0.50000000000000266 0 -0.48319190646450588 -0.47711482349794371 0 -0.48499620119032921 -0.50000000000000266 0 -0.47237275176400723 -0.48865574153886299 0 -0.4632151981456869 -0.5 0 -0.4632151981456869 -0.5 0 -0.45607538120128238 -0.48971403962113202 0 -0.44143419510104448 -0.49999999999999828 0 -0.47237275176400723 -0.48865574153886299 0 -0.45607538120128238 -0.48971403962113202 0 -0.4633446523784247 -0.47851346393110239 0 -0.47237275176400723 -0.48865574153886299 0 -0.4632151981456869 -0.5 0 -0.45607538120128238 -0.48971403962113202 0 -0.45607538120128238 -0.48971403962113202 0 -0.4633446523784247 -0.47851346393110239 0 -0.45107789102766688 -0.48494092829305913 0 -0.4633446523784247 -0.47851346393110239 0 -0.45604238691244142 -0.46659987312490259 0 -0.47022046138236362 -0.46613061359957347 0 -0.4633446523784247 -0.47851346393110239 0 -0.4500623361273639 -0.47861292566533792 0 -0.45604238691244142 -0.46659987312490259 0 -0.4633446523784247 -0.47851346393110239 0 -0.4500623361273639 -0.47861292566533792 0 -0.45107789102766688 -0.48494092829305913 0 -0.44351528561058873 -0.47032144468528952 0 -0.4424063633743498 -0.48613585053501868 0 -0.4318424324615075 -0.47424119986454188 0 -0.4500623361273639 -0.47861292566533792 0 -0.44351528561058873 -0.47032144468528952 0 -0.4424063633743498 -0.48613585053501868 0 -0.44351528561058873 -0.47032144468528952 0 -0.4424063633743498 -0.48613585053501868 0 -0.4500623361273639 -0.47861292566533792 0 -0.4424063633743498 -0.48613585053501868 0 -0.44423054224245478 -0.48631934744320809 0 -0.4500623361273639 -0.47861292566533792 0 -0.44423054224245478 -0.48631934744320809 0 -0.45107789102766688 -0.48494092829305913 0 -0.4500623361273639 -0.47861292566533792 0 -0.44351528561058873 -0.47032144468528952 0 -0.45604238691244142 -0.46659987312490259 0 -0.4424063633743498 -0.48613585053501868 0 -0.44423054224245478 -0.48631934744320809 0 -0.44143419510104448 -0.49999999999999828 0 -0.4424063633743498 -0.48613585053501868 0 -0.44423054224245478 -0.48631934744320809 0 -0.4424063633743498 -0.48613585053501868 0 -0.44143419510104448 -0.49999999999999828 0 -0.42998389901262257 -0.49223093413565128 0 -0.4424063633743498 -0.48613585053501868 0 -0.44143419510104448 -0.49999999999999828 0 -0.45607538120128238 -0.48971403962113202 0 -0.44423054224245478 -0.48631934744320809 0 -0.45107789102766688 -0.48494092829305913 0 -0.45607538120128238 -0.48971403962113202 0 -0.44423054224245478 -0.48631934744320809 0 -0.44143419510104448 -0.49999999999999828 0 -0.44462420784682849 -0.45450703883556048 0 -0.4463828207793834 -0.42942735539237342 0 -0.44462420784682849 -0.45450703883556048 0 -0.45774322903228593 -0.44230436361675468 0 -0.4463828207793834 -0.42942735539237342 0 -0.44462420784682849 -0.45450703883556048 0 -0.4463828207793834 -0.42942735539237342 0 -0.43574418429157241 -0.44562500293402801 0 -0.4410607089243882 -0.45453392659396152 0 -0.44462420784682849 -0.45450703883556048 0 -0.43574418429157241 -0.44562500293402801 0 -0.44351528561058873 -0.47032144468528952 0 -0.4410607089243882 -0.45453392659396152 0 -0.43545719660048932 -0.4578230811475259 0 -0.44351528561058873 -0.47032144468528952 0 -0.44462420784682849 -0.45450703883556048 0 -0.44351528561058873 -0.47032144468528952 0 -0.4410607089243882 -0.45453392659396152 0 -0.44462420784682849 -0.45450703883556048 0 -0.44351528561058873 -0.47032144468528952 0 -0.44462420784682849 -0.45450703883556048 0 -0.45604238691244142 -0.46659987312490259 0 -0.4410607089243882 -0.45453392659396152 0 -0.44462420784682849 -0.45450703883556048 0 -0.44462420784682849 -0.45450703883556048 0 -0.46300590979275552 -0.45436834291572342 0 -0.44462420784682849 -0.45450703883556048 0 -0.45604238691244142 -0.46659987312490259 0 -0.46300590979275552 -0.45436834291572342 0 -0.45604238691244142 -0.46659987312490259 0 -0.46300590979275552 -0.45436834291572342 0 -0.47022046138236362 -0.46613061359957347 0 -0.46300590979275552 -0.45436834291572342 0 -0.45774322903228593 -0.44230436361675468 0 -0.46881909130798038 -0.44212163451200648 0 -0.44462420784682849 -0.45450703883556048 0 -0.46300590979275552 -0.45436834291572342 0 -0.45774322903228593 -0.44230436361675468 0 -0.45774322903228593 -0.44230436361675468 0 -0.46881909130798038 -0.44212163451200648 0 -0.4625990924266018 -0.43119874154692422 0 -0.46881909130798038 -0.44212163451200648 0 -0.48138761173868239 -0.45422964699588481 0 -0.47935961354957601 -0.42850707748474492 0 -0.48138761173868239 -0.45422964699588481 0 -0.47935961354957601 -0.42850707748474492 0 -0.46300590979275552 -0.45436834291572342 0 -0.46881909130798038 -0.44212163451200648 0 -0.48138761173868239 -0.45422964699588481 0 -0.48138761173868239 -0.45422964699588481 0 -0.49018680632206391 -0.44064550810531627 0 -0.47935961354957601 -0.42850707748474492 0 -0.46300590979275552 -0.45436834291572342 0 -0.48138761173868239 -0.45422964699588481 0 -0.47022046138236362 -0.46613061359957347 0 -0.48319190646450588 -0.47711482349794371 0 -0.48138761173868239 -0.45422964699588481 0 -0.48319190646450588 -0.47711482349794371 0 -0.48138761173868239 -0.45422964699588481 0 -0.47022046138236362 -0.46613061359957347 0 -0.46300590979275552 -0.45436834291572342 0 -0.48138761173868239 -0.45422964699588481 0 -0.48319190646450588 -0.47711482349794371 0 -0.48138761173868239 -0.45422964699588481 0 -0.49999999999999728 -0.45408921047276563 0 -0.48138761173868239 -0.45422964699588481 0 -0.49999999999999728 -0.45408921047276563 0 -0.48138761173868239 -0.45422964699588481 0 -0.49999999999999728 -0.45408921047276563 0 -0.49018680632206391 -0.44064550810531627 0 -0.49999999999999728 -0.45408921047276563 0 -0.49018680632206391 -0.44064550810531627 0 -0.5 -0.4257560974678698 0 -0.49018680632206391 -0.44064550810531627 0 -0.5 -0.4257560974678698 0 -0.47935961354957601 -0.42850707748474492 0 -0.5 -0.4257560974678698 0 -0.48804702071529538 -0.41488092223989093 0 -0.47935961354957601 -0.42850707748474492 0 -0.5 -0.4257560974678698 0 -0.48804702071529538 -0.41488092223989093 0 -0.5 -0.3974229844629743 0 -0.47935961354957601 -0.42850707748474492 0 -0.4773316153604692 -0.40278450797360521 0 -0.48804702071529538 -0.41488092223989093 0 -0.47935961354957601 -0.42850707748474492 0 -0.4773316153604692 -0.40278450797360521 0 -0.47935961354957601 -0.42850707748474492 0 -0.4773316153604692 -0.40278450797360521 0 -0.46274594547517078 -0.41640382124184999 0 -0.46881909130798038 -0.44212163451200648 0 -0.47935961354957601 -0.42850707748474492 0 -0.4625990924266018 -0.43119874154692422 0 -0.5 -0.3974229844629743 0 -0.48302533777104251 -0.38214251036411861 0 -0.50000000000000067 -0.36908987145807859 0 -0.48804702071529538 -0.41488092223989093 0 -0.5 -0.3974229844629743 0 -0.4773316153604692 -0.40278450797360521 0 -0.5 -0.3974229844629743 0 -0.4773316153604692 -0.40278450797360521 0 -0.48302533777104251 -0.38214251036411861 0 -0.4773316153604692 -0.40278450797360521 0 -0.48302533777104251 -0.38214251036411861 0 -0.46221463481917069 -0.38289499813441241 0 -0.46221463481917069 -0.38289499813441241 0 -0.46069401266240662 -0.40014407855785539 0 -0.44978528752472741 -0.39006088072760198 0 -0.4773316153604692 -0.40278450797360521 0 -0.46221463481917069 -0.38289499813441241 0 -0.46069401266240662 -0.40014407855785539 0 -0.44814143371193832 -0.40434767194918619 0 -0.42953284928574709 -0.4145545832784821 0 -0.43554439847432919 -0.3941996887913064 0 -0.44814143371193832 -0.40434767194918619 0 -0.44978528752472741 -0.39006088072760198 0 -0.43554439847432919 -0.3941996887913064 0 -0.46069401266240662 -0.40014407855785539 0 -0.44814143371193832 -0.40434767194918619 0 -0.44978528752472741 -0.39006088072760198 0 -0.43554439847432919 -0.3941996887913064 0 -0.44233195795579228 -0.36871796620524971 0 -0.44978528752472741 -0.39006088072760198 0 -0.43554439847432919 -0.3941996887913064 0 -0.44233195795579228 -0.36871796620524971 0 -0.46221463481917069 -0.38289499813441241 0 -0.44978528752472741 -0.39006088072760198 0 -0.44233195795579228 -0.36871796620524971 0 -0.45774322903228593 -0.44230436361675468 0 -0.4625990924266018 -0.43119874154692422 0 -0.4463828207793834 -0.42942735539237342 0 -0.4625990924266018 -0.43119874154692422 0 -0.46274594547517078 -0.41640382124184999 0 -0.4463828207793834 -0.42942735539237342 0 -0.47935961354957601 -0.42850707748474492 0 -0.4625990924266018 -0.43119874154692422 0 -0.46274594547517078 -0.41640382124184999 0 -0.4773316153604692 -0.40278450797360521 0 -0.46069401266240662 -0.40014407855785539 0 -0.46274594547517078 -0.41640382124184999 0 -0.46069401266240662 -0.40014407855785539 0 -0.44814143371193832 -0.40434767194918619 0 -0.46274594547517078 -0.41640382124184999 0 -0.44814143371193832 -0.40434767194918619 0 -0.46274594547517078 -0.41640382124184999 0 -0.4463828207793834 -0.42942735539237342 0 -0.44814143371193832 -0.40434767194918619 0 -0.4463828207793834 -0.42942735539237342 0 -0.44814143371193832 -0.40434767194918619 0 -0.4463828207793834 -0.42942735539237342 0 -0.42953284928574709 -0.4145545832784821 0 -0.42670778597278308 -0.43271737934830468 0 -0.42953284928574709 -0.4145545832784821 0 -0.41583972448732448 -0.42483096564256151 0 -0.4463828207793834 -0.42942735539237342 0 -0.42670778597278308 -0.43271737934830468 0 -0.43574418429157241 -0.44562500293402801 0 -0.4463828207793834 -0.42942735539237342 0 -0.42670778597278308 -0.43271737934830468 0 -0.42953284928574709 -0.4145545832784821 0 -0.42953284928574709 -0.4145545832784821 0 -0.41146627302500971 -0.41296784655426272 0 -0.41583972448732448 -0.42483096564256151 0 -0.42953284928574709 -0.4145545832784821 0 -0.41146627302500971 -0.41296784655426272 0 -0.41885592468948679 -0.39848598209027708 0 -0.41146627302500971 -0.41296784655426272 0 -0.41583972448732448 -0.42483096564256151 0 -0.39959555789722889 -0.41857528874570088 0 -0.41583972448732448 -0.42483096564256151 0 -0.4071609459927148 -0.43580490580461828 0 -0.39959555789722889 -0.41857528874570088 0 -0.42670778597278308 -0.43271737934830468 0 -0.41583972448732448 -0.42483096564256151 0 -0.4071609459927148 -0.43580490580461828 0 -0.42779706167924059 -0.37849117133133742 0 -0.43554439847432919 -0.3941996887913064 0 -0.44233195795579228 -0.36871796620524971 0 -0.42779706167924059 -0.37849117133133742 0 -0.43554439847432919 -0.3941996887913064 0 -0.41885592468948679 -0.39848598209027708 0 -0.42953284928574709 -0.4145545832784821 0 -0.43554439847432919 -0.3941996887913064 0 -0.41885592468948679 -0.39848598209027708 0 -0.41146627302500971 -0.41296784655426272 0 -0.41885592468948679 -0.39848598209027708 0 -0.40068662112655401 -0.40001404289578729 0 -0.41885592468948679 -0.39848598209027708 0 -0.41042484112067729 -0.38072381574353908 0 -0.40068662112655401 -0.40001404289578729 0 -0.42779706167924059 -0.37849117133133742 0 -0.41885592468948679 -0.39848598209027708 0 -0.41042484112067729 -0.38072381574353908 0 -0.41042484112067729 -0.38072381574353908 0 -0.39514236395095781 -0.38339100338852272 0 -0.40068662112655401 -0.40001404289578729 0 -0.40068662112655401 -0.40001404289578729 0 -0.3807372311631434 -0.39469098379688028 0 -0.3910646184638335 -0.40855348404470582 0 -0.39514236395095781 -0.38339100338852272 0 -0.40068662112655401 -0.40001404289578729 0 -0.3807372311631434 -0.39469098379688028 0 -0.39514236395095781 -0.38339100338852272 0 -0.3807372311631434 -0.39469098379688028 0 -0.38673086369127158 -0.36576866811328818 0 -0.3807372311631434 -0.39469098379688028 0 -0.38673086369127158 -0.36576866811328818 0 -0.36152648567755702 -0.38576457033994238 0 -0.3807372311631434 -0.39469098379688028 0 -0.38673086369127158 -0.36576866811328818 0 -0.4071609459927148 -0.43580490580461828 0 -0.39959555789722889 -0.41857528874570088 0 -0.39051041839720491 -0.42843126901670808 0 -0.4071609459927148 -0.43580490580461828 0 -0.39051041839720491 -0.42843126901670808 0 -0.38700241938266999 -0.44341851655563508 0 -0.40068662112655401 -0.40001404289578729 0 -0.39959555789722889 -0.41857528874570088 0 -0.3910646184638335 -0.40855348404470582 0 -0.41146627302500971 -0.41296784655426272 0 -0.40068662112655401 -0.40001404289578729 0 -0.39959555789722889 -0.41857528874570088 0 -0.39959555789722889 -0.41857528874570088 0 -0.38552593535486668 -0.417359193571333 0 -0.39051041839720491 -0.42843126901670808 0 -0.39959555789722889 -0.41857528874570088 0 -0.3910646184638335 -0.40855348404470582 0 -0.38552593535486668 -0.417359193571333 0 -0.3807372311631434 -0.39469098379688028 0 -0.38552593535486668 -0.417359193571333 0 -0.37474359863501688 -0.42361329948047283 0 -0.3807372311631434 -0.39469098379688028 0 -0.3910646184638335 -0.40855348404470582 0 -0.38552593535486668 -0.417359193571333 0 -0.3807372311631434 -0.39469098379688028 0 -0.37474359863501688 -0.42361329948047283 0 -0.37304605726057449 -0.4208707701534678 0 -0.3807372311631434 -0.39469098379688028 0 -0.37474359863501688 -0.42361329948047283 0 -0.38700241938266999 -0.44341851655563508 0 -0.37474359863501688 -0.42361329948047283 0 -0.38552593535486668 -0.417359193571333 0 -0.39051041839720491 -0.42843126901670808 0 -0.37474359863501688 -0.42361329948047283 0 -0.38700241938266999 -0.44341851655563508 0 -0.37436056689416958 -0.42546162182482389 0 -0.37474359863501688 -0.42361329948047283 0 -0.38700241938266999 -0.44341851655563508 0 -0.37492324653409759 -0.43986936384834302 0 -0.37436056689416958 -0.42546162182482389 0 -0.39051041839720491 -0.42843126901670808 0 -0.38700241938266999 -0.44341851655563508 0 -0.37474359863501688 -0.42361329948047283 0 -0.37523877267138578 -0.45255939779237242 0 -0.38700241938266999 -0.44341851655563508 0 -0.37492324653409759 -0.43986936384834302 0 -0.37523877267138578 -0.45255939779237242 0 -0.38700241938266999 -0.44341851655563508 0 -0.38545548133407148 -0.46160157247570638 0 -0.4071609459927148 -0.43580490580461828 0 -0.38700241938266999 -0.44341851655563508 0 -0.40825520629944978 -0.45103855446246072 0 -0.38700241938266999 -0.44341851655563508 0 -0.39926124013032199 -0.463223733630798 0 -0.40825520629944978 -0.45103855446246072 0 -0.39926124013032199 -0.463223733630798 0 -0.38545548133407148 -0.46160157247570638 0 -0.38752118070399472 -0.48061486709336337 0 -0.38700241938266999 -0.44341851655563508 0 -0.39926124013032199 -0.463223733630798 0 -0.37523877267138578 -0.45255939779237242 0 -0.38545548133407148 -0.46160157247570638 0 -0.37606745728253982 -0.4686231826298955 0 -0.38700241938266999 -0.44341851655563508 0 -0.39926124013032199 -0.463223733630798 0 -0.38545548133407148 -0.46160157247570638 0 -0.37606745728253982 -0.4686231826298955 0 -0.38752118070399472 -0.48061486709336337 0 -0.36302964774588309 -0.47820879411623751 0 -0.38545548133407148 -0.46160157247570638 0 -0.37606745728253982 -0.4686231826298955 0 -0.38752118070399472 -0.48061486709336337 0 -0.38752118070399472 -0.48061486709336337 0 -0.36302964774588309 -0.47820879411623751 0 -0.38752118070399472 -0.48061486709336337 0 -0.38689476076400092 -0.49122870179199091 0 -0.36317673097034969 -0.48725438860195491 0 -0.38689476076400092 -0.49122870179199091 0 -0.36317673097034969 -0.48725438860195491 0 -0.39014369807534632 -0.5 0 -0.38689476076400092 -0.49122870179199091 0 -0.36338397722986482 -0.50000000000000866 0 -0.39014369807534632 -0.5 0 -0.38689476076400092 -0.49122870179199091 0 -0.41061279055765387 -0.49520301498201519 0 -0.38689476076400092 -0.49122870179199091 0 -0.40037940671539318 -0.48791491989034941 0 -0.41061279055765387 -0.49520301498201519 0 -0.38689476076400092 -0.49122870179199091 0 -0.41061279055765387 -0.49520301498201519 0 -0.39014369807534632 -0.5 0 -0.41061279055765387 -0.49520301498201519 0 -0.41690341892082788 -0.49999999999999928 0 -0.38752118070399472 -0.48061486709336337 0 -0.38689476076400092 -0.49122870179199091 0 -0.40037940671539318 -0.48791491989034941 0 -0.39926124013032199 -0.463223733630798 0 -0.41152006087797549 -0.48302895070596003 0 -0.38752118070399472 -0.48061486709336337 0 -0.41152006087797549 -0.48302895070596003 0 -0.39926124013032199 -0.463223733630798 0 -0.38752118070399472 -0.48061486709336337 0 -0.41152006087797549 -0.48302895070596003 0 -0.38752118070399472 -0.48061486709336337 0 -0.40037940671539318 -0.48791491989034941 0 -0.41152006087797549 -0.48302895070596003 0 -0.41152006087797549 -0.48302895070596003 0 -0.41902425738007593 -0.4837838091689407 0 -0.42120592238908738 -0.4671025310822518 0 -0.39926124013032199 -0.463223733630798 0 -0.41152006087797549 -0.48302895070596003 0 -0.42120592238908738 -0.4671025310822518 0 -0.41902425738007593 -0.4837838091689407 0 -0.42120592238908738 -0.4671025310822518 0 -0.41152006087797549 -0.48302895070596003 0 -0.41902425738007593 -0.4837838091689407 0 -0.41902425738007593 -0.4837838091689407 0 -0.41690341892082788 -0.49999999999999928 0 -0.41902425738007593 -0.4837838091689407 0 -0.41560994465725032 -0.48963652232546367 0 -0.41690341892082788 -0.49999999999999928 0 -0.40037940671539318 -0.48791491989034941 0 -0.41152006087797549 -0.48302895070596003 0 -0.40953055070206817 -0.48894585197594709 0 -0.40037940671539318 -0.48791491989034941 0 -0.41061279055765387 -0.49520301498201519 0 -0.40953055070206817 -0.48894585197594709 0 -0.41061279055765387 -0.49520301498201519 0 -0.40953055070206817 -0.48894585197594709 0 -0.41560994465725032 -0.48963652232546367 0 -0.41152006087797549 -0.48302895070596003 0 -0.40953055070206817 -0.48894585197594709 0 -0.41560994465725032 -0.48963652232546367 0 -0.41152006087797549 -0.48302895070596003 0 -0.41560994465725032 -0.48963652232546367 0 -0.41152006087797549 -0.48302895070596003 0 -0.41902425738007593 -0.4837838091689407 0 -0.41560994465725032 -0.48963652232546367 0 -0.41061279055765387 -0.49520301498201519 0 -0.41560994465725032 -0.48963652232546367 0 -0.41690341892082788 -0.49999999999999928 0 -0.44143419510104448 -0.49999999999999828 0 -0.41690341892082788 -0.49999999999999928 0 -0.42998389901262257 -0.49223093413565128 0 -0.4424063633743498 -0.48613585053501868 0 -0.41902425738007593 -0.4837838091689407 0 -0.42998389901262257 -0.49223093413565128 0 -0.41902425738007593 -0.4837838091689407 0 -0.41690341892082788 -0.49999999999999928 0 -0.42998389901262257 -0.49223093413565128 0 -0.4424063633743498 -0.48613585053501868 0 -0.41902425738007593 -0.4837838091689407 0 -0.4424063633743498 -0.48613585053501868 0 -0.41902425738007593 -0.4837838091689407 0 -0.4318424324615075 -0.47424119986454188 0 -0.41902425738007593 -0.4837838091689407 0 -0.4318424324615075 -0.47424119986454188 0 -0.42120592238908738 -0.4671025310822518 0 -0.44351528561058873 -0.47032144468528952 0 -0.4318424324615075 -0.47424119986454188 0 -0.43306033355343593 -0.46386236385120833 0 -0.42338758739810151 -0.45042125299556318 0 -0.42120592238908738 -0.4671025310822518 0 -0.43306033355343593 -0.46386236385120833 0 -0.42338758739810151 -0.45042125299556318 0 -0.42120592238908738 -0.4671025310822518 0 -0.44351528561058873 -0.47032144468528952 0 -0.43306033355343593 -0.46386236385120833 0 -0.43545719660048932 -0.4578230811475259 0 -0.4318424324615075 -0.47424119986454188 0 -0.43306033355343593 -0.46386236385120833 0 -0.42120592238908738 -0.4671025310822518 0 -0.43306033355343593 -0.46386236385120833 0 -0.43230199482794951 -0.45214306443840468 0 -0.42338758739810151 -0.45042125299556318 0 -0.4410607089243882 -0.45453392659396152 0 -0.43545719660048932 -0.4578230811475259 0 -0.43230199482794951 -0.45214306443840468 0 -0.43306033355343593 -0.46386236385120833 0 -0.43545719660048932 -0.4578230811475259 0 -0.43230199482794951 -0.45214306443840468 0 -0.42670778597278308 -0.43271737934830468 0 -0.43574418429157241 -0.44562500293402801 0 -0.42338758739810151 -0.45042125299556318 0 -0.43574418429157241 -0.44562500293402801 0 -0.43230199482794951 -0.45214306443840468 0 -0.42338758739810151 -0.45042125299556318 0 -0.4410607089243882 -0.45453392659396152 0 -0.43574418429157241 -0.44562500293402801 0 -0.43230199482794951 -0.45214306443840468 0 -0.42670778597278308 -0.43271737934830468 0 -0.4071609459927148 -0.43580490580461828 0 -0.42338758739810151 -0.45042125299556318 0 -0.4071609459927148 -0.43580490580461828 0 -0.42338758739810151 -0.45042125299556318 0 -0.40825520629944978 -0.45103855446246072 0 -0.42338758739810151 -0.45042125299556318 0 -0.40825520629944978 -0.45103855446246072 0 -0.42120592238908738 -0.4671025310822518 0 -0.39926124013032199 -0.463223733630798 0 -0.40825520629944978 -0.45103855446246072 0 -0.42120592238908738 -0.4671025310822518 0 -0.44120272965231438 -0.256937137247359 0 -0.42763257702111179 -0.24781447733042861 0 -0.45141716021597178 -0.24656667005739549 0 -0.44120272965231438 -0.256937137247359 0 -0.44658702462584438 -0.26952213823611632 0 -0.42649965611174412 -0.26171220266699291 0 -0.45264898928853969 -0.2592656638202277 0 -0.44658702462584438 -0.26952213823611632 0 -0.45988543620386552 -0.26467518791936617 0 -0.45264898928853969 -0.2592656638202277 0 -0.44120272965231438 -0.256937137247359 0 -0.44658702462584438 -0.26952213823611632 0 -0.45264898928853969 -0.2592656638202277 0 -0.44120272965231438 -0.256937137247359 0 -0.45141716021597178 -0.24656667005739549 0 -0.44658702462584438 -0.26952213823611632 0 -0.45013265931438462 -0.28599824843532301 0 -0.43612803693242691 -0.28593009126032198 0 -0.44658702462584438 -0.26952213823611632 0 -0.43612803693242691 -0.28593009126032198 0 -0.43165809570899938 -0.27368428275041051 0 -0.44658702462584438 -0.26952213823611632 0 -0.46667439313994519 -0.27733207380523878 0 -0.45013265931438462 -0.28599824843532301 0 -0.44658702462584438 -0.26952213823611632 0 -0.46667439313994519 -0.27733207380523878 0 -0.44658702462584438 -0.26952213823611632 0 -0.46667439313994519 -0.27733207380523878 0 -0.45988543620386552 -0.26467518791936617 0 -0.46667439313994519 -0.27733207380523878 0 -0.45988543620386552 -0.26467518791936617 0 -0.47093806827538792 -0.26132546829480019 0 -0.46667439313994519 -0.27733207380523878 0 -0.47124330577428419 -0.27910845946123392 0 -0.46451502206222001 -0.28543874232332089 0 -0.45988543620386552 -0.26467518791936617 0 -0.46257870568960979 -0.25593059544044777 0 -0.47093806827538792 -0.26132546829480019 0 -0.45264898928853969 -0.2592656638202277 0 -0.45988543620386552 -0.26467518791936617 0 -0.46257870568960979 -0.25593059544044777 0 -0.45264898928853969 -0.2592656638202277 0 -0.46257870568960979 -0.25593059544044777 0 -0.45141716021597178 -0.24656667005739549 0 -0.47093806827538792 -0.26132546829480019 0 -0.47888787600929211 -0.25745611867219048 0 -0.47520174341083171 -0.24531886278436199 0 -0.47888787600929211 -0.25745611867219048 0 -0.4932475875621487 -0.25840580573030841 0 -0.47124330577428419 -0.27910845946123392 0 -0.47093806827538792 -0.26132546829480019 0 -0.47520174341083171 -0.24531886278436199 0 -0.46257870568960979 -0.25593059544044777 0 -0.47093806827538792 -0.26132546829480019 0 -0.47520174341083171 -0.24531886278436199 0 -0.47888787600929211 -0.25745611867219048 0 -0.4932475875621487 -0.25840580573030841 0 -0.4782957046309152 -0.2451565447281136 0 -0.4932475875621487 -0.25840580573030841 0 -0.4782957046309152 -0.2451565447281136 0 -0.4932475875621487 -0.25840580573030841 0 -0.49999999999999911 -0.26438929792289678 0 -0.49999999999999911 -0.25205282143857172 0 -0.4932475875621487 -0.25840580573030841 0 -0.49999999999999911 -0.26438929792289678 0 -0.4932475875621487 -0.25840580573030841 0 -0.49999999999999911 -0.25205282143857172 0 -0.4932475875621487 -0.25840580573030841 0 -0.49999999999999911 -0.25205282143857172 0 -0.499999999999999 -0.24401787530533059 0 -0.4932475875621487 -0.25840580573030841 0 -0.49999999999999911 -0.26438929792289678 0 -0.48562165288714099 -0.28469873697633541 0 -0.49999999999999911 -0.26438929792289678 0 -0.48562165288714099 -0.28469873697633541 0 -0.49999999999999828 -0.29028901449143502 0 -0.4932475875621487 -0.25840580573030841 0 -0.47124330577428419 -0.27910845946123392 0 -0.48562165288714099 -0.28469873697633541 0 -0.47093806827538792 -0.26132546829480019 0 -0.47888787600929211 -0.25745611867219048 0 -0.47124330577428419 -0.27910845946123392 0 -0.46667439313994519 -0.27733207380523878 0 -0.47093806827538792 -0.26132546829480019 0 -0.4932475875621487 -0.25840580573030841 0 -0.47124330577428419 -0.27910845946123392 0 -0.46667439313994519 -0.27733207380523878 0 -0.47093806827538792 -0.26132546829480019 0 -0.47124330577428419 -0.27910845946123392 0 -0.46667439313994519 -0.27733207380523878 0 -0.47124330577428419 -0.27910845946123392 0 -0.47713793115993353 -0.29030381753786078 0 -0.47572857788368073 -0.30390029353684661 0 -0.46451502206222001 -0.28543874232332089 0 -0.47124330577428419 -0.27910845946123392 0 -0.47713793115993353 -0.29030381753786078 0 -0.46451502206222001 -0.28543874232332089 0 -0.47713793115993353 -0.29030381753786078 0 -0.48562165288714099 -0.28469873697633541 0 -0.48858109719234111 -0.29837285539156688 0 -0.47124330577428419 -0.27910845946123392 0 -0.48562165288714099 -0.28469873697633541 0 -0.47124330577428419 -0.27910845946123392 0 -0.47713793115993353 -0.29030381753786078 0 -0.48562165288714099 -0.28469873697633541 0 -0.48562165288714099 -0.28469873697633541 0 -0.49999999999999828 -0.29028901449143502 0 -0.48858109719234111 -0.29837285539156688 0 -0.48562165288714099 -0.28469873697633541 0 -0.49999999999999828 -0.29028901449143502 0 -0.49999999999999828 -0.29028901449143502 0 -0.48858109719234111 -0.29837285539156688 0 -0.5 -0.3165559668136495 0 -0.48858109719234111 -0.29837285539156688 0 -0.47572857788368073 -0.30390029353684661 0 -0.5 -0.3165559668136495 0 -0.47713793115993353 -0.29030381753786078 0 -0.48858109719234111 -0.29837285539156688 0 -0.47572857788368073 -0.30390029353684661 0 -0.47572857788368073 -0.30390029353684661 0 -0.46451502206222001 -0.28543874232332089 0 -0.45681726974973702 -0.31433749297125679 0 -0.46451502206222001 -0.28543874232332089 0 -0.45681726974973702 -0.31433749297125679 0 -0.46451502206222001 -0.28543874232332089 0 -0.44532382060721659 -0.30349471898430641 0 -0.45681726974973702 -0.31433749297125679 0 -0.46451502206222001 -0.28543874232332089 0 -0.44532382060721659 -0.30349471898430641 0 -0.46451502206222001 -0.28543874232332089 0 -0.45013265931438462 -0.28599824843532301 0 -0.44532382060721659 -0.30349471898430641 0 -0.46667439313994519 -0.27733207380523878 0 -0.46451502206222001 -0.28543874232332089 0 -0.45013265931438462 -0.28599824843532301 0 -0.46667439313994519 -0.27733207380523878 0 -0.46451502206222001 -0.28543874232332089 0 -0.47124330577428419 -0.27910845946123392 0 -0.46451502206222001 -0.28543874232332089 0 -0.45013265931438462 -0.28599824843532301 0 -0.44138398926955991 -0.294215948064944 0 -0.44532382060721659 -0.30349471898430641 0 -0.45013265931438462 -0.28599824843532301 0 -0.44138398926955991 -0.294215948064944 0 -0.43612803693242691 -0.28593009126032198 0 -0.44138398926955991 -0.294215948064944 0 -0.44532382060721659 -0.30349471898430641 0 -0.43395144022421128 -0.30144073357982482 0 -0.4411789711739772 -0.31003485740566938 0 -0.44532382060721659 -0.30349471898430641 0 -0.45681726974973702 -0.31433749297125679 0 -0.4411789711739772 -0.31003485740566938 0 -0.44532382060721659 -0.30349471898430641 0 -0.43395144022421128 -0.30144073357982482 0 -0.4411789711739772 -0.31003485740566938 0 -0.44447568631222922 -0.32538240669651158 0 -0.43078698688794848 -0.33392103278992791 0 -0.44447568631222922 -0.32538240669651158 0 -0.44911951743725392 -0.34323624361919242 0 -0.45681726974973702 -0.31433749297125679 0 -0.4411789711739772 -0.31003485740566938 0 -0.44447568631222922 -0.32538240669651158 0 -0.45681726974973702 -0.31433749297125679 0 -0.44911951743725392 -0.34323624361919242 0 -0.43078698688794848 -0.33392103278992791 0 -0.44911951743725392 -0.34323624361919242 0 -0.43444129555352018 -0.34942628457290231 0 -0.43078698688794848 -0.33392103278992791 0 -0.44447568631222922 -0.32538240669651158 0 -0.44911951743725392 -0.34323624361919242 0 -0.43078698688794848 -0.33392103278992791 0 -0.44911951743725392 -0.34323624361919242 0 -0.45681726974973702 -0.31433749297125679 0 -0.44911951743725392 -0.34323624361919242 0 -0.45681726974973702 -0.31433749297125679 0 -0.47727960797267521 -0.32964082242459131 0 -0.44911951743725392 -0.34323624361919242 0 -0.47727960797267521 -0.32964082242459131 0 -0.47455975871862732 -0.35616305753863547 0 -0.47572857788368073 -0.30390029353684661 0 -0.5 -0.3165559668136495 0 -0.47727960797267521 -0.32964082242459131 0 -0.47572857788368073 -0.30390029353684661 0 -0.45681726974973702 -0.31433749297125679 0 -0.47727960797267521 -0.32964082242459131 0 -0.5 -0.3165559668136495 0 -0.5 -0.34282291913586399 0 -0.47727960797267521 -0.32964082242459131 0 -0.5 -0.34282291913586399 0 -0.47727960797267521 -0.32964082242459131 0 -0.47455975871862732 -0.35616305753863547 0 -0.5 -0.34282291913586399 0 -0.47455975871862732 -0.35616305753863547 0 -0.50000000000000067 -0.36908987145807859 0 -0.47455975871862732 -0.35616305753863547 0 -0.50000000000000067 -0.36908987145807859 0 -0.48302533777104251 -0.38214251036411861 0 -0.47455975871862732 -0.35616305753863547 0 -0.50000000000000067 -0.36908987145807859 0 -0.48302533777104251 -0.38214251036411861 0 -0.46221463481917069 -0.38289499813441241 0 -0.47455975871862732 -0.35616305753863547 0 -0.46221463481917069 -0.38289499813441241 0 -0.45707152573412918 -0.36168342089410238 0 -0.44233195795579228 -0.36871796620524971 0 -0.46221463481917069 -0.38289499813441241 0 -0.47455975871862732 -0.35616305753863547 0 -0.45707152573412918 -0.36168342089410238 0 -0.44911951743725392 -0.34323624361919242 0 -0.47455975871862732 -0.35616305753863547 0 -0.45707152573412918 -0.36168342089410238 0 -0.44911951743725392 -0.34323624361919242 0 -0.47455975871862732 -0.35616305753863547 0 -0.44911951743725392 -0.34323624361919242 0 -0.44233195795579228 -0.36871796620524971 0 -0.43444129555352018 -0.34942628457290231 0 -0.44911951743725392 -0.34323624361919242 0 -0.45707152573412918 -0.36168342089410238 0 -0.44233195795579228 -0.36871796620524971 0 -0.44911951743725392 -0.34323624361919242 0 -0.44233195795579228 -0.36871796620524971 0 -0.42779706167924059 -0.37849117133133742 0 -0.44233195795579228 -0.36871796620524971 0 -0.42060591400430969 -0.35732242426673222 0 -0.42060591400430969 -0.35732242426673222 0 -0.43078698688794848 -0.33392103278992791 0 -0.44233195795579228 -0.36871796620524971 0 -0.43444129555352018 -0.34942628457290231 0 -0.42060591400430969 -0.35732242426673222 0 -0.43444129555352018 -0.34942628457290231 0 -0.42060591400430969 -0.35732242426673222 0 -0.43078698688794848 -0.33392103278992791 0 -0.42060591400430969 -0.35732242426673222 0 -0.40292378525749722 -0.35855919100743472 0 -0.41013094289028112 -0.3423652369551976 0 -0.42060591400430969 -0.35732242426673222 0 -0.41013094289028112 -0.3423652369551976 0 -0.43078698688794848 -0.33392103278992791 0 -0.41042484112067729 -0.38072381574353908 0 -0.42060591400430969 -0.35732242426673222 0 -0.41042484112067729 -0.38072381574353908 0 -0.42060591400430969 -0.35732242426673222 0 -0.40292378525749722 -0.35855919100743472 0 -0.42779706167924059 -0.37849117133133742 0 -0.41042484112067729 -0.38072381574353908 0 -0.42060591400430969 -0.35732242426673222 0 -0.39514236395095781 -0.38339100338852272 0 -0.38673086369127158 -0.36576866811328818 0 -0.40292378525749722 -0.35855919100743472 0 -0.41042484112067729 -0.38072381574353908 0 -0.39514236395095781 -0.38339100338852272 0 -0.40292378525749722 -0.35855919100743472 0 -0.38673086369127158 -0.36576866811328818 0 -0.37562157892520459 -0.34658809988542483 0 -0.39272449621939992 -0.33684635242969613 0 -0.38673086369127158 -0.36576866811328818 0 -0.39272449621939992 -0.33684635242969613 0 -0.40292378525749722 -0.35855919100743472 0 -0.39272449621939992 -0.33684635242969613 0 -0.41013094289028112 -0.3423652369551976 0 -0.38673086369127158 -0.36576866811328818 0 -0.40292378525749722 -0.35855919100743472 0 -0.39272449621939992 -0.33684635242969613 0 -0.39272449621939992 -0.33684635242969613 0 -0.39153647432207977 -0.32564094008476918 0 -0.41158216230716582 -0.32416258785359398 0 -0.39272449621939992 -0.33684635242969613 0 -0.41158216230716582 -0.32416258785359398 0 -0.41013094289028112 -0.3423652369551976 0 -0.39272449621939992 -0.33684635242969613 0 -0.37683724732983281 -0.33491370190076419 0 -0.3803178672636206 -0.32669712071148821 0 -0.37562157892520459 -0.34658809988542483 0 -0.39272449621939992 -0.33684635242969613 0 -0.37683724732983281 -0.33491370190076419 0 -0.39272449621939992 -0.33684635242969613 0 -0.3803178672636206 -0.32669712071148821 0 -0.39153647432207977 -0.32564094008476918 0 -0.37683724732983281 -0.33491370190076419 0 -0.3803178672636206 -0.32669712071148821 0 -0.37369941263681661 -0.32656020472875741 0 -0.392377337726382 -0.31440414291726199 0 -0.37369941263681661 -0.32656020472875741 0 -0.3803178672636206 -0.32669712071148821 0 -0.392377337726382 -0.31440414291726199 0 -0.37369941263681661 -0.32656020472875741 0 -0.392377337726382 -0.31440414291726199 0 -0.37623840079006132 -0.30620355109401381 0 -0.37369941263681661 -0.32656020472875741 0 -0.3803178672636206 -0.32669712071148821 0 -0.37369941263681661 -0.32656020472875741 0 -0.3803178672636206 -0.32669712071148821 0 -0.392377337726382 -0.31440414291726199 0 -0.39153647432207977 -0.32564094008476918 0 -0.392377337726382 -0.31440414291726199 0 -0.41158216230716582 -0.32416258785359398 0 -0.41425268732940468 -0.3001671170887924 0 -0.392377337726382 -0.31440414291726199 0 -0.41158216230716582 -0.32416258785359398 0 -0.392377337726382 -0.31440414291726199 0 -0.39153647432207977 -0.32564094008476918 0 -0.41158216230716582 -0.32416258785359398 0 -0.41158216230716582 -0.32416258785359398 0 -0.42525746678358622 -0.31474589073722481 0 -0.41425268732940468 -0.3001671170887924 0 -0.41158216230716582 -0.32416258785359398 0 -0.43078698688794848 -0.33392103278992791 0 -0.41158216230716582 -0.32416258785359398 0 -0.41013094289028112 -0.3423652369551976 0 -0.43078698688794848 -0.33392103278992791 0 -0.41158216230716582 -0.32416258785359398 0 -0.43078698688794848 -0.33392103278992791 0 -0.42525746678358622 -0.31474589073722481 0 -0.4411789711739772 -0.31003485740566938 0 -0.43078698688794848 -0.33392103278992791 0 -0.4411789711739772 -0.31003485740566938 0 -0.43078698688794848 -0.33392103278992791 0 -0.42525746678358622 -0.31474589073722481 0 -0.42525746678358622 -0.31474589073722481 0 -0.43395144022421128 -0.30144073357982482 0 -0.41425268732940468 -0.3001671170887924 0 -0.4411789711739772 -0.31003485740566938 0 -0.42525746678358622 -0.31474589073722481 0 -0.43395144022421128 -0.30144073357982482 0 -0.44138398926955991 -0.294215948064944 0 -0.43395144022421128 -0.30144073357982482 0 -0.43612803693242691 -0.28593009126032198 0 -0.43395144022421128 -0.30144073357982482 0 -0.43612803693242691 -0.28593009126032198 0 -0.41425268732940468 -0.3001671170887924 0 -0.43612803693242691 -0.28593009126032198 0 -0.41425268732940468 -0.3001671170887924 0 -0.41863504732985618 -0.27426773070593802 0 -0.43612803693242691 -0.28593009126032198 0 -0.41425268732940468 -0.3001671170887924 0 -0.41425268732940468 -0.3001671170887924 0 -0.40185880261470441 -0.28474952742808818 0 -0.41863504732985618 -0.27426773070593802 0 -0.392377337726382 -0.31440414291726199 0 -0.41425268732940468 -0.3001671170887924 0 -0.392377337726382 -0.31440414291726199 0 -0.41425268732940468 -0.3001671170887924 0 -0.39055289243931979 -0.29516067027328341 0 -0.37623840079006132 -0.30620355109401381 0 -0.39055289243931979 -0.29516067027328341 0 -0.37336964109825771 -0.28982497539752339 0 -0.392377337726382 -0.31440414291726199 0 -0.37623840079006132 -0.30620355109401381 0 -0.39055289243931979 -0.29516067027328341 0 -0.392377337726382 -0.31440414291726199 0 -0.37623840079006132 -0.30620355109401381 0 -0.39055289243931979 -0.29516067027328341 0 -0.3802721540238026 -0.27722609237384688 0 -0.37336964109825771 -0.28982497539752339 0 -0.39055289243931979 -0.29516067027328341 0 -0.39287773518642177 -0.27665261603387159 0 -0.3802721540238026 -0.27722609237384688 0 -0.39055289243931979 -0.29516067027328341 0 -0.40185880261470441 -0.28474952742808818 0 -0.39287773518642177 -0.27665261603387159 0 -0.41425268732940468 -0.3001671170887924 0 -0.39055289243931979 -0.29516067027328341 0 -0.40185880261470441 -0.28474952742808818 0 -0.40185880261470441 -0.28474952742808818 0 -0.39287773518642177 -0.27665261603387159 0 -0.39884707319156548 -0.26519857003084207 0 -0.39287773518642177 -0.27665261603387159 0 -0.38625979695972951 -0.26654046913913881 0 -0.39884707319156548 -0.26519857003084207 0 -0.39287773518642177 -0.27665261603387159 0 -0.38625979695972951 -0.26654046913913881 0 -0.3802721540238026 -0.27722609237384688 0 -0.38625979695972951 -0.26654046913913881 0 -0.3802721540238026 -0.27722609237384688 0 -0.37960949725433718 -0.26507081497102081 0 -0.3802721540238026 -0.27722609237384688 0 -0.37960949725433718 -0.26507081497102081 0 -0.37300762464251158 -0.26652156681227579 0 -0.38013376635666379 -0.25484773029434632 0 -0.38586234845556888 -0.25555171366537072 0 -0.39884707319156548 -0.26519857003084207 0 -0.38625979695972951 -0.26654046913913881 0 -0.38013376635666379 -0.25484773029434632 0 -0.39884707319156548 -0.26519857003084207 0 -0.38013376635666379 -0.25484773029434632 0 -0.39884707319156548 -0.26519857003084207 0 -0.38013376635666379 -0.25484773029434632 0 -0.37960949725433718 -0.26507081497102081 0 -0.37300762464251158 -0.26652156681227579 0 -0.38625979695972951 -0.26654046913913881 0 -0.38013376635666379 -0.25484773029434632 0 -0.37960949725433718 -0.26507081497102081 0 -0.38013376635666379 -0.25484773029434632 0 -0.38586234845556888 -0.25555171366537072 0 -0.38750790922318279 -0.2499605689316706 0 -0.38586234845556888 -0.25555171366537072 0 -0.39255427972155021 -0.25312428942571569 0 -0.38750790922318279 -0.2499605689316706 0 -0.39255427972155021 -0.25312428942571569 0 -0.39884707319156548 -0.26519857003084207 0 -0.39945086494686688 -0.25153957108528269 0 -0.38586234845556888 -0.25555171366537072 0 -0.39255427972155021 -0.25312428942571569 0 -0.39884707319156548 -0.26519857003084207 0 -0.39884707319156548 -0.26519857003084207 0 -0.39945086494686688 -0.25153957108528269 0 -0.40641228759764358 -0.25390226709786939 0 -0.40641228759764358 -0.25390226709786939 0 -0.42649965611174412 -0.26171220266699291 0 -0.41770938798862639 -0.24842336549052499 0 -0.40641228759764358 -0.25390226709786939 0 -0.41863504732985618 -0.27426773070593802 0 -0.42649965611174412 -0.26171220266699291 0 -0.39884707319156548 -0.26519857003084207 0 -0.40641228759764358 -0.25390226709786939 0 -0.41863504732985618 -0.27426773070593802 0 -0.40641228759764358 -0.25390226709786939 0 -0.42649965611174412 -0.26171220266699291 0 -0.40185880261470441 -0.28474952742808818 0 -0.39884707319156548 -0.26519857003084207 0 -0.41863504732985618 -0.27426773070593802 0 -0.39884707319156548 -0.26519857003084207 0 -0.41863504732985618 -0.27426773070593802 0 -0.43612803693242691 -0.28593009126032198 0 -0.41863504732985618 -0.27426773070593802 0 -0.43165809570899938 -0.27368428275041051 0 -0.41863504732985618 -0.27426773070593802 0 -0.43165809570899938 -0.27368428275041051 0 -0.42649965611174412 -0.26171220266699291 0 -0.44658702462584438 -0.26952213823611632 0 -0.43165809570899938 -0.27368428275041051 0 -0.42649965611174412 -0.26171220266699291 0 -0.44658702462584438 -0.26952213823611632 0 -0.42649965611174412 -0.26171220266699291 0 -0.44120272965231438 -0.256937137247359 0 -0.42649965611174412 -0.26171220266699291 0 -0.42763257702111179 -0.24781447733042861 0 -0.42649965611174412 -0.26171220266699291 0 -0.42763257702111179 -0.24781447733042861 0 -0.41770938798862639 -0.24842336549052499 0 -0.32297120194301748 -0.26017618522091401 0 -0.29674336521112071 -0.25577230774603738 0 -0.32099492036963639 -0.24418431014163919 0 -0.32297120194301748 -0.26017618522091401 0 -0.30637222787003549 -0.28232139730844241 0 -0.32297120194301748 -0.26017618522091401 0 -0.33733317165247673 -0.28643484481515219 0 -0.30637222787003549 -0.28232139730844241 0 -0.32297120194301748 -0.26017618522091401 0 -0.34376619378216883 -0.26084677116516142 0 -0.33733317165247673 -0.28643484481515219 0 -0.32297120194301748 -0.26017618522091401 0 -0.34376619378216883 -0.26084677116516142 0 -0.33957017601599992 -0.23803097313338581 0 -0.34376619378216883 -0.26084677116516142 0 -0.35968529438436381 -0.27253160397570708 0 -0.35927112491498542 -0.2470602486806481 0 -0.38013376635666379 -0.25484773029434632 0 -0.37300762464251158 -0.26652156681227579 0 -0.35927112491498542 -0.2470602486806481 0 -0.35968529438436381 -0.27253160397570708 0 -0.37300762464251158 -0.26652156681227579 0 -0.35927112491498542 -0.2470602486806481 0 -0.38013376635666379 -0.25484773029434632 0 -0.35927112491498542 -0.2470602486806481 0 -0.35968529438436381 -0.27253160397570708 0 -0.35927112491498542 -0.2470602486806481 0 -0.3802721540238026 -0.27722609237384688 0 -0.35968529438436381 -0.27253160397570708 0 -0.37336964109825771 -0.28982497539752339 0 -0.3802721540238026 -0.27722609237384688 0 -0.35968529438436381 -0.27253160397570708 0 -0.37300762464251158 -0.26652156681227579 0 -0.34376619378216883 -0.26084677116516142 0 -0.35968529438436381 -0.27253160397570708 0 -0.33733317165247673 -0.28643484481515219 0 -0.36009946385374048 -0.29800295927076598 0 -0.33733317165247673 -0.28643484481515219 0 -0.35968529438436381 -0.27253160397570708 0 -0.36009946385374048 -0.29800295927076598 0 -0.33733317165247673 -0.28643484481515219 0 -0.35968529438436381 -0.27253160397570708 0 -0.37336964109825771 -0.28982497539752339 0 -0.36009946385374048 -0.29800295927076598 0 -0.35968529438436381 -0.27253160397570708 0 -0.36009946385374048 -0.29800295927076598 0 -0.37623840079006132 -0.30620355109401381 0 -0.36009946385374048 -0.29800295927076598 0 -0.37623840079006132 -0.30620355109401381 0 -0.36009946385374048 -0.29800295927076598 0 -0.36764916695952182 -0.31426377304049541 0 -0.37623840079006132 -0.30620355109401381 0 -0.37336964109825771 -0.28982497539752339 0 -0.36009946385374048 -0.29800295927076598 0 -0.36009946385374048 -0.29800295927076598 0 -0.36055939055746827 -0.32628837706844388 0 -0.36009946385374048 -0.29800295927076598 0 -0.34283232562981658 -0.30830311747967087 0 -0.36055939055746827 -0.32628837706844388 0 -0.36009946385374048 -0.29800295927076598 0 -0.34283232562981658 -0.30830311747967087 0 -0.33733317165247673 -0.28643484481515219 0 -0.34283232562981658 -0.30830311747967087 0 -0.33733317165247673 -0.28643484481515219 0 -0.32175897868338088 -0.30504196876857392 0 -0.33733317165247673 -0.28643484481515219 0 -0.32175897868338088 -0.30504196876857392 0 -0.30637222787003549 -0.28232139730844241 0 -0.32175897868338088 -0.30504196876857392 0 -0.33441062340201338 -0.32574743747541829 0 -0.30826185624655872 -0.32520649788239259 0 -0.33441062340201338 -0.32574743747541829 0 -0.30826185624655872 -0.32520649788239259 0 -0.31889879392202669 -0.34284124353802659 0 -0.33441062340201338 -0.32574743747541829 0 -0.30826185624655872 -0.32520649788239259 0 -0.31889879392202669 -0.34284124353802659 0 -0.34127437858213588 -0.33862208131725702 0 -0.33441062340201338 -0.32574743747541829 0 -0.34283232562981658 -0.30830311747967087 0 -0.32175897868338088 -0.30504196876857392 0 -0.33441062340201338 -0.32574743747541829 0 -0.34283232562981658 -0.30830311747967087 0 -0.33441062340201338 -0.32574743747541829 0 -0.36055939055746827 -0.32628837706844388 0 -0.33441062340201338 -0.32574743747541829 0 -0.36055939055746827 -0.32628837706844388 0 -0.36009946385374048 -0.29800295927076598 0 -0.36055939055746827 -0.32628837706844388 0 -0.36764916695952182 -0.31426377304049541 0 -0.37623840079006132 -0.30620355109401381 0 -0.37369941263681661 -0.32656020472875741 0 -0.36764916695952182 -0.31426377304049541 0 -0.36055939055746827 -0.32628837706844388 0 -0.37369941263681661 -0.32656020472875741 0 -0.36055939055746827 -0.32628837706844388 0 -0.37369941263681661 -0.32656020472875741 0 -0.36764916695952182 -0.31426377304049541 0 -0.37562157892520459 -0.34658809988542483 0 -0.37683724732983281 -0.33491370190076419 0 -0.36070136303116029 -0.33501966120893578 0 -0.37683724732983281 -0.33491370190076419 0 -0.37369941263681661 -0.32656020472875741 0 -0.36070136303116029 -0.33501966120893578 0 -0.37369941263681661 -0.32656020472875741 0 -0.36070136303116029 -0.33501966120893578 0 -0.36055939055746827 -0.32628837706844388 0 -0.36070136303116029 -0.33501966120893578 0 -0.36055939055746827 -0.32628837706844388 0 -0.37369941263681661 -0.32656020472875741 0 -0.36070136303116029 -0.33501966120893578 0 -0.34127437858213588 -0.33862208131725702 0 -0.36055939055746827 -0.32628837706844388 0 -0.35585742395606068 -0.33817221817260662 0 -0.34127437858213588 -0.33862208131725702 0 -0.33441062340201338 -0.32574743747541829 0 -0.36055939055746827 -0.32628837706844388 0 -0.36070136303116029 -0.33501966120893578 0 -0.35585742395606068 -0.33817221817260662 0 -0.36055939055746827 -0.32628837706844388 0 -0.36070136303116029 -0.33501966120893578 0 -0.35585742395606068 -0.33817221817260662 0 -0.34127437858213588 -0.33862208131725702 0 -0.35585742395606068 -0.33817221817260662 0 -0.34527559660801621 -0.35369377996990831 0 -0.35585742395606068 -0.33817221817260662 0 -0.34527559660801621 -0.35369377996990831 0 -0.3611139243543583 -0.36039211577443919 0 -0.36070136303116029 -0.33501966120893578 0 -0.35585742395606068 -0.33817221817260662 0 -0.3611139243543583 -0.36039211577443919 0 -0.37562157892520459 -0.34658809988542483 0 -0.36070136303116029 -0.33501966120893578 0 -0.3611139243543583 -0.36039211577443919 0 -0.36070136303116029 -0.33501966120893578 0 -0.3611139243543583 -0.36039211577443919 0 -0.38673086369127158 -0.36576866811328818 0 -0.37562157892520459 -0.34658809988542483 0 -0.3611139243543583 -0.36039211577443919 0 -0.3611139243543583 -0.36039211577443919 0 -0.36152648567755702 -0.38576457033994238 0 -0.38673086369127158 -0.36576866811328818 0 -0.3611139243543583 -0.36039211577443919 0 -0.36152648567755702 -0.38576457033994238 0 -0.3611139243543583 -0.36039211577443919 0 -0.33869231190700971 -0.37435031003799979 0 -0.36152648567755702 -0.38576457033994238 0 -0.34527559660801621 -0.35369377996990831 0 -0.3611139243543583 -0.36039211577443919 0 -0.33869231190700971 -0.37435031003799979 0 -0.33869231190700971 -0.37435031003799979 0 -0.32943994424051598 -0.35693217454723891 0 -0.306478580313642 -0.36957858777785418 0 -0.34527559660801621 -0.35369377996990831 0 -0.33869231190700971 -0.37435031003799979 0 -0.32943994424051598 -0.35693217454723891 0 -0.34127437858213588 -0.33862208131725702 0 -0.34527559660801621 -0.35369377996990831 0 -0.32943994424051598 -0.35693217454723891 0 -0.31889879392202669 -0.34284124353802659 0 -0.34127437858213588 -0.33862208131725702 0 -0.32943994424051598 -0.35693217454723891 0 -0.31889879392202669 -0.34284124353802659 0 -0.32943994424051598 -0.35693217454723891 0 -0.306478580313642 -0.36957858777785418 0 -0.31889879392202669 -0.34284124353802659 0 -0.306478580313642 -0.36957858777785418 0 -0.29352738074729451 -0.3409606822279983 0 -0.306478580313642 -0.36957858777785418 0 -0.27624688663260161 -0.35550985123625062 0 -0.29352738074729451 -0.3409606822279983 0 -0.306478580313642 -0.36957858777785418 0 -0.27624688663260161 -0.35550985123625062 0 -0.27931949354112667 -0.38440788098900058 0 -0.27624688663260161 -0.35550985123625062 0 -0.27931949354112667 -0.38440788098900058 0 -0.27160595079285599 -0.35976777697737539 0 -0.27268186235422509 -0.38581538914823882 0 -0.27160595079285599 -0.35976777697737539 0 -0.27624688663260161 -0.35550985123625062 0 -0.27931949354112667 -0.38440788098900058 0 -0.27160595079285599 -0.35976777697737539 0 -0.26457535486403 -0.37310420643241471 0 -0.27268186235422509 -0.38581538914823882 0 -0.27160595079285599 -0.35976777697737539 0 -0.26457535486403 -0.37310420643241471 0 -0.26238056556346162 -0.36398530846490651 0 -0.26457535486403 -0.37310420643241471 0 -0.26238056556346162 -0.36398530846490651 0 -0.25267394267960741 -0.37275161346691338 0 -0.25267394267960741 -0.37275161346691338 0 -0.25542003626020671 -0.35936767987950519 0 -0.24273739530009639 -0.3616683425162493 0 -0.26238056556346162 -0.36398530846490651 0 -0.25267394267960741 -0.37275161346691338 0 -0.25542003626020671 -0.35936767987950519 0 -0.25542003626020671 -0.35936767987950519 0 -0.26395759587374101 -0.3541196040264365 0 -0.25153646070865909 -0.34371880154029438 0 -0.26238056556346162 -0.36398530846490651 0 -0.25542003626020671 -0.35936767987950519 0 -0.26395759587374101 -0.3541196040264365 0 -0.26395759587374101 -0.3541196040264365 0 -0.26472070161122729 -0.34196037528934309 0 -0.25153646070865909 -0.34371880154029438 0 -0.26395759587374101 -0.3541196040264365 0 -0.27624688663260161 -0.35550985123625062 0 -0.26472070161122729 -0.34196037528934309 0 -0.27160595079285599 -0.35976777697737539 0 -0.26238056556346162 -0.36398530846490651 0 -0.26395759587374101 -0.3541196040264365 0 -0.27160595079285599 -0.35976777697737539 0 -0.26395759587374101 -0.3541196040264365 0 -0.27624688663260161 -0.35550985123625062 0 -0.27624688663260161 -0.35550985123625062 0 -0.27317427972407421 -0.32661182148350082 0 -0.29352738074729451 -0.3409606822279983 0 -0.27624688663260161 -0.35550985123625062 0 -0.27317427972407421 -0.32661182148350082 0 -0.27624688663260161 -0.35550985123625062 0 -0.26472070161122729 -0.34196037528934309 0 -0.27317427972407421 -0.32661182148350082 0 -0.25896317891350967 -0.3301953405015472 0 -0.25153646070865909 -0.34371880154029438 0 -0.24381082362484849 -0.32069237975511039 0 -0.26472070161122729 -0.34196037528934309 0 -0.25896317891350967 -0.3301953405015472 0 -0.25153646070865909 -0.34371880154029438 0 -0.26472070161122729 -0.34196037528934309 0 -0.25896317891350967 -0.3301953405015472 0 -0.27317427972407421 -0.32661182148350082 0 -0.26203702619584629 -0.31737509156678018 0 -0.25208713094001511 -0.30225994504666959 0 -0.24381082362484849 -0.32069237975511039 0 -0.25896317891350967 -0.3301953405015472 0 -0.26203702619584629 -0.31737509156678018 0 -0.24381082362484849 -0.32069237975511039 0 -0.25896317891350967 -0.3301953405015472 0 -0.26203702619584629 -0.31737509156678018 0 -0.27317427972407421 -0.32661182148350082 0 -0.26203702619584629 -0.31737509156678018 0 -0.27317427972407421 -0.32661182148350082 0 -0.27009680233847638 -0.29766798463742111 0 -0.28211308909110377 -0.32466555828936688 0 -0.30826185624655872 -0.32520649788239259 0 -0.28211308909110377 -0.32466555828936688 0 -0.30826185624655872 -0.32520649788239259 0 -0.28977325379705349 -0.30446660939597059 0 -0.27317427972407421 -0.32661182148350082 0 -0.28211308909110377 -0.32466555828936688 0 -0.28977325379705349 -0.30446660939597059 0 -0.27317427972407421 -0.32661182148350082 0 -0.28977325379705349 -0.30446660939597059 0 -0.27317427972407421 -0.32661182148350082 0 -0.28211308909110377 -0.32466555828936688 0 -0.29352738074729451 -0.3409606822279983 0 -0.28211308909110377 -0.32466555828936688 0 -0.29352738074729451 -0.3409606822279983 0 -0.30826185624655872 -0.32520649788239259 0 -0.31889879392202669 -0.34284124353802659 0 -0.29352738074729451 -0.3409606822279983 0 -0.30826185624655872 -0.32520649788239259 0 -0.32175897868338088 -0.30504196876857392 0 -0.30826185624655872 -0.32520649788239259 0 -0.28977325379705349 -0.30446660939597059 0 -0.32175897868338088 -0.30504196876857392 0 -0.30637222787003549 -0.28232139730844241 0 -0.28977325379705349 -0.30446660939597059 0 -0.30637222787003549 -0.28232139730844241 0 -0.28977325379705349 -0.30446660939597059 0 -0.30637222787003549 -0.28232139730844241 0 -0.2860009948339125 -0.28179048937584272 0 -0.28977325379705349 -0.30446660939597059 0 -0.2860009948339125 -0.28179048937584272 0 -0.28977325379705349 -0.30446660939597059 0 -0.27009680233847638 -0.29766798463742111 0 -0.27317427972407421 -0.32661182148350082 0 -0.27009680233847638 -0.29766798463742111 0 -0.27317427972407421 -0.32661182148350082 0 -0.28977325379705349 -0.30446660939597059 0 -0.27009680233847638 -0.29766798463742111 0 -0.26203702619584629 -0.31737509156678018 0 -0.27009680233847638 -0.29766798463742111 0 -0.25208713094001511 -0.30225994504666959 0 -0.27009680233847638 -0.29766798463742111 0 -0.26701932495287628 -0.26872414779134163 0 -0.24840581599986661 -0.27789831130410969 0 -0.27009680233847638 -0.29766798463742111 0 -0.25208713094001511 -0.30225994504666959 0 -0.24840581599986661 -0.27789831130410969 0 -0.2860009948339125 -0.28179048937584272 0 -0.27009680233847638 -0.29766798463742111 0 -0.26701932495287628 -0.26872414779134163 0 -0.27009680233847638 -0.29766798463742111 0 -0.26701932495287628 -0.26872414779134163 0 -0.26701932495287628 -0.26872414779134163 0 -0.2484888610175276 -0.25598132161872211 0 -0.24840581599986661 -0.27789831130410969 0 -0.26701932495287628 -0.26872414779134163 0 -0.26394184756727629 -0.2397803109452622 0 -0.26701932495287628 -0.26872414779134163 0 -0.2484888610175276 -0.25598132161872211 0 -0.26394184756727629 -0.2397803109452622 0 -0.26701932495287628 -0.26872414779134163 0 -0.27918139424231853 -0.24793113754157431 0 -0.26394184756727629 -0.2397803109452622 0 -0.26701932495287628 -0.26872414779134163 0 -0.29674336521112071 -0.25577230774603738 0 -0.27918139424231853 -0.24793113754157431 0 -0.30637222787003549 -0.28232139730844241 0 -0.2860009948339125 -0.28179048937584272 0 -0.29674336521112071 -0.25577230774603738 0 -0.2860009948339125 -0.28179048937584272 0 -0.26701932495287628 -0.26872414779134163 0 -0.29674336521112071 -0.25577230774603738 0 -0.32297120194301748 -0.26017618522091401 0 -0.30637222787003549 -0.28232139730844241 0 -0.29674336521112071 -0.25577230774603738 0 -0.33825248381752082 -0.46369220349011092 0 -0.32421664417766249 -0.44352190811352421 0 -0.34408052500459091 -0.44434666662199851 0 -0.32421664417766249 -0.44352190811352421 0 -0.31240784937598481 -0.46511385800219301 0 -0.30366432945983329 -0.44899041722760019 0 -0.33825248381752082 -0.46369220349011092 0 -0.32421664417766249 -0.44352190811352421 0 -0.31240784937598481 -0.46511385800219301 0 -0.33825248381752082 -0.46369220349011092 0 -0.33051460022939472 -0.48178135656062893 0 -0.31240784937598481 -0.46511385800219301 0 -0.33051460022939472 -0.48178135656062893 0 -0.31240784937598481 -0.46511385800219301 0 -0.30772085831481621 -0.48359943696201452 0 -0.3155346065267729 -0.5 0 -0.33051460022939472 -0.48178135656062893 0 -0.30772085831481621 -0.48359943696201452 0 -0.3155346065267729 -0.5 0 -0.33945929187831891 -0.5 0 -0.33051460022939472 -0.48178135656062893 0 -0.33945929187831891 -0.5 0 -0.33051460022939472 -0.48178135656062893 0 -0.34684566559987129 -0.48451787258129769 0 -0.33825248381752082 -0.46369220349011092 0 -0.33051460022939472 -0.48178135656062893 0 -0.34684566559987129 -0.48451787258129769 0 -0.33051460022939472 -0.48178135656062893 0 -0.34684566559987129 -0.48451787258129769 0 -0.34684566559987129 -0.48451787258129769 0 -0.36317673097034969 -0.48725438860195491 0 -0.36302964774588309 -0.47820879411623751 0 -0.33825248381752082 -0.46369220349011092 0 -0.34684566559987129 -0.48451787258129769 0 -0.36276416964715319 -0.46188193403645172 0 -0.34684566559987129 -0.48451787258129769 0 -0.36302964774588309 -0.47820879411623751 0 -0.36276416964715319 -0.46188193403645172 0 -0.33945929187831891 -0.5 0 -0.35321641641960172 -0.49294306529581527 0 -0.36338397722986482 -0.50000000000000866 0 -0.34684566559987129 -0.48451787258129769 0 -0.36317673097034969 -0.48725438860195491 0 -0.34684566559987129 -0.48451787258129769 0 -0.35321641641960172 -0.49294306529581527 0 -0.36317673097034969 -0.48725438860195491 0 -0.33945929187831891 -0.5 0 -0.34684566559987129 -0.48451787258129769 0 -0.35321641641960172 -0.49294306529581527 0 -0.38689476076400092 -0.49122870179199091 0 -0.36338397722986482 -0.50000000000000866 0 -0.36317673097034969 -0.48725438860195491 0 -0.35321641641960172 -0.49294306529581527 0 -0.36338397722986482 -0.50000000000000866 0 -0.36317673097034969 -0.48725438860195491 0 -0.36338397722986482 -0.50000000000000866 0 -0.36317673097034969 -0.48725438860195491 0 -0.37606745728253982 -0.4686231826298955 0 -0.36302964774588309 -0.47820879411623751 0 -0.36276416964715319 -0.46188193403645172 0 -0.38752118070399472 -0.48061486709336337 0 -0.36317673097034969 -0.48725438860195491 0 -0.36302964774588309 -0.47820879411623751 0 -0.36302964774588309 -0.47820879411623751 0 -0.36276416964715319 -0.46188193403645172 0 -0.36317673097034969 -0.48725438860195491 0 -0.36302964774588309 -0.47820879411623751 0 -0.37523877267138578 -0.45255939779237242 0 -0.37606745728253982 -0.4686231826298955 0 -0.36276416964715319 -0.46188193403645172 0 -0.33825248381752082 -0.46369220349011092 0 -0.36276416964715319 -0.46188193403645172 0 -0.34408052500459091 -0.44434666662199851 0 -0.36276416964715319 -0.46188193403645172 0 -0.34408052500459091 -0.44434666662199851 0 -0.36235160832395452 -0.43650947947094848 0 -0.37523877267138578 -0.45255939779237242 0 -0.36276416964715319 -0.46188193403645172 0 -0.36235160832395452 -0.43650947947094848 0 -0.37523877267138578 -0.45255939779237242 0 -0.37492324653409759 -0.43986936384834302 0 -0.36235160832395452 -0.43650947947094848 0 -0.36276416964715319 -0.46188193403645172 0 -0.36235160832395452 -0.43650947947094848 0 -0.37492324653409759 -0.43986936384834302 0 -0.36235160832395452 -0.43650947947094848 0 -0.37436056689416958 -0.42546162182482389 0 -0.36235160832395452 -0.43650947947094848 0 -0.36193904700075569 -0.41113702490544551 0 -0.36235160832395452 -0.43650947947094848 0 -0.36193904700075569 -0.41113702490544551 0 -0.37304605726057449 -0.4208707701534678 0 -0.36235160832395452 -0.43650947947094848 0 -0.37436056689416958 -0.42546162182482389 0 -0.37304605726057449 -0.4208707701534678 0 -0.37436056689416958 -0.42546162182482389 0 -0.37474359863501688 -0.42361329948047283 0 -0.37304605726057449 -0.4208707701534678 0 -0.37436056689416958 -0.42546162182482389 0 -0.37474359863501688 -0.42361329948047283 0 -0.37474359863501688 -0.42361329948047283 0 -0.37304605726057449 -0.4208707701534678 0 -0.3807372311631434 -0.39469098379688028 0 -0.36193904700075569 -0.41113702490544551 0 -0.37304605726057449 -0.4208707701534678 0 -0.36193904700075569 -0.41113702490544551 0 -0.34421281706777229 -0.39904362947217542 0 -0.33804339489091217 -0.42176825672633173 0 -0.36235160832395452 -0.43650947947094848 0 -0.36193904700075569 -0.41113702490544551 0 -0.33804339489091217 -0.42176825672633173 0 -0.34408052500459091 -0.44434666662199851 0 -0.36235160832395452 -0.43650947947094848 0 -0.33804339489091217 -0.42176825672633173 0 -0.36193904700075569 -0.41113702490544551 0 -0.36152648567755702 -0.38576457033994238 0 -0.3807372311631434 -0.39469098379688028 0 -0.36193904700075569 -0.41113702490544551 0 -0.36152648567755702 -0.38576457033994238 0 -0.36193904700075569 -0.41113702490544551 0 -0.36152648567755702 -0.38576457033994238 0 -0.34421281706777229 -0.39904362947217542 0 -0.33869231190700971 -0.37435031003799979 0 -0.36152648567755702 -0.38576457033994238 0 -0.34421281706777229 -0.39904362947217542 0 -0.33869231190700971 -0.37435031003799979 0 -0.306478580313642 -0.36957858777785418 0 -0.32086211027913641 -0.39638271114812929 0 -0.33869231190700971 -0.37435031003799979 0 -0.34421281706777229 -0.39904362947217542 0 -0.32086211027913641 -0.39638271114812929 0 -0.34421281706777229 -0.39904362947217542 0 -0.32086211027913641 -0.39638271114812929 0 -0.33804339489091217 -0.42176825672633173 0 -0.32421664417766249 -0.44352190811352421 0 -0.34408052500459091 -0.44434666662199851 0 -0.33804339489091217 -0.42176825672633173 0 -0.32086211027913641 -0.39638271114812929 0 -0.33804339489091217 -0.42176825672633173 0 -0.30769513212064092 -0.42301040928053318 0 -0.32421664417766249 -0.44352190811352421 0 -0.33804339489091217 -0.42176825672633173 0 -0.30769513212064092 -0.42301040928053318 0 -0.30769513212064092 -0.42301040928053318 0 -0.28239210044965168 -0.41330591074175038 0 -0.29818276265426391 -0.39701459191445759 0 -0.28239210044965168 -0.41330591074175038 0 -0.28546470735817681 -0.44220394049450029 0 -0.30769513212064092 -0.42301040928053318 0 -0.28239210044965168 -0.41330591074175038 0 -0.28546470735817681 -0.44220394049450029 0 -0.306478580313642 -0.36957858777785418 0 -0.32086211027913641 -0.39638271114812929 0 -0.29818276265426391 -0.39701459191445759 0 -0.32086211027913641 -0.39638271114812929 0 -0.30769513212064092 -0.42301040928053318 0 -0.29818276265426391 -0.39701459191445759 0 -0.28239210044965168 -0.41330591074175038 0 -0.29818276265426391 -0.39701459191445759 0 -0.27931949354112667 -0.38440788098900058 0 -0.306478580313642 -0.36957858777785418 0 -0.29818276265426391 -0.39701459191445759 0 -0.27931949354112667 -0.38440788098900058 0 -0.27160595079285599 -0.35976777697737539 0 -0.27931949354112667 -0.38440788098900058 0 -0.27268186235422509 -0.38581538914823882 0 -0.27268186235422509 -0.38581538914823882 0 -0.26445724457037068 -0.39920113836087839 0 -0.27375777391559408 -0.4118630013191022 0 -0.27268186235422509 -0.38581538914823882 0 -0.27375777391559408 -0.4118630013191022 0 -0.28239210044965168 -0.41330591074175038 0 -0.27931949354112667 -0.38440788098900058 0 -0.28239210044965168 -0.41330591074175038 0 -0.27931949354112667 -0.38440788098900058 0 -0.27375777391559408 -0.4118630013191022 0 -0.27931949354112667 -0.38440788098900058 0 -0.27268186235422509 -0.38581538914823882 0 -0.27375777391559408 -0.4118630013191022 0 -0.26445724457037068 -0.39920113836087839 0 -0.25566504003521562 -0.40500811044500301 0 -0.26386116018153538 -0.40940766494968028 0 -0.26445724457037068 -0.39920113836087839 0 -0.25566504003521562 -0.40500811044500301 0 -0.25549680379609357 -0.395357211548784 0 -0.25566504003521562 -0.40500811044500301 0 -0.25549680379609357 -0.395357211548784 0 -0.24771315092544269 -0.39919581982208308 0 -0.26445724457037068 -0.39920113836087839 0 -0.25549680379609357 -0.395357211548784 0 -0.25921785013801879 -0.3855115719319207 0 -0.27268186235422509 -0.38581538914823882 0 -0.26445724457037068 -0.39920113836087839 0 -0.25921785013801879 -0.3855115719319207 0 -0.25549680379609357 -0.395357211548784 0 -0.25921785013801879 -0.3855115719319207 0 -0.24591611631914381 -0.38776796357477328 0 -0.25267394267960741 -0.37275161346691338 0 -0.25921785013801879 -0.3855115719319207 0 -0.24591611631914381 -0.38776796357477328 0 -0.26457535486403 -0.37310420643241471 0 -0.25267394267960741 -0.37275161346691338 0 -0.25921785013801879 -0.3855115719319207 0 -0.26457535486403 -0.37310420643241471 0 -0.27268186235422509 -0.38581538914823882 0 -0.25921785013801879 -0.3855115719319207 0 -0.27375777391559408 -0.4118630013191022 0 -0.27483368547696319 -0.43791061348996552 0 -0.26720633562150609 -0.42642296289994008 0 -0.27375777391559408 -0.4118630013191022 0 -0.27483368547696319 -0.43791061348996552 0 -0.28239210044965168 -0.41330591074175038 0 -0.27483368547696319 -0.43791061348996552 0 -0.28546470735817681 -0.44220394049450029 0 -0.26720633562150609 -0.42642296289994008 0 -0.26441388483467898 -0.44072797033501532 0 -0.27483368547696319 -0.43791061348996552 0 -0.28239210044965168 -0.41330591074175038 0 -0.27375777391559408 -0.4118630013191022 0 -0.27483368547696319 -0.43791061348996552 0 -0.26445724457037068 -0.39920113836087839 0 -0.27375777391559408 -0.4118630013191022 0 -0.26386116018153538 -0.40940766494968028 0 -0.27375777391559408 -0.4118630013191022 0 -0.26449789734505841 -0.41716569950611843 0 -0.26386116018153538 -0.40940766494968028 0 -0.26720633562150609 -0.42642296289994008 0 -0.27375777391559408 -0.4118630013191022 0 -0.26449789734505841 -0.41716569950611843 0 -0.26449789734505841 -0.41716569950611843 0 -0.25737930182009611 -0.41479207497327208 0 -0.26004056027156258 -0.42305703165455888 0 -0.25566504003521562 -0.40500811044500301 0 -0.26386116018153538 -0.40940766494968028 0 -0.25737930182009611 -0.41479207497327208 0 -0.26449789734505841 -0.41716569950611843 0 -0.26386116018153538 -0.40940766494968028 0 -0.25737930182009611 -0.41479207497327208 0 -0.25566504003521562 -0.40500811044500301 0 -0.25737930182009611 -0.41479207497327208 0 -0.24414203371103091 -0.41207361684672428 0 -0.25737930182009611 -0.41479207497327208 0 -0.25106484146468439 -0.42345079450244799 0 -0.24414203371103091 -0.41207361684672428 0 -0.25737930182009611 -0.41479207497327208 0 -0.25106484146468439 -0.42345079450244799 0 -0.26004056027156258 -0.42305703165455888 0 -0.25106484146468439 -0.42345079450244799 0 -0.25792365024768948 -0.43096178407020003 0 -0.24538582553393271 -0.43922293479031371 0 -0.25792365024768948 -0.43096178407020003 0 -0.26441388483467898 -0.44072797033501532 0 -0.24538582553393271 -0.43922293479031371 0 -0.25106484146468439 -0.42345079450244799 0 -0.26004056027156258 -0.42305703165455888 0 -0.25792365024768948 -0.43096178407020003 0 -0.26720633562150609 -0.42642296289994008 0 -0.26004056027156258 -0.42305703165455888 0 -0.25792365024768948 -0.43096178407020003 0 -0.26720633562150609 -0.42642296289994008 0 -0.26449789734505841 -0.41716569950611843 0 -0.26004056027156258 -0.42305703165455888 0 -0.26720633562150609 -0.42642296289994008 0 -0.25792365024768948 -0.43096178407020003 0 -0.26441388483467898 -0.44072797033501532 0 -0.2545110423222009 -0.45159093752002177 0 -0.26441388483467898 -0.44072797033501532 0 -0.24538582553393271 -0.43922293479031371 0 -0.2545110423222009 -0.45159093752002177 0 -0.26441388483467898 -0.44072797033501532 0 -0.26580750652160712 -0.45210972405622057 0 -0.2545110423222009 -0.45159093752002177 0 -0.25847809570928648 -0.46672321029143587 0 -0.2410946996687571 -0.45834353202039518 0 -0.2545110423222009 -0.45159093752002177 0 -0.25847809570928648 -0.46672321029143587 0 -0.26580750652160712 -0.45210972405622057 0 -0.27590959703833268 -0.46395822566082889 0 -0.28415274244228111 -0.44688203472436061 0 -0.25847809570928648 -0.46672321029143587 0 -0.27590959703833268 -0.46395822566082889 0 -0.26580750652160712 -0.45210972405622057 0 -0.27590959703833268 -0.46395822566082889 0 -0.26580750652160712 -0.45210972405622057 0 -0.27483368547696319 -0.43791061348996552 0 -0.27590959703833268 -0.46395822566082889 0 -0.27483368547696319 -0.43791061348996552 0 -0.28415274244228111 -0.44688203472436061 0 -0.27590959703833268 -0.46395822566082889 0 -0.27483368547696319 -0.43791061348996552 0 -0.26441388483467898 -0.44072797033501532 0 -0.26580750652160712 -0.45210972405622057 0 -0.27483368547696319 -0.43791061348996552 0 -0.27483368547696319 -0.43791061348996552 0 -0.28546470735817681 -0.44220394049450029 0 -0.28415274244228111 -0.44688203472436061 0 -0.28546470735817681 -0.44220394049450029 0 -0.28853731426670193 -0.4711019702472502 0 -0.27590959703833268 -0.46395822566082889 0 -0.28415274244228111 -0.44688203472436061 0 -0.28853731426670193 -0.4711019702472502 0 -0.28546470735817681 -0.44220394049450029 0 -0.30366432945983329 -0.44899041722760019 0 -0.28853731426670193 -0.4711019702472502 0 -0.28546470735817681 -0.44220394049450029 0 -0.28415274244228111 -0.44688203472436061 0 -0.28853731426670193 -0.4711019702472502 0 -0.31240784937598481 -0.46511385800219301 0 -0.30366432945983329 -0.44899041722760019 0 -0.28853731426670193 -0.4711019702472502 0 -0.30769513212064092 -0.42301040928053318 0 -0.28546470735817681 -0.44220394049450029 0 -0.30366432945983329 -0.44899041722760019 0 -0.32421664417766249 -0.44352190811352421 0 -0.30769513212064092 -0.42301040928053318 0 -0.30366432945983329 -0.44899041722760019 0 -0.3155346065267729 -0.5 0 -0.30772085831481621 -0.48359943696201452 0 -0.29160992117522699 -0.50000000000000011 0 -0.31240784937598481 -0.46511385800219301 0 -0.30772085831481621 -0.48359943696201452 0 -0.28853731426670193 -0.4711019702472502 0 -0.28853731426670193 -0.4711019702472502 0 -0.28354987969050438 -0.48827027076941631 0 -0.27665396011947369 -0.48197911283041461 0 -0.28853731426670193 -0.4711019702472502 0 -0.29160992117522699 -0.50000000000000011 0 -0.30772085831481621 -0.48359943696201452 0 -0.28853731426670193 -0.4711019702472502 0 -0.29160992117522699 -0.50000000000000011 0 -0.28853731426670193 -0.4711019702472502 0 -0.28354987969050438 -0.48827027076941631 0 -0.29160992117522699 -0.50000000000000011 0 -0.28354987969050438 -0.48827027076941631 0 -0.29160992117522699 -0.50000000000000011 0 -0.27739832320061542 -0.50000000000000033 0 -0.28354987969050438 -0.48827027076941631 0 -0.27739832320061542 -0.50000000000000033 0 -0.27665396011947369 -0.48197911283041461 0 -0.27739832320061542 -0.50000000000000033 0 -0.27665396011947369 -0.48197911283041461 0 -0.26721042086961322 -0.48197911283041511 0 -0.27739832320061542 -0.50000000000000033 0 -0.27665396011947369 -0.48197911283041461 0 -0.27739832320061542 -0.50000000000000033 0 -0.26721042086961322 -0.48197911283041511 0 -0.25851124470089287 -0.50000000000000089 0 -0.27590959703833268 -0.46395822566082889 0 -0.28853731426670193 -0.4711019702472502 0 -0.27665396011947369 -0.48197911283041461 0 -0.27590959703833268 -0.46395822566082889 0 -0.26721042086961322 -0.48197911283041511 0 -0.27590959703833268 -0.46395822566082889 0 -0.27665396011947369 -0.48197911283041461 0 -0.26721042086961322 -0.48197911283041511 0 -0.25847809570928648 -0.46672321029143587 0 -0.27590959703833268 -0.46395822566082889 0 -0.26721042086961322 -0.48197911283041511 0 -0.27590959703833268 -0.46395822566082889 0 -0.27665396011947369 -0.48197911283041461 0 -0.25847809570928648 -0.46672321029143587 0 -0.26721042086961322 -0.48197911283041511 0 -0.25132680618178999 -0.48531696080527031 0 -0.26721042086961322 -0.48197911283041511 0 -0.25851124470089287 -0.50000000000000089 0 -0.25132680618178999 -0.48531696080527031 0 -0.26721042086961322 -0.48197911283041511 0 -0.25851124470089287 -0.50000000000000089 0 -0.25851124470089287 -0.50000000000000089 0 -0.25132680618178999 -0.48531696080527031 0 -0.23438985879728361 -0.5 0 -0.25132680618178999 -0.48531696080527031 0 -0.23438985879728361 -0.5 0 -0.23804441083187339 -0.47788248090449931 0 -0.25847809570928648 -0.46672321029143587 0 -0.25132680618178999 -0.48531696080527031 0 -0.23804441083187339 -0.47788248090449931 0 -0.23804441083187339 -0.47788248090449931 0 -0.22133723048511281 -0.48455239363084007 0 -0.22204200404046051 -0.46768094666674098 0 -0.23438985879728361 -0.5 0 -0.23804441083187339 -0.47788248090449931 0 -0.22133723048511281 -0.48455239363084007 0 -0.23438985879728361 -0.5 0 -0.22133723048511281 -0.48455239363084007 0 -0.21026847289367431 -0.5 0 -0.2545110423222009 -0.45159093752002177 0 -0.24538582553393271 -0.43922293479031371 0 -0.2410946996687571 -0.45834353202039518 0 -0.24538582553393271 -0.43922293479031371 0 -0.2410946996687571 -0.45834353202039518 0 -0.22810681957478859 -0.44696068194935978 0 -0.25847809570928648 -0.46672321029143587 0 -0.23804441083187339 -0.47788248090449931 0 -0.2410946996687571 -0.45834353202039518 0 -0.2410946996687571 -0.45834353202039518 0 -0.22204200404046051 -0.46768094666674098 0 -0.22810681957478859 -0.44696068194935978 0 -0.23804441083187339 -0.47788248090449931 0 -0.2410946996687571 -0.45834353202039518 0 -0.22204200404046051 -0.46768094666674098 0 -0.22204200404046051 -0.46768094666674098 0 -0.22810681957478859 -0.44696068194935978 0 -0.2128407282218541 -0.45450422354379949 0 -0.24538582553393271 -0.43922293479031371 0 -0.22810681957478859 -0.44696068194935978 0 -0.2291534577043676 -0.43308602108592892 0 -0.22810681957478859 -0.44696068194935978 0 -0.21480708581972091 -0.43921561954459859 0 -0.2291534577043676 -0.43308602108592892 0 -0.21480708581972091 -0.43921561954459859 0 -0.2128407282218541 -0.45450422354379949 0 -0.19812468604897909 -0.44446887540474872 0 -0.22810681957478859 -0.44696068194935978 0 -0.21480708581972091 -0.43921561954459859 0 -0.2128407282218541 -0.45450422354379949 0 -0.22204200404046051 -0.46768094666674098 0 -0.2128407282218541 -0.45450422354379949 0 -0.19995753514153991 -0.47329581512265212 0 -0.2128407282218541 -0.45450422354379949 0 -0.19812468604897909 -0.44446887540474872 0 -0.19995753514153991 -0.47329581512265212 0 -0.19812468604897909 -0.44446887540474872 0 -0.19995753514153991 -0.47329581512265212 0 -0.18123572140414601 -0.45604833116022248 0 -0.19812468604897909 -0.44446887540474872 0 -0.18123572140414601 -0.45604833116022248 0 -0.18560747273704409 -0.43299395836275478 0 -0.22133723048511281 -0.48455239363084007 0 -0.21026847289367431 -0.5 0 -0.19995753514153991 -0.47329581512265212 0 -0.22133723048511281 -0.48455239363084007 0 -0.22204200404046051 -0.46768094666674098 0 -0.19995753514153991 -0.47329581512265212 0 -0.21026847289367431 -0.5 0 -0.19995753514153991 -0.47329581512265212 0 -0.1861470869900651 -0.49999999999999611 0 -0.19995753514153991 -0.47329581512265212 0 -0.16671648508065839 -0.4780777820440702 0 -0.18123572140414601 -0.45604833116022248 0 -0.19995753514153991 -0.47329581512265212 0 -0.1861470869900651 -0.49999999999999611 0 -0.16671648508065839 -0.4780777820440702 0 -0.1861470869900651 -0.49999999999999611 0 -0.16671648508065839 -0.4780777820440702 0 -0.1861470869900651 -0.49999999999999611 0 -0.16153137456918529 -0.5 0 -0.16671648508065839 -0.4780777820440702 0 -0.16153137456918529 -0.5 0 -0.16671648508065839 -0.4780777820440702 0 -0.14836704781326501 -0.48365090237396491 0 -0.18123572140414601 -0.45604833116022248 0 -0.1686393937064479 -0.43811909434164759 0 -0.14728588317124991 -0.45615556408814578 0 -0.16671648508065839 -0.4780777820440702 0 -0.18123572140414601 -0.45604833116022248 0 -0.14728588317124991 -0.45615556408814578 0 -0.18123572140414601 -0.45604833116022248 0 -0.1686393937064479 -0.43811909434164759 0 -0.18560747273704409 -0.43299395836275478 0 -0.16671648508065839 -0.4780777820440702 0 -0.14728588317124991 -0.45615556408814578 0 -0.16671648508065839 -0.4780777820440702 0 -0.15043471521053639 -0.46587625794433368 0 -0.14728588317124991 -0.45615556408814578 0 -0.15043471521053639 -0.46587625794433368 0 -0.14728588317124991 -0.45615556408814578 0 -0.12530965853681961 -0.47164100974257989 0 -0.14728588317124991 -0.45615556408814578 0 -0.12785528126184131 -0.43423334613222148 0 -0.15026822310847901 -0.43707591422899711 0 -0.1686393937064479 -0.43811909434164759 0 -0.14728588317124991 -0.45615556408814578 0 -0.15026822310847901 -0.43707591422899711 0 -0.14728588317124991 -0.45615556408814578 0 -0.1263704279512412 -0.45384477781721411 0 -0.12785528126184131 -0.43423334613222148 0 -0.14728588317124991 -0.45615556408814578 0 -0.12785528126184131 -0.43423334613222148 0 -0.14728588317124991 -0.45615556408814578 0 -0.1263704279512412 -0.45384477781721411 0 -0.12530965853681961 -0.47164100974257989 0 -0.15043471521053639 -0.46587625794433368 0 -0.12530965853681961 -0.47164100974257989 0 -0.12530965853681961 -0.47164100974257989 0 -0.1369156621483055 -0.5 0 -0.14836704781326501 -0.48365090237396491 0 -0.16153137456918529 -0.5 0 -0.1369156621483055 -0.5 0 -0.14836704781326501 -0.48365090237396491 0 -0.15043471521053639 -0.46587625794433368 0 -0.12530965853681961 -0.47164100974257989 0 -0.14836704781326501 -0.48365090237396491 0 -0.16671648508065839 -0.4780777820440702 0 -0.15043471521053639 -0.46587625794433368 0 -0.14836704781326501 -0.48365090237396491 0 -0.1492300367780503 -0.39308270386179911 0 -0.15232716993591031 -0.41783009938227239 0 -0.16522961524069171 -0.40299027324053949 0 -0.1492300367780503 -0.39308270386179911 0 -0.13405172194854639 -0.40495918722912622 0 -0.15232716993591031 -0.41783009938227239 0 -0.1506018866269497 -0.38001862832213318 0 -0.1356242623295103 -0.3856488429574641 0 -0.13567442121693471 -0.36803619816867028 0 -0.1492300367780503 -0.39308270386179911 0 -0.1506018866269497 -0.38001862832213318 0 -0.1356242623295103 -0.3856488429574641 0 -0.1356242623295103 -0.3856488429574641 0 -0.13567442121693471 -0.36803619816867028 0 -0.1223443229586418 -0.37774968827619082 0 -0.1356242623295103 -0.3856488429574641 0 -0.1223443229586418 -0.37774968827619082 0 -0.12184318444793869 -0.39004665188686521 0 -0.1356242623295103 -0.3856488429574641 0 -0.13405172194854639 -0.40495918722912622 0 -0.12184318444793869 -0.39004665188686521 0 -0.1492300367780503 -0.39308270386179911 0 -0.1356242623295103 -0.3856488429574641 0 -0.13405172194854639 -0.40495918722912622 0 -0.13405172194854639 -0.40495918722912622 0 -0.12785528126184131 -0.43423334613222148 0 -0.15232716993591031 -0.41783009938227239 0 -0.12785528126184131 -0.43423334613222148 0 -0.15026822310847901 -0.43707591422899711 0 -0.15232716993591031 -0.41783009938227239 0 -0.15232716993591031 -0.41783009938227239 0 -0.17375574090986479 -0.41694986366296982 0 -0.16522961524069171 -0.40299027324053949 0 -0.1686393937064479 -0.43811909434164759 0 -0.15026822310847901 -0.43707591422899711 0 -0.15232716993591031 -0.41783009938227239 0 -0.1686393937064479 -0.43811909434164759 0 -0.15232716993591031 -0.41783009938227239 0 -0.17375574090986479 -0.41694986366296982 0 -0.1686393937064479 -0.43811909434164759 0 -0.18560747273704409 -0.43299395836275478 0 -0.17375574090986479 -0.41694986366296982 0 -0.18560747273704409 -0.43299395836275478 0 -0.17375574090986479 -0.41694986366296982 0 -0.19111407460555069 -0.41403492904181538 0 -0.17375574090986479 -0.41694986366296982 0 -0.18131484392882999 -0.39959285041207832 0 -0.19111407460555069 -0.41403492904181538 0 -0.17375574090986479 -0.41694986366296982 0 -0.18131484392882999 -0.39959285041207832 0 -0.16522961524069171 -0.40299027324053949 0 -0.18131484392882999 -0.39959285041207832 0 -0.16522961524069171 -0.40299027324053949 0 -0.1695202846508031 -0.38749584888357758 0 -0.1492300367780503 -0.39308270386179911 0 -0.16522961524069171 -0.40299027324053949 0 -0.1695202846508031 -0.38749584888357758 0 -0.1506018866269497 -0.38001862832213318 0 -0.1695202846508031 -0.38749584888357758 0 -0.16307811613080739 -0.36819670661602988 0 -0.1695202846508031 -0.38749584888357758 0 -0.16307811613080739 -0.36819670661602988 0 -0.17691506323010939 -0.37471489282543752 0 -0.1492300367780503 -0.39308270386179911 0 -0.1506018866269497 -0.38001862832213318 0 -0.1695202846508031 -0.38749584888357758 0 -0.1695202846508031 -0.38749584888357758 0 -0.1905844688797366 -0.3815774875005829 0 -0.17691506323010939 -0.37471489282543752 0 -0.18131484392882999 -0.39959285041207832 0 -0.1695202846508031 -0.38749584888357758 0 -0.1905844688797366 -0.3815774875005829 0 -0.1905844688797366 -0.3815774875005829 0 -0.2011364521668744 -0.39739014647798221 0 -0.20586001970477069 -0.38294369610154128 0 -0.1905844688797366 -0.3815774875005829 0 -0.20586001970477069 -0.38294369610154128 0 -0.20051075823372849 -0.36978861543852681 0 -0.18131484392882999 -0.39959285041207832 0 -0.1905844688797366 -0.3815774875005829 0 -0.2011364521668744 -0.39739014647798221 0 -0.18131484392882999 -0.39959285041207832 0 -0.2011364521668744 -0.39739014647798221 0 -0.19111407460555069 -0.41403492904181538 0 -0.2011364521668744 -0.39739014647798221 0 -0.21344730450313251 -0.40235836830352412 0 -0.21611109841598641 -0.39083105272300928 0 -0.2011364521668744 -0.39739014647798221 0 -0.21344730450313251 -0.40235836830352412 0 -0.20712622213253001 -0.41320996392327158 0 -0.21344730450313251 -0.40235836830352412 0 -0.21611109841598641 -0.39083105272300928 0 -0.22526550614561711 -0.39957380453474339 0 -0.21611109841598641 -0.39083105272300928 0 -0.20586001970477069 -0.38294369610154128 0 -0.22008908918605469 -0.3754183430462289 0 -0.20586001970477069 -0.38294369610154128 0 -0.22008908918605469 -0.3754183430462289 0 -0.20051075823372849 -0.36978861543852681 0 -0.2011364521668744 -0.39739014647798221 0 -0.21611109841598641 -0.39083105272300928 0 -0.20586001970477069 -0.38294369610154128 0 -0.19812468604897909 -0.44446887540474872 0 -0.18560747273704409 -0.43299395836275478 0 -0.2018750188753542 -0.42840008368872218 0 -0.18560747273704409 -0.43299395836275478 0 -0.2018750188753542 -0.42840008368872218 0 -0.19111407460555069 -0.41403492904181538 0 -0.2011364521668744 -0.39739014647798221 0 -0.19111407460555069 -0.41403492904181538 0 -0.20712622213253001 -0.41320996392327158 0 -0.2018750188753542 -0.42840008368872218 0 -0.19111407460555069 -0.41403492904181538 0 -0.20712622213253001 -0.41320996392327158 0 -0.21344730450313251 -0.40235836830352412 0 -0.20712622213253001 -0.41320996392327158 0 -0.22033970244043971 -0.41141788123030398 0 -0.20712622213253001 -0.41320996392327158 0 -0.21594457933190661 -0.42571580192087921 0 -0.22033970244043971 -0.41141788123030398 0 -0.21480708581972091 -0.43921561954459859 0 -0.19812468604897909 -0.44446887540474872 0 -0.2018750188753542 -0.42840008368872218 0 -0.2018750188753542 -0.42840008368872218 0 -0.20712622213253001 -0.41320996392327158 0 -0.21594457933190661 -0.42571580192087921 0 -0.21480708581972091 -0.43921561954459859 0 -0.2018750188753542 -0.42840008368872218 0 -0.21594457933190661 -0.42571580192087921 0 -0.21480708581972091 -0.43921561954459859 0 -0.21594457933190661 -0.42571580192087921 0 -0.2291534577043676 -0.43308602108592892 0 -0.21594457933190661 -0.42571580192087921 0 -0.2291534577043676 -0.43308602108592892 0 -0.22951620113038571 -0.42035594365930828 0 -0.2291534577043676 -0.43308602108592892 0 -0.22951620113038571 -0.42035594365930828 0 -0.23999472435168989 -0.42614596562021589 0 -0.21594457933190661 -0.42571580192087921 0 -0.22951620113038571 -0.42035594365930828 0 -0.22033970244043971 -0.41141788123030398 0 -0.22033970244043971 -0.41141788123030398 0 -0.23073877772109461 -0.40863357385362031 0 -0.22526550614561711 -0.39957380453474339 0 -0.22951620113038571 -0.42035594365930828 0 -0.22033970244043971 -0.41141788123030398 0 -0.23073877772109461 -0.40863357385362031 0 -0.22951620113038571 -0.42035594365930828 0 -0.23073877772109461 -0.40863357385362031 0 -0.24414203371103091 -0.41207361684672428 0 -0.25106484146468439 -0.42345079450244799 0 -0.24414203371103091 -0.41207361684672428 0 -0.23999472435168989 -0.42614596562021589 0 -0.22951620113038571 -0.42035594365930828 0 -0.24414203371103091 -0.41207361684672428 0 -0.23999472435168989 -0.42614596562021589 0 -0.25106484146468439 -0.42345079450244799 0 -0.24538582553393271 -0.43922293479031371 0 -0.23999472435168989 -0.42614596562021589 0 -0.24538582553393271 -0.43922293479031371 0 -0.2291534577043676 -0.43308602108592892 0 -0.23999472435168989 -0.42614596562021589 0 -0.23086821878946889 -0.3873019578740361 0 -0.22008908918605469 -0.3754183430462289 0 -0.23688224671988681 -0.3747091347210903 0 -0.21611109841598641 -0.39083105272300928 0 -0.23086821878946889 -0.3873019578740361 0 -0.22008908918605469 -0.3754183430462289 0 -0.21611109841598641 -0.39083105272300928 0 -0.23086821878946889 -0.3873019578740361 0 -0.22526550614561711 -0.39957380453474339 0 -0.21344730450313251 -0.40235836830352412 0 -0.22033970244043971 -0.41141788123030398 0 -0.22526550614561711 -0.39957380453474339 0 -0.23073877772109461 -0.40863357385362031 0 -0.22526550614561711 -0.39957380453474339 0 -0.23647645557999869 -0.39741091483603341 0 -0.23086821878946889 -0.3873019578740361 0 -0.22526550614561711 -0.39957380453474339 0 -0.23647645557999869 -0.39741091483603341 0 -0.23086821878946889 -0.3873019578740361 0 -0.23647645557999869 -0.39741091483603341 0 -0.24591611631914381 -0.38776796357477328 0 -0.23073877772109461 -0.40863357385362031 0 -0.24414203371103091 -0.41207361684672428 0 -0.23647645557999869 -0.39741091483603341 0 -0.25566504003521562 -0.40500811044500301 0 -0.24414203371103091 -0.41207361684672428 0 -0.24771315092544269 -0.39919581982208308 0 -0.24414203371103091 -0.41207361684672428 0 -0.23647645557999869 -0.39741091483603341 0 -0.24771315092544269 -0.39919581982208308 0 -0.23647645557999869 -0.39741091483603341 0 -0.24771315092544269 -0.39919581982208308 0 -0.24591611631914381 -0.38776796357477328 0 -0.25549680379609357 -0.395357211548784 0 -0.24771315092544269 -0.39919581982208308 0 -0.24591611631914381 -0.38776796357477328 0 -0.25267394267960741 -0.37275161346691338 0 -0.24591611631914381 -0.38776796357477328 0 -0.23688224671988681 -0.3747091347210903 0 -0.23086821878946889 -0.3873019578740361 0 -0.24591611631914381 -0.38776796357477328 0 -0.23688224671988681 -0.3747091347210903 0 -0.25267394267960741 -0.37275161346691338 0 -0.24273739530009639 -0.3616683425162493 0 -0.23688224671988681 -0.3747091347210903 0 -0.24273739530009639 -0.3616683425162493 0 -0.23688224671988681 -0.3747091347210903 0 -0.22900871804494999 -0.3633465878483414 0 -0.22008908918605469 -0.3754183430462289 0 -0.23688224671988681 -0.3747091347210903 0 -0.22900871804494999 -0.3633465878483414 0 -0.22008908918605469 -0.3754183430462289 0 -0.22900871804494999 -0.3633465878483414 0 -0.20986886558800599 -0.35761715061429072 0 -0.22900871804494999 -0.3633465878483414 0 -0.22503415318428871 -0.33925228979145289 0 -0.20986886558800599 -0.35761715061429072 0 -0.22900871804494999 -0.3633465878483414 0 -0.23707918180949861 -0.3519965054240845 0 -0.22503415318428871 -0.33925228979145289 0 -0.25542003626020671 -0.35936767987950519 0 -0.25153646070865909 -0.34371880154029438 0 -0.24273739530009639 -0.3616683425162493 0 -0.25153646070865909 -0.34371880154029438 0 -0.23707918180949861 -0.3519965054240845 0 -0.22503415318428871 -0.33925228979145289 0 -0.25153646070865909 -0.34371880154029438 0 -0.24273739530009639 -0.3616683425162493 0 -0.23707918180949861 -0.3519965054240845 0 -0.24273739530009639 -0.3616683425162493 0 -0.22900871804494999 -0.3633465878483414 0 -0.23707918180949861 -0.3519965054240845 0 -0.25153646070865909 -0.34371880154029438 0 -0.24381082362484849 -0.32069237975511039 0 -0.25153646070865909 -0.34371880154029438 0 -0.24381082362484849 -0.32069237975511039 0 -0.22503415318428871 -0.33925228979145289 0 -0.24381082362484849 -0.32069237975511039 0 -0.22454726586615159 -0.31306573634262619 0 -0.22503415318428871 -0.33925228979145289 0 -0.22454726586615159 -0.31306573634262619 0 -0.22503415318428871 -0.33925228979145289 0 -0.20910001557251531 -0.32201328622999259 0 -0.22503415318428871 -0.33925228979145289 0 -0.20910001557251531 -0.32201328622999259 0 -0.1994791901812423 -0.33870226370441597 0 -0.22454726586615159 -0.31306573634262619 0 -0.20910001557251531 -0.32201328622999259 0 -0.20138846272059191 -0.30540992118454813 0 -0.20910001557251531 -0.32201328622999259 0 -0.19216616046536461 -0.32113634903081811 0 -0.1994791901812423 -0.33870226370441597 0 -0.20910001557251531 -0.32201328622999259 0 -0.19216616046536461 -0.32113634903081811 0 -0.20138846272059191 -0.30540992118454813 0 -0.19216616046536461 -0.32113634903081811 0 -0.1994791901812423 -0.33870226370441597 0 -0.17733386042117891 -0.33384717207113818 0 -0.1994791901812423 -0.33870226370441597 0 -0.20986886558800599 -0.35761715061429072 0 -0.18492288828118369 -0.35905642695774609 0 -0.1905844688797366 -0.3815774875005829 0 -0.20051075823372849 -0.36978861543852681 0 -0.18492288828118369 -0.35905642695774609 0 -0.20051075823372849 -0.36978861543852681 0 -0.20986886558800599 -0.35761715061429072 0 -0.18492288828118369 -0.35905642695774609 0 -0.22008908918605469 -0.3754183430462289 0 -0.20051075823372849 -0.36978861543852681 0 -0.20986886558800599 -0.35761715061429072 0 -0.22503415318428871 -0.33925228979145289 0 -0.1994791901812423 -0.33870226370441597 0 -0.20986886558800599 -0.35761715061429072 0 -0.22063391237341529 -0.25161311439955902 0 -0.235909427295004 -0.26119690936420409 0 -0.23754331725094441 -0.24910643326123699 0 -0.22063391237341529 -0.25161311439955902 0 -0.2283595494572272 -0.27463953618474252 0 -0.21808485120618629 -0.26155000982986321 0 -0.22063391237341529 -0.25161311439955902 0 -0.2283595494572272 -0.27463953618474252 0 -0.22063391237341529 -0.25161311439955902 0 -0.235909427295004 -0.26119690936420409 0 -0.2283595494572272 -0.27463953618474252 0 -0.2201308960737243 -0.2501138638709765 0 -0.22063391237341529 -0.25161311439955902 0 -0.21599137729769369 -0.25277866920043612 0 -0.2201308960737243 -0.2501138638709765 0 -0.22063391237341529 -0.25161311439955902 0 -0.2484888610175276 -0.25598132161872211 0 -0.235909427295004 -0.26119690936420409 0 -0.23754331725094441 -0.24910643326123699 0 -0.2484888610175276 -0.25598132161872211 0 -0.235909427295004 -0.26119690936420409 0 -0.24840581599986661 -0.27789831130410969 0 -0.235909427295004 -0.26119690936420409 0 -0.24840581599986661 -0.27789831130410969 0 -0.2283595494572272 -0.27463953618474252 0 -0.2283595494572272 -0.27463953618474252 0 -0.21216949460973289 -0.28656883325932198 0 -0.2158337482283938 -0.26679513228867491 0 -0.2283595494572272 -0.27463953618474252 0 -0.2158337482283938 -0.26679513228867491 0 -0.21808485120618629 -0.26155000982986321 0 -0.2283595494572272 -0.27463953618474252 0 -0.2360851865410378 -0.29766595796992651 0 -0.21216949460973289 -0.28656883325932198 0 -0.2283595494572272 -0.27463953618474252 0 -0.2360851865410378 -0.29766595796992651 0 -0.25208713094001511 -0.30225994504666959 0 -0.24840581599986661 -0.27789831130410969 0 -0.2360851865410378 -0.29766595796992651 0 -0.24840581599986661 -0.27789831130410969 0 -0.2283595494572272 -0.27463953618474252 0 -0.2360851865410378 -0.29766595796992651 0 -0.24381082362484849 -0.32069237975511039 0 -0.2360851865410378 -0.29766595796992651 0 -0.25208713094001511 -0.30225994504666959 0 -0.24381082362484849 -0.32069237975511039 0 -0.2360851865410378 -0.29766595796992651 0 -0.24381082362484849 -0.32069237975511039 0 -0.22454726586615159 -0.31306573634262619 0 -0.2360851865410378 -0.29766595796992651 0 -0.22454726586615159 -0.31306573634262619 0 -0.2360851865410378 -0.29766595796992651 0 -0.21216949460973289 -0.28656883325932198 0 -0.22454726586615159 -0.31306573634262619 0 -0.20138846272059191 -0.30540992118454813 0 -0.21216949460973289 -0.28656883325932198 0 -0.19216616046536461 -0.32113634903081811 0 -0.20138846272059191 -0.30540992118454813 0 -0.17684854317692211 -0.30918025099056318 0 -0.20138846272059191 -0.30540992118454813 0 -0.19213948109146331 -0.2847731264022953 0 -0.17684854317692211 -0.30918025099056318 0 -0.20138846272059191 -0.30540992118454813 0 -0.19213948109146331 -0.2847731264022953 0 -0.21216949460973289 -0.28656883325932198 0 -0.19213948109146331 -0.2847731264022953 0 -0.21216949460973289 -0.28656883325932198 0 -0.2105812982566018 -0.2633117091696715 0 -0.21216949460973289 -0.28656883325932198 0 -0.2158337482283938 -0.26679513228867491 0 -0.2105812982566018 -0.2633117091696715 0 -0.19213948109146331 -0.2847731264022953 0 -0.1919044209477905 -0.26640234679042352 0 -0.2105812982566018 -0.2633117091696715 0 -0.19213948109146331 -0.2847731264022953 0 -0.2105812982566018 -0.2633117091696715 0 -0.1919044209477905 -0.26640234679042352 0 -0.19054851346876919 -0.25002597279089323 0 -0.2105812982566018 -0.2633117091696715 0 -0.19054851346876919 -0.25002597279089323 0 -0.2105812982566018 -0.2633117091696715 0 -0.2053414975709994 -0.2494664977315596 0 -0.19054851346876919 -0.25002597279089323 0 -0.2105812982566018 -0.2633117091696715 0 -0.2105812982566018 -0.2633117091696715 0 -0.21233791331938501 -0.25133786795721558 0 -0.2053414975709994 -0.2494664977315596 0 -0.22063391237341529 -0.25161311439955902 0 -0.2105812982566018 -0.2633117091696715 0 -0.21808485120618629 -0.26155000982986321 0 -0.2158337482283938 -0.26679513228867491 0 -0.2105812982566018 -0.2633117091696715 0 -0.2158337482283938 -0.26679513228867491 0 -0.2105812982566018 -0.2633117091696715 0 -0.21808485120618629 -0.26155000982986321 0 -0.22063391237341529 -0.25161311439955902 0 -0.2105812982566018 -0.2633117091696715 0 -0.22063391237341529 -0.25161311439955902 0 -0.2105812982566018 -0.2633117091696715 0 -0.21599137729769369 -0.25277866920043612 0 -0.2105812982566018 -0.2633117091696715 0 -0.21599137729769369 -0.25277866920043612 0 -0.21233791331938501 -0.25133786795721558 0 -0.2201308960737243 -0.2501138638709765 0 -0.21599137729769369 -0.25277866920043612 0 -0.21592604013177041 -0.24798517953124349 0 -0.21599137729769369 -0.25277866920043612 0 -0.21233791331938501 -0.25133786795721558 0 -0.21592604013177041 -0.24798517953124349 0 -0.16297189440145399 -0.26006172066832911 0 -0.1790110501740719 -0.26122880973077051 0 -0.17051572868093681 -0.23674023641211461 0 -0.16297189440145399 -0.26006172066832911 0 -0.15417977530362681 -0.25762297062000938 0 -0.1517762630223069 -0.24017059545733349 0 -0.1919044209477905 -0.26640234679042352 0 -0.19054851346876919 -0.25002597279089323 0 -0.1790110501740719 -0.26122880973077051 0 -0.1919044209477905 -0.26640234679042352 0 -0.1790110501740719 -0.26122880973077051 0 -0.1744504480168817 -0.27599875206419999 0 -0.19213948109146331 -0.2847731264022953 0 -0.1919044209477905 -0.26640234679042352 0 -0.1744504480168817 -0.27599875206419999 0 -0.16297189440145399 -0.26006172066832911 0 -0.1790110501740719 -0.26122880973077051 0 -0.1744504480168817 -0.27599875206419999 0 -0.16297189440145399 -0.26006172066832911 0 -0.1744504480168817 -0.27599875206419999 0 -0.15542806012197019 -0.28338320492454339 0 -0.16297189440145399 -0.26006172066832911 0 -0.15542806012197019 -0.28338320492454339 0 -0.16297189440145399 -0.26006172066832911 0 -0.15542806012197019 -0.28338320492454339 0 -0.15100663910277459 -0.26715225854557989 0 -0.1744504480168817 -0.27599875206419999 0 -0.16935015164994471 -0.2920080047124719 0 -0.15542806012197019 -0.28338320492454339 0 -0.16935015164994471 -0.2920080047124719 0 -0.14788422584248639 -0.30670468918075761 0 -0.15542806012197019 -0.28338320492454339 0 -0.19213948109146331 -0.2847731264022953 0 -0.1744504480168817 -0.27599875206419999 0 -0.16935015164994471 -0.2920080047124719 0 -0.19213948109146331 -0.2847731264022953 0 -0.16935015164994471 -0.2920080047124719 0 -0.17684854317692211 -0.30918025099056318 0 -0.16935015164994471 -0.2920080047124719 0 -0.17684854317692211 -0.30918025099056318 0 -0.14788422584248639 -0.30670468918075761 0 -0.1316207735126273 -0.31006960419355839 0 -0.1362029977012589 -0.28870980354084608 0 -0.116923976312773 -0.30233483291088131 0 -0.14788422584248639 -0.30670468918075761 0 -0.1316207735126273 -0.31006960419355839 0 -0.1362029977012589 -0.28870980354084608 0 -0.1362029977012589 -0.28870980354084608 0 -0.116923976312773 -0.30233483291088131 0 -0.1362029977012589 -0.28870980354084608 0 -0.12659172680805569 -0.27662601618885257 0 -0.116923976312773 -0.30233483291088131 0 -0.14788422584248639 -0.30670468918075761 0 -0.15542806012197019 -0.28338320492454339 0 -0.14788422584248639 -0.30670468918075761 0 -0.1362029977012589 -0.28870980354084608 0 -0.15542806012197019 -0.28338320492454339 0 -0.1362029977012589 -0.28870980354084608 0 -0.15542806012197019 -0.28338320492454339 0 -0.1397594358269027 -0.27332815199028482 0 -0.15542806012197019 -0.28338320492454339 0 -0.15100663910277459 -0.26715225854557989 0 -0.1397594358269027 -0.27332815199028482 0 -0.15100663910277459 -0.26715225854557989 0 -0.1397594358269027 -0.27332815199028482 0 -0.14269402985991911 -0.26136524452473292 0 -0.1362029977012589 -0.28870980354084608 0 -0.12659172680805569 -0.27662601618885257 0 -0.1397594358269027 -0.27332815199028482 0 -0.1397594358269027 -0.27332815199028482 0 -0.12537990572601199 -0.26303752545132808 0 -0.14269402985991911 -0.26136524452473292 0 -0.12659172680805569 -0.27662601618885257 0 -0.1397594358269027 -0.27332815199028482 0 -0.12537990572601199 -0.26303752545132808 0 -0.1379647103721692 -0.25019231396180308 0 -0.12537990572601199 -0.26303752545132808 0 -0.14269402985991911 -0.26136524452473292 0 -0.1379647103721692 -0.25019231396180308 0 -0.12537990572601199 -0.26303752545132808 0 -0.11835882043479951 -0.24860760241583349 0 -0.1379647103721692 -0.25019231396180308 0 -0.14269402985991911 -0.26136524452473292 0 -0.15417977530362681 -0.25762297062000938 0 -0.15100663910277459 -0.26715225854557989 0 -0.14269402985991911 -0.26136524452473292 0 -0.15417977530362681 -0.25762297062000938 0 -0.16297189440145399 -0.26006172066832911 0 -0.15100663910277459 -0.26715225854557989 0 -0.15417977530362681 -0.25762297062000938 0 -0.16376799048231661 -0.34863314939964241 0 -0.16307811613080739 -0.36819670661602988 0 -0.18492288828118369 -0.35905642695774609 0 -0.16376799048231661 -0.34863314939964241 0 -0.16307811613080739 -0.36819670661602988 0 -0.14717816532431391 -0.35902479983673041 0 -0.1905844688797366 -0.3815774875005829 0 -0.17691506323010939 -0.37471489282543752 0 -0.18492288828118369 -0.35905642695774609 0 -0.16307811613080739 -0.36819670661602988 0 -0.17691506323010939 -0.37471489282543752 0 -0.18492288828118369 -0.35905642695774609 0 -0.1994791901812423 -0.33870226370441597 0 -0.18492288828118369 -0.35905642695774609 0 -0.17733386042117891 -0.33384717207113818 0 -0.16376799048231661 -0.34863314939964241 0 -0.18492288828118369 -0.35905642695774609 0 -0.17733386042117891 -0.33384717207113818 0 -0.19216616046536461 -0.32113634903081811 0 -0.17684854317692211 -0.30918025099056318 0 -0.17733386042117891 -0.33384717207113818 0 -0.17684854317692211 -0.30918025099056318 0 -0.17733386042117891 -0.33384717207113818 0 -0.15931632399577081 -0.32708003297459209 0 -0.17684854317692211 -0.30918025099056318 0 -0.14788422584248639 -0.30670468918075761 0 -0.15931632399577081 -0.32708003297459209 0 -0.16376799048231661 -0.34863314939964241 0 -0.17733386042117891 -0.33384717207113818 0 -0.15931632399577081 -0.32708003297459209 0 -0.16376799048231661 -0.34863314939964241 0 -0.15931632399577081 -0.32708003297459209 0 -0.14876012009585651 -0.34288900882978268 0 -0.15931632399577081 -0.32708003297459209 0 -0.14876012009585651 -0.34288900882978268 0 -0.1403403915630026 -0.33002617343697183 0 -0.14876012009585651 -0.34288900882978268 0 -0.1403403915630026 -0.33002617343697183 0 -0.13279655728351941 -0.35334765769318632 0 -0.14788422584248639 -0.30670468918075761 0 -0.1403403915630026 -0.33002617343697183 0 -0.14788422584248639 -0.30670468918075761 0 -0.15931632399577081 -0.32708003297459209 0 -0.1403403915630026 -0.33002617343697183 0 -0.1316207735126273 -0.31006960419355839 0 -0.1259388770013849 -0.32567532707859309 0 -0.1403403915630026 -0.33002617343697183 0 -0.14788422584248639 -0.30670468918075761 0 -0.1316207735126273 -0.31006960419355839 0 -0.1403403915630026 -0.33002617343697183 0 -0.1403403915630026 -0.33002617343697183 0 -0.12964325483768241 -0.3380145665545739 0 -0.13279655728351941 -0.35334765769318632 0 -0.1403403915630026 -0.33002617343697183 0 -0.13279655728351941 -0.35334765769318632 0 -0.1259388770013849 -0.32567532707859309 0 -0.1403403915630026 -0.33002617343697183 0 -0.12964325483768241 -0.3380145665545739 0 -0.12964325483768241 -0.3380145665545739 0 -0.1266110145165843 -0.34633520020965092 0 -0.13279655728351941 -0.35334765769318632 0 -0.12848279862533549 -0.35164480075215387 0 -0.13279655728351941 -0.35334765769318632 0 -0.13567442121693471 -0.36803619816867028 0 -0.1266110145165843 -0.34633520020965092 0 -0.12848279862533549 -0.35164480075215387 0 -0.13279655728351941 -0.35334765769318632 0 -0.12848279862533549 -0.35164480075215387 0 -0.13279655728351941 -0.35334765769318632 0 -0.13279655728351941 -0.35334765769318632 0 -0.14717816532431391 -0.35902479983673041 0 -0.14876012009585651 -0.34288900882978268 0 -0.13279655728351941 -0.35334765769318632 0 -0.14717816532431391 -0.35902479983673041 0 -0.16376799048231661 -0.34863314939964241 0 -0.14876012009585651 -0.34288900882978268 0 -0.14717816532431391 -0.35902479983673041 0 -0.1506018866269497 -0.38001862832213318 0 -0.16307811613080739 -0.36819670661602988 0 -0.13567442121693471 -0.36803619816867028 0 -0.16307811613080739 -0.36819670661602988 0 -0.14717816532431391 -0.35902479983673041 0 -0.13567442121693471 -0.36803619816867028 0 -0.16307811613080739 -0.36819670661602988 0 -0.13567442121693471 -0.36803619816867028 0 -0.13279655728351941 -0.35334765769318632 0 -0.14717816532431391 -0.35902479983673041 0 -0.13567442121693471 -0.36803619816867028 0 -0.1043213230789353 -0.36785255734512901 0 -0.108270726303062 -0.36787568972131118 0 -0.11812517128038939 -0.34755612565126798 0 -0.13567442121693471 -0.36803619816867028 0 -0.108270726303062 -0.36787568972131118 0 -0.12848279862533549 -0.35164480075215387 0 -0.13567442121693471 -0.36803619816867028 0 -0.108270726303062 -0.36787568972131118 0 -0.12848279862533549 -0.35164480075215387 0 -0.108270726303062 -0.36787568972131118 0 -0.13567442121693471 -0.36803619816867028 0 -0.108270726303062 -0.36787568972131118 0 -0.1223443229586418 -0.37774968827619082 0 -0.1043213230789353 -0.36785255734512901 0 -0.099534060164535615 -0.37489148977357989 0 -0.08505493796101378 -0.36773971060781058 0 -0.1043213230789353 -0.36785255734512901 0 -0.108270726303062 -0.36787568972131118 0 -0.099534060164535615 -0.37489148977357989 0 -0.1043213230789353 -0.36785255734512901 0 -0.09476266036063917 -0.35507161355923073 0 -0.08505493796101378 -0.36773971060781058 0 -0.108270726303062 -0.36787568972131118 0 -0.099534060164535615 -0.37489148977357989 0 -0.1043213230789353 -0.36785255734512901 0 -0.08505493796101378 -0.36773971060781058 0 -0.108270726303062 -0.36787568972131118 0 -0.099534060164535615 -0.37489148977357989 0 -0.1110086771929964 -0.37975839217213858 0 -0.1043213230789353 -0.36785255734512901 0 -0.099534060164535615 -0.37489148977357989 0 -0.1043213230789353 -0.36785255734512901 0 -0.108270726303062 -0.36787568972131118 0 -0.1043213230789353 -0.36785255734512901 0 -0.09476266036063917 -0.35507161355923073 0 -0.11812517128038939 -0.34755612565126798 0 -0.09476266036063917 -0.35507161355923073 0 -0.11812517128038939 -0.34755612565126798 0 -0.097212273732337096 -0.33930075589867142 0 -0.1043213230789353 -0.36785255734512901 0 -0.11812517128038939 -0.34755612565126798 0 -0.12848279862533549 -0.35164480075215387 0 -0.108270726303062 -0.36787568972131118 0 -0.11812517128038939 -0.34755612565126798 0 -0.1266110145165843 -0.34633520020965092 0 -0.12848279862533549 -0.35164480075215387 0 -0.11812517128038939 -0.34755612565126798 0 -0.12848279862533549 -0.35164480075215387 0 -0.11812517128038939 -0.34755612565126798 0 -0.12964325483768241 -0.3380145665545739 0 -0.1266110145165843 -0.34633520020965092 0 -0.11836373877474569 -0.33660760144130059 0 -0.1266110145165843 -0.34633520020965092 0 -0.11812517128038939 -0.34755612565126798 0 -0.11836373877474569 -0.33660760144130059 0 -0.11812517128038939 -0.34755612565126798 0 -0.11836373877474569 -0.33660760144130059 0 -0.097212273732337096 -0.33930075589867142 0 -0.1259388770013849 -0.32567532707859309 0 -0.12964325483768241 -0.3380145665545739 0 -0.11836373877474569 -0.33660760144130059 0 -0.1259388770013849 -0.32567532707859309 0 -0.11836373877474569 -0.33660760144130059 0 -0.1117067663303966 -0.32415322033846122 0 -0.1259388770013849 -0.32567532707859309 0 -0.1117067663303966 -0.32415322033846122 0 -0.116923976312773 -0.30233483291088131 0 -0.1316207735126273 -0.31006960419355839 0 -0.1259388770013849 -0.32567532707859309 0 -0.116923976312773 -0.30233483291088131 0 -0.1117067663303966 -0.32415322033846122 0 -0.097644954924287181 -0.31595986228091638 0 -0.097212273732337096 -0.33930075589867142 0 -0.1117067663303966 -0.32415322033846122 0 -0.097644954924287181 -0.31595986228091638 0 -0.116923976312773 -0.30233483291088131 0 -0.11812517128038939 -0.34755612565126798 0 -0.097212273732337096 -0.33930075589867142 0 -0.11836373877474569 -0.33660760144130059 0 -0.1117067663303966 -0.32415322033846122 0 -0.097212273732337096 -0.33930075589867142 0 -0.097212273732337096 -0.33930075589867142 0 -0.076299376184284395 -0.33104538614607593 0 -0.097644954924287181 -0.31595986228091638 0 -0.097212273732337096 -0.33930075589867142 0 -0.080451458999339684 -0.3318700273516873 0 -0.097212273732337096 -0.33930075589867142 0 -0.076299376184284395 -0.33104538614607593 0 -0.079971854940445258 -0.35015121869306137 0 -0.097212273732337096 -0.33930075589867142 0 -0.080451458999339684 -0.3318700273516873 0 -0.076299376184284395 -0.33104538614607593 0 -0.080451458999339684 -0.3318700273516873 0 -0.078365933535801471 -0.32958489165095167 0 -0.076299376184284395 -0.33104538614607593 0 -0.080451458999339684 -0.3318700273516873 0 -0.078365933535801471 -0.32958489165095167 0 -0.097644954924287181 -0.31595986228091638 0 -0.078365933535801471 -0.32958489165095167 0 -0.097644954924287181 -0.31595986228091638 0 -0.078365933535801471 -0.32958489165095167 0 -0.07990558777143783 -0.31434171528490051 0 -0.097644954924287181 -0.31595986228091638 0 -0.080451458999339684 -0.3318700273516873 0 -0.078365933535801471 -0.32958489165095167 0 -0.078365933535801471 -0.32958489165095167 0 -0.068887568968854354 -0.32811957402665232 0 -0.061940493353404603 -0.31158733639820702 0 -0.078365933535801471 -0.32958489165095167 0 -0.07990558777143783 -0.31434171528490051 0 -0.061940493353404603 -0.31158733639820702 0 -0.078365933535801471 -0.32958489165095167 0 -0.061940493353404603 -0.31158733639820702 0 -0.071515158125437198 -0.34317501211585327 0 -0.076299376184284395 -0.33104538614607593 0 -0.079971854940445258 -0.35015121869306137 0 -0.078365933535801471 -0.32958489165095167 0 -0.068887568968854354 -0.32811957402665232 0 -0.076299376184284395 -0.33104538614607593 0 -0.078365933535801471 -0.32958489165095167 0 -0.076299376184284395 -0.33104538614607593 0 -0.068887568968854354 -0.32811957402665232 0 -0.076299376184284395 -0.33104538614607593 0 -0.068887568968854354 -0.32811957402665232 0 -0.076299376184284395 -0.33104538614607593 0 -0.0623899743876207 -0.34087555356901172 0 -0.071515158125437198 -0.34317501211585327 0 -0.076299376184284395 -0.33104538614607593 0 -0.0623899743876207 -0.34087555356901172 0 -0.076299376184284395 -0.33104538614607593 0 -0.0623899743876207 -0.34087555356901172 0 -0.071515158125437198 -0.34317501211585327 0 -0.065046084785114922 -0.35392737427715859 0 -0.0623899743876207 -0.34087555356901172 0 -0.071515158125437198 -0.34317501211585327 0 -0.065046084785114922 -0.35392737427715859 0 -0.079971854940445258 -0.35015121869306137 0 -0.065046084785114922 -0.35392737427715859 0 -0.073635849428249023 -0.36290119683042871 0 -0.079971854940445258 -0.35015121869306137 0 -0.065046084785114922 -0.35392737427715859 0 -0.06338055142727704 -0.36989550897170348 0 -0.073635849428249023 -0.36290119683042871 0 -0.06338055142727704 -0.36989550897170348 0 -0.074725818027394142 -0.37279217160240902 0 -0.068346854420577446 -0.37855013513939167 0 -0.074725818027394142 -0.37279217160240902 0 -0.073635849428249023 -0.36290119683042871 0 -0.08505493796101378 -0.36773971060781058 0 -0.06338055142727704 -0.36989550897170348 0 -0.074725818027394142 -0.37279217160240902 0 -0.073635849428249023 -0.36290119683042871 0 -0.073635849428249023 -0.36290119683042871 0 -0.08505493796101378 -0.36773971060781058 0 -0.079971854940445258 -0.35015121869306137 0 -0.08505493796101378 -0.36773971060781058 0 -0.086883246726674052 -0.37752043415137337 0 -0.080862286381920598 -0.37671559809126159 0 -0.074725818027394142 -0.37279217160240902 0 -0.08505493796101378 -0.36773971060781058 0 -0.080862286381920598 -0.37671559809126159 0 -0.099534060164535615 -0.37489148977357989 0 -0.08505493796101378 -0.36773971060781058 0 -0.086883246726674052 -0.37752043415137337 0 -0.09476266036063917 -0.35507161355923073 0 -0.097212273732337096 -0.33930075589867142 0 -0.079971854940445258 -0.35015121869306137 0 -0.09476266036063917 -0.35507161355923073 0 -0.08505493796101378 -0.36773971060781058 0 -0.079971854940445258 -0.35015121869306137 0 -0.12537990572601199 -0.26303752545132808 0 -0.10405054464961171 -0.259602327016632 0 -0.11835882043479951 -0.24860760241583349 0 -0.12537990572601199 -0.26303752545132808 0 -0.10405054464961171 -0.259602327016632 0 -0.1094252411938651 -0.27841489558104088 0 -0.12659172680805569 -0.27662601618885257 0 -0.12537990572601199 -0.26303752545132808 0 -0.1094252411938651 -0.27841489558104088 0 -0.10405054464961171 -0.259602327016632 0 -0.1094252411938651 -0.27841489558104088 0 -0.083790057562985965 -0.27341705693703111 0 -0.1094252411938651 -0.27841489558104088 0 -0.099815236103752508 -0.29547161498152091 0 -0.116923976312773 -0.30233483291088131 0 -0.1094252411938651 -0.27841489558104088 0 -0.099815236103752508 -0.29547161498152091 0 -0.083790057562985965 -0.27341705693703111 0 -0.12659172680805569 -0.27662601618885257 0 -0.1094252411938651 -0.27841489558104088 0 -0.116923976312773 -0.30233483291088131 0 -0.097644954924287181 -0.31595986228091638 0 -0.116923976312773 -0.30233483291088131 0 -0.097644954924287181 -0.31595986228091638 0 -0.099815236103752508 -0.29547161498152091 0 -0.116923976312773 -0.30233483291088131 0 -0.097644954924287181 -0.31595986228091638 0 -0.07990558777143783 -0.31434171528490051 0 -0.081670969272258143 -0.30023477080952721 0 -0.097644954924287181 -0.31595986228091638 0 -0.099815236103752508 -0.29547161498152091 0 -0.081670969272258143 -0.30023477080952721 0 -0.07990558777143783 -0.31434171528490051 0 -0.081670969272258143 -0.30023477080952721 0 -0.061940493353404603 -0.31158733639820702 0 -0.081670969272258143 -0.30023477080952721 0 -0.066168867907962267 -0.29211366299997538 0 -0.061940493353404603 -0.31158733639820702 0 -0.081670969272258143 -0.30023477080952721 0 -0.066168867907962267 -0.29211366299997538 0 -0.083790057562985965 -0.27341705693703111 0 -0.099815236103752508 -0.29547161498152091 0 -0.081670969272258143 -0.30023477080952721 0 -0.083790057562985965 -0.27341705693703111 0 -0.066168867907962267 -0.29211366299997538 0 -0.083790057562985965 -0.27341705693703111 0 -0.060544637749641278 -0.27683269541837358 0 -0.083790057562985965 -0.27341705693703111 0 -0.064922654965187232 -0.26030735454800252 0 -0.060544637749641278 -0.27683269541837358 0 -0.083790057562985965 -0.27341705693703111 0 -0.064922654965187232 -0.26030735454800252 0 -0.075066728641418501 -0.24741653209891179 0 -0.10405054464961171 -0.259602327016632 0 -0.083790057562985965 -0.27341705693703111 0 -0.091748393042932544 -0.24861226008115139 0 -0.083790057562985965 -0.27341705693703111 0 -0.091748393042932544 -0.24861226008115139 0 -0.075066728641418501 -0.24741653209891179 0 -0.03444644217127648 -0.25622442691896169 0 -0.047599741957801339 -0.25941783140469582 0 -0.03807963019285459 -0.24205692138918439 0 -0.03444644217127648 -0.25622442691896169 0 -0.047599741957801339 -0.25941783140469582 0 -0.027910730739336889 -0.26915617758719512 0 -0.047599741957801339 -0.25941783140469582 0 -0.027910730739336889 -0.26915617758719512 0 -0.064922654965187232 -0.26030735454800252 0 -0.047599741957801339 -0.25941783140469582 0 -0.056830740504242742 -0.24007254315402429 0 -0.064922654965187232 -0.26030735454800252 0 -0.047599741957801339 -0.25941783140469582 0 -0.060544637749641278 -0.27683269541837358 0 -0.047599741957801339 -0.25941783140469582 0 -0.060544637749641278 -0.27683269541837358 0 -0.042131955321280737 -0.27491774228968802 0 -0.047599741957801339 -0.25941783140469582 0 -0.042131955321280737 -0.27491774228968802 0 -0.027910730739336889 -0.26915617758719512 0 -0.042131955321280737 -0.27491774228968802 0 -0.02908961298861313 -0.27559222589271559 0 -0.027910730739336889 -0.26915617758719512 0 -0.031820536260659338 -0.29050156404620459 0 -0.045515053171009283 -0.29358978114546092 0 -0.02908961298861313 -0.27559222589271559 0 -0.042131955321280737 -0.27491774228968802 0 -0.045515053171009283 -0.29358978114546092 0 -0.02908961298861313 -0.27559222589271559 0 -0.045515053171009283 -0.29358978114546092 0 -0.02908961298861313 -0.27559222589271559 0 -0.031820536260659338 -0.29050156404620459 0 -0.045515053171009283 -0.29358978114546092 0 -0.034551459532706989 -0.30541090219969341 0 -0.060544637749641278 -0.27683269541837358 0 -0.042131955321280737 -0.27491774228968802 0 -0.045515053171009283 -0.29358978114546092 0 -0.066168867907962267 -0.29211366299997538 0 -0.060544637749641278 -0.27683269541837358 0 -0.045515053171009283 -0.29358978114546092 0 -0.045515053171009283 -0.29358978114546092 0 -0.061940493353404603 -0.31158733639820702 0 -0.045515053171009283 -0.29358978114546092 0 -0.061940493353404603 -0.31158733639820702 0 -0.04553464697236588 -0.31373100233230289 0 -0.066168867907962267 -0.29211366299997538 0 -0.045515053171009283 -0.29358978114546092 0 -0.061940493353404603 -0.31158733639820702 0 -0.045515053171009283 -0.29358978114546092 0 -0.034551459532706989 -0.30541090219969341 0 -0.04553464697236588 -0.31373100233230289 0 -0.034551459532706989 -0.30541090219969341 0 -0.04553464697236588 -0.31373100233230289 0 -0.029580601363584921 -0.31800741641656322 0 -0.031820536260659338 -0.29050156404620459 0 -0.034551459532706989 -0.30541090219969341 0 -0.023584302183736149 -0.30088386500503628 0 -0.0088985459957128116 -0.30660601876018317 0 -0.029580601363584921 -0.31800741641656322 0 -0.034551459532706989 -0.30541090219969341 0 -0.023584302183736149 -0.30088386500503628 0 -0.029580601363584921 -0.31800741641656322 0 -0.023584302183736149 -0.30088386500503628 0 -0.0088985459957128116 -0.30660601876018317 0 -0.017338943198154912 -0.28544935899455831 0 -0.031820536260659338 -0.29050156404620459 0 -0.034551459532706989 -0.30541090219969341 0 -0.023584302183736149 -0.30088386500503628 0 -0.0088985459957128116 -0.30660601876018317 0 -0.0024549795176976338 -0.28174680059924628 0 -0.017338943198154912 -0.28544935899455831 0 -0.031820536260659338 -0.29050156404620459 0 -0.023584302183736149 -0.30088386500503628 0 -0.017338943198154912 -0.28544935899455831 0 -0.031820536260659338 -0.29050156404620459 0 -0.02908961298861313 -0.27559222589271559 0 -0.031820536260659338 -0.29050156404620459 0 -0.017338943198154912 -0.28544935899455831 0 -0.02908961298861313 -0.27559222589271559 0 -0.017338943198154912 -0.28544935899455831 0 -0.02908961298861313 -0.27559222589271559 0 -0.024675953229418329 -0.27075612503326718 0 -0.02908961298861313 -0.27559222589271559 0 -0.027910730739336889 -0.26915617758719512 0 -0.02908961298861313 -0.27559222589271559 0 -0.024675953229418329 -0.27075612503326718 0 -0.02908961298861313 -0.27559222589271559 0 -0.027910730739336889 -0.26915617758719512 0 -0.024675953229418329 -0.27075612503326718 0 -0.027910730739336889 -0.26915617758719512 0 -0.024675953229418329 -0.27075612503326718 0 -0.0024549795176976338 -0.28174680059924628 0 -0.024675953229418329 -0.27075612503326718 0 -0.010819040425910659 -0.25557293657412511 0 -0.0024549795176976338 -0.28174680059924628 0 -0.010819040425910659 -0.25557293657412511 0 0.01053898167853382 -0.26196387814045702 0 -0.0024549795176976338 -0.28174680059924628 0 -0.017338943198154912 -0.28544935899455831 0 -0.024675953229418329 -0.27075612503326718 0 -0.0024549795176976338 -0.28174680059924628 0 -0.024675953229418329 -0.27075612503326718 0 -0.027910730739336889 -0.26915617758719512 0 -0.024675953229418329 -0.27075612503326718 0 -0.024230883729688641 -0.24906623804860559 0 -0.03444644217127648 -0.25622442691896169 0 -0.027910730739336889 -0.26915617758719512 0 -0.024230883729688641 -0.24906623804860559 0 -0.024675953229418329 -0.27075612503326718 0 -0.010819040425910659 -0.25557293657412511 0 -0.024230883729688641 -0.24906623804860559 0 -0.027910730739336889 -0.26915617758719512 0 -0.024230883729688641 -0.24906623804860559 0 -0.024675953229418329 -0.27075612503326718 0 -0.010819040425910659 -0.25557293657412511 0 -0.03582117561878715 -0.3749218745686862 0 -0.048480572590956707 -0.35070572099194702 0 -0.021384360673768012 -0.34932418923588049 0 -0.048480572590956707 -0.35070572099194702 0 -0.03474202903807698 -0.33757666807638997 0 -0.021384360673768012 -0.34932418923588049 0 -0.03582117561878715 -0.3749218745686862 0 -0.053017535761778742 -0.36300011974166568 0 -0.048480572590956707 -0.35070572099194702 0 -0.03582117561878715 -0.3749218745686862 0 -0.053017535761778742 -0.36300011974166568 0 -0.051625711750929497 -0.37442146323786202 0 -0.065046084785114922 -0.35392737427715859 0 -0.06338055142727704 -0.36989550897170348 0 -0.053017535761778742 -0.36300011974166568 0 -0.06338055142727704 -0.36989550897170348 0 -0.053017535761778742 -0.36300011974166568 0 -0.051625711750929497 -0.37442146323786202 0 -0.065046084785114922 -0.35392737427715859 0 -0.048480572590956707 -0.35070572099194702 0 -0.0623899743876207 -0.34087555356901172 0 -0.065046084785114922 -0.35392737427715859 0 -0.053017535761778742 -0.36300011974166568 0 -0.048480572590956707 -0.35070572099194702 0 -0.048480572590956707 -0.35070572099194702 0 -0.0623899743876207 -0.34087555356901172 0 -0.0623899743876207 -0.34087555356901172 0 -0.048682268213846559 -0.33671910876778549 0 -0.055143109592024231 -0.32672975278132071 0 -0.068887568968854354 -0.32811957402665232 0 -0.0623899743876207 -0.34087555356901172 0 -0.055143109592024231 -0.32672975278132071 0 -0.048682268213846559 -0.33671910876778549 0 -0.055143109592024231 -0.32672975278132071 0 -0.042655655460554193 -0.32770784842025819 0 -0.048480572590956707 -0.35070572099194702 0 -0.0623899743876207 -0.34087555356901172 0 -0.048682268213846559 -0.33671910876778549 0 -0.068887568968854354 -0.32811957402665232 0 -0.061940493353404603 -0.31158733639820702 0 -0.055143109592024231 -0.32672975278132071 0 -0.061940493353404603 -0.31158733639820702 0 -0.055143109592024231 -0.32672975278132071 0 -0.04553464697236588 -0.31373100233230289 0 -0.055143109592024231 -0.32672975278132071 0 -0.04553464697236588 -0.31373100233230289 0 -0.042655655460554193 -0.32770784842025819 0 -0.042655655460554193 -0.32770784842025819 0 -0.03474202903807698 -0.33757666807638997 0 -0.029580601363584921 -0.31800741641656322 0 -0.04553464697236588 -0.31373100233230289 0 -0.042655655460554193 -0.32770784842025819 0 -0.029580601363584921 -0.31800741641656322 0 -0.048480572590956707 -0.35070572099194702 0 -0.048682268213846559 -0.33671910876778549 0 -0.03474202903807698 -0.33757666807638997 0 -0.048682268213846559 -0.33671910876778549 0 -0.042655655460554193 -0.32770784842025819 0 -0.03474202903807698 -0.33757666807638997 0 -0.03474202903807698 -0.33757666807638997 0 -0.01702999194929684 -0.33096540839197808 0 -0.029580601363584921 -0.31800741641656322 0 -0.03474202903807698 -0.33757666807638997 0 -0.01702999194929684 -0.33096540839197808 0 -0.021384360673768012 -0.34932418923588049 0 -0.0088985459957128116 -0.30660601876018317 0 -0.01702999194929684 -0.33096540839197808 0 -0.029580601363584921 -0.31800741641656322 0 -0.0088985459957128116 -0.30660601876018317 0 -0.01702999194929684 -0.33096540839197808 0 0.0096481461508169282 -0.32059718432254158 0 -0.01702999194929684 -0.33096540839197808 0 -0.021384360673768012 -0.34932418923588049 0 0.001851480826797145 -0.34248198528569201 0 -0.01702999194929684 -0.33096540839197808 0 0.001851480826797145 -0.34248198528569201 0 0.0096481461508169282 -0.32059718432254158 0 -0.01702999194929684 -0.33096540839197808 0 0.001851480826797145 -0.34248198528569201 0 -0.00016034541594564481 -0.35905415536001412 0 -0.021384360673768012 -0.34932418923588049 0 -0.015751029800829059 -0.36833683643150189 0 -0.00016034541594564481 -0.35905415536001412 0 -0.021384360673768012 -0.34932418923588049 0 0.001851480826797145 -0.34248198528569201 0 -0.03582117561878715 -0.3749218745686862 0 -0.021384360673768012 -0.34932418923588049 0 -0.015751029800829059 -0.36833683643150189 0 -0.03582117561878715 -0.3749218745686862 0 -0.021384360673768012 -0.34932418923588049 0 -0.00016034541594564481 -0.35905415536001412 0 -0.015751029800829059 -0.36833683643150189 0 -0.0017967946481693259 -0.37376702826922092 0 -0.015751029800829059 -0.36833683643150189 0 -0.0017967946481693259 -0.37376702826922092 0 -0.01959247264747517 -0.38461693472370773 0 -0.0017967946481693259 -0.37376702826922092 0 -0.0033272595925888941 -0.39598474572276809 0 -0.01959247264747517 -0.38461693472370773 0 -0.0033272595925888941 -0.39598474572276809 0 -0.02357967032478037 -0.40224502525539402 0 -0.01959247264747517 -0.38461693472370773 0 -0.0033272595925888941 -0.39598474572276809 0 -0.02357967032478037 -0.40224502525539402 0 -0.01328600379044829 -0.41657507412561301 0 -0.02357967032478037 -0.40224502525539402 0 -0.01959247264747517 -0.38461693472370773 0 -0.033554634780006101 -0.39415882596571489 0 -0.03582117561878715 -0.3749218745686862 0 -0.01959247264747517 -0.38461693472370773 0 -0.033554634780006101 -0.39415882596571489 0 -0.03582117561878715 -0.3749218745686862 0 -0.015751029800829059 -0.36833683643150189 0 -0.01959247264747517 -0.38461693472370773 0 -0.03582117561878715 -0.3749218745686862 0 -0.050257990563806303 -0.40051955990149191 0 -0.03582117561878715 -0.3749218745686862 0 -0.033554634780006101 -0.39415882596571489 0 -0.050257990563806303 -0.40051955990149191 0 -0.03582117561878715 -0.3749218745686862 0 -0.050257990563806303 -0.40051955990149191 0 -0.052235095176033863 -0.38516523095066663 0 -0.03582117561878715 -0.3749218745686862 0 -0.051625711750929497 -0.37442146323786202 0 -0.052235095176033863 -0.38516523095066663 0 -0.033554634780006101 -0.39415882596571489 0 -0.050257990563806303 -0.40051955990149191 0 -0.038272970563016727 -0.40908247785419738 0 -0.02357967032478037 -0.40224502525539402 0 -0.033554634780006101 -0.39415882596571489 0 -0.038272970563016727 -0.40908247785419738 0 -0.050257990563806303 -0.40051955990149191 0 -0.05994280149827827 -0.39256955261801002 0 -0.0669337267244597 -0.40107051703939472 0 -0.050257990563806303 -0.40051955990149191 0 -0.05994280149827827 -0.39256955261801002 0 -0.052235095176033863 -0.38516523095066663 0 -0.050257990563806303 -0.40051955990149191 0 -0.0669337267244597 -0.40107051703939472 0 -0.069068687614797578 -0.40767473507232999 0 -0.05994280149827827 -0.39256955261801002 0 -0.060147658664862443 -0.381180833304404 0 -0.052235095176033863 -0.38516523095066663 0 -0.06338055142727704 -0.36989550897170348 0 -0.051625711750929497 -0.37442146323786202 0 -0.060147658664862443 -0.381180833304404 0 -0.051625711750929497 -0.37442146323786202 0 -0.060147658664862443 -0.381180833304404 0 -0.052235095176033863 -0.38516523095066663 0 -0.049332640151400653 -0.42532232490084793 0 -0.055727275033087109 -0.42963135426442151 0 -0.05494536746603744 -0.42135643043363352 0 -0.049332640151400653 -0.42532232490084793 0 -0.049089142380012003 -0.43262917854073152 0 -0.055727275033087109 -0.42963135426442151 0 -0.049089142380012003 -0.43262917854073152 0 -0.055727275033087109 -0.42963135426442151 0 -0.058471541710698627 -0.43887968691460438 0 -0.062464121283815927 -0.42939712265273811 0 -0.055727275033087109 -0.42963135426442151 0 -0.058471541710698627 -0.43887968691460438 0 -0.062464121283815927 -0.42939712265273811 0 -0.055727275033087109 -0.42963135426442151 0 -0.05494536746603744 -0.42135643043363352 0 -0.062464121283815927 -0.42939712265273811 0 -0.05494536746603744 -0.42135643043363352 0 -0.06469480550882617 -0.42611724523429712 0 -0.050257990563806303 -0.40051955990149191 0 -0.05494536746603744 -0.42135643043363352 0 -0.06469480550882617 -0.42611724523429712 0 -0.050257990563806303 -0.40051955990149191 0 -0.06469480550882617 -0.42611724523429712 0 -0.050257990563806303 -0.40051955990149191 0 -0.05494536746603744 -0.42135643043363352 0 -0.047125441294219923 -0.41695117473986348 0 -0.050257990563806303 -0.40051955990149191 0 -0.068205600771886116 -0.42095516179149017 0 -0.06469480550882617 -0.42611724523429712 0 -0.049332640151400653 -0.42532232490084793 0 -0.05494536746603744 -0.42135643043363352 0 -0.047125441294219923 -0.41695117473986348 0 -0.050257990563806303 -0.40051955990149191 0 -0.047125441294219923 -0.41695117473986348 0 -0.038272970563016727 -0.40908247785419738 0 -0.038272970563016727 -0.40908247785419738 0 -0.039775974583646803 -0.42604348652558938 0 -0.0294918004211462 -0.41760575627710672 0 -0.047125441294219923 -0.41695117473986348 0 -0.038272970563016727 -0.40908247785419738 0 -0.039775974583646803 -0.42604348652558938 0 -0.049089142380012003 -0.43262917854073152 0 -0.039775974583646803 -0.42604348652558938 0 -0.041441353667039472 -0.4422987252600819 0 -0.039775974583646803 -0.42604348652558938 0 -0.022739811798446689 -0.43563191546248198 0 -0.041441353667039472 -0.4422987252600819 0 -0.049332640151400653 -0.42532232490084793 0 -0.047125441294219923 -0.41695117473986348 0 -0.039775974583646803 -0.42604348652558938 0 -0.049332640151400653 -0.42532232490084793 0 -0.049089142380012003 -0.43262917854073152 0 -0.039775974583646803 -0.42604348652558938 0 -0.022739811798446689 -0.43563191546248198 0 -0.0294918004211462 -0.41760575627710672 0 -0.01328600379044829 -0.41657507412561301 0 -0.039775974583646803 -0.42604348652558938 0 -0.022739811798446689 -0.43563191546248198 0 -0.0294918004211462 -0.41760575627710672 0 -0.02357967032478037 -0.40224502525539402 0 -0.0294918004211462 -0.41760575627710672 0 -0.01328600379044829 -0.41657507412561301 0 -0.02357967032478037 -0.40224502525539402 0 -0.038272970563016727 -0.40908247785419738 0 -0.0294918004211462 -0.41760575627710672 0 -0.0033272595925888941 -0.39598474572276809 0 -0.01328600379044829 -0.41657507412561301 0 0.005803058972465215 -0.41467922602276353 0 -0.01328600379044829 -0.41657507412561301 0 0.005803058972465215 -0.41467922602276353 0 0.0020425619738814252 -0.43644278707211959 0 -0.022739811798446689 -0.43563191546248198 0 -0.01328600379044829 -0.41657507412561301 0 0.0020425619738814252 -0.43644278707211959 0 -0.022739811798446689 -0.43563191546248198 0 -0.0077591932673332894 -0.4560817609030326 0 0.0020425619738814252 -0.43644278707211959 0 -0.0077591932673332894 -0.4560817609030326 0 -0.029293788740198549 -0.45772346812508569 0 -0.015929266910485001 -0.47635768049574839 0 -0.022739811798446689 -0.43563191546248198 0 -0.0077591932673332894 -0.4560817609030326 0 -0.029293788740198549 -0.45772346812508569 0 -0.022739811798446689 -0.43563191546248198 0 -0.029293788740198549 -0.45772346812508569 0 -0.041441353667039472 -0.4422987252600819 0 -0.0059214349440480096 -0.5 0 -0.001559218297712473 -0.48630381278426621 0 -0.01460533516807096 -0.4902434612587302 0 -0.001559218297712473 -0.48630381278426621 0 -0.01460533516807096 -0.4902434612587302 0 -0.014617685410010701 -0.47893403624589348 0 -0.014617685410010701 -0.47893403624589348 0 0.0083802861623239536 -0.47592182648919418 0 -0.0077591932673332894 -0.4560817609030326 0 -0.015929266910485001 -0.47635768049574839 0 0.0083802861623239536 -0.47592182648919418 0 -0.015929266910485001 -0.47635768049574839 0 0.0083802861623239536 -0.47592182648919418 0 -0.001559218297712473 -0.48630381278426621 0 -0.014617685410010701 -0.47893403624589348 0 0.0083802861623239536 -0.47592182648919418 0 -0.014617685410010701 -0.47893403624589348 0 -0.015929266910485001 -0.47635768049574839 0 0.0083802861623239536 -0.47592182648919418 0 -0.014617685410010701 -0.47893403624589348 0 -0.015929266910485001 -0.47635768049574839 0 -0.037615656982345251 -0.48194624600259278 0 -0.029293788740198549 -0.45772346812508569 0 -0.015929266910485001 -0.47635768049574839 0 -0.040238819983293941 -0.47679353450230261 0 -0.014617685410010701 -0.47893403624589348 0 -0.037615656982345251 -0.48194624600259278 0 -0.015929266910485001 -0.47635768049574839 0 -0.040238819983293941 -0.47679353450230261 0 -0.014617685410010701 -0.47893403624589348 0 -0.02551624180986007 -0.48413258051317548 0 -0.037615656982345251 -0.48194624600259278 0 -0.02551624180986007 -0.48413258051317548 0 -0.030468365730920849 -0.48556578143177209 0 -0.037615656982345251 -0.48194624600259278 0 -0.014617685410010701 -0.47893403624589348 0 -0.02551624180986007 -0.48413258051317548 0 -0.018988507520979369 -0.485288545797745 0 -0.0059214349440480096 -0.5 0 -0.01460533516807096 -0.4902434612587302 0 -0.034494979914857123 -0.5 0 -0.01460533516807096 -0.4902434612587302 0 -0.025890993405044169 -0.48892829308787428 0 -0.034494979914857123 -0.5 0 -0.01460533516807096 -0.4902434612587302 0 -0.018988507520979369 -0.485288545797745 0 -0.025890993405044169 -0.48892829308787428 0 -0.01460533516807096 -0.4902434612587302 0 -0.014617685410010701 -0.47893403624589348 0 -0.018988507520979369 -0.485288545797745 0 -0.02551624180986007 -0.48413258051317548 0 -0.030468365730920849 -0.48556578143177209 0 -0.025890993405044169 -0.48892829308787428 0 -0.02551624180986007 -0.48413258051317548 0 -0.018988507520979369 -0.485288545797745 0 -0.025890993405044169 -0.48892829308787428 0 -0.030468365730920849 -0.48556578143177209 0 -0.025890993405044169 -0.48892829308787428 0 -0.034035303743621251 -0.48872268700890248 0 -0.034494979914857123 -0.5 0 -0.04269870854272758 -0.48941250473452669 0 -0.048924939549239883 -0.49319692295223222 0 -0.034494979914857123 -0.5 0 -0.034035303743621251 -0.48872268700890248 0 -0.04269870854272758 -0.48941250473452669 0 -0.025890993405044169 -0.48892829308787428 0 -0.034494979914857123 -0.5 0 -0.034035303743621251 -0.48872268700890248 0 -0.034035303743621251 -0.48872268700890248 0 -0.04269870854272758 -0.48941250473452669 0 -0.037615656982345251 -0.48194624600259278 0 -0.030468365730920849 -0.48556578143177209 0 -0.034035303743621251 -0.48872268700890248 0 -0.037615656982345251 -0.48194624600259278 0 -0.015929266910485001 -0.47635768049574839 0 -0.040238819983293941 -0.47679353450230261 0 -0.037615656982345251 -0.48194624600259278 0 -0.040238819983293941 -0.47679353450230261 0 -0.037615656982345251 -0.48194624600259278 0 -0.060613628554679833 -0.4849584557592922 0 -0.040238819983293941 -0.47679353450230261 0 -0.064548373056102948 -0.47722938850885688 0 -0.040238819983293941 -0.47679353450230261 0 -0.060613628554679833 -0.4849584557592922 0 -0.064548373056102948 -0.47722938850885688 0 -0.040238819983293941 -0.47679353450230261 0 -0.048307343001622732 -0.45881963492073541 0 -0.064548373056102948 -0.47722938850885688 0 -0.037615656982345251 -0.48194624600259278 0 -0.060613628554679833 -0.4849584557592922 0 -0.04269870854272758 -0.48941250473452669 0 -0.060613628554679833 -0.4849584557592922 0 -0.048924939549239883 -0.49319692295223222 0 -0.04269870854272758 -0.48941250473452669 0 -0.037615656982345251 -0.48194624600259278 0 -0.060613628554679833 -0.4849584557592922 0 -0.034494979914857123 -0.5 0 -0.048924939549239883 -0.49319692295223222 0 -0.063068524885666166 -0.500000000000002 0 -0.060613628554679833 -0.4849584557592922 0 -0.048924939549239883 -0.49319692295223222 0 -0.063068524885666166 -0.500000000000002 0 -0.029293788740198549 -0.45772346812508569 0 -0.041441353667039472 -0.4422987252600819 0 -0.048307343001622732 -0.45881963492073541 0 -0.029293788740198549 -0.45772346812508569 0 -0.040238819983293941 -0.47679353450230261 0 -0.048307343001622732 -0.45881963492073541 0 -0.048307343001622732 -0.45881963492073541 0 -0.066045201412887708 -0.45419750073687137 0 -0.064548373056102948 -0.47722938850885688 0 -0.048307343001622732 -0.45881963492073541 0 -0.058471541710698627 -0.43887968691460438 0 -0.066045201412887708 -0.45419750073687137 0 -0.041441353667039472 -0.4422987252600819 0 -0.048307343001622732 -0.45881963492073541 0 -0.058471541710698627 -0.43887968691460438 0 -0.049089142380012003 -0.43262917854073152 0 -0.041441353667039472 -0.4422987252600819 0 -0.058471541710698627 -0.43887968691460438 0 -0.058471541710698627 -0.43887968691460438 0 -0.066045201412887708 -0.45419750073687137 0 -0.06754202976966657 -0.43116561296488531 0 -0.078607462702507985 -0.45078555485406929 0 -0.06754202976966657 -0.43116561296488531 0 -0.081325449288912013 -0.43610151378575512 0 -0.066045201412887708 -0.45419750073687137 0 -0.078607462702507985 -0.45078555485406929 0 -0.06754202976966657 -0.43116561296488531 0 -0.066045201412887708 -0.45419750073687137 0 -0.06754202976966657 -0.43116561296488531 0 -0.078607462702507985 -0.45078555485406929 0 -0.06754202976966657 -0.43116561296488531 0 -0.066045201412887708 -0.45419750073687137 0 -0.075071302057231018 -0.46634868438719818 0 -0.064548373056102948 -0.47722938850885688 0 -0.066045201412887708 -0.45419750073687137 0 -0.064548373056102948 -0.47722938850885688 0 -0.066045201412887708 -0.45419750073687137 0 -0.081235019935728972 -0.45956586993642612 0 -0.078607462702507985 -0.45078555485406929 0 -0.066045201412887708 -0.45419750073687137 0 -0.075071302057231018 -0.46634868438719818 0 -0.081235019935728972 -0.45956586993642612 0 -0.081235019935728972 -0.45956586993642612 0 -0.093388007344966467 -0.46121158943139301 0 -0.092264942988794382 -0.44539715871237762 0 -0.075071302057231018 -0.46634868438719818 0 -0.081235019935728972 -0.45956586993642612 0 -0.086250930520110958 -0.46835847317609069 0 -0.081235019935728972 -0.45956586993642612 0 -0.093388007344966467 -0.46121158943139301 0 -0.086250930520110958 -0.46835847317609069 0 -0.092264942988794382 -0.44539715871237762 0 -0.078607462702507985 -0.45078555485406929 0 -0.081325449288912013 -0.43610151378575512 0 -0.081235019935728972 -0.45956586993642612 0 -0.092264942988794382 -0.44539715871237762 0 -0.078607462702507985 -0.45078555485406929 0 -0.063068524885666166 -0.500000000000002 0 -0.064548373056102948 -0.47722938850885688 0 -0.075059545189385707 -0.48317051333907229 0 -0.063068524885666166 -0.500000000000002 0 -0.064548373056102948 -0.47722938850885688 0 -0.060613628554679833 -0.4849584557592922 0 -0.063068524885666166 -0.500000000000002 0 -0.064548373056102948 -0.47722938850885688 0 -0.063068524885666166 -0.500000000000002 0 -0.075059545189385707 -0.48317051333907229 0 -0.087684237306545953 -0.5 0 -0.064548373056102948 -0.47722938850885688 0 -0.075059545189385707 -0.48317051333907229 0 -0.085197425719362369 -0.47759961219449482 0 -0.064548373056102948 -0.47722938850885688 0 -0.085197425719362369 -0.47759961219449482 0 -0.075071302057231018 -0.46634868438719818 0 -0.064548373056102948 -0.47722938850885688 0 -0.085197425719362369 -0.47759961219449482 0 -0.075059545189385707 -0.48317051333907229 0 -0.091159296033768281 -0.48792751728442291 0 -0.1001846018631026 -0.47740576154082609 0 -0.075059545189385707 -0.48317051333907229 0 -0.085197425719362369 -0.47759961219449482 0 -0.1001846018631026 -0.47740576154082609 0 -0.075059545189385707 -0.48317051333907229 0 -0.1001846018631026 -0.47740576154082609 0 -0.093388007344966467 -0.46121158943139301 0 -0.086250930520110958 -0.46835847317609069 0 -0.1001846018631026 -0.47740576154082609 0 -0.075071302057231018 -0.46634868438719818 0 -0.086250930520110958 -0.46835847317609069 0 -0.085197425719362369 -0.47759961219449482 0 -0.086250930520110958 -0.46835847317609069 0 -0.085197425719362369 -0.47759961219449482 0 -0.1001846018631026 -0.47740576154082609 0 -0.075059545189385707 -0.48317051333907229 0 -0.091159296033768281 -0.48792751728442291 0 -0.087684237306545953 -0.5 0 -0.091159296033768281 -0.48792751728442291 0 -0.087684237306545953 -0.5 0 -0.1017087997760389 -0.49113379425779308 0 -0.087684237306545953 -0.5 0 -0.1017087997760389 -0.49113379425779308 0 -0.1122999497274257 -0.5 0 -0.091159296033768281 -0.48792751728442291 0 -0.1017087997760389 -0.49113379425779308 0 -0.1001846018631026 -0.47740576154082609 0 -0.12530965853681961 -0.47164100974257989 0 -0.1017087997760389 -0.49113379425779308 0 -0.1001846018631026 -0.47740576154082609 0 -0.12530965853681961 -0.47164100974257989 0 -0.1001846018631026 -0.47740576154082609 0 -0.1113164948139438 -0.46236750529588089 0 -0.12530965853681961 -0.47164100974257989 0 -0.1001846018631026 -0.47740576154082609 0 -0.12530965853681961 -0.47164100974257989 0 -0.1017087997760389 -0.49113379425779308 0 -0.1122999497274257 -0.5 0 -0.12530965853681961 -0.47164100974257989 0 -0.1369156621483055 -0.5 0 -0.1122999497274257 -0.5 0 -0.092264942988794382 -0.44539715871237762 0 -0.1090258195318094 -0.44849963113690439 0 -0.10818783936316891 -0.43234983914707559 0 -0.093388007344966467 -0.46121158943139301 0 -0.092264942988794382 -0.44539715871237762 0 -0.1090258195318094 -0.44849963113690439 0 -0.093388007344966467 -0.46121158943139301 0 -0.1001846018631026 -0.47740576154082609 0 -0.1113164948139438 -0.46236750529588089 0 -0.093388007344966467 -0.46121158943139301 0 -0.1090258195318094 -0.44849963113690439 0 -0.1113164948139438 -0.46236750529588089 0 -0.1263704279512412 -0.45384477781721411 0 -0.1090258195318094 -0.44849963113690439 0 -0.1113164948139438 -0.46236750529588089 0 -0.1263704279512412 -0.45384477781721411 0 -0.12530965853681961 -0.47164100974257989 0 -0.1113164948139438 -0.46236750529588089 0 -0.1263704279512412 -0.45384477781721411 0 -0.12785528126184131 -0.43423334613222148 0 -0.1090258195318094 -0.44849963113690439 0 -0.12785528126184131 -0.43423334613222148 0 -0.1090258195318094 -0.44849963113690439 0 -0.10818783936316891 -0.43234983914707559 0 -0.12785528126184131 -0.43423334613222148 0 -0.1084246793524327 -0.41231112817629711 0 -0.12785528126184131 -0.43423334613222148 0 -0.10818783936316891 -0.43234983914707559 0 -0.1084246793524327 -0.41231112817629711 0 -0.10818783936316891 -0.43234983914707559 0 -0.1084246793524327 -0.41231112817629711 0 -0.09097821675735529 -0.4264905036969171 0 -0.092264942988794382 -0.44539715871237762 0 -0.10818783936316891 -0.43234983914707559 0 -0.09097821675735529 -0.4264905036969171 0 -0.13405172194854639 -0.40495918722912622 0 -0.12785528126184131 -0.43423334613222148 0 -0.1084246793524327 -0.41231112817629711 0 -0.13405172194854639 -0.40495918722912622 0 -0.1084246793524327 -0.41231112817629711 0 -0.12184318444793869 -0.39004665188686521 0 -0.1084246793524327 -0.41231112817629711 0 -0.12184318444793869 -0.39004665188686521 0 -0.1058445419750101 -0.3894292795161266 0 -0.12184318444793869 -0.39004665188686521 0 -0.1110086771929964 -0.37975839217213858 0 -0.1058445419750101 -0.3894292795161266 0 -0.1223443229586418 -0.37774968827619082 0 -0.12184318444793869 -0.39004665188686521 0 -0.1110086771929964 -0.37975839217213858 0 -0.108270726303062 -0.36787568972131118 0 -0.1223443229586418 -0.37774968827619082 0 -0.1110086771929964 -0.37975839217213858 0 -0.099534060164535615 -0.37489148977357989 0 -0.1058445419750101 -0.3894292795161266 0 -0.088994077443023456 -0.39038891022037342 0 -0.099534060164535615 -0.37489148977357989 0 -0.1110086771929964 -0.37975839217213858 0 -0.1058445419750101 -0.3894292795161266 0 -0.099534060164535615 -0.37489148977357989 0 -0.088994077443023456 -0.39038891022037342 0 -0.1084246793524327 -0.41231112817629711 0 -0.1058445419750101 -0.3894292795161266 0 -0.088994077443023456 -0.39038891022037342 0 -0.1084246793524327 -0.41231112817629711 0 -0.088994077443023456 -0.39038891022037342 0 -0.1084246793524327 -0.41231112817629711 0 -0.078599839107454217 -0.40567203600593138 0 -0.088994077443023456 -0.39038891022037342 0 -0.078599839107454217 -0.40567203600593138 0 -0.088994077443023456 -0.39038891022037342 0 -0.078720171723802551 -0.39718514765014729 0 -0.078599839107454217 -0.40567203600593138 0 -0.088994077443023456 -0.39038891022037342 0 -0.078720171723802551 -0.39718514765014729 0 -0.088994077443023456 -0.39038891022037342 0 -0.085352154267365948 -0.38627997761973909 0 -0.099534060164535615 -0.37489148977357989 0 -0.086883246726674052 -0.37752043415137337 0 -0.085352154267365948 -0.38627997761973909 0 -0.099534060164535615 -0.37489148977357989 0 -0.085352154267365948 -0.38627997761973909 0 -0.099534060164535615 -0.37489148977357989 0 -0.088994077443023456 -0.39038891022037342 0 -0.085352154267365948 -0.38627997761973909 0 -0.088994077443023456 -0.39038891022037342 0 -0.085352154267365948 -0.38627997761973909 0 -0.079058574465290452 -0.38568355532196219 0 -0.085352154267365948 -0.38627997761973909 0 -0.074376241021173614 -0.38999750689010998 0 -0.079058574465290452 -0.38568355532196219 0 -0.082793835132854293 -0.38339360127745892 0 -0.074983510356179534 -0.38209882737230488 0 -0.079058574465290452 -0.38568355532196219 0 -0.082793835132854293 -0.38339360127745892 0 -0.085352154267365948 -0.38627997761973909 0 -0.082793835132854293 -0.38339360127745892 0 -0.085352154267365948 -0.38627997761973909 0 -0.086883246726674052 -0.37752043415137337 0 -0.082793835132854293 -0.38339360127745892 0 -0.085352154267365948 -0.38627997761973909 0 -0.086883246726674052 -0.37752043415137337 0 -0.082793835132854293 -0.38339360127745892 0 -0.080862286381920598 -0.37671559809126159 0 -0.082793835132854293 -0.38339360127745892 0 -0.080862286381920598 -0.37671559809126159 0 -0.074983510356179534 -0.38209882737230488 0 -0.074725818027394142 -0.37279217160240902 0 -0.080862286381920598 -0.37671559809126159 0 -0.074983510356179534 -0.38209882737230488 0 -0.074725818027394142 -0.37279217160240902 0 -0.074983510356179534 -0.38209882737230488 0 -0.068346854420577446 -0.37855013513939167 0 -0.074983510356179534 -0.38209882737230488 0 -0.067702878101260397 -0.38580714337141803 0 -0.068346854420577446 -0.37855013513939167 0 -0.074983510356179534 -0.38209882737230488 0 -0.074376241021173614 -0.38999750689010998 0 -0.067702878101260397 -0.38580714337141803 0 -0.079058574465290452 -0.38568355532196219 0 -0.074983510356179534 -0.38209882737230488 0 -0.074376241021173614 -0.38999750689010998 0 -0.05994280149827827 -0.39256955261801002 0 -0.060147658664862443 -0.381180833304404 0 -0.067702878101260397 -0.38580714337141803 0 -0.074376241021173614 -0.38999750689010998 0 -0.067702878101260397 -0.38580714337141803 0 -0.067238911836292992 -0.39236117997973308 0 -0.05994280149827827 -0.39256955261801002 0 -0.067702878101260397 -0.38580714337141803 0 -0.067238911836292992 -0.39236117997973308 0 -0.060147658664862443 -0.381180833304404 0 -0.067702878101260397 -0.38580714337141803 0 -0.068346854420577446 -0.37855013513939167 0 -0.06338055142727704 -0.36989550897170348 0 -0.060147658664862443 -0.381180833304404 0 -0.068346854420577446 -0.37855013513939167 0 -0.085352154267365948 -0.38627997761973909 0 -0.074376241021173614 -0.38999750689010998 0 -0.0669337267244597 -0.40107051703939472 0 -0.078720171723802551 -0.39718514765014729 0 -0.085352154267365948 -0.38627997761973909 0 -0.0669337267244597 -0.40107051703939472 0 -0.085352154267365948 -0.38627997761973909 0 -0.0669337267244597 -0.40107051703939472 0 -0.078599839107454217 -0.40567203600593138 0 -0.073721061076709449 -0.40251429736529809 0 -0.069068687614797578 -0.40767473507232999 0 -0.078720171723802551 -0.39718514765014729 0 -0.073721061076709449 -0.40251429736529809 0 -0.0669337267244597 -0.40107051703939472 0 -0.078720171723802551 -0.39718514765014729 0 -0.078599839107454217 -0.40567203600593138 0 -0.073721061076709449 -0.40251429736529809 0 -0.05994280149827827 -0.39256955261801002 0 -0.067238911836292992 -0.39236117997973308 0 -0.0669337267244597 -0.40107051703939472 0 -0.074376241021173614 -0.38999750689010998 0 -0.067238911836292992 -0.39236117997973308 0 -0.0669337267244597 -0.40107051703939472 0 -0.073721061076709449 -0.40251429736529809 0 -0.0669337267244597 -0.40107051703939472 0 -0.069068687614797578 -0.40767473507232999 0 -0.078599839107454217 -0.40567203600593138 0 -0.068205600771886116 -0.42095516179149017 0 -0.077234594226234257 -0.42666873870052591 0 -0.050257990563806303 -0.40051955990149191 0 -0.069068687614797578 -0.40767473507232999 0 -0.068205600771886116 -0.42095516179149017 0 -0.078599839107454217 -0.40567203600593138 0 -0.068205600771886116 -0.42095516179149017 0 -0.078599839107454217 -0.40567203600593138 0 -0.069068687614797578 -0.40767473507232999 0 -0.068205600771886116 -0.42095516179149017 0 -0.069068687614797578 -0.40767473507232999 0 -0.068205600771886116 -0.42095516179149017 0 -0.068205600771886116 -0.42095516179149017 0 -0.06469480550882617 -0.42611724523429712 0 -0.06754202976966657 -0.43116561296488531 0 -0.068205600771886116 -0.42095516179149017 0 -0.06754202976966657 -0.43116561296488531 0 -0.062464121283815927 -0.42939712265273811 0 -0.06469480550882617 -0.42611724523429712 0 -0.06754202976966657 -0.43116561296488531 0 -0.06469480550882617 -0.42611724523429712 0 -0.06754202976966657 -0.43116561296488531 0 -0.062464121283815927 -0.42939712265273811 0 -0.06469480550882617 -0.42611724523429712 0 -0.068205600771886116 -0.42095516179149017 0 -0.06469480550882617 -0.42611724523429712 0 -0.062464121283815927 -0.42939712265273811 0 -0.058471541710698627 -0.43887968691460438 0 -0.06754202976966657 -0.43116561296488531 0 -0.06754202976966657 -0.43116561296488531 0 -0.077234594226234257 -0.42666873870052591 0 -0.081325449288912013 -0.43610151378575512 0 -0.068205600771886116 -0.42095516179149017 0 -0.06754202976966657 -0.43116561296488531 0 -0.077234594226234257 -0.42666873870052591 0 -0.092264942988794382 -0.44539715871237762 0 -0.081325449288912013 -0.43610151378575512 0 -0.09097821675735529 -0.4264905036969171 0 -0.077234594226234257 -0.42666873870052591 0 -0.081325449288912013 -0.43610151378575512 0 -0.09097821675735529 -0.4264905036969171 0 -0.1084246793524327 -0.41231112817629711 0 -0.078599839107454217 -0.40567203600593138 0 -0.09097821675735529 -0.4264905036969171 0 -0.078599839107454217 -0.40567203600593138 0 -0.077234594226234257 -0.42666873870052591 0 -0.09097821675735529 -0.4264905036969171 0 -0.083607124588235951 -0.088105930262401377 0 -0.092788880017415601 -0.07840516537710035 0 -0.075542884781150066 -0.074873484960288506 0 -0.083607124588235951 -0.088105930262401377 0 -0.084984414579577117 -0.099443444310078025 0 -0.095642147348571183 -0.093641009986248913 0 -0.083607124588235951 -0.088105930262401377 0 -0.092788880017415601 -0.07840516537710035 0 -0.095642147348571183 -0.093641009986248913 0 -0.092788880017415601 -0.07840516537710035 0 -0.075542884781150066 -0.074873484960288506 0 -0.086877843553230416 -0.061647397457384359 0 -0.063597461622629359 -0.084208095886413328 0 -0.068108720449511745 -0.060431621398092827 0 -0.075542884781150066 -0.074873484960288506 0 -0.063597461622629359 -0.084208095886413328 0 -0.068108720449511745 -0.060431621398092827 0 -0.075542884781150066 -0.074873484960288506 0 -0.086877843553230416 -0.061647397457384359 0 -0.068108720449511745 -0.060431621398092827 0 -0.063597461622629359 -0.084208095886413328 0 -0.068108720449511745 -0.060431621398092827 0 -0.056484451081606067 -0.068497088591451136 0 -0.063597461622629359 -0.084208095886413328 0 -0.068733298594088707 -0.093691087016448876 0 -0.063272551133818453 -0.10024221525934961 0 -0.075542884781150066 -0.074873484960288506 0 -0.063597461622629359 -0.084208095886413328 0 -0.073224091335350502 -0.087107519501919126 0 -0.083607124588235951 -0.088105930262401377 0 -0.075542884781150066 -0.074873484960288506 0 -0.073224091335350502 -0.087107519501919126 0 -0.073224091335350502 -0.087107519501919126 0 -0.068733298594088707 -0.093691087016448876 0 -0.076121159397593299 -0.095631765862436574 0 -0.083607124588235951 -0.088105930262401377 0 -0.073224091335350502 -0.087107519501919126 0 -0.076121159397593299 -0.095631765862436574 0 -0.063597461622629359 -0.084208095886413328 0 -0.073224091335350502 -0.087107519501919126 0 -0.068733298594088707 -0.093691087016448876 0 -0.068733298594088707 -0.093691087016448876 0 -0.063272551133818453 -0.10024221525934961 0 -0.069950565731590614 -0.1019322454080748 0 -0.063998496544944633 -0.1076560151872737 0 -0.071813163668218383 -0.1108882480165817 0 -0.058796188458866472 -0.1095130835340711 0 -0.063998496544944633 -0.1076560151872737 0 -0.068695077012997666 -0.1067522479198809 0 -0.071813163668218383 -0.1108882480165817 0 -0.063272551133818453 -0.10024221525934961 0 -0.065461352981996485 -0.10432512570258221 0 -0.069950565731590614 -0.1019322454080748 0 -0.063272551133818453 -0.10024221525934961 0 -0.065461352981996485 -0.10432512570258221 0 -0.061390074486631037 -0.1050429047383318 0 -0.065461352981996485 -0.10432512570258221 0 -0.063998496544944633 -0.1076560151872737 0 -0.061390074486631037 -0.1050429047383318 0 -0.065461352981996485 -0.10432512570258221 0 -0.063998496544944633 -0.1076560151872737 0 -0.068695077012997666 -0.1067522479198809 0 -0.065461352981996485 -0.10432512570258221 0 -0.068695077012997666 -0.1067522479198809 0 -0.069950565731590614 -0.1019322454080748 0 -0.069950565731590614 -0.1019322454080748 0 -0.072795655045455682 -0.10707419981652259 0 -0.076968197710189368 -0.1039967519148938 0 -0.068695077012997666 -0.1067522479198809 0 -0.069950565731590614 -0.1019322454080748 0 -0.072795655045455682 -0.10707419981652259 0 -0.072795655045455682 -0.10707419981652259 0 -0.076992460142820282 -0.10877166915690691 0 -0.071813163668218383 -0.1108882480165817 0 -0.068695077012997666 -0.1067522479198809 0 -0.072795655045455682 -0.10707419981652259 0 -0.071813163668218383 -0.1108882480165817 0 -0.072795655045455682 -0.10707419981652259 0 -0.076992460142820282 -0.10877166915690691 0 -0.076968197710189368 -0.1039967519148938 0 -0.068733298594088707 -0.093691087016448876 0 -0.069950565731590614 -0.1019322454080748 0 -0.076121159397593299 -0.095631765862436574 0 -0.069950565731590614 -0.1019322454080748 0 -0.076968197710189368 -0.1039967519148938 0 -0.076121159397593299 -0.095631765862436574 0 -0.071813163668218383 -0.1108882480165817 0 -0.081208194369374723 -0.11979059602120511 0 -0.058796188458866472 -0.1095130835340711 0 -0.081208194369374723 -0.11979059602120511 0 -0.058796188458866472 -0.1095130835340711 0 -0.067451631278283977 -0.121002024074214 0 -0.081208194369374723 -0.11979059602120511 0 -0.058796188458866472 -0.1095130835340711 0 -0.071813163668218383 -0.1108882480165817 0 -0.081208194369374723 -0.11979059602120511 0 -0.080128071651729221 -0.11320802716086879 0 -0.076992460142820282 -0.10877166915690691 0 -0.071813163668218383 -0.1108882480165817 0 -0.080128071651729221 -0.11320802716086879 0 -0.067451631278283977 -0.121002024074214 0 -0.081208194369374723 -0.11979059602120511 0 -0.074803413204227995 -0.12613233323205669 0 -0.081208194369374723 -0.11979059602120511 0 -0.087123413334285055 -0.1171435408327588 0 -0.103620200279883 -0.1300681085083388 0 -0.081208194369374723 -0.11979059602120511 0 -0.103620200279883 -0.1300681085083388 0 -0.081208194369374723 -0.11979059602120511 0 -0.080388249440251594 -0.12776675217401481 0 -0.074803413204227995 -0.12613233323205669 0 -0.080128071651729221 -0.11320802716086879 0 -0.087123413334285055 -0.1171435408327588 0 -0.083257212638508771 -0.1086911188756675 0 -0.081208194369374723 -0.11979059602120511 0 -0.080128071651729221 -0.11320802716086879 0 -0.087123413334285055 -0.1171435408327588 0 -0.076992460142820282 -0.10877166915690691 0 -0.080128071651729221 -0.11320802716086879 0 -0.083257212638508771 -0.1086911188756675 0 -0.087123413334285055 -0.1171435408327588 0 -0.083257212638508771 -0.1086911188756675 0 -0.095322184268341437 -0.1055150994644018 0 -0.083607124588235951 -0.088105930262401377 0 -0.076121159397593299 -0.095631765862436574 0 -0.084984414579577117 -0.099443444310078025 0 -0.076968197710189368 -0.1039967519148938 0 -0.076121159397593299 -0.095631765862436574 0 -0.084984414579577117 -0.099443444310078025 0 -0.076968197710189368 -0.1039967519148938 0 -0.084984414579577117 -0.099443444310078025 0 -0.083257212638508771 -0.1086911188756675 0 -0.076992460142820282 -0.10877166915690691 0 -0.076968197710189368 -0.1039967519148938 0 -0.083257212638508771 -0.1086911188756675 0 -0.084984414579577117 -0.099443444310078025 0 -0.083257212638508771 -0.1086911188756675 0 -0.095322184268341437 -0.1055150994644018 0 -0.084984414579577117 -0.099443444310078025 0 -0.095322184268341437 -0.1055150994644018 0 -0.095642147348571183 -0.093641009986248913 0 -0.095322184268341437 -0.1055150994644018 0 -0.1090606879846175 -0.1008218898698231 0 -0.11124242208071219 -0.1136514913899826 0 -0.095322184268341437 -0.1055150994644018 0 -0.1090606879846175 -0.1008218898698231 0 -0.095642147348571183 -0.093641009986248913 0 -0.1090606879846175 -0.1008218898698231 0 -0.1059928302749842 -0.086814862741594223 0 -0.095642147348571183 -0.093641009986248913 0 -0.087123413334285055 -0.1171435408327588 0 -0.11124242208071219 -0.1136514913899826 0 -0.087123413334285055 -0.1171435408327588 0 -0.11124242208071219 -0.1136514913899826 0 -0.103620200279883 -0.1300681085083388 0 -0.087123413334285055 -0.1171435408327588 0 -0.095322184268341437 -0.1055150994644018 0 -0.11124242208071219 -0.1136514913899826 0 -0.11124242208071219 -0.1136514913899826 0 -0.123807084897888 -0.1198263474223524 0 -0.13536143082713939 -0.1101594419472056 0 -0.11124242208071219 -0.1136514913899826 0 -0.103620200279883 -0.1300681085083388 0 -0.11731480522525881 -0.12575735360650811 0 -0.11124242208071219 -0.1136514913899826 0 -0.13536143082713939 -0.1101594419472056 0 -0.123807084897888 -0.1198263474223524 0 -0.11731480522525881 -0.12575735360650811 0 -0.1271445290896307 -0.12739656560378079 0 -0.11124242208071219 -0.1136514913899826 0 -0.123807084897888 -0.1198263474223524 0 -0.11731480522525881 -0.12575735360650811 0 -0.11124242208071219 -0.1136514913899826 0 -0.12078948991564339 -0.1027831787187536 0 -0.13536143082713939 -0.1101594419472056 0 -0.1090606879846175 -0.1008218898698231 0 -0.11124242208071219 -0.1136514913899826 0 -0.12078948991564339 -0.1027831787187536 0 -0.1090606879846175 -0.1008218898698231 0 -0.12078948991564339 -0.1027831787187536 0 -0.12302359211449181 -0.087233410844133052 0 -0.12302359211449181 -0.087233410844133052 0 -0.1059928302749842 -0.086814862741594223 0 -0.1106857534018424 -0.064307379741061488 0 -0.1090606879846175 -0.1008218898698231 0 -0.12302359211449181 -0.087233410844133052 0 -0.1059928302749842 -0.086814862741594223 0 -0.092788880017415601 -0.07840516537710035 0 -0.1059928302749842 -0.086814862741594223 0 -0.095642147348571183 -0.093641009986248913 0 -0.092788880017415601 -0.07840516537710035 0 -0.1059928302749842 -0.086814862741594223 0 -0.1106857534018424 -0.064307379741061488 0 -0.092788880017415601 -0.07840516537710035 0 -0.1106857534018424 -0.064307379741061488 0 -0.086877843553230416 -0.061647397457384359 0 -0.12302359211449181 -0.087233410844133052 0 -0.1106857534018424 -0.064307379741061488 0 -0.1263464710666205 -0.070376330425090852 0 -0.1106857534018424 -0.064307379741061488 0 -0.12341172703331001 -0.059839067757549061 0 -0.1263464710666205 -0.070376330425090852 0 -0.12302359211449181 -0.087233410844133052 0 -0.1106857534018424 -0.064307379741061488 0 -0.1106857534018424 -0.064307379741061488 0 -0.1162594855230239 -0.053734210259957303 0 -0.10323979472759889 -0.044638415316711803 0 -0.1162594855230239 -0.053734210259957303 0 -0.10323979472759889 -0.044638415316711803 0 -0.1264006912276846 -0.046572554429438077 0 -0.1106857534018424 -0.064307379741061488 0 -0.12341172703331001 -0.059839067757549061 0 -0.1162594855230239 -0.053734210259957303 0 -0.12341172703331001 -0.059839067757549061 0 -0.1162594855230239 -0.053734210259957303 0 -0.1264006912276846 -0.046572554429438077 0 -0.11272663579709399 -0.037010500558471958 0 -0.10323979472759889 -0.044638415316711803 0 -0.1264006912276846 -0.046572554429438077 0 -0.11272663579709399 -0.037010500558471958 0 -0.1219845089949701 -0.028185139382169159 0 -0.1264006912276846 -0.046572554429438077 0 -0.10323979472759889 -0.044638415316711803 0 -0.1264006912276846 -0.046572554429438077 0 -0.11272663579709399 -0.037010500558471958 0 -0.1219845089949701 -0.028185139382169159 0 -0.10703824242768489 -0.028918694038371821 0 -0.11272663579709399 -0.037010500558471958 0 -0.10323979472759889 -0.044638415316711803 0 -0.1047075978462612 -0.036881148456179819 0 -0.10323979472759889 -0.044638415316711803 0 -0.1047075978462612 -0.036881148456179819 0 -0.098347914689193031 -0.041381348637990083 0 -0.11272663579709399 -0.037010500558471958 0 -0.1047075978462612 -0.036881148456179819 0 -0.10703824242768489 -0.028918694038371821 0 -0.1047075978462612 -0.036881148456179819 0 -0.099171537296566206 -0.034864327180595907 0 -0.10703824242768489 -0.028918694038371821 0 -0.099171537296566206 -0.034864327180595907 0 -0.098347914689193031 -0.041381348637990083 0 -0.09099155256430666 -0.038038687521558479 0 -0.099171537296566206 -0.034864327180595907 0 -0.094772378955385289 -0.029101757248879381 0 -0.09099155256430666 -0.038038687521558479 0 -0.1047075978462612 -0.036881148456179819 0 -0.099171537296566206 -0.034864327180595907 0 -0.098347914689193031 -0.041381348637990083 0 -0.1106857534018424 -0.064307379741061488 0 -0.10323979472759889 -0.044638415316711803 0 -0.098347914689193031 -0.041381348637990083 0 -0.1106857534018424 -0.064307379741061488 0 -0.098347914689193031 -0.041381348637990083 0 -0.091043725876728113 -0.04883347380263104 0 -0.1106857534018424 -0.064307379741061488 0 -0.086877843553230416 -0.061647397457384359 0 -0.091043725876728113 -0.04883347380263104 0 -0.1106857534018424 -0.064307379741061488 0 -0.098347914689193031 -0.041381348637990083 0 -0.12654774670833069 -0.016121824567551839 0 -0.1195650939264682 0.0016894564454279679 0 -0.1133016681770765 -0.013614618796471941 0 -0.12654774670833069 -0.016121824567551839 0 -0.1195650939264682 0.0016894564454279679 0 -0.1133016681770765 -0.013614618796471941 0 -0.1061499072299716 -0.0040736423931422034 0 -0.1119989086322951 0.00066333237648008722 0 -0.1133016681770765 -0.013614618796471941 0 -0.1119989086322951 0.00066333237648008722 0 -0.1195650939264682 0.0016894564454279679 0 -0.1133016681770765 -0.013614618796471941 0 -0.1195650939264682 0.0016894564454279679 0 -0.1133016681770765 -0.013614618796471941 0 -0.10703824242768489 -0.028918694038371821 0 -0.1133016681770765 -0.013614618796471941 0 -0.1219845089949701 -0.028185139382169159 0 -0.12654774670833069 -0.016121824567551839 0 -0.1133016681770765 -0.013614618796471941 0 -0.1219845089949701 -0.028185139382169159 0 -0.10703824242768489 -0.028918694038371821 0 -0.10703824242768489 -0.028918694038371821 0 -0.094772378955385289 -0.029101757248879381 0 -0.099235353596513476 -0.01938915603414346 0 -0.099171537296566206 -0.034864327180595907 0 -0.10703824242768489 -0.028918694038371821 0 -0.094772378955385289 -0.029101757248879381 0 -0.094772378955385289 -0.029101757248879381 0 -0.099235353596513476 -0.01938915603414346 0 -0.091339750754897434 -0.022283024421743639 0 -0.1133016681770765 -0.013614618796471941 0 -0.10703824242768489 -0.028918694038371821 0 -0.099235353596513476 -0.01938915603414346 0 -0.1133016681770765 -0.013614618796471941 0 -0.099833378249854082 -0.0095130268116398586 0 -0.1061499072299716 -0.0040736423931422034 0 -0.1133016681770765 -0.013614618796471941 0 -0.099235353596513476 -0.01938915603414346 0 -0.099833378249854082 -0.0095130268116398586 0 -0.099235353596513476 -0.01938915603414346 0 -0.099833378249854082 -0.0095130268116398586 0 -0.090673394486815148 -0.012720983796641969 0 -0.099833378249854082 -0.0095130268116398586 0 -0.09356679494665994 -0.0042983887732841548 0 -0.090673394486815148 -0.012720983796641969 0 -0.099450143409077318 -0.00040143133860372459 0 -0.09356679494665994 -0.0042983887732841548 0 -0.092227756543309419 0.00423836554477922 0 -0.099833378249854082 -0.0095130268116398586 0 -0.099450143409077318 -0.00040143133860372459 0 -0.09356679494665994 -0.0042983887732841548 0 -0.099833378249854082 -0.0095130268116398586 0 -0.099450143409077318 -0.00040143133860372459 0 -0.1061499072299716 -0.0040736423931422034 0 -0.099450143409077318 -0.00040143133860372459 0 -0.1061499072299716 -0.0040736423931422034 0 -0.105358158110386 0.0033847776135997949 0 -0.1061499072299716 -0.0040736423931422034 0 -0.105358158110386 0.0033847776135997949 0 -0.1119989086322951 0.00066333237648008722 0 -0.085701472699934569 -0.0021704362983969768 0 -0.08142277690128065 -0.0095466927238512383 0 -0.074297532179188081 -0.00034498519096071108 0 -0.085701472699934569 -0.0021704362983969768 0 -0.09356679494665994 -0.0042983887732841548 0 -0.090673394486815148 -0.012720983796641969 0 -0.085701472699934569 -0.0021704362983969768 0 -0.09356679494665994 -0.0042983887732841548 0 -0.092227756543309419 0.00423836554477922 0 -0.085701472699934569 -0.0021704362983969768 0 -0.090673394486815148 -0.012720983796641969 0 -0.08142277690128065 -0.0095466927238512383 0 -0.090673394486815148 -0.012720983796641969 0 -0.08142277690128065 -0.0095466927238512383 0 -0.083614234258565956 -0.02184616151343444 0 -0.08142277690128065 -0.0095466927238512383 0 -0.083614234258565956 -0.02184616151343444 0 -0.076376503069368787 -0.016370895107025291 0 -0.090673394486815148 -0.012720983796641969 0 -0.083614234258565956 -0.02184616151343444 0 -0.091339750754897434 -0.022283024421743639 0 -0.099235353596513476 -0.01938915603414346 0 -0.090673394486815148 -0.012720983796641969 0 -0.091339750754897434 -0.022283024421743639 0 -0.083614234258565956 -0.02184616151343444 0 -0.091339750754897434 -0.022283024421743639 0 -0.085182063644112765 -0.030695731056946049 0 -0.094772378955385289 -0.029101757248879381 0 -0.091339750754897434 -0.022283024421743639 0 -0.085182063644112765 -0.030695731056946049 0 -0.083614234258565956 -0.02184616151343444 0 -0.085182063644112765 -0.030695731056946049 0 -0.071746005592217665 -0.029113979970191661 0 -0.071746005592217665 -0.029113979970191661 0 -0.067312168036264011 -0.015922425045751299 0 -0.056369463548748201 -0.0194426915104422 0 -0.083614234258565956 -0.02184616151343444 0 -0.071746005592217665 -0.029113979970191661 0 -0.076376503069368787 -0.016370895107025291 0 -0.071746005592217665 -0.029113979970191661 0 -0.067312168036264011 -0.015922425045751299 0 -0.076376503069368787 -0.016370895107025291 0 -0.067312168036264011 -0.015922425045751299 0 -0.076376503069368787 -0.016370895107025291 0 -0.072630669944282536 -0.0090680103302853247 0 -0.08142277690128065 -0.0095466927238512383 0 -0.076376503069368787 -0.016370895107025291 0 -0.072630669944282536 -0.0090680103302853247 0 -0.067312168036264011 -0.015922425045751299 0 -0.072630669944282536 -0.0090680103302853247 0 -0.062436411198129718 -0.0046985190703956198 0 -0.072630669944282536 -0.0090680103302853247 0 -0.074297532179188081 -0.00034498519096071108 0 -0.062436411198129718 -0.0046985190703956198 0 -0.08142277690128065 -0.0095466927238512383 0 -0.072630669944282536 -0.0090680103302853247 0 -0.074297532179188081 -0.00034498519096071108 0 -0.086877843553230416 -0.061647397457384359 0 -0.091043725876728113 -0.04883347380263104 0 -0.078628459739303699 -0.043790775665868753 0 -0.091043725876728113 -0.04883347380263104 0 -0.09099155256430666 -0.038038687521558479 0 -0.078628459739303699 -0.043790775665868753 0 -0.098347914689193031 -0.041381348637990083 0 -0.091043725876728113 -0.04883347380263104 0 -0.09099155256430666 -0.038038687521558479 0 -0.094772378955385289 -0.029101757248879381 0 -0.085182063644112765 -0.030695731056946049 0 -0.09099155256430666 -0.038038687521558479 0 -0.085182063644112765 -0.030695731056946049 0 -0.09099155256430666 -0.038038687521558479 0 -0.078628459739303699 -0.043790775665868753 0 -0.085182063644112765 -0.030695731056946049 0 -0.071746005592217665 -0.029113979970191661 0 -0.078628459739303699 -0.043790775665868753 0 -0.071746005592217665 -0.029113979970191661 0 -0.078628459739303699 -0.043790775665868753 0 -0.062645762233156488 -0.044658435400245833 0 -0.071746005592217665 -0.029113979970191661 0 -0.062645762233156488 -0.044658435400245833 0 -0.053374893162518408 -0.031779901250993788 0 -0.086877843553230416 -0.061647397457384359 0 -0.078628459739303699 -0.043790775665868753 0 -0.068108720449511745 -0.060431621398092827 0 -0.078628459739303699 -0.043790775665868753 0 -0.062645762233156488 -0.044658435400245833 0 -0.068108720449511745 -0.060431621398092827 0 -0.062645762233156488 -0.044658435400245833 0 -0.068108720449511745 -0.060431621398092827 0 -0.055978400535288617 -0.055763500692954743 0 -0.068108720449511745 -0.060431621398092827 0 -0.055978400535288617 -0.055763500692954743 0 -0.056484451081606067 -0.068497088591451136 0 -0.055978400535288617 -0.055763500692954743 0 -0.043609597711011777 -0.058499573173166758 0 -0.056484451081606067 -0.068497088591451136 0 -0.055978400535288617 -0.055763500692954743 0 -0.050098631987402553 -0.045096000744962478 0 -0.043609597711011777 -0.058499573173166758 0 -0.062645762233156488 -0.044658435400245833 0 -0.055978400535288617 -0.055763500692954743 0 -0.050098631987402553 -0.045096000744962478 0 -0.062645762233156488 -0.044658435400245833 0 -0.053374893162518408 -0.031779901250993788 0 -0.050098631987402553 -0.045096000744962478 0 -0.053374893162518408 -0.031779901250993788 0 -0.035871295168631273 -0.033757074572384187 0 -0.035871295168631273 -0.033757074572384187 0 -0.032551921171406359 -0.034132024780525877 0 -0.043609597711011777 -0.058499573173166758 0 -0.050098631987402553 -0.045096000744962478 0 -0.035871295168631273 -0.033757074572384187 0 -0.043609597711011777 -0.058499573173166758 0 -0.035871295168631273 -0.033757074572384187 0 -0.043609597711011777 -0.058499573173166758 0 -0.053374893162518408 -0.031779901250993788 0 -0.050098631987402553 -0.045096000744962478 0 -0.035871295168631273 -0.033757074572384187 0 -0.035871295168631273 -0.033757074572384187 0 -0.032551921171406359 -0.034132024780525877 0 -0.032922736798101621 -0.030062560971036111 0 -0.032551921171406359 -0.034132024780525877 0 -0.032922736798101621 -0.030062560971036111 0 -0.035871295168631273 -0.033757074572384187 0 -0.032551921171406359 -0.034132024780525877 0 -0.032551921171406359 -0.034132024780525877 0 -0.043609597711011777 -0.058499573173166758 0 -0.030112819858092998 -0.060899598225691132 0 -0.032551921171406359 -0.034132024780525877 0 -0.030112819858092998 -0.060899598225691132 0 -0.062436411198129718 -0.0046985190703956198 0 -0.049063020525450557 -0.0094484613833612993 0 -0.047826914617203078 0.001469151039970934 0 -0.062436411198129718 -0.0046985190703956198 0 -0.049063020525450557 -0.0094484613833612993 0 -0.056369463548748201 -0.0194426915104422 0 -0.067312168036264011 -0.015922425045751299 0 -0.062436411198129718 -0.0046985190703956198 0 -0.056369463548748201 -0.0194426915104422 0 -0.071746005592217665 -0.029113979970191661 0 -0.053374893162518408 -0.031779901250993788 0 -0.056369463548748201 -0.0194426915104422 0 -0.049063020525450557 -0.0094484613833612993 0 -0.056369463548748201 -0.0194426915104422 0 -0.043647551755021198 -0.018311208862384461 0 -0.053374893162518408 -0.031779901250993788 0 -0.056369463548748201 -0.0194426915104422 0 -0.043647551755021198 -0.018311208862384461 0 -0.035871295168631273 -0.033757074572384187 0 -0.027931048851053901 -0.0083688796385876091 0 -0.035871295168631273 -0.033757074572384187 0 -0.032922736798101621 -0.030062560971036111 0 -0.027931048851053901 -0.0083688796385876091 0 -0.053374893162518408 -0.031779901250993788 0 -0.035871295168631273 -0.033757074572384187 0 -0.043647551755021198 -0.018311208862384461 0 -0.035871295168631273 -0.033757074572384187 0 -0.043647551755021198 -0.018311208862384461 0 -0.027931048851053901 -0.0083688796385876091 0 -0.040432499405923722 -0.0058239416191065898 0 -0.027931048851053901 -0.0083688796385876091 0 -0.036611074460176238 0.009443777896756704 0 -0.043647551755021198 -0.018311208862384461 0 -0.040432499405923722 -0.0058239416191065898 0 -0.027931048851053901 -0.0083688796385876091 0 -0.049063020525450557 -0.0094484613833612993 0 -0.043647551755021198 -0.018311208862384461 0 -0.040432499405923722 -0.0058239416191065898 0 -0.049063020525450557 -0.0094484613833612993 0 -0.040432499405923722 -0.0058239416191065898 0 -0.047826914617203078 0.001469151039970934 0 -0.01667222954211801 -0.003018651556297432 0 -0.027931048851053901 -0.0083688796385876091 0 -0.018028612652532021 0.0044234363244373886 0 -0.01667222954211801 -0.003018651556297432 0 -0.027931048851053901 -0.0083688796385876091 0 -0.02582408940075576 -0.01809926431001985 0 -0.01667222954211801 -0.003018651556297432 0 -0.02582408940075576 -0.01809926431001985 0 -0.01342537613682538 -0.01155261994843405 0 -0.01667222954211801 -0.003018651556297432 0 -0.02582408940075576 -0.01809926431001985 0 -0.032922736798101621 -0.030062560971036111 0 -0.027931048851053901 -0.0083688796385876091 0 -0.02582408940075576 -0.01809926431001985 0 -0.032551921171406359 -0.034132024780525877 0 -0.032922736798101621 -0.030062560971036111 0 -0.02582408940075576 -0.01809926431001985 0 -0.032551921171406359 -0.034132024780525877 0 -0.02582408940075576 -0.01809926431001985 0 -0.003314385603862581 -0.037434641495532432 0 -0.0071414846043795308 -0.019119771314087691 0 -0.003314385603862581 -0.037434641495532432 0 0.0083878754145421119 -0.02018330378721013 0 -0.02582408940075576 -0.01809926431001985 0 -0.0071414846043795308 -0.019119771314087691 0 -0.01342537613682538 -0.01155261994843405 0 -0.02582408940075576 -0.01809926431001985 0 -0.0071414846043795308 -0.019119771314087691 0 -0.003314385603862581 -0.037434641495532432 0 -0.0071414846043795308 -0.019119771314087691 0 -0.01342537613682538 -0.01155261994843405 0 -0.0040637010000482386 -0.0059727926133312454 0 -0.0071414846043795308 -0.019119771314087691 0 -0.0040637010000482386 -0.0059727926133312454 0 0.0083878754145421119 -0.02018330378721013 0 -0.01667222954211801 -0.003018651556297432 0 -0.01342537613682538 -0.01155261994843405 0 -0.0040637010000482386 -0.0059727926133312454 0 -0.030112819858092998 -0.060899598225691132 0 -0.02097004410374044 -0.047357794546627301 0 -0.01208150450470089 -0.057692569968730893 0 -0.032551921171406359 -0.034132024780525877 0 -0.030112819858092998 -0.060899598225691132 0 -0.02097004410374044 -0.047357794546627301 0 -0.032551921171406359 -0.034132024780525877 0 -0.02097004410374044 -0.047357794546627301 0 -0.003314385603862581 -0.037434641495532432 0 -0.032551921171406359 -0.034132024780525877 0 -0.003314385603862581 -0.037434641495532432 0 -0.003314385603862581 -0.037434641495532432 0 -0.01208150450470089 -0.057692569968730893 0 0.0063456604897870542 -0.056665138065186929 0 -0.01208150450470089 -0.057692569968730893 0 -0.0019047174400742891 -0.072071791944647356 0 0.0063456604897870542 -0.056665138065186929 0 -0.02097004410374044 -0.047357794546627301 0 -0.003314385603862581 -0.037434641495532432 0 -0.01208150450470089 -0.057692569968730893 0 -0.0019047174400742891 -0.072071791944647356 0 -0.010894012334813531 -0.086567958999258232 0 -0.01746763705839123 -0.073242264264599677 0 -0.01208150450470089 -0.057692569968730893 0 -0.0019047174400742891 -0.072071791944647356 0 -0.01746763705839123 -0.073242264264599677 0 -0.010894012334813531 -0.086567958999258232 0 -0.0051599679916239016 -0.098500557996298033 0 0.0067789116749813619 -0.088875342084001996 0 -0.0019047174400742891 -0.072071791944647356 0 -0.010894012334813531 -0.086567958999258232 0 0.0067789116749813619 -0.088875342084001996 0 -0.010894012334813531 -0.086567958999258232 0 -0.02767371854478053 -0.087667171670856442 0 -0.01746763705839123 -0.073242264264599677 0 -0.010894012334813531 -0.086567958999258232 0 -0.02767371854478053 -0.087667171670856442 0 -0.01550486344862936 -0.099523166717061587 0 -0.030112819858092998 -0.060899598225691132 0 -0.02767371854478053 -0.087667171670856442 0 -0.030112819858092998 -0.060899598225691132 0 -0.01208150450470089 -0.057692569968730893 0 -0.01746763705839123 -0.073242264264599677 0 -0.030112819858092998 -0.060899598225691132 0 -0.02767371854478053 -0.087667171670856442 0 -0.01746763705839123 -0.073242264264599677 0 -0.030112819858092998 -0.060899598225691132 0 -0.02767371854478053 -0.087667171670856442 0 -0.038270292813318382 -0.075523681576919355 0 -0.043609597711011777 -0.058499573173166758 0 -0.030112819858092998 -0.060899598225691132 0 -0.038270292813318382 -0.075523681576919355 0 -0.043609597711011777 -0.058499573173166758 0 -0.038270292813318382 -0.075523681576919355 0 -0.051347900253390033 -0.083242071773949933 0 -0.02767371854478053 -0.087667171670856442 0 -0.038270292813318382 -0.075523681576919355 0 -0.04061638907328146 -0.088701318647284005 0 -0.02767371854478053 -0.087667171670856442 0 -0.04061638907328146 -0.088701318647284005 0 -0.03629224915142451 -0.099193412989388344 0 -0.038270292813318382 -0.075523681576919355 0 -0.04061638907328146 -0.088701318647284005 0 -0.051347900253390033 -0.083242071773949933 0 -0.063597461622629359 -0.084208095886413328 0 -0.051347900253390033 -0.083242071773949933 0 -0.056484451081606067 -0.068497088591451136 0 -0.063597461622629359 -0.084208095886413328 0 -0.051347900253390033 -0.083242071773949933 0 -0.059086202795758408 -0.10798457037473611 0 -0.04061638907328146 -0.088701318647284005 0 -0.051347900253390033 -0.083242071773949933 0 -0.049497784603493862 -0.097880255225305982 0 -0.043609597711011777 -0.058499573173166758 0 -0.051347900253390033 -0.083242071773949933 0 -0.056484451081606067 -0.068497088591451136 0 -0.043609597711011777 -0.058499573173166758 0 -0.051347900253390033 -0.083242071773949933 0 -0.058796188458866472 -0.1095130835340711 0 -0.042508293227084222 -0.11533501004131259 0 -0.055504924908303922 -0.12685960406133359 0 -0.067451631278283977 -0.121002024074214 0 -0.058796188458866472 -0.1095130835340711 0 -0.055504924908303922 -0.12685960406133359 0 -0.058796188458866472 -0.1095130835340711 0 -0.055504924908303922 -0.12685960406133359 0 -0.042508293227084222 -0.11533501004131259 0 -0.055504924908303922 -0.12685960406133359 0 -0.042807111707630137 -0.13075576817730011 0 -0.051347900253390033 -0.083242071773949933 0 -0.059086202795758408 -0.10798457037473611 0 -0.058796188458866472 -0.1095130835340711 0 -0.059086202795758408 -0.10798457037473611 0 -0.049497784603493862 -0.097880255225305982 0 -0.051347900253390033 -0.083242071773949933 0 -0.059086202795758408 -0.10798457037473611 0 -0.049497784603493862 -0.097880255225305982 0 -0.063597461622629359 -0.084208095886413328 0 -0.063272551133818453 -0.10024221525934961 0 -0.059086202795758408 -0.10798457037473611 0 -0.058796188458866472 -0.1095130835340711 0 -0.049497784603493862 -0.097880255225305982 0 -0.03629224915142451 -0.099193412989388344 0 -0.063998496544944633 -0.1076560151872737 0 -0.058796188458866472 -0.1095130835340711 0 -0.060773538639938611 -0.1080015890984703 0 -0.058796188458866472 -0.1095130835340711 0 -0.03629224915142451 -0.099193412989388344 0 -0.063597461622629359 -0.084208095886413328 0 -0.059086202795758408 -0.10798457037473611 0 -0.058796188458866472 -0.1095130835340711 0 -0.060773538639938611 -0.1080015890984703 0 -0.059086202795758408 -0.10798457037473611 0 -0.058796188458866472 -0.1095130835340711 0 -0.059086202795758408 -0.10798457037473611 0 -0.060773538639938611 -0.1080015890984703 0 -0.059086202795758408 -0.10798457037473611 0 -0.061390074486631037 -0.1050429047383318 0 -0.063998496544944633 -0.1076560151872737 0 -0.060773538639938611 -0.1080015890984703 0 -0.061390074486631037 -0.1050429047383318 0 -0.063272551133818453 -0.10024221525934961 0 -0.059086202795758408 -0.10798457037473611 0 -0.061390074486631037 -0.1050429047383318 0 -0.058796188458866472 -0.1095130835340711 0 -0.03629224915142451 -0.099193412989388344 0 -0.042508293227084222 -0.11533501004131259 0 -0.04061638907328146 -0.088701318647284005 0 -0.049497784603493862 -0.097880255225305982 0 -0.03629224915142451 -0.099193412989388344 0 -0.03629224915142451 -0.099193412989388344 0 -0.042508293227084222 -0.11533501004131259 0 -0.02523461723146805 -0.1144347451160217 0 -0.042508293227084222 -0.11533501004131259 0 -0.033560622473511922 -0.12405625309998081 0 -0.02523461723146805 -0.1144347451160217 0 -0.042508293227084222 -0.11533501004131259 0 -0.033560622473511922 -0.12405625309998081 0 -0.042807111707630137 -0.13075576817730011 0 -0.033560622473511922 -0.12405625309998081 0 -0.02523461723146805 -0.1144347451160217 0 -0.023272419894103578 -0.130312750635385 0 -0.02523461723146805 -0.1144347451160217 0 -0.01201198595792654 -0.1230543912030342 0 -0.023272419894103578 -0.130312750635385 0 -0.02767371854478053 -0.087667171670856442 0 -0.02523461723146805 -0.1144347451160217 0 -0.01550486344862936 -0.099523166717061587 0 -0.02767371854478053 -0.087667171670856442 0 -0.03629224915142451 -0.099193412989388344 0 -0.02523461723146805 -0.1144347451160217 0 -0.02767371854478053 -0.087667171670856442 0 -0.02523461723146805 -0.1144347451160217 0 -0.02523461723146805 -0.1144347451160217 0 -0.01550486344862936 -0.099523166717061587 0 -0.0085620011404608093 -0.1104453998028736 0 -0.010894012334813531 -0.086567958999258232 0 -0.01550486344862936 -0.099523166717061587 0 -0.0051599679916239016 -0.098500557996298033 0 -0.01550486344862936 -0.099523166717061587 0 -0.0051599679916239016 -0.098500557996298033 0 -0.0085620011404608093 -0.1104453998028736 0 -0.0051599679916239016 -0.098500557996298033 0 -0.0085620011404608093 -0.1104453998028736 0 0.0033433695816099951 -0.1044055319074582 0 -0.02523461723146805 -0.1144347451160217 0 -0.01201198595792654 -0.1230543912030342 0 -0.0085620011404608093 -0.1104453998028736 0 -0.01201198595792654 -0.1230543912030342 0 -0.0085620011404608093 -0.1104453998028736 0 0.0056030651199572906 -0.1221440163211721 0 -0.006850710005279358 -0.14222568930940019 0 0.0056030651199572906 -0.1221440163211721 0 -0.01093089456795752 -0.13191398425875611 0 -0.006850710005279358 -0.14222568930940019 0 0.0056030651199572906 -0.1221440163211721 0 -0.01201198595792654 -0.1230543912030342 0 -0.01093089456795752 -0.13191398425875611 0 0.0056030651199572906 -0.1221440163211721 0 -0.01093089456795752 -0.13191398425875611 0 -0.01812242210243542 -0.14183307382478921 0 -0.006850710005279358 -0.14222568930940019 0 -0.01201198595792654 -0.1230543912030342 0 -0.01093089456795752 -0.13191398425875611 0 -0.023272419894103578 -0.130312750635385 0 -0.023272419894103578 -0.130312750635385 0 -0.02810827481250908 -0.1415147540081432 0 -0.01812242210243542 -0.14183307382478921 0 -0.01093089456795752 -0.13191398425875611 0 -0.023272419894103578 -0.130312750635385 0 -0.01812242210243542 -0.14183307382478921 0 -0.023272419894103578 -0.130312750635385 0 -0.02810827481250908 -0.1415147540081432 0 -0.034080243665205651 -0.13394709775084551 0 -0.033560622473511922 -0.12405625309998081 0 -0.023272419894103578 -0.130312750635385 0 -0.034080243665205651 -0.13394709775084551 0 -0.021605219070760882 -0.14966316850935321 0 -0.006850710005279358 -0.14222568930940019 0 -0.019793847655100449 -0.16309645782026749 0 -0.021605219070760882 -0.14966316850935321 0 -0.025771913005948499 -0.1580894517194695 0 -0.03125109504740816 -0.1514984677136231 0 -0.02810827481250908 -0.1415147540081432 0 -0.021605219070760882 -0.14966316850935321 0 -0.03125109504740816 -0.1514984677136231 0 -0.02810827481250908 -0.1415147540081432 0 -0.01812242210243542 -0.14183307382478921 0 -0.021605219070760882 -0.14966316850935321 0 -0.006850710005279358 -0.14222568930940019 0 -0.019793847655100449 -0.16309645782026749 0 -0.006850710005279358 -0.14222568930940019 0 -0.01300831189858918 -0.16374014303043569 0 0.0046603684621628104 -0.1426266423866292 0 -0.001672999716826632 -0.15908307441973141 0 -0.01300831189858918 -0.16374014303043569 0 0.0046603684621628104 -0.1426266423866292 0 -0.01300831189858918 -0.16374014303043569 0 0.0046603684621628104 -0.1426266423866292 0 -0.01812242210243542 -0.14183307382478921 0 -0.021605219070760882 -0.14966316850935321 0 -0.006850710005279358 -0.14222568930940019 0 -0.01812242210243542 -0.14183307382478921 0 -0.006850710005279358 -0.14222568930940019 0 -0.006850710005279358 -0.14222568930940019 0 0.0046603684621628104 -0.1426266423866292 0 -0.001672999716826632 -0.15908307441973141 0 -0.0021974887681538891 -0.1710032044305812 0 0.0038534333372737331 -0.1589623078312796 0 -0.006850710005279358 -0.14222568930940019 0 -0.01300831189858918 -0.16374014303043569 0 -0.019793847655100449 -0.16309645782026749 0 -0.0021974887681538891 -0.1710032044305812 0 -0.01300831189858918 -0.16374014303043569 0 -0.01158566158253028 -0.1800302841835934 0 -0.001672999716826632 -0.15908307441973141 0 -0.0021974887681538891 -0.1710032044305812 0 -0.01300831189858918 -0.16374014303043569 0 -0.01300831189858918 -0.16374014303043569 0 -0.01158566158253028 -0.1800302841835934 0 -0.020565115449530592 -0.18468308455336799 0 -0.0021974887681538891 -0.1710032044305812 0 -0.01158566158253028 -0.1800302841835934 0 0.0037036872983158189 -0.18532614146338761 0 -0.019793847655100449 -0.16309645782026749 0 -0.029541183741271189 -0.1717417260814669 0 -0.032736985304919392 -0.18396722633113599 0 -0.01300831189858918 -0.16374014303043569 0 -0.03067699225934449 -0.18485364367423959 0 -0.03067699225934449 -0.18485364367423959 0 -0.019793847655100449 -0.16309645782026749 0 -0.032736985304919392 -0.18396722633113599 0 -0.019793847655100449 -0.16309645782026749 0 -0.032736985304919392 -0.18396722633113599 0 -0.01300831189858918 -0.16374014303043569 0 -0.020565115449530592 -0.18468308455336799 0 -0.03067699225934449 -0.18485364367423959 0 -0.01158566158253028 -0.1800302841835934 0 -0.020565115449530592 -0.18468308455336799 0 -0.02309782078493702 -0.19447412876297929 0 -0.020565115449530592 -0.18468308455336799 0 -0.03067699225934449 -0.18485364367423959 0 -0.02621451560194505 -0.18875340250497419 0 -0.01300831189858918 -0.16374014303043569 0 -0.03067699225934449 -0.18485364367423959 0 -0.019793847655100449 -0.16309645782026749 0 -0.021605219070760882 -0.14966316850935321 0 -0.019793847655100449 -0.16309645782026749 0 -0.025771913005948499 -0.1580894517194695 0 -0.019793847655100449 -0.16309645782026749 0 -0.029541183741271189 -0.1717417260814669 0 -0.02744317172183566 -0.16433553724595659 0 -0.02744317172183566 -0.16433553724595659 0 -0.030812773380997749 -0.1611123031845462 0 -0.031296140825860408 -0.16763774742403301 0 -0.029541183741271189 -0.1717417260814669 0 -0.02744317172183566 -0.16433553724595659 0 -0.031296140825860408 -0.16763774742403301 0 -0.02744317172183566 -0.16433553724595659 0 -0.030812773380997749 -0.1611123031845462 0 -0.025771913005948499 -0.1580894517194695 0 -0.030812773380997749 -0.1611123031845462 0 -0.025771913005948499 -0.1580894517194695 0 -0.03125109504740816 -0.1514984677136231 0 -0.019793847655100449 -0.16309645782026749 0 -0.02744317172183566 -0.16433553724595659 0 -0.025771913005948499 -0.1580894517194695 0 -0.030812773380997749 -0.1611123031845462 0 -0.036987896330961993 -0.15778996798669079 0 -0.03125109504740816 -0.1514984677136231 0 -0.036987896330961993 -0.15778996798669079 0 -0.036158019950952573 -0.16576289558797 0 -0.043082835280264513 -0.16273198714090131 0 -0.030812773380997749 -0.1611123031845462 0 -0.036987896330961993 -0.15778996798669079 0 -0.036158019950952573 -0.16576289558797 0 -0.030812773380997749 -0.1611123031845462 0 -0.031296140825860408 -0.16763774742403301 0 -0.036158019950952573 -0.16576289558797 0 -0.031296140825860408 -0.16763774742403301 0 -0.036158019950952573 -0.16576289558797 0 -0.034614323535649243 -0.17265297645036301 0 -0.029541183741271189 -0.1717417260814669 0 -0.031296140825860408 -0.16763774742403301 0 -0.034614323535649243 -0.17265297645036301 0 -0.036158019950952573 -0.16576289558797 0 -0.041654511869640941 -0.17103673211743509 0 -0.034614323535649243 -0.17265297645036301 0 -0.041654511869640941 -0.17103673211743509 0 -0.043082835280264513 -0.16273198714090131 0 -0.052873040206447862 -0.16921722372916179 0 -0.036158019950952573 -0.16576289558797 0 -0.041654511869640941 -0.17103673211743509 0 -0.043082835280264513 -0.16273198714090131 0 -0.036987896330961993 -0.15778996798669079 0 -0.043082835280264513 -0.16273198714090131 0 -0.043162211848349973 -0.15196249531459241 0 -0.043082835280264513 -0.16273198714090131 0 -0.050528373043019617 -0.15727218231735349 0 -0.043162211848349973 -0.15196249531459241 0 -0.037005781285103262 -0.18427169287991629 0 -0.034807363636254862 -0.18729200301107321 0 -0.041720086537691152 -0.18600059019803619 0 -0.03067699225934449 -0.18485364367423959 0 -0.034807363636254862 -0.18729200301107321 0 -0.032736985304919392 -0.18396722633113599 0 -0.037005781285103262 -0.18427169287991629 0 -0.034807363636254862 -0.18729200301107321 0 -0.032736985304919392 -0.18396722633113599 0 -0.037005781285103262 -0.18427169287991629 0 -0.032736985304919392 -0.18396722633113599 0 -0.035367440107092467 -0.1814044545563393 0 -0.032736985304919392 -0.18396722633113599 0 -0.035367440107092467 -0.1814044545563393 0 -0.033409175250622383 -0.17801908709344419 0 -0.037005781285103262 -0.18427169287991629 0 -0.038008715178451079 -0.17902907266176629 0 -0.041720086537691152 -0.18600059019803619 0 -0.037005781285103262 -0.18427169287991629 0 -0.035367440107092467 -0.1814044545563393 0 -0.038008715178451079 -0.17902907266176629 0 -0.041654511869640941 -0.17103673211743509 0 -0.038008715178451079 -0.17902907266176629 0 -0.034614323535649243 -0.17265297645036301 0 -0.029541183741271189 -0.1717417260814669 0 -0.032736985304919392 -0.18396722633113599 0 -0.033409175250622383 -0.17801908709344419 0 -0.038008715178451079 -0.17902907266176629 0 -0.033409175250622383 -0.17801908709344419 0 -0.034614323535649243 -0.17265297645036301 0 -0.035367440107092467 -0.1814044545563393 0 -0.038008715178451079 -0.17902907266176629 0 -0.033409175250622383 -0.17801908709344419 0 -0.029541183741271189 -0.1717417260814669 0 -0.033409175250622383 -0.17801908709344419 0 -0.034614323535649243 -0.17265297645036301 0 -0.041654511869640941 -0.17103673211743509 0 -0.038008715178451079 -0.17902907266176629 0 -0.046411251632304661 -0.17754302429297769 0 -0.038008715178451079 -0.17902907266176629 0 -0.046411251632304661 -0.17754302429297769 0 -0.041720086537691152 -0.18600059019803619 0 -0.046411251632304661 -0.17754302429297769 0 -0.041720086537691152 -0.18600059019803619 0 -0.057738853375498167 -0.18320149273389899 0 -0.041654511869640941 -0.17103673211743509 0 -0.046411251632304661 -0.17754302429297769 0 -0.052873040206447862 -0.16921722372916179 0 -0.046411251632304661 -0.17754302429297769 0 -0.057738853375498167 -0.18320149273389899 0 -0.052873040206447862 -0.16921722372916179 0 -0.057738853375498167 -0.18320149273389899 0 -0.052873040206447862 -0.16921722372916179 0 -0.068110868203381691 -0.17103611072788441 0 -0.043082835280264513 -0.16273198714090131 0 -0.050528373043019617 -0.15727218231735349 0 -0.052873040206447862 -0.16921722372916179 0 -0.052873040206447862 -0.16921722372916179 0 -0.061310116522295191 -0.15824308081351629 0 -0.068110868203381691 -0.17103611072788441 0 -0.050528373043019617 -0.15727218231735349 0 -0.052873040206447862 -0.16921722372916179 0 -0.061310116522295191 -0.15824308081351629 0 -0.061310116522295191 -0.15824308081351629 0 -0.052213661357740547 -0.144206124588596 0 -0.06563788412359052 -0.1425526683778687 0 -0.050528373043019617 -0.15727218231735349 0 -0.061310116522295191 -0.15824308081351629 0 -0.052213661357740547 -0.144206124588596 0 -0.050528373043019617 -0.15727218231735349 0 -0.052213661357740547 -0.144206124588596 0 -0.043162211848349973 -0.15196249531459241 0 -0.052213661357740547 -0.144206124588596 0 -0.055504924908303922 -0.12685960406133359 0 -0.06563788412359052 -0.1425526683778687 0 -0.052213661357740547 -0.144206124588596 0 -0.055504924908303922 -0.12685960406133359 0 -0.052213661357740547 -0.144206124588596 0 -0.055504924908303922 -0.12685960406133359 0 -0.042807111707630137 -0.13075576817730011 0 -0.052213661357740547 -0.144206124588596 0 -0.042807111707630137 -0.13075576817730011 0 -0.039024711292900617 -0.1423825726322126 0 -0.033560622473511922 -0.12405625309998081 0 -0.042807111707630137 -0.13075576817730011 0 -0.034080243665205651 -0.13394709775084551 0 -0.02810827481250908 -0.1415147540081432 0 -0.034080243665205651 -0.13394709775084551 0 -0.039024711292900617 -0.1423825726322126 0 -0.042807111707630137 -0.13075576817730011 0 -0.034080243665205651 -0.13394709775084551 0 -0.039024711292900617 -0.1423825726322126 0 -0.02810827481250908 -0.1415147540081432 0 -0.039024711292900617 -0.1423825726322126 0 -0.03125109504740816 -0.1514984677136231 0 -0.036987896330961993 -0.15778996798669079 0 -0.03125109504740816 -0.1514984677136231 0 -0.043162211848349973 -0.15196249531459241 0 -0.039024711292900617 -0.1423825726322126 0 -0.03125109504740816 -0.1514984677136231 0 -0.043162211848349973 -0.15196249531459241 0 -0.052213661357740547 -0.144206124588596 0 -0.039024711292900617 -0.1423825726322126 0 -0.043162211848349973 -0.15196249531459241 0 -0.024230883729688641 -0.24906623804860559 0 -0.02055103672003819 -0.22897629851001661 0 -0.024230883729688641 -0.24906623804860559 0 -0.02055103672003819 -0.22897629851001661 0 -0.03807963019285459 -0.24205692138918439 0 -0.010819040425910659 -0.25557293657412511 0 -0.024230883729688641 -0.24906623804860559 0 -0.02055103672003819 -0.22897629851001661 0 -0.02055103672003819 -0.22897629851001661 0 0.0030378723775897828 -0.24038974811497629 0 -0.010819040425910659 -0.25557293657412511 0 -0.02055103672003819 -0.22897629851001661 0 0.0030378723775897828 -0.24038974811497629 0 -0.010819040425910659 -0.25557293657412511 0 0.0030378723775897828 -0.24038974811497629 0 -0.0017146979285968689 -0.2201291090249857 0 -0.02055103672003819 -0.22897629851001661 0 0.0030378723775897828 -0.24038974811497629 0 -0.02055103672003819 -0.22897629851001661 0 -0.01606834915128489 -0.20450329134680489 0 -0.02898779355603593 -0.21236849270525901 0 -0.01606834915128489 -0.20450329134680489 0 -0.02309782078493702 -0.19447412876297929 0 -0.02055103672003819 -0.22897629851001661 0 -0.02898779355603593 -0.21236849270525901 0 -0.01606834915128489 -0.20450329134680489 0 -0.0017146979285968689 -0.2201291090249857 0 -0.02055103672003819 -0.22897629851001661 0 -0.01606834915128489 -0.20450329134680489 0 -0.0017146979285968689 -0.2201291090249857 0 -0.01606834915128489 -0.20450329134680489 0 0.010998487786589651 -0.2039049364373606 0 -0.01158566158253028 -0.1800302841835934 0 -0.01606834915128489 -0.20450329134680489 0 0.0037036872983158189 -0.18532614146338761 0 -0.01606834915128489 -0.20450329134680489 0 0.010998487786589651 -0.2039049364373606 0 0.0037036872983158189 -0.18532614146338761 0 -0.01158566158253028 -0.1800302841835934 0 -0.01606834915128489 -0.20450329134680489 0 -0.01158566158253028 -0.1800302841835934 0 -0.01606834915128489 -0.20450329134680489 0 -0.02309782078493702 -0.19447412876297929 0 -0.020565115449530592 -0.18468308455336799 0 -0.02309782078493702 -0.19447412876297929 0 -0.02621451560194505 -0.18875340250497419 0 -0.02898779355603593 -0.21236849270525901 0 -0.02309782078493702 -0.19447412876297929 0 -0.036553778449979382 -0.19978448459187129 0 -0.02309782078493702 -0.19447412876297929 0 -0.030518133913968098 -0.1910027530293098 0 -0.036553778449979382 -0.19978448459187129 0 -0.03067699225934449 -0.18485364367423959 0 -0.030518133913968098 -0.1910027530293098 0 -0.02621451560194505 -0.18875340250497419 0 -0.02309782078493702 -0.19447412876297929 0 -0.030518133913968098 -0.1910027530293098 0 -0.02621451560194505 -0.18875340250497419 0 -0.036923161079126167 -0.19178154082917681 0 -0.036553778449979382 -0.19978448459187129 0 -0.041355333480525433 -0.19355839722338389 0 -0.030518133913968098 -0.1910027530293098 0 -0.036923161079126167 -0.19178154082917681 0 -0.036553778449979382 -0.19978448459187129 0 -0.034807363636254862 -0.18729200301107321 0 -0.041720086537691152 -0.18600059019803619 0 -0.036923161079126167 -0.19178154082917681 0 -0.034807363636254862 -0.18729200301107321 0 -0.030518133913968098 -0.1910027530293098 0 -0.036923161079126167 -0.19178154082917681 0 -0.03067699225934449 -0.18485364367423959 0 -0.034807363636254862 -0.18729200301107321 0 -0.030518133913968098 -0.1910027530293098 0 -0.036553778449979382 -0.19978448459187129 0 -0.041355333480525433 -0.19355839722338389 0 -0.050224307855305003 -0.1966669732744514 0 -0.041720086537691152 -0.18600059019803619 0 -0.041355333480525433 -0.19355839722338389 0 -0.050224307855305003 -0.1966669732744514 0 -0.041720086537691152 -0.18600059019803619 0 -0.036923161079126167 -0.19178154082917681 0 -0.041355333480525433 -0.19355839722338389 0 -0.041720086537691152 -0.18600059019803619 0 -0.057738853375498167 -0.18320149273389899 0 -0.050224307855305003 -0.1966669732744514 0 -0.057738853375498167 -0.18320149273389899 0 -0.050224307855305003 -0.1966669732744514 0 -0.069105178102381121 -0.20548346789687791 0 -0.050224307855305003 -0.1966669732744514 0 -0.044828107411209593 -0.21722988320344711 0 -0.069105178102381121 -0.20548346789687791 0 -0.044828107411209593 -0.21722988320344711 0 -0.069105178102381121 -0.20548346789687791 0 -0.02898779355603593 -0.21236849270525901 0 -0.036553778449979382 -0.19978448459187129 0 -0.044828107411209593 -0.21722988320344711 0 -0.036553778449979382 -0.19978448459187129 0 -0.050224307855305003 -0.1966669732744514 0 -0.044828107411209593 -0.21722988320344711 0 -0.044828107411209593 -0.21722988320344711 0 -0.056830740504242742 -0.24007254315402429 0 -0.0769248451276663 -0.23030150412477651 0 -0.044828107411209593 -0.21722988320344711 0 -0.056830740504242742 -0.24007254315402429 0 -0.03807963019285459 -0.24205692138918439 0 -0.02055103672003819 -0.22897629851001661 0 -0.02898779355603593 -0.21236849270525901 0 -0.044828107411209593 -0.21722988320344711 0 -0.02055103672003819 -0.22897629851001661 0 -0.044828107411209593 -0.21722988320344711 0 -0.03807963019285459 -0.24205692138918439 0 -0.02055103672003819 -0.22897629851001661 0 -0.044828107411209593 -0.21722988320344711 0 -0.047599741957801339 -0.25941783140469582 0 -0.056830740504242742 -0.24007254315402429 0 -0.03807963019285459 -0.24205692138918439 0 -0.03444644217127648 -0.25622442691896169 0 -0.024230883729688641 -0.24906623804860559 0 -0.03807963019285459 -0.24205692138918439 0 -0.091748393042932544 -0.24861226008115139 0 -0.0769248451276663 -0.23030150412477651 0 -0.1033133534484633 -0.2370856768048234 0 -0.091748393042932544 -0.24861226008115139 0 -0.075066728641418501 -0.24741653209891179 0 -0.0769248451276663 -0.23030150412477651 0 -0.056830740504242742 -0.24007254315402429 0 -0.075066728641418501 -0.24741653209891179 0 -0.0769248451276663 -0.23030150412477651 0 -0.064922654965187232 -0.26030735454800252 0 -0.056830740504242742 -0.24007254315402429 0 -0.075066728641418501 -0.24741653209891179 0 -0.0769248451276663 -0.23030150412477651 0 -0.097581414743016306 -0.2162101656342002 0 -0.1033133534484633 -0.2370856768048234 0 -0.044828107411209593 -0.21722988320344711 0 -0.0769248451276663 -0.23030150412477651 0 -0.069105178102381121 -0.20548346789687791 0 -0.069105178102381121 -0.20548346789687791 0 -0.093382248793552641 -0.19373705259030879 0 -0.097581414743016306 -0.2162101656342002 0 -0.0769248451276663 -0.23030150412477651 0 -0.069105178102381121 -0.20548346789687791 0 -0.097581414743016306 -0.2162101656342002 0 -0.057738853375498167 -0.18320149273389899 0 -0.069105178102381121 -0.20548346789687791 0 -0.075640139055045241 -0.1870665395123019 0 -0.069105178102381121 -0.20548346789687791 0 -0.093382248793552641 -0.19373705259030879 0 -0.075640139055045241 -0.1870665395123019 0 -0.069105178102381121 -0.20548346789687791 0 -0.093382248793552641 -0.19373705259030879 0 -0.093382248793552641 -0.19373705259030879 0 -0.1097802578273636 -0.2002211572598353 0 -0.1101503361381069 -0.1783824405548832 0 -0.124493035267251 -0.19143418698341591 0 -0.1097802578273636 -0.2002211572598353 0 -0.1101503361381069 -0.1783824405548832 0 -0.124493035267251 -0.19143418698341591 0 -0.1097802578273636 -0.2002211572598353 0 -0.12232531932628379 -0.21360902552232319 0 -0.1097802578273636 -0.2002211572598353 0 -0.12232531932628379 -0.21360902552232319 0 -0.097581414743016306 -0.2162101656342002 0 -0.12232531932628379 -0.21360902552232319 0 -0.097581414743016306 -0.2162101656342002 0 -0.1120109628118687 -0.22599234186168449 0 -0.093382248793552641 -0.19373705259030879 0 -0.1097802578273636 -0.2002211572598353 0 -0.097581414743016306 -0.2162101656342002 0 -0.097581414743016306 -0.2162101656342002 0 -0.1120109628118687 -0.22599234186168449 0 -0.1033133534484633 -0.2370856768048234 0 -0.12232531932628379 -0.21360902552232319 0 -0.1120109628118687 -0.22599234186168449 0 -0.1241812669046308 -0.23345839604857391 0 -0.1120109628118687 -0.22599234186168449 0 -0.1241812669046308 -0.23345839604857391 0 -0.1033133534484633 -0.2370856768048234 0 -0.1241812669046308 -0.23345839604857391 0 -0.11835882043479951 -0.24860760241583349 0 -0.1033133534484633 -0.2370856768048234 0 -0.10405054464961171 -0.259602327016632 0 -0.091748393042932544 -0.24861226008115139 0 -0.1033133534484633 -0.2370856768048234 0 -0.10405054464961171 -0.259602327016632 0 -0.11835882043479951 -0.24860760241583349 0 -0.1033133534484633 -0.2370856768048234 0 -0.079733277890887938 -0.14373916771173181 0 -0.090262699144125227 -0.14897812776713509 0 -0.089200311079580069 -0.13193782222381181 0 -0.079733277890887938 -0.14373916771173181 0 -0.090262699144125227 -0.14897812776713509 0 -0.075320386694660735 -0.1567425806205171 0 -0.081208194369374723 -0.11979059602120511 0 -0.089200311079580069 -0.13193782222381181 0 -0.103620200279883 -0.1300681085083388 0 -0.089200311079580069 -0.13193782222381181 0 -0.080388249440251594 -0.12776675217401481 0 -0.076341079107823603 -0.13320625721898549 0 -0.081208194369374723 -0.11979059602120511 0 -0.089200311079580069 -0.13193782222381181 0 -0.080388249440251594 -0.12776675217401481 0 -0.079733277890887938 -0.14373916771173181 0 -0.089200311079580069 -0.13193782222381181 0 -0.076341079107823603 -0.13320625721898549 0 -0.055504924908303922 -0.12685960406133359 0 -0.067717629986607825 -0.12956682110039541 0 -0.06563788412359052 -0.1425526683778687 0 -0.079733277890887938 -0.14373916771173181 0 -0.076341079107823603 -0.13320625721898549 0 -0.06563788412359052 -0.1425526683778687 0 -0.076341079107823603 -0.13320625721898549 0 -0.074803413204227995 -0.12613233323205669 0 -0.067717629986607825 -0.12956682110039541 0 -0.080388249440251594 -0.12776675217401481 0 -0.076341079107823603 -0.13320625721898549 0 -0.074803413204227995 -0.12613233323205669 0 -0.067451631278283977 -0.121002024074214 0 -0.055504924908303922 -0.12685960406133359 0 -0.067717629986607825 -0.12956682110039541 0 -0.067451631278283977 -0.121002024074214 0 -0.074803413204227995 -0.12613233323205669 0 -0.067717629986607825 -0.12956682110039541 0 -0.076341079107823603 -0.13320625721898549 0 -0.067717629986607825 -0.12956682110039541 0 -0.06563788412359052 -0.1425526683778687 0 -0.061310116522295191 -0.15824308081351629 0 -0.06563788412359052 -0.1425526683778687 0 -0.075320386694660735 -0.1567425806205171 0 -0.079733277890887938 -0.14373916771173181 0 -0.06563788412359052 -0.1425526683778687 0 -0.075320386694660735 -0.1567425806205171 0 -0.068110868203381691 -0.17103611072788441 0 -0.075320386694660735 -0.1567425806205171 0 -0.085782673366343015 -0.17174574695791081 0 -0.061310116522295191 -0.15824308081351629 0 -0.068110868203381691 -0.17103611072788441 0 -0.075320386694660735 -0.1567425806205171 0 -0.068110868203381691 -0.17103611072788441 0 -0.075640139055045241 -0.1870665395123019 0 -0.085782673366343015 -0.17174574695791081 0 -0.057738853375498167 -0.18320149273389899 0 -0.068110868203381691 -0.17103611072788441 0 -0.075640139055045241 -0.1870665395123019 0 -0.093382248793552641 -0.19373705259030879 0 -0.075640139055045241 -0.1870665395123019 0 -0.085782673366343015 -0.17174574695791081 0 -0.090262699144125227 -0.14897812776713509 0 -0.075320386694660735 -0.1567425806205171 0 -0.085782673366343015 -0.17174574695791081 0 -0.085782673366343015 -0.17174574695791081 0 -0.1101503361381069 -0.1783824405548832 0 -0.1059074397783676 -0.156045683976688 0 -0.090262699144125227 -0.14897812776713509 0 -0.085782673366343015 -0.17174574695791081 0 -0.1059074397783676 -0.156045683976688 0 -0.085782673366343015 -0.17174574695791081 0 -0.1059074397783676 -0.156045683976688 0 -0.093382248793552641 -0.19373705259030879 0 -0.085782673366343015 -0.17174574695791081 0 -0.1101503361381069 -0.1783824405548832 0 -0.1101503361381069 -0.1783824405548832 0 -0.13046311922212989 -0.161714555094575 0 -0.12684585429501419 -0.17749342082597719 0 -0.124493035267251 -0.19143418698341591 0 -0.1101503361381069 -0.1783824405548832 0 -0.12684585429501419 -0.17749342082597719 0 -0.1101503361381069 -0.1783824405548832 0 -0.1059074397783676 -0.156045683976688 0 -0.13046311922212989 -0.161714555094575 0 -0.1059074397783676 -0.156045683976688 0 -0.12603220619039371 -0.14034562099546721 0 -0.1059074397783676 -0.156045683976688 0 -0.12603220619039371 -0.14034562099546721 0 -0.13046311922212989 -0.161714555094575 0 -0.1059074397783676 -0.156045683976688 0 -0.103620200279883 -0.1300681085083388 0 -0.12603220619039371 -0.14034562099546721 0 -0.090262699144125227 -0.14897812776713509 0 -0.1059074397783676 -0.156045683976688 0 -0.103620200279883 -0.1300681085083388 0 -0.090262699144125227 -0.14897812776713509 0 -0.089200311079580069 -0.13193782222381181 0 -0.103620200279883 -0.1300681085083388 0 -0.103620200279883 -0.1300681085083388 0 -0.11731480522525881 -0.12575735360650811 0 -0.12603220619039371 -0.14034562099546721 0 -0.103620200279883 -0.1300681085083388 0 -0.12603220619039371 -0.14034562099546721 0 -0.11731480522525881 -0.12575735360650811 0 -0.1271445290896307 -0.12739656560378079 0 -0.12603220619039371 -0.14034562099546721 0 -0.12603220619039371 -0.14034562099546721 0 -0.14138014932488849 -0.12837213176779161 0 -0.1490289608889919 -0.1508912827502556 0 -0.1271445290896307 -0.12739656560378079 0 -0.12603220619039371 -0.14034562099546721 0 -0.14138014932488849 -0.12837213176779161 0 -0.12603220619039371 -0.14034562099546721 0 -0.14138014932488849 -0.12837213176779161 0 -0.1271445290896307 -0.12739656560378079 0 -0.14138014932488849 -0.12837213176779161 0 -0.1341359262092654 -0.12004944849727971 0 -0.14138014932488849 -0.12837213176779161 0 -0.1490289608889919 -0.1508912827502556 0 -0.16168141400342889 -0.1355571512817336 0 -0.14138014932488849 -0.12837213176779161 0 -0.16168141400342889 -0.1355571512817336 0 -0.15672809245938549 -0.11639864254011879 0 -0.12603220619039371 -0.14034562099546721 0 -0.1490289608889919 -0.1508912827502556 0 -0.13046311922212989 -0.161714555094575 0 -0.12603220619039371 -0.14034562099546721 0 -0.1490289608889919 -0.1508912827502556 0 -0.13046311922212989 -0.161714555094575 0 -0.12684585429501419 -0.17749342082597719 0 -0.14310821357951711 -0.1772301844679969 0 -0.124493035267251 -0.19143418698341591 0 -0.12684585429501419 -0.17749342082597719 0 -0.14310821357951711 -0.1772301844679969 0 -0.14310821357951711 -0.1772301844679969 0 -0.14939166292459199 -0.16512631635638711 0 -0.15833536727437841 -0.17428010637395011 0 -0.14310821357951711 -0.1772301844679969 0 -0.15833536727437841 -0.17428010637395011 0 -0.15550771232351671 -0.1875740172052846 0 -0.13046311922212989 -0.161714555094575 0 -0.14310821357951711 -0.1772301844679969 0 -0.14939166292459199 -0.16512631635638711 0 -0.1490289608889919 -0.1508912827502556 0 -0.13046311922212989 -0.161714555094575 0 -0.14939166292459199 -0.16512631635638711 0 -0.1490289608889919 -0.1508912827502556 0 -0.14939166292459199 -0.16512631635638711 0 -0.16362896216236389 -0.16157150347773999 0 -0.1490289608889919 -0.1508912827502556 0 -0.16362896216236389 -0.16157150347773999 0 -0.17202571558759161 -0.16143694450504051 0 -0.16362896216236389 -0.16157150347773999 0 -0.1679644137654574 -0.1700579758002625 0 -0.15833536727437841 -0.17428010637395011 0 -0.14939166292459199 -0.16512631635638711 0 -0.16362896216236389 -0.16157150347773999 0 -0.15833536727437841 -0.17428010637395011 0 -0.16362896216236389 -0.16157150347773999 0 -0.1679644137654574 -0.1700579758002625 0 -0.17202571558759161 -0.16143694450504051 0 -0.16362896216236389 -0.16157150347773999 0 -0.17202571558759161 -0.16143694450504051 0 -0.15833536727437841 -0.17428010637395011 0 -0.1704112388908231 -0.18412064093602951 0 -0.15550771232351671 -0.1875740172052846 0 -0.1679644137654574 -0.1700579758002625 0 -0.15833536727437841 -0.17428010637395011 0 -0.1704112388908231 -0.18412064093602951 0 -0.1704112388908231 -0.18412064093602951 0 -0.18263327190163611 -0.16630127003265319 0 -0.1704112388908231 -0.18412064093602951 0 -0.18263327190163611 -0.16630127003265319 0 -0.18851983146028151 -0.18666736504061479 0 -0.1679644137654574 -0.1700579758002625 0 -0.1704112388908231 -0.18412064093602951 0 -0.18263327190163611 -0.16630127003265319 0 -0.17202571558759161 -0.16143694450504051 0 -0.18612460441246079 -0.1612110081341194 0 -0.17202571558759161 -0.16143694450504051 0 -0.18263327190163611 -0.16630127003265319 0 -0.1679644137654574 -0.1700579758002625 0 -0.17202571558759161 -0.16143694450504051 0 -0.18263327190163611 -0.16630127003265319 0 -0.17202571558759161 -0.16143694450504051 0 -0.18263327190163611 -0.16630127003265319 0 -0.18612460441246079 -0.1612110081341194 0 -0.18263327190163611 -0.16630127003265319 0 -0.18612460441246079 -0.1612110081341194 0 -0.17202571558759161 -0.16143694450504051 0 -0.18612460441246079 -0.1612110081341194 0 -0.17825225161070971 -0.1453006527599946 0 -0.18612460441246079 -0.1612110081341194 0 -0.17825225161070971 -0.1453006527599946 0 -0.19669962209411809 -0.14579293798060339 0 -0.17825225161070971 -0.1453006527599946 0 -0.19669962209411809 -0.14579293798060339 0 -0.18200136611758011 -0.12338675518360349 0 -0.17825225161070971 -0.1453006527599946 0 -0.16168141400342889 -0.1355571512817336 0 -0.18200136611758011 -0.12338675518360349 0 -0.16168141400342889 -0.1355571512817336 0 -0.18200136611758011 -0.12338675518360349 0 -0.15672809245938549 -0.11639864254011879 0 -0.17825225161070971 -0.1453006527599946 0 -0.16168141400342889 -0.1355571512817336 0 -0.16524708552268069 -0.1482965078242556 0 -0.17202571558759161 -0.16143694450504051 0 -0.17825225161070971 -0.1453006527599946 0 -0.16524708552268069 -0.1482965078242556 0 -0.1490289608889919 -0.1508912827502556 0 -0.16168141400342889 -0.1355571512817336 0 -0.16524708552268069 -0.1482965078242556 0 -0.1490289608889919 -0.1508912827502556 0 -0.17202571558759161 -0.16143694450504051 0 -0.1490289608889919 -0.1508912827502556 0 -0.17202571558759161 -0.16143694450504051 0 -0.16524708552268069 -0.1482965078242556 0 -0.15417977530362681 -0.25762297062000938 0 -0.1517762630223069 -0.24017059545733349 0 -0.1379647103721692 -0.25019231396180308 0 -0.15417977530362681 -0.25762297062000938 0 -0.1517762630223069 -0.24017059545733349 0 -0.1379647103721692 -0.25019231396180308 0 -0.1517762630223069 -0.24017059545733349 0 -0.14237116976778511 -0.2325741579138671 0 -0.1379647103721692 -0.25019231396180308 0 -0.1241812669046308 -0.23345839604857391 0 -0.14237116976778511 -0.2325741579138671 0 -0.1379647103721692 -0.25019231396180308 0 -0.1241812669046308 -0.23345839604857391 0 -0.11835882043479951 -0.24860760241583349 0 -0.12232531932628379 -0.21360902552232319 0 -0.1241812669046308 -0.23345839604857391 0 -0.13608599573529909 -0.22207375090921691 0 -0.1241812669046308 -0.23345839604857391 0 -0.13608599573529909 -0.22207375090921691 0 -0.14237116976778511 -0.2325741579138671 0 -0.1517762630223069 -0.24017059545733349 0 -0.1493727507409863 -0.22271822029465779 0 -0.1517762630223069 -0.24017059545733349 0 -0.14237116976778511 -0.2325741579138671 0 -0.1493727507409863 -0.22271822029465779 0 -0.13608599573529909 -0.22207375090921691 0 -0.1493727507409863 -0.22271822029465779 0 -0.14123758932919919 -0.21621551241605291 0 -0.13608599573529909 -0.22207375090921691 0 -0.14237116976778511 -0.2325741579138671 0 -0.1493727507409863 -0.22271822029465779 0 -0.1493727507409863 -0.22271822029465779 0 -0.15483213868889789 -0.2173365831426384 0 -0.16322952636983759 -0.21927101595854581 0 -0.1493727507409863 -0.22271822029465779 0 -0.14624048216025209 -0.19997420238132729 0 -0.1493727507409863 -0.22271822029465779 0 -0.1435186221564102 -0.20926317919182541 0 -0.14624048216025209 -0.19997420238132729 0 -0.1493727507409863 -0.22271822029465779 0 -0.1534713900251185 -0.21041791082465841 0 -0.14624048216025209 -0.19997420238132729 0 -0.1493727507409863 -0.22271822029465779 0 -0.15483213868889789 -0.2173365831426384 0 -0.1534713900251185 -0.21041791082465841 0 -0.15483213868889789 -0.2173365831426384 0 -0.1534713900251185 -0.21041791082465841 0 -0.15986852667169019 -0.21177206244766181 0 -0.1534713900251185 -0.21041791082465841 0 -0.14624048216025209 -0.19997420238132729 0 -0.15818920588001459 -0.20194001183940899 0 -0.1435186221564102 -0.20926317919182541 0 -0.13496471143382119 -0.2013531859249385 0 -0.14624048216025209 -0.19997420238132729 0 -0.1493727507409863 -0.22271822029465779 0 -0.1435186221564102 -0.20926317919182541 0 -0.14123758932919919 -0.21621551241605291 0 -0.13608599573529909 -0.22207375090921691 0 -0.14123758932919919 -0.21621551241605291 0 -0.13637293134731959 -0.21236981265141899 0 -0.1435186221564102 -0.20926317919182541 0 -0.14123758932919919 -0.21621551241605291 0 -0.13637293134731959 -0.21236981265141899 0 -0.12232531932628379 -0.21360902552232319 0 -0.13608599573529909 -0.22207375090921691 0 -0.13637293134731959 -0.21236981265141899 0 -0.12232531932628379 -0.21360902552232319 0 -0.13637293134731959 -0.21236981265141899 0 -0.13496471143382119 -0.2013531859249385 0 -0.1435186221564102 -0.20926317919182541 0 -0.13637293134731959 -0.21236981265141899 0 -0.13496471143382119 -0.2013531859249385 0 -0.124493035267251 -0.19143418698341591 0 -0.12232531932628379 -0.21360902552232319 0 -0.13496471143382119 -0.2013531859249385 0 -0.124493035267251 -0.19143418698341591 0 -0.14310821357951711 -0.1772301844679969 0 -0.13496471143382119 -0.2013531859249385 0 -0.14310821357951711 -0.1772301844679969 0 -0.14624048216025209 -0.19997420238132729 0 -0.15550771232351671 -0.1875740172052846 0 -0.14310821357951711 -0.1772301844679969 0 -0.13496471143382119 -0.2013531859249385 0 -0.14624048216025209 -0.19997420238132729 0 -0.14310821357951711 -0.1772301844679969 0 -0.14624048216025209 -0.19997420238132729 0 -0.14624048216025209 -0.19997420238132729 0 -0.15550771232351671 -0.1875740172052846 0 -0.15818920588001459 -0.20194001183940899 0 -0.1704112388908231 -0.18412064093602951 0 -0.15550771232351671 -0.1875740172052846 0 -0.15818920588001459 -0.20194001183940899 0 -0.1704112388908231 -0.18412064093602951 0 -0.15818920588001459 -0.20194001183940899 0 -0.1765049559477771 -0.20125761355503219 0 -0.1704112388908231 -0.18412064093602951 0 -0.15818920588001459 -0.20194001183940899 0 -0.1765049559477771 -0.20125761355503219 0 -0.19381662393359339 -0.20078250842165629 0 -0.18851983146028151 -0.18666736504061479 0 -0.1704112388908231 -0.18412064093602951 0 -0.1765049559477771 -0.20125761355503219 0 -0.18851983146028151 -0.18666736504061479 0 -0.1765049559477771 -0.20125761355503219 0 -0.1681922242266832 -0.2102603496974359 0 -0.1763137950581814 -0.21881572896354681 0 -0.1765049559477771 -0.20125761355503219 0 -0.1763137950581814 -0.21881572896354681 0 -0.19223796268902779 -0.21626073099067691 0 -0.15818920588001459 -0.20194001183940899 0 -0.1765049559477771 -0.20125761355503219 0 -0.1681922242266832 -0.2102603496974359 0 -0.1681922242266832 -0.2102603496974359 0 -0.16322952636983759 -0.21927101595854581 0 -0.1763137950581814 -0.21881572896354681 0 -0.1534713900251185 -0.21041791082465841 0 -0.15818920588001459 -0.20194001183940899 0 -0.15986852667169019 -0.21177206244766181 0 -0.15818920588001459 -0.20194001183940899 0 -0.1681922242266832 -0.2102603496974359 0 -0.15986852667169019 -0.21177206244766181 0 -0.1681922242266832 -0.2102603496974359 0 -0.15986852667169019 -0.21177206244766181 0 -0.16322952636983759 -0.21927101595854581 0 -0.15483213868889789 -0.2173365831426384 0 -0.15986852667169019 -0.21177206244766181 0 -0.16322952636983759 -0.21927101595854581 0 -0.1493727507409863 -0.22271822029465779 0 -0.17051572868093681 -0.23674023641211461 0 -0.1517762630223069 -0.24017059545733349 0 -0.1493727507409863 -0.22271822029465779 0 -0.17051572868093681 -0.23674023641211461 0 -0.1493727507409863 -0.22271822029465779 0 -0.16322952636983759 -0.21927101595854581 0 -0.17051572868093681 -0.23674023641211461 0 -0.16322952636983759 -0.21927101595854581 0 -0.1763137950581814 -0.21881572896354681 0 -0.17051572868093681 -0.23674023641211461 0 -0.1763137950581814 -0.21881572896354681 0 -0.17051572868093681 -0.23674023641211461 0 -0.1763137950581814 -0.21881572896354681 0 -0.17051572868093681 -0.23674023641211461 0 -0.18951945581764859 -0.23073496260592319 0 -0.1763137950581814 -0.21881572896354681 0 -0.18951945581764859 -0.23073496260592319 0 -0.19223796268902779 -0.21626073099067691 0 -0.19054851346876919 -0.25002597279089323 0 -0.17051572868093681 -0.23674023641211461 0 -0.18951945581764859 -0.23073496260592319 0 -0.19054851346876919 -0.25002597279089323 0 -0.17051572868093681 -0.23674023641211461 0 -0.19054851346876919 -0.25002597279089323 0 -0.1790110501740719 -0.26122880973077051 0 -0.17051572868093681 -0.23674023641211461 0 -0.16297189440145399 -0.26006172066832911 0 -0.17051572868093681 -0.23674023641211461 0 -0.16297189440145399 -0.26006172066832911 0 -0.1517762630223069 -0.24017059545733349 0 -0.17051572868093681 -0.23674023641211461 0 -0.2201308960737243 -0.2501138638709765 0 -0.21592604013177041 -0.24798517953124349 0 -0.21871221090528681 -0.24219291645057001 0 -0.21233791331938501 -0.25133786795721558 0 -0.2124578030627623 -0.24350258017701981 0 -0.21592604013177041 -0.24798517953124349 0 -0.2124578030627623 -0.24350258017701981 0 -0.21592604013177041 -0.24798517953124349 0 -0.21871221090528681 -0.24219291645057001 0 -0.2124578030627623 -0.24350258017701981 0 -0.21871221090528681 -0.24219291645057001 0 -0.21717249654418991 -0.23325237081984929 0 -0.2124578030627623 -0.24350258017701981 0 -0.20275903678392529 -0.23750713418174921 0 -0.21717249654418991 -0.23325237081984929 0 -0.2124578030627623 -0.24350258017701981 0 -0.2053414975709994 -0.2494664977315596 0 -0.20275903678392529 -0.23750713418174921 0 -0.21233791331938501 -0.25133786795721558 0 -0.2124578030627623 -0.24350258017701981 0 -0.2053414975709994 -0.2494664977315596 0 -0.19054851346876919 -0.25002597279089323 0 -0.2053414975709994 -0.2494664977315596 0 -0.20275903678392529 -0.23750713418174921 0 -0.19054851346876919 -0.25002597279089323 0 -0.20275903678392529 -0.23750713418174921 0 -0.18951945581764859 -0.23073496260592319 0 -0.20275903678392529 -0.23750713418174921 0 -0.18951945581764859 -0.23073496260592319 0 -0.20474169822505109 -0.22505997229655869 0 -0.18951945581764859 -0.23073496260592319 0 -0.20474169822505109 -0.22505997229655869 0 -0.19223796268902779 -0.21626073099067691 0 -0.20275903678392529 -0.23750713418174921 0 -0.20474169822505109 -0.22505997229655869 0 -0.21717249654418991 -0.23325237081984929 0 -0.20474169822505109 -0.22505997229655869 0 -0.21717249654418991 -0.23325237081984929 0 -0.2194456258113571 -0.21835581837047491 0 -0.21819326775688619 -0.2041814010597108 0 -0.206118997242036 -0.20969309896536331 0 -0.2194456258113571 -0.21835581837047491 0 -0.20474169822505109 -0.22505997229655869 0 -0.206118997242036 -0.20969309896536331 0 -0.2194456258113571 -0.21835581837047491 0 -0.1765049559477771 -0.20125761355503219 0 -0.19223796268902779 -0.21626073099067691 0 -0.19381662393359339 -0.20078250842165629 0 -0.20474169822505109 -0.22505997229655869 0 -0.206118997242036 -0.20969309896536331 0 -0.19223796268902779 -0.21626073099067691 0 -0.206118997242036 -0.20969309896536331 0 -0.19223796268902779 -0.21626073099067691 0 -0.19381662393359339 -0.20078250842165629 0 -0.206118997242036 -0.20969309896536331 0 -0.19381662393359339 -0.20078250842165629 0 -0.2067945249876125 -0.1927121101179381 0 -0.19381662393359339 -0.20078250842165629 0 -0.2067945249876125 -0.1927121101179381 0 -0.18851983146028151 -0.18666736504061479 0 -0.2067945249876125 -0.1927121101179381 0 -0.22512394726744731 -0.19188968343523269 0 -0.2163149142014836 -0.18174671925777461 0 -0.21819326775688619 -0.2041814010597108 0 -0.2067945249876125 -0.1927121101179381 0 -0.22512394726744731 -0.19188968343523269 0 -0.21819326775688619 -0.2041814010597108 0 -0.206118997242036 -0.20969309896536331 0 -0.2067945249876125 -0.1927121101179381 0 -0.21819326775688619 -0.2041814010597108 0 -0.22512394726744731 -0.19188968343523269 0 -0.23338660399675479 -0.20641106997354841 0 -0.22512394726744731 -0.19188968343523269 0 -0.2388493956621292 -0.19279673626995389 0 -0.23338660399675479 -0.20641106997354841 0 -0.2388493956621292 -0.19279673626995389 0 -0.2479353623451053 -0.2016099449396688 0 -0.25508499748992292 -0.18596856851653851 0 -0.2388493956621292 -0.19279673626995389 0 -0.2479353623451053 -0.2016099449396688 0 -0.23338660399675479 -0.20641106997354841 0 -0.23338788668371499 -0.21950212289962609 0 -0.25077074245064329 -0.21654178284017181 0 -0.23338660399675479 -0.20641106997354841 0 -0.23338788668371499 -0.21950212289962609 0 -0.25077074245064329 -0.21654178284017181 0 -0.2479353623451053 -0.2016099449396688 0 -0.23338660399675479 -0.20641106997354841 0 -0.25077074245064329 -0.21654178284017181 0 -0.23338660399675479 -0.20641106997354841 0 -0.2194456258113571 -0.21835581837047491 0 -0.23338788668371499 -0.21950212289962609 0 -0.21819326775688619 -0.2041814010597108 0 -0.23338660399675479 -0.20641106997354841 0 -0.2194456258113571 -0.21835581837047491 0 -0.2194456258113571 -0.21835581837047491 0 -0.22623846913499299 -0.22742165907903289 0 -0.23338788668371499 -0.21950212289962609 0 -0.21717249654418991 -0.23325237081984929 0 -0.2194456258113571 -0.21835581837047491 0 -0.22623846913499299 -0.22742165907903289 0 -0.21717249654418991 -0.23325237081984929 0 -0.22623846913499299 -0.22742165907903289 0 -0.22437879040875891 -0.23877087241937631 0 -0.22623846913499299 -0.22742165907903289 0 -0.23338788668371499 -0.21950212289962609 0 -0.23570232741202829 -0.23407744861986449 0 -0.22623846913499299 -0.22742165907903289 0 -0.23570232741202829 -0.23407744861986449 0 -0.22437879040875891 -0.23877087241937631 0 -0.23338788668371499 -0.21950212289962609 0 -0.23570232741202829 -0.23407744861986449 0 -0.25077074245064329 -0.21654178284017181 0 -0.23570232741202829 -0.23407744861986449 0 -0.24993741167882261 -0.2367248466315954 0 -0.25077074245064329 -0.21654178284017181 0 -0.23570232741202829 -0.23407744861986449 0 -0.25077074245064329 -0.21654178284017181 0 -0.23570232741202829 -0.23407744861986449 0 -0.24993741167882261 -0.2367248466315954 0 -0.23754331725094441 -0.24910643326123699 0 -0.2484888610175276 -0.25598132161872211 0 -0.24993741167882261 -0.2367248466315954 0 -0.23754331725094441 -0.24910643326123699 0 -0.22063391237341529 -0.25161311439955902 0 -0.23570232741202829 -0.23407744861986449 0 -0.22437879040875891 -0.23877087241937631 0 -0.22063391237341529 -0.25161311439955902 0 -0.23570232741202829 -0.23407744861986449 0 -0.22063391237341529 -0.25161311439955902 0 -0.23570232741202829 -0.23407744861986449 0 -0.23754331725094441 -0.24910643326123699 0 -0.21871221090528681 -0.24219291645057001 0 -0.21717249654418991 -0.23325237081984929 0 -0.22437879040875891 -0.23877087241937631 0 -0.2201308960737243 -0.2501138638709765 0 -0.21871221090528681 -0.24219291645057001 0 -0.22437879040875891 -0.23877087241937631 0 -0.2201308960737243 -0.2501138638709765 0 -0.22063391237341529 -0.25161311439955902 0 -0.22437879040875891 -0.23877087241937631 0 -0.21547631855897539 -0.14521806857734171 0 -0.19669962209411809 -0.14579293798060339 0 -0.21386747348335841 -0.1607664253563709 0 -0.21547631855897539 -0.14521806857734171 0 -0.21386747348335841 -0.1607664253563709 0 -0.225993105992077 -0.15094984422659349 0 -0.21547631855897539 -0.14521806857734171 0 -0.2072746397757749 -0.1303748678270869 0 -0.19669962209411809 -0.14579293798060339 0 -0.21547631855897539 -0.14521806857734171 0 -0.2072746397757749 -0.1303748678270869 0 -0.2330182893717182 -0.13749304039403831 0 -0.2072746397757749 -0.1303748678270869 0 -0.19669962209411809 -0.14579293798060339 0 -0.18200136611758011 -0.12338675518360349 0 -0.2072746397757749 -0.1303748678270869 0 -0.19669962209411809 -0.14579293798060339 0 -0.2072746397757749 -0.1303748678270869 0 -0.18200136611758011 -0.12338675518360349 0 -0.18612460441246079 -0.1612110081341194 0 -0.19669962209411809 -0.14579293798060339 0 -0.21386747348335841 -0.1607664253563709 0 -0.18612460441246079 -0.1612110081341194 0 -0.19669962209411809 -0.14579293798060339 0 -0.18263327190163611 -0.16630127003265319 0 -0.18612460441246079 -0.1612110081341194 0 -0.19947409305155969 -0.17402399464521431 0 -0.18612460441246079 -0.1612110081341194 0 -0.21386747348335841 -0.1607664253563709 0 -0.18612460441246079 -0.1612110081341194 0 -0.19947409305155969 -0.17402399464521431 0 -0.21386747348335841 -0.1607664253563709 0 -0.18263327190163611 -0.16630127003265319 0 -0.19947409305155969 -0.17402399464521431 0 -0.18263327190163611 -0.16630127003265319 0 -0.18851983146028151 -0.18666736504061479 0 -0.19947409305155969 -0.17402399464521431 0 -0.2067945249876125 -0.1927121101179381 0 -0.18851983146028151 -0.18666736504061479 0 -0.19947409305155969 -0.17402399464521431 0 -0.19947409305155969 -0.17402399464521431 0 -0.2163149142014836 -0.18174671925777461 0 -0.21386747348335841 -0.1607664253563709 0 -0.2067945249876125 -0.1927121101179381 0 -0.19947409305155969 -0.17402399464521431 0 -0.2163149142014836 -0.18174671925777461 0 -0.19947409305155969 -0.17402399464521431 0 -0.2163149142014836 -0.18174671925777461 0 -0.21386747348335841 -0.1607664253563709 0 -0.2338255072580363 -0.17677567239239869 0 -0.24161034255425601 -0.16032184257862331 0 -0.21386747348335841 -0.1607664253563709 0 -0.24161034255425601 -0.16032184257862331 0 -0.225993105992077 -0.15094984422659349 0 -0.21386747348335841 -0.1607664253563709 0 -0.24161034255425601 -0.16032184257862331 0 -0.2163149142014836 -0.18174671925777461 0 -0.21386747348335841 -0.1607664253563709 0 -0.2338255072580363 -0.17677567239239869 0 -0.22512394726744731 -0.19188968343523269 0 -0.2388493956621292 -0.19279673626995389 0 -0.2338255072580363 -0.17677567239239869 0 -0.22512394726744731 -0.19188968343523269 0 -0.2163149142014836 -0.18174671925777461 0 -0.2338255072580363 -0.17677567239239869 0 -0.2388493956621292 -0.19279673626995389 0 -0.2338255072580363 -0.17677567239239869 0 -0.25508499748992292 -0.18596856851653851 0 -0.2338255072580363 -0.17677567239239869 0 -0.25508499748992292 -0.18596856851653851 0 -0.25396177481208382 -0.17019558441461549 0 -0.2338255072580363 -0.17677567239239869 0 -0.24161034255425601 -0.16032184257862331 0 -0.25396177481208382 -0.17019558441461549 0 -0.2330182893717182 -0.13749304039403831 0 -0.25876193896766142 -0.14461121296098969 0 -0.24161034255425601 -0.16032184257862331 0 -0.2330182893717182 -0.13749304039403831 0 -0.25876193896766142 -0.14461121296098969 0 -0.24161034255425601 -0.16032184257862331 0 -0.225993105992077 -0.15094984422659349 0 -0.2330182893717182 -0.13749304039403831 0 -0.21547631855897539 -0.14521806857734171 0 -0.225993105992077 -0.15094984422659349 0 -0.2330182893717182 -0.13749304039403831 0 -0.2072746397757749 -0.1303748678270869 0 -0.2330182893717182 -0.13749304039403831 0 -0.2180836521900775 -0.1146156401160055 0 -0.2072746397757749 -0.1303748678270869 0 -0.2330182893717182 -0.13749304039403831 0 -0.2330182893717182 -0.13749304039403831 0 -0.25876193896766142 -0.14461121296098969 0 -0.25225956928813797 -0.126622413011758 0 -0.2330182893717182 -0.13749304039403831 0 -0.23619113048889501 -0.1190474466105724 0 -0.25225956928813797 -0.126622413011758 0 -0.23619113048889501 -0.1190474466105724 0 -0.2452555362195579 -0.11258392983501379 0 -0.25225956928813797 -0.126622413011758 0 -0.23619113048889501 -0.1190474466105724 0 -0.2452555362195579 -0.11258392983501379 0 -0.2318109351849296 -0.1075018811322889 0 -0.2398564460583473 -0.099007635711807651 0 -0.22940852063136141 -0.096542916865336406 0 -0.2492275183134364 -0.086621741948598993 0 -0.2452555362195579 -0.11258392983501379 0 -0.2398564460583473 -0.099007635711807651 0 -0.2318109351849296 -0.1075018811322889 0 -0.2318109351849296 -0.1075018811322889 0 -0.22940852063136141 -0.096542916865336406 0 -0.22247308647184549 -0.1061577218559575 0 -0.22940852063136141 -0.096542916865336406 0 -0.22247308647184549 -0.1061577218559575 0 -0.21316378750027379 -0.1062948141753018 0 -0.2398564460583473 -0.099007635711807651 0 -0.2318109351849296 -0.1075018811322889 0 -0.22940852063136141 -0.096542916865336406 0 -0.2330182893717182 -0.13749304039403831 0 -0.23619113048889501 -0.1190474466105724 0 -0.2180836521900775 -0.1146156401160055 0 -0.2318109351849296 -0.1075018811322889 0 -0.22247308647184549 -0.1061577218559575 0 -0.2180836521900775 -0.1146156401160055 0 -0.23619113048889501 -0.1190474466105724 0 -0.2318109351849296 -0.1075018811322889 0 -0.2180836521900775 -0.1146156401160055 0 -0.24776659181916391 -0.072489885990929814 0 -0.2492275183134364 -0.086621741948598993 0 -0.23312772086061731 -0.074570768335179449 0 -0.24776659181916391 -0.072489885990929814 0 -0.23312772086061731 -0.074570768335179449 0 -0.23473930425814279 -0.057106743209672399 0 -0.24776659181916391 -0.072489885990929814 0 -0.24974629169328069 -0.058718313354859948 0 -0.23473930425814279 -0.057106743209672399 0 -0.2492275183134364 -0.086621741948598993 0 -0.21972481946275271 -0.088445236837526822 0 -0.2492275183134364 -0.086621741948598993 0 -0.21972481946275271 -0.088445236837526822 0 -0.23312772086061731 -0.074570768335179449 0 -0.22940852063136141 -0.096542916865336406 0 -0.2492275183134364 -0.086621741948598993 0 -0.21972481946275271 -0.088445236837526822 0 -0.21972481946275271 -0.088445236837526822 0 -0.23312772086061731 -0.074570768335179449 0 -0.22084686391242289 -0.075830347698805339 0 -0.23312772086061731 -0.074570768335179449 0 -0.2218689657216861 -0.065739889600480772 0 -0.23473930425814279 -0.057106743209672399 0 -0.22084686391242289 -0.075830347698805339 0 -0.2218689657216861 -0.065739889600480772 0 -0.21444198265799291 -0.071754841519723389 0 -0.23312772086061731 -0.074570768335179449 0 -0.22084686391242289 -0.075830347698805339 0 -0.2218689657216861 -0.065739889600480772 0 -0.20404300533077799 -0.072694213859208406 0 -0.1992796057084322 -0.063751876405587909 0 -0.20934942283613389 -0.062234791804752762 0 -0.21444198265799291 -0.071754841519723389 0 -0.20404300533077799 -0.072694213859208406 0 -0.20934942283613389 -0.062234791804752762 0 -0.2218689657216861 -0.065739889600480772 0 -0.21444198265799291 -0.071754841519723389 0 -0.20934942283613389 -0.062234791804752762 0 -0.22084686391242289 -0.075830347698805339 0 -0.21444198265799291 -0.071754841519723389 0 -0.21211568599330571 -0.078606487657612037 0 -0.21444198265799291 -0.071754841519723389 0 -0.20404300533077799 -0.072694213859208406 0 -0.21211568599330571 -0.078606487657612037 0 -0.20404300533077799 -0.072694213859208406 0 -0.21211568599330571 -0.078606487657612037 0 -0.19962600306684261 -0.082932420646604083 0 -0.21972481946275271 -0.088445236837526822 0 -0.19022212061206889 -0.09026873172645522 0 -0.21972481946275271 -0.088445236837526822 0 -0.21211568599330571 -0.078606487657612037 0 -0.19962600306684261 -0.082932420646604083 0 -0.21972481946275271 -0.088445236837526822 0 -0.19022212061206889 -0.09026873172645522 0 -0.20041285700165329 -0.10074102849113239 0 -0.21972481946275271 -0.088445236837526822 0 -0.19022212061206889 -0.09026873172645522 0 -0.19962600306684261 -0.082932420646604083 0 -0.21972481946275271 -0.088445236837526822 0 -0.22084686391242289 -0.075830347698805339 0 -0.21211568599330571 -0.078606487657612037 0 -0.19022212061206889 -0.09026873172645522 0 -0.19027752842877829 -0.07149338193815688 0 -0.1846716761296176 -0.090611792108700628 0 -0.19022212061206889 -0.09026873172645522 0 -0.19962600306684261 -0.082932420646604083 0 -0.19027752842877829 -0.07149338193815688 0 -0.19022212061206889 -0.09026873172645522 0 -0.19962600306684261 -0.082932420646604083 0 -0.19027752842877829 -0.07149338193815688 0 -0.1992796057084322 -0.063751876405587909 0 -0.19588338072794181 -0.052374971767613993 0 -0.20404300533077799 -0.072694213859208406 0 -0.19962600306684261 -0.082932420646604083 0 -0.19027752842877829 -0.07149338193815688 0 -0.20404300533077799 -0.072694213859208406 0 -0.19027752842877829 -0.07149338193815688 0 -0.1992796057084322 -0.063751876405587909 0 -0.2180836521900775 -0.1146156401160055 0 -0.21316378750027379 -0.1062948141753018 0 -0.20058992044495219 -0.1140654932782824 0 -0.2072746397757749 -0.1303748678270869 0 -0.2180836521900775 -0.1146156401160055 0 -0.20058992044495219 -0.1140654932782824 0 -0.2072746397757749 -0.1303748678270869 0 -0.2180836521900775 -0.1146156401160055 0 -0.22940852063136141 -0.096542916865336406 0 -0.21972481946275271 -0.088445236837526822 0 -0.20041285700165329 -0.10074102849113239 0 -0.22940852063136141 -0.096542916865336406 0 -0.20041285700165329 -0.10074102849113239 0 -0.22247308647184549 -0.1061577218559575 0 -0.2180836521900775 -0.1146156401160055 0 -0.21316378750027379 -0.1062948141753018 0 -0.22940852063136141 -0.096542916865336406 0 -0.21316378750027379 -0.1062948141753018 0 -0.20041285700165329 -0.10074102849113239 0 -0.21316378750027379 -0.1062948141753018 0 -0.20041285700165329 -0.10074102849113239 0 -0.20058992044495219 -0.1140654932782824 0 -0.20041285700165329 -0.10074102849113239 0 -0.18860533423403261 -0.1107831042674866 0 -0.20058992044495219 -0.1140654932782824 0 -0.2072746397757749 -0.1303748678270869 0 -0.20058992044495219 -0.1140654932782824 0 -0.18200136611758011 -0.12338675518360349 0 -0.18860533423403261 -0.1107831042674866 0 -0.20058992044495219 -0.1140654932782824 0 -0.18200136611758011 -0.12338675518360349 0 -0.18860533423403261 -0.1107831042674866 0 -0.18200136611758011 -0.12338675518360349 0 -0.17141719337194511 -0.10493914011692811 0 -0.15672809245938549 -0.11639864254011879 0 -0.17141719337194511 -0.10493914011692811 0 -0.15338931209954229 -0.1075492910320673 0 -0.18200136611758011 -0.12338675518360349 0 -0.15672809245938549 -0.11639864254011879 0 -0.18200136611758011 -0.12338675518360349 0 -0.15672809245938549 -0.11639864254011879 0 -0.17141719337194511 -0.10493914011692811 0 -0.15672809245938549 -0.11639864254011879 0 -0.17141719337194511 -0.10493914011692811 0 -0.17141719337194511 -0.10493914011692811 0 -0.15338931209954229 -0.1075492910320673 0 -0.17141719337194511 -0.10493914011692811 0 -0.15338931209954229 -0.1075492910320673 0 -0.15279526804819221 -0.096366594526941629 0 -0.17141719337194511 -0.10493914011692811 0 -0.16261942066284821 -0.090991502447298644 0 -0.15279526804819221 -0.096366594526941629 0 -0.17141719337194511 -0.10493914011692811 0 -0.1739024861009435 -0.092847039857089031 0 -0.16261942066284821 -0.090991502447298644 0 -0.19022212061206889 -0.09026873172645522 0 -0.17141719337194511 -0.10493914011692811 0 -0.19022212061206889 -0.09026873172645522 0 -0.17141719337194511 -0.10493914011692811 0 -0.18391379036641989 -0.093196514307918379 0 -0.19022212061206889 -0.09026873172645522 0 -0.20041285700165329 -0.10074102849113239 0 -0.17141719337194511 -0.10493914011692811 0 -0.20041285700165329 -0.10074102849113239 0 -0.17141719337194511 -0.10493914011692811 0 -0.17141719337194511 -0.10493914011692811 0 -0.18391379036641989 -0.093196514307918379 0 -0.1739024861009435 -0.092847039857089031 0 -0.20041285700165329 -0.10074102849113239 0 -0.18860533423403261 -0.1107831042674866 0 -0.17141719337194511 -0.10493914011692811 0 -0.19022212061206889 -0.09026873172645522 0 -0.1846716761296176 -0.090611792108700628 0 -0.19022212061206889 -0.09026873172645522 0 -0.1846716761296176 -0.090611792108700628 0 -0.18391379036641989 -0.093196514307918379 0 -0.1846716761296176 -0.090611792108700628 0 -0.18111629557277301 -0.082677415518885064 0 -0.17910990606520821 -0.090955552499476927 0 -0.19027752842877829 -0.07149338193815688 0 -0.1846716761296176 -0.090611792108700628 0 -0.19027752842877829 -0.07149338193815688 0 -0.1846716761296176 -0.090611792108700628 0 -0.18111629557277301 -0.082677415518885064 0 -0.1846716761296176 -0.090611792108700628 0 -0.18391379036641989 -0.093196514307918379 0 -0.1846716761296176 -0.090611792108700628 0 -0.17910990606520821 -0.090955552499476927 0 -0.1846716761296176 -0.090611792108700628 0 -0.18391379036641989 -0.093196514307918379 0 -0.17910990606520821 -0.090955552499476927 0 -0.18111629557277301 -0.082677415518885064 0 -0.1724521200382961 -0.084152489913823 0 -0.17907024720196449 -0.076173861134267884 0 -0.18111629557277301 -0.082677415518885064 0 -0.1724521200382961 -0.084152489913823 0 -0.17910990606520821 -0.090955552499476927 0 -0.18391379036641989 -0.093196514307918379 0 -0.1739024861009435 -0.092847039857089031 0 -0.17910990606520821 -0.090955552499476927 0 -0.1724521200382961 -0.084152489913823 0 -0.1739024861009435 -0.092847039857089031 0 -0.17910990606520821 -0.090955552499476927 0 -0.19027752842877829 -0.07149338193815688 0 -0.17939534373980159 -0.065611514868281054 0 -0.1836546971350683 -0.059170379886323482 0 -0.19027752842877829 -0.07149338193815688 0 -0.18111629557277301 -0.082677415518885064 0 -0.17907024720196449 -0.076173861134267884 0 -0.19027752842877829 -0.07149338193815688 0 -0.17907024720196449 -0.076173861134267884 0 -0.17939534373980159 -0.065611514868281054 0 -0.17907024720196449 -0.076173861134267884 0 -0.17939534373980159 -0.065611514868281054 0 -0.1712517617053409 -0.070779118727766391 0 -0.1724521200382961 -0.084152489913823 0 -0.17907024720196449 -0.076173861134267884 0 -0.1712517617053409 -0.070779118727766391 0 -0.1712517617053409 -0.070779118727766391 0 -0.16267659980718779 -0.079165537229078806 0 -0.15866028007564201 -0.062469812213696532 0 -0.16267659980718779 -0.079165537229078806 0 -0.15195486916162421 -0.076467122011970562 0 -0.15866028007564201 -0.062469812213696532 0 -0.1724521200382961 -0.084152489913823 0 -0.1712517617053409 -0.070779118727766391 0 -0.16267659980718779 -0.079165537229078806 0 -0.1724521200382961 -0.084152489913823 0 -0.1739024861009435 -0.092847039857089031 0 -0.16261942066284821 -0.090991502447298644 0 -0.1724521200382961 -0.084152489913823 0 -0.16267659980718779 -0.079165537229078806 0 -0.16261942066284821 -0.090991502447298644 0 -0.16267659980718779 -0.079165537229078806 0 -0.16261942066284821 -0.090991502447298644 0 -0.1502479119069659 -0.08684674851518473 0 -0.16261942066284821 -0.090991502447298644 0 -0.1502479119069659 -0.08684674851518473 0 -0.15279526804819221 -0.096366594526941629 0 -0.16267659980718779 -0.079165537229078806 0 -0.1502479119069659 -0.08684674851518473 0 -0.15195486916162421 -0.076467122011970562 0 -0.1502479119069659 -0.08684674851518473 0 -0.15195486916162421 -0.076467122011970562 0 -0.13921244686573689 -0.078181369775190329 0 -0.1502479119069659 -0.08684674851518473 0 -0.14067653652405601 -0.093747000510544978 0 -0.13921244686573689 -0.078181369775190329 0 -0.1502479119069659 -0.08684674851518473 0 -0.14067653652405601 -0.093747000510544978 0 -0.15279526804819221 -0.096366594526941629 0 -0.14759910670947091 -0.066607580711758665 0 -0.13921244686573689 -0.078181369775190329 0 -0.13539883591772139 -0.062320424007520331 0 -0.15195486916162421 -0.076467122011970562 0 -0.14759910670947091 -0.066607580711758665 0 -0.15866028007564201 -0.062469812213696532 0 -0.15195486916162421 -0.076467122011970562 0 -0.14759910670947091 -0.066607580711758665 0 -0.13921244686573689 -0.078181369775190329 0 -0.1263464710666205 -0.070376330425090852 0 -0.13921244686573689 -0.078181369775190329 0 -0.13539883591772139 -0.062320424007520331 0 -0.12341172703331001 -0.059839067757549061 0 -0.1263464710666205 -0.070376330425090852 0 -0.13539883591772139 -0.062320424007520331 0 -0.12302359211449181 -0.087233410844133052 0 -0.14067653652405601 -0.093747000510544978 0 -0.13921244686573689 -0.078181369775190329 0 -0.12302359211449181 -0.087233410844133052 0 -0.1263464710666205 -0.070376330425090852 0 -0.13921244686573689 -0.078181369775190329 0 -0.12302359211449181 -0.087233410844133052 0 -0.13536143082713939 -0.1101594419472056 0 -0.12302359211449181 -0.087233410844133052 0 -0.14067653652405601 -0.093747000510544978 0 -0.13536143082713939 -0.1101594419472056 0 -0.14067653652405601 -0.093747000510544978 0 -0.13536143082713939 -0.1101594419472056 0 -0.14555563687473241 -0.1019555820041899 0 -0.12078948991564339 -0.1027831787187536 0 -0.12302359211449181 -0.087233410844133052 0 -0.13536143082713939 -0.1101594419472056 0 -0.123807084897888 -0.1198263474223524 0 -0.1341359262092654 -0.12004944849727971 0 -0.13536143082713939 -0.1101594419472056 0 -0.123807084897888 -0.1198263474223524 0 -0.1271445290896307 -0.12739656560378079 0 -0.1341359262092654 -0.12004944849727971 0 -0.1341359262092654 -0.12004944849727971 0 -0.13716113506733069 -0.11350363182906879 0 -0.14211688714543211 -0.1190972680768808 0 -0.14138014932488849 -0.12837213176779161 0 -0.1341359262092654 -0.12004944849727971 0 -0.14211688714543211 -0.1190972680768808 0 -0.1341359262092654 -0.12004944849727971 0 -0.13536143082713939 -0.1101594419472056 0 -0.13716113506733069 -0.11350363182906879 0 -0.13536143082713939 -0.1101594419472056 0 -0.13716113506733069 -0.11350363182906879 0 -0.13716113506733069 -0.11350363182906879 0 -0.1406818862529769 -0.1144092039944377 0 -0.14211688714543211 -0.1190972680768808 0 -0.13536143082713939 -0.1101594419472056 0 -0.13716113506733069 -0.11350363182906879 0 -0.1406818862529769 -0.1144092039944377 0 -0.13536143082713939 -0.1101594419472056 0 -0.1406818862529769 -0.1144092039944377 0 -0.14635547665201859 -0.11347062244422219 0 -0.13536143082713939 -0.1101594419472056 0 -0.14635547665201859 -0.11347062244422219 0 -0.15338931209954229 -0.1075492910320673 0 -0.14635547665201859 -0.11347062244422219 0 -0.14211688714543211 -0.1190972680768808 0 -0.15520177634739851 -0.1159766129659391 0 -0.1406818862529769 -0.1144092039944377 0 -0.14635547665201859 -0.11347062244422219 0 -0.14211688714543211 -0.1190972680768808 0 -0.14138014932488849 -0.12837213176779161 0 -0.14211688714543211 -0.1190972680768808 0 -0.15520177634739851 -0.1159766129659391 0 -0.14138014932488849 -0.12837213176779161 0 -0.15672809245938549 -0.11639864254011879 0 -0.14138014932488849 -0.12837213176779161 0 -0.15672809245938549 -0.11639864254011879 0 -0.15520177634739851 -0.1159766129659391 0 -0.15672809245938549 -0.11639864254011879 0 -0.15520177634739851 -0.1159766129659391 0 -0.15338931209954229 -0.1075492910320673 0 -0.14635547665201859 -0.11347062244422219 0 -0.15520177634739851 -0.1159766129659391 0 -0.15338931209954229 -0.1075492910320673 0 -0.15672809245938549 -0.11639864254011879 0 -0.15520177634739851 -0.1159766129659391 0 -0.15338931209954229 -0.1075492910320673 0 -0.15279526804819221 -0.096366594526941629 0 -0.14555563687473241 -0.1019555820041899 0 -0.13536143082713939 -0.1101594419472056 0 -0.15338931209954229 -0.1075492910320673 0 -0.14555563687473241 -0.1019555820041899 0 -0.13536143082713939 -0.1101594419472056 0 -0.15338931209954229 -0.1075492910320673 0 -0.14067653652405601 -0.093747000510544978 0 -0.15279526804819221 -0.096366594526941629 0 -0.14555563687473241 -0.1019555820041899 0 -0.14101236965317929 -0.019784646300842691 0 -0.14782587882515849 -0.03310234919047355 0 -0.1579380092009261 -0.026362825955345549 0 -0.14101236965317929 -0.019784646300842691 0 -0.15315794727226231 -0.01516064861187579 0 -0.1579380092009261 -0.026362825955345549 0 -0.14101236965317929 -0.019784646300842691 0 -0.13353039949019321 -0.033933105580531628 0 -0.14782587882515849 -0.03310234919047355 0 -0.15315794727226231 -0.01516064861187579 0 -0.1540295096882198 -0.0030124739246440132 0 -0.13862178213292189 -0.0053874776188402636 0 -0.14101236965317929 -0.019784646300842691 0 -0.15315794727226231 -0.01516064861187579 0 -0.13862178213292189 -0.0053874776188402636 0 -0.14101236965317929 -0.019784646300842691 0 -0.13090934721974889 -0.0079860053493801438 0 -0.12654774670833069 -0.016121824567551839 0 -0.13090934721974889 -0.0079860053493801438 0 -0.12654774670833069 -0.016121824567551839 0 -0.1195650939264682 0.0016894564454279679 0 -0.14101236965317929 -0.019784646300842691 0 -0.13862178213292189 -0.0053874776188402636 0 -0.13090934721974889 -0.0079860053493801438 0 -0.12879974367784419 -0.00032553470509391001 0 -0.13090934721974889 -0.0079860053493801438 0 -0.1195650939264682 0.0016894564454279679 0 -0.13862178213292189 -0.0053874776188402636 0 -0.12879974367784419 -0.00032553470509391001 0 -0.13090934721974889 -0.0079860053493801438 0 -0.14101236965317929 -0.019784646300842691 0 -0.12654774670833069 -0.016121824567551839 0 -0.13353039949019321 -0.033933105580531628 0 -0.12654774670833069 -0.016121824567551839 0 -0.13353039949019321 -0.033933105580531628 0 -0.1219845089949701 -0.028185139382169159 0 -0.12654774670833069 -0.016121824567551839 0 -0.13353039949019321 -0.033933105580531628 0 -0.1264006912276846 -0.046572554429438077 0 -0.13353039949019321 -0.033933105580531628 0 -0.14956158772777031 -0.048506693542164359 0 -0.1219845089949701 -0.028185139382169159 0 -0.1264006912276846 -0.046572554429438077 0 -0.13353039949019321 -0.033933105580531628 0 -0.12341172703331001 -0.059839067757549061 0 -0.1264006912276846 -0.046572554429438077 0 -0.13539883591772139 -0.062320424007520331 0 -0.1264006912276846 -0.046572554429438077 0 -0.14956158772777031 -0.048506693542164359 0 -0.1264006912276846 -0.046572554429438077 0 -0.13539883591772139 -0.062320424007520331 0 -0.14956158772777031 -0.048506693542164359 0 -0.14759910670947091 -0.066607580711758665 0 -0.14956158772777031 -0.048506693542164359 0 -0.15866028007564201 -0.062469812213696532 0 -0.14759910670947091 -0.066607580711758665 0 -0.13539883591772139 -0.062320424007520331 0 -0.14956158772777031 -0.048506693542164359 0 -0.13353039949019321 -0.033933105580531628 0 -0.14956158772777031 -0.048506693542164359 0 -0.14782587882515849 -0.03310234919047355 0 -0.14956158772777031 -0.048506693542164359 0 -0.14782587882515849 -0.03310234919047355 0 -0.16110171052327071 -0.037986166360132058 0 -0.14782587882515849 -0.03310234919047355 0 -0.16110171052327071 -0.037986166360132058 0 -0.1579380092009261 -0.026362825955345549 0 -0.16110171052327071 -0.037986166360132058 0 -0.17272248422785591 -0.050440832654890633 0 -0.1726044633878315 -0.02847573890430307 0 -0.14956158772777031 -0.048506693542164359 0 -0.16110171052327071 -0.037986166360132058 0 -0.17272248422785591 -0.050440832654890633 0 -0.14956158772777031 -0.048506693542164359 0 -0.17272248422785591 -0.050440832654890633 0 -0.1712517617053409 -0.070779118727766391 0 -0.15866028007564201 -0.062469812213696532 0 -0.17272248422785591 -0.050440832654890633 0 -0.14956158772777031 -0.048506693542164359 0 -0.15866028007564201 -0.062469812213696532 0 -0.17272248422785591 -0.050440832654890633 0 -0.17272248422785591 -0.050440832654890633 0 -0.1836546971350683 -0.059170379886323482 0 -0.19588338072794181 -0.052374971767613993 0 -0.17272248422785591 -0.050440832654890633 0 -0.19588338072794181 -0.052374971767613993 0 -0.17939534373980159 -0.065611514868281054 0 -0.1712517617053409 -0.070779118727766391 0 -0.17272248422785591 -0.050440832654890633 0 -0.17939534373980159 -0.065611514868281054 0 -0.17272248422785591 -0.050440832654890633 0 -0.1836546971350683 -0.059170379886323482 0 -0.17272248422785591 -0.050440832654890633 0 -0.1856276798799445 -0.035544339313579601 0 -0.1726044633878315 -0.02847573890430307 0 -0.17272248422785591 -0.050440832654890633 0 -0.1856276798799445 -0.035544339313579601 0 -0.19588338072794181 -0.052374971767613993 0 -0.1856276798799445 -0.035544339313579601 0 -0.1726044633878315 -0.02847573890430307 0 -0.17868883408983161 -0.01496464299364085 0 -0.1726044633878315 -0.02847573890430307 0 -0.16328375272781431 -0.017595266077961861 0 -0.1579380092009261 -0.026362825955345549 0 -0.1726044633878315 -0.02847573890430307 0 -0.16328375272781431 -0.017595266077961861 0 -0.17868883408983161 -0.01496464299364085 0 -0.15315794727226231 -0.01516064861187579 0 -0.16328375272781431 -0.017595266077961861 0 -0.1579380092009261 -0.026362825955345549 0 -0.16110171052327071 -0.037986166360132058 0 -0.1726044633878315 -0.02847573890430307 0 -0.1579380092009261 -0.026362825955345549 0 -0.1540295096882198 -0.0030124739246440132 0 -0.16328375272781431 -0.017595266077961861 0 -0.17868883408983161 -0.01496464299364085 0 -0.1540295096882198 -0.0030124739246440132 0 -0.16722585307904991 -0.0072875001328783287 0 -0.17868883408983161 -0.01496464299364085 0 -0.1540295096882198 -0.0030124739246440132 0 -0.17868883408983161 -0.01496464299364085 0 -0.1540295096882198 -0.0030124739246440132 0 -0.16722585307904991 -0.0072875001328783287 0 -0.16344558191277461 0.0035484352059621371 0 -0.15315794727226231 -0.01516064861187579 0 -0.1540295096882198 -0.0030124739246440132 0 -0.16328375272781431 -0.017595266077961861 0 -0.16722585307904991 -0.0072875001328783287 0 -0.17868883408983161 -0.01496464299364085 0 -0.17988368744917241 0.0041370613468190518 0 -0.17868883408983161 -0.01496464299364085 0 -0.19381119493734111 -0.0050623917465707699 0 -0.17988368744917241 0.0041370613468190518 0 -0.16722585307904991 -0.0072875001328783287 0 -0.17988368744917241 0.0041370613468190518 0 -0.19381119493734111 -0.0050623917465707699 0 -0.2033481584914445 -0.026916812062635562 0 -0.20995695174839971 -0.0043779342121352122 0 -0.1856276798799445 -0.035544339313579601 0 -0.17868883408983161 -0.01496464299364085 0 -0.2033481584914445 -0.026916812062635562 0 -0.17868883408983161 -0.01496464299364085 0 -0.19381119493734111 -0.0050623917465707699 0 -0.2033481584914445 -0.026916812062635562 0 -0.17868883408983161 -0.01496464299364085 0 -0.2033481584914445 -0.026916812062635562 0 -0.2033481584914445 -0.026916812062635562 0 -0.20995695174839971 -0.0043779342121352122 0 -0.2033481584914445 -0.026916812062635562 0 -0.22719562870682269 -0.038475482172166217 0 -0.22144564636984121 -0.019275878782270311 0 -0.2033481584914445 -0.026916812062635562 0 -0.20995695174839971 -0.0043779342121352122 0 -0.22144564636984121 -0.019275878782270311 0 -0.19381119493734111 -0.0050623917465707699 0 -0.20995695174839971 -0.0043779342121352122 0 -0.20603616115979961 0.0065395622861276646 0 -0.20995695174839971 -0.0043779342121352122 0 -0.22671750981213559 -0.0055790285182428364 0 -0.2194789456520044 0.0040362019280980842 0 -0.19027752842877829 -0.07149338193815688 0 -0.1836546971350683 -0.059170379886323482 0 -0.19588338072794181 -0.052374971767613993 0 -0.19027752842877829 -0.07149338193815688 0 -0.19588338072794181 -0.052374971767613993 0 -0.1992796057084322 -0.063751876405587909 0 -0.19588338072794181 -0.052374971767613993 0 -0.204515774506665 -0.053095852776856869 0 -0.19588338072794181 -0.052374971767613993 0 -0.204515774506665 -0.053095852776856869 0 -0.1856276798799445 -0.035544339313579601 0 -0.2033481584914445 -0.026916812062635562 0 -0.19588338072794181 -0.052374971767613993 0 -0.2033481584914445 -0.026916812062635562 0 -0.19588338072794181 -0.052374971767613993 0 -0.20998201619261611 -0.04480481827173155 0 -0.2033481584914445 -0.026916812062635562 0 -0.19588338072794181 -0.052374971767613993 0 -0.2033481584914445 -0.026916812062635562 0 -0.20998201619261611 -0.04480481827173155 0 -0.22719562870682269 -0.038475482172166217 0 -0.2033481584914445 -0.026916812062635562 0 -0.22719562870682269 -0.038475482172166217 0 -0.20998201619261611 -0.04480481827173155 0 -0.21896713853020661 -0.053160972579385103 0 -0.22719562870682269 -0.038475482172166217 0 -0.19588338072794181 -0.052374971767613993 0 -0.20998201619261611 -0.04480481827173155 0 -0.204515774506665 -0.053095852776856869 0 -0.20998201619261611 -0.04480481827173155 0 -0.204515774506665 -0.053095852776856869 0 -0.21896713853020661 -0.053160972579385103 0 -0.204515774506665 -0.053095852776856869 0 -0.20934942283613389 -0.062234791804752762 0 -0.21896713853020661 -0.053160972579385103 0 -0.2218689657216861 -0.065739889600480772 0 -0.20934942283613389 -0.062234791804752762 0 -0.21896713853020661 -0.053160972579385103 0 -0.1992796057084322 -0.063751876405587909 0 -0.204515774506665 -0.053095852776856869 0 -0.20934942283613389 -0.062234791804752762 0 -0.2218689657216861 -0.065739889600480772 0 -0.21896713853020661 -0.053160972579385103 0 -0.23473930425814279 -0.057106743209672399 0 -0.21896713853020661 -0.053160972579385103 0 -0.22719562870682269 -0.038475482172166217 0 -0.23473930425814279 -0.057106743209672399 0 -0.22719562870682269 -0.038475482172166217 0 -0.2496474270898944 -0.040950600250523807 0 -0.2405214833758077 -0.02732570693583071 0 -0.22719562870682269 -0.038475482172166217 0 -0.2496474270898944 -0.040950600250523807 0 -0.23473930425814279 -0.057106743209672399 0 -0.2496474270898944 -0.040950600250523807 0 -0.24974629169328069 -0.058718313354859948 0 -0.23473930425814279 -0.057106743209672399 0 -0.22671750981213559 -0.0055790285182428364 0 -0.23481039508262691 -0.0144055664492508 0 -0.23710760328496211 0.0027744489919406881 0 -0.20995695174839971 -0.0043779342121352122 0 -0.22671750981213559 -0.0055790285182428364 0 -0.22144564636984121 -0.019275878782270311 0 -0.22671750981213559 -0.0055790285182428364 0 -0.22144564636984121 -0.019275878782270311 0 -0.23481039508262691 -0.0144055664492508 0 -0.22144564636984121 -0.019275878782270311 0 -0.2405214833758077 -0.02732570693583071 0 -0.23481039508262691 -0.0144055664492508 0 -0.22719562870682269 -0.038475482172166217 0 -0.22144564636984121 -0.019275878782270311 0 -0.2405214833758077 -0.02732570693583071 0 -0.23481039508262691 -0.0144055664492508 0 -0.25446273014988752 -0.020291086889509129 0 -0.2496474270898944 -0.040950600250523807 0 -0.2405214833758077 -0.02732570693583071 0 -0.25446273014988752 -0.020291086889509129 0 -0.2405214833758077 -0.02732570693583071 0 -0.23481039508262691 -0.0144055664492508 0 -0.25446273014988752 -0.020291086889509129 0 -0.25446273014988752 -0.020291086889509129 0 -0.23710760328496211 0.0027744489919406881 0 -0.25480652507994328 -0.0058929960684832444 0 -0.25446273014988752 -0.020291086889509129 0 -0.23710760328496211 0.0027744489919406881 0 -0.23481039508262691 -0.0144055664492508 0 -0.25446273014988752 -0.020291086889509129 0 -0.23710760328496211 0.0027744489919406881 0 -0.25480652507994328 -0.0058929960684832444 0 -0.26976557738737422 -0.0052509948471027579 0 -0.24860392296443271 0.0047567696316496919 0 -0.26976557738737422 -0.0052509948471027579 0 -0.24860392296443271 0.0047567696316496919 0 -0.25480652507994328 -0.0058929960684832444 0 -0.25446273014988752 -0.020291086889509129 0 -0.26976557738737422 -0.0052509948471027579 0 -0.25446273014988752 -0.020291086889509129 0 -0.27530807009428548 -0.02653389080604034 0 -0.25446273014988752 -0.020291086889509129 0 -0.26990704167927881 -0.040817086181707929 0 -0.25446273014988752 -0.020291086889509129 0 -0.27530807009428548 -0.02653389080604034 0 -0.26976557738737422 -0.0052509948471027579 0 -0.25446273014988752 -0.020291086889509129 0 -0.27530807009428548 -0.02653389080604034 0 -0.26990704167927881 -0.040817086181707929 0 -0.27530807009428548 -0.02653389080604034 0 -0.26976557738737422 -0.0052509948471027579 0 -0.2909272318103156 -0.015258759325855209 0 -0.26976557738737422 -0.0052509948471027579 0 -0.2909272318103156 -0.015258759325855209 0 -0.26976557738737422 -0.0052509948471027579 0 -0.2909272318103156 -0.015258759325855209 0 -0.28527998823394418 0.0024290452339454649 0 -0.2909272318103156 -0.015258759325855209 0 -0.2972404981886525 -0.004056826750551662 0 -0.28527998823394418 0.0024290452339454649 0 -0.27530807009428548 -0.02653389080604034 0 -0.29615341003868328 -0.032776694722571748 0 -0.27530807009428548 -0.02653389080604034 0 -0.2909272318103156 -0.015258759325855209 0 -0.29615341003868328 -0.032776694722571748 0 -0.2909272318103156 -0.015258759325855209 0 -0.31208888623325698 -0.02526652380460765 0 -0.2909272318103156 -0.015258759325855209 0 -0.31208888623325698 -0.02526652380460765 0 -0.30791646430185449 -0.01218419146286169 0 -0.2909272318103156 -0.015258759325855209 0 -0.31208888623325698 -0.02526652380460765 0 -0.29615341003868328 -0.032776694722571748 0 -0.2909272318103156 -0.015258759325855209 0 -0.30791646430185449 -0.01218419146286169 0 -0.2972404981886525 -0.004056826750551662 0 -0.30791646430185449 -0.01218419146286169 0 -0.30779985458359332 -0.00074477798804285236 0 -0.31954079679743841 -0.0076154716017267782 0 -0.30791646430185449 -0.01218419146286169 0 -0.30779985458359332 -0.00074477798804285236 0 -0.2972404981886525 -0.004056826750551662 0 -0.29875357738044739 -0.054636446899380138 0 -0.31022679246225848 -0.052879124634700493 0 -0.30374843603595081 -0.040240990317882128 0 -0.29875357738044739 -0.054636446899380138 0 -0.30374843603595081 -0.040240990317882128 0 -0.28989872945126222 -0.046737091206360909 0 -0.29875357738044739 -0.054636446899380138 0 -0.30662482567332172 -0.061701758162220337 0 -0.29951014513455831 -0.066361696830501651 0 -0.30662482567332172 -0.061701758162220337 0 -0.31022679246225848 -0.052879124634700493 0 -0.31650969775973042 -0.061033851777965623 0 -0.29875357738044739 -0.054636446899380138 0 -0.30662482567332172 -0.061701758162220337 0 -0.31022679246225848 -0.052879124634700493 0 -0.31022679246225848 -0.052879124634700493 0 -0.30374843603595081 -0.040240990317882128 0 -0.31463712399241012 -0.046169232174673593 0 -0.30374843603595081 -0.040240990317882128 0 -0.31699874998308097 -0.039019498639103783 0 -0.31208888623325698 -0.02526652380460765 0 -0.29615341003868328 -0.032776694722571748 0 -0.31699874998308097 -0.039019498639103783 0 -0.29615341003868328 -0.032776694722571748 0 -0.31699874998308097 -0.039019498639103783 0 -0.30374843603595081 -0.040240990317882128 0 -0.29615341003868328 -0.032776694722571748 0 -0.31699874998308097 -0.039019498639103783 0 -0.30374843603595081 -0.040240990317882128 0 -0.31699874998308097 -0.039019498639103783 0 -0.31463712399241012 -0.046169232174673593 0 -0.30374843603595081 -0.040240990317882128 0 -0.28989872945126222 -0.046737091206360909 0 -0.29615341003868328 -0.032776694722571748 0 -0.27530807009428548 -0.02653389080604034 0 -0.29615341003868328 -0.032776694722571748 0 -0.28281681281587739 -0.036716190729170227 0 -0.28989872945126222 -0.046737091206360909 0 -0.29615341003868328 -0.032776694722571748 0 -0.28281681281587739 -0.036716190729170227 0 -0.28989872945126222 -0.046737091206360909 0 -0.28535135320867028 -0.061343085473906593 0 -0.26990704167927881 -0.040817086181707929 0 -0.29875357738044739 -0.054636446899380138 0 -0.28989872945126222 -0.046737091206360909 0 -0.28535135320867028 -0.061343085473906593 0 -0.29875357738044739 -0.054636446899380138 0 -0.28535135320867028 -0.061343085473906593 0 -0.29951014513455831 -0.066361696830501651 0 -0.28535135320867028 -0.061343085473906593 0 -0.26990704167927881 -0.040817086181707929 0 -0.26336071213902867 -0.055498260564988543 0 -0.28535135320867028 -0.061343085473906593 0 -0.26990704167927881 -0.040817086181707929 0 -0.28989872945126222 -0.046737091206360909 0 -0.28281681281587739 -0.036716190729170227 0 -0.26990704167927881 -0.040817086181707929 0 -0.27530807009428548 -0.02653389080604034 0 -0.28281681281587739 -0.036716190729170227 0 -0.26990704167927881 -0.040817086181707929 0 -0.2496474270898944 -0.040950600250523807 0 -0.25446273014988752 -0.020291086889509129 0 -0.26990704167927881 -0.040817086181707929 0 -0.2496474270898944 -0.040950600250523807 0 -0.26990704167927881 -0.040817086181707929 0 -0.26336071213902867 -0.055498260564988543 0 -0.24974629169328069 -0.058718313354859948 0 -0.26336071213902867 -0.055498260564988543 0 -0.2631049550017337 -0.071570780591685174 0 -0.2496474270898944 -0.040950600250523807 0 -0.24974629169328069 -0.058718313354859948 0 -0.26336071213902867 -0.055498260564988543 0 -0.24776659181916391 -0.072489885990929814 0 -0.24974629169328069 -0.058718313354859948 0 -0.2631049550017337 -0.071570780591685174 0 -0.24776659181916391 -0.072489885990929814 0 -0.2492275183134364 -0.086621741948598993 0 -0.2631049550017337 -0.071570780591685174 0 -0.2492275183134364 -0.086621741948598993 0 -0.2631049550017337 -0.071570780591685174 0 -0.27873021716412039 -0.08479824705967115 0 -0.2492275183134364 -0.086621741948598993 0 -0.27873021716412039 -0.08479824705967115 0 -0.2398564460583473 -0.099007635711807651 0 -0.2492275183134364 -0.086621741948598993 0 -0.26492031842556241 -0.095088483993834322 0 -0.2492275183134364 -0.086621741948598993 0 -0.27873021716412039 -0.08479824705967115 0 -0.26492031842556241 -0.095088483993834322 0 -0.27873021716412039 -0.08479824705967115 0 -0.26492031842556241 -0.095088483993834322 0 -0.29271325654032221 -0.099918895661308044 0 -0.28535135320867028 -0.061343085473906593 0 -0.26336071213902867 -0.055498260564988543 0 -0.2631049550017337 -0.071570780591685174 0 -0.28535135320867028 -0.061343085473906593 0 -0.2631049550017337 -0.071570780591685174 0 -0.27873021716412039 -0.08479824705967115 0 -0.2452555362195579 -0.11258392983501379 0 -0.26615960007747957 -0.1107402727086418 0 -0.25225956928813797 -0.126622413011758 0 -0.2398564460583473 -0.099007635711807651 0 -0.26492031842556241 -0.095088483993834322 0 -0.26615960007747957 -0.1107402727086418 0 -0.2452555362195579 -0.11258392983501379 0 -0.2398564460583473 -0.099007635711807651 0 -0.26615960007747957 -0.1107402727086418 0 -0.2398564460583473 -0.099007635711807651 0 -0.26615960007747957 -0.1107402727086418 0 -0.26492031842556241 -0.095088483993834322 0 -0.26615960007747957 -0.1107402727086418 0 -0.29271325654032221 -0.099918895661308044 0 -0.26615960007747957 -0.1107402727086418 0 -0.29246275409661188 -0.122472909705476 0 -0.27657227811760499 -0.13856860284962061 0 -0.26615960007747957 -0.1107402727086418 0 -0.29246275409661188 -0.122472909705476 0 -0.26615960007747957 -0.1107402727086418 0 -0.29246275409661188 -0.122472909705476 0 -0.29271325654032221 -0.099918895661308044 0 -0.29271325654032221 -0.099918895661308044 0 -0.31068230139107339 -0.096006941922164579 0 -0.31620862279486128 -0.1096671407073689 0 -0.29246275409661188 -0.122472909705476 0 -0.31620862279486128 -0.1096671407073689 0 -0.31876590811574418 -0.13420554670231011 0 -0.29246275409661188 -0.122472909705476 0 -0.29271325654032221 -0.099918895661308044 0 -0.31620862279486128 -0.1096671407073689 0 -0.28535135320867028 -0.061343085473906593 0 -0.30079566473806191 -0.081869084766105299 0 -0.28535135320867028 -0.061343085473906593 0 -0.30079566473806191 -0.081869084766105299 0 -0.29951014513455831 -0.066361696830501651 0 -0.28535135320867028 -0.061343085473906593 0 -0.27873021716412039 -0.08479824705967115 0 -0.30079566473806191 -0.081869084766105299 0 -0.27873021716412039 -0.08479824705967115 0 -0.29271325654032221 -0.099918895661308044 0 -0.30823291601480429 -0.082974752170743293 0 -0.27873021716412039 -0.08479824705967115 0 -0.30079566473806191 -0.081869084766105299 0 -0.30823291601480429 -0.082974752170743293 0 -0.27873021716412039 -0.08479824705967115 0 -0.30823291601480429 -0.082974752170743293 0 -0.29271325654032221 -0.099918895661308044 0 -0.31068230139107339 -0.096006941922164579 0 -0.30823291601480429 -0.082974752170743293 0 -0.30823291601480429 -0.082974752170743293 0 -0.30694274055241161 -0.078065809600521979 0 -0.31555559752129347 -0.075234141431837515 0 -0.30079566473806191 -0.081869084766105299 0 -0.30823291601480429 -0.082974752170743293 0 -0.30694274055241161 -0.078065809600521979 0 -0.3060253046722905 -0.072258108850895938 0 -0.31315427289777148 -0.06778698673373014 0 -0.31555559752129347 -0.075234141431837515 0 -0.3060253046722905 -0.072258108850895938 0 -0.30694274055241161 -0.078065809600521979 0 -0.31555559752129347 -0.075234141431837515 0 -0.30079566473806191 -0.081869084766105299 0 -0.3060253046722905 -0.072258108850895938 0 -0.29951014513455831 -0.066361696830501651 0 -0.30079566473806191 -0.081869084766105299 0 -0.3060253046722905 -0.072258108850895938 0 -0.30694274055241161 -0.078065809600521979 0 -0.30662482567332172 -0.061701758162220337 0 -0.3060253046722905 -0.072258108850895938 0 -0.29951014513455831 -0.066361696830501651 0 -0.30662482567332172 -0.061701758162220337 0 -0.3060253046722905 -0.072258108850895938 0 -0.31315427289777148 -0.06778698673373014 0 -0.30662482567332172 -0.061701758162220337 0 -0.31315427289777148 -0.06778698673373014 0 -0.31650969775973042 -0.061033851777965623 0 -0.31315427289777148 -0.06778698673373014 0 -0.32301681158549739 -0.069213464464252195 0 -0.31650969775973042 -0.061033851777965623 0 -0.32301681158549739 -0.069213464464252195 0 -0.31555559752129347 -0.075234141431837515 0 -0.33773561486548798 -0.081151257281815437 0 -0.32301681158549739 -0.069213464464252195 0 -0.32431030039541331 -0.060924950296694598 0 -0.33560193475069722 -0.059326250178006579 0 -0.32301681158549739 -0.069213464464252195 0 -0.31650969775973042 -0.061033851777965623 0 -0.32431030039541331 -0.060924950296694598 0 -0.31315427289777148 -0.06778698673373014 0 -0.32301681158549739 -0.069213464464252195 0 -0.31555559752129347 -0.075234141431837515 0 -0.30823291601480429 -0.082974752170743293 0 -0.33773561486548798 -0.081151257281815437 0 -0.30823291601480429 -0.082974752170743293 0 -0.33773561486548798 -0.081151257281815437 0 -0.32257925778573032 -0.094308932398622078 0 -0.30823291601480429 -0.082974752170743293 0 -0.31555559752129347 -0.075234141431837515 0 -0.33773561486548798 -0.081151257281815437 0 -0.31068230139107339 -0.096006941922164579 0 -0.30823291601480429 -0.082974752170743293 0 -0.32257925778573032 -0.094308932398622078 0 -0.33773561486548798 -0.081151257281815437 0 -0.3397733245341783 -0.1019946009894057 0 -0.35250337673260801 -0.094732954908098438 0 -0.33773561486548798 -0.081151257281815437 0 -0.3397733245341783 -0.1019946009894057 0 -0.33773561486548798 -0.081151257281815437 0 -0.32257925778573032 -0.094308932398622078 0 -0.3397733245341783 -0.1019946009894057 0 -0.32301681158549739 -0.069213464464252195 0 -0.33773561486548798 -0.081151257281815437 0 -0.33560193475069722 -0.059326250178006579 0 -0.33773561486548798 -0.081151257281815437 0 -0.33560193475069722 -0.059326250178006579 0 -0.33773561486548798 -0.081151257281815437 0 -0.35244732498285702 -0.065172840463567042 0 -0.33560193475069722 -0.059326250178006579 0 -0.31620862279486128 -0.1096671407073689 0 -0.33453486786086462 -0.1202047768093053 0 -0.31876590811574418 -0.13420554670231011 0 -0.31620862279486128 -0.1096671407073689 0 -0.32257925778573032 -0.094308932398622078 0 -0.3397733245341783 -0.1019946009894057 0 -0.31068230139107339 -0.096006941922164579 0 -0.31620862279486128 -0.1096671407073689 0 -0.32257925778573032 -0.094308932398622078 0 -0.31620862279486128 -0.1096671407073689 0 -0.3397733245341783 -0.1019946009894057 0 -0.33453486786086462 -0.1202047768093053 0 -0.3397733245341783 -0.1019946009894057 0 -0.33453486786086462 -0.1202047768093053 0 -0.35243412815884462 -0.1092578311274682 0 -0.33453486786086462 -0.1202047768093053 0 -0.35491780130213768 -0.1235569947363926 0 -0.35243412815884462 -0.1092578311274682 0 -0.35491780130213768 -0.1235569947363926 0 -0.35243412815884462 -0.1092578311274682 0 -0.36684727574022591 -0.115078136427362 0 -0.3397733245341783 -0.1019946009894057 0 -0.35243412815884462 -0.1092578311274682 0 -0.35250337673260801 -0.094732954908098438 0 -0.35243412815884462 -0.1092578311274682 0 -0.35250337673260801 -0.094732954908098438 0 -0.36568910444080061 -0.099752939211701377 0 -0.36568910444080061 -0.099752939211701377 0 -0.37854848298343807 -0.092143764015219051 0 -0.37990165281842692 -0.1085536339877186 0 -0.36568910444080061 -0.099752939211701377 0 -0.36684727574022591 -0.115078136427362 0 -0.37990165281842692 -0.1085536339877186 0 -0.35243412815884462 -0.1092578311274682 0 -0.36568910444080061 -0.099752939211701377 0 -0.36684727574022591 -0.115078136427362 0 -0.36684727574022591 -0.115078136427362 0 -0.3778128652086149 -0.122596574453348 0 -0.37990165281842692 -0.1085536339877186 0 -0.36684727574022591 -0.115078136427362 0 -0.36627791683563959 -0.12431823941426109 0 -0.3778128652086149 -0.122596574453348 0 -0.35491780130213768 -0.1235569947363926 0 -0.36684727574022591 -0.115078136427362 0 -0.36627791683563959 -0.12431823941426109 0 -0.33773561486548798 -0.081151257281815437 0 -0.35244732498285702 -0.065172840463567042 0 -0.36392847171929021 -0.079532336218320301 0 -0.33773561486548798 -0.081151257281815437 0 -0.36392847171929021 -0.079532336218320301 0 -0.33773561486548798 -0.081151257281815437 0 -0.35250337673260801 -0.094732954908098438 0 -0.36392847171929021 -0.079532336218320301 0 -0.35250337673260801 -0.094732954908098438 0 -0.36568910444080061 -0.099752939211701377 0 -0.36392847171929021 -0.079532336218320301 0 -0.36568910444080061 -0.099752939211701377 0 -0.36392847171929021 -0.079532336218320301 0 -0.37854848298343807 -0.092143764015219051 0 -0.35244732498285702 -0.065172840463567042 0 -0.36392847171929021 -0.079532336218320301 0 -0.37567521317190777 -0.056886012536169032 0 -0.34929539040690177 -0.048968346103523838 0 -0.35881578612406939 -0.035164558908531193 0 -0.37567521317190777 -0.056886012536169032 0 -0.35244732498285702 -0.065172840463567042 0 -0.34929539040690177 -0.048968346103523838 0 -0.33560193475069722 -0.059326250178006579 0 -0.35244732498285702 -0.065172840463567042 0 -0.34929539040690177 -0.048968346103523838 0 -0.37567521317190777 -0.056886012536169032 0 -0.35881578612406939 -0.035164558908531193 0 -0.33346825463590563 -0.037501243074197672 0 -0.35881578612406939 -0.035164558908531193 0 -0.34066049296963768 -0.023424051934678749 0 -0.33620193499666312 -0.036670060979244933 0 -0.34929539040690177 -0.048968346103523838 0 -0.35881578612406939 -0.035164558908531193 0 -0.33346825463590563 -0.037501243074197672 0 -0.35881578612406939 -0.035164558908531193 0 -0.38416331761223338 -0.032827874742866373 0 -0.37567521317190777 -0.056886012536169032 0 -0.35881578612406939 -0.035164558908531193 0 -0.38416331761223338 -0.032827874742866373 0 -0.35881578612406939 -0.035164558908531193 0 -0.37282685176606628 -0.017088311957558701 0 -0.35552907365966813 -0.015837840677683439 0 -0.35881578612406939 -0.035164558908531193 0 -0.37282685176606628 -0.017088311957558701 0 -0.38416331761223338 -0.032827874742866373 0 -0.37282685176606628 -0.017088311957558701 0 -0.37147378190201819 0.0046411454033882336 0 -0.37282685176606628 -0.017088311957558701 0 -0.36197407125321268 -0.004390766724155332 0 -0.37147378190201819 0.0046411454033882336 0 -0.37282685176606628 -0.017088311957558701 0 -0.36197407125321268 -0.004390766724155332 0 -0.35552907365966813 -0.015837840677683439 0 -0.36197407125321268 -0.004390766724155332 0 -0.34951862856677279 -0.00030642019435179948 0 -0.35552907365966813 -0.015837840677683439 0 -0.34951862856677279 -0.00030642019435179948 0 -0.35552907365966813 -0.015837840677683439 0 -0.34302814622162048 -0.01125230197909087 0 -0.34951862856677279 -0.00030642019435179948 0 -0.33881477357547979 -0.001256556137510032 0 -0.34302814622162048 -0.01125230197909087 0 -0.35881578612406939 -0.035164558908531193 0 -0.35552907365966813 -0.015837840677683439 0 -0.34066049296963768 -0.023424051934678749 0 -0.35552907365966813 -0.015837840677683439 0 -0.34066049296963768 -0.023424051934678749 0 -0.34302814622162048 -0.01125230197909087 0 -0.34066049296963768 -0.023424051934678749 0 -0.33109574697456767 -0.013233314529716369 0 -0.33325054065619758 -0.035274288283361793 0 -0.33109574697456767 -0.013233314529716369 0 -0.32208324453123088 -0.020025356420466531 0 -0.33325054065619758 -0.035274288283361793 0 -0.33109574697456767 -0.013233314529716369 0 -0.33325054065619758 -0.035274288283361793 0 -0.34066049296963768 -0.023424051934678749 0 -0.34302814622162048 -0.01125230197909087 0 -0.33109574697456767 -0.013233314529716369 0 -0.33881477357547979 -0.001256556137510032 0 -0.34302814622162048 -0.01125230197909087 0 -0.33109574697456767 -0.013233314529716369 0 -0.33109574697456767 -0.013233314529716369 0 -0.33007213335467039 -0.0027629659657771081 0 -0.33881477357547979 -0.001256556137510032 0 -0.33109574697456767 -0.013233314529716369 0 -0.33007213335467039 -0.0027629659657771081 0 -0.33007213335467039 -0.0027629659657771081 0 -0.31954079679743841 -0.0076154716017267782 0 -0.31694133288297072 0.0035041363377617449 0 -0.33109574697456767 -0.013233314529716369 0 -0.31954079679743841 -0.0076154716017267782 0 -0.32208324453123088 -0.020025356420466531 0 -0.33109574697456767 -0.013233314529716369 0 -0.33007213335467039 -0.0027629659657771081 0 -0.31954079679743841 -0.0076154716017267782 0 -0.30791646430185449 -0.01218419146286169 0 -0.31954079679743841 -0.0076154716017267782 0 -0.32208324453123088 -0.020025356420466531 0 -0.30779985458359332 -0.00074477798804285236 0 -0.31954079679743841 -0.0076154716017267782 0 -0.31694133288297072 0.0035041363377617449 0 -0.31208888623325698 -0.02526652380460765 0 -0.32208324453123088 -0.020025356420466531 0 -0.33325054065619758 -0.035274288283361793 0 -0.31208888623325698 -0.02526652380460765 0 -0.33325054065619758 -0.035274288283361793 0 -0.31208888623325698 -0.02526652380460765 0 -0.30791646430185449 -0.01218419146286169 0 -0.32208324453123088 -0.020025356420466531 0 -0.31699874998308097 -0.039019498639103783 0 -0.33346825463590563 -0.037501243074197672 0 -0.33059472909361282 -0.043091249537227358 0 -0.31208888623325698 -0.02526652380460765 0 -0.31699874998308097 -0.039019498639103783 0 -0.33325054065619758 -0.035274288283361793 0 -0.31699874998308097 -0.039019498639103783 0 -0.33346825463590563 -0.037501243074197672 0 -0.31699874998308097 -0.039019498639103783 0 -0.33325054065619758 -0.035274288283361793 0 -0.33346825463590563 -0.037501243074197672 0 -0.31699874998308097 -0.039019498639103783 0 -0.33059472909361282 -0.043091249537227358 0 -0.31699874998308097 -0.039019498639103783 0 -0.3211324145059879 -0.04572540155608236 0 -0.33059472909361282 -0.043091249537227358 0 -0.31699874998308097 -0.039019498639103783 0 -0.3211324145059879 -0.04572540155608236 0 -0.31463712399241012 -0.046169232174673593 0 -0.31022679246225848 -0.052879124634700493 0 -0.31463712399241012 -0.046169232174673593 0 -0.32107922697477198 -0.052981145725599171 0 -0.3211324145059879 -0.04572540155608236 0 -0.31463712399241012 -0.046169232174673593 0 -0.32107922697477198 -0.052981145725599171 0 -0.31022679246225848 -0.052879124634700493 0 -0.31650969775973042 -0.061033851777965623 0 -0.32107922697477198 -0.052981145725599171 0 -0.32431030039541331 -0.060924950296694598 0 -0.32107922697477198 -0.052981145725599171 0 -0.33560193475069722 -0.059326250178006579 0 -0.31650969775973042 -0.061033851777965623 0 -0.32431030039541331 -0.060924950296694598 0 -0.32107922697477198 -0.052981145725599171 0 -0.3211324145059879 -0.04572540155608236 0 -0.32107922697477198 -0.052981145725599171 0 -0.33059472909361282 -0.043091249537227358 0 -0.32107922697477198 -0.052981145725599171 0 -0.33560193475069722 -0.059326250178006579 0 -0.33059472909361282 -0.043091249537227358 0 -0.34929539040690177 -0.048968346103523838 0 -0.33560193475069722 -0.059326250178006579 0 -0.33346825463590563 -0.037501243074197672 0 -0.33560193475069722 -0.059326250178006579 0 -0.33346825463590563 -0.037501243074197672 0 -0.35881578612406939 -0.035164558908531193 0 -0.33620193499666312 -0.036670060979244933 0 -0.33346825463590563 -0.037501243074197672 0 -0.33560193475069722 -0.059326250178006579 0 -0.33346825463590563 -0.037501243074197672 0 -0.33059472909361282 -0.043091249537227358 0 -0.34066049296963768 -0.023424051934678749 0 -0.33620193499666312 -0.036670060979244933 0 -0.33325054065619758 -0.035274288283361793 0 -0.33620193499666312 -0.036670060979244933 0 -0.33325054065619758 -0.035274288283361793 0 -0.33346825463590563 -0.037501243074197672 0 -0.33620193499666312 -0.036670060979244933 0 -0.33325054065619758 -0.035274288283361793 0 -0.33325054065619758 -0.035274288283361793 0 -0.33346825463590563 -0.037501243074197672 0 -0.29674336521112071 -0.25577230774603738 0 -0.30557412098892461 -0.22894421480701829 0 -0.32099492036963639 -0.24418431014163919 0 -0.30557412098892461 -0.22894421480701829 0 -0.28501969298744662 -0.23052425034863891 0 -0.29349061158587969 -0.2092664915053454 0 -0.29674336521112071 -0.25577230774603738 0 -0.30557412098892461 -0.22894421480701829 0 -0.28501969298744662 -0.23052425034863891 0 -0.29674336521112071 -0.25577230774603738 0 -0.28501969298744662 -0.23052425034863891 0 -0.27918139424231853 -0.24793113754157431 0 -0.28501969298744662 -0.23052425034863891 0 -0.27918139424231853 -0.24793113754157431 0 -0.26394184756727629 -0.2397803109452622 0 -0.2484888610175276 -0.25598132161872211 0 -0.24993741167882261 -0.2367248466315954 0 -0.26394184756727629 -0.2397803109452622 0 -0.24993741167882261 -0.2367248466315954 0 -0.26317737437451588 -0.2248617825043151 0 -0.25077074245064329 -0.21654178284017181 0 -0.24993741167882261 -0.2367248466315954 0 -0.26394184756727629 -0.2397803109452622 0 -0.26317737437451588 -0.2248617825043151 0 -0.28501969298744662 -0.23052425034863891 0 -0.26317737437451588 -0.2248617825043151 0 -0.27213067701826149 -0.21290413717275869 0 -0.28501969298744662 -0.23052425034863891 0 -0.26394184756727629 -0.2397803109452622 0 -0.26317737437451588 -0.2248617825043151 0 -0.27213067701826149 -0.21290413717275869 0 -0.2620674375488018 -0.20339540552386051 0 -0.28127031076299458 -0.20204061163430309 0 -0.26317737437451588 -0.2248617825043151 0 -0.27213067701826149 -0.21290413717275869 0 -0.25077074245064329 -0.21654178284017181 0 -0.27213067701826149 -0.21290413717275869 0 -0.25077074245064329 -0.21654178284017181 0 -0.27213067701826149 -0.21290413717275869 0 -0.2620674375488018 -0.20339540552386051 0 -0.25077074245064329 -0.21654178284017181 0 -0.2479353623451053 -0.2016099449396688 0 -0.2620674375488018 -0.20339540552386051 0 -0.25077074245064329 -0.21654178284017181 0 -0.2620674375488018 -0.20339540552386051 0 -0.25077074245064329 -0.21654178284017181 0 -0.2479353623451053 -0.2016099449396688 0 -0.2620674375488018 -0.20339540552386051 0 -0.25508499748992292 -0.18596856851653851 0 -0.2620674375488018 -0.20339540552386051 0 -0.27336413264696052 -0.19024902820754949 0 -0.25508499748992292 -0.18596856851653851 0 -0.2620674375488018 -0.20339540552386051 0 -0.27336413264696052 -0.19024902820754949 0 -0.28127031076299458 -0.20204061163430309 0 -0.2620674375488018 -0.20339540552386051 0 -0.27336413264696052 -0.19024902820754949 0 -0.27336413264696052 -0.19024902820754949 0 -0.28127031076299458 -0.20204061163430309 0 -0.29679681512942652 -0.1856674780703777 0 -0.28127031076299458 -0.20204061163430309 0 -0.29349061158587969 -0.2092664915053454 0 -0.29679681512942652 -0.1856674780703777 0 -0.27213067701826149 -0.21290413717275869 0 -0.29349061158587969 -0.2092664915053454 0 -0.28501969298744662 -0.23052425034863891 0 -0.27213067701826149 -0.21290413717275869 0 -0.29349061158587969 -0.2092664915053454 0 -0.27213067701826149 -0.21290413717275869 0 -0.28127031076299458 -0.20204061163430309 0 -0.29349061158587969 -0.2092664915053454 0 -0.30557412098892461 -0.22894421480701829 0 -0.29349061158587969 -0.2092664915053454 0 -0.31485054615349789 -0.20562884583793209 0 -0.29349061158587969 -0.2092664915053454 0 -0.31485054615349789 -0.20562884583793209 0 -0.29349061158587969 -0.2092664915053454 0 -0.29679681512942652 -0.1856674780703777 0 -0.31485054615349789 -0.20562884583793209 0 -0.29679681512942652 -0.1856674780703777 0 -0.31776557504428499 -0.18224279786785541 0 -0.31485054615349789 -0.20562884583793209 0 -0.29679681512942652 -0.1856674780703777 0 -0.31882462815530588 -0.16130054087594081 0 -0.31776557504428499 -0.18224279786785541 0 -0.29314267066250671 -0.15894633760171639 0 -0.29679681512942652 -0.1856674780703777 0 -0.31882462815530588 -0.16130054087594081 0 -0.29314267066250671 -0.15894633760171639 0 -0.31882462815530588 -0.16130054087594081 0 -0.29314267066250671 -0.15894633760171639 0 -0.28347822876718343 -0.17537704363593951 0 -0.27060929662984012 -0.16664533066411449 0 -0.29314267066250671 -0.15894633760171639 0 -0.28347822876718343 -0.17537704363593951 0 -0.29679681512942652 -0.1856674780703777 0 -0.27336413264696052 -0.19024902820754949 0 -0.28347822876718343 -0.17537704363593951 0 -0.29679681512942652 -0.1856674780703777 0 -0.27336413264696052 -0.19024902820754949 0 -0.25508499748992292 -0.18596856851653851 0 -0.27060929662984012 -0.16664533066411449 0 -0.27336413264696052 -0.19024902820754949 0 -0.28347822876718343 -0.17537704363593951 0 -0.27060929662984012 -0.16664533066411449 0 -0.25508499748992292 -0.18596856851653851 0 -0.25396177481208382 -0.17019558441461549 0 -0.27060929662984012 -0.16664533066411449 0 -0.24161034255425601 -0.16032184257862331 0 -0.25396177481208382 -0.17019558441461549 0 -0.25876193896766142 -0.14461121296098969 0 -0.25396177481208382 -0.17019558441461549 0 -0.27060929662984012 -0.16664533066411449 0 -0.25876193896766142 -0.14461121296098969 0 -0.27060929662984012 -0.16664533066411449 0 -0.25876193896766142 -0.14461121296098969 0 -0.27657227811760499 -0.13856860284962061 0 -0.29314267066250671 -0.15894633760171639 0 -0.27060929662984012 -0.16664533066411449 0 -0.27657227811760499 -0.13856860284962061 0 -0.26615960007747957 -0.1107402727086418 0 -0.25225956928813797 -0.126622413011758 0 -0.27657227811760499 -0.13856860284962061 0 -0.25876193896766142 -0.14461121296098969 0 -0.25225956928813797 -0.126622413011758 0 -0.27657227811760499 -0.13856860284962061 0 -0.29246275409661188 -0.122472909705476 0 -0.27657227811760499 -0.13856860284962061 0 -0.30012273603383882 -0.1405731680026647 0 -0.29314267066250671 -0.15894633760171639 0 -0.27657227811760499 -0.13856860284962061 0 -0.30012273603383882 -0.1405731680026647 0 -0.29314267066250671 -0.15894633760171639 0 -0.30012273603383882 -0.1405731680026647 0 -0.31882462815530588 -0.16130054087594081 0 -0.29246275409661188 -0.122472909705476 0 -0.31876590811574418 -0.13420554670231011 0 -0.29246275409661188 -0.122472909705476 0 -0.30012273603383882 -0.1405731680026647 0 -0.31876590811574418 -0.13420554670231011 0 -0.30012273603383882 -0.1405731680026647 0 -0.31876590811574418 -0.13420554670231011 0 -0.31882462815530588 -0.16130054087594081 0 -0.31876590811574418 -0.13420554670231011 0 -0.34506906213487648 -0.1459381836991443 0 -0.31882462815530588 -0.16130054087594081 0 -0.31876590811574418 -0.13420554670231011 0 -0.34232621315124878 -0.13193727175620931 0 -0.34506906213487648 -0.1459381836991443 0 -0.31876590811574418 -0.13420554670231011 0 -0.34506906213487648 -0.1459381836991443 0 -0.33453486786086462 -0.1202047768093053 0 -0.31876590811574418 -0.13420554670231011 0 -0.34232621315124878 -0.13193727175620931 0 -0.34232621315124878 -0.13193727175620931 0 -0.36553372509158011 -0.13604125203994161 0 -0.34506906213487648 -0.1459381836991443 0 -0.35491780130213768 -0.1235569947363926 0 -0.34232621315124878 -0.13193727175620931 0 -0.36553372509158011 -0.13604125203994161 0 -0.33453486786086462 -0.1202047768093053 0 -0.35491780130213768 -0.1235569947363926 0 -0.34232621315124878 -0.13193727175620931 0 -0.35491780130213768 -0.1235569947363926 0 -0.36627791683563959 -0.12431823941426109 0 -0.36553372509158011 -0.13604125203994161 0 -0.36553372509158011 -0.13604125203994161 0 -0.37827704543822471 -0.1490468056215476 0 -0.3778128652086149 -0.122596574453348 0 -0.36627791683563959 -0.12431823941426109 0 -0.36553372509158011 -0.13604125203994161 0 -0.3778128652086149 -0.122596574453348 0 -0.360714992290738 -0.1521379865870377 0 -0.37018854314090388 -0.1660089474243896 0 -0.37827704543822471 -0.1490468056215476 0 -0.36553372509158011 -0.13604125203994161 0 -0.360714992290738 -0.1521379865870377 0 -0.37827704543822471 -0.1490468056215476 0 -0.360714992290738 -0.1521379865870377 0 -0.34506906213487648 -0.1459381836991443 0 -0.34450658564810488 -0.1636547441501652 0 -0.36553372509158011 -0.13604125203994161 0 -0.360714992290738 -0.1521379865870377 0 -0.34506906213487648 -0.1459381836991443 0 -0.360714992290738 -0.1521379865870377 0 -0.34450658564810488 -0.1636547441501652 0 -0.37018854314090388 -0.1660089474243896 0 -0.34450658564810488 -0.1636547441501652 0 -0.37018854314090388 -0.1660089474243896 0 -0.34450658564810488 -0.1636547441501652 0 -0.3580153830272082 -0.16983232594028169 0 -0.37018854314090388 -0.1660089474243896 0 -0.34450658564810488 -0.1636547441501652 0 -0.3580153830272082 -0.16983232594028169 0 -0.34531344502786149 -0.17775498511061449 0 -0.3580153830272082 -0.16983232594028169 0 -0.36651339765093371 -0.18237163983811189 0 -0.35843396365646762 -0.19557496685373721 0 -0.3580153830272082 -0.16983232594028169 0 -0.37018854314090388 -0.1660089474243896 0 -0.36651339765093371 -0.18237163983811189 0 -0.36651339765093371 -0.18237163983811189 0 -0.37920540589744428 -0.20194726795794701 0 -0.37874122566783452 -0.1754970367897474 0 -0.37018854314090388 -0.1660089474243896 0 -0.36651339765093371 -0.18237163983811189 0 -0.37874122566783452 -0.1754970367897474 0 -0.3580153830272082 -0.16983232594028169 0 -0.35843396365646762 -0.19557496685373721 0 -0.34531344502786149 -0.17775498511061449 0 -0.33359962435163282 -0.1874121476544465 0 -0.35843396365646762 -0.19557496685373721 0 -0.3580153830272082 -0.16983232594028169 0 -0.34531344502786149 -0.17775498511061449 0 -0.35843396365646762 -0.19557496685373721 0 -0.34531344502786149 -0.17775498511061449 0 -0.33359962435163282 -0.1874121476544465 0 -0.33171214323688297 -0.17434232048255549 0 -0.34450658564810488 -0.1636547441501652 0 -0.34531344502786149 -0.17775498511061449 0 -0.33171214323688297 -0.17434232048255549 0 -0.34450658564810488 -0.1636547441501652 0 -0.33171214323688297 -0.17434232048255549 0 -0.31882462815530588 -0.16130054087594081 0 -0.34506906213487648 -0.1459381836991443 0 -0.34450658564810488 -0.1636547441501652 0 -0.31882462815530588 -0.16130054087594081 0 -0.34450658564810488 -0.1636547441501652 0 -0.31882462815530588 -0.16130054087594081 0 -0.33171214323688297 -0.17434232048255549 0 -0.31882462815530588 -0.16130054087594081 0 -0.31776557504428499 -0.18224279786785541 0 -0.33359962435163282 -0.1874121476544465 0 -0.33171214323688297 -0.17434232048255549 0 -0.31776557504428499 -0.18224279786785541 0 -0.33359962435163282 -0.1874121476544465 0 -0.31776557504428499 -0.18224279786785541 0 -0.31485054615349789 -0.20562884583793209 0 -0.31485054615349789 -0.20562884583793209 0 -0.3312259775256266 -0.21560944204121449 0 -0.32242066221371068 -0.22813398249381589 0 -0.31485054615349789 -0.20562884583793209 0 -0.3312259775256266 -0.21560944204121449 0 -0.33669004584352019 -0.20271711139955809 0 -0.3312259775256266 -0.21560944204121449 0 -0.33669004584352019 -0.20271711139955809 0 -0.34462838075345043 -0.2149443373498697 0 -0.33359962435163282 -0.1874121476544465 0 -0.31485054615349789 -0.20562884583793209 0 -0.33669004584352019 -0.20271711139955809 0 -0.33359962435163282 -0.1874121476544465 0 -0.33669004584352019 -0.20271711139955809 0 -0.35843396365646762 -0.19557496685373721 0 -0.36651339765093371 -0.18237163983811189 0 -0.35843396365646762 -0.19557496685373721 0 -0.37920540589744428 -0.20194726795794701 0 -0.35843396365646762 -0.19557496685373721 0 -0.35885254428572699 -0.2213176077671927 0 -0.37920540589744428 -0.20194726795794701 0 -0.35885254428572699 -0.2213176077671927 0 -0.37966958612705398 -0.2283974991261466 0 -0.37920540589744428 -0.20194726795794701 0 -0.33669004584352019 -0.20271711139955809 0 -0.35843396365646762 -0.19557496685373721 0 -0.34462838075345043 -0.2149443373498697 0 -0.35843396365646762 -0.19557496685373721 0 -0.34462838075345043 -0.2149443373498697 0 -0.35885254428572699 -0.2213176077671927 0 -0.35843396365646762 -0.19557496685373721 0 -0.35885254428572699 -0.2213176077671927 0 -0.34462838075345043 -0.2149443373498697 0 -0.34611773090982878 -0.22929567472632381 0 -0.35885254428572699 -0.2213176077671927 0 -0.35885254428572699 -0.2213176077671927 0 -0.35927112491498542 -0.2470602486806481 0 -0.34611773090982878 -0.22929567472632381 0 -0.35885254428572699 -0.2213176077671927 0 -0.35927112491498542 -0.2470602486806481 0 -0.35885254428572699 -0.2213176077671927 0 -0.37314132044407838 -0.2417412535034765 0 -0.37966958612705398 -0.2283974991261466 0 -0.35885254428572699 -0.2213176077671927 0 -0.37314132044407838 -0.2417412535034765 0 -0.35927112491498542 -0.2470602486806481 0 -0.38013376635666379 -0.25484773029434632 0 -0.37314132044407838 -0.2417412535034765 0 -0.35927112491498542 -0.2470602486806481 0 -0.35927112491498542 -0.2470602486806481 0 -0.33957017601599992 -0.23803097313338581 0 -0.34611773090982878 -0.22929567472632381 0 -0.35927112491498542 -0.2470602486806481 0 -0.33957017601599992 -0.23803097313338581 0 -0.34376619378216883 -0.26084677116516142 0 -0.35927112491498542 -0.2470602486806481 0 -0.33957017601599992 -0.23803097313338581 0 -0.3347757626993168 -0.2358336130394261 0 -0.33957017601599992 -0.23803097313338581 0 -0.32099492036963639 -0.24418431014163919 0 -0.32297120194301748 -0.26017618522091401 0 -0.33957017601599992 -0.23803097313338581 0 -0.3347757626993168 -0.2358336130394261 0 -0.33957017601599992 -0.23803097313338581 0 -0.34611773090982878 -0.22929567472632381 0 -0.33957017601599992 -0.23803097313338581 0 -0.33645644835298882 -0.22697467046400591 0 -0.3347757626993168 -0.2358336130394261 0 -0.33957017601599992 -0.23803097313338581 0 -0.33645644835298882 -0.22697467046400591 0 -0.34611773090982878 -0.22929567472632381 0 -0.33957017601599992 -0.23803097313338581 0 -0.3312259775256266 -0.21560944204121449 0 -0.34462838075345043 -0.2149443373498697 0 -0.33645644835298882 -0.22697467046400591 0 -0.34462838075345043 -0.2149443373498697 0 -0.34611773090982878 -0.22929567472632381 0 -0.33645644835298882 -0.22697467046400591 0 -0.3312259775256266 -0.21560944204121449 0 -0.33645644835298882 -0.22697467046400591 0 -0.32242066221371068 -0.22813398249381589 0 -0.3347757626993168 -0.2358336130394261 0 -0.33645644835298882 -0.22697467046400591 0 -0.32242066221371068 -0.22813398249381589 0 -0.30557412098892461 -0.22894421480701829 0 -0.32242066221371068 -0.22813398249381589 0 -0.32099492036963639 -0.24418431014163919 0 -0.30557412098892461 -0.22894421480701829 0 -0.31485054615349789 -0.20562884583793209 0 -0.32242066221371068 -0.22813398249381589 0 -0.32297120194301748 -0.26017618522091401 0 -0.33957017601599992 -0.23803097313338581 0 -0.32099492036963639 -0.24418431014163919 0 -0.3347757626993168 -0.2358336130394261 0 -0.32242066221371068 -0.22813398249381589 0 -0.32099492036963639 -0.24418431014163919 0 -0.42914667813455248 -0.23995147030689731 0 -0.43369945159377638 -0.23186530832387511 0 -0.42167620542799961 -0.23706851710324511 0 -0.42914667813455248 -0.23995147030689731 0 -0.42763257702111179 -0.24781447733042861 0 -0.42167620542799961 -0.23706851710324511 0 -0.42763257702111179 -0.24781447733042861 0 -0.42167620542799961 -0.23706851710324511 0 -0.41770938798862639 -0.24842336549052499 0 -0.42763257702111179 -0.24781447733042861 0 -0.43501339102297698 -0.2392887053614714 0 -0.44136793996712759 -0.24290251275328051 0 -0.42914667813455248 -0.23995147030689731 0 -0.42763257702111179 -0.24781447733042861 0 -0.43501339102297698 -0.2392887053614714 0 -0.42914667813455248 -0.23995147030689731 0 -0.43501339102297698 -0.2392887053614714 0 -0.43369945159377638 -0.23186530832387511 0 -0.43501339102297698 -0.2392887053614714 0 -0.43369945159377638 -0.23186530832387511 0 -0.43997022433568339 -0.23263649142335449 0 -0.43369945159377638 -0.23186530832387511 0 -0.42399401904417688 -0.22068995567278629 0 -0.41222029333139171 -0.22922378956300149 0 -0.43369945159377638 -0.23186530832387511 0 -0.43997022433568339 -0.23263649142335449 0 -0.43369945159377638 -0.23186530832387511 0 -0.41222029333139171 -0.22922378956300149 0 -0.43369945159377638 -0.23186530832387511 0 -0.41222029333139171 -0.22922378956300149 0 -0.42167620542799961 -0.23706851710324511 0 -0.43369945159377638 -0.23186530832387511 0 -0.43800493275623342 -0.21820170596325111 0 -0.43997022433568339 -0.23263649142335449 0 -0.43369945159377638 -0.23186530832387511 0 -0.43800493275623342 -0.21820170596325111 0 -0.43369945159377638 -0.23186530832387511 0 -0.42399401904417688 -0.22068995567278629 0 -0.43800493275623342 -0.21820170596325111 0 -0.41234938172795921 -0.21951008617033901 0 -0.41222029333139171 -0.22922378956300149 0 -0.39647373836284788 -0.22884440553603591 0 -0.42399401904417688 -0.22068995567278629 0 -0.41234938172795921 -0.21951008617033901 0 -0.41222029333139171 -0.22922378956300149 0 -0.41222029333139171 -0.22922378956300149 0 -0.40632621378463329 -0.24161936325408909 0 -0.42167620542799961 -0.23706851710324511 0 -0.40632621378463329 -0.24161936325408909 0 -0.42167620542799961 -0.23706851710324511 0 -0.41770938798862639 -0.24842336549052499 0 -0.40641228759764358 -0.25390226709786939 0 -0.40632621378463329 -0.24161936325408909 0 -0.41770938798862639 -0.24842336549052499 0 -0.39945086494686688 -0.25153957108528269 0 -0.40632621378463329 -0.24161936325408909 0 -0.39311447043894149 -0.24385336561789769 0 -0.39945086494686688 -0.25153957108528269 0 -0.40641228759764358 -0.25390226709786939 0 -0.40632621378463329 -0.24161936325408909 0 -0.40632621378463329 -0.24161936325408909 0 -0.39311447043894149 -0.24385336561789769 0 -0.39647373836284788 -0.22884440553603591 0 -0.39311447043894149 -0.24385336561789769 0 -0.38845461770506801 -0.23365618123113499 0 -0.39647373836284788 -0.22884440553603591 0 -0.39255427972155021 -0.25312428942571569 0 -0.39311447043894149 -0.24385336561789769 0 -0.38750790922318279 -0.2499605689316706 0 -0.39255427972155021 -0.25312428942571569 0 -0.39945086494686688 -0.25153957108528269 0 -0.39311447043894149 -0.24385336561789769 0 -0.39311447043894149 -0.24385336561789769 0 -0.38750790922318279 -0.2499605689316706 0 -0.38577606997018199 -0.24214306904023919 0 -0.38013376635666379 -0.25484773029434632 0 -0.38750790922318279 -0.2499605689316706 0 -0.38577606997018199 -0.24214306904023919 0 -0.38013376635666379 -0.25484773029434632 0 -0.37314132044407838 -0.2417412535034765 0 -0.37966958612705398 -0.2283974991261466 0 -0.38013376635666379 -0.25484773029434632 0 -0.37966958612705398 -0.2283974991261466 0 -0.38013376635666379 -0.25484773029434632 0 -0.38577606997018199 -0.24214306904023919 0 -0.37966958612705398 -0.2283974991261466 0 -0.39311447043894149 -0.24385336561789769 0 -0.38577606997018199 -0.24214306904023919 0 -0.38845461770506801 -0.23365618123113499 0 -0.38577606997018199 -0.24214306904023919 0 -0.37966958612705398 -0.2283974991261466 0 -0.38845461770506801 -0.23365618123113499 0 -0.37966958612705398 -0.2283974991261466 0 -0.38845461770506801 -0.23365618123113499 0 -0.38931035082463777 -0.21964140989885339 0 -0.41222029333139171 -0.22922378956300149 0 -0.40632621378463329 -0.24161936325408909 0 -0.39647373836284788 -0.22884440553603591 0 -0.41234938172795921 -0.21951008617033901 0 -0.39647373836284788 -0.22884440553603591 0 -0.4083257531246916 -0.21066796480283251 0 -0.38931035082463777 -0.21964140989885339 0 -0.39647373836284788 -0.22884440553603591 0 -0.39773631406721999 -0.21612761570793121 0 -0.39647373836284788 -0.22884440553603591 0 -0.4083257531246916 -0.21066796480283251 0 -0.38845461770506801 -0.23365618123113499 0 -0.38931035082463777 -0.21964140989885339 0 -0.39647373836284788 -0.22884440553603591 0 -0.40031441723855721 -0.2100861069257606 0 -0.39773631406721999 -0.21612761570793121 0 -0.4083257531246916 -0.21066796480283251 0 -0.4008731589741239 -0.20467335735835401 0 -0.40410575860117109 -0.19496400672882189 0 -0.4083257531246916 -0.21066796480283251 0 -0.39647373836284788 -0.22884440553603591 0 -0.39773631406721999 -0.21612761570793121 0 -0.4083257531246916 -0.21066796480283251 0 -0.40031441723855721 -0.2100861069257606 0 -0.4008731589741239 -0.20467335735835401 0 -0.4083257531246916 -0.21066796480283251 0 -0.40031441723855721 -0.2100861069257606 0 -0.4008731589741239 -0.20467335735835401 0 -0.39432244278819317 -0.20887548983392479 0 -0.4008731589741239 -0.20467335735835401 0 -0.39432244278819317 -0.20887548983392479 0 -0.39568089966173231 -0.19854016262300711 0 -0.38931035082463777 -0.21964140989885339 0 -0.39432244278819317 -0.20887548983392479 0 -0.39773631406721999 -0.21612761570793121 0 -0.40031441723855721 -0.2100861069257606 0 -0.39432244278819317 -0.20887548983392479 0 -0.39773631406721999 -0.21612761570793121 0 -0.37966958612705398 -0.2283974991261466 0 -0.37920540589744428 -0.20194726795794701 0 -0.38931035082463777 -0.21964140989885339 0 -0.39432244278819317 -0.20887548983392479 0 -0.37920540589744428 -0.20194726795794701 0 -0.37966958612705398 -0.2283974991261466 0 -0.38931035082463777 -0.21964140989885339 0 -0.37920540589744428 -0.20194726795794701 0 -0.37920540589744428 -0.20194726795794701 0 -0.37874122566783452 -0.1754970367897474 0 -0.37920540589744428 -0.20194726795794701 0 -0.39091782528474539 -0.18819584395803929 0 -0.39568089966173231 -0.19854016262300711 0 -0.39432244278819317 -0.20887548983392479 0 -0.37920540589744428 -0.20194726795794701 0 -0.39568089966173231 -0.19854016262300711 0 -0.37920540589744428 -0.20194726795794701 0 -0.39091782528474539 -0.18819584395803929 0 -0.37874122566783452 -0.1754970367897474 0 -0.39091782528474539 -0.18819584395803929 0 -0.39568089966173231 -0.19854016262300711 0 -0.40410575860117109 -0.19496400672882189 0 -0.4008731589741239 -0.20467335735835401 0 -0.39568089966173231 -0.19854016262300711 0 -0.40410575860117109 -0.19496400672882189 0 -0.40410575860117109 -0.19496400672882189 0 -0.42017776788653532 -0.19249152406962911 0 -0.4083257531246916 -0.21066796480283251 0 -0.40410575860117109 -0.19496400672882189 0 -0.42017776788653532 -0.19249152406962911 0 -0.41389781470326931 -0.18153556649834651 0 -0.42017776788653532 -0.19249152406962911 0 -0.4083257531246916 -0.21066796480283251 0 -0.42017776788653532 -0.19249152406962911 0 -0.4083257531246916 -0.21066796480283251 0 -0.4143225334099026 -0.20999802173327831 0 -0.41234938172795921 -0.21951008617033901 0 -0.4083257531246916 -0.21066796480283251 0 -0.4143225334099026 -0.20999802173327831 0 -0.42399401904417688 -0.22068995567278629 0 -0.41234938172795921 -0.21951008617033901 0 -0.41857168084613511 -0.2158401353444403 0 -0.41234938172795921 -0.21951008617033901 0 -0.41857168084613511 -0.2158401353444403 0 -0.4143225334099026 -0.20999802173327831 0 -0.41857168084613511 -0.2158401353444403 0 -0.4143225334099026 -0.20999802173327831 0 -0.42800001231228679 -0.21066292146735749 0 -0.42800001231228679 -0.21066292146735749 0 -0.43535478150468171 -0.19873672420018701 0 -0.43800493275623342 -0.21820170596325111 0 -0.4143225334099026 -0.20999802173327831 0 -0.43535478150468171 -0.19873672420018701 0 -0.4143225334099026 -0.20999802173327831 0 -0.42800001231228679 -0.21066292146735749 0 -0.43535478150468171 -0.19873672420018701 0 -0.43535478150468171 -0.19873672420018701 0 -0.43800493275623342 -0.21820170596325111 0 -0.42399401904417688 -0.22068995567278629 0 -0.41857168084613511 -0.2158401353444403 0 -0.42800001231228679 -0.21066292146735749 0 -0.42399401904417688 -0.22068995567278629 0 -0.42800001231228679 -0.21066292146735749 0 -0.43800493275623342 -0.21820170596325111 0 -0.42017776788653532 -0.19249152406962911 0 -0.43535478150468171 -0.19873672420018701 0 -0.43202978264837932 -0.17431508333642601 0 -0.42017776788653532 -0.19249152406962911 0 -0.4143225334099026 -0.20999802173327831 0 -0.43535478150468171 -0.19873672420018701 0 -0.42017776788653532 -0.19249152406962911 0 -0.43202978264837932 -0.17431508333642601 0 -0.41389781470326931 -0.18153556649834651 0 -0.43535478150468171 -0.19873672420018701 0 -0.43202978264837932 -0.17431508333642601 0 -0.43535478150468171 -0.19873672420018701 0 -0.43202978264837932 -0.17431508333642601 0 -0.44228686408166062 -0.18124563847572389 0 -0.43202978264837932 -0.17431508333642601 0 -0.43813906329950442 -0.16494579213075311 0 -0.44228686408166062 -0.18124563847572389 0 -0.42017776788653532 -0.19249152406962911 0 -0.43202978264837932 -0.17431508333642601 0 -0.43202978264837932 -0.17431508333642601 0 -0.43006781711527658 -0.15990472721083951 0 -0.41554767912080098 -0.16901563176642781 0 -0.43202978264837932 -0.17431508333642601 0 -0.43813906329950442 -0.16494579213075311 0 -0.43202978264837932 -0.17431508333642601 0 -0.43006781711527658 -0.15990472721083951 0 -0.43813906329950442 -0.16494579213075311 0 -0.43202978264837932 -0.17431508333642601 0 -0.43006781711527658 -0.15990472721083951 0 -0.43006781711527658 -0.15990472721083951 0 -0.43813906329950442 -0.16494579213075311 0 -0.43006781711527658 -0.15990472721083951 0 -0.43731958468187809 -0.15285287991260391 0 -0.43813906329950442 -0.16494579213075311 0 -0.43006781711527658 -0.15990472721083951 0 -0.41554767912080098 -0.16901563176642781 0 -0.40436890179484919 -0.1560203277416502 0 -0.41554767912080098 -0.16901563176642781 0 -0.40154653978578142 -0.17890558052873051 0 -0.40325137277020001 -0.16749916925588959 0 -0.41554767912080098 -0.16901563176642781 0 -0.40325137277020001 -0.16749916925588959 0 -0.40436890179484919 -0.1560203277416502 0 -0.43202978264837932 -0.17431508333642601 0 -0.41554767912080098 -0.16901563176642781 0 -0.41389781470326931 -0.18153556649834651 0 -0.40410575860117109 -0.19496400672882189 0 -0.41389781470326931 -0.18153556649834651 0 -0.40154653978578142 -0.17890558052873051 0 -0.41554767912080098 -0.16901563176642781 0 -0.41389781470326931 -0.18153556649834651 0 -0.40154653978578142 -0.17890558052873051 0 -0.39091782528474539 -0.18819584395803929 0 -0.40410575860117109 -0.19496400672882189 0 -0.40154653978578142 -0.17890558052873051 0 -0.40154653978578142 -0.17890558052873051 0 -0.39057963154403441 -0.1775390324733748 0 -0.39111293543777631 -0.1675576686169821 0 -0.39091782528474539 -0.18819584395803929 0 -0.40154653978578142 -0.17890558052873051 0 -0.39057963154403441 -0.1775390324733748 0 -0.39091782528474539 -0.18819584395803929 0 -0.39057963154403441 -0.1775390324733748 0 -0.37874122566783452 -0.1754970367897474 0 -0.39057963154403441 -0.1775390324733748 0 -0.37874122566783452 -0.1754970367897474 0 -0.39111293543777631 -0.1675576686169821 0 -0.37874122566783452 -0.1754970367897474 0 -0.37827704543822471 -0.1490468056215476 0 -0.37874122566783452 -0.1754970367897474 0 -0.39111293543777631 -0.1675576686169821 0 -0.37827704543822471 -0.1490468056215476 0 -0.39476128294575791 -0.15690348459939349 0 -0.39111293543777631 -0.1675576686169821 0 -0.37827704543822471 -0.1490468056215476 0 -0.37018854314090388 -0.1660089474243896 0 -0.37874122566783452 -0.1754970367897474 0 -0.37827704543822471 -0.1490468056215476 0 -0.39476128294575791 -0.15690348459939349 0 -0.39111293543777631 -0.1675576686169821 0 -0.40325137277020001 -0.16749916925588959 0 -0.40154653978578142 -0.17890558052873051 0 -0.39111293543777631 -0.1675576686169821 0 -0.40325137277020001 -0.16749916925588959 0 -0.39476128294575791 -0.15690348459939349 0 -0.40325137277020001 -0.16749916925588959 0 -0.40436890179484919 -0.1560203277416502 0 -0.40436890179484919 -0.1560203277416502 0 -0.40745654095032008 -0.1457823837129624 0 -0.39393961265209632 -0.1472904120461819 0 -0.38936408741437928 -0.1344823650103473 0 -0.40745654095032008 -0.1457823837129624 0 -0.40436890179484919 -0.1560203277416502 0 -0.39393961265209632 -0.1472904120461819 0 -0.40745654095032008 -0.1457823837129624 0 -0.39476128294575791 -0.15690348459939349 0 -0.40436890179484919 -0.1560203277416502 0 -0.39393961265209632 -0.1472904120461819 0 -0.39476128294575791 -0.15690348459939349 0 -0.39393961265209632 -0.1472904120461819 0 -0.37827704543822471 -0.1490468056215476 0 -0.39393961265209632 -0.1472904120461819 0 -0.37827704543822471 -0.1490468056215476 0 -0.38936408741437928 -0.1344823650103473 0 -0.37827704543822471 -0.1490468056215476 0 -0.38305153339249848 -0.13184590129402851 0 -0.3778128652086149 -0.122596574453348 0 -0.37827704543822471 -0.1490468056215476 0 -0.38936408741437928 -0.1344823650103473 0 -0.38305153339249848 -0.13184590129402851 0 -0.37827704543822471 -0.1490468056215476 0 -0.3778128652086149 -0.122596574453348 0 -0.38305153339249848 -0.13184590129402851 0 -0.38675213550877519 -0.1212578600908709 0 -0.3778128652086149 -0.122596574453348 0 -0.38936408741437928 -0.1344823650103473 0 -0.38305153339249848 -0.13184590129402851 0 -0.38675213550877519 -0.1212578600908709 0 -0.38936408741437928 -0.1344823650103473 0 -0.40032915666057101 -0.13203099945630919 0 -0.40745654095032008 -0.1457823837129624 0 -0.38936408741437928 -0.1344823650103473 0 -0.40032915666057101 -0.13203099945630919 0 -0.38675213550877519 -0.1212578600908709 0 -0.40032915666057101 -0.13203099945630919 0 -0.38675213550877519 -0.1212578600908709 0 -0.41372974037046018 -0.12498181042365861 0 -0.38936408741437928 -0.1344823650103473 0 -0.40745654095032008 -0.1457823837129624 0 -0.40745654095032008 -0.1457823837129624 0 -0.41372974037046018 -0.12498181042365861 0 -0.40032915666057101 -0.13203099945630919 0 -0.40745654095032008 -0.1457823837129624 0 -0.41372974037046018 -0.12498181042365861 0 -0.41821200178839668 -0.1360860223334186 0 -0.40745654095032008 -0.1457823837129624 0 -0.41372974037046018 -0.12498181042365861 0 -0.42553493862486802 -0.12661138325614349 0 -0.41372974037046018 -0.12498181042365861 0 -0.41821200178839668 -0.1360860223334186 0 -0.42553493862486802 -0.12661138325614349 0 -0.41372974037046018 -0.12498181042365861 0 -0.43006781711527658 -0.15990472721083951 0 -0.40745654095032008 -0.1457823837129624 0 -0.42780137787007372 -0.1432580552334913 0 -0.43006781711527658 -0.15990472721083951 0 -0.40436890179484919 -0.1560203277416502 0 -0.40745654095032008 -0.1457823837129624 0 -0.41821200178839668 -0.1360860223334186 0 -0.40745654095032008 -0.1457823837129624 0 -0.42780137787007372 -0.1432580552334913 0 -0.43006781711527658 -0.15990472721083951 0 -0.40745654095032008 -0.1457823837129624 0 -0.43006781711527658 -0.15990472721083951 0 -0.42780137787007372 -0.1432580552334913 0 -0.43006781711527658 -0.15990472721083951 0 -0.42780137787007372 -0.1432580552334913 0 -0.43731958468187809 -0.15285287991260391 0 -0.42780137787007372 -0.1432580552334913 0 -0.43581376266771787 -0.13691417707034861 0 -0.43901945651310381 -0.14447730904362441 0 -0.42780137787007372 -0.1432580552334913 0 -0.43731958468187809 -0.15285287991260391 0 -0.43901945651310381 -0.14447730904362441 0 -0.42780137787007372 -0.1432580552334913 0 -0.43581376266771787 -0.13691417707034861 0 -0.42553493862486802 -0.12661138325614349 0 -0.42553493862486802 -0.12661138325614349 0 -0.44278260881222181 -0.12899222719923339 0 -0.42780137787007372 -0.1432580552334913 0 -0.42553493862486802 -0.12661138325614349 0 -0.43581376266771787 -0.13691417707034861 0 -0.42553493862486802 -0.12661138325614349 0 -0.44278260881222181 -0.12899222719923339 0 -0.41821200178839668 -0.1360860223334186 0 -0.42780137787007372 -0.1432580552334913 0 -0.42553493862486802 -0.12661138325614349 0 -0.42553493862486802 -0.12661138325614349 0 -0.44278260881222181 -0.12899222719923339 0 -0.43521521834304222 -0.1211927987874292 0 -0.44278260881222181 -0.12899222719923339 0 -0.4600302789995756 -0.13137307114232261 0 -0.44278260881222181 -0.12899222719923339 0 -0.44529800156778138 -0.14086442888616599 0 -0.4600302789995756 -0.13137307114232261 0 -0.44278260881222181 -0.12899222719923339 0 -0.4600302789995756 -0.13137307114232261 0 -0.45114981008796767 -0.1185666950251905 0 -0.44529800156778138 -0.14086442888616599 0 -0.44886455577806711 -0.14849700411551109 0 -0.4600302789995756 -0.13137307114232261 0 -0.43581376266771787 -0.13691417707034861 0 -0.44278260881222181 -0.12899222719923339 0 -0.44529800156778138 -0.14086442888616599 0 -0.43901945651310381 -0.14447730904362441 0 -0.44529800156778138 -0.14086442888616599 0 -0.44886455577806711 -0.14849700411551109 0 -0.43581376266771787 -0.13691417707034861 0 -0.43901945651310381 -0.14447730904362441 0 -0.44529800156778138 -0.14086442888616599 0 -0.43731958468187809 -0.15285287991260391 0 -0.44886455577806711 -0.14849700411551109 0 -0.43813906329950442 -0.16494579213075311 0 -0.43731958468187809 -0.15285287991260391 0 -0.43901945651310381 -0.14447730904362441 0 -0.44886455577806711 -0.14849700411551109 0 -0.44886455577806711 -0.14849700411551109 0 -0.45549686390528171 -0.16269042099368161 0 -0.44529800156778138 -0.14086442888616599 0 -0.44886455577806711 -0.14849700411551109 0 -0.44886455577806711 -0.14849700411551109 0 -0.46031981576173869 -0.14738460640883491 0 -0.4600302789995756 -0.13137307114232261 0 -0.44886455577806711 -0.14849700411551109 0 -0.46031981576173869 -0.14738460640883491 0 -0.45549686390528171 -0.16269042099368161 0 -0.46031981576173869 -0.14738460640883491 0 -0.45549686390528171 -0.16269042099368161 0 -0.46031981576173869 -0.14738460640883491 0 -0.4600302789995756 -0.13137307114232261 0 -0.46514276761819567 -0.13207879182398821 0 -0.46031981576173869 -0.14738460640883491 0 -0.46514276761819567 -0.13207879182398821 0 -0.47700212451108859 -0.142287433646682 0 -0.44886455577806711 -0.14849700411551109 0 -0.4600302789995756 -0.13137307114232261 0 -0.46031981576173869 -0.14738460640883491 0 -0.46514276761819567 -0.13207879182398821 0 -0.4600302789995756 -0.13137307114232261 0 -0.46514276761819567 -0.13207879182398821 0 -0.47035418806749918 -0.11554015791374039 0 -0.4600302789995756 -0.13137307114232261 0 -0.46514276761819567 -0.13207879182398821 0 -0.46514276761819567 -0.13207879182398821 0 -0.48966705923602538 -0.13546409027430781 0 -0.46514276761819567 -0.13207879182398821 0 -0.47825109857495252 -0.12536561823226619 0 -0.48966705923602538 -0.13546409027430781 0 -0.46514276761819567 -0.13207879182398821 0 -0.48966705923602538 -0.13546409027430781 0 -0.47700212451108859 -0.142287433646682 0 -0.47825109857495252 -0.12536561823226619 0 -0.48966705923602538 -0.13546409027430781 0 -0.48784037937809083 -0.1183794329170286 0 -0.48966705923602538 -0.13546409027430781 0 -0.5 -0.1307385364992355 0 -0.48784037937809083 -0.1183794329170286 0 -0.48966705923602538 -0.13546409027430781 0 -0.5 -0.1307385364992355 0 -0.49038747046436182 -0.1460023907583162 0 -0.5 -0.1307385364992355 0 -0.49038747046436182 -0.1460023907583162 0 -0.5 -0.15805864898203709 0 -0.49038747046436182 -0.1460023907583162 0 -0.47912959430043162 -0.1528677359950685 0 -0.5 -0.15805864898203709 0 -0.48966705923602538 -0.13546409027430781 0 -0.49038747046436182 -0.1460023907583162 0 -0.47700212451108859 -0.142287433646682 0 -0.46031981576173869 -0.14738460640883491 0 -0.47912959430043162 -0.1528677359950685 0 -0.46826703638672867 -0.15960394804437311 0 -0.46031981576173869 -0.14738460640883491 0 -0.47912959430043162 -0.1528677359950685 0 -0.47700212451108859 -0.142287433646682 0 -0.49038747046436182 -0.1460023907583162 0 -0.47912959430043162 -0.1528677359950685 0 -0.47700212451108859 -0.142287433646682 0 -0.47912959430043162 -0.1528677359950685 0 -0.48000142907180782 -0.16338142800370109 0 -0.46826703638672867 -0.15960394804437311 0 -0.48000142907180782 -0.16338142800370109 0 -0.47085508537403897 -0.17248438370905481 0 -0.46826703638672867 -0.15960394804437311 0 -0.48000142907180782 -0.16338142800370109 0 -0.4817554292978396 -0.17389242328797211 0 -0.47085508537403897 -0.17248438370905481 0 -0.48000142907180782 -0.16338142800370109 0 -0.5 -0.15805864898203709 0 -0.4817554292978396 -0.17389242328797211 0 -0.47912959430043162 -0.1528677359950685 0 -0.48000142907180782 -0.16338142800370109 0 -0.5 -0.15805864898203709 0 -0.5 -0.1853787614648387 0 -0.48529579629317621 -0.1847783953701585 0 -0.4817554292978396 -0.17389242328797211 0 -0.5 -0.15805864898203709 0 -0.5 -0.1853787614648387 0 -0.4817554292978396 -0.17389242328797211 0 -0.4817554292978396 -0.17389242328797211 0 -0.46493879722968512 -0.18289655334438421 0 -0.48529579629317621 -0.1847783953701585 0 -0.4817554292978396 -0.17389242328797211 0 -0.47274095956329748 -0.18655712716334261 0 -0.4817554292978396 -0.17389242328797211 0 -0.47274095956329748 -0.18655712716334261 0 -0.46493879722968512 -0.18289655334438421 0 -0.4817554292978396 -0.17389242328797211 0 -0.47085508537403897 -0.17248438370905481 0 -0.46493879722968512 -0.18289655334438421 0 -0.47274095956329748 -0.18655712716334261 0 -0.46493879722968512 -0.18289655334438421 0 -0.46413876267299559 -0.18118444592080851 0 -0.45204868687341487 -0.1736333372566316 0 -0.44592119821192522 -0.193079147232532 0 -0.46413876267299559 -0.18118444592080851 0 -0.45549686390528171 -0.16269042099368161 0 -0.46413876267299559 -0.18118444592080851 0 -0.45549686390528171 -0.16269042099368161 0 -0.45204868687341487 -0.1736333372566316 0 -0.47085508537403897 -0.17248438370905481 0 -0.46413876267299559 -0.18118444592080851 0 -0.45549686390528171 -0.16269042099368161 0 -0.46493879722968512 -0.18289655334438421 0 -0.46413876267299559 -0.18118444592080851 0 -0.44592119821192522 -0.193079147232532 0 -0.46493879722968512 -0.18289655334438421 0 -0.46413876267299559 -0.18118444592080851 0 -0.46413876267299559 -0.18118444592080851 0 -0.45204868687341487 -0.1736333372566316 0 -0.47085508537403897 -0.17248438370905481 0 -0.46493879722968512 -0.18289655334438421 0 -0.46413876267299559 -0.18118444592080851 0 -0.47085508537403897 -0.17248438370905481 0 -0.46826703638672867 -0.15960394804437311 0 -0.45549686390528171 -0.16269042099368161 0 -0.46031981576173869 -0.14738460640883491 0 -0.46826703638672867 -0.15960394804437311 0 -0.45549686390528171 -0.16269042099368161 0 -0.45549686390528171 -0.16269042099368161 0 -0.45204868687341487 -0.1736333372566316 0 -0.45549686390528171 -0.16269042099368161 0 -0.43813906329950442 -0.16494579213075311 0 -0.45204868687341487 -0.1736333372566316 0 -0.44886455577806711 -0.14849700411551109 0 -0.45549686390528171 -0.16269042099368161 0 -0.43813906329950442 -0.16494579213075311 0 -0.44886455577806711 -0.14849700411551109 0 -0.43813906329950442 -0.16494579213075311 0 -0.43813906329950442 -0.16494579213075311 0 -0.45204868687341487 -0.1736333372566316 0 -0.44228686408166062 -0.18124563847572389 0 -0.45204868687341487 -0.1736333372566316 0 -0.44592119821192522 -0.193079147232532 0 -0.45204868687341487 -0.1736333372566316 0 -0.44592119821192522 -0.193079147232532 0 -0.43813906329950442 -0.16494579213075311 0 -0.44228686408166062 -0.18124563847572389 0 -0.45204868687341487 -0.1736333372566316 0 -0.43535478150468171 -0.19873672420018701 0 -0.44228686408166062 -0.18124563847572389 0 -0.44592119821192522 -0.193079147232532 0 -0.43535478150468171 -0.19873672420018701 0 -0.44592119821192522 -0.193079147232532 0 -0.43535478150468171 -0.19873672420018701 0 -0.44592119821192522 -0.193079147232532 0 -0.43800493275623342 -0.21820170596325111 0 -0.44592119821192522 -0.193079147232532 0 -0.43800493275623342 -0.21820170596325111 0 -0.44592119821192522 -0.193079147232532 0 -0.43800493275623342 -0.21820170596325111 0 -0.45469094315640701 -0.20878943217167589 0 -0.43800493275623342 -0.21820170596325111 0 -0.45469094315640701 -0.20878943217167589 0 -0.4501031706232641 -0.22017439076807321 0 -0.45469094315640701 -0.20878943217167589 0 -0.46334925859621051 -0.21700096095336571 0 -0.4501031706232641 -0.22017439076807321 0 -0.45469094315640701 -0.20878943217167589 0 -0.46334925859621051 -0.21700096095336571 0 -0.46797488099280149 -0.21142995518364521 0 -0.46334925859621051 -0.21700096095336571 0 -0.46797488099280149 -0.21142995518364521 0 -0.47204731353048168 -0.22082068136887251 0 -0.45469094315640701 -0.20878943217167589 0 -0.46797488099280149 -0.21142995518364521 0 -0.4612568290994597 -0.1991919130446563 0 -0.46797488099280149 -0.21142995518364521 0 -0.4612568290994597 -0.1991919130446563 0 -0.47381457960131201 -0.20189109896922841 0 -0.44592119821192522 -0.193079147232532 0 -0.45469094315640701 -0.20878943217167589 0 -0.4612568290994597 -0.1991919130446563 0 -0.46493879722968512 -0.18289655334438421 0 -0.44592119821192522 -0.193079147232532 0 -0.4612568290994597 -0.1991919130446563 0 -0.46493879722968512 -0.18289655334438421 0 -0.44592119821192522 -0.193079147232532 0 -0.46493879722968512 -0.18289655334438421 0 -0.4612568290994597 -0.1991919130446563 0 -0.47381457960131201 -0.20189109896922841 0 -0.46493879722968512 -0.18289655334438421 0 -0.47381457960131201 -0.20189109896922841 0 -0.47274095956329748 -0.18655712716334261 0 -0.46493879722968512 -0.18289655334438421 0 -0.47381457960131201 -0.20189109896922841 0 -0.47381457960131201 -0.20189109896922841 0 -0.48668679631156758 -0.19328526956448069 0 -0.48579793447145458 -0.2071902217688554 0 -0.47274095956329748 -0.18655712716334261 0 -0.47381457960131201 -0.20189109896922841 0 -0.48668679631156758 -0.19328526956448069 0 -0.48529579629317621 -0.1847783953701585 0 -0.47274095956329748 -0.18655712716334261 0 -0.48668679631156758 -0.19328526956448069 0 -0.5 -0.1853787614648387 0 -0.48529579629317621 -0.1847783953701585 0 -0.48668679631156758 -0.19328526956448069 0 -0.5 -0.1853787614648387 0 -0.48668679631156758 -0.19328526956448069 0 -0.5 -0.2126988739476402 0 -0.5 -0.2126988739476402 0 -0.48579793447145458 -0.2071902217688554 0 -0.4826903619729388 -0.22088564459407259 0 -0.48668679631156758 -0.19328526956448069 0 -0.5 -0.2126988739476402 0 -0.48579793447145458 -0.2071902217688554 0 -0.46797488099280149 -0.21142995518364521 0 -0.47381457960131201 -0.20189109896922841 0 -0.4826903619729388 -0.22088564459407259 0 -0.47381457960131201 -0.20189109896922841 0 -0.4826903619729388 -0.22088564459407259 0 -0.47381457960131201 -0.20189109896922841 0 -0.48579793447145458 -0.2071902217688554 0 -0.4826903619729388 -0.22088564459407259 0 -0.46797488099280149 -0.21142995518364521 0 -0.47204731353048168 -0.22082068136887251 0 -0.4826903619729388 -0.22088564459407259 0 -0.47204731353048168 -0.22082068136887251 0 -0.47949169212326481 -0.2292136215268514 0 -0.46661148539731911 -0.22466027581970149 0 -0.47949169212326481 -0.2292136215268514 0 -0.47735527271275441 -0.23723412534633981 0 -0.46806599211337402 -0.23609172448134649 0 -0.47949169212326481 -0.2292136215268514 0 -0.46806599211337402 -0.23609172448134649 0 -0.46661148539731911 -0.22466027581970149 0 -0.47949169212326481 -0.2292136215268514 0 -0.47735527271275441 -0.23723412534633981 0 -0.47204731353048168 -0.22082068136887251 0 -0.47949169212326481 -0.2292136215268514 0 -0.4826903619729388 -0.22088564459407259 0 -0.47949169212326481 -0.2292136215268514 0 -0.4826903619729388 -0.22088564459407259 0 -0.49999999999999978 -0.24001898643044181 0 -0.5 -0.2126988739476402 0 -0.4826903619729388 -0.22088564459407259 0 -0.49999999999999978 -0.24001898643044181 0 -0.49999999999999978 -0.24001898643044181 0 -0.47735527271275441 -0.23723412534633981 0 -0.4932475875621487 -0.25840580573030841 0 -0.499999999999999 -0.24401787530533059 0 -0.4782957046309152 -0.2451565447281136 0 -0.49999999999999978 -0.24001898643044181 0 -0.499999999999999 -0.24401787530533059 0 -0.4782957046309152 -0.2451565447281136 0 -0.47949169212326481 -0.2292136215268514 0 -0.49999999999999978 -0.24001898643044181 0 -0.47735527271275441 -0.23723412534633981 0 -0.49999999999999978 -0.24001898643044181 0 -0.4782957046309152 -0.2451565447281136 0 -0.47735527271275441 -0.23723412534633981 0 -0.499999999999999 -0.24401787530533059 0 -0.4782957046309152 -0.2451565447281136 0 -0.47888787600929211 -0.25745611867219048 0 -0.4782957046309152 -0.2451565447281136 0 -0.47520174341083171 -0.24531886278436199 0 -0.4782957046309152 -0.2451565447281136 0 -0.47582755531925869 -0.2429694520005353 0 -0.4782957046309152 -0.2451565447281136 0 -0.47520174341083171 -0.24531886278436199 0 -0.4782957046309152 -0.2451565447281136 0 -0.47735527271275441 -0.23723412534633981 0 -0.47582755531925869 -0.2429694520005353 0 -0.47735527271275441 -0.23723412534633981 0 -0.47582755531925869 -0.2429694520005353 0 -0.47735527271275441 -0.23723412534633981 0 -0.47582755531925869 -0.2429694520005353 0 -0.46806599211337402 -0.23609172448134649 0 -0.47520174341083171 -0.24531886278436199 0 -0.47582755531925869 -0.2429694520005353 0 -0.46806599211337402 -0.23609172448134649 0 -0.47735527271275441 -0.23723412534633981 0 -0.46806599211337402 -0.23609172448134649 0 -0.47582755531925869 -0.2429694520005353 0 -0.46806599211337402 -0.23609172448134649 0 -0.47520174341083171 -0.24531886278436199 0 -0.47582755531925869 -0.2429694520005353 0 -0.4782957046309152 -0.2451565447281136 0 -0.47520174341083171 -0.24531886278436199 0 -0.47582755531925869 -0.2429694520005353 0 -0.46257870568960979 -0.25593059544044777 0 -0.47520174341083171 -0.24531886278436199 0 -0.45141716021597178 -0.24656667005739549 0 -0.46806599211337402 -0.23609172448134649 0 -0.43997022433568339 -0.23263649142335449 0 -0.45141716021597178 -0.24656667005739549 0 -0.47520174341083171 -0.24531886278436199 0 -0.45141716021597178 -0.24656667005739549 0 -0.47520174341083171 -0.24531886278436199 0 -0.46806599211337402 -0.23609172448134649 0 -0.45141716021597178 -0.24656667005739549 0 -0.46806599211337402 -0.23609172448134649 0 -0.43997022433568339 -0.23263649142335449 0 -0.46806599211337402 -0.23609172448134649 0 -0.4501031706232641 -0.22017439076807321 0 -0.46806599211337402 -0.23609172448134649 0 -0.46661148539731911 -0.22466027581970149 0 -0.4501031706232641 -0.22017439076807321 0 -0.46334925859621051 -0.21700096095336571 0 -0.46661148539731911 -0.22466027581970149 0 -0.4501031706232641 -0.22017439076807321 0 -0.46334925859621051 -0.21700096095336571 0 -0.47204731353048168 -0.22082068136887251 0 -0.46661148539731911 -0.22466027581970149 0 -0.46806599211337402 -0.23609172448134649 0 -0.4501031706232641 -0.22017439076807321 0 -0.43997022433568339 -0.23263649142335449 0 -0.43800493275623342 -0.21820170596325111 0 -0.43997022433568339 -0.23263649142335449 0 -0.43800493275623342 -0.21820170596325111 0 -0.4501031706232641 -0.22017439076807321 0 -0.43997022433568339 -0.23263649142335449 0 -0.42763257702111179 -0.24781447733042861 0 -0.44136793996712759 -0.24290251275328051 0 -0.45141716021597178 -0.24656667005739549 0 -0.43997022433568339 -0.23263649142335449 0 -0.44136793996712759 -0.24290251275328051 0 -0.45141716021597178 -0.24656667005739549 0 -0.43997022433568339 -0.23263649142335449 0 -0.44136793996712759 -0.24290251275328051 0 -0.42763257702111179 -0.24781447733042861 0 -0.45141716021597178 -0.24656667005739549 0 -0.43501339102297698 -0.2392887053614714 0 -0.43997022433568339 -0.23263649142335449 0 -0.44136793996712759 -0.24290251275328051 0 -0.4080187835077046 -0.054875143333730579 0 -0.42033153746557639 -0.053550135461688193 0 -0.41540097112337782 -0.03040450051426587 0 -0.4080187835077046 -0.054875143333730579 0 -0.40399408280702293 -0.067416607354873301 0 -0.41619207670247232 -0.064600652305675743 0 -0.4080187835077046 -0.054875143333730579 0 -0.42033153746557639 -0.053550135461688193 0 -0.41619207670247232 -0.064600652305675743 0 -0.4324198088358378 -0.052542302977399792 0 -0.42962604715848918 -0.065328078177368923 0 -0.44671563319324731 -0.048719129720182268 0 -0.42033153746557639 -0.053550135461688193 0 -0.4324198088358378 -0.052542302977399792 0 -0.42962604715848918 -0.065328078177368923 0 -0.42033153746557639 -0.053550135461688193 0 -0.41619207670247232 -0.064600652305675743 0 -0.42962604715848918 -0.065328078177368923 0 -0.4324198088358378 -0.052542302977399792 0 -0.41540097112337782 -0.03040450051426587 0 -0.42033153746557639 -0.053550135461688193 0 -0.4324198088358378 -0.052542302977399792 0 -0.41540097112337782 -0.03040450051426587 0 -0.43568871760700212 -0.040137860567339138 0 -0.43320492005864158 -0.02978354968411092 0 -0.41540097112337782 -0.03040450051426587 0 -0.4324198088358378 -0.052542302977399792 0 -0.43568871760700212 -0.040137860567339138 0 -0.41540097112337782 -0.03040450051426587 0 -0.43320492005864158 -0.02978354968411092 0 -0.42198740527112771 -0.013179096706394861 0 -0.44032915636541797 -0.02095459278641916 0 -0.43320492005864158 -0.02978354968411092 0 -0.42198740527112771 -0.013179096706394861 0 -0.41540097112337782 -0.03040450051426587 0 -0.43593083270112909 -0.0082244292664538435 0 -0.42198740527112771 -0.013179096706394861 0 -0.44032915636541797 -0.02095459278641916 0 -0.43593083270112909 -0.0082244292664538435 0 -0.43531534045472009 0.0027778761619815522 0 -0.42344406803179813 0.0020138751263924291 0 -0.43593083270112909 -0.0082244292664538435 0 -0.42198740527112771 -0.013179096706394861 0 -0.42344406803179813 0.0020138751263924291 0 -0.42198740527112771 -0.013179096706394861 0 -0.42344406803179813 0.0020138751263924291 0 -0.40711235349192793 0.0053479607604310277 0 -0.42198740527112771 -0.013179096706394861 0 -0.39838213341091788 -0.0082666980511320494 0 -0.40711235349192793 0.0053479607604310277 0 -0.42198740527112771 -0.013179096706394861 0 -0.41540097112337782 -0.03040450051426587 0 -0.39838213341091788 -0.0082666980511320494 0 -0.41540097112337782 -0.03040450051426587 0 -0.39838213341091788 -0.0082666980511320494 0 -0.41540097112337782 -0.03040450051426587 0 -0.38946505818476979 -0.01884441508879358 0 -0.38416331761223338 -0.032827874742866373 0 -0.41540097112337782 -0.03040450051426587 0 -0.39838213341091788 -0.0082666980511320494 0 -0.38946505818476979 -0.01884441508879358 0 -0.37282685176606628 -0.017088311957558701 0 -0.3821431144487013 -0.0051826400674848706 0 -0.38946505818476979 -0.01884441508879358 0 -0.37282685176606628 -0.017088311957558701 0 -0.3821431144487013 -0.0051826400674848706 0 -0.37147378190201819 0.0046411454033882336 0 -0.39838213341091788 -0.0082666980511320494 0 -0.3821431144487013 -0.0051826400674848706 0 -0.38946505818476979 -0.01884441508879358 0 -0.37282685176606628 -0.017088311957558701 0 -0.38946505818476979 -0.01884441508879358 0 -0.38416331761223338 -0.032827874742866373 0 -0.38416331761223338 -0.032827874742866373 0 -0.39262220496170969 -0.048732620333114179 0 -0.37567521317190777 -0.056886012536169032 0 -0.4080187835077046 -0.054875143333730579 0 -0.41540097112337782 -0.03040450051426587 0 -0.39262220496170969 -0.048732620333114179 0 -0.41540097112337782 -0.03040450051426587 0 -0.38416331761223338 -0.032827874742866373 0 -0.39262220496170969 -0.048732620333114179 0 -0.4080187835077046 -0.054875143333730579 0 -0.39272567038161982 -0.061803208927188887 0 -0.40399408280702293 -0.067416607354873301 0 -0.4080187835077046 -0.054875143333730579 0 -0.39262220496170969 -0.048732620333114179 0 -0.39272567038161982 -0.061803208927188887 0 -0.39262220496170969 -0.048732620333114179 0 -0.39272567038161982 -0.061803208927188887 0 -0.37567521317190777 -0.056886012536169032 0 -0.39272567038161982 -0.061803208927188887 0 -0.37567521317190777 -0.056886012536169032 0 -0.39012132857309251 -0.077913415154825139 0 -0.36392847171929021 -0.079532336218320301 0 -0.37567521317190777 -0.056886012536169032 0 -0.39012132857309251 -0.077913415154825139 0 -0.36392847171929021 -0.079532336218320301 0 -0.39012132857309251 -0.077913415154825139 0 -0.37854848298343807 -0.092143764015219051 0 -0.39012132857309251 -0.077913415154825139 0 -0.37854848298343807 -0.092143764015219051 0 -0.39544687508897319 -0.098545975091742191 0 -0.36392847171929021 -0.079532336218320301 0 -0.39012132857309251 -0.077913415154825139 0 -0.39544687508897319 -0.098545975091742191 0 -0.41253646112373121 -0.081937026634555571 0 -0.39544687508897319 -0.098545975091742191 0 -0.40783197903422741 -0.098001555780527314 0 -0.41253646112373121 -0.081937026634555571 0 -0.39012132857309251 -0.077913415154825139 0 -0.39544687508897319 -0.098545975091742191 0 -0.41253646112373121 -0.081937026634555571 0 -0.39012132857309251 -0.077913415154825139 0 -0.41631418542689469 -0.076294494091329962 0 -0.39272567038161982 -0.061803208927188887 0 -0.39012132857309251 -0.077913415154825139 0 -0.40399408280702293 -0.067416607354873301 0 -0.39012132857309251 -0.077913415154825139 0 -0.40399408280702293 -0.067416607354873301 0 -0.41631418542689469 -0.076294494091329962 0 -0.38675213550877519 -0.1212578600908709 0 -0.3778128652086149 -0.122596574453348 0 -0.37990165281842692 -0.1085536339877186 0 -0.38675213550877519 -0.1212578600908709 0 -0.37990165281842692 -0.1085536339877186 0 -0.39075938651139702 -0.11081327143409569 0 -0.37854848298343807 -0.092143764015219051 0 -0.37990165281842692 -0.1085536339877186 0 -0.39544687508897319 -0.098545975091742191 0 -0.37990165281842692 -0.1085536339877186 0 -0.39544687508897319 -0.098545975091742191 0 -0.39075938651139702 -0.11081327143409569 0 -0.39544687508897319 -0.098545975091742191 0 -0.40197382118111208 -0.1118773762460302 0 -0.40783197903422741 -0.098001555780527314 0 -0.39544687508897319 -0.098545975091742191 0 -0.39075938651139702 -0.11081327143409569 0 -0.40197382118111208 -0.1118773762460302 0 -0.38675213550877519 -0.1212578600908709 0 -0.40197382118111208 -0.1118773762460302 0 -0.41372974037046018 -0.12498181042365861 0 -0.38675213550877519 -0.1212578600908709 0 -0.41372974037046018 -0.12498181042365861 0 -0.38675213550877519 -0.1212578600908709 0 -0.39075938651139702 -0.11081327143409569 0 -0.40197382118111208 -0.1118773762460302 0 -0.40197382118111208 -0.1118773762460302 0 -0.41372974037046018 -0.12498181042365861 0 -0.42137075874309299 -0.099645845149781351 0 -0.41372974037046018 -0.12498181042365861 0 -0.42137075874309299 -0.099645845149781351 0 -0.42463498937671312 -0.1200013847918079 0 -0.41372974037046018 -0.12498181042365861 0 -0.42137075874309299 -0.099645845149781351 0 -0.42553493862486802 -0.12661138325614349 0 -0.41372974037046018 -0.12498181042365861 0 -0.42463498937671312 -0.1200013847918079 0 -0.40197382118111208 -0.1118773762460302 0 -0.42137075874309299 -0.099645845149781351 0 -0.40783197903422741 -0.098001555780527314 0 -0.42137075874309299 -0.099645845149781351 0 -0.43408599762426969 -0.087317078554663918 0 -0.43969139322562129 -0.09799426345569473 0 -0.42137075874309299 -0.099645845149781351 0 -0.43251795266017617 -0.10994625239414831 0 -0.43969139322562129 -0.09799426345569473 0 -0.42137075874309299 -0.099645845149781351 0 -0.43251795266017617 -0.10994625239414831 0 -0.42463498937671312 -0.1200013847918079 0 -0.43251795266017617 -0.10994625239414831 0 -0.43521521834304222 -0.1211927987874292 0 -0.42463498937671312 -0.1200013847918079 0 -0.43251795266017617 -0.10994625239414831 0 -0.43521521834304222 -0.1211927987874292 0 -0.44167740361241142 -0.1108969697860282 0 -0.42553493862486802 -0.12661138325614349 0 -0.43521521834304222 -0.1211927987874292 0 -0.42463498937671312 -0.1200013847918079 0 -0.42553493862486802 -0.12661138325614349 0 -0.42463498937671312 -0.1200013847918079 0 -0.41253646112373121 -0.081937026634555571 0 -0.42962604715848918 -0.065328078177368923 0 -0.41631418542689469 -0.076294494091329962 0 -0.41253646112373121 -0.081937026634555571 0 -0.42962604715848918 -0.065328078177368923 0 -0.41631418542689469 -0.076294494091329962 0 -0.41619207670247232 -0.064600652305675743 0 -0.42962604715848918 -0.065328078177368923 0 -0.40399408280702293 -0.067416607354873301 0 -0.41631418542689469 -0.076294494091329962 0 -0.41619207670247232 -0.064600652305675743 0 -0.39012132857309251 -0.077913415154825139 0 -0.41631418542689469 -0.076294494091329962 0 -0.41253646112373121 -0.081937026634555571 0 -0.42137075874309299 -0.099645845149781351 0 -0.41253646112373121 -0.081937026634555571 0 -0.42901177711572591 -0.074309879875903984 0 -0.42137075874309299 -0.099645845149781351 0 -0.40783197903422741 -0.098001555780527314 0 -0.41253646112373121 -0.081937026634555571 0 -0.42137075874309299 -0.099645845149781351 0 -0.43408599762426969 -0.087317078554663918 0 -0.43039771032330842 -0.076795447947420853 0 -0.42137075874309299 -0.099645845149781351 0 -0.42901177711572591 -0.074309879875903984 0 -0.42137075874309299 -0.099645845149781351 0 -0.43039771032330842 -0.076795447947420853 0 -0.42901177711572591 -0.074309879875903984 0 -0.43408599762426969 -0.087317078554663918 0 -0.43604862551671042 -0.080555229457087457 0 -0.43039771032330842 -0.076795447947420853 0 -0.43039771032330842 -0.076795447947420853 0 -0.44044857060482018 -0.069495393066497588 0 -0.43847401069349412 -0.076148898670062248 0 -0.43039771032330842 -0.076795447947420853 0 -0.42962604715848918 -0.065328078177368923 0 -0.44710146477565688 -0.054452814605208358 0 -0.43604862551671042 -0.080555229457087457 0 -0.43039771032330842 -0.076795447947420853 0 -0.43847401069349412 -0.076148898670062248 0 -0.41253646112373121 -0.081937026634555571 0 -0.42901177711572591 -0.074309879875903984 0 -0.42962604715848918 -0.065328078177368923 0 -0.43039771032330842 -0.076795447947420853 0 -0.42901177711572591 -0.074309879875903984 0 -0.42962604715848918 -0.065328078177368923 0 -0.43039771032330842 -0.076795447947420853 0 -0.44044857060482018 -0.069495393066497588 0 -0.44338564895704491 -0.064053113656094618 0 -0.43039771032330842 -0.076795447947420853 0 -0.44710146477565688 -0.054452814605208358 0 -0.43039771032330842 -0.076795447947420853 0 -0.44338564895704491 -0.064053113656094618 0 -0.44710146477565688 -0.054452814605208358 0 -0.44044857060482018 -0.069495393066497588 0 -0.44338564895704491 -0.064053113656094618 0 -0.44684608282494293 -0.06752907126393265 0 -0.44044857060482018 -0.069495393066497588 0 -0.44684608282494293 -0.06752907126393265 0 -0.44309312490096753 -0.073013765529874125 0 -0.44338564895704491 -0.064053113656094618 0 -0.44684608282494293 -0.06752907126393265 0 -0.44962612319134221 -0.060910903559138127 0 -0.44684608282494293 -0.06752907126393265 0 -0.44884669268350841 -0.073266314844361885 0 -0.45522398945001119 -0.06660380595041196 0 -0.44684608282494293 -0.06752907126393265 0 -0.45522398945001119 -0.06660380595041196 0 -0.44962612319134221 -0.060910903559138127 0 -0.44884669268350841 -0.073266314844361885 0 -0.44294392954271078 -0.081306067676573932 0 -0.45608475034356988 -0.078954422429932197 0 -0.44684608282494293 -0.06752907126393265 0 -0.44884669268350841 -0.073266314844361885 0 -0.44309312490096753 -0.073013765529874125 0 -0.44884669268350841 -0.073266314844361885 0 -0.44309312490096753 -0.073013765529874125 0 -0.44294392954271078 -0.081306067676573932 0 -0.44309312490096753 -0.073013765529874125 0 -0.43847401069349412 -0.076148898670062248 0 -0.44294392954271078 -0.081306067676573932 0 -0.44044857060482018 -0.069495393066497588 0 -0.44309312490096753 -0.073013765529874125 0 -0.43847401069349412 -0.076148898670062248 0 -0.43604862551671042 -0.080555229457087457 0 -0.43847401069349412 -0.076148898670062248 0 -0.44294392954271078 -0.081306067676573932 0 -0.44294392954271078 -0.081306067676573932 0 -0.45214951507538748 -0.089493415298147139 0 -0.43969139322562129 -0.09799426345569473 0 -0.43408599762426969 -0.087317078554663918 0 -0.44294392954271078 -0.081306067676573932 0 -0.43969139322562129 -0.09799426345569473 0 -0.43408599762426969 -0.087317078554663918 0 -0.43604862551671042 -0.080555229457087457 0 -0.44294392954271078 -0.081306067676573932 0 -0.44294392954271078 -0.081306067676573932 0 -0.45214951507538748 -0.089493415298147139 0 -0.45608475034356988 -0.078954422429932197 0 -0.45214951507538748 -0.089493415298147139 0 -0.45608475034356988 -0.078954422429932197 0 -0.46337283448962902 -0.087316142537657709 0 -0.45214951507538748 -0.089493415298147139 0 -0.46337283448962902 -0.087316142537657709 0 -0.45683916269305808 -0.103404945322389 0 -0.45608475034356988 -0.078954422429932197 0 -0.46337283448962902 -0.087316142537657709 0 -0.47039409312080838 -0.075725819423531723 0 -0.45522398945001119 -0.06660380595041196 0 -0.47039409312080838 -0.075725819423531723 0 -0.46630386979057731 -0.061029809711835872 0 -0.44884669268350841 -0.073266314844361885 0 -0.45608475034356988 -0.078954422429932197 0 -0.45522398945001119 -0.06660380595041196 0 -0.45608475034356988 -0.078954422429932197 0 -0.45522398945001119 -0.06660380595041196 0 -0.47039409312080838 -0.075725819423531723 0 -0.44278260881222181 -0.12899222719923339 0 -0.43521521834304222 -0.1211927987874292 0 -0.45114981008796767 -0.1185666950251905 0 -0.43521521834304222 -0.1211927987874292 0 -0.45114981008796767 -0.1185666950251905 0 -0.44167740361241142 -0.1108969697860282 0 -0.45114981008796767 -0.1185666950251905 0 -0.44167740361241142 -0.1108969697860282 0 -0.45683916269305808 -0.103404945322389 0 -0.44167740361241142 -0.1108969697860282 0 -0.43969139322562129 -0.09799426345569473 0 -0.45683916269305808 -0.103404945322389 0 -0.45214951507538748 -0.089493415298147139 0 -0.43969139322562129 -0.09799426345569473 0 -0.45683916269305808 -0.103404945322389 0 -0.43251795266017617 -0.10994625239414831 0 -0.44167740361241142 -0.1108969697860282 0 -0.43969139322562129 -0.09799426345569473 0 -0.46337283448962902 -0.087316142537657709 0 -0.45683916269305808 -0.103404945322389 0 -0.47776564105062352 -0.09201964007731217 0 -0.45683916269305808 -0.103404945322389 0 -0.47035418806749918 -0.11554015791374039 0 -0.47776564105062352 -0.09201964007731217 0 -0.46514276761819567 -0.13207879182398821 0 -0.47035418806749918 -0.11554015791374039 0 -0.4600302789995756 -0.13137307114232261 0 -0.47035418806749918 -0.11554015791374039 0 -0.4600302789995756 -0.13137307114232261 0 -0.45114981008796767 -0.1185666950251905 0 -0.47035418806749918 -0.11554015791374039 0 -0.45114981008796767 -0.1185666950251905 0 -0.45683916269305808 -0.103404945322389 0 -0.47035418806749918 -0.11554015791374039 0 -0.47035418806749918 -0.11554015791374039 0 -0.48823093116748822 -0.1058655685855734 0 -0.48784037937809083 -0.1183794329170286 0 -0.47825109857495252 -0.12536561823226619 0 -0.47035418806749918 -0.11554015791374039 0 -0.48784037937809083 -0.1183794329170286 0 -0.46514276761819567 -0.13207879182398821 0 -0.47825109857495252 -0.12536561823226619 0 -0.47035418806749918 -0.11554015791374039 0 -0.47035418806749918 -0.11554015791374039 0 -0.48399893047406589 -0.09461436119002993 0 -0.48823093116748822 -0.1058655685855734 0 -0.47035418806749918 -0.11554015791374039 0 -0.48399893047406589 -0.09461436119002993 0 -0.47035418806749918 -0.11554015791374039 0 -0.47776564105062352 -0.09201964007731217 0 -0.47035418806749918 -0.11554015791374039 0 -0.48399893047406589 -0.09461436119002993 0 -0.47776564105062352 -0.09201964007731217 0 -0.48399893047406589 -0.09461436119002993 0 -0.49305746541038847 -0.094999166331417279 0 -0.48823093116748822 -0.1058655685855734 0 -0.49305746541038847 -0.094999166331417279 0 -0.5 -0.10341842401643379 0 -0.48823093116748822 -0.1058655685855734 0 -0.5 -0.10341842401643379 0 -0.48823093116748822 -0.1058655685855734 0 -0.48784037937809083 -0.1183794329170286 0 -0.5 -0.1307385364992355 0 -0.5 -0.10341842401643379 0 -0.48784037937809083 -0.1183794329170286 0 -0.47039409312080838 -0.075725819423531723 0 -0.48517709403374931 -0.068499122240884266 0 -0.46630386979057731 -0.061029809711835872 0 -0.46337283448962902 -0.087316142537657709 0 -0.47039409312080838 -0.075725819423531723 0 -0.47776564105062352 -0.09201964007731217 0 -0.47776564105062352 -0.09201964007731217 0 -0.48614633460976753 -0.08220542199363623 0 -0.48517709403374931 -0.068499122240884266 0 -0.47776564105062352 -0.09201964007731217 0 -0.48517709403374931 -0.068499122240884266 0 -0.47039409312080838 -0.075725819423531723 0 -0.47776564105062352 -0.09201964007731217 0 -0.48517709403374931 -0.068499122240884266 0 -0.48399893047406589 -0.09461436119002993 0 -0.47776564105062352 -0.09201964007731217 0 -0.48614633460976753 -0.08220542199363623 0 -0.48399893047406589 -0.09461436119002993 0 -0.48614633460976753 -0.08220542199363623 0 -0.4976436728806316 -0.073688564466318593 0 -0.49305746541038847 -0.094999166331417279 0 -0.5 -0.10341842401643379 0 -0.5 -0.076098311533632002 0 -0.48399893047406589 -0.09461436119002993 0 -0.49305746541038847 -0.094999166331417279 0 -0.5 -0.076098311533632002 0 -0.48399893047406589 -0.09461436119002993 0 -0.4976436728806316 -0.073688564466318593 0 -0.48399893047406589 -0.09461436119002993 0 -0.5 -0.076098311533632002 0 -0.4976436728806316 -0.073688564466318593 0 -0.4976436728806316 -0.073688564466318593 0 -0.48517709403374931 -0.068499122240884266 0 -0.5 -0.048778199050830362 0 -0.5 -0.076098311533632002 0 -0.4976436728806316 -0.073688564466318593 0 -0.5 -0.048778199050830362 0 -0.48614633460976753 -0.08220542199363623 0 -0.4976436728806316 -0.073688564466318593 0 -0.48517709403374931 -0.068499122240884266 0 -0.48517709403374931 -0.068499122240884266 0 -0.5 -0.048778199050830362 0 -0.49258854701687488 -0.044978604404456439 0 -0.48517709403374931 -0.068499122240884266 0 -0.49258854701687488 -0.044978604404456439 0 -0.47778261154913348 -0.054744321555061377 0 -0.48517709403374931 -0.068499122240884266 0 -0.49258854701687488 -0.044978604404456439 0 -0.49258854701687488 -0.044978604404456439 0 -0.4863959136138456 -0.031560208283910429 0 -0.50000000000000033 -0.021458086568028618 0 -0.5 -0.048778199050830362 0 -0.49258854701687488 -0.044978604404456439 0 -0.50000000000000033 -0.021458086568028618 0 -0.49258854701687488 -0.044978604404456439 0 -0.4863959136138456 -0.031560208283910429 0 -0.47668415439656042 -0.043033440303720631 0 -0.49258854701687488 -0.044978604404456439 0 -0.50000000000000033 -0.021458086568028618 0 -0.4863959136138456 -0.031560208283910429 0 -0.47668415439656042 -0.043033440303720631 0 -0.47601329219817029 -0.02024545532342726 0 -0.47668415439656042 -0.043033440303720631 0 -0.46380521922800533 -0.03211018126299571 0 -0.47601329219817029 -0.02024545532342726 0 -0.47668415439656042 -0.043033440303720631 0 -0.47601329219817029 -0.02024545532342726 0 -0.49258854701687488 -0.044978604404456439 0 -0.47668415439656042 -0.043033440303720631 0 -0.47778261154913348 -0.054744321555061377 0 -0.47668415439656042 -0.043033440303720631 0 -0.47778261154913348 -0.054744321555061377 0 -0.46205710613317108 -0.048270950649437087 0 -0.48517709403374931 -0.068499122240884266 0 -0.47778261154913348 -0.054744321555061377 0 -0.46630386979057731 -0.061029809711835872 0 -0.46630386979057731 -0.061029809711835872 0 -0.45604846788949632 -0.058191469014055017 0 -0.46205710613317108 -0.048270950649437087 0 -0.47778261154913348 -0.054744321555061377 0 -0.46630386979057731 -0.061029809711835872 0 -0.46205710613317108 -0.048270950649437087 0 -0.45522398945001119 -0.06660380595041196 0 -0.46630386979057731 -0.061029809711835872 0 -0.45604846788949632 -0.058191469014055017 0 -0.45522398945001119 -0.06660380595041196 0 -0.45604846788949632 -0.058191469014055017 0 -0.44962612319134221 -0.060910903559138127 0 -0.45604846788949632 -0.058191469014055017 0 -0.46205710613317108 -0.048270950649437087 0 -0.44710146477565688 -0.054452814605208358 0 -0.46205710613317108 -0.048270950649437087 0 -0.46380521922800533 -0.03211018126299571 0 -0.44710146477565688 -0.054452814605208358 0 -0.47668415439656042 -0.043033440303720631 0 -0.46205710613317108 -0.048270950649437087 0 -0.46380521922800533 -0.03211018126299571 0 -0.46380521922800533 -0.03211018126299571 0 -0.44671563319324731 -0.048719129720182268 0 -0.46380521922800533 -0.03211018126299571 0 -0.44710146477565688 -0.054452814605208358 0 -0.46380521922800533 -0.03211018126299571 0 -0.4468684357934315 -0.032927651934435448 0 -0.44671563319324731 -0.048719129720182268 0 -0.43568871760700212 -0.040137860567339138 0 -0.4468684357934315 -0.032927651934435448 0 -0.44671563319324731 -0.048719129720182268 0 -0.46380521922800533 -0.03211018126299571 0 -0.44710146477565688 -0.054452814605208358 0 -0.44671563319324731 -0.048719129720182268 0 -0.43568871760700212 -0.040137860567339138 0 -0.43320492005864158 -0.02978354968411092 0 -0.4468684357934315 -0.032927651934435448 0 -0.42962604715848918 -0.065328078177368923 0 -0.44710146477565688 -0.054452814605208358 0 -0.44671563319324731 -0.048719129720182268 0 -0.4324198088358378 -0.052542302977399792 0 -0.43568871760700212 -0.040137860567339138 0 -0.44671563319324731 -0.048719129720182268 0 -0.42962604715848918 -0.065328078177368923 0 -0.44671563319324731 -0.048719129720182268 0 -0.45604846788949632 -0.058191469014055017 0 -0.44962612319134221 -0.060910903559138127 0 -0.44710146477565688 -0.054452814605208358 0 -0.44338564895704491 -0.064053113656094618 0 -0.44962612319134221 -0.060910903559138127 0 -0.44710146477565688 -0.054452814605208358 0 -0.44423665078742403 -0.0007541330951054406 0 -0.45348821553532609 -0.019222061608300239 0 -0.44864546248745968 0.007865066108162155 0 -0.43593083270112909 -0.0082244292664538435 0 -0.44423665078742403 -0.0007541330951054406 0 -0.45348821553532609 -0.019222061608300239 0 -0.45348821553532609 -0.019222061608300239 0 -0.44864546248745968 0.007865066108162155 0 -0.43593083270112909 -0.0082244292664538435 0 -0.44423665078742403 -0.0007541330951054406 0 -0.43531534045472009 0.0027778761619815522 0 -0.43593083270112909 -0.0082244292664538435 0 -0.44032915636541797 -0.02095459278641916 0 -0.45348821553532609 -0.019222061608300239 0 -0.43320492005864158 -0.02978354968411092 0 -0.4468684357934315 -0.032927651934435448 0 -0.44032915636541797 -0.02095459278641916 0 -0.4468684357934315 -0.032927651934435448 0 -0.44032915636541797 -0.02095459278641916 0 -0.45348821553532609 -0.019222061608300239 0 -0.46380521922800533 -0.03211018126299571 0 -0.45348821553532609 -0.019222061608300239 0 -0.46373326656002822 -0.01687706102056883 0 -0.46380521922800533 -0.03211018126299571 0 -0.46373326656002822 -0.01687706102056883 0 -0.47588683794530839 -0.015950031282873239 0 -0.46380521922800533 -0.03211018126299571 0 -0.4468684357934315 -0.032927651934435448 0 -0.45348821553532609 -0.019222061608300239 0 -0.46093000220709152 -0.0039109829753317497 0 -0.47588683794530839 -0.015950031282873239 0 -0.46671729583139387 0.0024634920995487172 0 -0.45348821553532609 -0.019222061608300239 0 -0.46093000220709152 -0.0039109829753317497 0 -0.44864546248745968 0.007865066108162155 0 -0.46373326656002822 -0.01687706102056883 0 -0.46093000220709152 -0.0039109829753317497 0 -0.47588683794530839 -0.015950031282873239 0 -0.45348821553532609 -0.019222061608300239 0 -0.46373326656002822 -0.01687706102056883 0 -0.46093000220709152 -0.0039109829753317497 0 -0.47588683794530839 -0.015950031282873239 0 -0.47527127200917529 0.0049596389008207363 0 -0.47588683794530839 -0.015950031282873239 0 -0.47527127200917529 0.0049596389008207363 0 -0.46671729583139387 0.0024634920995487172 0 -0.47588683794530839 -0.015950031282873239 0 -0.48538992218717608 -0.0032388813769071451 0 -0.47527127200917529 0.0049596389008207363 0 -0.47601329219817029 -0.02024545532342726 0 -0.48595979869474132 -0.0105786902306632 0 -0.47588683794530839 -0.015950031282873239 0 -0.48538992218717608 -0.0032388813769071451 0 -0.47588683794530839 -0.015950031282873239 0 -0.48538992218717608 -0.0032388813769071451 0 -0.48595979869474132 -0.0105786902306632 0 -0.47601329219817029 -0.02024545532342726 0 -0.47588683794530839 -0.015950031282873239 0 -0.48595979869474132 -0.0105786902306632 0 -0.46380521922800533 -0.03211018126299571 0 -0.47588683794530839 -0.015950031282873239 0 -0.46380521922800533 -0.03211018126299571 0 -0.47601329219817029 -0.02024545532342726 0 -0.47588683794530839 -0.015950031282873239 0 -0.46380521922800533 -0.03211018126299571 0 -0.47601329219817029 -0.02024545532342726 0 -0.47601329219817029 -0.02024545532342726 0 -0.47588683794530839 -0.015950031282873239 0 -0.47601329219817029 -0.02024545532342726 0 -0.48793515847793961 -0.02181586421679222 0 -0.48595979869474132 -0.0105786902306632 0 -0.4863959136138456 -0.031560208283910429 0 -0.47601329219817029 -0.02024545532342726 0 -0.48793515847793961 -0.02181586421679222 0 -0.4863959136138456 -0.031560208283910429 0 -0.48793515847793961 -0.02181586421679222 0 -0.50000000000000033 -0.021458086568028618 0 -0.48793515847793961 -0.02181586421679222 0 -0.48595979869474132 -0.0105786902306632 0 -0.49200092414723079 -0.015389132210660079 0 -0.48793515847793961 -0.02181586421679222 0 -0.50000000000000033 -0.021458086568028618 0 -0.49200092414723079 -0.015389132210660079 0 -0.50000000000000033 -0.021458086568028618 0 -0.49200092414723079 -0.015389132210660079 0 -0.49999999999999972 -0.01507652939324646 0 -0.48538992218717608 -0.0032388813769071451 0 -0.49999999999999972 -0.01507652939324646 0 -0.5 0.003154329343803719 0 -0.48538992218717608 -0.0032388813769071451 0 -0.48595979869474132 -0.0105786902306632 0 -0.49200092414723079 -0.015389132210660079 0 -0.48538992218717608 -0.0032388813769071451 0 -0.49999999999999972 -0.01507652939324646 0 -0.48538992218717608 -0.0032388813769071451 0 -0.49200092414723079 -0.015389132210660079 0 -0.49999999999999972 -0.01507652939324646 0 -0.48538992218717608 -0.0032388813769071451 0 -0.5 0.003154329343803719 0 -0.49543326445425279 0.01019490768193961 0 -0.5 0.003154329343803719 0 -0.49543326445425279 0.01019490768193961 0 -0.50000000000000144 0.02138518808085382 0 -0.48538992218717608 -0.0032388813769071451 0 -0.49543326445425279 0.01019490768193961 0 -0.48538992218717608 -0.0032388813769071451 0 -0.48622313998578298 0.0066093761825687927 0 -0.49543326445425279 0.01019490768193961 0 -0.48622313998578298 0.0066093761825687927 0 -0.48933393598518737 0.012240450984688889 0 -0.49543326445425279 0.01019490768193961 0 -0.48933393598518737 0.012240450984688889 0 -0.48435534634838978 0.016314723975708809 0 -0.48212542797981922 0.01195395215028093 0 -0.48622313998578298 0.0066093761825687927 0 -0.48933393598518737 0.012240450984688889 0 -0.48212542797981922 0.01195395215028093 0 -0.48933393598518737 0.012240450984688889 0 -0.49543326445425279 0.01019490768193961 0 -0.50000000000000144 0.02138518808085382 0 -0.50000000000000144 0.02138518808085382 0 -0.48258725340567521 0.016800929917155379 0 -0.48933393598518737 0.012240450984688889 0 -0.50000000000000144 0.02138518808085382 0 -0.48435534634838978 0.016314723975708809 0 -0.50000000000000144 0.02138518808085382 0 -0.48435534634838978 0.016314723975708809 0 -0.48258725340567521 0.016800929917155379 0 -0.50000000000000144 0.02138518808085382 0 -0.48653723482323619 0.03021313580120686 0 -0.48258725340567521 0.016800929917155379 0 -0.50000000000000144 0.02138518808085382 0 -0.48653723482323619 0.03021313580120686 0 -0.5 0.036572385602543778 0 -0.48435534634838978 0.016314723975708809 0 -0.48258725340567521 0.016800929917155379 0 -0.48653723482323619 0.03021313580120686 0 -0.48258725340567521 0.016800929917155379 0 -0.47486011789126631 0.01892580644751829 0 -0.48258725340567521 0.016800929917155379 0 -0.4749816201447033 0.014798592940743011 0 -0.48258725340567521 0.016800929917155379 0 -0.47486011789126631 0.01892580644751829 0 -0.48258725340567521 0.016800929917155379 0 -0.47486011789126631 0.01892580644751829 0 -0.4749816201447033 0.014798592940743011 0 -0.47486011789126631 0.01892580644751829 0 -0.4749816201447033 0.014798592940743011 0 -0.4749816201447033 0.014798592940743011 0 -0.47527127200917529 0.0049596389008207363 0 -0.46603500780084423 0.0124432160648098 0 -0.4749816201447033 0.014798592940743011 0 -0.47527127200917529 0.0049596389008207363 0 -0.4749816201447033 0.014798592940743011 0 -0.46603500780084423 0.0124432160648098 0 -0.47486011789126631 0.01892580644751829 0 -0.4749816201447033 0.014798592940743011 0 -0.46603500780084423 0.0124432160648098 0 -0.47527127200917529 0.0049596389008207363 0 -0.46603500780084423 0.0124432160648098 0 -0.47527127200917529 0.0049596389008207363 0 -0.46671729583139387 0.0024634920995487172 0 -0.46603500780084423 0.0124432160648098 0 -0.48538992218717608 -0.0032388813769071451 0 -0.47527127200917529 0.0049596389008207363 0 -0.48538992218717608 -0.0032388813769071451 0 -0.48622313998578298 0.0066093761825687927 0 -0.47527127200917529 0.0049596389008207363 0 -0.48622313998578298 0.0066093761825687927 0 -0.47527127200917529 0.0049596389008207363 0 -0.48212542797981922 0.01195395215028093 0 -0.4749816201447033 0.014798592940743011 0 -0.47527127200917529 0.0049596389008207363 0 -0.48212542797981922 0.01195395215028093 0 -0.48435534634838978 0.016314723975708809 0 -0.48258725340567521 0.016800929917155379 0 -0.48212542797981922 0.01195395215028093 0 -0.48258725340567521 0.016800929917155379 0 -0.4749816201447033 0.014798592940743011 0 -0.48212542797981922 0.01195395215028093 0 -0.50000000000000333 0.051759583124233691 0 -0.47871196727662779 0.069131995845671798 0 -0.50000000000000333 0.051759583124233691 0 -0.48774910080465878 0.044091094502152033 0 -0.47871196727662779 0.069131995845671798 0 -0.50000000000000333 0.051759583124233691 0 -0.48774910080465878 0.044091094502152033 0 -0.5 0.036572385602543778 0 -0.48653723482323619 0.03021313580120686 0 -0.48774910080465878 0.044091094502152033 0 -0.5 0.036572385602543778 0 -0.48653723482323619 0.03021313580120686 0 -0.47486011789126631 0.01892580644751829 0 -0.4740956719303519 0.044892663899493028 0 -0.47486011789126631 0.01892580644751829 0 -0.4740956719303519 0.044892663899493028 0 -0.47486011789126631 0.01892580644751829 0 -0.4740956719303519 0.044892663899493028 0 -0.46350011876493852 0.032537751144848623 0 -0.48653723482323619 0.03021313580120686 0 -0.48774910080465878 0.044091094502152033 0 -0.4740956719303519 0.044892663899493028 0 -0.4740956719303519 0.044892663899493028 0 -0.46186219931323741 0.058640364115961387 0 -0.47871196727662779 0.069131995845671798 0 -0.48774910080465878 0.044091094502152033 0 -0.4740956719303519 0.044892663899493028 0 -0.47871196727662779 0.069131995845671798 0 -0.4740956719303519 0.044892663899493028 0 -0.46186219931323741 0.058640364115961387 0 -0.45565499069430859 0.040402643970305581 0 -0.4740956719303519 0.044892663899493028 0 -0.45565499069430859 0.040402643970305581 0 -0.46350011876493852 0.032537751144848623 0 -0.45565499069430859 0.040402643970305581 0 -0.46350011876493852 0.032537751144848623 0 -0.44938969454382732 0.025929890262077801 0 -0.44009507844328039 0.055690206547963618 0 -0.44477151211613519 0.02953335838696108 0 -0.45565499069430859 0.040402643970305581 0 -0.44009507844328039 0.055690206547963618 0 -0.44477151211613519 0.02953335838696108 0 -0.45565499069430859 0.040402643970305581 0 -0.44938969454382732 0.025929890262077801 0 -0.44477151211613519 0.02953335838696108 0 -0.46186219931323741 0.058640364115961387 0 -0.45565499069430859 0.040402643970305581 0 -0.44009507844328039 0.055690206547963618 0 -0.46186219931323741 0.058640364115961387 0 -0.44009507844328039 0.055690206547963618 0 -0.44846882942250271 0.071260774429637214 0 -0.46603500780084423 0.0124432160648098 0 -0.44938969454382732 0.025929890262077801 0 -0.44864546248745968 0.007865066108162155 0 -0.46603500780084423 0.0124432160648098 0 -0.44864546248745968 0.007865066108162155 0 -0.46058194208169762 0.0047151978242974272 0 -0.46603500780084423 0.0124432160648098 0 -0.44864546248745968 0.007865066108162155 0 -0.46093000220709152 -0.0039109829753317497 0 -0.46058194208169762 0.0047151978242974272 0 -0.44864546248745968 0.007865066108162155 0 -0.46093000220709152 -0.0039109829753317497 0 -0.46058194208169762 0.0047151978242974272 0 -0.46671729583139387 0.0024634920995487172 0 -0.46058194208169762 0.0047151978242974272 0 -0.46671729583139387 0.0024634920995487172 0 -0.46603500780084423 0.0124432160648098 0 -0.47486011789126631 0.01892580644751829 0 -0.46603500780084423 0.0124432160648098 0 -0.44938969454382732 0.025929890262077801 0 -0.46603500780084423 0.0124432160648098 0 -0.44938969454382732 0.025929890262077801 0 -0.47486011789126631 0.01892580644751829 0 -0.46350011876493852 0.032537751144848623 0 -0.44938969454382732 0.025929890262077801 0 -0.47486011789126631 0.01892580644751829 0 -0.44938969454382732 0.025929890262077801 0 -0.44938969454382732 0.025929890262077801 0 -0.44521028016167657 0.02707918284465765 0 -0.44864546248745968 0.007865066108162155 0 -0.44521028016167657 0.02707918284465765 0 -0.44864546248745968 0.007865066108162155 0 -0.44521028016167657 0.02707918284465765 0 -0.44277986279560289 0.0158837396686765 0 -0.44864546248745968 0.007865066108162155 0 -0.44477151211613519 0.02953335838696108 0 -0.44521028016167657 0.02707918284465765 0 -0.42367888681374638 0.033000077114687193 0 -0.44938969454382732 0.025929890262077801 0 -0.44521028016167657 0.02707918284465765 0 -0.44938969454382732 0.025929890262077801 0 -0.44477151211613519 0.02953335838696108 0 -0.44521028016167657 0.02707918284465765 0 -0.44938969454382732 0.025929890262077801 0 -0.44477151211613519 0.02953335838696108 0 -0.44477151211613519 0.02953335838696108 0 -0.44521028016167657 0.02707918284465765 0 -0.44521028016167657 0.02707918284465765 0 -0.43865194886269948 0.024712076771159469 0 -0.44065522270043039 0.021439488127511851 0 -0.44521028016167657 0.02707918284465765 0 -0.44277986279560289 0.0158837396686765 0 -0.44065522270043039 0.021439488127511851 0 -0.43865194886269948 0.024712076771159469 0 -0.44065522270043039 0.021439488127511851 0 -0.4359787989817433 0.018082953225555282 0 -0.44277986279560289 0.0158837396686765 0 -0.44065522270043039 0.021439488127511851 0 -0.4359787989817433 0.018082953225555282 0 -0.44277986279560289 0.0158837396686765 0 -0.43939012380175319 0.01295986161250352 0 -0.4359787989817433 0.018082953225555282 0 -0.44277986279560289 0.0158837396686765 0 -0.4437527517262817 0.0110886801641843 0 -0.44864546248745968 0.007865066108162155 0 -0.43939012380175319 0.01295986161250352 0 -0.44017474261175799 0.0086001503919385467 0 -0.4437527517262817 0.0110886801641843 0 -0.43939012380175319 0.01295986161250352 0 -0.44017474261175799 0.0086001503919385467 0 -0.43426446289337989 0.01114378461216298 0 -0.44017474261175799 0.0086001503919385467 0 -0.4437527517262817 0.0110886801641843 0 -0.44400067184553987 0.0082451816445319182 0 -0.44277986279560289 0.0158837396686765 0 -0.43939012380175319 0.01295986161250352 0 -0.4437527517262817 0.0110886801641843 0 -0.4437527517262817 0.0110886801641843 0 -0.44400067184553987 0.0082451816445319182 0 -0.44864546248745968 0.007865066108162155 0 -0.44423665078742403 -0.0007541330951054406 0 -0.44864546248745968 0.007865066108162155 0 -0.44318890808733041 0.0049282981787776761 0 -0.44017474261175799 0.0086001503919385467 0 -0.44318890808733041 0.0049282981787776761 0 -0.43531534045472009 0.0027778761619815522 0 -0.44423665078742403 -0.0007541330951054406 0 -0.44318890808733041 0.0049282981787776761 0 -0.43531534045472009 0.0027778761619815522 0 -0.44400067184553987 0.0082451816445319182 0 -0.44864546248745968 0.007865066108162155 0 -0.44318890808733041 0.0049282981787776761 0 -0.44017474261175799 0.0086001503919385467 0 -0.44400067184553987 0.0082451816445319182 0 -0.44318890808733041 0.0049282981787776761 0 -0.44017474261175799 0.0086001503919385467 0 -0.43531534045472009 0.0027778761619815522 0 -0.43426446289337989 0.01114378461216298 0 -0.43531534045472009 0.0027778761619815522 0 -0.43426446289337989 0.01114378461216298 0 -0.4263371681339499 0.01211220465998279 0 -0.43426446289337989 0.01114378461216298 0 -0.4263371681339499 0.01211220465998279 0 -0.4359787989817433 0.018082953225555282 0 -0.43939012380175319 0.01295986161250352 0 -0.43426446289337989 0.01114378461216298 0 -0.4359787989817433 0.018082953225555282 0 -0.43531534045472009 0.0027778761619815522 0 -0.4263371681339499 0.01211220465998279 0 -0.42344406803179813 0.0020138751263924291 0 -0.42344406803179813 0.0020138751263924291 0 -0.40711235349192793 0.0053479607604310277 0 -0.41584242410458921 0.01515934679458392 0 -0.40711235349192793 0.0053479607604310277 0 -0.41584242410458921 0.01515934679458392 0 -0.40165479443467661 0.022489232987134969 0 -0.4263371681339499 0.01211220465998279 0 -0.42344406803179813 0.0020138751263924291 0 -0.41584242410458921 0.01515934679458392 0 -0.41584242410458921 0.01515934679458392 0 -0.42367888681374638 0.033000077114687193 0 -0.40165479443467661 0.022489232987134969 0 -0.44521028016167657 0.02707918284465765 0 -0.42367888681374638 0.033000077114687193 0 -0.44521028016167657 0.02707918284465765 0 -0.43865194886269948 0.024712076771159469 0 -0.42367888681374638 0.033000077114687193 0 -0.41584242410458921 0.01515934679458392 0 -0.42792485666028118 0.02064674768024264 0 -0.42367888681374638 0.033000077114687193 0 -0.4263371681339499 0.01211220465998279 0 -0.41584242410458921 0.01515934679458392 0 -0.42792485666028118 0.02064674768024264 0 -0.43865194886269948 0.024712076771159469 0 -0.42792485666028118 0.02064674768024264 0 -0.4359787989817433 0.018082953225555282 0 -0.4263371681339499 0.01211220465998279 0 -0.42792485666028118 0.02064674768024264 0 -0.4359787989817433 0.018082953225555282 0 -0.43865194886269948 0.024712076771159469 0 -0.42792485666028118 0.02064674768024264 0 -0.42367888681374638 0.033000077114687193 0 -0.43865194886269948 0.024712076771159469 0 -0.42367888681374638 0.033000077114687193 0 -0.44009507844328039 0.055690206547963618 0 -0.44477151211613519 0.02953335838696108 0 -0.42367888681374638 0.033000077114687193 0 -0.44009507844328039 0.055690206547963618 0 -0.41915354805448413 0.056558340972495812 0 -0.42739390772310809 0.068538313677642931 0 -0.44009507844328039 0.055690206547963618 0 -0.42367888681374638 0.033000077114687193 0 -0.41915354805448413 0.056558340972495812 0 -0.41915354805448413 0.056558340972495812 0 -0.40504634015813568 0.043313702515930808 0 -0.40433503759992578 0.060401714394172697 0 -0.42367888681374638 0.033000077114687193 0 -0.40504634015813568 0.043313702515930808 0 -0.39622326449383499 0.040550068619986279 0 -0.42367888681374638 0.033000077114687193 0 -0.40504634015813568 0.043313702515930808 0 -0.42367888681374638 0.033000077114687193 0 -0.39622326449383499 0.040550068619986279 0 -0.40165479443467661 0.022489232987134969 0 -0.42367888681374638 0.033000077114687193 0 -0.39622326449383499 0.040550068619986279 0 -0.42367888681374638 0.033000077114687193 0 -0.41915354805448413 0.056558340972495812 0 -0.40504634015813568 0.043313702515930808 0 -0.40504634015813568 0.043313702515930808 0 -0.39622326449383499 0.040550068619986279 0 -0.38641379350252542 0.053627327917174783 0 -0.40504634015813568 0.043313702515930808 0 -0.38641379350252542 0.053627327917174783 0 -0.40433503759992578 0.060401714394172697 0 -0.38641379350252542 0.053627327917174783 0 -0.39571437861469572 0.07090572362641849 0 -0.40504634015813568 0.043313702515930808 0 -0.40433503759992578 0.060401714394172697 0 -0.38641379350252542 0.053627327917174783 0 -0.38641379350252542 0.053627327917174783 0 -0.3760816295596035 0.064207970313993334 0 -0.36778124684691488 0.063940953318418564 0 -0.38641379350252542 0.053627327917174783 0 -0.36778124684691488 0.063940953318418564 0 -0.39622326449383499 0.040550068619986279 0 -0.38641379350252542 0.053627327917174783 0 -0.36876764217392288 0.048100060125282167 0 -0.39622326449383499 0.040550068619986279 0 -0.36876764217392288 0.048100060125282167 0 -0.39622326449383499 0.040550068619986279 0 -0.3836259417677727 0.0302762137817486 0 -0.36876764217392288 0.048100060125282167 0 -0.3836259417677727 0.0302762137817486 0 -0.381363295698458 0.01387110441200177 0 -0.37012071203797009 0.02637060276433513 0 -0.3836259417677727 0.0302762137817486 0 -0.381363295698458 0.01387110441200177 0 -0.40165479443467661 0.022489232987134969 0 -0.3821431144487013 -0.0051826400674848706 0 -0.381363295698458 0.01387110441200177 0 -0.37147378190201819 0.0046411454033882336 0 -0.39838213341091788 -0.0082666980511320494 0 -0.381363295698458 0.01387110441200177 0 -0.39838213341091788 -0.0082666980511320494 0 -0.3821431144487013 -0.0051826400674848706 0 -0.381363295698458 0.01387110441200177 0 -0.39838213341091788 -0.0082666980511320494 0 -0.40711235349192793 0.0053479607604310277 0 -0.381363295698458 0.01387110441200177 0 -0.40711235349192793 0.0053479607604310277 0 -0.381363295698458 0.01387110441200177 0 -0.40165479443467661 0.022489232987134969 0 -0.39622326449383499 0.040550068619986279 0 -0.3836259417677727 0.0302762137817486 0 -0.40165479443467661 0.022489232987134969 0 -0.40121720456069621 0.1030856768562082 0 -0.39641339695437822 0.11750291113452629 0 -0.38054751812655152 0.1014212848729293 0 -0.40121720456069621 0.1030856768562082 0 -0.38054751812655152 0.1014212848729293 0 -0.39034999980074792 0.087880716689812302 0 -0.40121720456069621 0.1030856768562082 0 -0.39641339695437822 0.11750291113452629 0 -0.41462920390813363 0.1120858441608473 0 -0.39641339695437822 0.11750291113452629 0 -0.38054751812655152 0.1014212848729293 0 -0.37381417397412392 0.1167180513043872 0 -0.39641339695437822 0.11750291113452629 0 -0.39291075565827233 0.13420581406732071 0 -0.37381417397412392 0.1167180513043872 0 -0.38054751812655152 0.1014212848729293 0 -0.39034999980074792 0.087880716689812302 0 -0.37313865407702163 0.08644003925618568 0 -0.39034999980074792 0.087880716689812302 0 -0.37987154503301312 0.075620863096035051 0 -0.39571437861469572 0.07090572362641849 0 -0.39034999980074792 0.087880716689812302 0 -0.37987154503301312 0.075620863096035051 0 -0.37313865407702163 0.08644003925618568 0 -0.3760816295596035 0.064207970313993334 0 -0.39571437861469572 0.07090572362641849 0 -0.38641379350252542 0.053627327917174783 0 -0.3760816295596035 0.064207970313993334 0 -0.39571437861469572 0.07090572362641849 0 -0.3760816295596035 0.064207970313993334 0 -0.37987154503301312 0.075620863096035051 0 -0.39571437861469572 0.07090572362641849 0 -0.3760816295596035 0.064207970313993334 0 -0.37987154503301312 0.075620863096035051 0 -0.37205637473515563 0.069182155195043907 0 -0.39571437861469572 0.07090572362641849 0 -0.41534712766978787 0.077603476938843619 0 -0.40433503759992578 0.060401714394172697 0 -0.39571437861469572 0.07090572362641849 0 -0.41534712766978787 0.077603476938843619 0 -0.39034999980074792 0.087880716689812302 0 -0.39571437861469572 0.07090572362641849 0 -0.40427827269448291 0.087002018075595905 0 -0.39571437861469572 0.07090572362641849 0 -0.40427827269448291 0.087002018075595905 0 -0.41534712766978787 0.077603476938843619 0 -0.40121720456069621 0.1030856768562082 0 -0.39034999980074792 0.087880716689812302 0 -0.40427827269448291 0.087002018075595905 0 -0.40427827269448291 0.087002018075595905 0 -0.41534712766978787 0.077603476938843619 0 -0.41876265282648673 0.095534496266696939 0 -0.41915354805448413 0.056558340972495812 0 -0.41534712766978787 0.077603476938843619 0 -0.42739390772310809 0.068538313677642931 0 -0.41915354805448413 0.056558340972495812 0 -0.40433503759992578 0.060401714394172697 0 -0.41534712766978787 0.077603476938843619 0 -0.44009507844328039 0.055690206547963618 0 -0.42739390772310809 0.068538313677642931 0 -0.43497987672487998 0.084301230251268677 0 -0.41534712766978787 0.077603476938843619 0 -0.42739390772310809 0.068538313677642931 0 -0.43497987672487998 0.084301230251268677 0 -0.41534712766978787 0.077603476938843619 0 -0.43497987672487998 0.084301230251268677 0 -0.41876265282648673 0.095534496266696939 0 -0.41534712766978787 0.077603476938843619 0 -0.43497987672487998 0.084301230251268677 0 -0.43497987672487998 0.084301230251268677 0 -0.41876265282648673 0.095534496266696939 0 -0.43026337768142559 0.1106821773493102 0 -0.43497987672487998 0.084301230251268677 0 -0.43613590182987377 0.10387682128854479 0 -0.43026337768142559 0.1106821773493102 0 -0.43497987672487998 0.084301230251268677 0 -0.43026337768142559 0.1106821773493102 0 -0.43613590182987377 0.10387682128854479 0 -0.43026337768142559 0.1106821773493102 0 -0.43767602456834598 0.11168905130461 0 -0.40121720456069621 0.1030856768562082 0 -0.40427827269448291 0.087002018075595905 0 -0.41876265282648673 0.095534496266696939 0 -0.41876265282648673 0.095534496266696939 0 -0.41462920390813363 0.1120858441608473 0 -0.43026337768142559 0.1106821773493102 0 -0.40121720456069621 0.1030856768562082 0 -0.41876265282648673 0.095534496266696939 0 -0.41462920390813363 0.1120858441608473 0 -0.41462920390813363 0.1120858441608473 0 -0.4291099291152643 0.11919909628543419 0 -0.41257263020508361 0.12844236305368861 0 -0.39641339695437822 0.11750291113452629 0 -0.41462920390813363 0.1120858441608473 0 -0.41257263020508361 0.12844236305368861 0 -0.4291099291152643 0.11919909628543419 0 -0.44563567771408458 0.1180108897957558 0 -0.43260653716037201 0.13372981046643509 0 -0.4291099291152643 0.11919909628543419 0 -0.44563567771408458 0.1180108897957558 0 -0.43767602456834598 0.11168905130461 0 -0.41462920390813363 0.1120858441608473 0 -0.4291099291152643 0.11919909628543419 0 -0.43026337768142559 0.1106821773493102 0 -0.4291099291152643 0.11919909628543419 0 -0.43026337768142559 0.1106821773493102 0 -0.43767602456834598 0.11168905130461 0 -0.44563567771408458 0.1180108897957558 0 -0.44723523650108171 0.1066762718040048 0 -0.45843296473473483 0.10430076433458881 0 -0.44563567771408458 0.1180108897957558 0 -0.43767602456834598 0.11168905130461 0 -0.44723523650108171 0.1066762718040048 0 -0.43613590182987377 0.10387682128854479 0 -0.45742393455325081 0.08650440856710831 0 -0.43613590182987377 0.10387682128854479 0 -0.44723523650108171 0.1066762718040048 0 -0.45742393455325081 0.08650440856710831 0 -0.43613590182987377 0.10387682128854479 0 -0.43767602456834598 0.11168905130461 0 -0.44723523650108171 0.1066762718040048 0 -0.45843296473473483 0.10430076433458881 0 -0.45742393455325081 0.08650440856710831 0 -0.47025589796782491 0.09440017257565439 0 -0.44723523650108171 0.1066762718040048 0 -0.45843296473473483 0.10430076433458881 0 -0.45742393455325081 0.08650440856710831 0 -0.45843296473473483 0.10430076433458881 0 -0.45568881006006012 0.13175687700843339 0 -0.44563567771408458 0.1180108897957558 0 -0.45843296473473483 0.10430076433458881 0 -0.45568881006006012 0.13175687700843339 0 -0.45843296473473483 0.10430076433458881 0 -0.477638870732289 0.11705513884804999 0 -0.45568881006006012 0.13175687700843339 0 -0.44009507844328039 0.055690206547963618 0 -0.43497987672487998 0.084301230251268677 0 -0.44009507844328039 0.055690206547963618 0 -0.43497987672487998 0.084301230251268677 0 -0.44846882942250271 0.071260774429637214 0 -0.44846882942250271 0.071260774429637214 0 -0.44978451024755928 0.080826191771188036 0 -0.4594730328224973 0.073124670092928279 0 -0.43497987672487998 0.084301230251268677 0 -0.43613590182987377 0.10387682128854479 0 -0.4485768777146652 0.088939875514997657 0 -0.43613590182987377 0.10387682128854479 0 -0.4485768777146652 0.088939875514997657 0 -0.45742393455325081 0.08650440856710831 0 -0.44978451024755928 0.080826191771188036 0 -0.4485768777146652 0.088939875514997657 0 -0.45742393455325081 0.08650440856710831 0 -0.43497987672487998 0.084301230251268677 0 -0.44846882942250271 0.071260774429637214 0 -0.44978451024755928 0.080826191771188036 0 -0.43497987672487998 0.084301230251268677 0 -0.44978451024755928 0.080826191771188036 0 -0.4485768777146652 0.088939875514997657 0 -0.43497987672487998 0.084301230251268677 0 -0.4485768777146652 0.088939875514997657 0 -0.44978451024755928 0.080826191771188036 0 -0.45742393455325081 0.08650440856710831 0 -0.4594730328224973 0.073124670092928279 0 -0.45742393455325081 0.08650440856710831 0 -0.4594730328224973 0.073124670092928279 0 -0.47871196727662779 0.069131995845671798 0 -0.45742393455325081 0.08650440856710831 0 -0.47871196727662779 0.069131995845671798 0 -0.46186219931323741 0.058640364115961387 0 -0.4594730328224973 0.073124670092928279 0 -0.47871196727662779 0.069131995845671798 0 -0.46186219931323741 0.058640364115961387 0 -0.44846882942250271 0.071260774429637214 0 -0.4594730328224973 0.073124670092928279 0 -0.47871196727662779 0.069131995845671798 0 -0.47025589796782491 0.09440017257565439 0 -0.48483347336834037 0.094074945981742458 0 -0.45742393455325081 0.08650440856710831 0 -0.47871196727662779 0.069131995845671798 0 -0.47025589796782491 0.09440017257565439 0 -0.47871196727662779 0.069131995845671798 0 -0.5 0.080064690949532058 0 -0.48483347336834037 0.094074945981742458 0 -0.50000000000000333 0.051759583124233691 0 -0.47871196727662779 0.069131995845671798 0 -0.5 0.080064690949532058 0 -0.477638870732289 0.11705513884804999 0 -0.47025589796782491 0.09440017257565439 0 -0.48483347336834037 0.094074945981742458 0 -0.45843296473473483 0.10430076433458881 0 -0.477638870732289 0.11705513884804999 0 -0.47025589796782491 0.09440017257565439 0 -0.5 0.080064690949532058 0 -0.5 0.1083697987748304 0 -0.48483347336834037 0.094074945981742458 0 -0.477638870732289 0.11705513884804999 0 -0.5 0.1083697987748304 0 -0.48483347336834037 0.094074945981742458 0 -0.477638870732289 0.11705513884804999 0 -0.5 0.1083697987748304 0 -0.5 0.13667490660012879 0 -0.477638870732289 0.11705513884804999 0 -0.5 0.13667490660012879 0 -0.47634388164810959 0.14795752928418091 0 -0.477638870732289 0.11705513884804999 0 -0.47634388164810959 0.14795752928418091 0 -0.45568881006006012 0.13175687700843339 0 -0.5 0.13667490660012879 0 -0.47634388164810959 0.14795752928418091 0 -0.5 0.1649800144254272 0 -0.5 0.1649800144254272 0 -0.5 0.19328512225072561 0 -0.48225004087122619 0.1880443168724206 0 -0.46987592708689252 0.17474323459780219 0 -0.48225004087122619 0.1880443168724206 0 -0.46250064952390818 0.19793300748592779 0 -0.5 0.1649800144254272 0 -0.46987592708689252 0.17474323459780219 0 -0.48225004087122619 0.1880443168724206 0 -0.47634388164810959 0.14795752928418091 0 -0.5 0.1649800144254272 0 -0.46987592708689252 0.17474323459780219 0 -0.47634388164810959 0.14795752928418091 0 -0.46987592708689252 0.17474323459780219 0 -0.45294465538538548 0.15921298968227821 0 -0.46987592708689252 0.17474323459780219 0 -0.45020050071071571 0.18666910235612319 0 -0.45294465538538548 0.15921298968227821 0 -0.46987592708689252 0.17474323459780219 0 -0.45020050071071571 0.18666910235612319 0 -0.46250064952390818 0.19793300748592779 0 -0.45020050071071571 0.18666910235612319 0 -0.45294465538538548 0.15921298968227821 0 -0.45020050071071571 0.18666910235612319 0 -0.43110391902656919 0.1691813395931876 0 -0.45020050071071571 0.18666910235612319 0 -0.4378318111775919 0.1952053723401258 0 -0.43110391902656919 0.1691813395931876 0 -0.45294465538538548 0.15921298968227821 0 -0.43644457269163572 0.15098547125178691 0 -0.43110391902656919 0.1691813395931876 0 -0.45020050071071571 0.18666910235612319 0 -0.45294465538538548 0.15921298968227821 0 -0.43110391902656919 0.1691813395931876 0 -0.45294465538538548 0.15921298968227821 0 -0.45568881006006012 0.13175687700843339 0 -0.43644457269163572 0.15098547125178691 0 -0.44563567771408458 0.1180108897957558 0 -0.45568881006006012 0.13175687700843339 0 -0.43260653716037201 0.13372981046643509 0 -0.45568881006006012 0.13175687700843339 0 -0.43260653716037201 0.13372981046643509 0 -0.43644457269163572 0.15098547125178691 0 -0.45294465538538548 0.15921298968227821 0 -0.45568881006006012 0.13175687700843339 0 -0.47634388164810959 0.14795752928418091 0 -0.45294465538538548 0.15921298968227821 0 -0.45568881006006012 0.13175687700843339 0 -0.48066091075530543 0.24366123148070881 0 -0.46278852649577651 0.24018664853999649 0 -0.47110336905253619 0.25826468494226101 0 -0.48066091075530543 0.24366123148070881 0 -0.48388246707259708 0.22861031416240529 0 -0.46278852649577651 0.24018664853999649 0 -0.48066091075530543 0.24366123148070881 0 -0.5 0.24989533790132251 0 -0.48388246707259708 0.22861031416240529 0 -0.5 0.24989533790132251 0 -0.5 0.22159023007602399 0 -0.48388246707259708 0.22861031416240529 0 -0.5 0.22159023007602399 0 -0.48388246707259708 0.22861031416240529 0 -0.47887362774533021 0.2092802056022201 0 -0.48388246707259708 0.22861031416240529 0 -0.46733589359004651 0.22296693412254279 0 -0.46278852649577651 0.24018664853999649 0 -0.48388246707259708 0.22861031416240529 0 -0.47887362774533021 0.2092802056022201 0 -0.46733589359004651 0.22296693412254279 0 -0.47887362774533021 0.2092802056022201 0 -0.46112866153700149 0.2111869096505973 0 -0.46733589359004651 0.22296693412254279 0 -0.5 0.22159023007602399 0 -0.47887362774533021 0.2092802056022201 0 -0.5 0.19328512225072561 0 -0.47887362774533021 0.2092802056022201 0 -0.5 0.19328512225072561 0 -0.48225004087122619 0.1880443168724206 0 -0.47887362774533021 0.2092802056022201 0 -0.48225004087122619 0.1880443168724206 0 -0.46250064952390818 0.19793300748592779 0 -0.45020050071071571 0.18666910235612319 0 -0.46250064952390818 0.19793300748592779 0 -0.44793952061969777 0.20929090451074639 0 -0.45020050071071571 0.18666910235612319 0 -0.46250064952390818 0.19793300748592779 0 -0.45020050071071571 0.18666910235612319 0 -0.44793952061969777 0.20929090451074639 0 -0.45020050071071571 0.18666910235612319 0 -0.4378318111775919 0.1952053723401258 0 -0.44793952061969777 0.20929090451074639 0 -0.44793952061969777 0.20929090451074639 0 -0.44567854052868461 0.23191270666537009 0 -0.42840601614861512 0.2109016463768755 0 -0.44793952061969777 0.20929090451074639 0 -0.46112866153700149 0.2111869096505973 0 -0.44567854052868461 0.23191270666537009 0 -0.4378318111775919 0.1952053723401258 0 -0.44793952061969777 0.20929090451074639 0 -0.42840601614861512 0.2109016463768755 0 -0.47887362774533021 0.2092802056022201 0 -0.46250064952390818 0.19793300748592779 0 -0.46112866153700149 0.2111869096505973 0 -0.46250064952390818 0.19793300748592779 0 -0.44793952061969777 0.20929090451074639 0 -0.46112866153700149 0.2111869096505973 0 -0.46112866153700149 0.2111869096505973 0 -0.46733589359004651 0.22296693412254279 0 -0.44567854052868461 0.23191270666537009 0 -0.46733589359004651 0.22296693412254279 0 -0.44567854052868461 0.23191270666537009 0 -0.46278852649577651 0.24018664853999649 0 -0.44793952061969777 0.20929090451074639 0 -0.44567854052868461 0.23191270666537009 0 -0.44567854052868461 0.23191270666537009 0 -0.43907384032152968 0.24815821867747409 0 -0.46278852649577651 0.24018664853999649 0 -0.42508913708336871 0.22995631990354229 0 -0.40541891423375742 0.24167011368318231 0 -0.41919383790749482 0.25502993091800108 0 -0.44567854052868461 0.23191270666537009 0 -0.43907384032152968 0.24815821867747409 0 -0.42508913708336871 0.22995631990354229 0 -0.43907384032152968 0.24815821867747409 0 -0.42508913708336871 0.22995631990354229 0 -0.41919383790749482 0.25502993091800108 0 -0.42508913708336871 0.22995631990354229 0 -0.41919383790749482 0.25502993091800108 0 -0.44567854052868461 0.23191270666537009 0 -0.42508913708336871 0.22995631990354229 0 -0.42840601614861512 0.2109016463768755 0 -0.42508913708336871 0.22995631990354229 0 -0.40701406779867888 0.2168970030888909 0 -0.42840601614861512 0.2109016463768755 0 -0.42508913708336871 0.22995631990354229 0 -0.40701406779867888 0.2168970030888909 0 -0.40541891423375742 0.24167011368318231 0 -0.40701406779867888 0.2168970030888909 0 -0.42840601614861512 0.2109016463768755 0 -0.41026230270298453 0.19982961721716469 0 -0.4378318111775919 0.1952053723401258 0 -0.42840601614861512 0.2109016463768755 0 -0.4239415447234578 0.19130075959006071 0 -0.42840601614861512 0.2109016463768755 0 -0.4239415447234578 0.19130075959006071 0 -0.41026230270298453 0.19982961721716469 0 -0.4239415447234578 0.19130075959006071 0 -0.41026230270298453 0.19982961721716469 0 -0.40657022772599882 0.1792467707742629 0 -0.41026230270298453 0.19982961721716469 0 -0.3923612620383235 0.19924101219947879 0 -0.40657022772599882 0.1792467707742629 0 -0.3923612620383235 0.19924101219947879 0 -0.38544354484086069 0.180025307577733 0 -0.36856737340239298 0.1923234897369494 0 -0.3923612620383235 0.19924101219947879 0 -0.37767966706662343 0.21310542944541699 0 -0.36856737340239298 0.1923234897369494 0 -0.3923612620383235 0.19924101219947879 0 -0.37767966706662343 0.21310542944541699 0 -0.39178708633099252 0.2149516156662975 0 -0.40701406779867888 0.2168970030888909 0 -0.41026230270298453 0.19982961721716469 0 -0.3923612620383235 0.19924101219947879 0 -0.40701406779867888 0.2168970030888909 0 -0.3923612620383235 0.19924101219947879 0 -0.39178708633099252 0.2149516156662975 0 -0.40701406779867888 0.2168970030888909 0 -0.39009334842034432 0.2305630179314033 0 -0.40541891423375742 0.24167011368318231 0 -0.40701406779867888 0.2168970030888909 0 -0.39178708633099252 0.2149516156662975 0 -0.39009334842034432 0.2305630179314033 0 -0.37767966706662343 0.21310542944541699 0 -0.39009334842034432 0.2305630179314033 0 -0.37026980444998381 0.22748331846288941 0 -0.39009334842034432 0.2305630179314033 0 -0.3734291426064843 0.24361466712641069 0 -0.37026980444998381 0.22748331846288941 0 -0.37767966706662343 0.21310542944541699 0 -0.39178708633099252 0.2149516156662975 0 -0.39009334842034432 0.2305630179314033 0 -0.39009334842034432 0.2305630179314033 0 -0.38878942418543988 0.2480786302863425 0 -0.3734291426064843 0.24361466712641069 0 -0.38878942418543988 0.2480786302863425 0 -0.3734291426064843 0.24361466712641069 0 -0.38018080483092531 0.25233920989092129 0 -0.39009334842034432 0.2305630179314033 0 -0.38878942418543988 0.2480786302863425 0 -0.40541891423375742 0.24167011368318231 0 -0.38878942418543988 0.2480786302863425 0 -0.40541891423375742 0.24167011368318231 0 -0.40015400882939561 0.25668931779519988 0 -0.41200733734242079 0.15169357683025411 0 -0.41257263020508361 0.12844236305368861 0 -0.43260653716037201 0.13372981046643509 0 -0.4291099291152643 0.11919909628543419 0 -0.41257263020508361 0.12844236305368861 0 -0.43260653716037201 0.13372981046643509 0 -0.41200733734242079 0.15169357683025411 0 -0.43260653716037201 0.13372981046643509 0 -0.43644457269163572 0.15098547125178691 0 -0.41200733734242079 0.15169357683025411 0 -0.43644457269163572 0.15098547125178691 0 -0.43110391902656919 0.1691813395931876 0 -0.4378318111775919 0.1952053723401258 0 -0.4239415447234578 0.19130075959006071 0 -0.43110391902656919 0.1691813395931876 0 -0.4239415447234578 0.19130075959006071 0 -0.43110391902656919 0.1691813395931876 0 -0.40657022772599882 0.1792467707742629 0 -0.41200733734242079 0.15169357683025411 0 -0.43110391902656919 0.1691813395931876 0 -0.40657022772599882 0.1792467707742629 0 -0.41200733734242079 0.15169357683025411 0 -0.43110391902656919 0.1691813395931876 0 -0.41200733734242079 0.15169357683025411 0 -0.40657022772599882 0.1792467707742629 0 -0.39305024370207148 0.1628178325099077 0 -0.40657022772599882 0.1792467707742629 0 -0.39305024370207148 0.1628178325099077 0 -0.38544354484086069 0.180025307577733 0 -0.3923612620383235 0.19924101219947879 0 -0.40657022772599882 0.1792467707742629 0 -0.38544354484086069 0.180025307577733 0 -0.39305024370207148 0.1628178325099077 0 -0.38544354484086069 0.180025307577733 0 -0.37004296696205019 0.16544125331106571 0 -0.39305024370207148 0.1628178325099077 0 -0.38137205417575132 0.14856841626747741 0 -0.37004296696205019 0.16544125331106571 0 -0.39305024370207148 0.1628178325099077 0 -0.38137205417575132 0.14856841626747741 0 -0.39291075565827233 0.13420581406732071 0 -0.41200733734242079 0.15169357683025411 0 -0.39305024370207148 0.1628178325099077 0 -0.39291075565827233 0.13420581406732071 0 -0.41200733734242079 0.15169357683025411 0 -0.39291075565827233 0.13420581406732071 0 -0.41200733734242079 0.15169357683025411 0 -0.41257263020508361 0.12844236305368861 0 -0.39291075565827233 0.13420581406732071 0 -0.39641339695437822 0.11750291113452629 0 -0.41257263020508361 0.12844236305368861 0 -0.39291075565827233 0.13420581406732071 0 -0.39291075565827233 0.13420581406732071 0 -0.37381417397412392 0.1167180513043872 0 -0.38137205417575132 0.14856841626747741 0 -0.39291075565827233 0.13420581406732071 0 -0.36577969738975791 0.13884561860793179 0 -0.39291075565827233 0.13420581406732071 0 -0.36577969738975791 0.13884561860793179 0 -0.37381417397412392 0.1167180513043872 0 -0.36577969738975791 0.13884561860793179 0 -0.34022053869913887 0.13033972171057889 0 -0.35560492087798778 0.1181017583417612 0 -0.36577969738975791 0.13884561860793179 0 -0.34491557743367401 0.16093612346306829 0 -0.34022053869913887 0.13033972171057889 0 -0.38137205417575132 0.14856841626747741 0 -0.36577969738975791 0.13884561860793179 0 -0.37004296696205019 0.16544125331106571 0 -0.36577969738975791 0.13884561860793179 0 -0.37004296696205019 0.16544125331106571 0 -0.34491557743367401 0.16093612346306829 0 -0.38544354484086069 0.180025307577733 0 -0.37004296696205019 0.16544125331106571 0 -0.36856737340239298 0.1923234897369494 0 -0.37004296696205019 0.16544125331106571 0 -0.35555964189634959 0.17828559794270649 0 -0.36856737340239298 0.1923234897369494 0 -0.35555964189634959 0.17828559794270649 0 -0.34491557743367401 0.16093612346306829 0 -0.33798110514652913 0.18501241736102531 0 -0.35555964189634959 0.17828559794270649 0 -0.33798110514652913 0.18501241736102531 0 -0.3508729186294951 0.1961168721361525 0 -0.37004296696205019 0.16544125331106571 0 -0.35555964189634959 0.17828559794270649 0 -0.34491557743367401 0.16093612346306829 0 -0.34491557743367401 0.16093612346306829 0 -0.32243660322326623 0.17229233238071759 0 -0.3257035558519572 0.1515488667521801 0 -0.34491557743367401 0.16093612346306829 0 -0.33798110514652913 0.18501241736102531 0 -0.32243660322326623 0.17229233238071759 0 -0.33798110514652913 0.18501241736102531 0 -0.32243660322326623 0.17229233238071759 0 -0.31615736789218668 0.19515962456648331 0 -0.32243660322326623 0.17229233238071759 0 -0.31615736789218668 0.19515962456648331 0 -0.30154253595641539 0.18216183513247999 0 -0.32243660322326623 0.17229233238071759 0 -0.3257035558519572 0.1515488667521801 0 -0.30875144127498588 0.15901683849301809 0 -0.3257035558519572 0.1515488667521801 0 -0.31596034659355637 0.1358718418535563 0 -0.30875144127498588 0.15901683849301809 0 -0.31596034659355637 0.1358718418535563 0 -0.34022053869913887 0.13033972171057889 0 -0.32596379540719028 0.1193342238200255 0 -0.3257035558519572 0.1515488667521801 0 -0.31596034659355637 0.1358718418535563 0 -0.34022053869913887 0.13033972171057889 0 -0.34491557743367401 0.16093612346306829 0 -0.3257035558519572 0.1515488667521801 0 -0.34022053869913887 0.13033972171057889 0 -0.35717261521517157 0.23448739476543329 0 -0.34971195047777359 0.24819366877491381 0 -0.36128033055929742 0.25511628690186772 0 -0.35717261521517157 0.23448739476543329 0 -0.34971195047777359 0.24819366877491381 0 -0.3401611055005469 0.24127581452547561 0 -0.35717261521517157 0.23448739476543329 0 -0.36128033055929742 0.25511628690186772 0 -0.34971195047777359 0.24819366877491381 0 -0.3401611055005469 0.24127581452547561 0 -0.34308868467317588 0.25390253283794129 0 -0.35717261521517157 0.23448739476543329 0 -0.3734291426064843 0.24361466712641069 0 -0.37026980444998381 0.22748331846288941 0 -0.35717261521517157 0.23448739476543329 0 -0.3734291426064843 0.24361466712641069 0 -0.36128033055929742 0.25511628690186772 0 -0.35717261521517157 0.23448739476543329 0 -0.37026980444998381 0.22748331846288941 0 -0.35306489987104578 0.213858502628999 0 -0.35717261521517157 0.23448739476543329 0 -0.35306489987104578 0.213858502628999 0 -0.3393229737144568 0.22542194349501671 0 -0.35717261521517157 0.23448739476543329 0 -0.35306489987104578 0.213858502628999 0 -0.35717261521517157 0.23448739476543329 0 -0.3393229737144568 0.22542194349501671 0 -0.3401611055005469 0.24127581452547561 0 -0.35306489987104578 0.213858502628999 0 -0.3508729186294951 0.1961168721361525 0 -0.33113383101598692 0.20791423494469941 0 -0.37767966706662343 0.21310542944541699 0 -0.37026980444998381 0.22748331846288941 0 -0.35306489987104578 0.213858502628999 0 -0.37767966706662343 0.21310542944541699 0 -0.35306489987104578 0.213858502628999 0 -0.36856737340239298 0.1923234897369494 0 -0.35306489987104578 0.213858502628999 0 -0.36856737340239298 0.1923234897369494 0 -0.3508729186294951 0.1961168721361525 0 -0.35555964189634959 0.17828559794270649 0 -0.36856737340239298 0.1923234897369494 0 -0.3508729186294951 0.1961168721361525 0 -0.33798110514652913 0.18501241736102531 0 -0.31615736789218668 0.19515962456648331 0 -0.33113383101598692 0.20791423494469941 0 -0.33798110514652913 0.18501241736102531 0 -0.3508729186294951 0.1961168721361525 0 -0.33113383101598692 0.20791423494469941 0 -0.33798110514652913 0.18501241736102531 0 -0.31615736789218668 0.19515962456648331 0 -0.31422334262587182 0.21840696620275549 0 -0.33113383101598692 0.20791423494469941 0 -0.31114191160715182 0.20749970969567791 0 -0.31615736789218668 0.19515962456648331 0 -0.33113383101598692 0.20791423494469941 0 -0.31114191160715182 0.20749970969567791 0 -0.31422334262587182 0.21840696620275549 0 -0.33113383101598692 0.20791423494469941 0 -0.32579389967956912 0.22406338227414141 0 -0.35306489987104578 0.213858502628999 0 -0.33113383101598692 0.20791423494469941 0 -0.3393229737144568 0.22542194349501671 0 -0.33113383101598692 0.20791423494469941 0 -0.3393229737144568 0.22542194349501671 0 -0.32579389967956912 0.22406338227414141 0 -0.3393229737144568 0.22542194349501671 0 -0.32579389967956912 0.22406338227414141 0 -0.32844660510390261 0.2374789926796744 0 -0.31422334262587182 0.21840696620275549 0 -0.32579389967956912 0.22406338227414141 0 -0.31558088427778191 0.22965952047579299 0 -0.32579389967956912 0.22406338227414141 0 -0.31558088427778191 0.22965952047579299 0 -0.32844660510390261 0.2374789926796744 0 -0.31558088427778191 0.22965952047579299 0 -0.31393164562622022 0.2419869163233693 0 -0.32844660510390261 0.2374789926796744 0 -0.31393164562622022 0.2419869163233693 0 -0.32497928784552199 0.24817505909587351 0 -0.31848232090602768 0.2536350737327836 0 -0.31393164562622022 0.2419869163233693 0 -0.30874994762413299 0.24955977154890691 0 -0.31848232090602768 0.2536350737327836 0 -0.31393164562622022 0.2419869163233693 0 -0.32497928784552199 0.24817505909587351 0 -0.32844660510390261 0.2374789926796744 0 -0.32497928784552199 0.24817505909587351 0 -0.32844660510390261 0.2374789926796744 0 -0.33475869207343439 0.2516473974976447 0 -0.3393229737144568 0.22542194349501671 0 -0.32844660510390261 0.2374789926796744 0 -0.3401611055005469 0.24127581452547561 0 -0.32844660510390261 0.2374789926796744 0 -0.3401611055005469 0.24127581452547561 0 -0.33475869207343439 0.2516473974976447 0 -0.3401611055005469 0.24127581452547561 0 -0.34308868467317588 0.25390253283794129 0 -0.33475869207343439 0.2516473974976447 0 -0.30046542147852079 0.24463347923818471 0 -0.272045278621739 0.24463782651653271 0 -0.27448136157065861 0.24963672867382861 0 -0.28926256587503468 0.23440115012053239 0 -0.30046542147852079 0.24463347923818471 0 -0.272045278621739 0.24463782651653271 0 -0.30046542147852079 0.24463347923818471 0 -0.272045278621739 0.24463782651653271 0 -0.31393164562622022 0.2419869163233693 0 -0.30046542147852079 0.24463347923818471 0 -0.30227399291622092 0.22899209002754231 0 -0.28926256587503468 0.23440115012053239 0 -0.30046542147852079 0.24463347923818471 0 -0.30227399291622092 0.22899209002754231 0 -0.31393164562622022 0.2419869163233693 0 -0.30046542147852079 0.24463347923818471 0 -0.30874994762413299 0.24955977154890691 0 -0.31558088427778191 0.22965952047579299 0 -0.31393164562622022 0.2419869163233693 0 -0.30227399291622092 0.22899209002754231 0 -0.31422334262587182 0.21840696620275549 0 -0.31558088427778191 0.22965952047579299 0 -0.30227399291622092 0.22899209002754231 0 -0.31422334262587182 0.21840696620275549 0 -0.30227399291622092 0.22899209002754231 0 -0.30081502570657248 0.21720730305080571 0 -0.30227399291622092 0.22899209002754231 0 -0.29254633942671038 0.2263270489387102 0 -0.30081502570657248 0.21720730305080571 0 -0.29254633942671038 0.2263270489387102 0 -0.29050172997198798 0.2176095773504618 0 -0.30081502570657248 0.21720730305080571 0 -0.28926256587503468 0.23440115012053239 0 -0.30227399291622092 0.22899209002754231 0 -0.29254633942671038 0.2263270489387102 0 -0.28926256587503468 0.23440115012053239 0 -0.29254633942671038 0.2263270489387102 0 -0.27891391491110529 0.22696029238513599 0 -0.29254633942671038 0.2263270489387102 0 -0.29050172997198798 0.2176095773504618 0 -0.27891391491110529 0.22696029238513599 0 -0.28578255120047191 0.2092827582537394 0 -0.29050172997198798 0.2176095773504618 0 -0.27891391491110529 0.22696029238513599 0 -0.28578255120047191 0.2092827582537394 0 -0.27891391491110529 0.22696029238513599 0 -0.28766219845576207 0.20444518539202841 0 -0.28578255120047191 0.2092827582537394 0 -0.27238218394387359 0.20457045738010091 0 -0.28766219845576207 0.20444518539202841 0 -0.28578255120047191 0.2092827582537394 0 -0.28578255120047191 0.2092827582537394 0 -0.29433363063784462 0.20530683177194181 0 -0.29050172997198798 0.2176095773504618 0 -0.28578255120047191 0.2092827582537394 0 -0.29433363063784462 0.20530683177194181 0 -0.28766219845576207 0.20444518539202841 0 -0.28578255120047191 0.2092827582537394 0 -0.29433363063784462 0.20530683177194181 0 -0.29433363063784462 0.20530683177194181 0 -0.29050172997198798 0.2176095773504618 0 -0.29433363063784462 0.20530683177194181 0 -0.29050172997198798 0.2176095773504618 0 -0.30081502570657248 0.21720730305080571 0 -0.29433363063784462 0.20530683177194181 0 -0.30081502570657248 0.21720730305080571 0 -0.31114191160715182 0.20749970969567791 0 -0.31422334262587182 0.21840696620275549 0 -0.30081502570657248 0.21720730305080571 0 -0.31114191160715182 0.20749970969567791 0 -0.31615736789218668 0.19515962456648331 0 -0.29433363063784462 0.20530683177194181 0 -0.31114191160715182 0.20749970969567791 0 -0.31615736789218668 0.19515962456648331 0 -0.29433363063784462 0.20530683177194181 0 -0.31615736789218668 0.19515962456648331 0 -0.29433363063784462 0.20530683177194181 0 -0.30154253595641539 0.18216183513247999 0 -0.29433363063784462 0.20530683177194181 0 -0.30154253595641539 0.18216183513247999 0 -0.29433363063784462 0.20530683177194181 0 -0.29072297729699148 0.19656778147151049 0 -0.30154253595641539 0.18216183513247999 0 -0.29072297729699148 0.19656778147151049 0 -0.27169949281025069 0.1890250345757592 0 -0.28752296336403921 0.18150596364003399 0 -0.28766219845576207 0.20444518539202841 0 -0.29072297729699148 0.19656778147151049 0 -0.27169949281025069 0.1890250345757592 0 -0.28766219845576207 0.20444518539202841 0 -0.29072297729699148 0.19656778147151049 0 -0.28766219845576207 0.20444518539202841 0 -0.29433363063784462 0.20530683177194181 0 -0.29072297729699148 0.19656778147151049 0 -0.28766219845576207 0.20444518539202841 0 -0.27169949281025069 0.1890250345757592 0 -0.27238218394387359 0.20457045738010091 0 -0.27169949281025069 0.1890250345757592 0 -0.25545390498132942 0.19952510780207949 0 -0.27238218394387359 0.20457045738010091 0 -0.28766219845576207 0.20444518539202841 0 -0.27169949281025069 0.1890250345757592 0 -0.25545390498132942 0.19952510780207949 0 -0.26183130113136183 0.22041917794430579 0 -0.24530879694021659 0.21591510619379961 0 -0.25545390498132942 0.19952510780207949 0 -0.27238218394387359 0.20457045738010091 0 -0.26183130113136183 0.22041917794430579 0 -0.28578255120047191 0.2092827582537394 0 -0.27238218394387359 0.20457045738010091 0 -0.26183130113136183 0.22041917794430579 0 -0.28578255120047191 0.2092827582537394 0 -0.26183130113136183 0.22041917794430579 0 -0.27891391491110529 0.22696029238513599 0 -0.26652809688752749 0.23270149710022359 0 -0.26183130113136183 0.22041917794430579 0 -0.28578255120047191 0.2092827582537394 0 -0.27891391491110529 0.22696029238513599 0 -0.26183130113136183 0.22041917794430579 0 -0.26183130113136183 0.22041917794430579 0 -0.25059828646462368 0.234254882215297 0 -0.23788005106225171 0.23155559763487199 0 -0.26652809688752749 0.23270149710022359 0 -0.26183130113136183 0.22041917794430579 0 -0.25059828646462368 0.234254882215297 0 -0.26652809688752749 0.23270149710022359 0 -0.25059828646462368 0.234254882215297 0 -0.26101456708527898 0.24463951382590729 0 -0.25059828646462368 0.234254882215297 0 -0.26101456708527898 0.24463951382590729 0 -0.25059828646462368 0.234254882215297 0 -0.26101456708527898 0.24463951382590729 0 -0.2458317757582171 0.2446418362568786 0 -0.26101456708527898 0.24463951382590729 0 -0.2562248113956862 0.25264095397355368 0 -0.2458317757582171 0.2446418362568786 0 -0.26101456708527898 0.24463951382590729 0 -0.2458317757582171 0.2446418362568786 0 -0.26101456708527898 0.24463951382590729 0 -0.26896489532231771 0.25256568564594778 0 -0.2562248113956862 0.25264095397355368 0 -0.26101456708527898 0.24463951382590729 0 -0.26896489532231771 0.25256568564594778 0 -0.272045278621739 0.24463782651653271 0 -0.27448136157065861 0.24963672867382861 0 -0.26896489532231771 0.25256568564594778 0 -0.26101456708527898 0.24463951382590729 0 -0.272045278621739 0.24463782651653271 0 -0.26101456708527898 0.24463951382590729 0 -0.272045278621739 0.24463782651653271 0 -0.26896489532231771 0.25256568564594778 0 -0.27891391491110529 0.22696029238513599 0 -0.272045278621739 0.24463782651653271 0 -0.272045278621739 0.24463782651653271 0 -0.26896489532231771 0.25256568564594778 0 -0.27891391491110529 0.22696029238513599 0 -0.26652809688752749 0.23270149710022359 0 -0.272045278621739 0.24463782651653271 0 -0.28926256587503468 0.23440115012053239 0 -0.27891391491110529 0.22696029238513599 0 -0.272045278621739 0.24463782651653271 0 -0.26652809688752749 0.23270149710022359 0 -0.26101456708527898 0.24463951382590729 0 -0.272045278621739 0.24463782651653271 0 -0.29767380758585049 0.13973473637452499 0 -0.2911058827000626 0.15729392406586759 0 -0.27985497594387299 0.14537465675298281 0 -0.2911058827000626 0.15729392406586759 0 -0.27998223580727982 0.1565827344505317 0 -0.27985497594387299 0.14537465675298281 0 -0.28475516892242819 0.13404525857474531 0 -0.29767380758585049 0.13973473637452499 0 -0.29291664873857848 0.1216601989624003 0 -0.28475516892242819 0.13404525857474531 0 -0.29767380758585049 0.13973473637452499 0 -0.27985497594387299 0.14537465675298281 0 -0.28475516892242819 0.13404525857474531 0 -0.27917847212057212 0.12518097984688031 0 -0.29291664873857848 0.1216601989624003 0 -0.29767380758585049 0.13973473637452499 0 -0.29291664873857848 0.1216601989624003 0 -0.30953615088753061 0.1169383712385309 0 -0.31596034659355637 0.1358718418535563 0 -0.29767380758585049 0.13973473637452499 0 -0.30953615088753061 0.1169383712385309 0 -0.31596034659355637 0.1358718418535563 0 -0.30875144127498588 0.15901683849301809 0 -0.31596034659355637 0.1358718418535563 0 -0.29767380758585049 0.13973473637452499 0 -0.30875144127498588 0.15901683849301809 0 -0.29767380758585049 0.13973473637452499 0 -0.30875144127498588 0.15901683849301809 0 -0.2911058827000626 0.15729392406586759 0 -0.32243660322326623 0.17229233238071759 0 -0.30875144127498588 0.15901683849301809 0 -0.30154253595641539 0.18216183513247999 0 -0.30875144127498588 0.15901683849301809 0 -0.2911058827000626 0.15729392406586759 0 -0.29370308939698458 0.16976735114365241 0 -0.30875144127498588 0.15901683849301809 0 -0.30154253595641539 0.18216183513247999 0 -0.30875144127498588 0.15901683849301809 0 -0.30154253595641539 0.18216183513247999 0 -0.29370308939698458 0.16976735114365241 0 -0.29072297729699148 0.19656778147151049 0 -0.30154253595641539 0.18216183513247999 0 -0.28752296336403921 0.18150596364003399 0 -0.30154253595641539 0.18216183513247999 0 -0.28752296336403921 0.18150596364003399 0 -0.29370308939698458 0.16976735114365241 0 -0.28752296336403921 0.18150596364003399 0 -0.29370308939698458 0.16976735114365241 0 -0.27959262368942001 0.1688581943868625 0 -0.2911058827000626 0.15729392406586759 0 -0.29370308939698458 0.16976735114365241 0 -0.27959262368942001 0.1688581943868625 0 -0.2911058827000626 0.15729392406586759 0 -0.27998223580727982 0.1565827344505317 0 -0.27959262368942001 0.1688581943868625 0 -0.27998223580727982 0.1565827344505317 0 -0.27959262368942001 0.1688581943868625 0 -0.2687112506178771 0.15783039269959731 0 -0.27959262368942001 0.1688581943868625 0 -0.26641721165673959 0.17024719215028669 0 -0.2687112506178771 0.15783039269959731 0 -0.27169949281025069 0.1890250345757592 0 -0.28752296336403921 0.18150596364003399 0 -0.27959262368942001 0.1688581943868625 0 -0.27169949281025069 0.1890250345757592 0 -0.27959262368942001 0.1688581943868625 0 -0.26641721165673959 0.17024719215028669 0 -0.27169949281025069 0.1890250345757592 0 -0.26641721165673959 0.17024719215028669 0 -0.25573678716474157 0.17360488375948779 0 -0.27169949281025069 0.1890250345757592 0 -0.25545390498132942 0.19952510780207949 0 -0.25573678716474157 0.17360488375948779 0 -0.25545390498132942 0.19952510780207949 0 -0.25573678716474157 0.17360488375948779 0 -0.2418993069338779 0.1889922423145152 0 -0.27169949281025069 0.1890250345757592 0 -0.25573678716474157 0.17360488375948779 0 -0.25573678716474157 0.17360488375948779 0 -0.25634590400140878 0.16191745532972679 0 -0.23977408151923521 0.15818473294321339 0 -0.26641721165673959 0.17024719215028669 0 -0.2687112506178771 0.15783039269959731 0 -0.25634590400140878 0.16191745532972679 0 -0.26641721165673959 0.17024719215028669 0 -0.25573678716474157 0.17360488375948779 0 -0.25634590400140878 0.16191745532972679 0 -0.25634590400140878 0.16191745532972679 0 -0.26106398264085962 0.14677362957853621 0 -0.24602255006612481 0.1470321805782657 0 -0.25634590400140878 0.16191745532972679 0 -0.24602255006612481 0.1470321805782657 0 -0.26106398264085962 0.14677362957853621 0 -0.25406439867483188 0.13267872147919099 0 -0.24602255006612481 0.1470321805782657 0 -0.2687112506178771 0.15783039269959731 0 -0.25634590400140878 0.16191745532972679 0 -0.26106398264085962 0.14677362957853621 0 -0.2687112506178771 0.15783039269959731 0 -0.26106398264085962 0.14677362957853621 0 -0.27155266879214918 0.14743811481270999 0 -0.27998223580727982 0.1565827344505317 0 -0.2687112506178771 0.15783039269959731 0 -0.27155266879214918 0.14743811481270999 0 -0.26106398264085962 0.14677362957853621 0 -0.27155266879214918 0.14743811481270999 0 -0.27088569607718532 0.13627100712188689 0 -0.27155266879214918 0.14743811481270999 0 -0.27985497594387299 0.14537465675298281 0 -0.27088569607718532 0.13627100712188689 0 -0.27998223580727982 0.1565827344505317 0 -0.27155266879214918 0.14743811481270999 0 -0.27985497594387299 0.14537465675298281 0 -0.27917847212057212 0.12518097984688031 0 -0.27088569607718532 0.13627100712188689 0 -0.27098584497965472 0.12688331599009051 0 -0.28475516892242819 0.13404525857474531 0 -0.27917847212057212 0.12518097984688031 0 -0.27088569607718532 0.13627100712188689 0 -0.28475516892242819 0.13404525857474531 0 -0.27985497594387299 0.14537465675298281 0 -0.27088569607718532 0.13627100712188689 0 -0.25406439867483188 0.13267872147919099 0 -0.26210624728353837 0.11832526238011599 0 -0.27098584497965472 0.12688331599009051 0 -0.25406439867483188 0.13267872147919099 0 -0.26587951610631222 0.1202544025608889 0 -0.27088569607718532 0.13627100712188689 0 -0.27098584497965472 0.12688331599009051 0 -0.25406439867483188 0.13267872147919099 0 -0.26106398264085962 0.14677362957853621 0 -0.27088569607718532 0.13627100712188689 0 -0.25406439867483188 0.13267872147919099 0 -0.25406439867483188 0.13267872147919099 0 -0.24602255006612481 0.1470321805782657 0 -0.25406439867483188 0.13267872147919099 0 -0.25441116082307419 0.1265357146924084 0 -0.26210624728353837 0.11832526238011599 0 -0.25441116082307419 0.1265357146924084 0 -0.26210624728353837 0.11832526238011599 0 -0.24365292380718279 0.1208865883448486 0 -0.26210624728353837 0.11832526238011599 0 -0.243468526753504 0.10879644870654499 0 -0.25406439867483188 0.13267872147919099 0 -0.26210624728353837 0.11832526238011599 0 -0.26587951610631222 0.1202544025608889 0 -0.26210624728353837 0.11832526238011599 0 -0.26587951610631222 0.1202544025608889 0 -0.26210624728353837 0.11832526238011599 0 -0.2537717784829327 0.095964561695398201 0 -0.243468526753504 0.10879644870654499 0 -0.26210624728353837 0.11832526238011599 0 -0.2537717784829327 0.095964561695398201 0 -0.27343204081487871 0.098110468229353806 0 -0.26210624728353837 0.11832526238011599 0 -0.27343204081487871 0.098110468229353806 0 -0.2766583535516377 0.1115707698530758 0 -0.27343204081487871 0.098110468229353806 0 -0.2766583535516377 0.1115707698530758 0 -0.2909389892298212 0.1031344083379727 0 -0.26210624728353837 0.11832526238011599 0 -0.27343204081487871 0.098110468229353806 0 -0.26587951610631222 0.1202544025608889 0 -0.2766583535516377 0.1115707698530758 0 -0.2734439129787426 0.1202479307515634 0 -0.27098584497965472 0.12688331599009051 0 -0.26587951610631222 0.1202544025608889 0 -0.2734439129787426 0.1202479307515634 0 -0.26210624728353837 0.11832526238011599 0 -0.26587951610631222 0.1202544025608889 0 -0.2766583535516377 0.1115707698530758 0 -0.27917847212057212 0.12518097984688031 0 -0.2766583535516377 0.1115707698530758 0 -0.2734439129787426 0.1202479307515634 0 -0.27917847212057212 0.12518097984688031 0 -0.27098584497965472 0.12688331599009051 0 -0.2734439129787426 0.1202479307515634 0 -0.2766583535516377 0.1115707698530758 0 -0.29291664873857848 0.1216601989624003 0 -0.2909389892298212 0.1031344083379727 0 -0.27917847212057212 0.12518097984688031 0 -0.2766583535516377 0.1115707698530758 0 -0.29291664873857848 0.1216601989624003 0 -0.2909389892298212 0.1031344083379727 0 -0.30953615088753061 0.1169383712385309 0 -0.3042604805298062 0.090629065205662218 0 -0.29291664873857848 0.1216601989624003 0 -0.2909389892298212 0.1031344083379727 0 -0.30953615088753061 0.1169383712385309 0 -0.30409957896834883 0.066561839665772671 0 -0.30580898911337939 0.05444206080702485 0 -0.31453643256296332 0.072509428267724343 0 -0.29815459711594622 0.074420561755107667 0 -0.30409957896834883 0.066561839665772671 0 -0.29571800362418538 0.058333462812900749 0 -0.29815459711594622 0.074420561755107667 0 -0.30409957896834883 0.066561839665772671 0 -0.3081712825220721 0.077424542203856972 0 -0.30409957896834883 0.066561839665772671 0 -0.3081712825220721 0.077424542203856972 0 -0.31453643256296332 0.072509428267724343 0 -0.3081712825220721 0.077424542203856972 0 -0.3042604805298062 0.090629065205662218 0 -0.31750345895412091 0.083635346863179028 0 -0.29815459711594622 0.074420561755107667 0 -0.3081712825220721 0.077424542203856972 0 -0.3042604805298062 0.090629065205662218 0 -0.2909389892298212 0.1031344083379727 0 -0.3042604805298062 0.090629065205662218 0 -0.28475783434621582 0.07789567407858991 0 -0.29815459711594622 0.074420561755107667 0 -0.3042604805298062 0.090629065205662218 0 -0.28475783434621582 0.07789567407858991 0 -0.3042604805298062 0.090629065205662218 0 -0.28475783434621582 0.07789567407858991 0 -0.27343204081487871 0.098110468229353806 0 -0.2909389892298212 0.1031344083379727 0 -0.28475783434621582 0.07789567407858991 0 -0.29815459711594622 0.074420561755107667 0 -0.28475783434621582 0.07789567407858991 0 -0.29571800362418538 0.058333462812900749 0 -0.28475783434621582 0.07789567407858991 0 -0.27933491237401881 0.055164007039347387 0 -0.29571800362418538 0.058333462812900749 0 -0.28475783434621582 0.07789567407858991 0 -0.29571800362418538 0.058333462812900749 0 -0.28475783434621582 0.07789567407858991 0 -0.26831210480595608 0.067158161607981451 0 -0.2629584421153387 0.081938788083593408 0 -0.28475783434621582 0.07789567407858991 0 -0.26831210480595608 0.067158161607981451 0 -0.28475783434621582 0.07789567407858991 0 -0.26831210480595608 0.067158161607981451 0 -0.27933491237401881 0.055164007039347387 0 -0.27343204081487871 0.098110468229353806 0 -0.28475783434621582 0.07789567407858991 0 -0.2629584421153387 0.081938788083593408 0 -0.27343204081487871 0.098110468229353806 0 -0.28475783434621582 0.07789567407858991 0 -0.2537717784829327 0.095964561695398201 0 -0.27343204081487871 0.098110468229353806 0 -0.2629584421153387 0.081938788083593408 0 -0.2537717784829327 0.095964561695398201 0 -0.2629584421153387 0.081938788083593408 0 -0.24683542196520969 0.082089144996896957 0 -0.26831210480595608 0.067158161607981451 0 -0.2629584421153387 0.081938788083593408 0 -0.25037345346053019 0.069816026369570752 0 -0.26831210480595608 0.067158161607981451 0 -0.25037345346053019 0.069816026369570752 0 -0.25186637526569661 0.056420649137372901 0 -0.2629584421153387 0.081938788083593408 0 -0.25037345346053019 0.069816026369570752 0 -0.24683542196520969 0.082089144996896957 0 -0.26831210480595608 0.067158161607981451 0 -0.25186637526569661 0.056420649137372901 0 -0.26831210480595608 0.067158161607981451 0 -0.25186637526569661 0.056420649137372901 0 -0.26307015112956111 0.050219685488485953 0 -0.25186637526569661 0.056420649137372901 0 -0.26307015112956111 0.050219685488485953 0 -0.2501356657824777 0.046148780166555312 0 -0.26307015112956111 0.050219685488485953 0 -0.2501356657824777 0.046148780166555312 0 -0.25427837431537742 0.035743851304136709 0 -0.26307015112956111 0.050219685488485953 0 -0.25427837431537742 0.035743851304136709 0 -0.27412760529025232 0.040288041924334557 0 -0.27412760529025232 0.040288041924334557 0 -0.27933491237401881 0.055164007039347387 0 -0.29002377504794102 0.037089016323790802 0 -0.25427837431537742 0.035743851304136709 0 -0.27412760529025232 0.040288041924334557 0 -0.27106777196120319 0.025701165967161071 0 -0.26307015112956111 0.050219685488485953 0 -0.27412760529025232 0.040288041924334557 0 -0.27933491237401881 0.055164007039347387 0 -0.26831210480595608 0.067158161607981451 0 -0.26307015112956111 0.050219685488485953 0 -0.27933491237401881 0.055164007039347387 0 -0.25953907979982299 0.01698571796916977 0 -0.2678291607578675 0.0073283628669539892 0 -0.24860392296443271 0.0047567696316496919 0 -0.26976557738737422 -0.0052509948471027579 0 -0.2678291607578675 0.0073283628669539892 0 -0.24860392296443271 0.0047567696316496919 0 -0.25427837431537742 0.035743851304136709 0 -0.25953907979982299 0.01698571796916977 0 -0.27106777196120319 0.025701165967161071 0 -0.25427837431537742 0.035743851304136709 0 -0.25953907979982299 0.01698571796916977 0 -0.23964577810993001 0.021412851421280341 0 -0.25953907979982299 0.01698571796916977 0 -0.27106777196120319 0.025701165967161071 0 -0.279432381489716 0.012558584517059211 0 -0.27412760529025232 0.040288041924334557 0 -0.27106777196120319 0.025701165967161071 0 -0.28269374005944919 0.026311675249724071 0 -0.27106777196120319 0.025701165967161071 0 -0.279432381489716 0.012558584517059211 0 -0.28269374005944919 0.026311675249724071 0 -0.25953907979982299 0.01698571796916977 0 -0.279432381489716 0.012558584517059211 0 -0.2678291607578675 0.0073283628669539892 0 -0.279432381489716 0.012558584517059211 0 -0.28527998823394418 0.0024290452339454649 0 -0.25953907979982299 0.01698571796916977 0 -0.2678291607578675 0.0073283628669539892 0 -0.279432381489716 0.012558584517059211 0 -0.26976557738737422 -0.0052509948471027579 0 -0.2678291607578675 0.0073283628669539892 0 -0.28527998823394418 0.0024290452339454649 0 -0.28527998823394418 0.0024290452339454649 0 -0.29597908056804889 0.020600148390578041 0 -0.28527998823394418 0.0024290452339454649 0 -0.29597908056804889 0.020600148390578041 0 -0.29864240468027509 0.0057494155618949307 0 -0.279432381489716 0.012558584517059211 0 -0.28527998823394418 0.0024290452339454649 0 -0.29597908056804889 0.020600148390578041 0 -0.2972404981886525 -0.004056826750551662 0 -0.28527998823394418 0.0024290452339454649 0 -0.29864240468027509 0.0057494155618949307 0 -0.29597908056804889 0.020600148390578041 0 -0.28269374005944919 0.026311675249724071 0 -0.29002377504794102 0.037089016323790802 0 -0.279432381489716 0.012558584517059211 0 -0.29597908056804889 0.020600148390578041 0 -0.28269374005944919 0.026311675249724071 0 -0.30747969686334559 0.022148407693098199 0 -0.30667817290215338 0.038771251547210631 0 -0.31831661925849258 0.01799842033877461 0 -0.30667817290215338 0.038771251547210631 0 -0.31831661925849258 0.01799842033877461 0 -0.29597908056804889 0.020600148390578041 0 -0.30747969686334559 0.022148407693098199 0 -0.30667817290215338 0.038771251547210631 0 -0.29597908056804889 0.020600148390578041 0 -0.30667817290215338 0.038771251547210631 0 -0.30747969686334559 0.022148407693098199 0 -0.30909432816049692 0.01065692180946513 0 -0.31831661925849258 0.01799842033877461 0 -0.29597908056804889 0.020600148390578041 0 -0.30747969686334559 0.022148407693098199 0 -0.30909432816049692 0.01065692180946513 0 -0.29597908056804889 0.020600148390578041 0 -0.30909432816049692 0.01065692180946513 0 -0.29864240468027509 0.0057494155618949307 0 -0.30779985458359332 -0.00074477798804285236 0 -0.30909432816049692 0.01065692180946513 0 -0.31694133288297072 0.0035041363377617449 0 -0.30779985458359332 -0.00074477798804285236 0 -0.30909432816049692 0.01065692180946513 0 -0.29864240468027509 0.0057494155618949307 0 -0.30779985458359332 -0.00074477798804285236 0 -0.2972404981886525 -0.004056826750551662 0 -0.29864240468027509 0.0057494155618949307 0 -0.27933491237401881 0.055164007039347387 0 -0.29571800362418538 0.058333462812900749 0 -0.29002377504794102 0.037089016323790802 0 -0.27412760529025232 0.040288041924334557 0 -0.28269374005944919 0.026311675249724071 0 -0.29002377504794102 0.037089016323790802 0 -0.29571800362418538 0.058333462812900749 0 -0.29002377504794102 0.037089016323790802 0 -0.30667817290215338 0.038771251547210631 0 -0.29597908056804889 0.020600148390578041 0 -0.29002377504794102 0.037089016323790802 0 -0.30667817290215338 0.038771251547210631 0 -0.29571800362418538 0.058333462812900749 0 -0.30667817290215338 0.038771251547210631 0 -0.30580898911337939 0.05444206080702485 0 -0.29571800362418538 0.058333462812900749 0 -0.30667817290215338 0.038771251547210631 0 -0.30667817290215338 0.038771251547210631 0 -0.30580898911337939 0.05444206080702485 0 -0.32005770385020249 0.061494752705283047 0 -0.30409957896834883 0.066561839665772671 0 -0.29571800362418538 0.058333462812900749 0 -0.30580898911337939 0.05444206080702485 0 -0.30667817290215338 0.038771251547210631 0 -0.32005770385020249 0.061494752705283047 0 -0.328733528922727 0.046299029128039682 0 -0.30667817290215338 0.038771251547210631 0 -0.32005770385020249 0.061494752705283047 0 -0.30580898911337939 0.05444206080702485 0 -0.31719070241124259 0.062283146290304472 0 -0.32005770385020249 0.061494752705283047 0 -0.31719070241124259 0.062283146290304472 0 -0.32005770385020249 0.061494752705283047 0 -0.30667817290215338 0.038771251547210631 0 -0.328733528922727 0.046299029128039682 0 -0.32678615961130969 0.030848632977574741 0 -0.328733528922727 0.046299029128039682 0 -0.34105842827855959 0.035498094385926937 0 -0.34441267301206291 0.054797406415283342 0 -0.328733528922727 0.046299029128039682 0 -0.34105842827855959 0.035498094385926937 0 -0.32678615961130969 0.030848632977574741 0 -0.32005770385020249 0.061494752705283047 0 -0.34441267301206291 0.054797406415283342 0 -0.33943062238907928 0.069649426709327264 0 -0.32005770385020249 0.061494752705283047 0 -0.328733528922727 0.046299029128039682 0 -0.34441267301206291 0.054797406415283342 0 -0.32005770385020249 0.061494752705283047 0 -0.34441267301206291 0.054797406415283342 0 -0.33007213335467039 -0.0027629659657771081 0 -0.31831661925849258 0.01799842033877461 0 -0.32894095329293871 0.0088076592239291519 0 -0.33007213335467039 -0.0027629659657771081 0 -0.31694133288297072 0.0035041363377617449 0 -0.31831661925849258 0.01799842033877461 0 -0.33007213335467039 -0.0027629659657771081 0 -0.31831661925849258 0.01799842033877461 0 -0.30909432816049692 0.01065692180946513 0 -0.31694133288297072 0.0035041363377617449 0 -0.31831661925849258 0.01799842033877461 0 -0.30667817290215338 0.038771251547210631 0 -0.31831661925849258 0.01799842033877461 0 -0.32678615961130969 0.030848632977574741 0 -0.31831661925849258 0.01799842033877461 0 -0.32678615961130969 0.030848632977574741 0 -0.32894095329293871 0.0088076592239291519 0 -0.32678615961130969 0.030848632977574741 0 -0.32894095329293871 0.0088076592239291519 0 -0.32678615961130969 0.030848632977574741 0 -0.33730278358275201 0.021411280645692421 0 -0.32894095329293871 0.0088076592239291519 0 -0.34105842827855959 0.035498094385926937 0 -0.32678615961130969 0.030848632977574741 0 -0.33730278358275201 0.021411280645692421 0 -0.34105842827855959 0.035498094385926937 0 -0.33730278358275201 0.021411280645692421 0 -0.34695595696654791 0.02169467815398355 0 -0.33730278358275201 0.021411280645692421 0 -0.34277241976440398 0.01020733848704773 0 -0.34695595696654791 0.02169467815398355 0 -0.33730278358275201 0.021411280645692421 0 -0.32894095329293871 0.0088076592239291519 0 -0.34277241976440398 0.01020733848704773 0 -0.34951862856677279 -0.00030642019435179948 0 -0.33881477357547979 -0.001256556137510032 0 -0.34277241976440398 0.01020733848704773 0 -0.33881477357547979 -0.001256556137510032 0 -0.32894095329293871 0.0088076592239291519 0 -0.34277241976440398 0.01020733848704773 0 -0.33007213335467039 -0.0027629659657771081 0 -0.32894095329293871 0.0088076592239291519 0 -0.33881477357547979 -0.001256556137510032 0 -0.33007213335467039 -0.0027629659657771081 0 -0.32894095329293871 0.0088076592239291519 0 -0.36197407125321268 -0.004390766724155332 0 -0.34951862856677279 -0.00030642019435179948 0 -0.35831030833044958 0.011867426353667219 0 -0.34951862856677279 -0.00030642019435179948 0 -0.34277241976440398 0.01020733848704773 0 -0.35831030833044958 0.011867426353667219 0 -0.34277241976440398 0.01020733848704773 0 -0.35831030833044958 0.011867426353667219 0 -0.34695595696654791 0.02169467815398355 0 -0.35831030833044958 0.011867426353667219 0 -0.34695595696654791 0.02169467815398355 0 -0.35785718498379948 0.024083371206641731 0 -0.34105842827855959 0.035498094385926937 0 -0.34695595696654791 0.02169467815398355 0 -0.35604176260023063 0.036400777554581022 0 -0.34695595696654791 0.02169467815398355 0 -0.35785718498379948 0.024083371206641731 0 -0.35604176260023063 0.036400777554581022 0 -0.35785718498379948 0.024083371206641731 0 -0.37012071203797009 0.02637060276433513 0 -0.35604176260023063 0.036400777554581022 0 -0.35831030833044958 0.011867426353667219 0 -0.35785718498379948 0.024083371206641731 0 -0.37012071203797009 0.02637060276433513 0 -0.36197407125321268 -0.004390766724155332 0 -0.35831030833044958 0.011867426353667219 0 -0.37147378190201819 0.0046411454033882336 0 -0.381363295698458 0.01387110441200177 0 -0.37012071203797009 0.02637060276433513 0 -0.37147378190201819 0.0046411454033882336 0 -0.35831030833044958 0.011867426353667219 0 -0.37012071203797009 0.02637060276433513 0 -0.37147378190201819 0.0046411454033882336 0 -0.37012071203797009 0.02637060276433513 0 -0.37147378190201819 0.0046411454033882336 0 -0.34441267301206291 0.054797406415283342 0 -0.36876764217392288 0.048100060125282167 0 -0.34441267301206291 0.054797406415283342 0 -0.35604176260023063 0.036400777554581022 0 -0.36876764217392288 0.048100060125282167 0 -0.34105842827855959 0.035498094385926937 0 -0.34441267301206291 0.054797406415283342 0 -0.35604176260023063 0.036400777554581022 0 -0.37012071203797009 0.02637060276433513 0 -0.35604176260023063 0.036400777554581022 0 -0.36876764217392288 0.048100060125282167 0 -0.3836259417677727 0.0302762137817486 0 -0.37012071203797009 0.02637060276433513 0 -0.36876764217392288 0.048100060125282167 0 -0.37012071203797009 0.02637060276433513 0 -0.36876764217392288 0.048100060125282167 0 -0.34441267301206291 0.054797406415283342 0 -0.36876764217392288 0.048100060125282167 0 -0.36778124684691488 0.063940953318418564 0 -0.38641379350252542 0.053627327917174783 0 -0.36876764217392288 0.048100060125282167 0 -0.36778124684691488 0.063940953318418564 0 -0.36876764217392288 0.048100060125282167 0 -0.36778124684691488 0.063940953318418564 0 -0.36778124684691488 0.063940953318418564 0 -0.36300709166543138 0.074068295298519549 0 -0.35170112872637049 0.072841739548470369 0 -0.36778124684691488 0.063940953318418564 0 -0.35170112872637049 0.072841739548470369 0 -0.37205637473515563 0.069182155195043907 0 -0.36778124684691488 0.063940953318418564 0 -0.36300709166543138 0.074068295298519549 0 -0.3760816295596035 0.064207970313993334 0 -0.37205637473515563 0.069182155195043907 0 -0.36778124684691488 0.063940953318418564 0 -0.37205637473515563 0.069182155195043907 0 -0.37188823341085492 0.075108573494756664 0 -0.36300709166543138 0.074068295298519549 0 -0.37987154503301312 0.075620863096035051 0 -0.37205637473515563 0.069182155195043907 0 -0.37188823341085492 0.075108573494756664 0 -0.34441267301206291 0.054797406415283342 0 -0.35170112872637049 0.072841739548470369 0 -0.33943062238907928 0.069649426709327264 0 -0.34441267301206291 0.054797406415283342 0 -0.36778124684691488 0.063940953318418564 0 -0.35170112872637049 0.072841739548470369 0 -0.36300709166543138 0.074068295298519549 0 -0.35170112872637049 0.072841739548470369 0 -0.35586657242461123 0.084255777963141376 0 -0.35586657242461123 0.084255777963141376 0 -0.35471759228997529 0.099230288541453701 0 -0.33562101060582572 0.081742525778521535 0 -0.35170112872637049 0.072841739548470369 0 -0.35586657242461123 0.084255777963141376 0 -0.33562101060582572 0.081742525778521535 0 -0.35471759228997529 0.099230288541453701 0 -0.33562101060582572 0.081742525778521535 0 -0.35586657242461123 0.084255777963141376 0 -0.37313865407702163 0.08644003925618568 0 -0.35471759228997529 0.099230288541453701 0 -0.36300709166543138 0.074068295298519549 0 -0.35586657242461123 0.084255777963141376 0 -0.37313865407702163 0.08644003925618568 0 -0.37188823341085492 0.075108573494756664 0 -0.36300709166543138 0.074068295298519549 0 -0.37313865407702163 0.08644003925618568 0 -0.37987154503301312 0.075620863096035051 0 -0.37188823341085492 0.075108573494756664 0 -0.37313865407702163 0.08644003925618568 0 -0.38054751812655152 0.1014212848729293 0 -0.37381417397412392 0.1167180513043872 0 -0.35471759228997529 0.099230288541453701 0 -0.37381417397412392 0.1167180513043872 0 -0.35471759228997529 0.099230288541453701 0 -0.38054751812655152 0.1014212848729293 0 -0.37313865407702163 0.08644003925618568 0 -0.35471759228997529 0.099230288541453701 0 -0.37381417397412392 0.1167180513043872 0 -0.35560492087798778 0.1181017583417612 0 -0.35471759228997529 0.099230288541453701 0 -0.36577969738975791 0.13884561860793179 0 -0.37381417397412392 0.1167180513043872 0 -0.35560492087798778 0.1181017583417612 0 -0.34022053869913887 0.13033972171057889 0 -0.35560492087798778 0.1181017583417612 0 -0.34033881414232853 0.11015872796472689 0 -0.35471759228997529 0.099230288541453701 0 -0.34033881414232853 0.11015872796472689 0 -0.33874212917847318 0.093227969828773266 0 -0.35560492087798778 0.1181017583417612 0 -0.35471759228997529 0.099230288541453701 0 -0.34033881414232853 0.11015872796472689 0 -0.34033881414232853 0.11015872796472689 0 -0.3237631267133968 0.1033624563327344 0 -0.33874212917847318 0.093227969828773266 0 -0.3237631267133968 0.1033624563327344 0 -0.32386274101498841 0.092426156434647355 0 -0.33874212917847318 0.093227969828773266 0 -0.34022053869913887 0.13033972171057889 0 -0.34033881414232853 0.11015872796472689 0 -0.32596379540719028 0.1193342238200255 0 -0.34033881414232853 0.11015872796472689 0 -0.32596379540719028 0.1193342238200255 0 -0.3237631267133968 0.1033624563327344 0 -0.30953615088753061 0.1169383712385309 0 -0.32596379540719028 0.1193342238200255 0 -0.3237631267133968 0.1033624563327344 0 -0.31596034659355637 0.1358718418535563 0 -0.30953615088753061 0.1169383712385309 0 -0.32596379540719028 0.1193342238200255 0 -0.3042604805298062 0.090629065205662218 0 -0.3237631267133968 0.1033624563327344 0 -0.3042604805298062 0.090629065205662218 0 -0.3237631267133968 0.1033624563327344 0 -0.32386274101498841 0.092426156434647355 0 -0.30953615088753061 0.1169383712385309 0 -0.3042604805298062 0.090629065205662218 0 -0.3237631267133968 0.1033624563327344 0 -0.3042604805298062 0.090629065205662218 0 -0.32386274101498841 0.092426156434647355 0 -0.31750345895412091 0.083635346863179028 0 -0.32386274101498841 0.092426156434647355 0 -0.3258147797806592 0.086850656274454388 0 -0.31750345895412091 0.083635346863179028 0 -0.3258147797806592 0.086850656274454388 0 -0.32421297667858839 0.080778391475094413 0 -0.31750345895412091 0.083635346863179028 0 -0.32421297667858839 0.080778391475094413 0 -0.32771861893853588 0.074505882434539386 0 -0.33111290182085679 0.084237887584699439 0 -0.3258147797806592 0.086850656274454388 0 -0.32421297667858839 0.080778391475094413 0 -0.33111290182085679 0.084237887584699439 0 -0.32421297667858839 0.080778391475094413 0 -0.31750345895412091 0.083635346863179028 0 -0.31453643256296332 0.072509428267724343 0 -0.30580898911337939 0.05444206080702485 0 -0.31453643256296332 0.072509428267724343 0 -0.32771861893853588 0.074505882434539386 0 -0.30580898911337939 0.05444206080702485 0 -0.31719070241124259 0.062283146290304472 0 -0.32771861893853588 0.074505882434539386 0 -0.3081712825220721 0.077424542203856972 0 -0.31750345895412091 0.083635346863179028 0 -0.31453643256296332 0.072509428267724343 0 -0.30580898911337939 0.05444206080702485 0 -0.32771861893853588 0.074505882434539386 0 -0.31719070241124259 0.062283146290304472 0 -0.32005770385020249 0.061494752705283047 0 -0.32771861893853588 0.074505882434539386 0 -0.32005770385020249 0.061494752705283047 0 -0.32771861893853588 0.074505882434539386 0 -0.32421297667858839 0.080778391475094413 0 -0.31453643256296332 0.072509428267724343 0 -0.32771861893853588 0.074505882434539386 0 -0.35170112872637049 0.072841739548470369 0 -0.33562101060582572 0.081742525778521535 0 -0.32005770385020249 0.061494752705283047 0 -0.32771861893853588 0.074505882434539386 0 -0.33943062238907928 0.069649426709327264 0 -0.32771861893853588 0.074505882434539386 0 -0.33562101060582572 0.081742525778521535 0 -0.35170112872637049 0.072841739548470369 0 -0.33943062238907928 0.069649426709327264 0 -0.33562101060582572 0.081742525778521535 0 -0.32771861893853588 0.074505882434539386 0 -0.33943062238907928 0.069649426709327264 0 -0.33562101060582572 0.081742525778521535 0 -0.35471759228997529 0.099230288541453701 0 -0.33874212917847318 0.093227969828773266 0 -0.33562101060582572 0.081742525778521535 0 -0.33874212917847318 0.093227969828773266 0 -0.33287462311385652 0.083262726549915178 0 -0.3258147797806592 0.086850656274454388 0 -0.33874212917847318 0.093227969828773266 0 -0.33111290182085679 0.084237887584699439 0 -0.32386274101498841 0.092426156434647355 0 -0.3258147797806592 0.086850656274454388 0 -0.33874212917847318 0.093227969828773266 0 -0.33874212917847318 0.093227969828773266 0 -0.33111290182085679 0.084237887584699439 0 -0.33287462311385652 0.083262726549915178 0 -0.33874212917847318 0.093227969828773266 0 -0.33562101060582572 0.081742525778521535 0 -0.33287462311385652 0.083262726549915178 0 -0.32771861893853588 0.074505882434539386 0 -0.33562101060582572 0.081742525778521535 0 -0.33287462311385652 0.083262726549915178 0 -0.32771861893853588 0.074505882434539386 0 -0.33111290182085679 0.084237887584699439 0 -0.33287462311385652 0.083262726549915178 0 -0.32771861893853588 0.074505882434539386 0 -0.33287462311385652 0.083262726549915178 0 -0.33111290182085679 0.084237887584699439 0 -0.33287462311385652 0.083262726549915178 0 -0.33562101060582572 0.081742525778521535 0 -0.33287462311385652 0.083262726549915178 0 -0.39222255982279819 0.48231034484248791 0 -0.4100056195322978 0.46876680421336581 0 -0.40698816055146741 0.5 0 -0.39222255982279819 0.48231034484248791 0 -0.39060898701769092 0.4625918504835716 0 -0.4100056195322978 0.46876680421336581 0 -0.39222255982279819 0.48231034484248791 0 -0.38023750520401478 0.5 0 -0.40698816055146741 0.5 0 -0.39222255982279819 0.48231034484248791 0 -0.38023750520401478 0.5 0 -0.3732725268085203 0.48019306951550211 0 -0.39222255982279819 0.48231034484248791 0 -0.39060898701769092 0.4625918504835716 0 -0.3732725268085203 0.48019306951550211 0 -0.39060898701769092 0.4625918504835716 0 -0.37053214896882142 0.45923328227207161 0 -0.3732725268085203 0.48019306951550211 0 -0.39060898701769092 0.4625918504835716 0 -0.39302479441777022 0.44237989162062302 0 -0.37053214896882142 0.45923328227207161 0 -0.39302479441777022 0.44237989162062302 0 -0.37072554411125602 0.44147586445686993 0 -0.37053214896882142 0.45923328227207161 0 -0.39302479441777022 0.44237989162062302 0 -0.37053214896882142 0.45923328227207161 0 -0.39302479441777022 0.44237989162062302 0 -0.38482884097687969 0.43012740432301882 0 -0.37072554411125602 0.44147586445686993 0 -0.39302479441777022 0.44237989162062302 0 -0.40248986165694661 0.45401238571375158 0 -0.41210729628047449 0.44463841792083691 0 -0.39060898701769092 0.4625918504835716 0 -0.39302479441777022 0.44237989162062302 0 -0.40248986165694661 0.45401238571375158 0 -0.39060898701769092 0.4625918504835716 0 -0.40248986165694661 0.45401238571375158 0 -0.4100056195322978 0.46876680421336581 0 -0.40248986165694661 0.45401238571375158 0 -0.42150245951537912 0.45899091928433888 0 -0.4100056195322978 0.46876680421336581 0 -0.41210729628047449 0.44463841792083691 0 -0.43022626038476153 0.44477215353320593 0 -0.41551743986671907 0.42552650096917433 0 -0.42150245951537912 0.45899091928433888 0 -0.41210729628047449 0.44463841792083691 0 -0.43022626038476153 0.44477215353320593 0 -0.40248986165694661 0.45401238571375158 0 -0.42150245951537912 0.45899091928433888 0 -0.41210729628047449 0.44463841792083691 0 -0.39302479441777022 0.44237989162062302 0 -0.41210729628047449 0.44463841792083691 0 -0.41551743986671907 0.42552650096917433 0 -0.42150245951537912 0.45899091928433888 0 -0.42916403599628522 0.47857881866423108 0 -0.4450216832415092 0.46317693566064178 0 -0.42150245951537912 0.45899091928433888 0 -0.43022626038476153 0.44477215353320593 0 -0.4450216832415092 0.46317693566064178 0 -0.42150245951537912 0.45899091928433888 0 -0.42916403599628522 0.47857881866423108 0 -0.4100056195322978 0.46876680421336581 0 -0.42916403599628522 0.47857881866423108 0 -0.4100056195322978 0.46876680421336581 0 -0.40698816055146741 0.5 0 -0.42916403599628522 0.47857881866423108 0 -0.40698816055146741 0.5 0 -0.43373881589891983 0.50000000000000211 0 -0.43373881589891983 0.50000000000000211 0 -0.45692307754428862 0.48272217629666297 0 -0.47256631961575951 0.48498041557885913 0 -0.43373881589891983 0.50000000000000211 0 -0.45692307754428862 0.48272217629666297 0 -0.43373881589891983 0.50000000000000211 0 -0.5 0.5 0 -0.47256631961575951 0.48498041557885913 0 -0.42916403599628522 0.47857881866423108 0 -0.43373881589891983 0.50000000000000211 0 -0.45692307754428862 0.48272217629666297 0 -0.42916403599628522 0.47857881866423108 0 -0.45692307754428862 0.48272217629666297 0 -0.4450216832415092 0.46317693566064178 0 -0.45692307754428862 0.48272217629666297 0 -0.48010733918965642 0.46544435259332262 0 -0.45692307754428862 0.48272217629666297 0 -0.45987513576153882 0.46793528741219559 0 -0.4450216832415092 0.46317693566064178 0 -0.45692307754428862 0.48272217629666297 0 -0.48010733918965642 0.46544435259332262 0 -0.45987513576153882 0.46793528741219559 0 -0.5 0.5 0 -0.47256631961575951 0.48498041557885913 0 -0.48303903788037222 0.46872643200312092 0 -0.5 0.5 0 -0.49999999999999889 0.45872665708270183 0 -0.48303903788037222 0.46872643200312092 0 -0.47256631961575951 0.48498041557885913 0 -0.48010733918965642 0.46544435259332262 0 -0.48303903788037222 0.46872643200312092 0 -0.47256631961575951 0.48498041557885913 0 -0.48303903788037222 0.46872643200312092 0 -0.45692307754428862 0.48272217629666297 0 -0.47256631961575951 0.48498041557885913 0 -0.48010733918965642 0.46544435259332262 0 -0.4971535693504826 0.44682024137546661 0 -0.4935117561449866 0.45247244842738371 0 -0.48125489555111561 0.44779737943753189 0 -0.4971535693504826 0.44682024137546661 0 -0.48125489555111561 0.44779737943753189 0 -0.47990452504965742 0.43684161472961319 0 -0.50000000000000022 0.44240249272054832 0 -0.4971535693504826 0.44682024137546661 0 -0.50000000000000022 0.44240249272054832 0 -0.4971535693504826 0.44682024137546661 0 -0.50000000000000067 0.45104012796767962 0 -0.4971535693504826 0.44682024137546661 0 -0.49825452328199332 0.45142545288317432 0 -0.4935117561449866 0.45247244842738371 0 -0.49825452328199332 0.45142545288317432 0 -0.4971535693504826 0.44682024137546661 0 -0.4935117561449866 0.45247244842738371 0 -0.4971535693504826 0.44682024137546661 0 -0.4935117561449866 0.45247244842738371 0 -0.49825452328199332 0.45142545288317432 0 -0.4971535693504826 0.44682024137546661 0 -0.50000000000000067 0.45104012796767962 0 -0.49825452328199332 0.45142545288317432 0 -0.50000000000000067 0.45104012796767962 0 -0.49825452328199332 0.45142545288317432 0 -0.4935117561449866 0.45247244842738371 0 -0.48010733918965642 0.46544435259332262 0 -0.48303903788037222 0.46872643200312092 0 -0.4935117561449866 0.45247244842738371 0 -0.48303903788037222 0.46872643200312092 0 -0.50000000000000067 0.45104012796767962 0 -0.49825452328199332 0.45142545288317432 0 -0.49999999999999889 0.45872665708270183 0 -0.4935117561449866 0.45247244842738371 0 -0.49999999999999889 0.45872665708270183 0 -0.48303903788037222 0.46872643200312092 0 -0.49825452328199332 0.45142545288317432 0 -0.49999999999999889 0.45872665708270183 0 -0.4935117561449866 0.45247244842738371 0 -0.49825452328199332 0.45142545288317432 0 -0.49999999999999889 0.45872665708270183 0 -0.48010733918965642 0.46544435259332262 0 -0.46926671969324801 0.45782469204401338 0 -0.45987513576153882 0.46793528741219559 0 -0.4935117561449866 0.45247244842738371 0 -0.46926671969324801 0.45782469204401338 0 -0.4935117561449866 0.45247244842738371 0 -0.48010733918965642 0.46544435259332262 0 -0.46926671969324801 0.45782469204401338 0 -0.46926671969324801 0.45782469204401338 0 -0.48125489555111561 0.44779737943753189 0 -0.46569600116130561 0.44498390485468831 0 -0.4935117561449866 0.45247244842738371 0 -0.46926671969324801 0.45782469204401338 0 -0.48125489555111561 0.44779737943753189 0 -0.48125489555111561 0.44779737943753189 0 -0.46569600116130561 0.44498390485468831 0 -0.47990452504965742 0.43684161472961319 0 -0.46569600116130561 0.44498390485468831 0 -0.4450216832415092 0.46317693566064178 0 -0.45258753625257298 0.43912476401541078 0 -0.46926671969324801 0.45782469204401338 0 -0.4450216832415092 0.46317693566064178 0 -0.46926671969324801 0.45782469204401338 0 -0.46569600116130561 0.44498390485468831 0 -0.4450216832415092 0.46317693566064178 0 -0.46926671969324801 0.45782469204401338 0 -0.45987513576153882 0.46793528741219559 0 -0.4450216832415092 0.46317693566064178 0 -0.43022626038476153 0.44477215353320593 0 -0.4450216832415092 0.46317693566064178 0 -0.45258753625257298 0.43912476401541078 0 -0.43022626038476153 0.44477215353320593 0 -0.45258753625257298 0.43912476401541078 0 -0.4389456074442335 0.43057578537697883 0 -0.4389456074442335 0.43057578537697883 0 -0.44833356540295788 0.41917497376007129 0 -0.43011943378155088 0.41721309474357637 0 -0.45258753625257298 0.43912476401541078 0 -0.4389456074442335 0.43057578537697883 0 -0.44833356540295788 0.41917497376007129 0 -0.44833356540295788 0.41917497376007129 0 -0.43905262901781139 0.40172325547053911 0 -0.43011943378155088 0.41721309474357637 0 -0.44833356540295788 0.41917497376007129 0 -0.46208538633062618 0.39901554017001212 0 -0.43905262901781139 0.40172325547053911 0 -0.44833356540295788 0.41917497376007129 0 -0.46614064717973069 0.42513804324091908 0 -0.46208538633062618 0.39901554017001212 0 -0.46569600116130561 0.44498390485468831 0 -0.45258753625257298 0.43912476401541078 0 -0.46614064717973069 0.42513804324091908 0 -0.45258753625257298 0.43912476401541078 0 -0.44833356540295788 0.41917497376007129 0 -0.46614064717973069 0.42513804324091908 0 -0.46614064717973069 0.42513804324091908 0 -0.47990452504965742 0.43684161472961319 0 -0.49059772067879598 0.41939759553926748 0 -0.46569600116130561 0.44498390485468831 0 -0.46614064717973069 0.42513804324091908 0 -0.47990452504965742 0.43684161472961319 0 -0.46614064717973069 0.42513804324091908 0 -0.49059772067879598 0.41939759553926748 0 -0.46208538633062618 0.39901554017001212 0 -0.5 0.41266914273783251 0 -0.49059772067879598 0.41939759553926748 0 -0.48404187200710641 0.39197494970306901 0 -0.4971535693504826 0.44682024137546661 0 -0.49059772067879598 0.41939759553926748 0 -0.4971535693504826 0.44682024137546661 0 -0.47990452504965742 0.43684161472961319 0 -0.49059772067879598 0.41939759553926748 0 -0.50000000000000022 0.44240249272054832 0 -0.4971535693504826 0.44682024137546661 0 -0.49059772067879598 0.41939759553926748 0 -0.50000000000000022 0.44240249272054832 0 -0.5 0.41266914273783251 0 -0.49059772067879598 0.41939759553926748 0 -0.5 0.38293579275511669 0 -0.48404187200710641 0.39197494970306901 0 -0.47748602333541662 0.36455230386687049 0 -0.49059772067879598 0.41939759553926748 0 -0.48404187200710641 0.39197494970306901 0 -0.5 0.41266914273783251 0 -0.5 0.38293579275511669 0 -0.48404187200710641 0.39197494970306901 0 -0.49059772067879598 0.41939759553926748 0 -0.48404187200710641 0.39197494970306901 0 -0.46208538633062618 0.39901554017001212 0 -0.48404187200710641 0.39197494970306901 0 -0.47748602333541662 0.36455230386687049 0 -0.48404187200710641 0.39197494970306901 0 -0.4617664306710681 0.37985904627991041 0 -0.47748602333541662 0.36455230386687049 0 -0.48404187200710641 0.39197494970306901 0 -0.4617664306710681 0.37985904627991041 0 -0.46208538633062618 0.39901554017001212 0 -0.4617664306710681 0.37985904627991041 0 -0.46208538633062618 0.39901554017001212 0 -0.44379947279063803 0.38277421916731103 0 -0.46208538633062618 0.39901554017001212 0 -0.43905262901781139 0.40172325547053911 0 -0.44379947279063803 0.38277421916731103 0 -0.4617664306710681 0.37985904627991041 0 -0.44379947279063803 0.38277421916731103 0 -0.4480989559670352 0.36239316140700562 0 -0.42720397860352999 0.3895048912489768 0 -0.41635503063845869 0.37772258446819401 0 -0.42859860498667107 0.367051750174895 0 -0.44379947279063803 0.38277421916731103 0 -0.42720397860352999 0.3895048912489768 0 -0.42859860498667107 0.367051750174895 0 -0.42720397860352999 0.3895048912489768 0 -0.41635503063845869 0.37772258446819401 0 -0.41104065184354932 0.39185655185427598 0 -0.41635503063845869 0.37772258446819401 0 -0.41104065184354932 0.39185655185427598 0 -0.40395775215764218 0.37771631081701379 0 -0.42720397860352999 0.3895048912489768 0 -0.41104065184354932 0.39185655185427598 0 -0.42277393719756567 0.40265681373328671 0 -0.41152227020346988 0.40398353814486798 0 -0.41104065184354932 0.39185655185427598 0 -0.40023283496632522 0.40303019673874191 0 -0.41152227020346988 0.40398353814486798 0 -0.41104065184354932 0.39185655185427598 0 -0.42277393719756567 0.40265681373328671 0 -0.43905262901781139 0.40172325547053911 0 -0.44379947279063803 0.38277421916731103 0 -0.42720397860352999 0.3895048912489768 0 -0.43905262901781139 0.40172325547053911 0 -0.42720397860352999 0.3895048912489768 0 -0.42277393719756567 0.40265681373328671 0 -0.43905262901781139 0.40172325547053911 0 -0.42277393719756567 0.40265681373328671 0 -0.43011943378155088 0.41721309474357637 0 -0.43011943378155088 0.41721309474357637 0 -0.42203438853312442 0.41993561211331681 0 -0.42054568630952061 0.41243032911539051 0 -0.43011943378155088 0.41721309474357637 0 -0.42203438853312442 0.41993561211331681 0 -0.42784155232261339 0.42776087035325061 0 -0.42277393719756567 0.40265681373328671 0 -0.43011943378155088 0.41721309474357637 0 -0.42054568630952061 0.41243032911539051 0 -0.43022626038476153 0.44477215353320593 0 -0.4389456074442335 0.43057578537697883 0 -0.42784155232261339 0.42776087035325061 0 -0.43022626038476153 0.44477215353320593 0 -0.41522954767554338 0.42390117513597392 0 -0.43022626038476153 0.44477215353320593 0 -0.42784155232261339 0.42776087035325061 0 -0.41522954767554338 0.42390117513597392 0 -0.4389456074442335 0.43057578537697883 0 -0.43011943378155088 0.41721309474357637 0 -0.42784155232261339 0.42776087035325061 0 -0.43022626038476153 0.44477215353320593 0 -0.41522954767554338 0.42390117513597392 0 -0.41551743986671907 0.42552650096917433 0 -0.42203438853312442 0.41993561211331681 0 -0.42784155232261339 0.42776087035325061 0 -0.41522954767554338 0.42390117513597392 0 -0.41551743986671907 0.42552650096917433 0 -0.40817600067796023 0.42452959091477099 0 -0.40580924444834893 0.43081797150025131 0 -0.41522954767554338 0.42390117513597392 0 -0.40817600067796023 0.42452959091477099 0 -0.40500903817469552 0.41749919866491858 0 -0.41522954767554338 0.42390117513597392 0 -0.41551743986671907 0.42552650096917433 0 -0.40817600067796023 0.42452959091477099 0 -0.41522954767554338 0.42390117513597392 0 -0.41391294553759672 0.41265617024965823 0 -0.40023283496632522 0.40303019673874191 0 -0.41522954767554338 0.42390117513597392 0 -0.40500903817469552 0.41749919866491858 0 -0.40023283496632522 0.40303019673874191 0 -0.41522954767554338 0.42390117513597392 0 -0.40023283496632522 0.40303019673874191 0 -0.41152227020346988 0.40398353814486798 0 -0.42054568630952061 0.41243032911539051 0 -0.41391294553759672 0.41265617024965823 0 -0.41152227020346988 0.40398353814486798 0 -0.42277393719756567 0.40265681373328671 0 -0.42054568630952061 0.41243032911539051 0 -0.42203438853312442 0.41993561211331681 0 -0.42054568630952061 0.41243032911539051 0 -0.41391294553759672 0.41265617024965823 0 -0.42203438853312442 0.41993561211331681 0 -0.41522954767554338 0.42390117513597392 0 -0.41391294553759672 0.41265617024965823 0 -0.41152227020346988 0.40398353814486798 0 -0.41391294553759672 0.41265617024965823 0 -0.40023283496632522 0.40303019673874191 0 -0.39182536545163749 0.41863829188788049 0 -0.38311837071093252 0.41022686394830671 0 -0.40023283496632522 0.40303019673874191 0 -0.40500903817469552 0.41749919866491858 0 -0.39182536545163749 0.41863829188788049 0 -0.40023283496632522 0.40303019673874191 0 -0.40500903817469552 0.41749919866491858 0 -0.40023283496632522 0.40303019673874191 0 -0.40500903817469552 0.41749919866491858 0 -0.39182536545163749 0.41863829188788049 0 -0.39912969794590442 0.42432249145816808 0 -0.40580924444834893 0.43081797150025131 0 -0.38482884097687969 0.43012740432301882 0 -0.39302479441777022 0.44237989162062302 0 -0.41551743986671907 0.42552650096917433 0 -0.40580924444834893 0.43081797150025131 0 -0.39912969794590442 0.42432249145816808 0 -0.38482884097687969 0.43012740432301882 0 -0.39302479441777022 0.44237989162062302 0 -0.41551743986671907 0.42552650096917433 0 -0.40580924444834893 0.43081797150025131 0 -0.39302479441777022 0.44237989162062302 0 -0.40580924444834893 0.43081797150025131 0 -0.38482884097687969 0.43012740432301882 0 -0.40817600067796023 0.42452959091477099 0 -0.40580924444834893 0.43081797150025131 0 -0.39912969794590442 0.42432249145816808 0 -0.40817600067796023 0.42452959091477099 0 -0.40500903817469552 0.41749919866491858 0 -0.39912969794590442 0.42432249145816808 0 -0.39182536545163749 0.41863829188788049 0 -0.39912969794590442 0.42432249145816808 0 -0.38482884097687969 0.43012740432301882 0 -0.39182536545163749 0.41863829188788049 0 -0.38482884097687969 0.43012740432301882 0 -0.37573923407219639 0.42038084685478938 0 -0.39182536545163749 0.41863829188788049 0 -0.38311837071093252 0.41022686394830671 0 -0.37573923407219639 0.42038084685478938 0 -0.38311837071093252 0.41022686394830671 0 -0.37573923407219639 0.42038084685478938 0 -0.37450694124740658 0.41194961007014808 0 -0.38311837071093252 0.41022686394830671 0 -0.37547448528555388 0.40325488883490351 0 -0.37450694124740658 0.41194961007014808 0 -0.38311837071093252 0.41022686394830671 0 -0.38274959694843569 0.39725540550994182 0 -0.40023283496632522 0.40303019673874191 0 -0.38274959694843569 0.39725540550994182 0 -0.38366880107877588 0.37997797188512611 0 -0.40023283496632522 0.40303019673874191 0 -0.38311837071093252 0.41022686394830671 0 -0.37547448528555388 0.40325488883490351 0 -0.38274959694843569 0.39725540550994182 0 -0.37547448528555388 0.40325488883490351 0 -0.38274959694843569 0.39725540550994182 0 -0.37035526324158952 0.39162591291943949 0 -0.38274959694843569 0.39725540550994182 0 -0.38366880107877588 0.37997797188512611 0 -0.37035526324158952 0.39162591291943949 0 -0.38366880107877588 0.37997797188512611 0 -0.37671925149940749 0.37030625902685332 0 -0.37035526324158952 0.39162591291943949 0 -0.38366880107877588 0.37997797188512611 0 -0.37035526324158952 0.39162591291943949 0 -0.38366880107877588 0.37997797188512611 0 -0.37671925149940749 0.37030625902685332 0 -0.38366880107877588 0.37997797188512611 0 -0.39542478788853358 0.38846472718170949 0 -0.39061674081073883 0.37389925762467818 0 -0.38366880107877588 0.37997797188512611 0 -0.39061674081073883 0.37389925762467818 0 -0.38366880107877588 0.37997797188512611 0 -0.39542478788853358 0.38846472718170949 0 -0.40023283496632522 0.40303019673874191 0 -0.39542478788853358 0.38846472718170949 0 -0.39061674081073883 0.37389925762467818 0 -0.39542478788853358 0.38846472718170949 0 -0.40395775215764218 0.37771631081701379 0 -0.39061674081073883 0.37389925762467818 0 -0.41104065184354932 0.39185655185427598 0 -0.39542478788853358 0.38846472718170949 0 -0.40395775215764218 0.37771631081701379 0 -0.38366880107877588 0.37997797188512611 0 -0.40023283496632522 0.40303019673874191 0 -0.41104065184354932 0.39185655185427598 0 -0.39542478788853358 0.38846472718170949 0 -0.40023283496632522 0.40303019673874191 0 -0.39542478788853358 0.38846472718170949 0 -0.40023283496632522 0.40303019673874191 0 -0.39801048800760458 0.34670961763741659 0 -0.41106046166055671 0.34034147155248651 0 -0.40899464609658798 0.35782052936162739 0 -0.39801048800760458 0.34670961763741659 0 -0.39061674081073883 0.37389925762467818 0 -0.40899464609658798 0.35782052936162739 0 -0.40395775215764218 0.37771631081701379 0 -0.39061674081073883 0.37389925762467818 0 -0.40899464609658798 0.35782052936162739 0 -0.39061674081073883 0.37389925762467818 0 -0.40899464609658798 0.35782052936162739 0 -0.39061674081073883 0.37389925762467818 0 -0.37671925149940749 0.37030625902685332 0 -0.38275551371642552 0.35008450247137129 0 -0.39061674081073883 0.37389925762467818 0 -0.38275551371642552 0.35008450247137129 0 -0.37671925149940749 0.37030625902685332 0 -0.38275551371642552 0.35008450247137129 0 -0.38366880107877588 0.37997797188512611 0 -0.39061674081073883 0.37389925762467818 0 -0.37671925149940749 0.37030625902685332 0 -0.37671925149940749 0.37030625902685332 0 -0.38275551371642552 0.35008450247137129 0 -0.36722707383268122 0.35709596161926438 0 -0.39801048800760458 0.34670961763741659 0 -0.39061674081073883 0.37389925762467818 0 -0.38275551371642552 0.35008450247137129 0 -0.39801048800760458 0.34670961763741659 0 -0.38275551371642552 0.35008450247137129 0 -0.38710164963499538 0.3355247468904094 0 -0.38275551371642552 0.35008450247137129 0 -0.37640747204533043 0.33085378234506552 0 -0.38710164963499538 0.3355247468904094 0 -0.38275551371642552 0.35008450247137129 0 -0.37640747204533043 0.33085378234506552 0 -0.38275551371642552 0.35008450247137129 0 -0.37640747204533043 0.33085378234506552 0 -0.36981473277461457 0.34304677337264228 0 -0.37640747204533043 0.33085378234506552 0 -0.38710164963499538 0.3355247468904094 0 -0.38521464066454703 0.32527688729816162 0 -0.38275551371642552 0.35008450247137129 0 -0.38710164963499538 0.3355247468904094 0 -0.38999234493580071 0.31389090566272332 0 -0.38081580295938339 0.30602588371499051 0 -0.37258005959352269 0.31779573958284818 0 -0.38521464066454703 0.32527688729816162 0 -0.38999234493580071 0.31389090566272332 0 -0.37258005959352269 0.31779573958284818 0 -0.37640747204533043 0.33085378234506552 0 -0.38521464066454703 0.32527688729816162 0 -0.37258005959352269 0.31779573958284818 0 -0.38999234493580071 0.31389090566272332 0 -0.3999916771130857 0.32831926200976158 0 -0.40667513448336279 0.30827389542223382 0 -0.38521464066454703 0.32527688729816162 0 -0.38999234493580071 0.31389090566272332 0 -0.3999916771130857 0.32831926200976158 0 -0.39801048800760458 0.34670961763741659 0 -0.3999916771130857 0.32831926200976158 0 -0.41106046166055671 0.34034147155248651 0 -0.39801048800760458 0.34670961763741659 0 -0.38710164963499538 0.3355247468904094 0 -0.3999916771130857 0.32831926200976158 0 -0.38710164963499538 0.3355247468904094 0 -0.38521464066454703 0.32527688729816162 0 -0.3999916771130857 0.32831926200976158 0 -0.3999916771130857 0.32831926200976158 0 -0.41106046166055671 0.34034147155248651 0 -0.42057057038897189 0.32680959015010469 0 -0.41106046166055671 0.34034147155248651 0 -0.42057057038897189 0.32680959015010469 0 -0.42737255138243813 0.34174180109857749 0 -0.3999916771130857 0.32831926200976158 0 -0.42057057038897189 0.32680959015010469 0 -0.40667513448336279 0.30827389542223382 0 -0.42057057038897189 0.32680959015010469 0 -0.42878124573941262 0.31331022025030247 0 -0.40667513448336279 0.30827389542223382 0 -0.42057057038897189 0.32680959015010469 0 -0.42878124573941262 0.31331022025030247 0 -0.445750456668288 0.32566307283552781 0 -0.42737255138243813 0.34174180109857749 0 -0.445750456668288 0.32566307283552781 0 -0.42057057038897189 0.32680959015010469 0 -0.42737255138243813 0.34174180109857749 0 -0.445750456668288 0.32566307283552781 0 -0.42737255138243813 0.34174180109857749 0 -0.42859860498667107 0.367051750174895 0 -0.4480989559670352 0.36239316140700562 0 -0.42737255138243813 0.34174180109857749 0 -0.40899464609658798 0.35782052936162739 0 -0.42737255138243813 0.34174180109857749 0 -0.40899464609658798 0.35782052936162739 0 -0.42859860498667107 0.367051750174895 0 -0.41106046166055671 0.34034147155248651 0 -0.42737255138243813 0.34174180109857749 0 -0.40899464609658798 0.35782052936162739 0 -0.41635503063845869 0.37772258446819401 0 -0.40899464609658798 0.35782052936162739 0 -0.42859860498667107 0.367051750174895 0 -0.41635503063845869 0.37772258446819401 0 -0.40395775215764218 0.37771631081701379 0 -0.40899464609658798 0.35782052936162739 0 -0.44379947279063803 0.38277421916731103 0 -0.42859860498667107 0.367051750174895 0 -0.4480989559670352 0.36239316140700562 0 -0.42737255138243813 0.34174180109857749 0 -0.4480989559670352 0.36239316140700562 0 -0.45324703045816372 0.34393695384104789 0 -0.45324703045816372 0.34393695384104789 0 -0.47748602333541662 0.36455230386687049 0 -0.47093017466372689 0.33712965803067219 0 -0.4480989559670352 0.36239316140700562 0 -0.45324703045816372 0.34393695384104789 0 -0.47748602333541662 0.36455230386687049 0 -0.4617664306710681 0.37985904627991041 0 -0.4480989559670352 0.36239316140700562 0 -0.47748602333541662 0.36455230386687049 0 -0.47748602333541662 0.36455230386687049 0 -0.47093017466372689 0.33712965803067219 0 -0.47748602333541662 0.36455230386687049 0 -0.48731668491041857 0.34108512958689657 0 -0.47093017466372689 0.33712965803067219 0 -0.47748602333541662 0.36455230386687049 0 -0.5 0.35320244277240082 0 -0.48731668491041857 0.34108512958689657 0 -0.5 0.38293579275511669 0 -0.47748602333541662 0.36455230386687049 0 -0.5 0.35320244277240082 0 -0.49593753481385472 0.3254482717778574 0 -0.48358508119773658 0.33031017534539792 0 -0.48015593040294652 0.31757764198616539 0 -0.4982384573869244 0.32228724125090219 0 -0.48015593040294652 0.31757764198616539 0 -0.49492156798123832 0.3074504847749443 0 -0.49593753481385472 0.3254482717778574 0 -0.48015593040294652 0.31757764198616539 0 -0.5 0.32346909278968489 0 -0.4982384573869244 0.32228724125090219 0 -0.49492156798123832 0.3074504847749443 0 -0.4982384573869244 0.32228724125090219 0 -0.49593753481385472 0.3254482717778574 0 -0.48015593040294652 0.31757764198616539 0 -0.4982384573869244 0.32228724125090219 0 -0.49492156798123832 0.3074504847749443 0 -0.5 0.32346909278968489 0 -0.4982384573869244 0.32228724125090219 0 -0.49593753481385472 0.3254482717778574 0 -0.49593753481385472 0.3254482717778574 0 -0.48731668491041857 0.34108512958689657 0 -0.48358508119773658 0.33031017534539792 0 -0.5 0.35320244277240082 0 -0.5 0.32346909278968489 0 -0.49593753481385472 0.3254482717778574 0 -0.5 0.35320244277240082 0 -0.49593753481385472 0.3254482717778574 0 -0.48731668491041857 0.34108512958689657 0 -0.48358508119773658 0.33031017534539792 0 -0.47093017466372689 0.33712965803067219 0 -0.48015593040294652 0.31757764198616539 0 -0.48731668491041857 0.34108512958689657 0 -0.48358508119773658 0.33031017534539792 0 -0.47093017466372689 0.33712965803067219 0 -0.48015593040294652 0.31757764198616539 0 -0.46430752645985018 0.30942759453177471 0 -0.47093017466372689 0.33712965803067219 0 -0.48015593040294652 0.31757764198616539 0 -0.46430752645985018 0.30942759453177471 0 -0.47093017466372689 0.33712965803067219 0 -0.445750456668288 0.32566307283552781 0 -0.46430752645985018 0.30942759453177471 0 -0.47093017466372689 0.33712965803067219 0 -0.46430752645985018 0.30942759453177471 0 -0.445750456668288 0.32566307283552781 0 -0.45015592731075749 0.31103291834262331 0 -0.46430752645985018 0.30942759453177471 0 -0.445750456668288 0.32566307283552781 0 -0.46430752645985018 0.30942759453177471 0 -0.45324703045816372 0.34393695384104789 0 -0.47093017466372689 0.33712965803067219 0 -0.445750456668288 0.32566307283552781 0 -0.42737255138243813 0.34174180109857749 0 -0.45324703045816372 0.34393695384104789 0 -0.445750456668288 0.32566307283552781 0 -0.42878124573941262 0.31331022025030247 0 -0.445750456668288 0.32566307283552781 0 -0.44146971273890873 0.31056221266021378 0 -0.445750456668288 0.32566307283552781 0 -0.44146971273890873 0.31056221266021378 0 -0.45015592731075749 0.31103291834262331 0 -0.44146971273890873 0.31056221266021378 0 -0.44558945627706997 0.30033858859430451 0 -0.4332398738728685 0.3034713083542237 0 -0.44558945627706997 0.30033858859430451 0 -0.44996226972297187 0.29692557003636072 0 -0.44073306134546669 0.29408190876738372 0 -0.44558945627706997 0.30033858859430451 0 -0.44996226972297187 0.29692557003636072 0 -0.45646066842119409 0.30054324401106802 0 -0.44146971273890873 0.31056221266021378 0 -0.44558945627706997 0.30033858859430451 0 -0.45015592731075749 0.31103291834262331 0 -0.44558945627706997 0.30033858859430451 0 -0.44073306134546669 0.29408190876738372 0 -0.42705055060000191 0.2910928326161325 0 -0.44069116873931652 0.28580926021483288 0 -0.46264372583085728 0.28874316664900701 0 -0.44069116873931652 0.28580926021483288 0 -0.45146777029195861 0.29209054533317969 0 -0.46264372583085728 0.28874316664900701 0 -0.44069116873931652 0.28580926021483288 0 -0.44073306134546669 0.29408190876738372 0 -0.45146777029195861 0.29209054533317969 0 -0.44996226972297187 0.29692557003636072 0 -0.44073306134546669 0.29408190876738372 0 -0.45146777029195861 0.29209054533317969 0 -0.44996226972297187 0.29692557003636072 0 -0.45146777029195861 0.29209054533317969 0 -0.45451744499905078 0.29542948062800278 0 -0.46017907156007848 0.29215856313140309 0 -0.46264372583085728 0.28874316664900701 0 -0.46430752645985018 0.30942759453177471 0 -0.44069116873931652 0.28580926021483288 0 -0.46264372583085728 0.28874316664900701 0 -0.46319180018641237 0.27334626713588012 0 -0.45146777029195861 0.29209054533317969 0 -0.46017907156007848 0.29215856313140309 0 -0.46264372583085728 0.28874316664900701 0 -0.46017907156007848 0.29215856313140309 0 -0.45451744499905078 0.29542948062800278 0 -0.45646066842119409 0.30054324401106802 0 -0.45146777029195861 0.29209054533317969 0 -0.46017907156007848 0.29215856313140309 0 -0.45451744499905078 0.29542948062800278 0 -0.46017907156007848 0.29215856313140309 0 -0.46430752645985018 0.30942759453177471 0 -0.44558945627706997 0.30033858859430451 0 -0.46430752645985018 0.30942759453177471 0 -0.46017907156007848 0.29215856313140309 0 -0.46430752645985018 0.30942759453177471 0 -0.45646066842119409 0.30054324401106802 0 -0.44558945627706997 0.30033858859430451 0 -0.45015592731075749 0.31103291834262331 0 -0.46430752645985018 0.30942759453177471 0 -0.44558945627706997 0.30033858859430451 0 -0.46430752645985018 0.30942759453177471 0 -0.45646066842119409 0.30054324401106802 0 -0.44996226972297187 0.29692557003636072 0 -0.45451744499905078 0.29542948062800278 0 -0.45646066842119409 0.30054324401106802 0 -0.46430752645985018 0.30942759453177471 0 -0.48459628292239809 0.29167707308318302 0 -0.46430752645985018 0.30942759453177471 0 -0.47999338538900332 0.30474225581158709 0 -0.48459628292239809 0.29167707308318302 0 -0.48015593040294652 0.31757764198616539 0 -0.46430752645985018 0.30942759453177471 0 -0.47999338538900332 0.30474225581158709 0 -0.46264372583085728 0.28874316664900701 0 -0.48459628292239809 0.29167707308318302 0 -0.47781697530561879 0.27819076430783662 0 -0.46264372583085728 0.28874316664900701 0 -0.46430752645985018 0.30942759453177471 0 -0.48459628292239809 0.29167707308318302 0 -0.46264372583085728 0.28874316664900701 0 -0.48459628292239809 0.29167707308318302 0 -0.48459628292239809 0.29167707308318302 0 -0.49028301105971778 0.28670178591069589 0 -0.47781697530561879 0.27819076430783662 0 -0.47999338538900332 0.30474225581158709 0 -0.48459628292239809 0.29167707308318302 0 -0.49160467857555262 0.29261372829898641 0 -0.48459628292239809 0.29167707308318302 0 -0.49160467857555262 0.29261372829898641 0 -0.48459628292239809 0.29167707308318302 0 -0.49028301105971778 0.28670178591069589 0 -0.48459628292239809 0.29167707308318302 0 -0.49160467857555262 0.29261372829898641 0 -0.49028301105971778 0.28670178591069589 0 -0.49160467857555262 0.29261372829898641 0 -0.49028301105971778 0.28670178591069589 0 -0.49028301105971778 0.28670178591069589 0 -0.49999999999999872 0.27820044572662089 0 -0.49028301105971778 0.28670178591069589 0 -0.49999999999998562 0.29373574280696951 0 -0.49999999999999872 0.27820044572662089 0 -0.49160467857555262 0.29261372829898641 0 -0.49999999999998562 0.29373574280696951 0 -0.49160467857555262 0.29261372829898641 0 -0.49028301105971778 0.28670178591069589 0 -0.49999999999998562 0.29373574280696951 0 -0.49160467857555262 0.29261372829898641 0 -0.49492156798123832 0.3074504847749443 0 -0.49160467857555262 0.29261372829898641 0 -0.49999999999998562 0.29373574280696951 0 -0.49492156798123832 0.3074504847749443 0 -0.5 0.32346909278968489 0 -0.49999999999998562 0.29373574280696951 0 -0.49492156798123832 0.3074504847749443 0 -0.48015593040294652 0.31757764198616539 0 -0.47999338538900332 0.30474225581158709 0 -0.49492156798123832 0.3074504847749443 0 -0.47999338538900332 0.30474225581158709 0 -0.49160467857555262 0.29261372829898641 0 -0.49492156798123832 0.3074504847749443 0 -0.5 0.24989533790132251 0 -0.48547196090750749 0.26518150869570328 0 -0.49999999999999872 0.27820044572662089 0 -0.48066091075530543 0.24366123148070881 0 -0.5 0.24989533790132251 0 -0.48547196090750749 0.26518150869570328 0 -0.49028301105971778 0.28670178591069589 0 -0.48547196090750749 0.26518150869570328 0 -0.49028301105971778 0.28670178591069589 0 -0.48547196090750749 0.26518150869570328 0 -0.49999999999999872 0.27820044572662089 0 -0.49028301105971778 0.28670178591069589 0 -0.48547196090750749 0.26518150869570328 0 -0.47781697530561879 0.27819076430783662 0 -0.48547196090750749 0.26518150869570328 0 -0.47781697530561879 0.27819076430783662 0 -0.47110336905253619 0.25826468494226101 0 -0.47781697530561879 0.27819076430783662 0 -0.47110336905253619 0.25826468494226101 0 -0.46319180018641237 0.27334626713588012 0 -0.48066091075530543 0.24366123148070881 0 -0.48547196090750749 0.26518150869570328 0 -0.47110336905253619 0.25826468494226101 0 -0.48066091075530543 0.24366123148070881 0 -0.48547196090750749 0.26518150869570328 0 -0.46278852649577651 0.24018664853999649 0 -0.47110336905253619 0.25826468494226101 0 -0.45140292658278969 0.26243466859130349 0 -0.47110336905253619 0.25826468494226101 0 -0.46319180018641237 0.27334626713588012 0 -0.45140292658278969 0.26243466859130349 0 -0.46264372583085728 0.28874316664900701 0 -0.47781697530561879 0.27819076430783662 0 -0.46319180018641237 0.27334626713588012 0 -0.44069116873931652 0.28580926021483288 0 -0.45140292658278969 0.26243466859130349 0 -0.43029007333106473 0.26942903744663133 0 -0.44069116873931652 0.28580926021483288 0 -0.46319180018641237 0.27334626713588012 0 -0.45140292658278969 0.26243466859130349 0 -0.43907384032152968 0.24815821867747409 0 -0.46278852649577651 0.24018664853999649 0 -0.45140292658278969 0.26243466859130349 0 -0.43907384032152968 0.24815821867747409 0 -0.45140292658278969 0.26243466859130349 0 -0.43029007333106473 0.26942903744663133 0 -0.43907384032152968 0.24815821867747409 0 -0.41919383790749482 0.25502993091800108 0 -0.43029007333106473 0.26942903744663133 0 -0.41919383790749482 0.25502993091800108 0 -0.40754395311500968 0.2655206697458018 0 -0.40015400882939561 0.25668931779519988 0 -0.40541891423375742 0.24167011368318231 0 -0.41919383790749482 0.25502993091800108 0 -0.40015400882939561 0.25668931779519988 0 -0.41919383790749482 0.25502993091800108 0 -0.40754395311500968 0.2655206697458018 0 -0.41329853873162109 0.2801035419324599 0 -0.41919383790749482 0.25502993091800108 0 -0.41329853873162109 0.2801035419324599 0 -0.43029007333106473 0.26942903744663133 0 -0.41329853873162109 0.2801035419324599 0 -0.43029007333106473 0.26942903744663133 0 -0.41873861164777559 0.28287535378065848 0 -0.41919383790749482 0.25502993091800108 0 -0.41329853873162109 0.2801035419324599 0 -0.41329853873162109 0.2801035419324599 0 -0.41283242247689977 0.28208600580914012 0 -0.44069116873931652 0.28580926021483288 0 -0.43029007333106473 0.26942903744663133 0 -0.41873861164777559 0.28287535378065848 0 -0.44069116873931652 0.28580926021483288 0 -0.44073306134546669 0.29408190876738372 0 -0.41873861164777559 0.28287535378065848 0 -0.44069116873931652 0.28580926021483288 0 -0.41873861164777559 0.28287535378065848 0 -0.44073306134546669 0.29408190876738372 0 -0.42705055060000191 0.2910928326161325 0 -0.41873861164777559 0.28287535378065848 0 -0.44073306134546669 0.29408190876738372 0 -0.41873861164777559 0.28287535378065848 0 -0.44558945627706997 0.30033858859430451 0 -0.42705055060000191 0.2910928326161325 0 -0.42705055060000191 0.2910928326161325 0 -0.41873861164777559 0.28287535378065848 0 -0.42121963980338689 0.2968516027054483 0 -0.42878124573941262 0.31331022025030247 0 -0.4332398738728685 0.3034713083542237 0 -0.42121963980338689 0.2968516027054483 0 -0.44558945627706997 0.30033858859430451 0 -0.42705055060000191 0.2910928326161325 0 -0.4332398738728685 0.3034713083542237 0 -0.42878124573941262 0.31331022025030247 0 -0.44146971273890873 0.31056221266021378 0 -0.4332398738728685 0.3034713083542237 0 -0.42705055060000191 0.2910928326161325 0 -0.4332398738728685 0.3034713083542237 0 -0.42121963980338689 0.2968516027054483 0 -0.42878124573941262 0.31331022025030247 0 -0.40667513448336279 0.30827389542223382 0 -0.42121963980338689 0.2968516027054483 0 -0.40667513448336279 0.30827389542223382 0 -0.42121963980338689 0.2968516027054483 0 -0.41283242247689977 0.28208600580914012 0 -0.40667513448336279 0.30827389542223382 0 -0.41283242247689977 0.28208600580914012 0 -0.41873861164777559 0.28287535378065848 0 -0.42121963980338689 0.2968516027054483 0 -0.41283242247689977 0.28208600580914012 0 -0.41329853873162109 0.2801035419324599 0 -0.41873861164777559 0.28287535378065848 0 -0.41873861164777559 0.28287535378065848 0 -0.41283242247689977 0.28208600580914012 0 -0.41329853873162109 0.2801035419324599 0 -0.41873861164777559 0.28287535378065848 0 -0.41283242247689977 0.28208600580914012 0 -0.40667513448336279 0.30827389542223382 0 -0.41283242247689977 0.28208600580914012 0 -0.39831688565977191 0.29012631229296371 0 -0.41283242247689977 0.28208600580914012 0 -0.39831688565977191 0.29012631229296371 0 -0.38911023419016111 0.27891559242372183 0 -0.39831688565977191 0.29012631229296371 0 -0.3909403085838013 0.299958660865424 0 -0.38798712170681232 0.28881187481599663 0 -0.39831688565977191 0.29012631229296371 0 -0.38798712170681232 0.28881187481599663 0 -0.38911023419016111 0.27891559242372183 0 -0.40667513448336279 0.30827389542223382 0 -0.39831688565977191 0.29012631229296371 0 -0.3909403085838013 0.299958660865424 0 -0.38999234493580071 0.31389090566272332 0 -0.40667513448336279 0.30827389542223382 0 -0.3909403085838013 0.299958660865424 0 -0.38999234493580071 0.31389090566272332 0 -0.3909403085838013 0.299958660865424 0 -0.38081580295938339 0.30602588371499051 0 -0.3909403085838013 0.299958660865424 0 -0.38081580295938339 0.30602588371499051 0 -0.3801680257854877 0.29313299949047039 0 -0.38081580295938339 0.30602588371499051 0 -0.3801680257854877 0.29313299949047039 0 -0.37006323765848059 0.29922393020594201 0 -0.3801680257854877 0.29313299949047039 0 -0.3814001543148392 0.28192580900740349 0 -0.36567301096923172 0.27717626983032673 0 -0.38798712170681232 0.28881187481599663 0 -0.3814001543148392 0.28192580900740349 0 -0.38911023419016111 0.27891559242372183 0 -0.38798712170681232 0.28881187481599663 0 -0.3801680257854877 0.29313299949047039 0 -0.3814001543148392 0.28192580900740349 0 -0.3909403085838013 0.299958660865424 0 -0.38798712170681232 0.28881187481599663 0 -0.3801680257854877 0.29313299949047039 0 -0.3814001543148392 0.28192580900740349 0 -0.38911023419016111 0.27891559242372183 0 -0.36538804590342228 0.27574517903830209 0 -0.38911023419016111 0.27891559242372183 0 -0.37884410183507627 0.27009406715194623 0 -0.36538804590342228 0.27574517903830209 0 -0.38911023419016111 0.27891559242372183 0 -0.36538804590342228 0.27574517903830209 0 -0.37884410183507627 0.27009406715194623 0 -0.39236375113660488 0.26943690323298791 0 -0.37142896354158822 0.25877026453351648 0 -0.38911023419016111 0.27891559242372183 0 -0.37884410183507627 0.27009406715194623 0 -0.39236375113660488 0.26943690323298791 0 -0.38707568899018879 0.25889327761741548 0 -0.39236375113660488 0.26943690323298791 0 -0.37142896354158822 0.25877026453351648 0 -0.39236375113660488 0.26943690323298791 0 -0.37142896354158822 0.25877026453351648 0 -0.38018080483092531 0.25233920989092129 0 -0.38707568899018879 0.25889327761741548 0 -0.37142896354158822 0.25877026453351648 0 -0.3734291426064843 0.24361466712641069 0 -0.38018080483092531 0.25233920989092129 0 -0.37142896354158822 0.25877026453351648 0 -0.38878942418543988 0.2480786302863425 0 -0.38018080483092531 0.25233920989092129 0 -0.38707568899018879 0.25889327761741548 0 -0.38707568899018879 0.25889327761741548 0 -0.40015400882939561 0.25668931779519988 0 -0.39236375113660488 0.26943690323298791 0 -0.38878942418543988 0.2480786302863425 0 -0.38707568899018879 0.25889327761741548 0 -0.40015400882939561 0.25668931779519988 0 -0.40754395311500968 0.2655206697458018 0 -0.40015400882939561 0.25668931779519988 0 -0.39236375113660488 0.26943690323298791 0 -0.41329853873162109 0.2801035419324599 0 -0.38911023419016111 0.27891559242372183 0 -0.39236375113660488 0.26943690323298791 0 -0.41283242247689977 0.28208600580914012 0 -0.38911023419016111 0.27891559242372183 0 -0.41329853873162109 0.2801035419324599 0 -0.41283242247689977 0.28208600580914012 0 -0.38911023419016111 0.27891559242372183 0 -0.40754395311500968 0.2655206697458018 0 -0.41329853873162109 0.2801035419324599 0 -0.39236375113660488 0.26943690323298791 0 -0.41329853873162109 0.2801035419324599 0 -0.39236375113660488 0.26943690323298791 0 -0.35739848431597337 0.274677393356213 0 -0.34808560795784549 0.28369566624498421 0 -0.33941682434416132 0.27227418776752288 0 -0.35739848431597337 0.274677393356213 0 -0.34600847707946819 0.26287408467210333 0 -0.32975944340086838 0.26633050512875128 0 -0.35739848431597337 0.274677393356213 0 -0.33941682434416132 0.27227418776752288 0 -0.35739848431597337 0.274677393356213 0 -0.34600847707946819 0.26287408467210333 0 -0.35652831428259057 0.26494893075749781 0 -0.34600847707946819 0.26287408467210333 0 -0.35127826677210788 0.25709583982327883 0 -0.35652831428259057 0.26494893075749781 0 -0.34600847707946819 0.26287408467210333 0 -0.35127826677210788 0.25709583982327883 0 -0.34308868467317588 0.25390253283794129 0 -0.34971195047777359 0.24819366877491381 0 -0.35127826677210788 0.25709583982327883 0 -0.34308868467317588 0.25390253283794129 0 -0.34971195047777359 0.24819366877491381 0 -0.35127826677210788 0.25709583982327883 0 -0.36128033055929742 0.25511628690186772 0 -0.35127826677210788 0.25709583982327883 0 -0.35652831428259057 0.26494893075749781 0 -0.36128033055929742 0.25511628690186772 0 -0.36128033055929742 0.25511628690186772 0 -0.36923536045984601 0.26493144940640878 0 -0.36538804590342228 0.27574517903830209 0 -0.35652831428259057 0.26494893075749781 0 -0.36128033055929742 0.25511628690186772 0 -0.36538804590342228 0.27574517903830209 0 -0.36128033055929742 0.25511628690186772 0 -0.36538804590342228 0.27574517903830209 0 -0.3734291426064843 0.24361466712641069 0 -0.36128033055929742 0.25511628690186772 0 -0.37142896354158822 0.25877026453351648 0 -0.37884410183507627 0.27009406715194623 0 -0.36923536045984601 0.26493144940640878 0 -0.37142896354158822 0.25877026453351648 0 -0.36128033055929742 0.25511628690186772 0 -0.36923536045984601 0.26493144940640878 0 -0.37142896354158822 0.25877026453351648 0 -0.3814001543148392 0.28192580900740349 0 -0.36567301096923172 0.27717626983032673 0 -0.37884410183507627 0.27009406715194623 0 -0.36923536045984601 0.26493144940640878 0 -0.36538804590342228 0.27574517903830209 0 -0.3814001543148392 0.28192580900740349 0 -0.36567301096923172 0.27717626983032673 0 -0.36538804590342228 0.27574517903830209 0 -0.35739848431597337 0.274677393356213 0 -0.35652831428259057 0.26494893075749781 0 -0.36538804590342228 0.27574517903830209 0 -0.35739848431597337 0.274677393356213 0 -0.36538804590342228 0.27574517903830209 0 -0.35739848431597337 0.274677393356213 0 -0.36567301096923172 0.27717626983032673 0 -0.35953542034404412 0.2858422872013282 0 -0.35739848431597337 0.274677393356213 0 -0.36567301096923172 0.27717626983032673 0 -0.36538804590342228 0.27574517903830209 0 -0.35739848431597337 0.274677393356213 0 -0.36567301096923172 0.27717626983032673 0 -0.36567301096923172 0.27717626983032673 0 -0.36538804590342228 0.27574517903830209 0 -0.36567301096923172 0.27717626983032673 0 -0.35953542034404412 0.2858422872013282 0 -0.37006323765848059 0.29922393020594201 0 -0.36567301096923172 0.27717626983032673 0 -0.37006323765848059 0.29922393020594201 0 -0.3801680257854877 0.29313299949047039 0 -0.36567301096923172 0.27717626983032673 0 -0.37006323765848059 0.29922393020594201 0 -0.35953542034404412 0.2858422872013282 0 -0.37006323765848059 0.29922393020594201 0 -0.35645676081868821 0.2944381763691758 0 -0.37006323765848059 0.29922393020594201 0 -0.35741513815780612 0.30801474498501308 0 -0.37258005959352269 0.31779573958284818 0 -0.38081580295938339 0.30602588371499051 0 -0.37006323765848059 0.29922393020594201 0 -0.37258005959352269 0.31779573958284818 0 -0.37006323765848059 0.29922393020594201 0 -0.35741513815780612 0.30801474498501308 0 -0.35645676081868821 0.2944381763691758 0 -0.35741513815780612 0.30801474498501308 0 -0.3479167703869171 0.2995888175597704 0 -0.34166778498161671 0.31246416139569477 0 -0.35741513815780612 0.30801474498501308 0 -0.3479167703869171 0.2995888175597704 0 -0.35645676081868821 0.2944381763691758 0 -0.3479167703869171 0.2995888175597704 0 -0.35645676081868821 0.2944381763691758 0 -0.34808560795784549 0.28369566624498421 0 -0.3479167703869171 0.2995888175597704 0 -0.34808560795784549 0.28369566624498421 0 -0.33684697633493532 0.29257614258526199 0 -0.35739848431597337 0.274677393356213 0 -0.35953542034404412 0.2858422872013282 0 -0.34808560795784549 0.28369566624498421 0 -0.35953542034404412 0.2858422872013282 0 -0.35645676081868821 0.2944381763691758 0 -0.34808560795784549 0.28369566624498421 0 -0.34808560795784549 0.28369566624498421 0 -0.33684697633493532 0.29257614258526199 0 -0.33941682434416132 0.27227418776752288 0 -0.33684697633493532 0.29257614258526199 0 -0.32328271541110282 0.28635070427886072 0 -0.33941682434416132 0.27227418776752288 0 -0.33684697633493532 0.29257614258526199 0 -0.32553908928144593 0.30680816637832731 0 -0.32328271541110282 0.28635070427886072 0 -0.33684697633493532 0.29257614258526199 0 -0.34166778498161671 0.31246416139569477 0 -0.32553908928144593 0.30680816637832731 0 -0.3479167703869171 0.2995888175597704 0 -0.33684697633493532 0.29257614258526199 0 -0.34166778498161671 0.31246416139569477 0 -0.32553908928144593 0.30680816637832731 0 -0.31410474469032668 0.29756838130256652 0 -0.32328271541110282 0.28635070427886072 0 -0.32553908928144593 0.30680816637832731 0 -0.31410474469032668 0.29756838130256652 0 -0.30780566849742103 0.30823815107292307 0 -0.32553908928144593 0.30680816637832731 0 -0.30780566849742103 0.30823815107292307 0 -0.31458584904702469 0.31954051275494177 0 -0.31410474469032668 0.29756838130256652 0 -0.32328271541110282 0.28635070427886072 0 -0.30222282055351668 0.28572255941281011 0 -0.32328271541110282 0.28635070427886072 0 -0.32143516437234931 0.26987098217883171 0 -0.30222282055351668 0.28572255941281011 0 -0.32292857397458702 0.26863881093126879 0 -0.32143516437234931 0.26987098217883171 0 -0.33941682434416132 0.27227418776752288 0 -0.32328271541110282 0.28635070427886072 0 -0.32143516437234931 0.26987098217883171 0 -0.33941682434416132 0.27227418776752288 0 -0.32292857397458702 0.26863881093126879 0 -0.32143516437234931 0.26987098217883171 0 -0.35739848431597337 0.274677393356213 0 -0.33941682434416132 0.27227418776752288 0 -0.32975944340086838 0.26633050512875128 0 -0.35739848431597337 0.274677393356213 0 -0.32975944340086838 0.26633050512875128 0 -0.32143516437234931 0.26987098217883171 0 -0.33941682434416132 0.27227418776752288 0 -0.32292857397458702 0.26863881093126879 0 -0.33941682434416132 0.27227418776752288 0 -0.32975944340086838 0.26633050512875128 0 -0.34600847707946819 0.26287408467210333 0 -0.32975944340086838 0.26633050512875128 0 -0.33662867042345163 0.25856272531534352 0 -0.34308868467317588 0.25390253283794129 0 -0.33662867042345163 0.25856272531534352 0 -0.33475869207343439 0.2516473974976447 0 -0.34600847707946819 0.26287408467210333 0 -0.34308868467317588 0.25390253283794129 0 -0.33662867042345163 0.25856272531534352 0 -0.32975944340086838 0.26633050512875128 0 -0.33662867042345163 0.25856272531534352 0 -0.32927717551802538 0.25612691524589548 0 -0.32497928784552199 0.24817505909587351 0 -0.32927717551802538 0.25612691524589548 0 -0.33475869207343439 0.2516473974976447 0 -0.33662867042345163 0.25856272531534352 0 -0.32927717551802538 0.25612691524589548 0 -0.33475869207343439 0.2516473974976447 0 -0.32292857397458702 0.26863881093126879 0 -0.32143516437234931 0.26987098217883171 0 -0.3021204024857635 0.25798361690129001 0 -0.32292857397458702 0.26863881093126879 0 -0.32975944340086838 0.26633050512875128 0 -0.3021204024857635 0.25798361690129001 0 -0.32975944340086838 0.26633050512875128 0 -0.3021204024857635 0.25798361690129001 0 -0.32975944340086838 0.26633050512875128 0 -0.31848232090602768 0.2536350737327836 0 -0.3021204024857635 0.25798361690129001 0 -0.32497928784552199 0.24817505909587351 0 -0.32927717551802538 0.25612691524589548 0 -0.31848232090602768 0.2536350737327836 0 -0.32975944340086838 0.26633050512875128 0 -0.32927717551802538 0.25612691524589548 0 -0.31848232090602768 0.2536350737327836 0 -0.32143516437234931 0.26987098217883171 0 -0.3021204024857635 0.25798361690129001 0 -0.30116122789449051 0.2671614193506669 0 -0.30874994762413299 0.24955977154890691 0 -0.31848232090602768 0.2536350737327836 0 -0.3021204024857635 0.25798361690129001 0 -0.30046542147852079 0.24463347923818471 0 -0.30874994762413299 0.24955977154890691 0 -0.3021204024857635 0.25798361690129001 0 -0.32143516437234931 0.26987098217883171 0 -0.30222282055351668 0.28572255941281011 0 -0.32143516437234931 0.26987098217883171 0 -0.30116122789449051 0.2671614193506669 0 -0.30222282055351668 0.28572255941281011 0 -0.32143516437234931 0.26987098217883171 0 -0.30116122789449051 0.2671614193506669 0 -0.30116122789449051 0.2671614193506669 0 -0.28088729141663182 0.26445185652250253 0 -0.30222282055351668 0.28572255941281011 0 -0.28088729141663182 0.26445185652250253 0 -0.30222282055351668 0.28572255941281011 0 -0.28088729141663182 0.26445185652250253 0 -0.27582747998400092 0.27944937222090538 0 -0.30222282055351668 0.28572255941281011 0 -0.30116122789449051 0.2671614193506669 0 -0.28088729141663182 0.26445185652250253 0 -0.27448136157065861 0.24963672867382861 0 -0.3021204024857635 0.25798361690129001 0 -0.3021204024857635 0.25798361690129001 0 -0.30116122789449051 0.2671614193506669 0 -0.28088729141663182 0.26445185652250253 0 -0.27448136157065861 0.24963672867382861 0 -0.3021204024857635 0.25798361690129001 0 -0.28088729141663182 0.26445185652250253 0 -0.30046542147852079 0.24463347923818471 0 -0.27448136157065861 0.24963672867382861 0 -0.3021204024857635 0.25798361690129001 0 -0.27448136157065861 0.24963672867382861 0 -0.26896489532231771 0.25256568564594778 0 -0.28088729141663182 0.26445185652250253 0 -0.26896489532231771 0.25256568564594778 0 -0.28088729141663182 0.26445185652250253 0 -0.26516304748730279 0.2623503491562138 0 -0.28088729141663182 0.26445185652250253 0 -0.26516304748730279 0.2623503491562138 0 -0.26896489532231771 0.25256568564594778 0 -0.26516304748730279 0.2623503491562138 0 -0.26896489532231771 0.25256568564594778 0 -0.28088729141663182 0.26445185652250253 0 -0.27582747998400092 0.27944937222090538 0 -0.26088978263488932 0.27334827976406922 0 -0.26516304748730279 0.2623503491562138 0 -0.28088729141663182 0.26445185652250253 0 -0.27582747998400092 0.27944937222090538 0 -0.26516304748730279 0.2623503491562138 0 -0.27582747998400092 0.27944937222090538 0 -0.26088978263488932 0.27334827976406922 0 -0.26482466855288828 0.28757150817502392 0 -0.26482466855288828 0.28757150817502392 0 -0.24867206784699869 0.27189133605523319 0 -0.26088978263488932 0.27334827976406922 0 -0.26516304748730279 0.2623503491562138 0 -0.26088978263488932 0.27334827976406922 0 -0.26516304748730279 0.2623503491562138 0 -0.24867206784699869 0.27189133605523319 0 -0.26088978263488932 0.27334827976406922 0 -0.26482466855288828 0.28757150817502392 0 -0.24867206784699869 0.27189133605523319 0 -0.26516304748730279 0.2623503491562138 0 -0.24014977132531551 0.25900738498281878 0 -0.26516304748730279 0.2623503491562138 0 -0.24014977132531551 0.25900738498281878 0 -0.24867206784699869 0.27189133605523319 0 -0.2562248113956862 0.25264095397355368 0 -0.26516304748730279 0.2623503491562138 0 -0.24014977132531551 0.25900738498281878 0 -0.26896489532231771 0.25256568564594778 0 -0.2562248113956862 0.25264095397355368 0 -0.26516304748730279 0.2623503491562138 0 -0.2575620091230052 0.30038361623379201 0 -0.263253176287924 0.29393495859951679 0 -0.2657561528464889 0.30126286160426857 0 -0.26123215671624939 0.30748119128895018 0 -0.2575620091230052 0.30038361623379201 0 -0.2657561528464889 0.30126286160426857 0 -0.26123215671624939 0.30748119128895018 0 -0.25119498990301509 0.3058767496747325 0 -0.25280659957202473 0.31536167623520123 0 -0.25119498990301509 0.3058767496747325 0 -0.2575620091230052 0.30038361623379201 0 -0.25005404830863931 0.29762624806818933 0 -0.26123215671624939 0.30748119128895018 0 -0.25119498990301509 0.3058767496747325 0 -0.2575620091230052 0.30038361623379201 0 -0.25291011172958761 0.29068471160121451 0 -0.263253176287924 0.29393495859951679 0 -0.24867206784699869 0.27189133605523319 0 -0.2575620091230052 0.30038361623379201 0 -0.25005404830863931 0.29762624806818933 0 -0.25291011172958761 0.29068471160121451 0 -0.26482466855288828 0.28757150817502392 0 -0.263253176287924 0.29393495859951679 0 -0.24867206784699869 0.27189133605523319 0 -0.263253176287924 0.29393495859951679 0 -0.24867206784699869 0.27189133605523319 0 -0.2575620091230052 0.30038361623379201 0 -0.25291011172958761 0.29068471160121451 0 -0.263253176287924 0.29393495859951679 0 -0.26482466855288828 0.28757150817502392 0 -0.263253176287924 0.29393495859951679 0 -0.28097726925877697 0.30325168029481558 0 -0.27582747998400092 0.27944937222090538 0 -0.26482466855288828 0.28757150817502392 0 -0.28097726925877697 0.30325168029481558 0 -0.26482466855288828 0.28757150817502392 0 -0.28097726925877697 0.30325168029481558 0 -0.263253176287924 0.29393495859951679 0 -0.28097726925877697 0.30325168029481558 0 -0.2657561528464889 0.30126286160426857 0 -0.26123215671624939 0.30748119128895018 0 -0.28097726925877697 0.30325168029481558 0 -0.2657561528464889 0.30126286160426857 0 -0.26123215671624939 0.30748119128895018 0 -0.28097726925877697 0.30325168029481558 0 -0.26177126035184972 0.3190980307669683 0 -0.28097726925877697 0.30325168029481558 0 -0.26177126035184972 0.3190980307669683 0 -0.28097726925877697 0.30325168029481558 0 -0.29411982515741758 0.31600984489858308 0 -0.28097726925877697 0.30325168029481558 0 -0.29411982515741758 0.31600984489858308 0 -0.27549625745668499 0.31813774854798182 0 -0.28097726925877697 0.30325168029481558 0 -0.29964052232833932 0.30213807242400459 0 -0.29411982515741758 0.31600984489858308 0 -0.28097726925877697 0.30325168029481558 0 -0.30222282055351668 0.28572255941281011 0 -0.29964052232833932 0.30213807242400459 0 -0.27582747998400092 0.27944937222090538 0 -0.28097726925877697 0.30325168029481558 0 -0.30222282055351668 0.28572255941281011 0 -0.28097726925877697 0.30325168029481558 0 -0.30222282055351668 0.28572255941281011 0 -0.31410474469032668 0.29756838130256652 0 -0.30222282055351668 0.28572255941281011 0 -0.29964052232833932 0.30213807242400459 0 -0.31410474469032668 0.29756838130256652 0 -0.30222282055351668 0.28572255941281011 0 -0.29964052232833932 0.30213807242400459 0 -0.30780566849742103 0.30823815107292307 0 -0.29411982515741758 0.31600984489858308 0 -0.31410474469032668 0.29756838130256652 0 -0.29964052232833932 0.30213807242400459 0 -0.30780566849742103 0.30823815107292307 0 -0.30714374486393148 0.33263505338696109 0 -0.29411982515741758 0.31600984489858308 0 -0.31458584904702469 0.31954051275494177 0 -0.30780566849742103 0.30823815107292307 0 -0.29411982515741758 0.31600984489858308 0 -0.31458584904702469 0.31954051275494177 0 -0.30714374486393148 0.33263505338696109 0 -0.29237334518917052 0.3302390852892142 0 -0.29411982515741758 0.31600984489858308 0 -0.30714374486393148 0.33263505338696109 0 -0.29291087455141462 0.34487407597398939 0 -0.30860039971073588 0.34640580003688159 0 -0.30714374486393148 0.33263505338696109 0 -0.29237334518917052 0.3302390852892142 0 -0.29291087455141462 0.34487407597398939 0 -0.29237334518917052 0.3302390852892142 0 -0.28530957095925558 0.32455538024988972 0 -0.28068317078701521 0.33436010698593083 0 -0.29237334518917052 0.3302390852892142 0 -0.28068317078701521 0.33436010698593083 0 -0.29291087455141462 0.34487407597398939 0 -0.28068317078701521 0.33436010698593083 0 -0.27824346506147679 0.34440627852056749 0 -0.29291087455141462 0.34487407597398939 0 -0.29411982515741758 0.31600984489858308 0 -0.28530957095925558 0.32455538024988972 0 -0.27549625745668499 0.31813774854798182 0 -0.29237334518917052 0.3302390852892142 0 -0.29411982515741758 0.31600984489858308 0 -0.28530957095925558 0.32455538024988972 0 -0.28097726925877697 0.30325168029481558 0 -0.27549625745668499 0.31813774854798182 0 -0.26177126035184972 0.3190980307669683 0 -0.28530957095925558 0.32455538024988972 0 -0.27549625745668499 0.31813774854798182 0 -0.28068317078701521 0.33436010698593083 0 -0.27549625745668499 0.31813774854798182 0 -0.26257750381315859 0.33185166737062838 0 -0.26177126035184972 0.3190980307669683 0 -0.27549625745668499 0.31813774854798182 0 -0.26257750381315859 0.33185166737062838 0 -0.26763476701089339 0.34530579755715329 0 -0.27549625745668499 0.31813774854798182 0 -0.28068317078701521 0.33436010698593083 0 -0.26763476701089339 0.34530579755715329 0 -0.27549625745668499 0.31813774854798182 0 -0.26763476701089339 0.34530579755715329 0 -0.28068317078701521 0.33436010698593083 0 -0.26763476701089339 0.34530579755715329 0 -0.27824346506147679 0.34440627852056749 0 -0.25982528743727679 0.34008449736014318 0 -0.25706998809168158 0.34554298326950939 0 -0.26763476701089339 0.34530579755715329 0 -0.26257750381315859 0.33185166737062838 0 -0.25982528743727679 0.34008449736014318 0 -0.26763476701089339 0.34530579755715329 0 -0.26257750381315859 0.33185166737062838 0 -0.25982528743727679 0.34008449736014318 0 -0.25201889083337381 0.33763754124328149 0 -0.25982528743727679 0.34008449736014318 0 -0.25201889083337381 0.33763754124328149 0 -0.25706998809168158 0.34554298326950939 0 -0.26257750381315859 0.33185166737062838 0 -0.25201889083337381 0.33763754124328149 0 -0.25200238200409242 0.32613994431744198 0 -0.25200238200409242 0.32613994431744198 0 -0.25280659957202473 0.31536167623520123 0 -0.26177126035184972 0.3190980307669683 0 -0.26123215671624939 0.30748119128895018 0 -0.25280659957202473 0.31536167623520123 0 -0.26177126035184972 0.3190980307669683 0 -0.26257750381315859 0.33185166737062838 0 -0.25200238200409242 0.32613994431744198 0 -0.26177126035184972 0.3190980307669683 0 -0.26658783974688299 0.35514608321210173 0 -0.26367995239959341 0.37789146569135929 0 -0.25977327656510191 0.37247384656632487 0 -0.25173169702445591 0.36538910900394789 0 -0.25548857221827431 0.3561438189173034 0 -0.25977327656510191 0.37247384656632487 0 -0.26658783974688299 0.35514608321210173 0 -0.26367995239959341 0.37789146569135929 0 -0.25977327656510191 0.37247384656632487 0 -0.2522632447770769 0.37136687326983869 0 -0.2490827846952394 0.37748677962220339 0 -0.25977327656510191 0.37247384656632487 0 -0.2522632447770769 0.37136687326983869 0 -0.25173169702445591 0.36538910900394789 0 -0.25173169702445591 0.36538910900394789 0 -0.25548857221827431 0.3561438189173034 0 -0.2446228268146198 0.35833007190439459 0 -0.25977327656510191 0.37247384656632487 0 -0.26763476701089339 0.34530579755715329 0 -0.25977327656510191 0.37247384656632487 0 -0.25548857221827431 0.3561438189173034 0 -0.26763476701089339 0.34530579755715329 0 -0.25977327656510191 0.37247384656632487 0 -0.26658783974688299 0.35514608321210173 0 -0.26763476701089339 0.34530579755715329 0 -0.25201889083337381 0.33763754124328149 0 -0.25706998809168158 0.34554298326950939 0 -0.2479355413711799 0.34823426784454709 0 -0.25548857221827431 0.3561438189173034 0 -0.25706998809168158 0.34554298326950939 0 -0.2479355413711799 0.34823426784454709 0 -0.25548857221827431 0.3561438189173034 0 -0.25706998809168158 0.34554298326950939 0 -0.26763476701089339 0.34530579755715329 0 -0.26658783974688299 0.35514608321210173 0 -0.27447764576744321 0.35145940291625433 0 -0.27800590362718353 0.36079475140531359 0 -0.26658783974688299 0.35514608321210173 0 -0.26763476701089339 0.34530579755715329 0 -0.27447764576744321 0.35145940291625433 0 -0.26763476701089339 0.34530579755715329 0 -0.27447764576744321 0.35145940291625433 0 -0.27824346506147679 0.34440627852056749 0 -0.27447764576744321 0.35145940291625433 0 -0.27824346506147679 0.34440627852056749 0 -0.28191625339077919 0.35164410388613548 0 -0.27447764576744321 0.35145940291625433 0 -0.27800590362718353 0.36079475140531359 0 -0.28191625339077919 0.35164410388613548 0 -0.26658783974688299 0.35514608321210173 0 -0.27196886174503682 0.36841039306019713 0 -0.26367995239959341 0.37789146569135929 0 -0.27800590362718353 0.36079475140531359 0 -0.27788450776098111 0.369296441230961 0 -0.28497392222304491 0.36905522601782448 0 -0.27800590362718353 0.36079475140531359 0 -0.27196886174503682 0.36841039306019713 0 -0.27788450776098111 0.369296441230961 0 -0.26658783974688299 0.35514608321210173 0 -0.27800590362718353 0.36079475140531359 0 -0.27196886174503682 0.36841039306019713 0 -0.27788450776098111 0.369296441230961 0 -0.28497392222304491 0.36905522601782448 0 -0.27658934344865932 0.3789253944405091 0 -0.27196886174503682 0.36841039306019713 0 -0.27788450776098111 0.369296441230961 0 -0.27658934344865932 0.3789253944405091 0 -0.27800590362718353 0.36079475140531359 0 -0.28497392222304491 0.36905522601782448 0 -0.28948644391817452 0.35911281625500491 0 -0.28497392222304491 0.36905522601782448 0 -0.29518849567547778 0.37121068562306159 0 -0.28948644391817452 0.35911281625500491 0 -0.29518849567547778 0.37121068562306159 0 -0.28948644391817452 0.35911281625500491 0 -0.30245610784497728 0.35825564261553311 0 -0.28497392222304491 0.36905522601782448 0 -0.29518849567547778 0.37121068562306159 0 -0.28772621127952142 0.38139005269275122 0 -0.27824346506147679 0.34440627852056749 0 -0.28191625339077919 0.35164410388613548 0 -0.29291087455141462 0.34487407597398939 0 -0.28191625339077919 0.35164410388613548 0 -0.28948644391817452 0.35911281625500491 0 -0.29291087455141462 0.34487407597398939 0 -0.27800590362718353 0.36079475140531359 0 -0.28191625339077919 0.35164410388613548 0 -0.28948644391817452 0.35911281625500491 0 -0.28948644391817452 0.35911281625500491 0 -0.29291087455141462 0.34487407597398939 0 -0.30245610784497728 0.35825564261553311 0 -0.30245610784497728 0.35825564261553311 0 -0.30860039971073588 0.34640580003688159 0 -0.31998334215494639 0.35600550755619997 0 -0.29291087455141462 0.34487407597398939 0 -0.30245610784497728 0.35825564261553311 0 -0.30860039971073588 0.34640580003688159 0 -0.30245610784497728 0.35825564261553311 0 -0.30825443459843421 0.37064820494386508 0 -0.31998334215494639 0.35600550755619997 0 -0.29518849567547778 0.37121068562306159 0 -0.30825443459843421 0.37064820494386508 0 -0.30076322686680701 0.38095479522413461 0 -0.29518849567547778 0.37121068562306159 0 -0.30245610784497728 0.35825564261553311 0 -0.30825443459843421 0.37064820494386508 0 -0.30825443459843421 0.37064820494386508 0 -0.3187874613923522 0.3728289809143297 0 -0.31998334215494639 0.35600550755619997 0 -0.3187874613923522 0.3728289809143297 0 -0.33011024755312529 0.36567221324350602 0 -0.31998334215494639 0.35600550755619997 0 -0.3187874613923522 0.3728289809143297 0 -0.33011024755312529 0.36567221324350602 0 -0.3320299990034708 0.37674893468779008 0 -0.33011024755312529 0.36567221324350602 0 -0.34439427501528852 0.37171680636978238 0 -0.3320299990034708 0.37674893468779008 0 -0.33011024755312529 0.36567221324350602 0 -0.33756833459030527 0.35495234540192627 0 -0.34439427501528852 0.37171680636978238 0 -0.33756833459030527 0.35495234540192627 0 -0.31998334215494639 0.35600550755619997 0 -0.33333937512415118 0.34362814689927779 0 -0.33011024755312529 0.36567221324350602 0 -0.33756833459030527 0.35495234540192627 0 -0.31998334215494639 0.35600550755619997 0 -0.33756833459030527 0.35495234540192627 0 -0.33333937512415118 0.34362814689927779 0 -0.34452596532162638 0.34667726503296342 0 -0.31998334215494639 0.35600550755619997 0 -0.32251640675217841 0.33703103905932402 0 -0.33333937512415118 0.34362814689927779 0 -0.30860039971073588 0.34640580003688159 0 -0.31998334215494639 0.35600550755619997 0 -0.32251640675217841 0.33703103905932402 0 -0.30714374486393148 0.33263505338696109 0 -0.30860039971073588 0.34640580003688159 0 -0.32251640675217841 0.33703103905932402 0 -0.30714374486393148 0.33263505338696109 0 -0.32251640675217841 0.33703103905932402 0 -0.31458584904702469 0.31954051275494177 0 -0.32251640675217841 0.33703103905932402 0 -0.31458584904702469 0.31954051275494177 0 -0.32966204432700608 0.32291604220221282 0 -0.32553908928144593 0.30680816637832731 0 -0.31458584904702469 0.31954051275494177 0 -0.32966204432700608 0.32291604220221282 0 -0.34166778498161671 0.31246416139569477 0 -0.32553908928144593 0.30680816637832731 0 -0.32966204432700608 0.32291604220221282 0 -0.34166778498161671 0.31246416139569477 0 -0.32966204432700608 0.32291604220221282 0 -0.34144587204712312 0.33393494120933359 0 -0.32251640675217841 0.33703103905932402 0 -0.32966204432700608 0.32291604220221282 0 -0.34144587204712312 0.33393494120933359 0 -0.32251640675217841 0.33703103905932402 0 -0.33333937512415118 0.34362814689927779 0 -0.34144587204712312 0.33393494120933359 0 -0.33333937512415118 0.34362814689927779 0 -0.34144587204712312 0.33393494120933359 0 -0.34452596532162638 0.34667726503296342 0 -0.34144587204712312 0.33393494120933359 0 -0.35580621550761121 0.32457764479664758 0 -0.35773489616595461 0.3438856642116756 0 -0.34144587204712312 0.33393494120933359 0 -0.34452596532162638 0.34667726503296342 0 -0.35773489616595461 0.3438856642116756 0 -0.35741513815780612 0.30801474498501308 0 -0.34166778498161671 0.31246416139569477 0 -0.35580621550761121 0.32457764479664758 0 -0.34166778498161671 0.31246416139569477 0 -0.34144587204712312 0.33393494120933359 0 -0.35580621550761121 0.32457764479664758 0 -0.35580621550761121 0.32457764479664758 0 -0.37258005959352269 0.31779573958284818 0 -0.36572420153345908 0.33265985654539659 0 -0.35741513815780612 0.30801474498501308 0 -0.35580621550761121 0.32457764479664758 0 -0.37258005959352269 0.31779573958284818 0 -0.37640747204533043 0.33085378234506552 0 -0.37258005959352269 0.31779573958284818 0 -0.36572420153345908 0.33265985654539659 0 -0.35580621550761121 0.32457764479664758 0 -0.36572420153345908 0.33265985654539659 0 -0.35773489616595461 0.3438856642116756 0 -0.36572420153345908 0.33265985654539659 0 -0.36981473277461457 0.34304677337264228 0 -0.35773489616595461 0.3438856642116756 0 -0.37640747204533043 0.33085378234506552 0 -0.36572420153345908 0.33265985654539659 0 -0.36981473277461457 0.34304677337264228 0 -0.38275551371642552 0.35008450247137129 0 -0.36981473277461457 0.34304677337264228 0 -0.36722707383268122 0.35709596161926438 0 -0.36981473277461457 0.34304677337264228 0 -0.36722707383268122 0.35709596161926438 0 -0.35773489616595461 0.3438856642116756 0 -0.36722707383268122 0.35709596161926438 0 -0.35773489616595461 0.3438856642116756 0 -0.36722707383268122 0.35709596161926438 0 -0.36081438116654979 0.372822604432203 0 -0.35249511031104719 0.35772145800027261 0 -0.37671925149940749 0.37030625902685332 0 -0.36722707383268122 0.35709596161926438 0 -0.36081438116654979 0.372822604432203 0 -0.37671925149940749 0.37030625902685332 0 -0.36722707383268122 0.35709596161926438 0 -0.33756833459030527 0.35495234540192627 0 -0.34439427501528852 0.37171680636978238 0 -0.35249511031104719 0.35772145800027261 0 -0.36081438116654979 0.372822604432203 0 -0.34439427501528852 0.37171680636978238 0 -0.35249511031104719 0.35772145800027261 0 -0.33756833459030527 0.35495234540192627 0 -0.34452596532162638 0.34667726503296342 0 -0.35249511031104719 0.35772145800027261 0 -0.34452596532162638 0.34667726503296342 0 -0.35773489616595461 0.3438856642116756 0 -0.35249511031104719 0.35772145800027261 0 -0.36722707383268122 0.35709596161926438 0 -0.35773489616595461 0.3438856642116756 0 -0.35249511031104719 0.35772145800027261 0 -0.35456723366989018 0.40543877316352661 0 -0.35028917823418748 0.40044831087882238 0 -0.35369531309928087 0.38846922865760092 0 -0.35456723366989018 0.40543877316352661 0 -0.35028917823418748 0.40044831087882238 0 -0.34337337705170767 0.40838886813936243 0 -0.35028917823418748 0.40044831087882238 0 -0.35369531309928087 0.38846922865760092 0 -0.3402755782578642 0.38809510703894601 0 -0.34439427501528852 0.37171680636978238 0 -0.35369531309928087 0.38846922865760092 0 -0.3402755782578642 0.38809510703894601 0 -0.36081438116654979 0.372822604432203 0 -0.34439427501528852 0.37171680636978238 0 -0.35369531309928087 0.38846922865760092 0 -0.36081438116654979 0.372822604432203 0 -0.35369531309928087 0.38846922865760092 0 -0.37035526324158952 0.39162591291943949 0 -0.37671925149940749 0.37030625902685332 0 -0.37035526324158952 0.39162591291943949 0 -0.37671925149940749 0.37030625902685332 0 -0.36081438116654979 0.372822604432203 0 -0.37035526324158952 0.39162591291943949 0 -0.35456723366989018 0.40543877316352661 0 -0.35369531309928087 0.38846922865760092 0 -0.37035526324158952 0.39162591291943949 0 -0.35456723366989018 0.40543877316352661 0 -0.37035526324158952 0.39162591291943949 0 -0.37547448528555388 0.40325488883490351 0 -0.37035526324158952 0.39162591291943949 0 -0.36369567492094351 0.41393584064259259 0 -0.37035526324158952 0.39162591291943949 0 -0.36369567492094351 0.41393584064259259 0 -0.35456723366989018 0.40543877316352661 0 -0.37035526324158952 0.39162591291943949 0 -0.36369567492094351 0.41393584064259259 0 -0.37547448528555388 0.40325488883490351 0 -0.37450694124740658 0.41194961007014808 0 -0.36369567492094351 0.41393584064259259 0 -0.37573923407219639 0.42038084685478938 0 -0.37450694124740658 0.41194961007014808 0 -0.36369567492094351 0.41393584064259259 0 -0.37573923407219639 0.42038084685478938 0 -0.36369567492094351 0.41393584064259259 0 -0.36384843750541052 0.42943683714578629 0 -0.36369567492094351 0.41393584064259259 0 -0.36384843750541052 0.42943683714578629 0 -0.35275171684567441 0.41936187086561361 0 -0.38482884097687969 0.43012740432301882 0 -0.37573923407219639 0.42038084685478938 0 -0.36384843750541052 0.42943683714578629 0 -0.36384843750541052 0.42943683714578629 0 -0.35418945076332531 0.43626432387785558 0 -0.37072554411125602 0.44147586445686993 0 -0.38482884097687969 0.43012740432301882 0 -0.36384843750541052 0.42943683714578629 0 -0.37072554411125602 0.44147586445686993 0 -0.38482884097687969 0.43012740432301882 0 -0.36384843750541052 0.42943683714578629 0 -0.36384843750541052 0.42943683714578629 0 -0.35418945076332531 0.43626432387785558 0 -0.34286803403394139 0.42874626996855258 0 -0.36384843750541052 0.42943683714578629 0 -0.35275171684567441 0.41936187086561361 0 -0.34286803403394139 0.42874626996855258 0 -0.36384843750541052 0.42943683714578629 0 -0.34286803403394139 0.42874626996855258 0 -0.35275171684567441 0.41936187086561361 0 -0.33877920409818651 0.41925163340760863 0 -0.34286803403394139 0.42874626996855258 0 -0.35456723366989018 0.40543877316352661 0 -0.34337337705170767 0.40838886813936243 0 -0.33877920409818651 0.41925163340760863 0 -0.35456723366989018 0.40543877316352661 0 -0.35275171684567441 0.41936187086561361 0 -0.33877920409818651 0.41925163340760863 0 -0.35456723366989018 0.40543877316352661 0 -0.33877920409818651 0.41925163340760863 0 -0.35456723366989018 0.40543877316352661 0 -0.36369567492094351 0.41393584064259259 0 -0.35275171684567441 0.41936187086561361 0 -0.33877920409818651 0.41925163340760863 0 -0.32220383550265758 0.41664369491479047 0 -0.33257458048837268 0.40484393069113128 0 -0.34337337705170767 0.40838886813936243 0 -0.33877920409818651 0.41925163340760863 0 -0.33257458048837268 0.40484393069113128 0 -0.33877920409818651 0.41925163340760863 0 -0.32846861069340871 0.42827231487308709 0 -0.32220383550265758 0.41664369491479047 0 -0.33877920409818651 0.41925163340760863 0 -0.33257458048837268 0.40484393069113128 0 -0.34286803403394139 0.42874626996855258 0 -0.32846861069340871 0.42827231487308709 0 -0.33228063847041911 0.44604987380441929 0 -0.33877920409818651 0.41925163340760863 0 -0.34286803403394139 0.42874626996855258 0 -0.33877920409818651 0.41925163340760863 0 -0.34286803403394139 0.42874626996855258 0 -0.32846861069340871 0.42827231487308709 0 -0.33877920409818651 0.41925163340760863 0 -0.32846861069340871 0.42827231487308709 0 -0.34286803403394139 0.42874626996855258 0 -0.32846861069340871 0.42827231487308709 0 -0.32846861069340871 0.42827231487308709 0 -0.30797251513674301 0.44620423615481752 0 -0.32846861069340871 0.42827231487308709 0 -0.30504452377827118 0.42750131418179782 0 -0.30797251513674301 0.44620423615481752 0 -0.32846861069340871 0.42827231487308709 0 -0.32220383550265758 0.41664369491479047 0 -0.30504452377827118 0.42750131418179782 0 -0.32846861069340871 0.42827231487308709 0 -0.30504452377827118 0.42750131418179782 0 -0.33257458048837268 0.40484393069113128 0 -0.30767111289391957 0.41102336401071382 0 -0.32220383550265758 0.41664369491479047 0 -0.33257458048837268 0.40484393069113128 0 -0.30767111289391957 0.41102336401071382 0 -0.31668622243304001 0.39731698836616069 0 -0.33257458048837268 0.40484393069113128 0 -0.30767111289391957 0.41102336401071382 0 -0.31668622243304001 0.39731698836616069 0 -0.33257458048837268 0.40484393069113128 0 -0.32568102094036272 0.38883645580273041 0 -0.33257458048837268 0.40484393069113128 0 -0.3402755782578642 0.38809510703894601 0 -0.32568102094036272 0.38883645580273041 0 -0.33257458048837268 0.40484393069113128 0 -0.32568102094036272 0.38883645580273041 0 -0.35028917823418748 0.40044831087882238 0 -0.33257458048837268 0.40484393069113128 0 -0.3402755782578642 0.38809510703894601 0 -0.35028917823418748 0.40044831087882238 0 -0.33257458048837268 0.40484393069113128 0 -0.35028917823418748 0.40044831087882238 0 -0.34337337705170767 0.40838886813936243 0 -0.33257458048837268 0.40484393069113128 0 -0.34439427501528852 0.37171680636978238 0 -0.3402755782578642 0.38809510703894601 0 -0.3320299990034708 0.37674893468779008 0 -0.3402755782578642 0.38809510703894601 0 -0.3320299990034708 0.37674893468779008 0 -0.32568102094036272 0.38883645580273041 0 -0.3187874613923522 0.3728289809143297 0 -0.32568102094036272 0.38883645580273041 0 -0.31234797365604472 0.38463361772993238 0 -0.3187874613923522 0.3728289809143297 0 -0.32568102094036272 0.38883645580273041 0 -0.3187874613923522 0.3728289809143297 0 -0.3320299990034708 0.37674893468779008 0 -0.32568102094036272 0.38883645580273041 0 -0.31668622243304001 0.39731698836616069 0 -0.32568102094036272 0.38883645580273041 0 -0.31234797365604472 0.38463361772993238 0 -0.30825443459843421 0.37064820494386508 0 -0.3187874613923522 0.3728289809143297 0 -0.31234797365604472 0.38463361772993238 0 -0.30825443459843421 0.37064820494386508 0 -0.31234797365604472 0.38463361772993238 0 -0.30076322686680701 0.38095479522413461 0 -0.31234797365604472 0.38463361772993238 0 -0.30076322686680701 0.38095479522413461 0 -0.30462165720614359 0.39591260887949981 0 -0.30076322686680701 0.38095479522413461 0 -0.30462165720614359 0.39591260887949981 0 -0.29297233837108749 0.39297460770919451 0 -0.31668622243304001 0.39731698836616069 0 -0.30462165720614359 0.39591260887949981 0 -0.30767111289391957 0.41102336401071382 0 -0.31668622243304001 0.39731698836616069 0 -0.31234797365604472 0.38463361772993238 0 -0.30462165720614359 0.39591260887949981 0 -0.30462165720614359 0.39591260887949981 0 -0.29297233837108749 0.39297460770919451 0 -0.2934035414003679 0.4067951515193105 0 -0.30462165720614359 0.39591260887949981 0 -0.2934035414003679 0.4067951515193105 0 -0.30767111289391957 0.41102336401071382 0 -0.29297233837108749 0.39297460770919451 0 -0.28529974913287331 0.40030387065810791 0 -0.2934035414003679 0.4067951515193105 0 -0.28443506833462689 0.3921034779883571 0 -0.28529974913287331 0.40030387065810791 0 -0.2769197300732455 0.39517448070292788 0 -0.29297233837108749 0.39297460770919451 0 -0.28443506833462689 0.3921034779883571 0 -0.28529974913287331 0.40030387065810791 0 -0.28529974913287331 0.40030387065810791 0 -0.27670055619727368 0.40396261883482748 0 -0.2827706815121479 0.40768746104233539 0 -0.28529974913287331 0.40030387065810791 0 -0.2827706815121479 0.40768746104233539 0 -0.2934035414003679 0.4067951515193105 0 -0.29518849567547778 0.37121068562306159 0 -0.30076322686680701 0.38095479522413461 0 -0.28772621127952142 0.38139005269275122 0 -0.30076322686680701 0.38095479522413461 0 -0.29297233837108749 0.39297460770919451 0 -0.28772621127952142 0.38139005269275122 0 -0.29297233837108749 0.39297460770919451 0 -0.28443506833462689 0.3921034779883571 0 -0.28772621127952142 0.38139005269275122 0 -0.28443506833462689 0.3921034779883571 0 -0.28772621127952142 0.38139005269275122 0 -0.27873116199306042 0.38717334588685492 0 -0.28497392222304491 0.36905522601782448 0 -0.28772621127952142 0.38139005269275122 0 -0.27658934344865932 0.3789253944405091 0 -0.28772621127952142 0.38139005269275122 0 -0.27658934344865932 0.3789253944405091 0 -0.27873116199306042 0.38717334588685492 0 -0.27196886174503682 0.36841039306019713 0 -0.27658934344865932 0.3789253944405091 0 -0.26367995239959341 0.37789146569135929 0 -0.27658934344865932 0.3789253944405091 0 -0.27175470055777268 0.38898195682179698 0 -0.26367995239959341 0.37789146569135929 0 -0.27175470055777268 0.38898195682179698 0 -0.26662409067503712 0.3918425474913057 0 -0.26367995239959341 0.37789146569135929 0 -0.27658934344865932 0.3789253944405091 0 -0.27175470055777268 0.38898195682179698 0 -0.27873116199306042 0.38717334588685492 0 -0.27175470055777268 0.38898195682179698 0 -0.27873116199306042 0.38717334588685492 0 -0.2769197300732455 0.39517448070292788 0 -0.28443506833462689 0.3921034779883571 0 -0.27873116199306042 0.38717334588685492 0 -0.2769197300732455 0.39517448070292788 0 -0.2769197300732455 0.39517448070292788 0 -0.27670055619727368 0.40396261883482748 0 -0.27028964469047861 0.39985991928144909 0 -0.28529974913287331 0.40030387065810791 0 -0.2769197300732455 0.39517448070292788 0 -0.27670055619727368 0.40396261883482748 0 -0.27028964469047861 0.39985991928144909 0 -0.26077206505230371 0.40063684817061701 0 -0.26689595505517921 0.40700775359988528 0 -0.27670055619727368 0.40396261883482748 0 -0.27028964469047861 0.39985991928144909 0 -0.26689595505517921 0.40700775359988528 0 -0.27175470055777268 0.38898195682179698 0 -0.27028964469047861 0.39985991928144909 0 -0.26662409067503712 0.3918425474913057 0 -0.27175470055777268 0.38898195682179698 0 -0.2769197300732455 0.39517448070292788 0 -0.27028964469047861 0.39985991928144909 0 -0.27028964469047861 0.39985991928144909 0 -0.26662409067503712 0.3918425474913057 0 -0.26077206505230371 0.40063684817061701 0 -0.26077206505230371 0.40063684817061701 0 -0.25191178611931031 0.39964189557549668 0 -0.26367995239959341 0.37789146569135929 0 -0.26077206505230371 0.40063684817061701 0 -0.25191178611931031 0.39964189557549668 0 -0.25506996907169011 0.4114664336456334 0 -0.26662409067503712 0.3918425474913057 0 -0.26077206505230371 0.40063684817061701 0 -0.26367995239959341 0.37789146569135929 0 -0.25977327656510191 0.37247384656632487 0 -0.25191178611931031 0.39964189557549668 0 -0.25977327656510191 0.37247384656632487 0 -0.25191178611931031 0.39964189557549668 0 -0.2471182467330458 0.38725792776095402 0 -0.26077206505230371 0.40063684817061701 0 -0.26367995239959341 0.37789146569135929 0 -0.25977327656510191 0.37247384656632487 0 -0.25191178611931031 0.39964189557549668 0 -0.26367995239959341 0.37789146569135929 0 -0.25977327656510191 0.37247384656632487 0 -0.2490827846952394 0.37748677962220339 0 -0.2471182467330458 0.38725792776095402 0 -0.25786417770501208 0.42338223064987429 0 -0.26261830468596342 0.43020104652174329 0 -0.25685767159405493 0.4312550825616967 0 -0.25786417770501208 0.42338223064987429 0 -0.26261830468596342 0.43020104652174329 0 -0.27015258774919598 0.42854590001014697 0 -0.26261830468596342 0.43020104652174329 0 -0.25685767159405493 0.4312550825616967 0 -0.26559878169559048 0.43762097286525509 0 -0.25685767159405493 0.4312550825616967 0 -0.25619777670869542 0.44134565548721438 0 -0.26559878169559048 0.43762097286525509 0 -0.25053498491516613 0.43234652891012437 0 -0.25685767159405493 0.4312550825616967 0 -0.25619777670869542 0.44134565548721438 0 -0.25786417770501208 0.42338223064987429 0 -0.25685767159405493 0.4312550825616967 0 -0.25786417770501208 0.42338223064987429 0 -0.25053498491516613 0.43234652891012437 0 -0.2440502956735178 0.42680994458466792 0 -0.25786417770501208 0.42338223064987429 0 -0.2440502956735178 0.42680994458466792 0 -0.25786417770501208 0.42338223064987429 0 -0.25053498491516613 0.43234652891012437 0 -0.25685767159405493 0.4312550825616967 0 -0.25786417770501208 0.42338223064987429 0 -0.25506996907169011 0.4114664336456334 0 -0.2440502956735178 0.42680994458466792 0 -0.26077206505230371 0.40063684817061701 0 -0.25786417770501208 0.42338223064987429 0 -0.26077206505230371 0.40063684817061701 0 -0.25786417770501208 0.42338223064987429 0 -0.26689595505517921 0.40700775359988528 0 -0.25786417770501208 0.42338223064987429 0 -0.26937017225297372 0.41373610847520681 0 -0.26689595505517921 0.40700775359988528 0 -0.25191178611931031 0.39964189557549668 0 -0.25506996907169011 0.4114664336456334 0 -0.2440502956735178 0.42680994458466792 0 -0.26077206505230371 0.40063684817061701 0 -0.25786417770501208 0.42338223064987429 0 -0.25506996907169011 0.4114664336456334 0 -0.25786417770501208 0.42338223064987429 0 -0.26937017225297372 0.41373610847520681 0 -0.2827676452994658 0.4172027973302937 0 -0.25786417770501208 0.42338223064987429 0 -0.2827676452994658 0.4172027973302937 0 -0.27670055619727368 0.40396261883482748 0 -0.26689595505517921 0.40700775359988528 0 -0.27568191553075883 0.41017286686913768 0 -0.26937017225297372 0.41373610847520681 0 -0.26689595505517921 0.40700775359988528 0 -0.27568191553075883 0.41017286686913768 0 -0.27568191553075883 0.41017286686913768 0 -0.2827706815121479 0.40768746104233539 0 -0.2827676452994658 0.4172027973302937 0 -0.26937017225297372 0.41373610847520681 0 -0.27568191553075883 0.41017286686913768 0 -0.2827676452994658 0.4172027973302937 0 -0.27670055619727368 0.40396261883482748 0 -0.27568191553075883 0.41017286686913768 0 -0.2827706815121479 0.40768746104233539 0 -0.25786417770501208 0.42338223064987429 0 -0.27015258774919598 0.42854590001014697 0 -0.2827676452994658 0.4172027973302937 0 -0.27015258774919598 0.42854590001014697 0 -0.28162043686313409 0.42673031349049878 0 -0.2827676452994658 0.4172027973302937 0 -0.26261830468596342 0.43020104652174329 0 -0.27015258774919598 0.42854590001014697 0 -0.26559878169559048 0.43762097286525509 0 -0.27015258774919598 0.42854590001014697 0 -0.27830280469427637 0.43835858859822852 0 -0.26559878169559048 0.43762097286525509 0 -0.27015258774919598 0.42854590001014697 0 -0.28162043686313409 0.42673031349049878 0 -0.27830280469427637 0.43835858859822852 0 -0.28665401605381807 0.43546326594170631 0 -0.28162043686313409 0.42673031349049878 0 -0.27830280469427637 0.43835858859822852 0 -0.28162043686313409 0.42673031349049878 0 -0.2827676452994658 0.4172027973302937 0 -0.30504452377827118 0.42750131418179782 0 -0.28162043686313409 0.42673031349049878 0 -0.29538272306702662 0.434900913874533 0 -0.30504452377827118 0.42750131418179782 0 -0.28665401605381807 0.43546326594170631 0 -0.28162043686313409 0.42673031349049878 0 -0.29538272306702662 0.434900913874533 0 -0.28162043686313409 0.42673031349049878 0 -0.30504452377827118 0.42750131418179782 0 -0.2827676452994658 0.4172027973302937 0 -0.2934035414003679 0.4067951515193105 0 -0.30767111289391957 0.41102336401071382 0 -0.2827676452994658 0.4172027973302937 0 -0.30767111289391957 0.41102336401071382 0 -0.2827706815121479 0.40768746104233539 0 -0.2827676452994658 0.4172027973302937 0 -0.2934035414003679 0.4067951515193105 0 -0.32220383550265758 0.41664369491479047 0 -0.30767111289391957 0.41102336401071382 0 -0.30504452377827118 0.42750131418179782 0 -0.2827676452994658 0.4172027973302937 0 -0.30767111289391957 0.41102336401071382 0 -0.30504452377827118 0.42750131418179782 0 -0.29538272306702662 0.434900913874533 0 -0.30504452377827118 0.42750131418179782 0 -0.30797251513674301 0.44620423615481752 0 -0.29538272306702662 0.434900913874533 0 -0.30797251513674301 0.44620423615481752 0 -0.29017535645601122 0.44272056575085961 0 -0.30797251513674301 0.44620423615481752 0 -0.28747641958008202 0.46413615743655318 0 -0.30797251513674301 0.44620423615481752 0 -0.3064013601512251 0.4636969944553212 0 -0.28747641958008202 0.46413615743655318 0 -0.30797251513674301 0.44620423615481752 0 -0.28747641958008202 0.46413615743655318 0 -0.29017535645601122 0.44272056575085961 0 -0.28747641958008202 0.46413615743655318 0 -0.29017535645601122 0.44272056575085961 0 -0.27808662246271931 0.45190621331870517 0 -0.28665401605381807 0.43546326594170631 0 -0.29538272306702662 0.434900913874533 0 -0.29017535645601122 0.44272056575085961 0 -0.29017535645601122 0.44272056575085961 0 -0.27830280469427637 0.43835858859822852 0 -0.27808662246271931 0.45190621331870517 0 -0.28665401605381807 0.43546326594170631 0 -0.29017535645601122 0.44272056575085961 0 -0.27830280469427637 0.43835858859822852 0 -0.27830280469427637 0.43835858859822852 0 -0.27225123567397702 0.44547750441205808 0 -0.27808662246271931 0.45190621331870517 0 -0.27830280469427637 0.43835858859822852 0 -0.27225123567397702 0.44547750441205808 0 -0.26559878169559048 0.43762097286525509 0 -0.27225123567397702 0.44547750441205808 0 -0.26559878169559048 0.43762097286525509 0 -0.26483207816576781 0.45133983058039517 0 -0.27225123567397702 0.44547750441205808 0 -0.27808662246271931 0.45190621331870517 0 -0.26483207816576781 0.45133983058039517 0 -0.28747641958008202 0.46413615743655318 0 -0.27808662246271931 0.45190621331870517 0 -0.26503905078539769 0.46515549941930512 0 -0.27808662246271931 0.45190621331870517 0 -0.26503905078539769 0.46515549941930512 0 -0.26483207816576781 0.45133983058039517 0 -0.26503905078539769 0.46515549941930512 0 -0.25304040392598132 0.4521249231972726 0 -0.26483207816576781 0.45133983058039517 0 -0.26503905078539769 0.46515549941930512 0 -0.25304040392598132 0.4521249231972726 0 -0.24374374955050809 0.47386662456447942 0 -0.25304040392598132 0.4521249231972726 0 -0.25619777670869542 0.44134565548721438 0 -0.24767854363021569 0.44113716828954408 0 -0.25053498491516613 0.43234652891012437 0 -0.25619777670869542 0.44134565548721438 0 -0.24767854363021569 0.44113716828954408 0 -0.25619777670869542 0.44134565548721438 0 -0.26559878169559048 0.43762097286525509 0 -0.26483207816576781 0.45133983058039517 0 -0.25304040392598132 0.4521249231972726 0 -0.25619777670869542 0.44134565548721438 0 -0.26483207816576781 0.45133983058039517 0 -0.26698032402342098 0.48206807871828877 0 -0.27323488381420491 0.5 0 -0.24648422846675239 0.50000000000001554 0 -0.26698032402342098 0.48206807871828877 0 -0.24374374955050809 0.47386662456447942 0 -0.24648422846675239 0.50000000000001554 0 -0.26698032402342098 0.48206807871828877 0 -0.24648422846675239 0.50000000000001554 0 -0.26503905078539769 0.46515549941930512 0 -0.24374374955050809 0.47386662456447942 0 -0.26503905078539769 0.46515549941930512 0 -0.26698032402342098 0.48206807871828877 0 -0.24374374955050809 0.47386662456447942 0 -0.28747641958008202 0.46413615743655318 0 -0.26503905078539769 0.46515549941930512 0 -0.26698032402342098 0.48206807871828877 0 -0.28747641958008202 0.46413615743655318 0 -0.26698032402342098 0.48206807871828877 0 -0.28690181857895369 0.48530900240199099 0 -0.28747641958008202 0.46413615743655318 0 -0.26698032402342098 0.48206807871828877 0 -0.26698032402342098 0.48206807871828877 0 -0.27323488381420491 0.5 0 -0.28690181857895369 0.48530900240199099 0 -0.27323488381420491 0.5 0 -0.28690181857895369 0.48530900240199099 0 -0.29998553916165738 0.5 0 -0.28747641958008202 0.46413615743655318 0 -0.28690181857895369 0.48530900240199099 0 -0.30823164035231287 0.48048950736529977 0 -0.3064013601512251 0.4636969944553212 0 -0.28747641958008202 0.46413615743655318 0 -0.30823164035231287 0.48048950736529977 0 -0.30823164035231287 0.48048950736529977 0 -0.29998553916165738 0.5 0 -0.32554685807092337 0.49294006357496911 0 -0.28690181857895369 0.48530900240199099 0 -0.30823164035231287 0.48048950736529977 0 -0.29998553916165738 0.5 0 -0.29998553916165738 0.5 0 -0.32673619450910979 0.5 0 -0.32554685807092337 0.49294006357496911 0 -0.32554685807092337 0.49294006357496911 0 -0.34040288265164681 0.49077013773600392 0 -0.3480395035198724 0.47608667292352042 0 -0.32673619450910979 0.5 0 -0.32554685807092337 0.49294006357496911 0 -0.34040288265164681 0.49077013773600392 0 -0.32673619450910979 0.5 0 -0.34040288265164681 0.49077013773600392 0 -0.35348684985656231 0.5 0 -0.32554685807092337 0.49294006357496911 0 -0.3480395035198724 0.47608667292352042 0 -0.32554685807092337 0.49294006357496911 0 -0.32642152595421259 0.47849330002427681 0 -0.3480395035198724 0.47608667292352042 0 -0.32642152595421259 0.47849330002427681 0 -0.32386810187374188 0.46445695623331812 0 -0.3480395035198724 0.47608667292352042 0 -0.30823164035231287 0.48048950736529977 0 -0.32554685807092337 0.49294006357496911 0 -0.32642152595421259 0.47849330002427681 0 -0.30823164035231287 0.48048950736529977 0 -0.32642152595421259 0.47849330002427681 0 -0.32386810187374188 0.46445695623331812 0 -0.3064013601512251 0.4636969944553212 0 -0.30823164035231287 0.48048950736529977 0 -0.32386810187374188 0.46445695623331812 0 -0.30797251513674301 0.44620423615481752 0 -0.3064013601512251 0.4636969944553212 0 -0.32386810187374188 0.46445695623331812 0 -0.30797251513674301 0.44620423615481752 0 -0.32386810187374188 0.46445695623331812 0 -0.33228063847041911 0.44604987380441929 0 -0.32846861069340871 0.42827231487308709 0 -0.30797251513674301 0.44620423615481752 0 -0.33228063847041911 0.44604987380441929 0 -0.33228063847041911 0.44604987380441929 0 -0.33905894605854808 0.45966388986333712 0 -0.35134723525103229 0.44843574963590421 0 -0.34286803403394139 0.42874626996855258 0 -0.33228063847041911 0.44604987380441929 0 -0.35134723525103229 0.44843574963590421 0 -0.32386810187374188 0.46445695623331812 0 -0.33228063847041911 0.44604987380441929 0 -0.33905894605854808 0.45966388986333712 0 -0.32386810187374188 0.46445695623331812 0 -0.33905894605854808 0.45966388986333712 0 -0.3480395035198724 0.47608667292352042 0 -0.33905894605854808 0.45966388986333712 0 -0.35134723525103229 0.44843574963590421 0 -0.3480395035198724 0.47608667292352042 0 -0.35134723525103229 0.44843574963590421 0 -0.37053214896882142 0.45923328227207161 0 -0.3480395035198724 0.47608667292352042 0 -0.37053214896882142 0.45923328227207161 0 -0.3480395035198724 0.47608667292352042 0 -0.35418945076332531 0.43626432387785558 0 -0.34286803403394139 0.42874626996855258 0 -0.35134723525103229 0.44843574963590421 0 -0.35418945076332531 0.43626432387785558 0 -0.35134723525103229 0.44843574963590421 0 -0.37072554411125602 0.44147586445686993 0 -0.34286803403394139 0.42874626996855258 0 -0.35134723525103229 0.44843574963590421 0 -0.35134723525103229 0.44843574963590421 0 -0.37072554411125602 0.44147586445686993 0 -0.37053214896882142 0.45923328227207161 0 -0.37053214896882142 0.45923328227207161 0 -0.3732725268085203 0.48019306951550211 0 -0.3480395035198724 0.47608667292352042 0 -0.38023750520401478 0.5 0 -0.3732725268085203 0.48019306951550211 0 -0.35348684985656231 0.5 0 -0.34040288265164681 0.49077013773600392 0 -0.35348684985656231 0.5 0 -0.3480395035198724 0.47608667292352042 0 -0.3732725268085203 0.48019306951550211 0 -0.35348684985656231 0.5 0 -0.3480395035198724 0.47608667292352042 0 -0.15624648995465429 0.48023756602496748 0 -0.13591888044572159 0.47396049845625121 0 -0.1545696432565358 0.45931709689800332 0 -0.15624648995465429 0.48023756602496748 0 -0.1352385600768031 0.5 0 -0.13591888044572159 0.47396049845625121 0 -0.15624648995465429 0.48023756602496748 0 -0.1352385600768031 0.5 0 -0.1633121850176853 0.50000000000000044 0 -0.1352385600768031 0.5 0 -0.13591888044572159 0.47396049845625121 0 -0.1133355746363951 0.48468331260073799 0 -0.13591888044572159 0.47396049845625121 0 -0.13816113214061401 0.4509746802991435 0 -0.12184399935939901 0.45949444141964829 0 -0.130352424082403 0.43430557023855859 0 -0.12184399935939901 0.45949444141964829 0 -0.13816113214061401 0.4509746802991435 0 -0.130352424082403 0.43430557023855859 0 -0.12184399935939901 0.45949444141964829 0 -0.13816113214061401 0.4509746802991435 0 -0.1545696432565358 0.45931709689800332 0 -0.15654421756630579 0.43446715049218759 0 -0.13816113214061401 0.4509746802991435 0 -0.15654421756630579 0.43446715049218759 0 -0.130352424082403 0.43430557023855859 0 -0.13591888044572159 0.47396049845625121 0 -0.13816113214061401 0.4509746802991435 0 -0.1545696432565358 0.45931709689800332 0 -0.15624648995465429 0.48023756602496748 0 -0.1545696432565358 0.45931709689800332 0 -0.17247192704868619 0.46509414722954701 0 -0.1545696432565358 0.45931709689800332 0 -0.16837503888059591 0.44960466135950511 0 -0.17247192704868619 0.46509414722954701 0 -0.1545696432565358 0.45931709689800332 0 -0.16837503888059591 0.44960466135950511 0 -0.15654421756630579 0.43446715049218759 0 -0.16837503888059591 0.44960466135950511 0 -0.18027104917356321 0.43905785324356927 0 -0.15654421756630579 0.43446715049218759 0 -0.16837503888059591 0.44960466135950511 0 -0.18510777623243929 0.45242758901634011 0 -0.18027104917356321 0.43905785324356927 0 -0.18510777623243929 0.45242758901634011 0 -0.18027104917356321 0.43905785324356927 0 -0.1948337938946689 0.43958905814523358 0 -0.16837503888059591 0.44960466135950511 0 -0.18510777623243929 0.45242758901634011 0 -0.17247192704868619 0.46509414722954701 0 -0.18510777623243929 0.45242758901634011 0 -0.17247192704868619 0.46509414722954701 0 -0.1907600327983828 0.46622651001161358 0 -0.1770361089080342 0.4831132550058071 0 -0.18774332749214021 0.48875402712248411 0 -0.1929262081339593 0.48061397862930122 0 -0.17247192704868619 0.46509414722954701 0 -0.1770361089080342 0.4831132550058071 0 -0.1907600327983828 0.46622651001161358 0 -0.1770361089080342 0.4831132550058071 0 -0.1929262081339593 0.48061397862930122 0 -0.1907600327983828 0.46622651001161358 0 -0.1770361089080342 0.4831132550058071 0 -0.1907600327983828 0.46622651001161358 0 -0.15624648995465429 0.48023756602496748 0 -0.17247192704868619 0.46509414722954701 0 -0.1770361089080342 0.4831132550058071 0 -0.1770361089080342 0.4831132550058071 0 -0.1633121850176853 0.50000000000000044 0 -0.15624648995465429 0.48023756602496748 0 -0.1770361089080342 0.4831132550058071 0 -0.1633121850176853 0.50000000000000044 0 -0.1770361089080342 0.4831132550058071 0 -0.17985784584583861 0.50000000000000111 0 -0.18774332749214021 0.48875402712248411 0 -0.1770361089080342 0.4831132550058071 0 -0.1633121850176853 0.50000000000000044 0 -0.17985784584583861 0.50000000000000111 0 -0.17985784584583861 0.50000000000000111 0 -0.20115314708072871 0.49128887485482797 0 -0.20206664005280989 0.5 0 -0.17985784584583861 0.50000000000000111 0 -0.20115314708072871 0.49128887485482797 0 -0.17985784584583861 0.50000000000000111 0 -0.18774332749214021 0.48875402712248411 0 -0.20115314708072871 0.49128887485482797 0 -0.18774332749214021 0.48875402712248411 0 -0.20115314708072871 0.49128887485482797 0 -0.1929262081339593 0.48061397862930122 0 -0.20115314708072871 0.49128887485482797 0 -0.1929262081339593 0.48061397862930122 0 -0.20597485925078721 0.47453809357330801 0 -0.1929262081339593 0.48061397862930122 0 -0.20597485925078721 0.47453809357330801 0 -0.1907600327983828 0.46622651001161358 0 -0.20597485925078721 0.47453809357330801 0 -0.2224484483156183 0.48257774970965372 0 -0.21722448680260831 0.4628747561898845 0 -0.20115314708072871 0.49128887485482797 0 -0.20597485925078721 0.47453809357330801 0 -0.2224484483156183 0.48257774970965372 0 -0.20115314708072871 0.49128887485482797 0 -0.2224484483156183 0.48257774970965372 0 -0.20115314708072871 0.49128887485482797 0 -0.21398474670565551 0.49227221526215431 0 -0.2224484483156183 0.48257774970965372 0 -0.20206664005280989 0.5 0 -0.21398474670565551 0.49227221526215431 0 -0.22427543425978111 0.5 0 -0.20115314708072871 0.49128887485482797 0 -0.20206664005280989 0.5 0 -0.21398474670565551 0.49227221526215431 0 -0.22427543425978111 0.5 0 -0.2224484483156183 0.48257774970965372 0 -0.23456421263819971 0.48937324330947968 0 -0.21398474670565551 0.49227221526215431 0 -0.22427543425978111 0.5 0 -0.2224484483156183 0.48257774970965372 0 -0.2224484483156183 0.48257774970965372 0 -0.24374374955050809 0.47386662456447942 0 -0.2298661029634512 0.46844616678165613 0 -0.2224484483156183 0.48257774970965372 0 -0.24374374955050809 0.47386662456447942 0 -0.23456421263819971 0.48937324330947968 0 -0.2224484483156183 0.48257774970965372 0 -0.2298661029634512 0.46844616678165613 0 -0.21722448680260831 0.4628747561898845 0 -0.2224484483156183 0.48257774970965372 0 -0.24374374955050809 0.47386662456447942 0 -0.22427543425978111 0.5 0 -0.23456421263819971 0.48937324330947968 0 -0.24648422846675239 0.50000000000001554 0 -0.24374374955050809 0.47386662456447942 0 -0.23456421263819971 0.48937324330947968 0 -0.24648422846675239 0.50000000000001554 0 -0.23604772718507011 0.45446553666260692 0 -0.2440502956735178 0.42680994458466792 0 -0.24767854363021569 0.44113716828954408 0 -0.23604772718507011 0.45446553666260692 0 -0.2440502956735178 0.42680994458466792 0 -0.23604772718507011 0.45446553666260692 0 -0.23228782767820491 0.43985500723897442 0 -0.2440502956735178 0.42680994458466792 0 -0.25304040392598132 0.4521249231972726 0 -0.24767854363021569 0.44113716828954408 0 -0.23604772718507011 0.45446553666260692 0 -0.24374374955050809 0.47386662456447942 0 -0.23604772718507011 0.45446553666260692 0 -0.2298661029634512 0.46844616678165613 0 -0.25304040392598132 0.4521249231972726 0 -0.24374374955050809 0.47386662456447942 0 -0.23604772718507011 0.45446553666260692 0 -0.23604772718507011 0.45446553666260692 0 -0.2298661029634512 0.46844616678165613 0 -0.21722448680260831 0.4628747561898845 0 -0.23604772718507011 0.45446553666260692 0 -0.2207588818627495 0.44893637431462868 0 -0.21722448680260831 0.4628747561898845 0 -0.23604772718507011 0.45446553666260692 0 -0.2207588818627495 0.44893637431462868 0 -0.23228782767820491 0.43985500723897442 0 -0.2207588818627495 0.44893637431462868 0 -0.23228782767820491 0.43985500723897442 0 -0.22278303713234501 0.43634757186701362 0 -0.2207588818627495 0.44893637431462868 0 -0.2094034712655265 0.44057272906643169 0 -0.22278303713234501 0.43634757186701362 0 -0.2207588818627495 0.44893637431462868 0 -0.2094034712655265 0.44057272906643169 0 -0.20393481559873869 0.45499330410857269 0 -0.20597485925078721 0.47453809357330801 0 -0.21722448680260831 0.4628747561898845 0 -0.20393481559873869 0.45499330410857269 0 -0.2207588818627495 0.44893637431462868 0 -0.21722448680260831 0.4628747561898845 0 -0.20393481559873869 0.45499330410857269 0 -0.20597485925078721 0.47453809357330801 0 -0.20393481559873869 0.45499330410857269 0 -0.1907600327983828 0.46622651001161358 0 -0.18510777623243929 0.45242758901634011 0 -0.20393481559873869 0.45499330410857269 0 -0.1907600327983828 0.46622651001161358 0 -0.18510777623243929 0.45242758901634011 0 -0.20393481559873869 0.45499330410857269 0 -0.1948337938946689 0.43958905814523358 0 -0.2094034712655265 0.44057272906643169 0 -0.20393481559873869 0.45499330410857269 0 -0.1948337938946689 0.43958905814523358 0 -0.18027104917356321 0.43905785324356927 0 -0.1948337938946689 0.43958905814523358 0 -0.193657477982771 0.42521260509328063 0 -0.193657477982771 0.42521260509328063 0 -0.20132972791707959 0.42154350422342818 0 -0.2035740300893093 0.4303010531582141 0 -0.2094034712655265 0.44057272906643169 0 -0.1948337938946689 0.43958905814523358 0 -0.2035740300893093 0.4303010531582141 0 -0.1948337938946689 0.43958905814523358 0 -0.193657477982771 0.42521260509328063 0 -0.2035740300893093 0.4303010531582141 0 -0.19278997886437421 0.40848795586553549 0 -0.1971892360691789 0.41535279808171521 0 -0.18522884638603729 0.41651276305266161 0 -0.19278997886437421 0.40848795586553549 0 -0.1971892360691789 0.41535279808171521 0 -0.193657477982771 0.42521260509328063 0 -0.1971892360691789 0.41535279808171521 0 -0.18522884638603729 0.41651276305266161 0 -0.193657477982771 0.42521260509328063 0 -0.20132972791707959 0.42154350422342818 0 -0.1971892360691789 0.41535279808171521 0 -0.20132972791707959 0.42154350422342818 0 -0.20240574631362621 0.41430690585640911 0 -0.1971892360691789 0.41535279808171521 0 -0.20240574631362621 0.41430690585640911 0 -0.1971892360691789 0.41535279808171521 0 -0.19724205617047191 0.41123693610954531 0 -0.19278997886437421 0.40848795586553549 0 -0.1971892360691789 0.41535279808171521 0 -0.19724205617047191 0.41123693610954531 0 -0.20240574631362621 0.41430690585640911 0 -0.19724205617047191 0.41123693610954531 0 -0.20108540797174351 0.40864018078868258 0 -0.19278997886437421 0.40848795586553549 0 -0.19763255005510469 0.40697038417528991 0 -0.1955596088333742 0.40440974494432269 0 -0.19724205617047191 0.41123693610954531 0 -0.20108540797174351 0.40864018078868258 0 -0.19763255005510469 0.40697038417528991 0 -0.19278997886437421 0.40848795586553549 0 -0.19724205617047191 0.41123693610954531 0 -0.19763255005510469 0.40697038417528991 0 -0.20773687287061679 0.40763948057950949 0 -0.20878045662963279 0.41693735604078752 0 -0.21615132321843339 0.41213061900966352 0 -0.20240574631362621 0.41430690585640911 0 -0.20773687287061679 0.40763948057950949 0 -0.20878045662963279 0.41693735604078752 0 -0.20240574631362621 0.41430690585640911 0 -0.20108540797174351 0.40864018078868258 0 -0.20773687287061679 0.40763948057950949 0 -0.20132972791707959 0.42154350422342818 0 -0.20240574631362621 0.41430690585640911 0 -0.20878045662963279 0.41693735604078752 0 -0.20132972791707959 0.42154350422342818 0 -0.20878045662963279 0.41693735604078752 0 -0.20865432415267141 0.4241768065427387 0 -0.21602622884790151 0.42148563833765251 0 -0.21615132321843339 0.41213061900966352 0 -0.22186307583883541 0.41726689586818178 0 -0.20878045662963279 0.41693735604078752 0 -0.21602622884790151 0.42148563833765251 0 -0.21615132321843339 0.41213061900966352 0 -0.20878045662963279 0.41693735604078752 0 -0.21602622884790151 0.42148563833765251 0 -0.20865432415267141 0.4241768065427387 0 -0.20773687287061679 0.40763948057950949 0 -0.21615132321843339 0.41213061900966352 0 -0.21902191653430431 0.40107261379010117 0 -0.2094034712655265 0.44057272906643169 0 -0.2035740300893093 0.4303010531582141 0 -0.21356117727943361 0.4306164809536116 0 -0.2035740300893093 0.4303010531582141 0 -0.20865432415267141 0.4241768065427387 0 -0.21356117727943361 0.4306164809536116 0 -0.20132972791707959 0.42154350422342818 0 -0.2035740300893093 0.4303010531582141 0 -0.20865432415267141 0.4241768065427387 0 -0.21602622884790151 0.42148563833765251 0 -0.20865432415267141 0.4241768065427387 0 -0.21356117727943361 0.4306164809536116 0 -0.21602622884790151 0.42148563833765251 0 -0.21356117727943361 0.4306164809536116 0 -0.22344633703344891 0.42599240146706358 0 -0.2094034712655265 0.44057272906643169 0 -0.21356117727943361 0.4306164809536116 0 -0.22278303713234501 0.43634757186701362 0 -0.21356117727943361 0.4306164809536116 0 -0.22278303713234501 0.43634757186701362 0 -0.22344633703344891 0.42599240146706358 0 -0.23228782767820491 0.43985500723897442 0 -0.22278303713234501 0.43634757186701362 0 -0.2355051794121783 0.42893029091574347 0 -0.22278303713234501 0.43634757186701362 0 -0.22344633703344891 0.42599240146706358 0 -0.2355051794121783 0.42893029091574347 0 -0.22344633703344891 0.42599240146706358 0 -0.2291799756398103 0.41879629173717797 0 -0.2355051794121783 0.42893029091574347 0 -0.22186307583883541 0.41726689586818178 0 -0.22509125582010919 0.40992350980149689 0 -0.2291799756398103 0.41879629173717797 0 -0.21602622884790151 0.42148563833765251 0 -0.22344633703344891 0.42599240146706358 0 -0.22186307583883541 0.41726689586818178 0 -0.22344633703344891 0.42599240146706358 0 -0.22186307583883541 0.41726689586818178 0 -0.2291799756398103 0.41879629173717797 0 -0.21615132321843339 0.41213061900966352 0 -0.22186307583883541 0.41726689586818178 0 -0.22509125582010919 0.40992350980149689 0 -0.21615132321843339 0.41213061900966352 0 -0.22509125582010919 0.40992350980149689 0 -0.21902191653430431 0.40107261379010117 0 -0.22509125582010919 0.40992350980149689 0 -0.23310585679059409 0.4107995292569207 0 -0.2291799756398103 0.41879629173717797 0 -0.22509125582010919 0.40992350980149689 0 -0.23310585679059409 0.4107995292569207 0 -0.2302645267924249 0.40185853463076798 0 -0.23310585679059409 0.4107995292569207 0 -0.2291799756398103 0.41879629173717797 0 -0.23703062999628641 0.41777755282286028 0 -0.2291799756398103 0.41879629173717797 0 -0.23703062999628641 0.41777755282286028 0 -0.2355051794121783 0.42893029091574347 0 -0.25191178611931031 0.39964189557549668 0 -0.2401185671623203 0.40675851241039201 0 -0.2440502956735178 0.42680994458466792 0 -0.25191178611931031 0.39964189557549668 0 -0.2440502956735178 0.42680994458466792 0 -0.23703062999628641 0.41777755282286028 0 -0.2401185671623203 0.40675851241039201 0 -0.2440502956735178 0.42680994458466792 0 -0.23310585679059409 0.4107995292569207 0 -0.23703062999628641 0.41777755282286028 0 -0.2401185671623203 0.40675851241039201 0 -0.23310585679059409 0.4107995292569207 0 -0.2401185671623203 0.40675851241039201 0 -0.2302645267924249 0.40185853463076798 0 -0.25053498491516613 0.43234652891012437 0 -0.24767854363021569 0.44113716828954408 0 -0.2440502956735178 0.42680994458466792 0 -0.23228782767820491 0.43985500723897442 0 -0.2440502956735178 0.42680994458466792 0 -0.2355051794121783 0.42893029091574347 0 -0.2440502956735178 0.42680994458466792 0 -0.2355051794121783 0.42893029091574347 0 -0.23703062999628641 0.41777755282286028 0 -0.2440502956735178 0.42680994458466792 0 -0.2355051794121783 0.42893029091574347 0 -0.23805188293501339 0.38354505919160242 0 -0.2471182467330458 0.38725792776095402 0 -0.2384111117455657 0.39428445324421763 0 -0.23805188293501339 0.38354505919160242 0 -0.2490827846952394 0.37748677962220339 0 -0.23868571017554541 0.37425160161889343 0 -0.23805188293501339 0.38354505919160242 0 -0.2294498880957184 0.37760016876553948 0 -0.23868571017554541 0.37425160161889343 0 -0.23805188293501339 0.38354505919160242 0 -0.2490827846952394 0.37748677962220339 0 -0.2471182467330458 0.38725792776095402 0 -0.2471182467330458 0.38725792776095402 0 -0.24508187798892511 0.39643264784761612 0 -0.2384111117455657 0.39428445324421763 0 -0.25191178611931031 0.39964189557549668 0 -0.2471182467330458 0.38725792776095402 0 -0.24508187798892511 0.39643264784761612 0 -0.25191178611931031 0.39964189557549668 0 -0.2401185671623203 0.40675851241039201 0 -0.24508187798892511 0.39643264784761612 0 -0.2401185671623203 0.40675851241039201 0 -0.24508187798892511 0.39643264784761612 0 -0.2384111117455657 0.39428445324421763 0 -0.2401185671623203 0.40675851241039201 0 -0.2384111117455657 0.39428445324421763 0 -0.2302645267924249 0.40185853463076798 0 -0.2384111117455657 0.39428445324421763 0 -0.2302645267924249 0.40185853463076798 0 -0.2258384527016559 0.38831258928147971 0 -0.22509125582010919 0.40992350980149689 0 -0.2302645267924249 0.40185853463076798 0 -0.21902191653430431 0.40107261379010117 0 -0.2302645267924249 0.40185853463076798 0 -0.21902191653430431 0.40107261379010117 0 -0.2258384527016559 0.38831258928147971 0 -0.21902191653430431 0.40107261379010117 0 -0.2258384527016559 0.38831258928147971 0 -0.21365241444793739 0.38714534257275812 0 -0.2258384527016559 0.38831258928147971 0 -0.2170343187115113 0.3753142580097053 0 -0.21365241444793739 0.38714534257275812 0 -0.23805188293501339 0.38354505919160242 0 -0.2384111117455657 0.39428445324421763 0 -0.2258384527016559 0.38831258928147971 0 -0.23805188293501339 0.38354505919160242 0 -0.2258384527016559 0.38831258928147971 0 -0.2294498880957184 0.37760016876553948 0 -0.2258384527016559 0.38831258928147971 0 -0.2294498880957184 0.37760016876553948 0 -0.2170343187115113 0.3753142580097053 0 -0.2170343187115113 0.3753142580097053 0 -0.21365241444793739 0.38714534257275812 0 -0.20516516044255609 0.38056650883898502 0 -0.21365241444793739 0.38714534257275812 0 -0.20516516044255609 0.38056650883898502 0 -0.20218716741331591 0.39025436664286323 0 -0.20773687287061679 0.40763948057950949 0 -0.21902191653430431 0.40107261379010117 0 -0.20864016028959101 0.39709324697716802 0 -0.21902191653430431 0.40107261379010117 0 -0.21365241444793739 0.38714534257275812 0 -0.20864016028959101 0.39709324697716802 0 -0.21365241444793739 0.38714534257275812 0 -0.20864016028959101 0.39709324697716802 0 -0.20218716741331591 0.39025436664286323 0 -0.20864016028959101 0.39709324697716802 0 -0.20008255696510219 0.40209346196454698 0 -0.20218716741331591 0.39025436664286323 0 -0.20773687287061679 0.40763948057950949 0 -0.20864016028959101 0.39709324697716802 0 -0.20008255696510219 0.40209346196454698 0 -0.1955596088333742 0.40440974494432269 0 -0.20008255696510219 0.40209346196454698 0 -0.1928749046468653 0.39550079330494597 0 -0.19763255005510469 0.40697038417528991 0 -0.1955596088333742 0.40440974494432269 0 -0.20008255696510219 0.40209346196454698 0 -0.20108540797174351 0.40864018078868258 0 -0.19763255005510469 0.40697038417528991 0 -0.20008255696510219 0.40209346196454698 0 -0.20108540797174351 0.40864018078868258 0 -0.20773687287061679 0.40763948057950949 0 -0.20008255696510219 0.40209346196454698 0 -0.20008255696510219 0.40209346196454698 0 -0.1928749046468653 0.39550079330494597 0 -0.20218716741331591 0.39025436664286323 0 -0.19278997886437421 0.40848795586553549 0 -0.1955596088333742 0.40440974494432269 0 -0.1928749046468653 0.39550079330494597 0 -0.20516516044255609 0.38056650883898502 0 -0.19254504993584509 0.38129950295267118 0 -0.2004068517041708 0.36881907401692671 0 -0.1928749046468653 0.39550079330494597 0 -0.20218716741331591 0.39025436664286323 0 -0.19254504993584509 0.38129950295267118 0 -0.20516516044255609 0.38056650883898502 0 -0.20218716741331591 0.39025436664286323 0 -0.19254504993584509 0.38129950295267118 0 -0.17673527441674711 0.38343531453782859 0 -0.14469680087514369 0.39183958258887408 0 -0.15053275294488039 0.37456246612027932 0 -0.1928749046468653 0.39550079330494597 0 -0.19254504993584509 0.38129950295267118 0 -0.17673527441674711 0.38343531453782859 0 -0.17673527441674711 0.38343531453782859 0 -0.1658254138348898 0.40880232746149819 0 -0.14469680087514369 0.39183958258887408 0 -0.19254504993584509 0.38129950295267118 0 -0.17673527441674711 0.38343531453782859 0 -0.18251739543757359 0.36522454000215082 0 -0.19278997886437421 0.40848795586553549 0 -0.17673527441674711 0.38343531453782859 0 -0.1658254138348898 0.40880232746149819 0 -0.19278997886437421 0.40848795586553549 0 -0.1928749046468653 0.39550079330494597 0 -0.17673527441674711 0.38343531453782859 0 -0.19278997886437421 0.40848795586553549 0 -0.17673527441674711 0.38343531453782859 0 -0.18522884638603729 0.41651276305266161 0 -0.1766821251789725 0.4247081287612785 0 -0.1658254138348898 0.40880232746149819 0 -0.19278997886437421 0.40848795586553549 0 -0.1658254138348898 0.40880232746149819 0 -0.19278997886437421 0.40848795586553549 0 -0.18522884638603729 0.41651276305266161 0 -0.1658254138348898 0.40880232746149819 0 -0.18027104917356321 0.43905785324356927 0 -0.193657477982771 0.42521260509328063 0 -0.1766821251789725 0.4247081287612785 0 -0.193657477982771 0.42521260509328063 0 -0.18522884638603729 0.41651276305266161 0 -0.1766821251789725 0.4247081287612785 0 -0.1766821251789725 0.4247081287612785 0 -0.15654421756630579 0.43446715049218759 0 -0.1658254138348898 0.40880232746149819 0 -0.18027104917356321 0.43905785324356927 0 -0.1766821251789725 0.4247081287612785 0 -0.15654421756630579 0.43446715049218759 0 -0.1658254138348898 0.40880232746149819 0 -0.1388608488054055 0.40911669905746839 0 -0.15654421756630579 0.43446715049218759 0 -0.1658254138348898 0.40880232746149819 0 -0.1388608488054055 0.40911669905746839 0 -0.15654421756630579 0.43446715049218759 0 -0.130352424082403 0.43430557023855859 0 -0.1388608488054055 0.40911669905746839 0 -0.130352424082403 0.43430557023855859 0 -0.1388608488054055 0.40911669905746839 0 -0.1117126899340414 0.42884058773927097 0 -0.130352424082403 0.43430557023855859 0 -0.1388608488054055 0.40911669905746839 0 -0.1388608488054055 0.40911669905746839 0 -0.12596327196837129 0.39460249568311379 0 -0.1106435161383227 0.40944567628720008 0 -0.1388608488054055 0.40911669905746839 0 -0.12596327196837129 0.39460249568311379 0 -0.14469680087514369 0.39183958258887408 0 -0.12596327196837129 0.39460249568311379 0 -0.14469680087514369 0.39183958258887408 0 -0.13104035781165349 0.37496909120692018 0 -0.14469680087514369 0.39183958258887408 0 -0.15053275294488039 0.37456246612027932 0 -0.14469680087514369 0.39183958258887408 0 -0.15053275294488039 0.37456246612027932 0 -0.13104035781165349 0.37496909120692018 0 -0.1658254138348898 0.40880232746149819 0 -0.1388608488054055 0.40911669905746839 0 -0.14469680087514369 0.39183958258887408 0 -0.1388608488054055 0.40911669905746839 0 -0.14469680087514369 0.39183958258887408 0 -0.14333876436707479 0.3587931154319205 0 -0.1446258655214952 0.33333003188241322 0 -0.16068056996912111 0.35838267321012102 0 -0.1446258655214952 0.33333003188241322 0 -0.16068056996912111 0.35838267321012102 0 -0.14333876436707479 0.3587931154319205 0 -0.15053275294488039 0.37456246612027932 0 -0.13104035781165349 0.37496909120692018 0 -0.14333876436707479 0.3587931154319205 0 -0.15053275294488039 0.37456246612027932 0 -0.16068056996912111 0.35838267321012102 0 -0.14333876436707479 0.3587931154319205 0 -0.13104035781165349 0.37496909120692018 0 -0.129814275588224 0.35272131473986879 0 -0.14333876436707479 0.3587931154319205 0 -0.129814275588224 0.35272131473986879 0 -0.1446258655214952 0.33333003188241322 0 -0.129814275588224 0.35272131473986879 0 -0.1446258655214952 0.33333003188241322 0 -0.1230917104658374 0.33638367495537558 0 -0.1446258655214952 0.33333003188241322 0 -0.12397007536450549 0.31857397510865931 0 -0.1230917104658374 0.33638367495537558 0 -0.14542974226550309 0.31465567206889428 0 -0.1446258655214952 0.33333003188241322 0 -0.12397007536450549 0.31857397510865931 0 -0.14542974226550309 0.31465567206889428 0 -0.1446258655214952 0.33333003188241322 0 -0.16169254571279759 0.33465533014558407 0 -0.1446258655214952 0.33333003188241322 0 -0.16169254571279759 0.33465533014558407 0 -0.16068056996912111 0.35838267321012102 0 -0.16169254571279759 0.33465533014558407 0 -0.17641846445821821 0.32404991609274397 0 -0.17659614118323619 0.34477609622624961 0 -0.17641846445821821 0.32404991609274397 0 -0.17575232007811681 0.30576441183388681 0 -0.16263692805838709 0.3118765377276409 0 -0.16169254571279759 0.33465533014558407 0 -0.17641846445821821 0.32404991609274397 0 -0.16263692805838709 0.3118765377276409 0 -0.14542974226550309 0.31465567206889428 0 -0.16169254571279759 0.33465533014558407 0 -0.16263692805838709 0.3118765377276409 0 -0.17641846445821821 0.32404991609274397 0 -0.18822275274709879 0.30957849850182428 0 -0.17575232007811681 0.30576441183388681 0 -0.17641846445821821 0.32404991609274397 0 -0.1961835482539088 0.32221926073151691 0 -0.18822275274709879 0.30957849850182428 0 -0.17641846445821821 0.32404991609274397 0 -0.17659614118323619 0.34477609622624961 0 -0.19186434152691029 0.33669343931567192 0 -0.17659614118323619 0.34477609622624961 0 -0.16068056996912111 0.35838267321012102 0 -0.18251739543757359 0.36522454000215082 0 -0.17659614118323619 0.34477609622624961 0 -0.19051872337284401 0.35237396621085632 0 -0.19186434152691029 0.33669343931567192 0 -0.17659614118323619 0.34477609622624961 0 -0.18251739543757359 0.36522454000215082 0 -0.19051872337284401 0.35237396621085632 0 -0.16169254571279759 0.33465533014558407 0 -0.17659614118323619 0.34477609622624961 0 -0.16068056996912111 0.35838267321012102 0 -0.17673527441674711 0.38343531453782859 0 -0.16068056996912111 0.35838267321012102 0 -0.17673527441674711 0.38343531453782859 0 -0.15053275294488039 0.37456246612027932 0 -0.16068056996912111 0.35838267321012102 0 -0.17673527441674711 0.38343531453782859 0 -0.16068056996912111 0.35838267321012102 0 -0.18251739543757359 0.36522454000215082 0 -0.18251739543757359 0.36522454000215082 0 -0.2004068517041708 0.36881907401692671 0 -0.19051872337284401 0.35237396621085632 0 -0.19254504993584509 0.38129950295267118 0 -0.18251739543757359 0.36522454000215082 0 -0.2004068517041708 0.36881907401692671 0 -0.2004068517041708 0.36881907401692671 0 -0.19051872337284401 0.35237396621085632 0 -0.2050739720011335 0.35049795691001828 0 -0.19051872337284401 0.35237396621085632 0 -0.2050739720011335 0.35049795691001828 0 -0.19186434152691029 0.33669343931567192 0 -0.2050739720011335 0.35049795691001828 0 -0.2161935225803652 0.34452633705066271 0 -0.21582563444395311 0.35958050199240482 0 -0.2004068517041708 0.36881907401692671 0 -0.2050739720011335 0.35049795691001828 0 -0.21582563444395311 0.35958050199240482 0 -0.2170343187115113 0.3753142580097053 0 -0.2004068517041708 0.36881907401692671 0 -0.21582563444395311 0.35958050199240482 0 -0.2170343187115113 0.3753142580097053 0 -0.20516516044255609 0.38056650883898502 0 -0.2004068517041708 0.36881907401692671 0 -0.2170343187115113 0.3753142580097053 0 -0.21582563444395311 0.35958050199240482 0 -0.2310216895863467 0.36451859556345523 0 -0.2294498880957184 0.37760016876553948 0 -0.2170343187115113 0.3753142580097053 0 -0.2310216895863467 0.36451859556345523 0 -0.2294498880957184 0.37760016876553948 0 -0.2310216895863467 0.36451859556345523 0 -0.23868571017554541 0.37425160161889343 0 -0.2161935225803652 0.34452633705066271 0 -0.21582563444395311 0.35958050199240482 0 -0.2252681747427201 0.35251632032633262 0 -0.21582563444395311 0.35958050199240482 0 -0.2310216895863467 0.36451859556345523 0 -0.2252681747427201 0.35251632032633262 0 -0.2161935225803652 0.34452633705066271 0 -0.2252681747427201 0.35251632032633262 0 -0.22948289891808299 0.33875352601970488 0 -0.2252681747427201 0.35251632032633262 0 -0.23641277916291109 0.35077006388465848 0 -0.22948289891808299 0.33875352601970488 0 -0.2310216895863467 0.36451859556345523 0 -0.2252681747427201 0.35251632032633262 0 -0.23641277916291109 0.35077006388465848 0 -0.2310216895863467 0.36451859556345523 0 -0.23641277916291109 0.35077006388465848 0 -0.2446228268146198 0.35833007190439459 0 -0.23641277916291109 0.35077006388465848 0 -0.2479355413711799 0.34823426784454709 0 -0.24061377774472559 0.34043910420937729 0 -0.25548857221827431 0.3561438189173034 0 -0.2479355413711799 0.34823426784454709 0 -0.2446228268146198 0.35833007190439459 0 -0.23641277916291109 0.35077006388465848 0 -0.2479355413711799 0.34823426784454709 0 -0.2446228268146198 0.35833007190439459 0 -0.25173169702445591 0.36538910900394789 0 -0.2446228268146198 0.35833007190439459 0 -0.24582230556540921 0.36810740495166627 0 -0.2522632447770769 0.37136687326983869 0 -0.25173169702445591 0.36538910900394789 0 -0.24582230556540921 0.36810740495166627 0 -0.2522632447770769 0.37136687326983869 0 -0.2490827846952394 0.37748677962220339 0 -0.24582230556540921 0.36810740495166627 0 -0.2490827846952394 0.37748677962220339 0 -0.24582230556540921 0.36810740495166627 0 -0.23868571017554541 0.37425160161889343 0 -0.2310216895863467 0.36451859556345523 0 -0.24582230556540921 0.36810740495166627 0 -0.23868571017554541 0.37425160161889343 0 -0.2310216895863467 0.36451859556345523 0 -0.2446228268146198 0.35833007190439459 0 -0.24582230556540921 0.36810740495166627 0 -0.23972360068472301 0.32775766005211582 0 -0.24178078206833439 0.31499211429713808 0 -0.2272456928745579 0.31887847874853209 0 -0.25200238200409242 0.32613994431744198 0 -0.25280659957202473 0.31536167623520123 0 -0.24178078206833439 0.31499211429713808 0 -0.25200238200409242 0.32613994431744198 0 -0.23972360068472301 0.32775766005211582 0 -0.24178078206833439 0.31499211429713808 0 -0.25201889083337381 0.33763754124328149 0 -0.25200238200409242 0.32613994431744198 0 -0.23972360068472301 0.32775766005211582 0 -0.25201889083337381 0.33763754124328149 0 -0.23972360068472301 0.32775766005211582 0 -0.24061377774472559 0.34043910420937729 0 -0.25201889083337381 0.33763754124328149 0 -0.2479355413711799 0.34823426784454709 0 -0.24061377774472559 0.34043910420937729 0 -0.23641277916291109 0.35077006388465848 0 -0.24061377774472559 0.34043910420937729 0 -0.22948289891808299 0.33875352601970488 0 -0.23972360068472301 0.32775766005211582 0 -0.24061377774472559 0.34043910420937729 0 -0.22948289891808299 0.33875352601970488 0 -0.23972360068472301 0.32775766005211582 0 -0.22932919776213229 0.32881777064963302 0 -0.22948289891808299 0.33875352601970488 0 -0.2161935225803652 0.34452633705066271 0 -0.22948289891808299 0.33875352601970488 0 -0.21976412088808131 0.33067676621222403 0 -0.22932919776213229 0.32881777064963302 0 -0.22948289891808299 0.33875352601970488 0 -0.21976412088808131 0.33067676621222403 0 -0.21976412088808131 0.33067676621222403 0 -0.2272456928745579 0.31887847874853209 0 -0.21108633174115449 0.31996345523571262 0 -0.22932919776213229 0.32881777064963302 0 -0.21976412088808131 0.33067676621222403 0 -0.2272456928745579 0.31887847874853209 0 -0.23972360068472301 0.32775766005211582 0 -0.22932919776213229 0.32881777064963302 0 -0.2272456928745579 0.31887847874853209 0 -0.24178078206833439 0.31499211429713808 0 -0.2272456928745579 0.31887847874853209 0 -0.23307966839385491 0.30489099710086681 0 -0.2272456928745579 0.31887847874853209 0 -0.21108633174115449 0.31996345523571262 0 -0.21659332039087209 0.30584470410467413 0 -0.21108633174115449 0.31996345523571262 0 -0.20717750961154621 0.33473693817618733 0 -0.1961835482539088 0.32221926073151691 0 -0.21108633174115449 0.31996345523571262 0 -0.1961835482539088 0.32221926073151691 0 -0.20233188943852459 0.30829331706696161 0 -0.2050739720011335 0.35049795691001828 0 -0.2161935225803652 0.34452633705066271 0 -0.20717750961154621 0.33473693817618733 0 -0.2161935225803652 0.34452633705066271 0 -0.21976412088808131 0.33067676621222403 0 -0.20717750961154621 0.33473693817618733 0 -0.21976412088808131 0.33067676621222403 0 -0.21108633174115449 0.31996345523571262 0 -0.20717750961154621 0.33473693817618733 0 -0.2050739720011335 0.35049795691001828 0 -0.20717750961154621 0.33473693817618733 0 -0.19186434152691029 0.33669343931567192 0 -0.20717750961154621 0.33473693817618733 0 -0.19186434152691029 0.33669343931567192 0 -0.1961835482539088 0.32221926073151691 0 -0.17641846445821821 0.32404991609274397 0 -0.19186434152691029 0.33669343931567192 0 -0.1961835482539088 0.32221926073151691 0 -0.1961835482539088 0.32221926073151691 0 -0.18822275274709879 0.30957849850182428 0 -0.20233188943852459 0.30829331706696161 0 -0.18822275274709879 0.30957849850182428 0 -0.1940038116554699 0.30036625960281138 0 -0.20233188943852459 0.30829331706696161 0 -0.18822275274709879 0.30957849850182428 0 -0.1940038116554699 0.30036625960281138 0 -0.18510620475771319 0.2993973377362435 0 -0.1940038116554699 0.30036625960281138 0 -0.20233188943852459 0.30829331706696161 0 -0.2041279009606996 0.29470970672426833 0 -0.19023031037331331 0.28985243798475913 0 -0.19874910043472291 0.28217486480959447 0 -0.18947089193067559 0.27646337472262189 0 -0.1940038116554699 0.30036625960281138 0 -0.19023031037331331 0.28985243798475913 0 -0.18510620475771319 0.2993973377362435 0 -0.1940038116554699 0.30036625960281138 0 -0.19023031037331331 0.28985243798475913 0 -0.2041279009606996 0.29470970672426833 0 -0.19023031037331331 0.28985243798475913 0 -0.19874910043472291 0.28217486480959447 0 -0.2041279009606996 0.29470970672426833 0 -0.19874910043472291 0.28217486480959447 0 -0.2041279009606996 0.29470970672426833 0 -0.21051879871216339 0.28101318849177997 0 -0.2041279009606996 0.29470970672426833 0 -0.2155797891188056 0.29264212923854988 0 -0.21051879871216339 0.28101318849177997 0 -0.2155797891188056 0.29264212923854988 0 -0.22381856928560809 0.2852115680268501 0 -0.21051879871216339 0.28101318849177997 0 -0.21108633174115449 0.31996345523571262 0 -0.20233188943852459 0.30829331706696161 0 -0.21659332039087209 0.30584470410467413 0 -0.20233188943852459 0.30829331706696161 0 -0.2041279009606996 0.29470970672426833 0 -0.21659332039087209 0.30584470410467413 0 -0.2041279009606996 0.29470970672426833 0 -0.2155797891188056 0.29264212923854988 0 -0.21659332039087209 0.30584470410467413 0 -0.2272456928745579 0.31887847874853209 0 -0.21659332039087209 0.30584470410467413 0 -0.23307966839385491 0.30489099710086681 0 -0.21659332039087209 0.30584470410467413 0 -0.23307966839385491 0.30489099710086681 0 -0.2245192185449057 0.29626989099590939 0 -0.23307966839385491 0.30489099710086681 0 -0.2245192185449057 0.29626989099590939 0 -0.2343641766854983 0.29267926258397259 0 -0.2155797891188056 0.29264212923854988 0 -0.21659332039087209 0.30584470410467413 0 -0.2245192185449057 0.29626989099590939 0 -0.2155797891188056 0.29264212923854988 0 -0.2245192185449057 0.29626989099590939 0 -0.22381856928560809 0.2852115680268501 0 -0.22381856928560809 0.2852115680268501 0 -0.2343641766854983 0.29267926258397259 0 -0.2367412095755739 0.28087720276140099 0 -0.2245192185449057 0.29626989099590939 0 -0.22381856928560809 0.2852115680268501 0 -0.2343641766854983 0.29267926258397259 0 -0.25291011172958761 0.29068471160121451 0 -0.24477849349721781 0.28892865058449718 0 -0.24867206784699869 0.27189133605523319 0 -0.2343641766854983 0.29267926258397259 0 -0.24477849349721781 0.28892865058449718 0 -0.24271697208644241 0.29909551961545577 0 -0.2343641766854983 0.29267926258397259 0 -0.24477849349721781 0.28892865058449718 0 -0.2367412095755739 0.28087720276140099 0 -0.25005404830863931 0.29762624806818933 0 -0.24477849349721781 0.28892865058449718 0 -0.24271697208644241 0.29909551961545577 0 -0.25005404830863931 0.29762624806818933 0 -0.25291011172958761 0.29068471160121451 0 -0.24477849349721781 0.28892865058449718 0 -0.25119498990301509 0.3058767496747325 0 -0.25005404830863931 0.29762624806818933 0 -0.24271697208644241 0.29909551961545577 0 -0.24178078206833439 0.31499211429713808 0 -0.23307966839385491 0.30489099710086681 0 -0.24271697208644241 0.29909551961545577 0 -0.25119498990301509 0.3058767496747325 0 -0.24178078206833439 0.31499211429713808 0 -0.24271697208644241 0.29909551961545577 0 -0.25119498990301509 0.3058767496747325 0 -0.25280659957202473 0.31536167623520123 0 -0.24178078206833439 0.31499211429713808 0 -0.23307966839385491 0.30489099710086681 0 -0.2343641766854983 0.29267926258397259 0 -0.24271697208644241 0.29909551961545577 0 -0.2562248113956862 0.25264095397355368 0 -0.24014977132531551 0.25900738498281878 0 -0.2458317757582171 0.2446418362568786 0 -0.24014977132531551 0.25900738498281878 0 -0.234641602549478 0.25827123147939729 0 -0.24867206784699869 0.27189133605523319 0 -0.234641602549478 0.25827123147939729 0 -0.24867206784699869 0.27189133605523319 0 -0.24014977132531551 0.25900738498281878 0 -0.234641602549478 0.25827123147939729 0 -0.24014977132531551 0.25900738498281878 0 -0.234641602549478 0.25827123147939729 0 -0.23064898443115511 0.24464415868785089 0 -0.24014977132531551 0.25900738498281878 0 -0.23064898443115511 0.24464415868785089 0 -0.24014977132531551 0.25900738498281878 0 -0.24867206784699869 0.27189133605523319 0 -0.234641602549478 0.25827123147939729 0 -0.24867206784699869 0.27189133605523319 0 -0.2275593646359047 0.27081348576966952 0 -0.24867206784699869 0.27189133605523319 0 -0.2367412095755739 0.28087720276140099 0 -0.2275593646359047 0.27081348576966952 0 -0.24477849349721781 0.28892865058449718 0 -0.24867206784699869 0.27189133605523319 0 -0.2367412095755739 0.28087720276140099 0 -0.22381856928560809 0.2852115680268501 0 -0.2367412095755739 0.28087720276140099 0 -0.2275593646359047 0.27081348576966952 0 -0.22381856928560809 0.2852115680268501 0 -0.2275593646359047 0.27081348576966952 0 -0.21866996910523759 0.27640000361222289 0 -0.2275593646359047 0.27081348576966952 0 -0.21866996910523759 0.27640000361222289 0 -0.21282764707511601 0.26820028850721872 0 -0.2275593646359047 0.27081348576966952 0 -0.21661057984700571 0.25586142868052769 0 -0.21282764707511601 0.26820028850721872 0 -0.234641602549478 0.25827123147939729 0 -0.2275593646359047 0.27081348576966952 0 -0.21661057984700571 0.25586142868052769 0 -0.234641602549478 0.25827123147939729 0 -0.21661057984700571 0.25586142868052769 0 -0.22060554166969151 0.24464569497996119 0 -0.234641602549478 0.25827123147939729 0 -0.21661057984700571 0.25586142868052769 0 -0.234641602549478 0.25827123147939729 0 -0.22060554166969151 0.24464569497996119 0 -0.21661057984700571 0.25586142868052769 0 -0.19857955714453349 0.25345162588165782 0 -0.21661057984700571 0.25586142868052769 0 -0.21282764707511601 0.26820028850721872 0 -0.19857955714453349 0.25345162588165782 0 -0.21661057984700571 0.25586142868052769 0 -0.19857955714453349 0.25345162588165782 0 -0.20064135842384631 0.24464874879506759 0 -0.21282764707511601 0.26820028850721872 0 -0.1993976001967625 0.26883561612454282 0 -0.19857955714453349 0.25345162588165782 0 -0.21282764707511601 0.26820028850721872 0 -0.19857955714453349 0.25345162588165782 0 -0.21866996910523759 0.27640000361222289 0 -0.21282764707511601 0.26820028850721872 0 -0.21051879871216339 0.28101318849177997 0 -0.22381856928560809 0.2852115680268501 0 -0.21866996910523759 0.27640000361222289 0 -0.21051879871216339 0.28101318849177997 0 -0.21282764707511601 0.26820028850721872 0 -0.21051879871216339 0.28101318849177997 0 -0.1993976001967625 0.26883561612454282 0 -0.1993976001967625 0.26883561612454282 0 -0.18947089193067559 0.27646337472262189 0 -0.18147171244095489 0.26539659870729421 0 -0.19874910043472291 0.28217486480959447 0 -0.21051879871216339 0.28101318849177997 0 -0.1993976001967625 0.26883561612454282 0 -0.19874910043472291 0.28217486480959447 0 -0.1993976001967625 0.26883561612454282 0 -0.18947089193067559 0.27646337472262189 0 -0.1993976001967625 0.26883561612454282 0 -0.19857955714453349 0.25345162588165782 0 -0.18147171244095489 0.26539659870729421 0 -0.18147171244095489 0.26539659870729421 0 -0.168800609846851 0.26159893993492989 0 -0.17078674805864269 0.249737183820953 0 -0.19857955714453349 0.25345162588165782 0 -0.18147171244095489 0.26539659870729421 0 -0.17078674805864269 0.249737183820953 0 -0.19857955714453349 0.25345162588165782 0 -0.17078674805864269 0.249737183820953 0 -0.168800609846851 0.26159893993492989 0 -0.15830810048639851 0.25966242538186912 0 -0.17078674805864269 0.249737183820953 0 -0.15830810048639851 0.25966242538186912 0 -0.17078674805864269 0.249737183820953 0 -0.1429939389727522 0.24602274176024699 0 -0.168800609846851 0.26159893993492989 0 -0.15830810048639851 0.25966242538186912 0 -0.1651056550463714 0.27221832624752779 0 -0.18147171244095489 0.26539659870729421 0 -0.168800609846851 0.26159893993492989 0 -0.1651056550463714 0.27221832624752779 0 -0.1651056550463714 0.27221832624752779 0 -0.1632499737484423 0.28650286003541631 0 -0.15097954447939299 0.27936420888639502 0 -0.1651056550463714 0.27221832624752779 0 -0.15333832498344491 0.26864141271088349 0 -0.15097954447939299 0.27936420888639502 0 -0.15830810048639851 0.25966242538186912 0 -0.1651056550463714 0.27221832624752779 0 -0.15333832498344491 0.26864141271088349 0 -0.1651056550463714 0.27221832624752779 0 -0.17766923763847939 0.27991424835765383 0 -0.1632499737484423 0.28650286003541631 0 -0.18147171244095489 0.26539659870729421 0 -0.1651056550463714 0.27221832624752779 0 -0.17766923763847939 0.27991424835765383 0 -0.18947089193067559 0.27646337472262189 0 -0.18147171244095489 0.26539659870729421 0 -0.17766923763847939 0.27991424835765383 0 -0.19023031037331331 0.28985243798475913 0 -0.17766923763847939 0.27991424835765383 0 -0.17634724428722759 0.29249893900843532 0 -0.19023031037331331 0.28985243798475913 0 -0.18947089193067559 0.27646337472262189 0 -0.17766923763847939 0.27991424835765383 0 -0.19023031037331331 0.28985243798475913 0 -0.17634724428722759 0.29249893900843532 0 -0.18510620475771319 0.2993973377362435 0 -0.17766923763847939 0.27991424835765383 0 -0.17634724428722759 0.29249893900843532 0 -0.1632499737484423 0.28650286003541631 0 -0.18822275274709879 0.30957849850182428 0 -0.18510620475771319 0.2993973377362435 0 -0.17575232007811681 0.30576441183388681 0 -0.17634724428722759 0.29249893900843532 0 -0.17575232007811681 0.30576441183388681 0 -0.16605191316959689 0.29767619235354492 0 -0.17634724428722759 0.29249893900843532 0 -0.18510620475771319 0.2993973377362435 0 -0.17575232007811681 0.30576441183388681 0 -0.16605191316959689 0.29767619235354492 0 -0.16263692805838709 0.3118765377276409 0 -0.1509054050288991 0.29460296313813988 0 -0.17575232007811681 0.30576441183388681 0 -0.16605191316959689 0.29767619235354492 0 -0.16263692805838709 0.3118765377276409 0 -0.17634724428722759 0.29249893900843532 0 -0.16605191316959689 0.29767619235354492 0 -0.1632499737484423 0.28650286003541631 0 -0.16605191316959689 0.29767619235354492 0 -0.1632499737484423 0.28650286003541631 0 -0.1509054050288991 0.29460296313813988 0 -0.1632499737484423 0.28650286003541631 0 -0.1509054050288991 0.29460296313813988 0 -0.15097954447939299 0.27936420888639502 0 -0.1509054050288991 0.29460296313813988 0 -0.13899244526474361 0.28073653122060938 0 -0.15097954447939299 0.27936420888639502 0 -0.14542974226550309 0.31465567206889428 0 -0.16263692805838709 0.3118765377276409 0 -0.1509054050288991 0.29460296313813988 0 -0.14542974226550309 0.31465567206889428 0 -0.1509054050288991 0.29460296313813988 0 -0.13028833234054599 0.29529355403858082 0 -0.14542974226550309 0.31465567206889428 0 -0.13028833234054599 0.29529355403858082 0 -0.12397007536450549 0.31857397510865931 0 -0.1509054050288991 0.29460296313813988 0 -0.13028833234054599 0.29529355403858082 0 -0.13899244526474361 0.28073653122060938 0 -0.13028833234054599 0.29529355403858082 0 -0.12648600995874881 0.27985374716391598 0 -0.1191800839168677 0.28868884579119453 0 -0.13028833234054599 0.29529355403858082 0 -0.12648600995874881 0.27985374716391598 0 -0.13899244526474361 0.28073653122060938 0 -0.12648600995874881 0.27985374716391598 0 -0.13899244526474361 0.28073653122060938 0 -0.13226526154108159 0.27018196797474031 0 -0.13899244526474361 0.28073653122060938 0 -0.13226526154108159 0.27018196797474031 0 -0.143030118239793 0.26512274612188458 0 -0.12648600995874881 0.27985374716391598 0 -0.13226526154108159 0.27018196797474031 0 -0.1203605447893499 0.26659397750583153 0 -0.13262437441064859 0.25896668535612571 0 -0.12374377023097261 0.25469170427577409 0 -0.1203605447893499 0.26659397750583153 0 -0.13226526154108159 0.27018196797474031 0 -0.13262437441064859 0.25896668535612571 0 -0.1203605447893499 0.26659397750583153 0 -0.13262437441064859 0.25896668535612571 0 -0.12374377023097261 0.25469170427577409 0 -0.13245151858712459 0.24999799412478341 0 -0.13262437441064859 0.25896668535612571 0 -0.13245151858712459 0.24999799412478341 0 -0.12374377023097261 0.25469170427577409 0 -0.13245151858712459 0.24999799412478341 0 -0.11914498469304979 0.24556415544938651 0 -0.143030118239793 0.26512274612188458 0 -0.13245151858712459 0.24999799412478341 0 -0.143030118239793 0.26512274612188458 0 -0.14202169771060019 0.25553224001711627 0 -0.13245151858712459 0.24999799412478341 0 -0.13226526154108159 0.27018196797474031 0 -0.13262437441064859 0.25896668535612571 0 -0.143030118239793 0.26512274612188458 0 -0.13262437441064859 0.25896668535612571 0 -0.143030118239793 0.26512274612188458 0 -0.13245151858712459 0.24999799412478341 0 -0.14793843607859769 0.25899631319840011 0 -0.143030118239793 0.26512274612188458 0 -0.14202169771060019 0.25553224001711627 0 -0.14793843607859769 0.25899631319840011 0 -0.143030118239793 0.26512274612188458 0 -0.15333832498344491 0.26864141271088349 0 -0.14793843607859769 0.25899631319840011 0 -0.14202169771060019 0.25553224001711627 0 -0.1429939389727522 0.24602274176024699 0 -0.15830810048639851 0.25966242538186912 0 -0.14793843607859769 0.25899631319840011 0 -0.1429939389727522 0.24602274176024699 0 -0.15830810048639851 0.25966242538186912 0 -0.14793843607859769 0.25899631319840011 0 -0.15333832498344491 0.26864141271088349 0 -0.143030118239793 0.26512274612188458 0 -0.15333832498344491 0.26864141271088349 0 -0.15097954447939299 0.27936420888639502 0 -0.13899244526474361 0.28073653122060938 0 -0.143030118239793 0.26512274612188458 0 -0.15097954447939299 0.27936420888639502 0 -0.106840049872459 0.27220896914084108 0 -0.095908474112371175 0.27610505719318212 0 -0.1060598822833542 0.28549317975237809 0 -0.106840049872459 0.27220896914084108 0 -0.103397395277155 0.26049861592599061 0 -0.092845076362937373 0.2654927990734961 0 -0.106840049872459 0.27220896914084108 0 -0.095908474112371175 0.27610505719318212 0 -0.092845076362937373 0.2654927990734961 0 -0.103397395277155 0.26049861592599061 0 -0.092845076362937373 0.2654927990734961 0 -0.091867061917784446 0.2492044006527013 0 -0.103397395277155 0.26049861592599061 0 -0.1059001519073807 0.24066599892186191 0 -0.091867061917784446 0.2492044006527013 0 -0.103397395277155 0.26049861592599061 0 -0.1144267452547701 0.25408918909134198 0 -0.1059001519073807 0.24066599892186191 0 -0.103397395277155 0.26049861592599061 0 -0.1144267452547701 0.25408918909134198 0 -0.1203605447893499 0.26659397750583153 0 -0.1144267452547701 0.25408918909134198 0 -0.12374377023097261 0.25469170427577409 0 -0.11914498469304979 0.24556415544938651 0 -0.1144267452547701 0.25408918909134198 0 -0.12374377023097261 0.25469170427577409 0 -0.1203605447893499 0.26659397750583153 0 -0.106840049872459 0.27220896914084108 0 -0.103397395277155 0.26049861592599061 0 -0.1203605447893499 0.26659397750583153 0 -0.106840049872459 0.27220896914084108 0 -0.1203605447893499 0.26659397750583153 0 -0.1157853141641559 0.27856774387083222 0 -0.106840049872459 0.27220896914084108 0 -0.1157853141641559 0.27856774387083222 0 -0.1060598822833542 0.28549317975237809 0 -0.12648600995874881 0.27985374716391598 0 -0.1203605447893499 0.26659397750583153 0 -0.1157853141641559 0.27856774387083222 0 -0.13028833234054599 0.29529355403858082 0 -0.1191800839168677 0.28868884579119453 0 -0.1136134943371496 0.30018735259821172 0 -0.12648600995874881 0.27985374716391598 0 -0.1157853141641559 0.27856774387083222 0 -0.1191800839168677 0.28868884579119453 0 -0.1191800839168677 0.28868884579119453 0 -0.1136134943371496 0.30018735259821172 0 -0.1060598822833542 0.28549317975237809 0 -0.1157853141641559 0.27856774387083222 0 -0.1191800839168677 0.28868884579119453 0 -0.1060598822833542 0.28549317975237809 0 -0.1136134943371496 0.30018735259821172 0 -0.1011040832332329 0.31115950435389489 0 -0.12397007536450549 0.31857397510865931 0 -0.13028833234054599 0.29529355403858082 0 -0.1136134943371496 0.30018735259821172 0 -0.12397007536450549 0.31857397510865931 0 -0.099084024166515169 0.29696458365491701 0 -0.1011040832332329 0.31115950435389489 0 -0.083773834177495385 0.30094251548224149 0 -0.1136134943371496 0.30018735259821172 0 -0.099084024166515169 0.29696458365491701 0 -0.1011040832332329 0.31115950435389489 0 -0.1136134943371496 0.30018735259821172 0 -0.099084024166515169 0.29696458365491701 0 -0.1060598822833542 0.28549317975237809 0 -0.099084024166515169 0.29696458365491701 0 -0.1060598822833542 0.28549317975237809 0 -0.090868826801343672 0.28704036608785838 0 -0.095908474112371175 0.27610505719318212 0 -0.1060598822833542 0.28549317975237809 0 -0.090868826801343672 0.28704036608785838 0 -0.099084024166515169 0.29696458365491701 0 -0.090868826801343672 0.28704036608785838 0 -0.083773834177495385 0.30094251548224149 0 -0.090868826801343672 0.28704036608785838 0 -0.083773834177495385 0.30094251548224149 0 -0.076671432637929804 0.2864446074574542 0 -0.090868826801343672 0.28704036608785838 0 -0.076671432637929804 0.2864446074574542 0 -0.080485065559899913 0.27358035701615541 0 -0.083773834177495385 0.30094251548224149 0 -0.070323297179414088 0.31062755081580079 0 -0.084818523177944874 0.31978063019741371 0 -0.1011040832332329 0.31115950435389489 0 -0.083773834177495385 0.30094251548224149 0 -0.084818523177944874 0.31978063019741371 0 -0.083773834177495385 0.30094251548224149 0 -0.070323297179414088 0.31062755081580079 0 -0.063053212229007005 0.29325946359979438 0 -0.070323297179414088 0.31062755081580079 0 -0.063053212229007005 0.29325946359979438 0 -0.057680660243713822 0.3095038896991622 0 -0.083773834177495385 0.30094251548224149 0 -0.063053212229007005 0.29325946359979438 0 -0.076671432637929804 0.2864446074574542 0 -0.063053212229007005 0.29325946359979438 0 -0.076671432637929804 0.2864446074574542 0 -0.062325228383836452 0.27540063787597469 0 -0.076671432637929804 0.2864446074574542 0 -0.080485065559899913 0.27358035701615541 0 -0.062325228383836452 0.27540063787597469 0 -0.080485065559899913 0.27358035701615541 0 -0.069201161885137474 0.26509370108579211 0 -0.062325228383836452 0.27540063787597469 0 -0.080485065559899913 0.27358035701615541 0 -0.081708816647052651 0.26241492653209358 0 -0.069201161885137474 0.26509370108579211 0 -0.080485065559899913 0.27358035701615541 0 -0.092845076362937373 0.2654927990734961 0 -0.081708816647052651 0.26241492653209358 0 -0.095908474112371175 0.27610505719318212 0 -0.080485065559899913 0.27358035701615541 0 -0.092845076362937373 0.2654927990734961 0 -0.095908474112371175 0.27610505719318212 0 -0.090868826801343672 0.28704036608785838 0 -0.080485065559899913 0.27358035701615541 0 -0.081708816647052651 0.26241492653209358 0 -0.073310846749778752 0.25320992399658548 0 -0.091867061917784446 0.2492044006527013 0 -0.092845076362937373 0.2654927990734961 0 -0.081708816647052651 0.26241492653209358 0 -0.091867061917784446 0.2492044006527013 0 -0.073310846749778752 0.25320992399658548 0 -0.069201161885137474 0.26509370108579211 0 -0.055882431866711817 0.25861963208225142 0 -0.073310846749778752 0.25320992399658548 0 -0.055882431866711817 0.25861963208225142 0 -0.059665074524173897 0.24663286248148589 0 -0.081708816647052651 0.26241492653209358 0 -0.073310846749778752 0.25320992399658548 0 -0.069201161885137474 0.26509370108579211 0 -0.055882431866711817 0.25861963208225142 0 -0.050190285907398928 0.26936038026512299 0 -0.038982050578847238 0.26290854896928201 0 -0.055882431866711817 0.25861963208225142 0 -0.050190285907398928 0.26936038026512299 0 -0.062325228383836452 0.27540063787597469 0 -0.069201161885137474 0.26509370108579211 0 -0.055882431866711817 0.25861963208225142 0 -0.062325228383836452 0.27540063787597469 0 -0.050190285907398928 0.26936038026512299 0 -0.062325228383836452 0.27540063787597469 0 -0.043571432800200233 0.2805127021329839 0 -0.043571432800200233 0.2805127021329839 0 -0.038982050578847238 0.26290854896928201 0 -0.029040554040722061 0.27643534521878321 0 -0.050190285907398928 0.26936038026512299 0 -0.043571432800200233 0.2805127021329839 0 -0.038982050578847238 0.26290854896928201 0 -0.055882431866711817 0.25861963208225142 0 -0.038982050578847238 0.26290854896928201 0 -0.039483479587714233 0.2489863101895177 0 -0.038982050578847238 0.26290854896928201 0 -0.039483479587714233 0.2489863101895177 0 -0.026200281719759279 0.24996269934024659 0 -0.01671784830678914 0.26372527856387229 0 -0.01079159310877998 0.24793473378372399 0 -0.026200281719759279 0.24996269934024659 0 -0.038982050578847238 0.26290854896928201 0 -0.01671784830678914 0.26372527856387229 0 -0.026200281719759279 0.24996269934024659 0 -0.038982050578847238 0.26290854896928201 0 -0.01671784830678914 0.26372527856387229 0 -0.029040554040722061 0.27643534521878321 0 -0.01671784830678914 0.26372527856387229 0 -0.029040554040722061 0.27643534521878321 0 -0.01412211505656388 0.28250872637636781 0 -0.01671784830678914 0.26372527856387229 0 -0.01412211505656388 0.28250872637636781 0 0.0052438462786615816 0.27123723023514762 0 -0.01671784830678914 0.26372527856387229 0 0.0021022769219057442 0.25480250730218768 0 0.0052438462786615816 0.27123723023514762 0 -0.01671784830678914 0.26372527856387229 0 -0.01079159310877998 0.24793473378372399 0 0.0021022769219057442 0.25480250730218768 0 -0.016822812734265089 0.30330679972565039 0 0.0079581047232592725 0.29048875437017019 0 -0.01412211505656388 0.28250872637636781 0 -0.016822812734265089 0.30330679972565039 0 0.0079581047232592725 0.29048875437017019 0 -0.01412211505656388 0.28250872637636781 0 0.0079581047232592725 0.29048875437017019 0 0.0052438462786615816 0.27123723023514762 0 -0.029040554040722061 0.27643534521878321 0 -0.01412211505656388 0.28250872637636781 0 -0.031809323461209849 0.29252147005141033 0 -0.01412211505656388 0.28250872637636781 0 -0.016822812734265089 0.30330679972565039 0 -0.031809323461209849 0.29252147005141033 0 -0.016822812734265089 0.30330679972565039 0 -0.031809323461209849 0.29252147005141033 0 -0.041603730191789451 0.31612484508113059 0 -0.016822812734265089 0.30330679972565039 0 -0.041603730191789451 0.31612484508113059 0 -0.031809323461209849 0.29252147005141033 0 -0.047038413969044811 0.29856469856247408 0 -0.041603730191789451 0.31612484508113059 0 -0.043571432800200233 0.2805127021329839 0 -0.031809323461209849 0.29252147005141033 0 -0.047038413969044811 0.29856469856247408 0 -0.043571432800200233 0.2805127021329839 0 -0.029040554040722061 0.27643534521878321 0 -0.031809323461209849 0.29252147005141033 0 -0.063053212229007005 0.29325946359979438 0 -0.043571432800200233 0.2805127021329839 0 -0.047038413969044811 0.29856469856247408 0 -0.063053212229007005 0.29325946359979438 0 -0.062325228383836452 0.27540063787597469 0 -0.043571432800200233 0.2805127021329839 0 -0.057680660243713822 0.3095038896991622 0 -0.047038413969044811 0.29856469856247408 0 -0.041603730191789451 0.31612484508113059 0 -0.063053212229007005 0.29325946359979438 0 -0.057680660243713822 0.3095038896991622 0 -0.047038413969044811 0.29856469856247408 0 -0.045770887301504019 0.33453460617541791 0 -0.041603730191789451 0.31612484508113059 0 -0.06638464764931376 0.32894289043661079 0 -0.057680660243713822 0.3095038896991622 0 -0.041603730191789451 0.31612484508113059 0 -0.06638464764931376 0.32894289043661079 0 -0.041603730191789451 0.31612484508113059 0 -0.06638464764931376 0.32894289043661079 0 -0.045770887301504019 0.33453460617541791 0 -0.056704792490570907 0.35045253400678578 0 -0.074306927437470277 0.34327946203808279 0 -0.045770887301504019 0.33453460617541791 0 -0.06638464764931376 0.32894289043661079 0 -0.074306927437470277 0.34327946203808279 0 -0.045770887301504019 0.33453460617541791 0 -0.074306927437470277 0.34327946203808279 0 -0.045770887301504019 0.33453460617541791 0 -0.0146659708883837 0.33393735846211042 0 -0.034627618062149493 0.35003352445634772 0 -0.045770887301504019 0.33453460617541791 0 -0.017234847165537571 0.32578975031275292 0 -0.045770887301504019 0.33453460617541791 0 -0.041603730191789451 0.31612484508113059 0 -0.017234847165537571 0.32578975031275292 0 -0.016822812734265089 0.30330679972565039 0 -0.041603730191789451 0.31612484508113059 0 -0.017234847165537571 0.32578975031275292 0 -0.045770887301504019 0.33453460617541791 0 -0.017234847165537571 0.32578975031275292 0 -0.0146659708883837 0.33393735846211042 0 -0.0146659708883837 0.33393735846211042 0 -0.034627618062149493 0.35003352445634772 0 -0.0066889566820345541 0.34292034305638208 0 0.0062736062189134396 0.34571272286146032 0 5.0438710159473661e-05 0.32971074027311642 0 -0.017234847165537571 0.32578975031275292 0 -0.0146659708883837 0.33393735846211042 0 5.0438710159473661e-05 0.32971074027311642 0 -0.0146659708883837 0.33393735846211042 0 -0.0066889566820345541 0.34292034305638208 0 -0.01818671276428023 0.34987707093243459 0 -0.0146659708883837 0.33393735846211042 0 -0.0066889566820345541 0.34292034305638208 0 5.0438710159473661e-05 0.32971074027311642 0 -0.017234847165537571 0.32578975031275292 0 0.011301192970428919 0.31704489445008782 0 5.0438710159473661e-05 0.32971074027311642 0 -0.017234847165537571 0.32578975031275292 0 0.011301192970428919 0.31704489445008782 0 -0.016822812734265089 0.30330679972565039 0 -0.017234847165537571 0.32578975031275292 0 0.011301192970428919 0.31704489445008782 0 -0.0081722306902861364 0.37476184234240079 0 -0.0071854820806393216 0.35650570035374268 0 -0.026966293820822919 0.36484414921957548 0 -0.0081722306902861364 0.37476184234240079 0 -0.0071854820806393216 0.35650570035374268 0 0.0119649305746187 0.36479686370585201 0 -0.0066889566820345541 0.34292034305638208 0 -0.0071854820806393216 0.35650570035374268 0 0.0062736062189134396 0.34571272286146032 0 -0.0066889566820345541 0.34292034305638208 0 -0.0071854820806393216 0.35650570035374268 0 -0.01818671276428023 0.34987707093243459 0 -0.0071854820806393216 0.35650570035374268 0 -0.01818671276428023 0.34987707093243459 0 -0.026966293820822919 0.36484414921957548 0 -0.01818671276428023 0.34987707093243459 0 -0.026966293820822919 0.36484414921957548 0 -0.034627618062149493 0.35003352445634772 0 -0.0146659708883837 0.33393735846211042 0 -0.01818671276428023 0.34987707093243459 0 -0.034627618062149493 0.35003352445634772 0 -0.0081722306902861364 0.37476184234240079 0 -0.026966293820822919 0.36484414921957548 0 -0.023840333300978619 0.38022461262920793 0 -0.026966293820822919 0.36484414921957548 0 -0.034627618062149493 0.35003352445634772 0 -0.054589265235915292 0.36612969045058502 0 -0.026966293820822919 0.36484414921957548 0 -0.054589265235915292 0.36612969045058502 0 -0.043086676053417809 0.37921301798024981 0 -0.026966293820822919 0.36484414921957548 0 -0.043086676053417809 0.37921301798024981 0 -0.023840333300978619 0.38022461262920793 0 -0.034627618062149493 0.35003352445634772 0 -0.054589265235915292 0.36612969045058502 0 -0.045770887301504019 0.33453460617541791 0 -0.034627618062149493 0.35003352445634772 0 -0.056704792490570907 0.35045253400678578 0 -0.034627618062149493 0.35003352445634772 0 -0.056704792490570907 0.35045253400678578 0 -0.054589265235915292 0.36612969045058502 0 -0.056704792490570907 0.35045253400678578 0 -0.054589265235915292 0.36612969045058502 0 -0.073374197976501396 0.36240698751713307 0 -0.054589265235915292 0.36612969045058502 0 -0.074550912409680953 0.38222585644482221 0 -0.054589265235915292 0.36612969045058502 0 -0.073374197976501396 0.36240698751713307 0 -0.074550912409680953 0.38222585644482221 0 -0.073374197976501396 0.36240698751713307 0 -0.091407973606040235 0.36866282419162832 0 -0.094369220729499603 0.34915159824286851 0 -0.073374197976501396 0.36240698751713307 0 -0.091407973606040235 0.36866282419162832 0 -0.074550912409680953 0.38222585644482221 0 -0.073374197976501396 0.36240698751713307 0 -0.074306927437470277 0.34327946203808279 0 -0.094369220729499603 0.34915159824286851 0 -0.056704792490570907 0.35045253400678578 0 -0.073374197976501396 0.36240698751713307 0 -0.074306927437470277 0.34327946203808279 0 -0.06638464764931376 0.32894289043661079 0 -0.074306927437470277 0.34327946203808279 0 -0.086196104373977331 0.33593694617087289 0 -0.070323297179414088 0.31062755081580079 0 -0.057680660243713822 0.3095038896991622 0 -0.06638464764931376 0.32894289043661079 0 -0.070323297179414088 0.31062755081580079 0 -0.06638464764931376 0.32894289043661079 0 -0.084818523177944874 0.31978063019741371 0 -0.06638464764931376 0.32894289043661079 0 -0.084818523177944874 0.31978063019741371 0 -0.086196104373977331 0.33593694617087289 0 -0.084818523177944874 0.31978063019741371 0 -0.086196104373977331 0.33593694617087289 0 -0.10380003576681909 0.33061486155493219 0 -0.074306927437470277 0.34327946203808279 0 -0.086196104373977331 0.33593694617087289 0 -0.094369220729499603 0.34915159824286851 0 -0.086196104373977331 0.33593694617087289 0 -0.10380003576681909 0.33061486155493219 0 -0.094369220729499603 0.34915159824286851 0 -0.10380003576681909 0.33061486155493219 0 -0.1132483000881435 0.34667819149100448 0 -0.094369220729499603 0.34915159824286851 0 -0.1011040832332329 0.31115950435389489 0 -0.084818523177944874 0.31978063019741371 0 -0.10380003576681909 0.33061486155493219 0 -0.1011040832332329 0.31115950435389489 0 -0.10380003576681909 0.33061486155493219 0 -0.12397007536450549 0.31857397510865931 0 -0.10380003576681909 0.33061486155493219 0 -0.1230917104658374 0.33638367495537558 0 -0.1132483000881435 0.34667819149100448 0 -0.10380003576681909 0.33061486155493219 0 -0.12397007536450549 0.31857397510865931 0 -0.1230917104658374 0.33638367495537558 0 -0.129814275588224 0.35272131473986879 0 -0.1132483000881435 0.34667819149100448 0 -0.1108830517648564 0.36319564591128539 0 -0.129814275588224 0.35272131473986879 0 -0.1230917104658374 0.33638367495537558 0 -0.1132483000881435 0.34667819149100448 0 -0.13104035781165349 0.37496909120692018 0 -0.1108830517648564 0.36319564591128539 0 -0.1038624851496628 0.3863340328420321 0 -0.13104035781165349 0.37496909120692018 0 -0.129814275588224 0.35272131473986879 0 -0.1108830517648564 0.36319564591128539 0 -0.091407973606040235 0.36866282419162832 0 -0.1108830517648564 0.36319564591128539 0 -0.094369220729499603 0.34915159824286851 0 -0.091407973606040235 0.36866282419162832 0 -0.1108830517648564 0.36319564591128539 0 -0.1038624851496628 0.3863340328420321 0 -0.1132483000881435 0.34667819149100448 0 -0.1108830517648564 0.36319564591128539 0 -0.094369220729499603 0.34915159824286851 0 -0.1038624851496628 0.3863340328420321 0 -0.1106435161383227 0.40944567628720008 0 -0.082426183471240005 0.40977465351693632 0 -0.12596327196837129 0.39460249568311379 0 -0.13104035781165349 0.37496909120692018 0 -0.1038624851496628 0.3863340328420321 0 -0.12596327196837129 0.39460249568311379 0 -0.1038624851496628 0.3863340328420321 0 -0.1106435161383227 0.40944567628720008 0 -0.1388608488054055 0.40911669905746839 0 -0.1106435161383227 0.40944567628720008 0 -0.1117126899340414 0.42884058773927097 0 -0.1388608488054055 0.40911669905746839 0 -0.1106435161383227 0.40944567628720008 0 -0.1117126899340414 0.42884058773927097 0 -0.082426183471240005 0.40977465351693632 0 -0.095655780186786457 0.43977134124521161 0 -0.1106435161383227 0.40944567628720008 0 -0.1117126899340414 0.42884058773927097 0 -0.082426183471240005 0.40977465351693632 0 -0.1106435161383227 0.40944567628720008 0 -0.082426183471240005 0.40977465351693632 0 -0.082426183471240005 0.40977465351693632 0 -0.077257793311853909 0.44001775178111108 0 -0.095655780186786457 0.43977134124521161 0 -0.082426183471240005 0.40977465351693632 0 -0.060429465651878657 0.43257772306000419 0 -0.077257793311853909 0.44001775178111108 0 -0.082426183471240005 0.40977465351693632 0 -0.054208850804157292 0.41010363074667211 0 -0.060429465651878657 0.43257772306000419 0 -0.082426183471240005 0.40977465351693632 0 -0.054208850804157292 0.41010363074667211 0 -0.082426183471240005 0.40977465351693632 0 -0.06744503857152799 0.39840135011711242 0 -0.074550912409680953 0.38222585644482221 0 -0.06744503857152799 0.39840135011711242 0 -0.074550912409680953 0.38222585644482221 0 -0.050075487584508117 0.39517044667451923 0 -0.082426183471240005 0.40977465351693632 0 -0.06744503857152799 0.39840135011711242 0 -0.054208850804157292 0.41010363074667211 0 -0.1038624851496628 0.3863340328420321 0 -0.082426183471240005 0.40977465351693632 0 -0.074550912409680953 0.38222585644482221 0 -0.091407973606040235 0.36866282419162832 0 -0.1038624851496628 0.3863340328420321 0 -0.074550912409680953 0.38222585644482221 0 -0.074550912409680953 0.38222585644482221 0 -0.050075487584508117 0.39517044667451923 0 -0.043086676053417809 0.37921301798024981 0 -0.054589265235915292 0.36612969045058502 0 -0.074550912409680953 0.38222585644482221 0 -0.043086676053417809 0.37921301798024981 0 -0.06744503857152799 0.39840135011711242 0 -0.050075487584508117 0.39517044667451923 0 -0.054208850804157292 0.41010363074667211 0 -0.050075487584508117 0.39517044667451923 0 -0.054208850804157292 0.41010363074667211 0 -0.050075487584508117 0.39517044667451923 0 -0.036137458364995448 0.41031431957017872 0 -0.054208850804157292 0.41010363074667211 0 -0.050075487584508117 0.39517044667451923 0 -0.032882134732777638 0.3933321664526313 0 -0.036137458364995448 0.41031431957017872 0 -0.050075487584508117 0.39517044667451923 0 -0.032882134732777638 0.3933321664526313 0 -0.043086676053417809 0.37921301798024981 0 -0.032882134732777638 0.3933321664526313 0 -0.043086676053417809 0.37921301798024981 0 -0.023840333300978619 0.38022461262920793 0 -0.032882134732777638 0.3933321664526313 0 -0.023840333300978619 0.38022461262920793 0 -0.01279035996492133 0.39300794573426789 0 -0.032882134732777638 0.3933321664526313 0 -0.01806606592583369 0.410525008393685 0 -0.036137458364995448 0.41031431957017872 0 -0.032882134732777638 0.3933321664526313 0 -0.01279035996492133 0.39300794573426789 0 -0.01806606592583369 0.410525008393685 0 -0.01279035996492133 0.39300794573426789 0 -0.01806606592583369 0.410525008393685 0 0.00042449267140891263 0.41049965572570318 0 -0.01279035996492133 0.39300794573426789 0 0.00042449267140891263 0.41049965572570318 0 0.0057941121889391687 0.38870438886197972 0 -0.0081722306902861364 0.37476184234240079 0 -0.01279035996492133 0.39300794573426789 0 0.0057941121889391687 0.38870438886197972 0 -0.0081722306902861364 0.37476184234240079 0 -0.023840333300978619 0.38022461262920793 0 -0.01279035996492133 0.39300794573426789 0 -0.01100233744402673 0.43174454487118391 0 0.00042449267140891263 0.41049965572570318 0 0.0050144725327109689 0.4320986370502824 0 -0.01100233744402673 0.43174454487118391 0 -0.01806606592583369 0.410525008393685 0 0.00042449267140891263 0.41049965572570318 0 -0.01806606592583369 0.410525008393685 0 -0.029478452679811119 0.42909786727265509 0 -0.036137458364995448 0.41031431957017872 0 -0.01806606592583369 0.410525008393685 0 -0.036137458364995448 0.41031431957017872 0 -0.01100233744402673 0.43174454487118391 0 -0.01806606592583369 0.410525008393685 0 -0.029478452679811119 0.42909786727265509 0 -0.029478452679811119 0.42909786727265509 0 -0.045341587486887103 0.42465595448399118 0 -0.044911964960480277 0.44416207238243072 0 -0.036137458364995448 0.41031431957017872 0 -0.054208850804157292 0.41010363074667211 0 -0.029478452679811119 0.42909786727265509 0 -0.045341587486887103 0.42465595448399118 0 -0.036137458364995448 0.41031431957017872 0 -0.045341587486887103 0.42465595448399118 0 -0.036137458364995448 0.41031431957017872 0 -0.054208850804157292 0.41010363074667211 0 -0.054208850804157292 0.41010363074667211 0 -0.060429465651878657 0.43257772306000419 0 -0.045341587486887103 0.42465595448399118 0 -0.060429465651878657 0.43257772306000419 0 -0.044911964960480277 0.44416207238243072 0 -0.045341587486887103 0.42465595448399118 0 -0.054208850804157292 0.41010363074667211 0 -0.060429465651878657 0.43257772306000419 0 -0.060429465651878657 0.43257772306000419 0 -0.044911964960480277 0.44416207238243072 0 -0.06665008049959846 0.45505181537333678 0 -0.044911964960480277 0.44416207238243072 0 -0.046046615842567168 0.46890951074557718 0 -0.06665008049959846 0.45505181537333678 0 -0.046046615842567168 0.46890951074557718 0 -0.072870695347318243 0.47752590768666942 0 -0.06665008049959846 0.45505181537333678 0 -0.044911964960480277 0.44416207238243072 0 -0.021525587602139219 0.4546795633590196 0 -0.046046615842567168 0.46890951074557718 0 -0.029478452679811119 0.42909786727265509 0 -0.044911964960480277 0.44416207238243072 0 -0.021525587602139219 0.4546795633590196 0 -0.01100233744402673 0.43174454487118391 0 -0.029478452679811119 0.42909786727265509 0 -0.021525587602139219 0.4546795633590196 0 -0.021525587602139219 0.4546795633590196 0 -0.022421950230196729 0.47773556411564949 0 -0.046046615842567168 0.46890951074557718 0 -0.021525587602139219 0.4546795633590196 0 -0.0020551185011731788 0.45054070506029809 0 0.0033313810052136988 0.4718978639100726 0 -0.021525587602139219 0.4546795633590196 0 -0.022421950230196729 0.47773556411564949 0 0.0033313810052136988 0.4718978639100726 0 -0.01100233744402673 0.43174454487118391 0 -0.021525587602139219 0.4546795633590196 0 -0.0020551185011731788 0.45054070506029809 0 -0.01100233744402673 0.43174454487118391 0 -0.0020551185011731788 0.45054070506029809 0 0.0050144725327109689 0.4320986370502824 0 -0.019047196595895821 0.5 0 0.0033313810052136988 0.4718978639100726 0 0.01097486020367555 0.5 0 -0.022421950230196729 0.47773556411564949 0 -0.019047196595895821 0.5 0 0.0033313810052136988 0.4718978639100726 0 -0.022421950230196729 0.47773556411564949 0 -0.019047196595895821 0.5 0 -0.049069253395467083 0.5 0 -0.022421950230196729 0.47773556411564949 0 -0.046046615842567168 0.46890951074557718 0 -0.049069253395467083 0.5 0 -0.046046615842567168 0.46890951074557718 0 -0.049069253395467083 0.5 0 -0.072870695347318243 0.47752590768666942 0 -0.079091310195038456 0.50000000000000178 0 -0.072870695347318243 0.47752590768666942 0 -0.049069253395467083 0.5 0 -0.079091310195038456 0.50000000000000178 0 -0.072870695347318243 0.47752590768666942 0 -0.079091310195038456 0.50000000000000178 0 -0.092804629786173154 0.48507217851270518 0 -0.072870695347318243 0.47752590768666942 0 -0.079091310195038456 0.50000000000000178 0 -0.092804629786173154 0.48507217851270518 0 -0.10716493513592069 0.5 0 -0.092804629786173154 0.48507217851270518 0 -0.072870695347318243 0.47752590768666942 0 -0.091560633616193335 0.46315167227611892 0 -0.072870695347318243 0.47752590768666942 0 -0.06665008049959846 0.45505181537333678 0 -0.091560633616193335 0.46315167227611892 0 -0.072870695347318243 0.47752590768666942 0 -0.06665008049959846 0.45505181537333678 0 -0.060429465651878657 0.43257772306000419 0 -0.06665008049959846 0.45505181537333678 0 -0.077257793311853909 0.44001775178111108 0 -0.060429465651878657 0.43257772306000419 0 -0.06665008049959846 0.45505181537333678 0 -0.077257793311853909 0.44001775178111108 0 -0.091560633616193335 0.46315167227611892 0 -0.095655780186786457 0.43977134124521161 0 -0.06665008049959846 0.45505181537333678 0 -0.077257793311853909 0.44001775178111108 0 -0.091560633616193335 0.46315167227611892 0 -0.091560633616193335 0.46315167227611892 0 -0.095655780186786457 0.43977134124521161 0 -0.12184399935939901 0.45949444141964829 0 -0.1117126899340414 0.42884058773927097 0 -0.095655780186786457 0.43977134124521161 0 -0.12184399935939901 0.45949444141964829 0 -0.130352424082403 0.43430557023855859 0 -0.1117126899340414 0.42884058773927097 0 -0.12184399935939901 0.45949444141964829 0 -0.12184399935939901 0.45949444141964829 0 -0.1133355746363951 0.48468331260073799 0 -0.13591888044572159 0.47396049845625121 0 -0.12184399935939901 0.45949444141964829 0 -0.1133355746363951 0.48468331260073799 0 -0.1352385600768031 0.5 0 -0.1133355746363951 0.48468331260073799 0 -0.10716493513592069 0.5 0 -0.092804629786173154 0.48507217851270518 0 -0.1133355746363951 0.48468331260073799 0 -0.10716493513592069 0.5 0 -0.092804629786173154 0.48507217851270518 0 -0.091560633616193335 0.46315167227611892 0 -0.1133355746363951 0.48468331260073799 0 -0.091560633616193335 0.46315167227611892 0 -0.12184399935939901 0.45949444141964829 0 -0.1133355746363951 0.48468331260073799 0 -0.17131490684925241 0.091017402254582394 0 -0.1629558683001191 0.074344805072648512 0 -0.18055703530639691 0.073041400189138225 0 -0.17131490684925241 0.091017402254582394 0 -0.15515146484685921 0.097071872501129447 0 -0.1530274331236906 0.083451446981359811 0 -0.17131490684925241 0.091017402254582394 0 -0.1629558683001191 0.074344805072648512 0 -0.1530274331236906 0.083451446981359811 0 -0.1629558683001191 0.074344805072648512 0 -0.18055703530639691 0.073041400189138225 0 -0.16487261098496669 0.060358613856742092 0 -0.1629558683001191 0.074344805072648512 0 -0.14500735523628869 0.063855162081420072 0 -0.16487261098496669 0.060358613856742092 0 -0.18055703530639691 0.073041400189138225 0 -0.16487261098496669 0.060358613856742092 0 -0.18374701966289039 0.056037405078678493 0 -0.18055703530639691 0.073041400189138225 0 -0.18374701966289039 0.056037405078678493 0 -0.1925452654142665 0.073994342553419856 0 -0.17131490684925241 0.091017402254582394 0 -0.18055703530639691 0.073041400189138225 0 -0.18641562339378351 0.090121655266252432 0 -0.18055703530639691 0.073041400189138225 0 -0.18641562339378351 0.090121655266252432 0 -0.1925452654142665 0.073994342553419856 0 -0.17131490684925241 0.091017402254582394 0 -0.18055703530639691 0.073041400189138225 0 -0.18641562339378351 0.090121655266252432 0 -0.17725570927535661 0.1039183551990419 0 -0.19089347015512459 0.1077510057319241 0 -0.17131490684925241 0.091017402254582394 0 -0.18641562339378351 0.090121655266252432 0 -0.17725570927535661 0.1039183551990419 0 -0.1755817675865147 0.1217083084224241 0 -0.1918723291281893 0.12249043511651329 0 -0.19089347015512459 0.1077510057319241 0 -0.17725570927535661 0.1039183551990419 0 -0.1755817675865147 0.1217083084224241 0 -0.19089347015512459 0.1077510057319241 0 -0.1755817675865147 0.1217083084224241 0 -0.16207277839210801 0.10899340432002649 0 -0.15280106765993401 0.12695419704220939 0 -0.17725570927535661 0.1039183551990419 0 -0.1755817675865147 0.1217083084224241 0 -0.16207277839210801 0.10899340432002649 0 -0.16207277839210801 0.10899340432002649 0 -0.15280106765993401 0.12695419704220939 0 -0.17131490684925241 0.091017402254582394 0 -0.17725570927535661 0.1039183551990419 0 -0.16207277839210801 0.10899340432002649 0 -0.17131490684925241 0.091017402254582394 0 -0.16207277839210801 0.10899340432002649 0 -0.15515146484685921 0.097071872501129447 0 -0.17131490684925241 0.091017402254582394 0 -0.16207277839210801 0.10899340432002649 0 -0.16207277839210801 0.10899340432002649 0 -0.15515146484685921 0.097071872501129447 0 -0.14626558766013681 0.11530678401311251 0 -0.15515146484685921 0.097071872501129447 0 -0.14214813121400091 0.099270202904801083 0 -0.14626558766013681 0.11530678401311251 0 -0.16207277839210801 0.10899340432002649 0 -0.14626558766013681 0.11530678401311251 0 -0.15280106765993401 0.12695419704220939 0 -0.14626558766013681 0.11530678401311251 0 -0.15280106765993401 0.12695419704220939 0 -0.13845425320843571 0.12986269355723279 0 -0.14626558766013681 0.11530678401311251 0 -0.13388842186376379 0.1201223435719868 0 -0.13845425320843571 0.12986269355723279 0 -0.14626558766013681 0.11530678401311251 0 -0.13388842186376379 0.1201223435719868 0 -0.13286355327217311 0.1084319112188874 0 -0.13388842186376379 0.1201223435719868 0 -0.13286355327217311 0.1084319112188874 0 -0.1237077848500947 0.1157730571732615 0 -0.13286355327217311 0.1084319112188874 0 -0.121887388282922 0.1039227065130781 0 -0.1237077848500947 0.1157730571732615 0 -0.13388842186376379 0.1201223435719868 0 -0.1254402541581866 0.12852827206949971 0 -0.1237077848500947 0.1157730571732615 0 -0.14214813121400091 0.099270202904801083 0 -0.14626558766013681 0.11530678401311251 0 -0.13286355327217311 0.1084319112188874 0 -0.14214813121400091 0.099270202904801083 0 -0.13019670250137819 0.097425025938909907 0 -0.1339560020940663 0.08703095481063286 0 -0.14214813121400091 0.099270202904801083 0 -0.13286355327217311 0.1084319112188874 0 -0.13019670250137819 0.097425025938909907 0 -0.13286355327217311 0.1084319112188874 0 -0.13019670250137819 0.097425025938909907 0 -0.121887388282922 0.1039227065130781 0 -0.13019670250137819 0.097425025938909907 0 -0.1339560020940663 0.08703095481063286 0 -0.1182144859610532 0.089999828431431769 0 -0.1339560020940663 0.08703095481063286 0 -0.1249516316716202 0.07805606175079087 0 -0.1182144859610532 0.089999828431431769 0 -0.1339560020940663 0.08703095481063286 0 -0.13597328620876001 0.074276576004817629 0 -0.1249516316716202 0.07805606175079087 0 -0.14214813121400091 0.099270202904801083 0 -0.1339560020940663 0.08703095481063286 0 -0.1530274331236906 0.083451446981359811 0 -0.1339560020940663 0.08703095481063286 0 -0.1530274331236906 0.083451446981359811 0 -0.13597328620876001 0.074276576004817629 0 -0.15515146484685921 0.097071872501129447 0 -0.14214813121400091 0.099270202904801083 0 -0.1530274331236906 0.083451446981359811 0 -0.1629558683001191 0.074344805072648512 0 -0.1530274331236906 0.083451446981359811 0 -0.14500735523628869 0.063855162081420072 0 -0.1530274331236906 0.083451446981359811 0 -0.14500735523628869 0.063855162081420072 0 -0.1530274331236906 0.083451446981359811 0 -0.14500735523628869 0.063855162081420072 0 -0.13597328620876001 0.074276576004817629 0 -0.14500735523628869 0.063855162081420072 0 -0.13597328620876001 0.074276576004817629 0 -0.1258392381833858 0.064418793492627746 0 -0.13597328620876001 0.074276576004817629 0 -0.1258392381833858 0.064418793492627746 0 -0.1249516316716202 0.07805606175079087 0 -0.14500735523628869 0.063855162081420072 0 -0.1258392381833858 0.064418793492627746 0 -0.13698727734888599 0.044258877181480749 0 -0.1258392381833858 0.064418793492627746 0 -0.13698727734888599 0.044258877181480749 0 -0.1163016338304763 0.048862341494562388 0 -0.13698727734888599 0.044258877181480749 0 -0.12981960929622821 0.02674537329784241 0 -0.13698727734888599 0.044258877181480749 0 -0.12981960929622821 0.02674537329784241 0 -0.14846898549073989 0.026971718915748729 0 -0.13698727734888599 0.044258877181480749 0 -0.1163016338304763 0.048862341494562388 0 -0.13698727734888599 0.044258877181480749 0 -0.12981960929622821 0.02674537329784241 0 -0.1188165533242035 0.034434456297563677 0 -0.13698727734888599 0.044258877181480749 0 -0.14846898549073989 0.026971718915748729 0 -0.16034457774572239 0.03906085185869769 0 -0.13698727734888599 0.044258877181480749 0 -0.16034457774572239 0.03906085185869769 0 -0.14500735523628869 0.063855162081420072 0 -0.13698727734888599 0.044258877181480749 0 -0.16034457774572239 0.03906085185869769 0 -0.14500735523628869 0.063855162081420072 0 -0.13698727734888599 0.044258877181480749 0 -0.14594846810214379 0.01134178721830934 0 -0.1226519412435686 0.0092318694142048373 0 -0.12937018528660801 0.0089396951443527703 0 -0.14594846810214379 0.01134178721830934 0 -0.1226519412435686 0.0092318694142048373 0 -0.13862178213292189 -0.0053874776188402636 0 -0.12879974367784419 -0.00032553470509391001 0 -0.12937018528660801 0.0089396951443527703 0 -0.12879974367784419 -0.00032553470509391001 0 -0.12937018528660801 0.0089396951443527703 0 -0.1226519412435686 0.0092318694142048373 0 -0.12981960929622821 0.02674537329784241 0 -0.14594846810214379 0.01134178721830934 0 -0.1226519412435686 0.0092318694142048373 0 -0.12981960929622821 0.02674537329784241 0 -0.1226519412435686 0.0092318694142048373 0 -0.14846898549073989 0.026971718915748729 0 -0.14594846810214379 0.01134178721830934 0 -0.16924499496071921 0.0134517050224133 0 -0.12981960929622821 0.02674537329784241 0 -0.14846898549073989 0.026971718915748729 0 -0.14594846810214379 0.01134178721830934 0 -0.1540295096882198 -0.0030124739246440132 0 -0.13862178213292189 -0.0053874776188402636 0 -0.12937018528660801 0.0089396951443527703 0 -0.1540295096882198 -0.0030124739246440132 0 -0.12937018528660801 0.0089396951443527703 0 -0.1540295096882198 -0.0030124739246440132 0 -0.12937018528660801 0.0089396951443527703 0 -0.14594846810214379 0.01134178721830934 0 -0.1540295096882198 -0.0030124739246440132 0 -0.14594846810214379 0.01134178721830934 0 -0.16344558191277461 0.0035484352059621371 0 -0.14594846810214379 0.01134178721830934 0 -0.16924499496071921 0.0134517050224133 0 -0.14594846810214379 0.01134178721830934 0 -0.16924499496071921 0.0134517050224133 0 -0.16344558191277461 0.0035484352059621371 0 -0.16722585307904991 -0.0072875001328783287 0 -0.16344558191277461 0.0035484352059621371 0 -0.17988368744917241 0.0041370613468190518 0 -0.16924499496071921 0.0134517050224133 0 -0.16344558191277461 0.0035484352059621371 0 -0.17988368744917241 0.0041370613468190518 0 -0.14846898549073989 0.026971718915748729 0 -0.16924499496071921 0.0134517050224133 0 -0.16034457774572239 0.03906085185869769 0 -0.16924499496071921 0.0134517050224133 0 -0.16034457774572239 0.03906085185869769 0 -0.18370187814255881 0.033862826535914457 0 -0.16924499496071921 0.0134517050224133 0 -0.18370187814255881 0.033862826535914457 0 -0.19254152181929449 0.01556162282651683 0 -0.16924499496071921 0.0134517050224133 0 -0.19254152181929449 0.01556162282651683 0 -0.16924499496071921 0.0134517050224133 0 -0.17988368744917241 0.0041370613468190518 0 -0.19254152181929449 0.01556162282651683 0 -0.17988368744917241 0.0041370613468190518 0 -0.19254152181929449 0.01556162282651683 0 -0.16487261098496669 0.060358613856742092 0 -0.16034457774572239 0.03906085185869769 0 -0.18374701966289039 0.056037405078678493 0 -0.14500735523628869 0.063855162081420072 0 -0.16487261098496669 0.060358613856742092 0 -0.16034457774572239 0.03906085185869769 0 -0.16034457774572239 0.03906085185869769 0 -0.18370187814255881 0.033862826535914457 0 -0.16034457774572239 0.03906085185869769 0 -0.18370187814255881 0.033862826535914457 0 -0.18374701966289039 0.056037405078678493 0 -0.18374701966289039 0.056037405078678493 0 -0.20285805848412919 0.048293223396494417 0 -0.2023790247611523 0.063034270410282867 0 -0.18370187814255881 0.033862826535914457 0 -0.20285805848412919 0.048293223396494417 0 -0.20705917853939521 0.02866480121313068 0 -0.18370187814255881 0.033862826535914457 0 -0.18374701966289039 0.056037405078678493 0 -0.20285805848412919 0.048293223396494417 0 -0.18370187814255881 0.033862826535914457 0 -0.20705917853939521 0.02866480121313068 0 -0.20285805848412919 0.048293223396494417 0 -0.213352863055738 0.034345282059087413 0 -0.2144863011617959 0.045674295355040542 0 -0.20285805848412919 0.048293223396494417 0 -0.213352863055738 0.034345282059087413 0 -0.20705917853939521 0.02866480121313068 0 -0.20285805848412919 0.048293223396494417 0 -0.213352863055738 0.034345282059087413 0 -0.213352863055738 0.034345282059087413 0 -0.20705917853939521 0.02866480121313068 0 -0.213352863055738 0.034345282059087413 0 -0.21975247642003701 0.02583998487339079 0 -0.22240601514164071 0.034867608618628351 0 -0.213352863055738 0.034345282059087413 0 -0.2144863011617959 0.045674295355040542 0 -0.2260291926492998 0.045786536743252712 0 -0.2144863011617959 0.045674295355040542 0 -0.21472479962838861 0.055105152353183029 0 -0.2260291926492998 0.045786536743252712 0 -0.21472479962838861 0.055105152353183029 0 -0.2163450529094838 0.068995981117821639 0 -0.2023790247611523 0.063034270410282867 0 -0.20285805848412919 0.048293223396494417 0 -0.21472479962838861 0.055105152353183029 0 -0.2023790247611523 0.063034270410282867 0 -0.20285805848412919 0.048293223396494417 0 -0.2144863011617959 0.045674295355040542 0 -0.21472479962838861 0.055105152353183029 0 -0.19381119493734111 -0.0050623917465707699 0 -0.17988368744917241 0.0041370613468190518 0 -0.19254152181929449 0.01556162282651683 0 -0.19381119493734111 -0.0050623917465707699 0 -0.19254152181929449 0.01556162282651683 0 -0.20603616115979961 0.0065395622861276646 0 -0.18370187814255881 0.033862826535914457 0 -0.19254152181929449 0.01556162282651683 0 -0.20705917853939521 0.02866480121313068 0 -0.19254152181929449 0.01556162282651683 0 -0.20705917853939521 0.02866480121313068 0 -0.19254152181929449 0.01556162282651683 0 -0.20705917853939521 0.02866480121313068 0 -0.2162658099829744 0.017710282079036521 0 -0.19254152181929449 0.01556162282651683 0 -0.2162658099829744 0.017710282079036521 0 -0.213352863055738 0.034345282059087413 0 -0.20705917853939521 0.02866480121313068 0 -0.21975247642003701 0.02583998487339079 0 -0.20705917853939521 0.02866480121313068 0 -0.21975247642003701 0.02583998487339079 0 -0.213352863055738 0.034345282059087413 0 -0.21975247642003701 0.02583998487339079 0 -0.20705917853939521 0.02866480121313068 0 -0.2162658099829744 0.017710282079036521 0 -0.21975247642003701 0.02583998487339079 0 -0.19254152181929449 0.01556162282651683 0 -0.2162658099829744 0.017710282079036521 0 -0.20603616115979961 0.0065395622861276646 0 -0.2162658099829744 0.017710282079036521 0 -0.20603616115979961 0.0065395622861276646 0 -0.2194789456520044 0.0040362019280980842 0 -0.20995695174839971 -0.0043779342121352122 0 -0.20603616115979961 0.0065395622861276646 0 -0.2194789456520044 0.0040362019280980842 0 -0.2162658099829744 0.017710282079036521 0 -0.21975247642003701 0.02583998487339079 0 -0.23710760328496211 0.0027744489919406881 0 -0.22671750981213559 -0.0055790285182428364 0 -0.2194789456520044 0.0040362019280980842 0 -0.23710760328496211 0.0027744489919406881 0 -0.2162658099829744 0.017710282079036521 0 -0.2194789456520044 0.0040362019280980842 0 -0.23710760328496211 0.0027744489919406881 0 -0.21975247642003701 0.02583998487339079 0 -0.23710760328496211 0.0027744489919406881 0 -0.21975247642003701 0.02583998487339079 0 -0.23964577810993001 0.021412851421280341 0 -0.21975247642003701 0.02583998487339079 0 -0.23964577810993001 0.021412851421280341 0 -0.2304895284414881 0.033498630798782417 0 -0.21975247642003701 0.02583998487339079 0 -0.23964577810993001 0.021412851421280341 0 -0.23710760328496211 0.0027744489919406881 0 -0.25953907979982299 0.01698571796916977 0 -0.23964577810993001 0.021412851421280341 0 -0.23964577810993001 0.021412851421280341 0 -0.23710760328496211 0.0027744489919406881 0 -0.24860392296443271 0.0047567696316496919 0 -0.25953907979982299 0.01698571796916977 0 -0.23964577810993001 0.021412851421280341 0 -0.24860392296443271 0.0047567696316496919 0 -0.25480652507994328 -0.0058929960684832444 0 -0.23710760328496211 0.0027744489919406881 0 -0.24860392296443271 0.0047567696316496919 0 -0.2260291926492998 0.045786536743252712 0 -0.23870552224286151 0.057227791427418018 0 -0.22563848603595299 0.059367240303615627 0 -0.2260291926492998 0.045786536743252712 0 -0.23870552224286151 0.057227791427418018 0 -0.21472479962838861 0.055105152353183029 0 -0.22563848603595299 0.059367240303615627 0 -0.2163450529094838 0.068995981117821639 0 -0.21472479962838861 0.055105152353183029 0 -0.22563848603595299 0.059367240303615627 0 -0.2260291926492998 0.045786536743252712 0 -0.213352863055738 0.034345282059087413 0 -0.2260291926492998 0.045786536743252712 0 -0.2260291926492998 0.045786536743252712 0 -0.22240601514164071 0.034867608618628351 0 -0.2304895284414881 0.033498630798782417 0 -0.213352863055738 0.034345282059087413 0 -0.2260291926492998 0.045786536743252712 0 -0.22240601514164071 0.034867608618628351 0 -0.21975247642003701 0.02583998487339079 0 -0.22240601514164071 0.034867608618628351 0 -0.2304895284414881 0.033498630798782417 0 -0.2260291926492998 0.045786536743252712 0 -0.2304895284414881 0.033498630798782417 0 -0.2403002123798704 0.042717963378370562 0 -0.25427837431537742 0.035743851304136709 0 -0.23964577810993001 0.021412851421280341 0 -0.2403002123798704 0.042717963378370562 0 -0.23964577810993001 0.021412851421280341 0 -0.2304895284414881 0.033498630798782417 0 -0.2403002123798704 0.042717963378370562 0 -0.2501356657824777 0.046148780166555312 0 -0.25427837431537742 0.035743851304136709 0 -0.2403002123798704 0.042717963378370562 0 -0.25186637526569661 0.056420649137372901 0 -0.2501356657824777 0.046148780166555312 0 -0.23870552224286151 0.057227791427418018 0 -0.2501356657824777 0.046148780166555312 0 -0.2403002123798704 0.042717963378370562 0 -0.23870552224286151 0.057227791427418018 0 -0.2260291926492998 0.045786536743252712 0 -0.2403002123798704 0.042717963378370562 0 -0.23870552224286151 0.057227791427418018 0 -0.25037345346053019 0.069816026369570752 0 -0.25186637526569661 0.056420649137372901 0 -0.23870552224286151 0.057227791427418018 0 -0.25037345346053019 0.069816026369570752 0 -0.24683542196520969 0.082089144996896957 0 -0.2325812058240212 0.072219451213018149 0 -0.25037345346053019 0.069816026369570752 0 -0.23870552224286151 0.057227791427418018 0 -0.2325812058240212 0.072219451213018149 0 -0.23608602102644671 0.089217604330298322 0 -0.24683542196520969 0.082089144996896957 0 -0.2325812058240212 0.072219451213018149 0 -0.2537717784829327 0.095964561695398201 0 -0.23608602102644671 0.089217604330298322 0 -0.24683542196520969 0.082089144996896957 0 -0.23608602102644671 0.089217604330298322 0 -0.2204428566567109 0.08342521606755178 0 -0.22483080622346949 0.099267635032973978 0 -0.23608602102644671 0.089217604330298322 0 -0.2204428566567109 0.08342521606755178 0 -0.2325812058240212 0.072219451213018149 0 -0.2204428566567109 0.08342521606755178 0 -0.2325812058240212 0.072219451213018149 0 -0.2163450529094838 0.068995981117821639 0 -0.22563848603595299 0.059367240303615627 0 -0.2325812058240212 0.072219451213018149 0 -0.2163450529094838 0.068995981117821639 0 -0.22563848603595299 0.059367240303615627 0 -0.23870552224286151 0.057227791427418018 0 -0.2325812058240212 0.072219451213018149 0 -0.2163450529094838 0.068995981117821639 0 -0.2059607339874745 0.077095403081740954 0 -0.2023790247611523 0.063034270410282867 0 -0.2204428566567109 0.08342521606755178 0 -0.2163450529094838 0.068995981117821639 0 -0.2059607339874745 0.077095403081740954 0 -0.2204428566567109 0.08342521606755178 0 -0.20623336543531151 0.089660036885508193 0 -0.22483080622346949 0.099267635032973978 0 -0.2204428566567109 0.08342521606755178 0 -0.2059607339874745 0.077095403081740954 0 -0.20623336543531151 0.089660036885508193 0 -0.18641562339378351 0.090121655266252432 0 -0.19621215537390119 0.084635921294426153 0 -0.1925452654142665 0.073994342553419856 0 -0.2059607339874745 0.077095403081740954 0 -0.20623336543531151 0.089660036885508193 0 -0.19621215537390119 0.084635921294426153 0 -0.2059607339874745 0.077095403081740954 0 -0.19621215537390119 0.084635921294426153 0 -0.1925452654142665 0.073994342553419856 0 -0.20623336543531151 0.089660036885508193 0 -0.19621215537390119 0.084635921294426153 0 -0.19636357839571 0.096840209046660741 0 -0.20623336543531151 0.089660036885508193 0 -0.19621215537390119 0.084635921294426153 0 -0.18641562339378351 0.090121655266252432 0 -0.19621215537390119 0.084635921294426153 0 -0.19636357839571 0.096840209046660741 0 -0.18374701966289039 0.056037405078678493 0 -0.1925452654142665 0.073994342553419856 0 -0.2023790247611523 0.063034270410282867 0 -0.2059607339874745 0.077095403081740954 0 -0.1925452654142665 0.073994342553419856 0 -0.2023790247611523 0.063034270410282867 0 -0.1918723291281893 0.12249043511651329 0 -0.19089347015512459 0.1077510057319241 0 -0.20429385208533529 0.11067590684935021 0 -0.1918723291281893 0.12249043511651329 0 -0.20429385208533529 0.11067590684935021 0 -0.20626528329464339 0.12581486195956301 0 -0.20623336543531151 0.089660036885508193 0 -0.19636357839571 0.096840209046660741 0 -0.20429385208533529 0.11067590684935021 0 -0.18641562339378351 0.090121655266252432 0 -0.19089347015512459 0.1077510057319241 0 -0.19636357839571 0.096840209046660741 0 -0.19089347015512459 0.1077510057319241 0 -0.19636357839571 0.096840209046660741 0 -0.20429385208533529 0.11067590684935021 0 -0.20623336543531151 0.089660036885508193 0 -0.22034457691667869 0.1100070347016163 0 -0.22483080622346949 0.099267635032973978 0 -0.20623336543531151 0.089660036885508193 0 -0.22483080622346949 0.099267635032973978 0 -0.20623336543531151 0.089660036885508193 0 -0.22034457691667869 0.1100070347016163 0 -0.20623336543531151 0.089660036885508193 0 -0.20429385208533529 0.11067590684935021 0 -0.22034457691667869 0.1100070347016163 0 -0.20429385208533529 0.11067590684935021 0 -0.21604149686807961 0.1221915363564734 0 -0.22034457691667869 0.1100070347016163 0 -0.20429385208533529 0.11067590684935021 0 -0.21604149686807961 0.1221915363564734 0 -0.20626528329464339 0.12581486195956301 0 -0.22034457691667869 0.1100070347016163 0 -0.23445578839804559 0.13035403251772471 0 -0.21604149686807961 0.1221915363564734 0 -0.22034457691667869 0.1100070347016163 0 -0.23445578839804559 0.13035403251772471 0 -0.22034457691667869 0.1100070347016163 0 -0.23335052441977619 0.11386234786074161 0 -0.23445578839804559 0.13035403251772471 0 -0.23335052441977619 0.11386234786074161 0 -0.22483080622346949 0.099267635032973978 0 -0.243468526753504 0.10879644870654499 0 -0.22483080622346949 0.099267635032973978 0 -0.243468526753504 0.10879644870654499 0 -0.22034457691667869 0.1100070347016163 0 -0.23335052441977619 0.11386234786074161 0 -0.22483080622346949 0.099267635032973978 0 -0.23608602102644671 0.089217604330298322 0 -0.22483080622346949 0.099267635032973978 0 -0.243468526753504 0.10879644870654499 0 -0.2537717784829327 0.095964561695398201 0 -0.23608602102644671 0.089217604330298322 0 -0.243468526753504 0.10879644870654499 0 -0.23335052441977619 0.11386234786074161 0 -0.24365292380718279 0.1208865883448486 0 -0.23445578839804559 0.13035403251772471 0 -0.26210624728353837 0.11832526238011599 0 -0.243468526753504 0.10879644870654499 0 -0.24365292380718279 0.1208865883448486 0 -0.23335052441977619 0.11386234786074161 0 -0.243468526753504 0.10879644870654499 0 -0.24365292380718279 0.1208865883448486 0 -0.25406439867483188 0.13267872147919099 0 -0.23445578839804559 0.13035403251772471 0 -0.24602255006612481 0.1470321805782657 0 -0.25441116082307419 0.1265357146924084 0 -0.23445578839804559 0.13035403251772471 0 -0.25406439867483188 0.13267872147919099 0 -0.25441116082307419 0.1265357146924084 0 -0.23445578839804559 0.13035403251772471 0 -0.25441116082307419 0.1265357146924084 0 -0.24365292380718279 0.1208865883448486 0 -0.23445578839804559 0.13035403251772471 0 -0.23445578839804559 0.13035403251772471 0 -0.24602255006612481 0.1470321805782657 0 -0.21604149686807961 0.1221915363564734 0 -0.23445578839804559 0.13035403251772471 0 -0.21484798364569449 0.1341058457541123 0 -0.23445578839804559 0.13035403251772471 0 -0.22731103258246349 0.14614528934866419 0 -0.21484798364569449 0.1341058457541123 0 -0.23445578839804559 0.13035403251772471 0 -0.21484798364569449 0.1341058457541123 0 -0.22731103258246349 0.14614528934866419 0 -0.21484798364569449 0.1341058457541123 0 -0.22731103258246349 0.14614528934866419 0 -0.23977408151923521 0.15818473294321339 0 -0.2206437247713269 0.16208577446318001 0 -0.22731103258246349 0.14614528934866419 0 -0.2206437247713269 0.16208577446318001 0 -0.21085362492643839 0.14908212159724149 0 -0.22731103258246349 0.14614528934866419 0 -0.23977408151923521 0.15818473294321339 0 -0.22731103258246349 0.14614528934866419 0 -0.24602255006612481 0.1470321805782657 0 -0.23977408151923521 0.15818473294321339 0 -0.23445578839804559 0.13035403251772471 0 -0.22731103258246349 0.14614528934866419 0 -0.24602255006612481 0.1470321805782657 0 -0.25634590400140878 0.16191745532972679 0 -0.24602255006612481 0.1470321805782657 0 -0.23977408151923521 0.15818473294321339 0 -0.24602255006612481 0.1470321805782657 0 -0.23977408151923521 0.15818473294321339 0 -0.25573678716474157 0.17360488375948779 0 -0.23977408151923521 0.15818473294321339 0 -0.23977408151923521 0.15818473294321339 0 -0.2296370212242437 0.17627782166058531 0 -0.25573678716474157 0.17360488375948779 0 -0.23977408151923521 0.15818473294321339 0 -0.2296370212242437 0.17627782166058531 0 -0.25573678716474157 0.17360488375948779 0 -0.2296370212242437 0.17627782166058531 0 -0.2418993069338779 0.1889922423145152 0 -0.2296370212242437 0.17627782166058531 0 -0.2194999609292512 0.19437091037795681 0 -0.2296370212242437 0.17627782166058531 0 -0.2418993069338779 0.1889922423145152 0 -0.2194999609292512 0.19437091037795681 0 -0.2296370212242437 0.17627782166058531 0 -0.21283603269837481 0.1783142642411156 0 -0.2194999609292512 0.19437091037795681 0 -0.2296370212242437 0.17627782166058531 0 -0.2206437247713269 0.16208577446318001 0 -0.21283603269837481 0.1783142642411156 0 -0.23977408151923521 0.15818473294321339 0 -0.2296370212242437 0.17627782166058531 0 -0.2206437247713269 0.16208577446318001 0 -0.2206437247713269 0.16208577446318001 0 -0.21283603269837481 0.1783142642411156 0 -0.20205590164765791 0.16410037726796481 0 -0.2206437247713269 0.16208577446318001 0 -0.20205590164765791 0.16410037726796481 0 -0.21085362492643839 0.14908212159724149 0 -0.21283603269837481 0.1783142642411156 0 -0.2194999609292512 0.19437091037795681 0 -0.1942322605309697 0.18958959824703589 0 -0.21283603269837481 0.1783142642411156 0 -0.20205590164765791 0.16410037726796481 0 -0.1942322605309697 0.18958959824703589 0 -0.20205590164765791 0.16410037726796481 0 -0.1942322605309697 0.18958959824703589 0 -0.17910162042768729 0.16671519739874471 0 -0.20205590164765791 0.16410037726796481 0 -0.18940948198504939 0.13897332115228619 0 -0.17910162042768729 0.16671519739874471 0 -0.20205590164765791 0.16410037726796481 0 -0.18940948198504939 0.13897332115228619 0 -0.21085362492643839 0.14908212159724149 0 -0.18940948198504939 0.13897332115228619 0 -0.21484798364569449 0.1341058457541123 0 -0.1918723291281893 0.12249043511651329 0 -0.18940948198504939 0.13897332115228619 0 -0.20626528329464339 0.12581486195956301 0 -0.18940948198504939 0.13897332115228619 0 -0.20626528329464339 0.12581486195956301 0 -0.21484798364569449 0.1341058457541123 0 -0.20626528329464339 0.12581486195956301 0 -0.21484798364569449 0.1341058457541123 0 -0.21604149686807961 0.1221915363564734 0 -0.20626528329464339 0.12581486195956301 0 -0.21484798364569449 0.1341058457541123 0 -0.22731103258246349 0.14614528934866419 0 -0.21484798364569449 0.1341058457541123 0 -0.21085362492643839 0.14908212159724149 0 -0.18940948198504939 0.13897332115228619 0 -0.21484798364569449 0.1341058457541123 0 -0.21085362492643839 0.14908212159724149 0 -0.23064898443115511 0.24464415868785089 0 -0.22000594253270361 0.22855407889158899 0 -0.23064898443115511 0.24464415868785089 0 -0.23788005106225171 0.23155559763487199 0 -0.22000594253270361 0.22855407889158899 0 -0.22060554166969151 0.24464569497996119 0 -0.23064898443115511 0.24464415868785089 0 -0.22000594253270361 0.22855407889158899 0 -0.22060554166969151 0.24464569497996119 0 -0.23064898443115511 0.24464415868785089 0 -0.234641602549478 0.25827123147939729 0 -0.22060554166969151 0.24464569497996119 0 -0.23064898443115511 0.24464415868785089 0 -0.23064898443115511 0.24464415868785089 0 -0.2458317757582171 0.2446418362568786 0 -0.24014977132531551 0.25900738498281878 0 -0.23064898443115511 0.24464415868785089 0 -0.2458317757582171 0.2446418362568786 0 -0.25059828646462368 0.234254882215297 0 -0.2458317757582171 0.2446418362568786 0 -0.23788005106225171 0.23155559763487199 0 -0.23064898443115511 0.24464415868785089 0 -0.2458317757582171 0.2446418362568786 0 -0.23788005106225171 0.23155559763487199 0 -0.26183130113136183 0.22041917794430579 0 -0.23788005106225171 0.23155559763487199 0 -0.24530879694021659 0.21591510619379961 0 -0.26183130113136183 0.22041917794430579 0 -0.23788005106225171 0.23155559763487199 0 -0.23788005106225171 0.23155559763487199 0 -0.22887169434832949 0.2152145278068327 0 -0.24530879694021659 0.21591510619379961 0 -0.23788005106225171 0.23155559763487199 0 -0.22000594253270361 0.22855407889158899 0 -0.22887169434832949 0.2152145278068327 0 -0.22887169434832949 0.2152145278068327 0 -0.23931946594498371 0.20414885244658779 0 -0.2194999609292512 0.19437091037795681 0 -0.22000594253270361 0.22855407889158899 0 -0.22887169434832949 0.2152145278068327 0 -0.2093629006342542 0.21246399909532571 0 -0.22887169434832949 0.2152145278068327 0 -0.2194999609292512 0.19437091037795681 0 -0.2093629006342542 0.21246399909532571 0 -0.22887169434832949 0.2152145278068327 0 -0.24530879694021659 0.21591510619379961 0 -0.23931946594498371 0.20414885244658779 0 -0.25545390498132942 0.19952510780207949 0 -0.24530879694021659 0.21591510619379961 0 -0.23931946594498371 0.20414885244658779 0 -0.25545390498132942 0.19952510780207949 0 -0.23931946594498371 0.20414885244658779 0 -0.2418993069338779 0.1889922423145152 0 -0.23931946594498371 0.20414885244658779 0 -0.2418993069338779 0.1889922423145152 0 -0.2194999609292512 0.19437091037795681 0 -0.2194999609292512 0.19437091037795681 0 -0.1942322605309697 0.18958959824703589 0 -0.2093629006342542 0.21246399909532571 0 -0.1942322605309697 0.18958959824703589 0 -0.2093629006342542 0.21246399909532571 0 -0.1942322605309697 0.18958959824703589 0 -0.2093629006342542 0.21246399909532571 0 -0.18693379028217991 0.21320701091604841 0 -0.2093629006342542 0.21246399909532571 0 -0.20052052070250559 0.22824628310294581 0 -0.18693379028217991 0.21320701091604841 0 -0.2194999609292512 0.19437091037795681 0 -0.2093629006342542 0.21246399909532571 0 -0.22000594253270361 0.22855407889158899 0 -0.2093629006342542 0.21246399909532571 0 -0.2093629006342542 0.21246399909532571 0 -0.20995481966637811 0.22886008986985859 0 -0.20052052070250559 0.22824628310294581 0 -0.2093629006342542 0.21246399909532571 0 -0.20052052070250559 0.22824628310294581 0 -0.22000594253270361 0.22855407889158899 0 -0.2093629006342542 0.21246399909532571 0 -0.20995481966637811 0.22886008986985859 0 -0.22000594253270361 0.22855407889158899 0 -0.20995481966637811 0.22886008986985859 0 -0.21376587970222899 0.23800607831117859 0 -0.20995481966637811 0.22886008986985859 0 -0.20052052070250559 0.22824628310294581 0 -0.20471834567663699 0.23641703548732509 0 -0.20052052070250559 0.22824628310294581 0 -0.18172799326116171 0.23600802244850541 0 -0.18693379028217991 0.21320701091604841 0 -0.1916781407707524 0.2440285671105635 0 -0.20064135842384631 0.24464874879506759 0 -0.20471834567663699 0.23641703548732509 0 -0.20052052070250559 0.22824628310294581 0 -0.1916781407707524 0.2440285671105635 0 -0.20471834567663699 0.23641703548732509 0 -0.19857955714453349 0.25345162588165782 0 -0.1916781407707524 0.2440285671105635 0 -0.18172799326116171 0.23600802244850541 0 -0.20052052070250559 0.22824628310294581 0 -0.1916781407707524 0.2440285671105635 0 -0.18172799326116171 0.23600802244850541 0 -0.20052052070250559 0.22824628310294581 0 -0.1916781407707524 0.2440285671105635 0 -0.19857955714453349 0.25345162588165782 0 -0.18172799326116171 0.23600802244850541 0 -0.19857955714453349 0.25345162588165782 0 -0.1916781407707524 0.2440285671105635 0 -0.20064135842384631 0.24464874879506759 0 -0.22060554166969151 0.24464569497996119 0 -0.20064135842384631 0.24464874879506759 0 -0.22060554166969151 0.24464569497996119 0 -0.20064135842384631 0.24464874879506759 0 -0.21376587970222899 0.23800607831117859 0 -0.22060554166969151 0.24464569497996119 0 -0.22000594253270361 0.22855407889158899 0 -0.21376587970222899 0.23800607831117859 0 -0.21661057984700571 0.25586142868052769 0 -0.22060554166969151 0.24464569497996119 0 -0.20064135842384631 0.24464874879506759 0 -0.20995481966637811 0.22886008986985859 0 -0.20471834567663699 0.23641703548732509 0 -0.21376587970222899 0.23800607831117859 0 -0.20064135842384631 0.24464874879506759 0 -0.20471834567663699 0.23641703548732509 0 -0.21376587970222899 0.23800607831117859 0 -0.22060554166969151 0.24464569497996119 0 -0.21376587970222899 0.23800607831117859 0 -0.17078674805864269 0.249737183820953 0 -0.1429939389727522 0.24602274176024699 0 -0.17078674805864269 0.249737183820953 0 -0.1429939389727522 0.24602274176024699 0 -0.15593418250619531 0.2394981785630001 0 -0.16559257190737109 0.2352294770751307 0 -0.15373086848077869 0.22955061617527819 0 -0.15593418250619531 0.2394981785630001 0 -0.16559257190737109 0.2352294770751307 0 -0.17078674805864269 0.249737183820953 0 -0.15593418250619531 0.2394981785630001 0 -0.19857955714453349 0.25345162588165782 0 -0.17078674805864269 0.249737183820953 0 -0.18172799326116171 0.23600802244850541 0 -0.16559257190737109 0.2352294770751307 0 -0.17078674805864269 0.249737183820953 0 -0.18172799326116171 0.23600802244850541 0 -0.18172799326116171 0.23600802244850541 0 -0.1648764293777894 0.2185644190153537 0 -0.18693379028217991 0.21320701091604841 0 -0.18172799326116171 0.23600802244850541 0 -0.1648764293777894 0.2185644190153537 0 -0.16559257190737109 0.2352294770751307 0 -0.18172799326116171 0.23600802244850541 0 -0.1648764293777894 0.2185644190153537 0 -0.16559257190737109 0.2352294770751307 0 -0.1648764293777894 0.2185644190153537 0 -0.15373086848077869 0.22955061617527819 0 -0.1648764293777894 0.2185644190153537 0 -0.17158799286597309 0.1943854516493409 0 -0.1480248654944171 0.20112081558220199 0 -0.1648764293777894 0.2185644190153537 0 -0.1480248654944171 0.20112081558220199 0 -0.1648764293777894 0.2185644190153537 0 -0.18693379028217991 0.21320701091604841 0 -0.17158799286597309 0.1943854516493409 0 -0.1942322605309697 0.18958959824703589 0 -0.18693379028217991 0.21320701091604841 0 -0.17158799286597309 0.1943854516493409 0 -0.17158799286597309 0.1943854516493409 0 -0.1480248654944171 0.20112081558220199 0 -0.15805184471376971 0.17715336808598489 0 -0.1480248654944171 0.20112081558220199 0 -0.14297134147927171 0.17943179647137741 0 -0.13117330161104521 0.18367721214904981 0 -0.13156188871449989 0.20383920424354579 0 -0.13117330161104521 0.18367721214904981 0 -0.12083507188506951 0.18920102108082459 0 -0.1480248654944171 0.20112081558220199 0 -0.13156188871449989 0.20383920424354579 0 -0.13117330161104521 0.18367721214904981 0 -0.13156188871449989 0.20383920424354579 0 -0.13117330161104521 0.18367721214904981 0 -0.13156188871449989 0.20383920424354579 0 -0.12639277385151229 0.20660110870943299 0 -0.12083507188506951 0.18920102108082459 0 -0.1480248654944171 0.20112081558220199 0 -0.13117330161104521 0.18367721214904981 0 -0.13156188871449989 0.20383920424354579 0 -0.1319504758179546 0.22400119633804169 0 -0.12639277385151229 0.20660110870943299 0 -0.1319504758179546 0.22400119633804169 0 -0.1237224035694071 0.2218785682198797 0 -0.13156188871449989 0.20383920424354579 0 -0.12639277385151229 0.20660110870943299 0 -0.1319504758179546 0.22400119633804169 0 -0.13156188871449989 0.20383920424354579 0 -0.1454044564777178 0.2173672335404519 0 -0.1319504758179546 0.22400119633804169 0 -0.12639277385151229 0.20660110870943299 0 -0.1319504758179546 0.22400119633804169 0 -0.1648764293777894 0.2185644190153537 0 -0.1480248654944171 0.20112081558220199 0 -0.1454044564777178 0.2173672335404519 0 -0.1480248654944171 0.20112081558220199 0 -0.13156188871449989 0.20383920424354579 0 -0.1454044564777178 0.2173672335404519 0 -0.1648764293777894 0.2185644190153537 0 -0.1454044564777178 0.2173672335404519 0 -0.15373086848077869 0.22955061617527819 0 -0.15373086848077869 0.22955061617527819 0 -0.14274329923055651 0.22884156257018881 0 -0.14656678511143181 0.2369508739833914 0 -0.1454044564777178 0.2173672335404519 0 -0.15373086848077869 0.22955061617527819 0 -0.14274329923055651 0.22884156257018881 0 -0.14274329923055651 0.22884156257018881 0 -0.1319504758179546 0.22400119633804169 0 -0.13698608676427759 0.23976671817757891 0 -0.1319504758179546 0.22400119633804169 0 -0.13698608676427759 0.23976671817757891 0 -0.1454044564777178 0.2173672335404519 0 -0.14274329923055651 0.22884156257018881 0 -0.1319504758179546 0.22400119633804169 0 -0.1319504758179546 0.22400119633804169 0 -0.11978137064516051 0.23188285113036811 0 -0.1237224035694071 0.2218785682198797 0 -0.1319504758179546 0.22400119633804169 0 -0.13245151858712459 0.24999799412478341 0 -0.11978137064516051 0.23188285113036811 0 -0.1319504758179546 0.22400119633804169 0 -0.13698608676427759 0.23976671817757891 0 -0.13245151858712459 0.24999799412478341 0 -0.14202169771060019 0.25553224001711627 0 -0.13698608676427759 0.23976671817757891 0 -0.14202169771060019 0.25553224001711627 0 -0.13698608676427759 0.23976671817757891 0 -0.13245151858712459 0.24999799412478341 0 -0.13245151858712459 0.24999799412478341 0 -0.11978137064516051 0.23188285113036811 0 -0.1319504758179546 0.22400119633804169 0 -0.13245151858712459 0.24999799412478341 0 -0.14202169771060019 0.25553224001711627 0 -0.13698608676427759 0.23976671817757891 0 -0.1429939389727522 0.24602274176024699 0 -0.14274329923055651 0.22884156257018881 0 -0.13698608676427759 0.23976671817757891 0 -0.14656678511143181 0.2369508739833914 0 -0.13698608676427759 0.23976671817757891 0 -0.1429939389727522 0.24602274176024699 0 -0.14656678511143181 0.2369508739833914 0 -0.15373086848077869 0.22955061617527819 0 -0.14656678511143181 0.2369508739833914 0 -0.15593418250619531 0.2394981785630001 0 -0.1429939389727522 0.24602274176024699 0 -0.14656678511143181 0.2369508739833914 0 -0.15593418250619531 0.2394981785630001 0 -0.1639709803244033 0.14384079655045459 0 -0.17910162042768729 0.16671519739874471 0 -0.1755817675865147 0.1217083084224241 0 -0.1639709803244033 0.14384079655045459 0 -0.15280106765993401 0.12695419704220939 0 -0.1639709803244033 0.14384079655045459 0 -0.15280106765993401 0.12695419704220939 0 -0.1755817675865147 0.1217083084224241 0 -0.18940948198504939 0.13897332115228619 0 -0.1639709803244033 0.14384079655045459 0 -0.1755817675865147 0.1217083084224241 0 -0.1918723291281893 0.12249043511651329 0 -0.18940948198504939 0.13897332115228619 0 -0.18940948198504939 0.13897332115228619 0 -0.1639709803244033 0.14384079655045459 0 -0.18940948198504939 0.13897332115228619 0 -0.1639709803244033 0.14384079655045459 0 -0.17910162042768729 0.16671519739874471 0 -0.1942322605309697 0.18958959824703589 0 -0.17910162042768729 0.16671519739874471 0 -0.1942322605309697 0.18958959824703589 0 -0.17158799286597309 0.1943854516493409 0 -0.17910162042768729 0.16671519739874471 0 -0.17158799286597309 0.1943854516493409 0 -0.17910162042768729 0.16671519739874471 0 -0.15805184471376971 0.17715336808598489 0 -0.1639709803244033 0.14384079655045459 0 -0.17910162042768729 0.16671519739874471 0 -0.15922372627807829 0.16039264634960651 0 -0.17910162042768729 0.16671519739874471 0 -0.15805184471376971 0.17715336808598489 0 -0.15922372627807829 0.16039264634960651 0 -0.15805184471376971 0.17715336808598489 0 -0.15922372627807829 0.16039264634960651 0 -0.14670432116119861 0.16558753665255399 0 -0.15922372627807829 0.16039264634960651 0 -0.14670432116119861 0.16558753665255399 0 -0.1419944726488441 0.14804584415411129 0 -0.1480248654944171 0.20112081558220199 0 -0.15805184471376971 0.17715336808598489 0 -0.14297134147927171 0.17943179647137741 0 -0.15805184471376971 0.17715336808598489 0 -0.14670432116119861 0.16558753665255399 0 -0.14297134147927171 0.17943179647137741 0 -0.14297134147927171 0.17943179647137741 0 -0.13117330161104521 0.18367721214904981 0 -0.13090237441592559 0.1696200498870962 0 -0.12627953129685199 0.1786115108738151 0 -0.13090237441592559 0.1696200498870962 0 -0.12627953129685199 0.1786115108738151 0 -0.13117330161104521 0.18367721214904981 0 -0.13090237441592559 0.1696200498870962 0 -0.13117330161104521 0.18367721214904981 0 -0.13090237441592559 0.1696200498870962 0 -0.12627953129685199 0.1786115108738151 0 -0.13117330161104521 0.18367721214904981 0 -0.12083507188506951 0.18920102108082459 0 -0.12627953129685199 0.1786115108738151 0 -0.13117330161104521 0.18367721214904981 0 -0.13090237441592559 0.1696200498870962 0 -0.1419944726488441 0.14804584415411129 0 -0.13090237441592559 0.1696200498870962 0 -0.13052885226408709 0.15023970863135391 0 -0.14670432116119861 0.16558753665255399 0 -0.13090237441592559 0.1696200498870962 0 -0.1419944726488441 0.14804584415411129 0 -0.12627953129685199 0.1786115108738151 0 -0.13090237441592559 0.1696200498870962 0 -0.12118657835502521 0.16195181962480509 0 -0.14670432116119861 0.16558753665255399 0 -0.14297134147927171 0.17943179647137741 0 -0.13090237441592559 0.1696200498870962 0 -0.13090237441592559 0.1696200498870962 0 -0.13052885226408709 0.15023970863135391 0 -0.12118657835502521 0.16195181962480509 0 -0.13090237441592559 0.1696200498870962 0 -0.13052885226408709 0.15023970863135391 0 -0.1419944726488441 0.14804584415411129 0 -0.13052885226408709 0.15023970863135391 0 -0.13033571525974821 0.1402187204924765 0 -0.13052885226408709 0.15023970863135391 0 -0.13033571525974821 0.1402187204924765 0 -0.1206661095827168 0.144991209915032 0 -0.13052885226408709 0.15023970863135391 0 -0.1419944726488441 0.14804584415411129 0 -0.13033571525974821 0.1402187204924765 0 -0.13052885226408709 0.15023970863135391 0 -0.1419944726488441 0.14804584415411129 0 -0.1639709803244033 0.14384079655045459 0 -0.1419944726488441 0.14804584415411129 0 -0.1639709803244033 0.14384079655045459 0 -0.15922372627807829 0.16039264634960651 0 -0.1419944726488441 0.14804584415411129 0 -0.1419944726488441 0.14804584415411129 0 -0.15280106765993401 0.12695419704220939 0 -0.13845425320843571 0.12986269355723279 0 -0.1419944726488441 0.14804584415411129 0 -0.15280106765993401 0.12695419704220939 0 -0.1639709803244033 0.14384079655045459 0 -0.1419944726488441 0.14804584415411129 0 -0.15280106765993401 0.12695419704220939 0 -0.1419944726488441 0.14804584415411129 0 -0.13845425320843571 0.12986269355723279 0 -0.13033571525974821 0.1402187204924765 0 -0.13845425320843571 0.12986269355723279 0 -0.13033571525974821 0.1402187204924765 0 -0.1254402541581866 0.12852827206949971 0 -0.13033571525974821 0.1402187204924765 0 -0.1254402541581866 0.12852827206949971 0 -0.1198671643794883 0.13742719391389621 0 -0.13388842186376379 0.1201223435719868 0 -0.13845425320843571 0.12986269355723279 0 -0.1254402541581866 0.12852827206949971 0 -0.1254402541581866 0.12852827206949971 0 -0.11407734365480809 0.1312937074049475 0 -0.11581515444735151 0.1219394507645845 0 -0.1254402541581866 0.12852827206949971 0 -0.1198671643794883 0.13742719391389621 0 -0.11407734365480809 0.1312937074049475 0 -0.1198671643794883 0.13742719391389621 0 -0.11407734365480809 0.1312937074049475 0 -0.110316146033984 0.14333944139218369 0 -0.11407734365480809 0.1312937074049475 0 -0.1064421655094259 0.13349852309749019 0 -0.110316146033984 0.14333944139218369 0 -0.11407734365480809 0.1312937074049475 0 -0.11581515444735151 0.1219394507645845 0 -0.1065831774004123 0.12302936319203089 0 -0.11407734365480809 0.1312937074049475 0 -0.1064421655094259 0.13349852309749019 0 -0.1065831774004123 0.12302936319203089 0 -0.1064421655094259 0.13349852309749019 0 -0.1012503287558192 0.1291052051832644 0 -0.1065831774004123 0.12302936319203089 0 -0.1064421655094259 0.13349852309749019 0 -0.1003715866569993 0.1350254598834385 0 -0.1012503287558192 0.1291052051832644 0 -0.1064421655094259 0.13349852309749019 0 -0.1038323453224451 0.1387756999783486 0 -0.110316146033984 0.14333944139218369 0 -0.1064421655094259 0.13349852309749019 0 -0.1038323453224451 0.1387756999783486 0 -0.1003715866569993 0.1350254598834385 0 -0.1038323453224451 0.1387756999783486 0 -0.1003715866569993 0.1350254598834385 0 -0.098199483089371195 0.14323937554028199 0 -0.1003715866569993 0.1350254598834385 0 -0.096538056045601867 0.13380430325217721 0 -0.098199483089371195 0.14323937554028199 0 -0.096538056045601867 0.13380430325217721 0 -0.098199483089371195 0.14323937554028199 0 -0.091808040932467749 0.13012445647549031 0 -0.1003715866569993 0.1350254598834385 0 -0.096538056045601867 0.13380430325217721 0 -0.097861957422785736 0.13149203683436941 0 -0.09444921212638531 0.12914018752730541 0 -0.1012503287558192 0.1291052051832644 0 -0.096915602850775939 0.11929309087028819 0 -0.096538056045601867 0.13380430325217721 0 -0.09444921212638531 0.12914018752730541 0 -0.097861957422785736 0.13149203683436941 0 -0.096538056045601867 0.13380430325217721 0 -0.09444921212638531 0.12914018752730541 0 -0.091808040932467749 0.13012445647549031 0 -0.09444921212638531 0.12914018752730541 0 -0.1012503287558192 0.1291052051832644 0 -0.097861957422785736 0.13149203683436941 0 -0.1003715866569993 0.1350254598834385 0 -0.1012503287558192 0.1291052051832644 0 -0.097861957422785736 0.13149203683436941 0 -0.098199483089371195 0.14323937554028199 0 -0.11228266997627639 0.1537309851452496 0 -0.094036487688465731 0.15722226165914591 0 -0.11228266997627639 0.1537309851452496 0 -0.1059394638219837 0.15755684358651101 0 -0.094036487688465731 0.15722226165914591 0 -0.11228266997627639 0.1537309851452496 0 -0.094036487688465731 0.15722226165914591 0 -0.098199483089371195 0.14323937554028199 0 -0.094036487688465731 0.15722226165914591 0 -0.091808040932467749 0.13012445647549031 0 -0.1038323453224451 0.1387756999783486 0 -0.098199483089371195 0.14323937554028199 0 -0.110316146033984 0.14333944139218369 0 -0.098199483089371195 0.14323937554028199 0 -0.11228266997627639 0.1537309851452496 0 -0.110316146033984 0.14333944139218369 0 -0.13052885226408709 0.15023970863135391 0 -0.11228266997627639 0.1537309851452496 0 -0.12118657835502521 0.16195181962480509 0 -0.13052885226408709 0.15023970863135391 0 -0.11228266997627639 0.1537309851452496 0 -0.13052885226408709 0.15023970863135391 0 -0.11228266997627639 0.1537309851452496 0 -0.1206661095827168 0.144991209915032 0 -0.11228266997627639 0.1537309851452496 0 -0.110316146033984 0.14333944139218369 0 -0.1206661095827168 0.144991209915032 0 -0.1198671643794883 0.13742719391389621 0 -0.110316146033984 0.14333944139218369 0 -0.1206661095827168 0.144991209915032 0 -0.13033571525974821 0.1402187204924765 0 -0.1198671643794883 0.13742719391389621 0 -0.1206661095827168 0.144991209915032 0 -0.12627953129685199 0.1786115108738151 0 -0.12118657835502521 0.16195181962480509 0 -0.111553683532279 0.1633683055309782 0 -0.12627953129685199 0.1786115108738151 0 -0.1140409964512907 0.16793008776757309 0 -0.111553683532279 0.1633683055309782 0 -0.12627953129685199 0.1786115108738151 0 -0.111553683532279 0.1633683055309782 0 -0.1140409964512907 0.16793008776757309 0 -0.111553683532279 0.1633683055309782 0 -0.1079033705956379 0.1726626310782946 0 -0.11228266997627639 0.1537309851452496 0 -0.12118657835502521 0.16195181962480509 0 -0.1059394638219837 0.15755684358651101 0 -0.12118657835502521 0.16195181962480509 0 -0.111553683532279 0.1633683055309782 0 -0.1059394638219837 0.15755684358651101 0 -0.1140409964512907 0.16793008776757309 0 -0.11243779339953749 0.17827854476688751 0 -0.12083507188506951 0.18920102108082459 0 -0.12627953129685199 0.1786115108738151 0 -0.1140409964512907 0.16793008776757309 0 -0.12083507188506951 0.18920102108082459 0 -0.1140409964512907 0.16793008776757309 0 -0.12083507188506951 0.18920102108082459 0 -0.12627953129685199 0.1786115108738151 0 -0.12083507188506951 0.18920102108082459 0 -0.1140409964512907 0.16793008776757309 0 -0.11243779339953749 0.17827854476688751 0 -0.1079033705956379 0.1726626310782946 0 -0.11243779339953749 0.17827854476688751 0 -0.1069717346661518 0.1833204391408578 0 -0.12083507188506951 0.18920102108082459 0 -0.095311777100950554 0.17272971946996091 0 -0.097564086283681073 0.20011769061295931 0 -0.1069717346661518 0.1833204391408578 0 -0.095311777100950554 0.17272971946996091 0 -0.097564086283681073 0.20011769061295931 0 -0.1069717346661518 0.1833204391408578 0 -0.1079033705956379 0.1726626310782946 0 -0.095311777100950554 0.17272971946996091 0 -0.11243779339953749 0.17827854476688751 0 -0.1069717346661518 0.1833204391408578 0 -0.1079033705956379 0.1726626310782946 0 -0.111553683532279 0.1633683055309782 0 -0.095311777100950554 0.17272971946996091 0 -0.111553683532279 0.1633683055309782 0 -0.095311777100950554 0.17272971946996091 0 -0.1059394638219837 0.15755684358651101 0 -0.111553683532279 0.1633683055309782 0 -0.1079033705956379 0.1726626310782946 0 -0.095311777100950554 0.17272971946996091 0 -0.111553683532279 0.1633683055309782 0 -0.1059394638219837 0.15755684358651101 0 -0.095311777100950554 0.17272971946996091 0 -0.094036487688465731 0.15722226165914591 0 -0.095311777100950554 0.17272971946996091 0 -0.1059394638219837 0.15755684358651101 0 -0.094036487688465731 0.15722226165914591 0 -0.094036487688465731 0.15722226165914591 0 -0.074493674997702819 0.16096163912926409 0 -0.094036487688465731 0.15722226165914591 0 -0.085244644999941929 0.1642113664514562 0 -0.074493674997702819 0.16096163912926409 0 -0.095311777100950554 0.17272971946996091 0 -0.094036487688465731 0.15722226165914591 0 -0.085244644999941929 0.1642113664514562 0 -0.085244644999941929 0.1642113664514562 0 -0.079394700517614519 0.1650672852497273 0 -0.083185352522732417 0.17955969718215339 0 -0.079394700517614519 0.1650672852497273 0 -0.083185352522732417 0.17955969718215339 0 -0.074344713799742029 0.16691979468357829 0 -0.085244644999941929 0.1642113664514562 0 -0.079394700517614519 0.1650672852497273 0 -0.074493674997702819 0.16096163912926409 0 -0.095311777100950554 0.17272971946996091 0 -0.083185352522732417 0.17955969718215339 0 -0.097564086283681073 0.20011769061295931 0 -0.095311777100950554 0.17272971946996091 0 -0.085244644999941929 0.1642113664514562 0 -0.083185352522732417 0.17955969718215339 0 -0.095311777100950554 0.17272971946996091 0 -0.083185352522732417 0.17955969718215339 0 -0.083185352522732417 0.17955969718215339 0 -0.074344713799742029 0.16691979468357829 0 -0.083185352522732417 0.17955969718215339 0 -0.069260866365557366 0.17988717893427739 0 -0.061763211289206608 0.1916253102759955 0 -0.083185352522732417 0.17955969718215339 0 -0.061763211289206608 0.1916253102759955 0 -0.083185352522732417 0.17955969718215339 0 -0.071423409295566648 0.17331445891222899 0 -0.074344713799742029 0.16691979468357829 0 -0.083185352522732417 0.17955969718215339 0 -0.071423409295566648 0.17331445891222899 0 -0.069260866365557366 0.17988717893427739 0 -0.071423409295566648 0.17331445891222899 0 -0.069260866365557366 0.17988717893427739 0 -0.067121982064260732 0.17079218646778929 0 -0.069260866365557366 0.17988717893427739 0 -0.067121982064260732 0.17079218646778929 0 -0.058404173362121982 0.1783658744278844 0 -0.069260866365557366 0.17988717893427739 0 -0.061763211289206608 0.1916253102759955 0 -0.058404173362121982 0.1783658744278844 0 -0.074493674997702819 0.16096163912926409 0 -0.054950862306940053 0.16470101659938299 0 -0.074493674997702819 0.16096163912926409 0 -0.066555998597674665 0.1561489269456971 0 -0.054950862306940053 0.16470101659938299 0 -0.074493674997702819 0.16096163912926409 0 -0.067121982064260732 0.17079218646778929 0 -0.054950862306940053 0.16470101659938299 0 -0.074493674997702819 0.16096163912926409 0 -0.074344713799742029 0.16691979468357829 0 -0.067121982064260732 0.17079218646778929 0 -0.079394700517614519 0.1650672852497273 0 -0.074493674997702819 0.16096163912926409 0 -0.074344713799742029 0.16691979468357829 0 -0.071423409295566648 0.17331445891222899 0 -0.074344713799742029 0.16691979468357829 0 -0.067121982064260732 0.17079218646778929 0 -0.066555998597674665 0.1561489269456971 0 -0.074319405030938618 0.14956010502737421 0 -0.062460052055117191 0.14937294702676709 0 -0.074493674997702819 0.16096163912926409 0 -0.066555998597674665 0.1561489269456971 0 -0.074319405030938618 0.14956010502737421 0 -0.074319405030938618 0.14956010502737421 0 -0.077904985099269616 0.14087009903043701 0 -0.069513265591619355 0.1382581387818132 0 -0.069513265591619355 0.1382581387818132 0 -0.057152676742621082 0.1378605027401395 0 -0.062460052055117191 0.14937294702676709 0 -0.074319405030938618 0.14956010502737421 0 -0.069513265591619355 0.1382581387818132 0 -0.062460052055117191 0.14937294702676709 0 -0.069513265591619355 0.1382581387818132 0 -0.061971368367185052 0.12815652956024409 0 -0.057152676742621082 0.1378605027401395 0 -0.069513265591619355 0.1382581387818132 0 -0.071363184399134541 0.12710869201121849 0 -0.061971368367185052 0.12815652956024409 0 -0.071363184399134541 0.12710869201121849 0 -0.079141604027258089 0.13238394239567841 0 -0.082448521523635951 0.12071931899294611 0 -0.069513265591619355 0.1382581387818132 0 -0.071363184399134541 0.12710869201121849 0 -0.079141604027258089 0.13238394239567841 0 -0.077904985099269616 0.14087009903043701 0 -0.069513265591619355 0.1382581387818132 0 -0.079141604027258089 0.13238394239567841 0 -0.08518572741203366 0.13075893545366851 0 -0.079141604027258089 0.13238394239567841 0 -0.085960538814501358 0.13888817470549089 0 -0.077904985099269616 0.14087009903043701 0 -0.079141604027258089 0.13238394239567841 0 -0.085960538814501358 0.13888817470549089 0 -0.08518572741203366 0.13075893545366851 0 -0.079141604027258089 0.13238394239567841 0 -0.082448521523635951 0.12071931899294611 0 -0.09444921212638531 0.12914018752730541 0 -0.091808040932467749 0.13012445647549031 0 -0.082448521523635951 0.12071931899294611 0 -0.08518572741203366 0.13075893545366851 0 -0.091808040932467749 0.13012445647549031 0 -0.082448521523635951 0.12071931899294611 0 -0.08518572741203366 0.13075893545366851 0 -0.091808040932467749 0.13012445647549031 0 -0.085960538814501358 0.13888817470549089 0 -0.094036487688465731 0.15722226165914591 0 -0.091808040932467749 0.13012445647549031 0 -0.094036487688465731 0.15722226165914591 0 -0.091808040932467749 0.13012445647549031 0 -0.085960538814501358 0.13888817470549089 0 -0.094036487688465731 0.15722226165914591 0 -0.085960538814501358 0.13888817470549089 0 -0.083335098020280649 0.14611717125705581 0 -0.094036487688465731 0.15722226165914591 0 -0.074319405030938618 0.14956010502737421 0 -0.083335098020280649 0.14611717125705581 0 -0.094036487688465731 0.15722226165914591 0 -0.074493674997702819 0.16096163912926409 0 -0.074319405030938618 0.14956010502737421 0 -0.077904985099269616 0.14087009903043701 0 -0.085960538814501358 0.13888817470549089 0 -0.083335098020280649 0.14611717125705581 0 -0.074319405030938618 0.14956010502737421 0 -0.077904985099269616 0.14087009903043701 0 -0.083335098020280649 0.14611717125705581 0 -0.1059001519073807 0.24066599892186191 0 -0.090464813075963074 0.2284889165045145 0 -0.091867061917784446 0.2492044006527013 0 -0.1144267452547701 0.25408918909134198 0 -0.1059001519073807 0.24066599892186191 0 -0.11914498469304979 0.24556415544938651 0 -0.13245151858712459 0.24999799412478341 0 -0.11914498469304979 0.24556415544938651 0 -0.11978137064516051 0.23188285113036811 0 -0.1059001519073807 0.24066599892186191 0 -0.11914498469304979 0.24556415544938651 0 -0.11978137064516051 0.23188285113036811 0 -0.11978137064516051 0.23188285113036811 0 -0.1237224035694071 0.2218785682198797 0 -0.10711122270319751 0.2137677081359517 0 -0.11978137064516051 0.23188285113036811 0 -0.10711122270319751 0.2137677081359517 0 -0.1059001519073807 0.24066599892186191 0 -0.11978137064516051 0.23188285113036811 0 -0.10711122270319751 0.2137677081359517 0 -0.1059001519073807 0.24066599892186191 0 -0.10711122270319751 0.2137677081359517 0 -0.090464813075963074 0.2284889165045145 0 -0.10711122270319751 0.2137677081359517 0 -0.084437216996202311 0.20269650920597301 0 -0.090464813075963074 0.2284889165045145 0 -0.10711122270319751 0.2137677081359517 0 -0.084437216996202311 0.20269650920597301 0 -0.098045400657933435 0.20597045021355961 0 -0.10711122270319751 0.2137677081359517 0 -0.084437216996202311 0.20269650920597301 0 -0.098045400657933435 0.20597045021355961 0 -0.10711122270319751 0.2137677081359517 0 -0.097564086283681073 0.20011769061295931 0 -0.10711122270319751 0.2137677081359517 0 -0.097564086283681073 0.20011769061295931 0 -0.10711122270319751 0.2137677081359517 0 -0.112017531831048 0.20635119584394379 0 -0.097564086283681073 0.20011769061295931 0 -0.1237224035694071 0.2218785682198797 0 -0.10711122270319751 0.2137677081359517 0 -0.1237224035694071 0.2218785682198797 0 -0.10711122270319751 0.2137677081359517 0 -0.1178187937372495 0.2124487354634968 0 -0.12639277385151229 0.20660110870943299 0 -0.1237224035694071 0.2218785682198797 0 -0.1178187937372495 0.2124487354634968 0 -0.12639277385151229 0.20660110870943299 0 -0.1178187937372495 0.2124487354634968 0 -0.112017531831048 0.20635119584394379 0 -0.10711122270319751 0.2137677081359517 0 -0.1178187937372495 0.2124487354634968 0 -0.112017531831048 0.20635119584394379 0 -0.112017531831048 0.20635119584394379 0 -0.12083507188506951 0.18920102108082459 0 -0.12639277385151229 0.20660110870943299 0 -0.12083507188506951 0.18920102108082459 0 -0.112017531831048 0.20635119584394379 0 -0.12083507188506951 0.18920102108082459 0 -0.1093471061664877 0.19474758666964631 0 -0.12639277385151229 0.20660110870943299 0 -0.112017531831048 0.20635119584394379 0 -0.12083507188506951 0.18920102108082459 0 -0.1069717346661518 0.1833204391408578 0 -0.12083507188506951 0.18920102108082459 0 -0.1093471061664877 0.19474758666964631 0 -0.1069717346661518 0.1833204391408578 0 -0.1093471061664877 0.19474758666964631 0 -0.097564086283681073 0.20011769061295931 0 -0.112017531831048 0.20635119584394379 0 -0.1093471061664877 0.19474758666964631 0 -0.097564086283681073 0.20011769061295931 0 -0.098045400657933435 0.20597045021355961 0 -0.097564086283681073 0.20011769061295931 0 -0.083185352522732417 0.17955969718215339 0 -0.097564086283681073 0.20011769061295931 0 -0.083185352522732417 0.17955969718215339 0 -0.097564086283681073 0.20011769061295931 0 -0.084437216996202311 0.20269650920597301 0 -0.098045400657933435 0.20597045021355961 0 -0.097564086283681073 0.20011769061295931 0 -0.084437216996202311 0.20269650920597301 0 -0.084437216996202311 0.20269650920597301 0 -0.066691027831264141 0.20618779642293431 0 -0.061763211289206608 0.1916253102759955 0 -0.083185352522732417 0.17955969718215339 0 -0.084437216996202311 0.20269650920597301 0 -0.061763211289206608 0.1916253102759955 0 -0.084437216996202311 0.20269650920597301 0 -0.061763211289206608 0.1916253102759955 0 -0.066691027831264141 0.20618779642293431 0 -0.072124859986402542 0.22269434948424921 0 -0.060201526095289268 0.21462574550147101 0 -0.084437216996202311 0.20269650920597301 0 -0.066691027831264141 0.20618779642293431 0 -0.072124859986402542 0.22269434948424921 0 -0.084437216996202311 0.20269650920597301 0 -0.090464813075963074 0.2284889165045145 0 -0.072124859986402542 0.22269434948424921 0 -0.090464813075963074 0.2284889165045145 0 -0.072124859986402542 0.22269434948424921 0 -0.07933215694978582 0.2392314759788742 0 -0.072124859986402542 0.22269434948424921 0 -0.067547915763364885 0.23647727725672801 0 -0.055526719565130722 0.2281114695194528 0 -0.072124859986402542 0.22269434948424921 0 -0.067547915763364885 0.23647727725672801 0 -0.07933215694978582 0.2392314759788742 0 -0.072124859986402542 0.22269434948424921 0 -0.055526719565130722 0.2281114695194528 0 -0.060201526095289268 0.21462574550147101 0 -0.073310846749778752 0.25320992399658548 0 -0.067547915763364885 0.23647727725672801 0 -0.07933215694978582 0.2392314759788742 0 -0.073310846749778752 0.25320992399658548 0 -0.067547915763364885 0.23647727725672801 0 -0.059665074524173897 0.24663286248148589 0 -0.090464813075963074 0.2284889165045145 0 -0.091867061917784446 0.2492044006527013 0 -0.07933215694978582 0.2392314759788742 0 -0.073310846749778752 0.25320992399658548 0 -0.091867061917784446 0.2492044006527013 0 -0.07933215694978582 0.2392314759788742 0 -0.039483479587714233 0.2489863101895177 0 -0.041382795854232483 0.23233775012241281 0 -0.02985135539691134 0.23416251533144139 0 -0.039483479587714233 0.2489863101895177 0 -0.02985135539691134 0.23416251533144139 0 -0.026200281719759279 0.24996269934024659 0 -0.039483479587714233 0.2489863101895177 0 -0.048860923874109868 0.2411660915108754 0 -0.041382795854232483 0.23233775012241281 0 -0.055882431866711817 0.25861963208225142 0 -0.039483479587714233 0.2489863101895177 0 -0.048860923874109868 0.2411660915108754 0 -0.055882431866711817 0.25861963208225142 0 -0.059665074524173897 0.24663286248148589 0 -0.048860923874109868 0.2411660915108754 0 -0.067547915763364885 0.23647727725672801 0 -0.059665074524173897 0.24663286248148589 0 -0.055526719565130722 0.2281114695194528 0 -0.059665074524173897 0.24663286248148589 0 -0.048860923874109868 0.2411660915108754 0 -0.055526719565130722 0.2281114695194528 0 -0.048860923874109868 0.2411660915108754 0 -0.055526719565130722 0.2281114695194528 0 -0.041382795854232483 0.23233775012241281 0 -0.055526719565130722 0.2281114695194528 0 -0.042766839488359111 0.22171584376351691 0 -0.0474611258265542 0.2118069794575303 0 -0.055526719565130722 0.2281114695194528 0 -0.042766839488359111 0.22171584376351691 0 -0.041382795854232483 0.23233775012241281 0 -0.041382795854232483 0.23233775012241281 0 -0.03180745721316966 0.21988427041967271 0 -0.02985135539691134 0.23416251533144139 0 -0.042766839488359111 0.22171584376351691 0 -0.041382795854232483 0.23233775012241281 0 -0.03180745721316966 0.21988427041967271 0 -0.042766839488359111 0.22171584376351691 0 -0.03180745721316966 0.21988427041967271 0 -0.038478020927301987 0.21319064811815419 0 -0.03180745721316966 0.21988427041967271 0 -0.038478020927301987 0.21319064811815419 0 -0.030632044034664949 0.2085069035436044 0 -0.038478020927301987 0.21319064811815419 0 -0.039722638073762043 0.20403924340644641 0 -0.030632044034664949 0.2085069035436044 0 -0.038478020927301987 0.21319064811815419 0 -0.039722638073762043 0.20403924340644641 0 -0.0474611258265542 0.2118069794575303 0 -0.042766839488359111 0.22171584376351691 0 -0.038478020927301987 0.21319064811815419 0 -0.0474611258265542 0.2118069794575303 0 -0.055526719565130722 0.2281114695194528 0 -0.0474611258265542 0.2118069794575303 0 -0.060201526095289268 0.21462574550147101 0 -0.066691027831264141 0.20618779642293431 0 -0.060201526095289268 0.21462574550147101 0 -0.05502398351401494 0.20511231064800531 0 -0.039722638073762043 0.20403924340644641 0 -0.0474611258265542 0.2118069794575303 0 -0.05502398351401494 0.20511231064800531 0 -0.0474611258265542 0.2118069794575303 0 -0.060201526095289268 0.21462574550147101 0 -0.05502398351401494 0.20511231064800531 0 -0.039722638073762043 0.20403924340644641 0 -0.061763211289206608 0.1916253102759955 0 -0.039722638073762043 0.20403924340644641 0 -0.05502398351401494 0.20511231064800531 0 -0.061763211289206608 0.1916253102759955 0 -0.039722638073762043 0.20403924340644641 0 -0.061763211289206608 0.1916253102759955 0 -0.05195277640101393 0.1868350990693681 0 -0.066691027831264141 0.20618779642293431 0 -0.05502398351401494 0.20511231064800531 0 -0.061763211289206608 0.1916253102759955 0 -0.061763211289206608 0.1916253102759955 0 -0.05195277640101393 0.1868350990693681 0 -0.039722638073762043 0.20403924340644641 0 -0.036780610099209479 0.18908293796925921 0 -0.030632044034664949 0.2085069035436044 0 -0.039722638073762043 0.20403924340644641 0 -0.036780610099209479 0.18908293796925921 0 -0.05195277640101393 0.1868350990693681 0 -0.030632044034664949 0.2085069035436044 0 -0.024773226294059359 0.18410412220054831 0 -0.02505499744173242 0.19744308204371649 0 -0.030632044034664949 0.2085069035436044 0 -0.024773226294059359 0.18410412220054831 0 -0.036780610099209479 0.18908293796925921 0 -0.030632044034664949 0.2085069035436044 0 -0.024773226294059359 0.18410412220054831 0 -0.02505499744173242 0.19744308204371649 0 -0.011252413899452951 0.20858217461560469 0 -0.02505499744173242 0.19744308204371649 0 -0.01764760029911001 0.19279818533795001 0 -0.0110539760661652 0.19872239043781759 0 -0.02505499744173242 0.19744308204371649 0 -0.0110539760661652 0.19872239043781759 0 -0.011252413899452951 0.20858217461560469 0 -0.01764760029911001 0.19279818533795001 0 -0.024773226294059359 0.18410412220054831 0 -0.015675432947044269 0.18640396401650541 0 -0.02505499744173242 0.19744308204371649 0 -0.01764760029911001 0.19279818533795001 0 -0.024773226294059359 0.18410412220054831 0 -0.011252413899452951 0.20858217461560469 0 0.0044347205301438356 0.18700663260860501 0 -0.01163970763905323 0.1913224117769631 0 -0.0032230355682505928 0.1887738530916741 0 -0.0089554830481348227 0.18456892635609801 0 -0.01764760029911001 0.19279818533795001 0 -0.01163970763905323 0.1913224117769631 0 -0.015675432947044269 0.18640396401650541 0 -0.01163970763905323 0.1913224117769631 0 -0.0032230355682505928 0.1887738530916741 0 -0.0110539760661652 0.19872239043781759 0 -0.0110539760661652 0.19872239043781759 0 -0.011252413899452951 0.20858217461560469 0 0.0044347205301438356 0.18700663260860501 0 -0.01764760029911001 0.19279818533795001 0 -0.01163970763905323 0.1913224117769631 0 -0.0110539760661652 0.19872239043781759 0 -0.0032230355682505928 0.1887738530916741 0 -0.0110539760661652 0.19872239043781759 0 0.0044347205301438356 0.18700663260860501 0 -0.011252413899452951 0.20858217461560469 0 -0.0041099334453547154 0.21434636729209819 0 0.006899093886187581 0.19659648086674539 0 -0.011252413899452951 0.20858217461560469 0 -0.0041099334453547154 0.21434636729209819 0 -0.020551884648181609 0.2213723449735234 0 -0.011252413899452951 0.20858217461560469 0 -0.0041099334453547154 0.21434636729209819 0 -0.011252413899452951 0.20858217461560469 0 -0.020551884648181609 0.2213723449735234 0 -0.011252413899452951 0.20858217461560469 0 -0.022003549727709001 0.21123900007860119 0 -0.020551884648181609 0.2213723449735234 0 -0.02505499744173242 0.19744308204371649 0 -0.011252413899452951 0.20858217461560469 0 -0.022003549727709001 0.21123900007860119 0 -0.02505499744173242 0.19744308204371649 0 -0.022003549727709001 0.21123900007860119 0 -0.030632044034664949 0.2085069035436044 0 -0.03180745721316966 0.21988427041967271 0 -0.022003549727709001 0.21123900007860119 0 -0.030632044034664949 0.2085069035436044 0 -0.03180745721316966 0.21988427041967271 0 -0.022003549727709001 0.21123900007860119 0 -0.020551884648181609 0.2213723449735234 0 -0.03180745721316966 0.21988427041967271 0 -0.02985135539691134 0.23416251533144139 0 -0.020551884648181609 0.2213723449735234 0 -0.02985135539691134 0.23416251533144139 0 -0.020551884648181609 0.2213723449735234 0 -0.02985135539691134 0.23416251533144139 0 -0.020551884648181609 0.2213723449735234 0 -0.015155107582555781 0.23215453331617319 0 -0.0041099334453547154 0.21434636729209819 0 -0.020551884648181609 0.2213723449735234 0 -0.015155107582555781 0.23215453331617319 0 -0.0041099334453547154 0.21434636729209819 0 -0.015155107582555781 0.23215453331617319 0 -0.0041099334453547154 0.21434636729209819 0 -0.0010688181069628371 0.22920895513534159 0 -0.015155107582555781 0.23215453331617319 0 -0.0010688181069628371 0.22920895513534159 0 -0.015155107582555781 0.23215453331617319 0 0.001546354976405674 0.24182248312587751 0 -0.015155107582555781 0.23215453331617319 0 -0.01079159310877998 0.24793473378372399 0 0.001546354976405674 0.24182248312587751 0 -0.01079159310877998 0.24793473378372399 0 0.001546354976405674 0.24182248312587751 0 0.0021022769219057442 0.25480250730218768 0 -0.015155107582555781 0.23215453331617319 0 -0.026200281719759279 0.24996269934024659 0 -0.02985135539691134 0.23416251533144139 0 -0.015155107582555781 0.23215453331617319 0 -0.026200281719759279 0.24996269934024659 0 -0.015155107582555781 0.23215453331617319 0 -0.01079159310877998 0.24793473378372399 0 -0.026200281719759279 0.24996269934024659 0 -0.031573572561005653 0.1438880627868247 0 -0.048533907884765047 0.14792522145416601 0 -0.038563976669610298 0.16439708434635569 0 -0.048533907884765047 0.14792522145416601 0 -0.044866225326056101 0.1209633474237209 0 -0.031573572561005653 0.1438880627868247 0 -0.028830479123556321 0.13075729057599811 0 -0.044866225326056101 0.1209633474237209 0 -0.031573572561005653 0.1438880627868247 0 -0.048533907884765047 0.14792522145416601 0 -0.044866225326056101 0.1209633474237209 0 -0.061971368367185052 0.12815652956024409 0 -0.057152676742621082 0.1378605027401395 0 -0.044866225326056101 0.1209633474237209 0 -0.057152676742621082 0.1378605027401395 0 -0.048533907884765047 0.14792522145416601 0 -0.044866225326056101 0.1209633474237209 0 -0.048533907884765047 0.14792522145416601 0 -0.062460052055117191 0.14937294702676709 0 -0.054950862306940053 0.16470101659938299 0 -0.057152676742621082 0.1378605027401395 0 -0.048533907884765047 0.14792522145416601 0 -0.062460052055117191 0.14937294702676709 0 -0.048533907884765047 0.14792522145416601 0 -0.054950862306940053 0.16470101659938299 0 -0.038563976669610298 0.16439708434635569 0 -0.066555998597674665 0.1561489269456971 0 -0.062460052055117191 0.14937294702676709 0 -0.054950862306940053 0.16470101659938299 0 -0.067121982064260732 0.17079218646778929 0 -0.054950862306940053 0.16470101659938299 0 -0.058404173362121982 0.1783658744278844 0 -0.061763211289206608 0.1916253102759955 0 -0.058404173362121982 0.1783658744278844 0 -0.05195277640101393 0.1868350990693681 0 -0.054950862306940053 0.16470101659938299 0 -0.058404173362121982 0.1783658744278844 0 -0.04537534174575307 0.17635445522049351 0 -0.058404173362121982 0.1783658744278844 0 -0.05195277640101393 0.1868350990693681 0 -0.04537534174575307 0.17635445522049351 0 -0.036780610099209479 0.18908293796925921 0 -0.05195277640101393 0.1868350990693681 0 -0.04537534174575307 0.17635445522049351 0 -0.036780610099209479 0.18908293796925921 0 -0.032881512672416562 0.17472798811882989 0 -0.024773226294059359 0.18410412220054831 0 -0.036780610099209479 0.18908293796925921 0 -0.04537534174575307 0.17635445522049351 0 -0.032881512672416562 0.17472798811882989 0 -0.054950862306940053 0.16470101659938299 0 -0.04537534174575307 0.17635445522049351 0 -0.038563976669610298 0.16439708434635569 0 -0.04537534174575307 0.17635445522049351 0 -0.032881512672416562 0.17472798811882989 0 -0.038563976669610298 0.16439708434635569 0 -0.032881512672416562 0.17472798811882989 0 -0.038563976669610298 0.16439708434635569 0 -0.018914408553450609 0.15970134085749299 0 -0.038563976669610298 0.16439708434635569 0 -0.018914408553450609 0.15970134085749299 0 -0.018914408553450609 0.15970134085749299 0 -0.024773226294059359 0.18410412220054831 0 -0.012508086372386609 0.17539393389956731 0 -0.032881512672416562 0.17472798811882989 0 -0.018914408553450609 0.15970134085749299 0 -0.024773226294059359 0.18410412220054831 0 -0.018914408553450609 0.15970134085749299 0 -0.024773226294059359 0.18410412220054831 0 -0.024773226294059359 0.18410412220054831 0 -0.015675432947044269 0.18640396401650541 0 -0.012508086372386609 0.17539393389956731 0 -0.0041686413979582487 0.1780534649607691 0 -0.00095255331983417333 0.15540891751961169 0 0.003181539142360783 0.1842191061750523 0 -0.015675432947044269 0.18640396401650541 0 -0.0089554830481348227 0.18456892635609801 0 -0.012508086372386609 0.17539393389956731 0 -0.01163970763905323 0.1913224117769631 0 -0.015675432947044269 0.18640396401650541 0 -0.0089554830481348227 0.18456892635609801 0 -0.0089554830481348227 0.18456892635609801 0 -0.012508086372386609 0.17539393389956731 0 -0.0041686413979582487 0.1780534649607691 0 -0.0089554830481348227 0.18456892635609801 0 -0.0041686413979582487 0.1780534649607691 0 -0.0047829169337549613 0.18481762026639301 0 -0.0041686413979582487 0.1780534649607691 0 -0.001505659879600719 0.18317061219929109 0 0.003181539142360783 0.1842191061750523 0 -0.0041686413979582487 0.1780534649607691 0 -0.001505659879600719 0.18317061219929109 0 -0.0047829169337549613 0.18481762026639301 0 -0.001505659879600719 0.18317061219929109 0 -0.00025262032905044759 0.18559225739494989 0 -0.0047829169337549613 0.18481762026639301 0 -0.0032230355682505928 0.1887738530916741 0 -0.00025262032905044759 0.18559225739494989 0 -0.0047829169337549613 0.18481762026639301 0 -0.0032230355682505928 0.1887738530916741 0 -0.0089554830481348227 0.18456892635609801 0 -0.0047829169337549613 0.18481762026639301 0 -0.018914408553450609 0.15970134085749299 0 -0.012508086372386609 0.17539393389956731 0 -0.00095255331983417333 0.15540891751961169 0 -0.012508086372386609 0.17539393389956731 0 -0.0041686413979582487 0.1780534649607691 0 -0.00095255331983417333 0.15540891751961169 0 -0.018914408553450609 0.15970134085749299 0 -0.00095255331983417333 0.15540891751961169 0 -0.00095255331983417333 0.15540891751961169 0 -0.0050240550804999673 0.127034918895162 0 -0.018914408553450609 0.15970134085749299 0 -0.00095255331983417333 0.15540891751961169 0 -0.01337807056624165 0.13664173202091001 0 -0.018914408553450609 0.15970134085749299 0 -0.01337807056624165 0.13664173202091001 0 -0.031573572561005653 0.1438880627868247 0 -0.038563976669610298 0.16439708434635569 0 -0.018914408553450609 0.15970134085749299 0 -0.031573572561005653 0.1438880627868247 0 -0.018914408553450609 0.15970134085749299 0 -0.01337807056624165 0.13664173202091001 0 -0.031573572561005653 0.1438880627868247 0 -0.028830479123556321 0.13075729057599811 0 -0.01337807056624165 0.13664173202091001 0 -0.028830479123556321 0.13075729057599811 0 -0.01337807056624165 0.13664173202091001 0 -0.025504048040921899 0.1215360200725371 0 -0.01337807056624165 0.13664173202091001 0 -0.0050240550804999673 0.127034918895162 0 -0.0069723530775540081 0.11345737234403221 0 -0.00095255331983417333 0.15540891751961169 0 -0.01337807056624165 0.13664173202091001 0 -0.0050240550804999673 0.127034918895162 0 -0.01337807056624165 0.13664173202091001 0 -0.0069723530775540081 0.11345737234403221 0 -0.01337807056624165 0.13664173202091001 0 -0.0069723530775540081 0.11345737234403221 0 -0.025504048040921899 0.1215360200725371 0 -0.0050240550804999673 0.127034918895162 0 -0.0069723530775540081 0.11345737234403221 0 -0.0050240550804999673 0.127034918895162 0 -0.0069723530775540081 0.11345737234403221 0 0.00067693916513428926 0.11159247202752109 0 -0.0069723530775540081 0.11345737234403221 0 -0.0090955568411645142 0.098660920270712146 0 -0.024892725447695729 0.1072669426630007 0 -0.0090955568411645142 0.098660920270712146 0 0.0049667203133150206 0.096818660272216112 0 0.00067693916513428926 0.11159247202752109 0 -0.0069723530775540081 0.11345737234403221 0 -0.0090955568411645142 0.098660920270712146 0 0.00067693916513428926 0.11159247202752109 0 -0.0069723530775540081 0.11345737234403221 0 -0.0090955568411645142 0.098660920270712146 0 -0.024892725447695729 0.1072669426630007 0 -0.021762962212121002 0.093965472571022279 0 -0.041198542767347149 0.094001473393275872 0 -0.0090955568411645142 0.098660920270712146 0 -0.024892725447695729 0.1072669426630007 0 -0.021762962212121002 0.093965472571022279 0 -0.0069723530775540081 0.11345737234403221 0 -0.024892725447695729 0.1072669426630007 0 -0.025504048040921899 0.1215360200725371 0 -0.0033524539689480659 0.070218878613213576 0 -0.01235648950651245 0.084531057305453863 0 -0.020154870526501081 0.065546179320041878 0 -0.0033524539689480659 0.070218878613213576 0 -0.01235648950651245 0.084531057305453863 0 0.0049667203133150206 0.096818660272216112 0 -0.0090955568411645142 0.098660920270712146 0 -0.01235648950651245 0.084531057305453863 0 0.0049667203133150206 0.096818660272216112 0 -0.0090955568411645142 0.098660920270712146 0 -0.021762962212121002 0.093965472571022279 0 -0.01235648950651245 0.084531057305453863 0 -0.021762962212121002 0.093965472571022279 0 -0.02565252888412084 0.081083933723108903 0 -0.041198542767347149 0.094001473393275872 0 -0.021762962212121002 0.093965472571022279 0 -0.01235648950651245 0.084531057305453863 0 -0.02565252888412084 0.081083933723108903 0 -0.01235648950651245 0.084531057305453863 0 -0.02565252888412084 0.081083933723108903 0 -0.020154870526501081 0.065546179320041878 0 -0.02565252888412084 0.081083933723108903 0 -0.020154870526501081 0.065546179320041878 0 -0.037530860208638189 0.067039599362830798 0 -0.037530860208638189 0.067039599362830798 0 -0.041198542767347149 0.094001473393275872 0 -0.037530860208638189 0.067039599362830798 0 -0.054139056571765438 0.076062740777206164 0 -0.041198542767347149 0.094001473393275872 0 -0.02565252888412084 0.081083933723108903 0 -0.037530860208638189 0.067039599362830798 0 -0.041198542767347149 0.094001473393275872 0 -0.054139056571765438 0.076062740777206164 0 -0.060699456705754697 0.098782785782185606 0 -0.071313957059901664 0.081261623675085923 0 -0.054139056571765438 0.076062740777206164 0 -0.041198542767347149 0.094001473393275872 0 -0.060699456705754697 0.098782785782185606 0 -0.054139056571765438 0.076062740777206164 0 -0.071313957059901664 0.081261623675085923 0 -0.059746329526659828 0.05732234174897613 0 -0.037530860208638189 0.067039599362830798 0 -0.054139056571765438 0.076062740777206164 0 -0.059746329526659828 0.05732234174897613 0 -0.024892725447695729 0.1072669426630007 0 -0.025504048040921899 0.1215360200725371 0 -0.044866225326056101 0.1209633474237209 0 -0.028830479123556321 0.13075729057599811 0 -0.025504048040921899 0.1215360200725371 0 -0.044866225326056101 0.1209633474237209 0 -0.044866225326056101 0.1209633474237209 0 -0.041198542767347149 0.094001473393275872 0 -0.024892725447695729 0.1072669426630007 0 -0.044866225326056101 0.1209633474237209 0 -0.041198542767347149 0.094001473393275872 0 -0.044866225326056101 0.1209633474237209 0 -0.041198542767347149 0.094001473393275872 0 -0.060699456705754697 0.098782785782185606 0 -0.061971368367185052 0.12815652956024409 0 -0.044866225326056101 0.1209633474237209 0 -0.06696148977649416 0.1165919668443285 0 -0.044866225326056101 0.1209633474237209 0 -0.060699456705754697 0.098782785782185606 0 -0.06696148977649416 0.1165919668443285 0 -0.06696148977649416 0.1165919668443285 0 -0.082448521523635951 0.12071931899294611 0 -0.082881584593143529 0.1052009056011958 0 -0.071363184399134541 0.12710869201121849 0 -0.061971368367185052 0.12815652956024409 0 -0.06696148977649416 0.1165919668443285 0 -0.071363184399134541 0.12710869201121849 0 -0.06696148977649416 0.1165919668443285 0 -0.082448521523635951 0.12071931899294611 0 -0.082881584593143529 0.1052009056011958 0 -0.096915602850775939 0.11929309087028819 0 -0.099413711378119385 0.10998979284764419 0 -0.09444921212638531 0.12914018752730541 0 -0.082881584593143529 0.1052009056011958 0 -0.096915602850775939 0.11929309087028819 0 -0.09444921212638531 0.12914018752730541 0 -0.082448521523635951 0.12071931899294611 0 -0.082881584593143529 0.1052009056011958 0 -0.09444921212638531 0.12914018752730541 0 -0.082881584593143529 0.1052009056011958 0 -0.082881584593143529 0.1052009056011958 0 -0.089220186911981594 0.088300464279893728 0 -0.1023707697992068 0.0968739684503825 0 -0.060699456705754697 0.098782785782185606 0 -0.082881584593143529 0.1052009056011958 0 -0.071313957059901664 0.081261623675085923 0 -0.060699456705754697 0.098782785782185606 0 -0.06696148977649416 0.1165919668443285 0 -0.082881584593143529 0.1052009056011958 0 -0.082881584593143529 0.1052009056011958 0 -0.071313957059901664 0.081261623675085923 0 -0.071313957059901664 0.081261623675085923 0 -0.059746329526659828 0.05732234174897613 0 -0.071313957059901664 0.081261623675085923 0 -0.079323636113429366 0.058388640021595481 0 -0.059746329526659828 0.05732234174897613 0 -0.071313957059901664 0.081261623675085923 0 -0.093198880686466229 0.072237651449762477 0 -0.079323636113429366 0.058388640021595481 0 -0.071313957059901664 0.081261623675085923 0 -0.093198880686466229 0.072237651449762477 0 -0.089220186911981594 0.088300464279893728 0 -0.082881584593143529 0.1052009056011958 0 -0.071313957059901664 0.081261623675085923 0 -0.089220186911981594 0.088300464279893728 0 -0.093198880686466229 0.072237651449762477 0 -0.089220186911981594 0.088300464279893728 0 -0.1008863041920046 0.083568387524546234 0 -0.089220186911981594 0.088300464279893728 0 -0.1008863041920046 0.083568387524546234 0 -0.1023707697992068 0.0968739684503825 0 -0.1008863041920046 0.083568387524546234 0 -0.1182144859610532 0.089999828431431769 0 -0.1023707697992068 0.0968739684503825 0 -0.093198880686466229 0.072237651449762477 0 -0.1113824853410966 0.075685309992099173 0 -0.1083907961898896 0.062092181940595972 0 -0.093198880686466229 0.072237651449762477 0 -0.1008863041920046 0.083568387524546234 0 -0.1113824853410966 0.075685309992099173 0 -0.093198880686466229 0.072237651449762477 0 -0.1083907961898896 0.062092181940595972 0 -0.095615990312066509 0.053465805807643881 0 -0.1258392381833858 0.064418793492627746 0 -0.1113824853410966 0.075685309992099173 0 -0.1083907961898896 0.062092181940595972 0 -0.1258392381833858 0.064418793492627746 0 -0.1113824853410966 0.075685309992099173 0 -0.1249516316716202 0.07805606175079087 0 -0.1008863041920046 0.083568387524546234 0 -0.1113824853410966 0.075685309992099173 0 -0.1182144859610532 0.089999828431431769 0 -0.1113824853410966 0.075685309992099173 0 -0.1249516316716202 0.07805606175079087 0 -0.1182144859610532 0.089999828431431769 0 -0.121887388282922 0.1039227065130781 0 -0.1115807503109484 0.1117959409308789 0 -0.1023707697992068 0.0968739684503825 0 -0.13019670250137819 0.097425025938909907 0 -0.1182144859610532 0.089999828431431769 0 -0.121887388282922 0.1039227065130781 0 -0.1182144859610532 0.089999828431431769 0 -0.121887388282922 0.1039227065130781 0 -0.1023707697992068 0.0968739684503825 0 -0.121887388282922 0.1039227065130781 0 -0.1237077848500947 0.1157730571732615 0 -0.1115807503109484 0.1117959409308789 0 -0.1254402541581866 0.12852827206949971 0 -0.1237077848500947 0.1157730571732615 0 -0.11581515444735151 0.1219394507645845 0 -0.11581515444735151 0.1219394507645845 0 -0.1115807503109484 0.1117959409308789 0 -0.1065831774004123 0.12302936319203089 0 -0.1237077848500947 0.1157730571732615 0 -0.11581515444735151 0.1219394507645845 0 -0.1115807503109484 0.1117959409308789 0 -0.1115807503109484 0.1117959409308789 0 -0.1065831774004123 0.12302936319203089 0 -0.099413711378119385 0.10998979284764419 0 -0.1012503287558192 0.1291052051832644 0 -0.1065831774004123 0.12302936319203089 0 -0.096915602850775939 0.11929309087028819 0 -0.1065831774004123 0.12302936319203089 0 -0.096915602850775939 0.11929309087028819 0 -0.099413711378119385 0.10998979284764419 0 -0.082881584593143529 0.1052009056011958 0 -0.099413711378119385 0.10998979284764419 0 -0.1023707697992068 0.0968739684503825 0 -0.1115807503109484 0.1117959409308789 0 -0.099413711378119385 0.10998979284764419 0 -0.1023707697992068 0.0968739684503825 0 -0.1000327926827924 0.026631224912605962 0 -0.090762819572714482 0.032366822369572529 0 -0.092538657352306458 0.016463389194268509 0 -0.1000327926827924 0.026631224912605962 0 -0.1106884379869372 0.024331941806464662 0 -0.10456144485097429 0.039960614736142423 0 -0.1029290363625401 0.01539139034289955 0 -0.1103264422650871 0.0081155747022496061 0 -0.1106884379869372 0.024331941806464662 0 -0.1000327926827924 0.026631224912605962 0 -0.1029290363625401 0.01539139034289955 0 -0.1106884379869372 0.024331941806464662 0 -0.1000327926827924 0.026631224912605962 0 -0.1029290363625401 0.01539139034289955 0 -0.092538657352306458 0.016463389194268509 0 -0.09956486537428301 0.0078533267880648554 0 -0.092538657352306458 0.016463389194268509 0 -0.092227756543309419 0.00423836554477922 0 -0.09956486537428301 0.0078533267880648554 0 -0.1029290363625401 0.01539139034289955 0 -0.092538657352306458 0.016463389194268509 0 -0.099450143409077318 -0.00040143133860372459 0 -0.09956486537428301 0.0078533267880648554 0 -0.105358158110386 0.0033847776135997949 0 -0.099450143409077318 -0.00040143133860372459 0 -0.09956486537428301 0.0078533267880648554 0 -0.092227756543309419 0.00423836554477922 0 -0.09956486537428301 0.0078533267880648554 0 -0.105358158110386 0.0033847776135997949 0 -0.10442302251383449 0.0089528846537437218 0 -0.105358158110386 0.0033847776135997949 0 -0.10442302251383449 0.0089528846537437218 0 -0.1103264422650871 0.0081155747022496061 0 -0.105358158110386 0.0033847776135997949 0 -0.1103264422650871 0.0081155747022496061 0 -0.1119989086322951 0.00066333237648008722 0 -0.09956486537428301 0.0078533267880648554 0 -0.1029290363625401 0.01539139034289955 0 -0.10442302251383449 0.0089528846537437218 0 -0.1029290363625401 0.01539139034289955 0 -0.10442302251383449 0.0089528846537437218 0 -0.1103264422650871 0.0081155747022496061 0 -0.1103264422650871 0.0081155747022496061 0 -0.1168154311228998 0.0087032688767867648 0 -0.1106884379869372 0.024331941806464662 0 -0.1103264422650871 0.0081155747022496061 0 -0.1168154311228998 0.0087032688767867648 0 -0.1103264422650871 0.0081155747022496061 0 -0.1168154311228998 0.0087032688767867648 0 -0.1119989086322951 0.00066333237648008722 0 -0.1168154311228998 0.0087032688767867648 0 -0.1119989086322951 0.00066333237648008722 0 -0.1195650939264682 0.0016894564454279679 0 -0.12879974367784419 -0.00032553470509391001 0 -0.1195650939264682 0.0016894564454279679 0 -0.1226519412435686 0.0092318694142048373 0 -0.1168154311228998 0.0087032688767867648 0 -0.1195650939264682 0.0016894564454279679 0 -0.1226519412435686 0.0092318694142048373 0 -0.1168154311228998 0.0087032688767867648 0 -0.1195650939264682 0.0016894564454279679 0 -0.1195650939264682 0.0016894564454279679 0 -0.1226519412435686 0.0092318694142048373 0 -0.1168154311228998 0.0087032688767867648 0 -0.1226519412435686 0.0092318694142048373 0 -0.1190031555958547 0.019158552716736089 0 -0.1168154311228998 0.0087032688767867648 0 -0.1226519412435686 0.0092318694142048373 0 -0.12981960929622821 0.02674537329784241 0 -0.1226519412435686 0.0092318694142048373 0 -0.1190031555958547 0.019158552716736089 0 -0.1168154311228998 0.0087032688767867648 0 -0.1106884379869372 0.024331941806464662 0 -0.1168154311228998 0.0087032688767867648 0 -0.1190031555958547 0.019158552716736089 0 -0.1106884379869372 0.024331941806464662 0 -0.1190031555958547 0.019158552716736089 0 -0.1106884379869372 0.024331941806464662 0 -0.1188165533242035 0.034434456297563677 0 -0.12981960929622821 0.02674537329784241 0 -0.1190031555958547 0.019158552716736089 0 -0.1188165533242035 0.034434456297563677 0 -0.13698727734888599 0.044258877181480749 0 -0.1188165533242035 0.034434456297563677 0 -0.1163016338304763 0.048862341494562388 0 -0.1106884379869372 0.024331941806464662 0 -0.1188165533242035 0.034434456297563677 0 -0.10456144485097429 0.039960614736142423 0 -0.1188165533242035 0.034434456297563677 0 -0.1163016338304763 0.048862341494562388 0 -0.10456144485097429 0.039960614736142423 0 -0.1258392381833858 0.064418793492627746 0 -0.1163016338304763 0.048862341494562388 0 -0.1083907961898896 0.062092181940595972 0 -0.1163016338304763 0.048862341494562388 0 -0.095615990312066509 0.053465805807643881 0 -0.10456144485097429 0.039960614736142423 0 -0.1163016338304763 0.048862341494562388 0 -0.1083907961898896 0.062092181940595972 0 -0.095615990312066509 0.053465805807643881 0 -0.1163016338304763 0.048862341494562388 0 -0.095615990312066509 0.053465805807643881 0 -0.10456144485097429 0.039960614736142423 0 -0.090762819572714482 0.032366822369572529 0 -0.086240501496660724 0.044514695118309681 0 -0.095615990312066509 0.053465805807643881 0 -0.10456144485097429 0.039960614736142423 0 -0.086240501496660724 0.044514695118309681 0 -0.1106884379869372 0.024331941806464662 0 -0.10456144485097429 0.039960614736142423 0 -0.1000327926827924 0.026631224912605962 0 -0.10456144485097429 0.039960614736142423 0 -0.090762819572714482 0.032366822369572529 0 -0.090762819572714482 0.032366822369572529 0 -0.086240501496660724 0.044514695118309681 0 -0.072503524408832981 0.036954852862698048 0 -0.086240501496660724 0.044514695118309681 0 -0.079323636113429366 0.058388640021595481 0 -0.072503524408832981 0.036954852862698048 0 -0.093198880686466229 0.072237651449762477 0 -0.095615990312066509 0.053465805807643881 0 -0.079323636113429366 0.058388640021595481 0 -0.095615990312066509 0.053465805807643881 0 -0.086240501496660724 0.044514695118309681 0 -0.079323636113429366 0.058388640021595481 0 -0.079323636113429366 0.058388640021595481 0 -0.072503524408832981 0.036954852862698048 0 -0.059746329526659828 0.05732234174897613 0 -0.072503524408832981 0.036954852862698048 0 -0.073426259270677863 0.018730331072898381 0 -0.083282788435180097 0.024037913147452059 0 -0.072503524408832981 0.036954852862698048 0 -0.073426259270677863 0.018730331072898381 0 -0.060994189040455851 0.02422895844505453 0 -0.073426259270677863 0.018730331072898381 0 -0.067349573214037367 0.0095760000209136956 0 -0.060994189040455851 0.02422895844505453 0 -0.090762819572714482 0.032366822369572529 0 -0.083282788435180097 0.024037913147452059 0 -0.092538657352306458 0.016463389194268509 0 -0.090762819572714482 0.032366822369572529 0 -0.072503524408832981 0.036954852862698048 0 -0.083282788435180097 0.024037913147452059 0 -0.073426259270677863 0.018730331072898381 0 -0.083282788435180097 0.024037913147452059 0 -0.082308946239828193 0.0087851128038203812 0 -0.083282788435180097 0.024037913147452059 0 -0.092538657352306458 0.016463389194268509 0 -0.082308946239828193 0.0087851128038203812 0 -0.085701472699934569 -0.0021704362983969768 0 -0.092227756543309419 0.00423836554477922 0 -0.082308946239828193 0.0087851128038203812 0 -0.092538657352306458 0.016463389194268509 0 -0.092227756543309419 0.00423836554477922 0 -0.082308946239828193 0.0087851128038203812 0 -0.085701472699934569 -0.0021704362983969768 0 -0.074297532179188081 -0.00034498519096071108 0 -0.082308946239828193 0.0087851128038203812 0 -0.074297532179188081 -0.00034498519096071108 0 -0.082308946239828193 0.0087851128038203812 0 -0.067349573214037367 0.0095760000209136956 0 -0.073426259270677863 0.018730331072898381 0 -0.082308946239828193 0.0087851128038203812 0 -0.067349573214037367 0.0095760000209136956 0 -0.074297532179188081 -0.00034498519096071108 0 -0.062436411198129718 -0.0046985190703956198 0 -0.067349573214037367 0.0095760000209136956 0 -0.062436411198129718 -0.0046985190703956198 0 -0.047826914617203078 0.001469151039970934 0 -0.055042119576630077 0.011704378802870339 0 -0.062436411198129718 -0.0046985190703956198 0 -0.067349573214037367 0.0095760000209136956 0 -0.055042119576630077 0.011704378802870339 0 -0.067349573214037367 0.0095760000209136956 0 -0.055042119576630077 0.011704378802870339 0 -0.060994189040455851 0.02422895844505453 0 -0.055042119576630077 0.011704378802870339 0 -0.060994189040455851 0.02422895844505453 0 -0.048178701993418047 0.033383059822866448 0 -0.036611074460176238 0.009443777896756704 0 -0.048178701993418047 0.033383059822866448 0 -0.036611074460176238 0.009443777896756704 0 -0.048178701993418047 0.033383059822866448 0 -0.023771680469849451 0.018522322524935891 0 -0.055042119576630077 0.011704378802870339 0 -0.036611074460176238 0.009443777896756704 0 -0.048178701993418047 0.033383059822866448 0 -0.047826914617203078 0.001469151039970934 0 -0.055042119576630077 0.011704378802870339 0 -0.036611074460176238 0.009443777896756704 0 -0.040432499405923722 -0.0058239416191065898 0 -0.047826914617203078 0.001469151039970934 0 -0.036611074460176238 0.009443777896756704 0 -0.037530860208638189 0.067039599362830798 0 -0.048178701993418047 0.033383059822866448 0 -0.028593600287803091 0.043076522259886819 0 -0.037530860208638189 0.067039599362830798 0 -0.059746329526659828 0.05732234174897613 0 -0.048178701993418047 0.033383059822866448 0 -0.059746329526659828 0.05732234174897613 0 -0.048178701993418047 0.033383059822866448 0 -0.072503524408832981 0.036954852862698048 0 -0.059746329526659828 0.05732234174897613 0 -0.048178701993418047 0.033383059822866448 0 -0.072503524408832981 0.036954852862698048 0 -0.060994189040455851 0.02422895844505453 0 -0.048178701993418047 0.033383059822866448 0 -0.048178701993418047 0.033383059822866448 0 -0.028593600287803091 0.043076522259886819 0 -0.023771680469849451 0.018522322524935891 0 -0.020154870526501081 0.065546179320041878 0 -0.028593600287803091 0.043076522259886819 0 -0.01167162825121118 0.043619096954210901 0 -0.020154870526501081 0.065546179320041878 0 -0.037530860208638189 0.067039599362830798 0 -0.028593600287803091 0.043076522259886819 0 -0.028593600287803091 0.043076522259886819 0 -0.01167162825121118 0.043619096954210901 0 -0.023771680469849451 0.018522322524935891 0 -0.01167162825121118 0.043619096954210901 0 -0.0077503717520711213 0.027733737297106272 0 0.001166216508604297 0.042060954691014098 0 -0.0077503717520711213 0.027733737297106272 0 0.0029084644397616159 0.029246796991974341 0 0.001166216508604297 0.042060954691014098 0 -0.01167162825121118 0.043619096954210901 0 0.0057112789592953517 0.05695871052561028 0 0.001166216508604297 0.042060954691014098 0 -0.0033524539689480659 0.070218878613213576 0 -0.020154870526501081 0.065546179320041878 0 -0.01167162825121118 0.043619096954210901 0 -0.0033524539689480659 0.070218878613213576 0 -0.01167162825121118 0.043619096954210901 0 0.0057112789592953517 0.05695871052561028 0 -0.0033524539689480659 0.070218878613213576 0 -0.01167162825121118 0.043619096954210901 0 -0.036611074460176238 0.009443777896756704 0 -0.023771680469849451 0.018522322524935891 0 -0.019990802533473209 0.01701931529520791 0 -0.027931048851053901 -0.0083688796385876091 0 -0.036611074460176238 0.009443777896756704 0 -0.019990802533473209 0.01701931529520791 0 -0.027931048851053901 -0.0083688796385876091 0 -0.019990802533473209 0.01701931529520791 0 -0.027931048851053901 -0.0083688796385876091 0 -0.018028612652532021 0.0044234363244373886 0 -0.019990802533473209 0.01701931529520791 0 -0.01167162825121118 0.043619096954210901 0 -0.023771680469849451 0.018522322524935891 0 -0.019990802533473209 0.01701931529520791 0 -0.01167162825121118 0.043619096954210901 0 -0.019990802533473209 0.01701931529520791 0 -0.023771680469849451 0.018522322524935891 0 -0.019990802533473209 0.01701931529520791 0 -0.01167162825121118 0.043619096954210901 0 -0.019990802533473209 0.01701931529520791 0 -0.0077503717520711213 0.027733737297106272 0 -0.019990802533473209 0.01701931529520791 0 -0.0077503717520711213 0.027733737297106272 0 -0.0075203696834819948 0.01206196119742604 0 -0.0077503717520711213 0.027733737297106272 0 -0.0075203696834819948 0.01206196119742604 0 0.0029084644397616159 0.029246796991974341 0 -0.0075203696834819948 0.01206196119742604 0 0.0029084644397616159 0.029246796991974341 0 -0.01667222954211801 -0.003018651556297432 0 -0.0040637010000482386 -0.0059727926133312454 0 -0.0075203696834819948 0.01206196119742604 0 -0.019990802533473209 0.01701931529520791 0 -0.0075203696834819948 0.01206196119742604 0 -0.018028612652532021 0.0044234363244373886 0 -0.019990802533473209 0.01701931529520791 0 -0.0075203696834819948 0.01206196119742604 0 -0.01667222954211801 -0.003018651556297432 0 -0.018028612652532021 0.0044234363244373886 0 -0.0075203696834819948 0.01206196119742604 0 -0.01667222954211801 -0.003018651556297432 0 -0.0075203696834819948 0.01206196119742604 0 -0.0075203696834819948 0.01206196119742604 0 0.01390017229619854 0.0035466824707463158 0 -0.0075203696834819948 0.01206196119742604 0 0.01390017229619854 0.0035466824707463158 0 0.0029084644397616159 0.029246796991974341 0 -0.0040637010000482386 -0.0059727926133312454 0 -0.0075203696834819948 0.01206196119742604 0 0.01390017229619854 0.0035466824707463158 0 0.01390017229619854 0.0035466824707463158 0 0.0029084644397616159 0.029246796991974341 0 0.02780528446052195 0.026459796863477839 0 0.01390017229619854 0.0035466824707463158 0 0.02780528446052195 0.026459796863477839 0 0.028562519649684152 0.0075817261511898146 0 0.01390017229619854 0.0035466824707463158 0 0.028562519649684152 0.0075817261511898146 0 0.035320714275878941 -0.0049685962559337217 0 0.0057112789592953517 0.05695871052561028 0 0.013337298563003371 0.046431632786523701 0 0.001166216508604297 0.042060954691014098 0 0.0057112789592953517 0.05695871052561028 0 0.013337298563003371 0.046431632786523701 0 0.0029084644397616159 0.029246796991974341 0 0.02780528446052195 0.026459796863477839 0 0.013337298563003371 0.046431632786523701 0 0.0029084644397616159 0.029246796991974341 0 0.013337298563003371 0.046431632786523701 0 0.001166216508604297 0.042060954691014098 0 0.0029084644397616159 0.029246796991974341 0 0.013337298563003371 0.046431632786523701 0 0.02780528446052195 0.026459796863477839 0 0.013337298563003371 0.046431632786523701 0 0.02780528446052195 0.026459796863477839 0 0.013337298563003371 0.046431632786523701 0 0.034147749951276271 0.04933202232846115 0 0.013337298563003371 0.046431632786523701 0 0.028181612415517379 0.070892381996225967 0 0.013337298563003371 0.046431632786523701 0 0.034147749951276271 0.04933202232846115 0 0.028181612415517379 0.070892381996225967 0 0.0057112789592953517 0.05695871052561028 0 0.013337298563003371 0.046431632786523701 0 0.028181612415517379 0.070892381996225967 0 0.034147749951276271 0.04933202232846115 0 0.042499141074820973 0.062549008142058687 0 0.028181612415517379 0.070892381996225967 0 0.034147749951276271 0.04933202232846115 0 0.047394590832995437 0.048533347175429897 0 0.042499141074820973 0.062549008142058687 0 0.034147749951276271 0.04933202232846115 0 0.045490455109933728 0.033651564008150912 0 0.047394590832995437 0.048533347175429897 0 0.02780528446052195 0.026459796863477839 0 0.034147749951276271 0.04933202232846115 0 0.045490455109933728 0.033651564008150912 0 0.045490455109933728 0.033651564008150912 0 0.057892488458562777 0.039753161956961831 0 0.05818827922913139 0.020863321940741801 0 0.045490455109933728 0.033651564008150912 0 0.057892488458562777 0.039753161956961831 0 0.047394590832995437 0.048533347175429897 0 0.057892488458562777 0.039753161956961831 0 0.047394590832995437 0.048533347175429897 0 0.056943119570383401 0.057380979441516947 0 0.057892488458562777 0.039753161956961831 0 0.056943119570383401 0.057380979441516947 0 0.068307891098925655 0.047478726100914283 0 0.047394590832995437 0.048533347175429897 0 0.056943119570383401 0.057380979441516947 0 0.042499141074820973 0.062549008142058687 0 0.02780528446052195 0.026459796863477839 0 0.028562519649684152 0.0075817261511898146 0 0.042273270358040613 0.0064879609404319399 0 0.028562519649684152 0.0075817261511898146 0 0.042273270358040613 0.0064879609404319399 0 0.035320714275878941 -0.0049685962559337217 0 0.02780528446052195 0.026459796863477839 0 0.042273270358040613 0.0064879609404319399 0 0.02780528446052195 0.026459796863477839 0 0.042273270358040613 0.0064879609404319399 0 0.043439322289406918 0.02186566093820062 0 0.02780528446052195 0.026459796863477839 0 0.045490455109933728 0.033651564008150912 0 0.043439322289406918 0.02186566093820062 0 0.042273270358040613 0.0064879609404319399 0 0.043439322289406918 0.02186566093820062 0 0.05818827922913139 0.020863321940741801 0 0.045490455109933728 0.033651564008150912 0 0.043439322289406918 0.02186566093820062 0 0.05818827922913139 0.020863321940741801 0 0.042273270358040613 0.0064879609404319399 0 0.05818827922913139 0.020863321940741801 0 0.059262053668840409 0.0035845234533785839 0 0.05818827922913139 0.020863321940741801 0 0.059262053668840409 0.0035845234533785839 0 0.071674429872384704 0.0093394264294115528 0 0.059262053668840409 0.0035845234533785839 0 0.071674429872384704 0.0093394264294115528 0 0.067433032629086107 -0.0052842170610784504 0 0.071674429872384704 0.0093394264294115528 0 0.083563115126885856 0.0087899641458390916 0 0.078697083033740872 -0.00049660012687540833 0 0.071674429872384704 0.0093394264294115528 0 0.078697083033740872 -0.00049660012687540833 0 0.067433032629086107 -0.0052842170610784504 0 0.083563115126885856 0.0087899641458390916 0 0.078697083033740872 -0.00049660012687540833 0 0.095599149367132194 -0.0044744545785956966 0 0.083563115126885856 0.0087899641458390916 0 0.094014602542256021 0.01158468031264883 0 0.095599149367132194 -0.0044744545785956966 0 0.071674429872384704 0.0093394264294115528 0 0.083563115126885856 0.0087899641458390916 0 0.081882106545059605 0.019283215069807621 0 0.083563115126885856 0.0087899641458390916 0 0.081882106545059605 0.019283215069807621 0 0.094014602542256021 0.01158468031264883 0 0.086075936138369419 0.02923940994482534 0 0.094237510995420534 0.033887965325493222 0 0.095032810018734842 0.024320895136474729 0 0.086075936138369419 0.02923940994482534 0 0.081882106545059605 0.019283215069807621 0 0.095032810018734842 0.024320895136474729 0 0.081882106545059605 0.019283215069807621 0 0.094014602542256021 0.01158468031264883 0 0.095032810018734842 0.024320895136474729 0 0.086075936138369419 0.02923940994482534 0 0.081882106545059605 0.019283215069807621 0 0.071851557748124503 0.03208227716835324 0 0.081882106545059605 0.019283215069807621 0 0.0701884440895367 0.020789611718982061 0 0.071851557748124503 0.03208227716835324 0 0.057892488458562777 0.039753161956961831 0 0.05818827922913139 0.020863321940741801 0 0.071851557748124503 0.03208227716835324 0 0.071674429872384704 0.0093394264294115528 0 0.081882106545059605 0.019283215069807621 0 0.0701884440895367 0.020789611718982061 0 0.05818827922913139 0.020863321940741801 0 0.071674429872384704 0.0093394264294115528 0 0.0701884440895367 0.020789611718982061 0 0.05818827922913139 0.020863321940741801 0 0.0701884440895367 0.020789611718982061 0 0.071851557748124503 0.03208227716835324 0 0.057892488458562777 0.039753161956961831 0 0.071851557748124503 0.03208227716835324 0 0.068307891098925655 0.047478726100914283 0 0.077945182444536243 0.045892059336580027 0 0.071851557748124503 0.03208227716835324 0 0.068307891098925655 0.047478726100914283 0 0.056943119570383401 0.057380979441516947 0 0.068307891098925655 0.047478726100914283 0 0.073673732147521917 0.057581864881120833 0 0.056943119570383401 0.057380979441516947 0 0.073673732147521917 0.057581864881120833 0 0.064773658700808145 0.070467449741328694 0 0.077945182444536243 0.045892059336580027 0 0.068307891098925655 0.047478726100914283 0 0.073673732147521917 0.057581864881120833 0 0.073673732147521917 0.057581864881120833 0 0.08359787262428181 0.052314170186646032 0 0.087643412837555557 0.064028617707903981 0 0.077945182444536243 0.045892059336580027 0 0.073673732147521917 0.057581864881120833 0 0.08359787262428181 0.052314170186646032 0 0.08359787262428181 0.052314170186646032 0 0.092877025605272473 0.051862801090180988 0 0.085494787776630526 0.039668371884117808 0 0.092877025605272473 0.051862801090180988 0 0.10017442981693001 0.058899740267618912 0 0.087643412837555557 0.064028617707903981 0 0.08359787262428181 0.052314170186646032 0 0.092877025605272473 0.051862801090180988 0 0.087643412837555557 0.064028617707903981 0 0.086075936138369419 0.02923940994482534 0 0.071851557748124503 0.03208227716835324 0 0.085494787776630526 0.039668371884117808 0 0.077945182444536243 0.045892059336580027 0 0.071851557748124503 0.03208227716835324 0 0.085494787776630526 0.039668371884117808 0 0.077945182444536243 0.045892059336580027 0 0.08359787262428181 0.052314170186646032 0 0.085494787776630526 0.039668371884117808 0 0.085494787776630526 0.039668371884117808 0 0.094237510995420534 0.033887965325493222 0 0.099963732234236297 0.044265580312255602 0 0.092877025605272473 0.051862801090180988 0 0.085494787776630526 0.039668371884117808 0 0.099963732234236297 0.044265580312255602 0 0.086075936138369419 0.02923940994482534 0 0.085494787776630526 0.039668371884117808 0 0.094237510995420534 0.033887965325493222 0 0.094237510995420534 0.033887965325493222 0 0.099963732234236297 0.044265580312255602 0 0.1046202888091316 0.031945569349792653 0 0.099963732234236297 0.044265580312255602 0 0.1046202888091316 0.031945569349792653 0 0.1135143920159369 0.040566737213123281 0 0.092877025605272473 0.051862801090180988 0 0.099963732234236297 0.044265580312255602 0 0.10017442981693001 0.058899740267618912 0 0.099963732234236297 0.044265580312255602 0 0.10017442981693001 0.058899740267618912 0 0.11529052552210541 0.051470397024893241 0 0.10017442981693001 0.058899740267618912 0 0.11529052552210541 0.051470397024893241 0 0.11177628313427181 0.06420368150397579 0 0.11529052552210541 0.051470397024893241 0 0.12874492345406871 0.042423756310692548 0 0.12597500637704179 0.063456803070288448 0 0.11529052552210541 0.051470397024893241 0 0.11177628313427181 0.06420368150397579 0 0.12597500637704179 0.063456803070288448 0 0.11659750112372209 0.02971197273225332 0 0.12743380844766991 0.024261376410783551 0 0.12874492345406871 0.042423756310692548 0 0.1046202888091316 0.031945569349792653 0 0.1135143920159369 0.040566737213123281 0 0.11659750112372209 0.02971197273225332 0 0.099963732234236297 0.044265580312255602 0 0.11529052552210541 0.051470397024893241 0 0.1135143920159369 0.040566737213123281 0 0.11529052552210541 0.051470397024893241 0 0.1135143920159369 0.040566737213123281 0 0.12874492345406871 0.042423756310692548 0 0.1135143920159369 0.040566737213123281 0 0.11659750112372209 0.02971197273225332 0 0.12874492345406871 0.042423756310692548 0 0.11659750112372209 0.02971197273225332 0 0.1181721118781663 0.019401234927128731 0 0.12743380844766991 0.024261376410783551 0 0.1046202888091316 0.031945569349792653 0 0.11659750112372209 0.02971197273225332 0 0.108444280562195 0.017269179410331091 0 0.11659750112372209 0.02971197273225332 0 0.1181721118781663 0.019401234927128731 0 0.108444280562195 0.017269179410331091 0 0.1181721118781663 0.019401234927128731 0 0.1216211333496255 0.009637607208076996 0 0.12743380844766991 0.024261376410783551 0 0.1181721118781663 0.019401234927128731 0 0.1216211333496255 0.009637607208076996 0 0.108444280562195 0.017269179410331091 0 0.1216211333496255 0.009637607208076996 0 0.095599149367132194 -0.0044744545785956966 0 0.1216211333496255 0.009637607208076996 0 0.108444280562195 0.017269179410331091 0 0.095599149367132194 -0.0044744545785956966 0 0.094014602542256021 0.01158468031264883 0 0.108444280562195 0.017269179410331091 0 0.095599149367132194 -0.0044744545785956966 0 0.094014602542256021 0.01158468031264883 0 0.095032810018734842 0.024320895136474729 0 0.108444280562195 0.017269179410331091 0 0.094237510995420534 0.033887965325493222 0 0.1046202888091316 0.031945569349792653 0 0.095032810018734842 0.024320895136474729 0 0.1046202888091316 0.031945569349792653 0 0.095032810018734842 0.024320895136474729 0 0.108444280562195 0.017269179410331091 0 0.1091542609455594 0.10472432110431761 0 0.098395381719931313 0.096027489160654789 0 0.093134707164877539 0.11105446452281 0 0.1091542609455594 0.10472432110431761 0 0.098395381719931313 0.096027489160654789 0 0.1127745345070713 0.090454469117956737 0 0.1091542609455594 0.10472432110431761 0 0.1060584911702588 0.11798265637048271 0 0.093134707164877539 0.11105446452281 0 0.1060584911702588 0.11798265637048271 0 0.093134707164877539 0.11105446452281 0 0.093677103499700071 0.1264647034084235 0 0.1060584911702588 0.11798265637048271 0 0.120211814808019 0.1164904577656751 0 0.109027377169461 0.133744272384866 0 0.1091542609455594 0.10472432110431761 0 0.1060584911702588 0.11798265637048271 0 0.120211814808019 0.1164904577656751 0 0.1091542609455594 0.10472432110431761 0 0.120211814808019 0.1164904577656751 0 0.1227615119436771 0.099160115349369526 0 0.1091542609455594 0.10472432110431761 0 0.1227615119436771 0.099160115349369526 0 0.1127745345070713 0.090454469117956737 0 0.1227615119436771 0.099160115349369526 0 0.1127745345070713 0.090454469117956737 0 0.1297420299519457 0.083512858990461514 0 0.1127745345070713 0.090454469117956737 0 0.11593286293313559 0.076475854144579081 0 0.1297420299519457 0.083512858990461514 0 0.1127745345070713 0.090454469117956737 0 0.11593286293313559 0.076475854144579081 0 0.1006611595481786 0.082826175958357895 0 0.11593286293313559 0.076475854144579081 0 0.12597500637704179 0.063456803070288448 0 0.1297420299519457 0.083512858990461514 0 0.11593286293313559 0.076475854144579081 0 0.11177628313427181 0.06420368150397579 0 0.12597500637704179 0.063456803070288448 0 0.11593286293313559 0.076475854144579081 0 0.11177628313427181 0.06420368150397579 0 0.10122301148020139 0.070133065327419031 0 0.10017442981693001 0.058899740267618912 0 0.11177628313427181 0.06420368150397579 0 0.10122301148020139 0.070133065327419031 0 0.11593286293313559 0.076475854144579081 0 0.10122301148020139 0.070133065327419031 0 0.1006611595481786 0.082826175958357895 0 0.10122301148020139 0.070133065327419031 0 0.1006611595481786 0.082826175958357895 0 0.091149920611136512 0.074364322382078574 0 0.10017442981693001 0.058899740267618912 0 0.10122301148020139 0.070133065327419031 0 0.087643412837555557 0.064028617707903981 0 0.098395381719931313 0.096027489160654789 0 0.1006611595481786 0.082826175958357895 0 0.084590422953825864 0.088303815269268268 0 0.098395381719931313 0.096027489160654789 0 0.1127745345070713 0.090454469117956737 0 0.1006611595481786 0.082826175958357895 0 0.1006611595481786 0.082826175958357895 0 0.084590422953825864 0.088303815269268268 0 0.091149920611136512 0.074364322382078574 0 0.084590422953825864 0.088303815269268268 0 0.08089988998700838 0.078031057715847993 0 0.071544986291308177 0.082221359661383331 0 0.084590422953825864 0.088303815269268268 0 0.091149920611136512 0.074364322382078574 0 0.08089988998700838 0.078031057715847993 0 0.10122301148020139 0.070133065327419031 0 0.087643412837555557 0.064028617707903981 0 0.091149920611136512 0.074364322382078574 0 0.087643412837555557 0.064028617707903981 0 0.091149920611136512 0.074364322382078574 0 0.08089988998700838 0.078031057715847993 0 0.087643412837555557 0.064028617707903981 0 0.08089988998700838 0.078031057715847993 0 0.076737202602312149 0.06844969271477 0 0.073673732147521917 0.057581864881120833 0 0.087643412837555557 0.064028617707903981 0 0.076737202602312149 0.06844969271477 0 0.073673732147521917 0.057581864881120833 0 0.076737202602312149 0.06844969271477 0 0.064773658700808145 0.070467449741328694 0 0.08089988998700838 0.078031057715847993 0 0.076737202602312149 0.06844969271477 0 0.071544986291308177 0.082221359661383331 0 0.076737202602312149 0.06844969271477 0 0.064773658700808145 0.070467449741328694 0 0.071544986291308177 0.082221359661383331 0 0.064773658700808145 0.070467449741328694 0 0.071544986291308177 0.082221359661383331 0 0.060295567363379182 0.081647357558803799 0 0.084590422953825864 0.088303815269268268 0 0.074451385863303562 0.093511051113060517 0 0.071544986291308177 0.082221359661383331 0 0.071544986291308177 0.082221359661383331 0 0.06253746842702447 0.094465022714953745 0 0.060295567363379182 0.081647357558803799 0 0.074451385863303562 0.093511051113060517 0 0.071544986291308177 0.082221359661383331 0 0.06253746842702447 0.094465022714953745 0 0.06253746842702447 0.094465022714953745 0 0.063460351962544986 0.1063766899282966 0 0.076751387830070322 0.1049624345811047 0 0.074451385863303562 0.093511051113060517 0 0.06253746842702447 0.094465022714953745 0 0.076751387830070322 0.1049624345811047 0 0.074451385863303562 0.093511051113060517 0 0.076751387830070322 0.1049624345811047 0 0.087651915010409684 0.099918173858354192 0 0.084590422953825864 0.088303815269268268 0 0.074451385863303562 0.093511051113060517 0 0.087651915010409684 0.099918173858354192 0 0.076751387830070322 0.1049624345811047 0 0.087651915010409684 0.099918173858354192 0 0.093134707164877539 0.11105446452281 0 0.098395381719931313 0.096027489160654789 0 0.087651915010409684 0.099918173858354192 0 0.093134707164877539 0.11105446452281 0 0.098395381719931313 0.096027489160654789 0 0.084590422953825864 0.088303815269268268 0 0.087651915010409684 0.099918173858354192 0 0.076751387830070322 0.1049624345811047 0 0.093134707164877539 0.11105446452281 0 0.077116737167053584 0.1172889807238653 0 0.093134707164877539 0.11105446452281 0 0.077116737167053584 0.1172889807238653 0 0.093677103499700071 0.1264647034084235 0 0.077116737167053584 0.1172889807238653 0 0.057870240120545209 0.11981388041563069 0 0.076668230564059109 0.1324981781383496 0 0.063460351962544986 0.1063766899282966 0 0.077116737167053584 0.1172889807238653 0 0.057870240120545209 0.11981388041563069 0 0.063460351962544986 0.1063766899282966 0 0.076751387830070322 0.1049624345811047 0 0.077116737167053584 0.1172889807238653 0 0.057870240120545209 0.11981388041563069 0 0.036327904013434643 0.105277783823468 0 0.057870240120545209 0.11981388041563069 0 0.043025926268031367 0.095353131205928421 0 0.063460351962544986 0.1063766899282966 0 0.057870240120545209 0.11981388041563069 0 0.043025926268031367 0.095353131205928421 0 0.06253746842702447 0.094465022714953745 0 0.063460351962544986 0.1063766899282966 0 0.043025926268031367 0.095353131205928421 0 0.057870240120545209 0.11981388041563069 0 0.043025926268031367 0.095353131205928421 0 0.036327904013434643 0.105277783823468 0 0.043025926268031367 0.095353131205928421 0 0.036327904013434643 0.105277783823468 0 0.029151862400452991 0.088880245741776762 0 0.057870240120545209 0.11981388041563069 0 0.036327904013434643 0.105277783823468 0 0.036914308185956278 0.12758449457061841 0 0.036327904013434643 0.105277783823468 0 0.026549717119855071 0.1156933336961396 0 0.036914308185956278 0.12758449457061841 0 0.056943119570383401 0.057380979441516947 0 0.049447344229944047 0.075523444190377292 0 0.042499141074820973 0.062549008142058687 0 0.056943119570383401 0.057380979441516947 0 0.064773658700808145 0.070467449741328694 0 0.049447344229944047 0.075523444190377292 0 0.064773658700808145 0.070467449741328694 0 0.049447344229944047 0.075523444190377292 0 0.060295567363379182 0.081647357558803799 0 0.043025926268031367 0.095353131205928421 0 0.049447344229944047 0.075523444190377292 0 0.053186892714925327 0.087606236671680868 0 0.06253746842702447 0.094465022714953745 0 0.043025926268031367 0.095353131205928421 0 0.053186892714925327 0.087606236671680868 0 0.049447344229944047 0.075523444190377292 0 0.060295567363379182 0.081647357558803799 0 0.053186892714925327 0.087606236671680868 0 0.06253746842702447 0.094465022714953745 0 0.060295567363379182 0.081647357558803799 0 0.053186892714925327 0.087606236671680868 0 0.043025926268031367 0.095353131205928421 0 0.049447344229944047 0.075523444190377292 0 0.028181612415517379 0.070892381996225967 0 0.043025926268031367 0.095353131205928421 0 0.028181612415517379 0.070892381996225967 0 0.043025926268031367 0.095353131205928421 0 0.028181612415517379 0.070892381996225967 0 0.029151862400452991 0.088880245741776762 0 0.049447344229944047 0.075523444190377292 0 0.042499141074820973 0.062549008142058687 0 0.028181612415517379 0.070892381996225967 0 0.028181612415517379 0.070892381996225967 0 0.021101886806592848 0.082118852204432338 0 0.01228850450407688 0.077961093848421217 0 0.028181612415517379 0.070892381996225967 0 0.021101886806592848 0.082118852204432338 0 0.029151862400452991 0.088880245741776762 0 0.021101886806592848 0.082118852204432338 0 0.014785567906324151 0.090741687231305407 0 0.01228850450407688 0.077961093848421217 0 0.021101886806592848 0.082118852204432338 0 0.029151862400452991 0.088880245741776762 0 0.014785567906324151 0.090741687231305407 0 -0.0033524539689480659 0.070218878613213576 0 0.01228850450407688 0.077961093848421217 0 0.0049667203133150206 0.096818660272216112 0 0.014785567906324151 0.090741687231305407 0 0.01228850450407688 0.077961093848421217 0 0.0049667203133150206 0.096818660272216112 0 -0.0033524539689480659 0.070218878613213576 0 0.0049667203133150206 0.096818660272216112 0 -0.0033524539689480659 0.070218878613213576 0 0.0057112789592953517 0.05695871052561028 0 0.01228850450407688 0.077961093848421217 0 0.0057112789592953517 0.05695871052561028 0 0.028181612415517379 0.070892381996225967 0 0.01228850450407688 0.077961093848421217 0 0.026549717119855071 0.1156933336961396 0 0.01328589459557813 0.1234184419312188 0 0.036914308185956278 0.12758449457061841 0 0.026549717119855071 0.1156933336961396 0 0.019670761684451241 0.1064926144592535 0 0.01328589459557813 0.1234184419312188 0 0.036327904013434643 0.105277783823468 0 0.014785567906324151 0.090741687231305407 0 0.019670761684451241 0.1064926144592535 0 0.036327904013434643 0.105277783823468 0 0.026549717119855071 0.1156933336961396 0 0.019670761684451241 0.1064926144592535 0 0.036327904013434643 0.105277783823468 0 0.029151862400452991 0.088880245741776762 0 0.014785567906324151 0.090741687231305407 0 0.036327904013434643 0.105277783823468 0 0.014785567906324151 0.090741687231305407 0 0.014785567906324151 0.090741687231305407 0 0.019670761684451241 0.1064926144592535 0 0.0049667203133150206 0.096818660272216112 0 0.019670761684451241 0.1064926144592535 0 0.0049667203133150206 0.096818660272216112 0 0.01328589459557813 0.1234184419312188 0 0.0049667203133150206 0.096818660272216112 0 0.00067693916513428926 0.11159247202752109 0 0.01328589459557813 0.1234184419312188 0 -0.0050240550804999673 0.127034918895162 0 0.00067693916513428926 0.11159247202752109 0 0.01328589459557813 0.1234184419312188 0 0.0049667203133150206 0.096818660272216112 0 0.01328589459557813 0.1234184419312188 0 0.01328589459557813 0.1234184419312188 0 0.0070069219194114542 0.13978766210260751 0 0.021605068877842599 0.15001822359022129 0 -0.0050240550804999673 0.127034918895162 0 0.01328589459557813 0.1234184419312188 0 0.0070069219194114542 0.13978766210260751 0 0.01328589459557813 0.1234184419312188 0 0.021605068877842599 0.15001822359022129 0 0.01328589459557813 0.1234184419312188 0 0.021605068877842599 0.15001822359022129 0 0.036914308185956278 0.12758449457061841 0 -0.00095255331983417333 0.15540891751961169 0 0.021605068877842599 0.15001822359022129 0 -0.00095255331983417333 0.15540891751961169 0 0.0070069219194114542 0.13978766210260751 0 0.021605068877842599 0.15001822359022129 0 -0.00095255331983417333 0.15540891751961169 0 -0.0050240550804999673 0.127034918895162 0 0.0070069219194114542 0.13978766210260751 0 -0.00095255331983417333 0.15540891751961169 0 0.003181539142360783 0.1842191061750523 0 -0.00095255331983417333 0.15540891751961169 0 0.003181539142360783 0.1842191061750523 0 0.020121854959739539 0.1654310906016046 0 -0.00095255331983417333 0.15540891751961169 0 0.021605068877842599 0.15001822359022129 0 0.020121854959739539 0.1654310906016046 0 0.0044347205301438356 0.18700663260860501 0 0.020121854959739539 0.1654310906016046 0 0.0044347205301438356 0.18700663260860501 0 0.003181539142360783 0.1842191061750523 0 0.020121854959739539 0.1654310906016046 0 0.0044347205301438356 0.18700663260860501 0 0.017908121217727418 0.17884659444139109 0 0.020121854959739539 0.1654310906016046 0 0.0044347205301438356 0.18700663260860501 0 0.017908121217727418 0.17884659444139109 0 0.006899093886187581 0.19659648086674539 0 -0.0032230355682505928 0.1887738530916741 0 -0.00025262032905044759 0.18559225739494989 0 0.0044347205301438356 0.18700663260860501 0 -0.001505659879600719 0.18317061219929109 0 -0.00025262032905044759 0.18559225739494989 0 0.003181539142360783 0.1842191061750523 0 -0.00025262032905044759 0.18559225739494989 0 0.0044347205301438356 0.18700663260860501 0 0.003181539142360783 0.1842191061750523 0 0.017908121217727418 0.17884659444139109 0 0.02878804302993852 0.17298511160402449 0 0.021951525775341849 0.19233603473298419 0 0.02878804302993852 0.17298511160402449 0 0.021951525775341849 0.19233603473298419 0 0.035971017182035721 0.19595199961782719 0 0.017908121217727418 0.17884659444139109 0 0.02878804302993852 0.17298511160402449 0 0.020121854959739539 0.1654310906016046 0 0.021605068877842599 0.15001822359022129 0 0.02878804302993852 0.17298511160402449 0 0.042429097979839112 0.16180633799127389 0 0.021605068877842599 0.15001822359022129 0 0.02878804302993852 0.17298511160402449 0 0.021605068877842599 0.15001822359022129 0 0.02878804302993852 0.17298511160402449 0 0.020121854959739539 0.1654310906016046 0 0.02878804302993852 0.17298511160402449 0 0.042429097979839112 0.16180633799127389 0 0.046567829856050201 0.17615420600324919 0 0.02878804302993852 0.17298511160402449 0 0.035971017182035721 0.19595199961782719 0 0.02878804302993852 0.17298511160402449 0 0.046567829856050201 0.17615420600324919 0 0.035971017182035721 0.19595199961782719 0 0.046567829856050201 0.17615420600324919 0 0.035971017182035721 0.19595199961782719 0 0.06406246796473869 0.18617428017747389 0 0.046567829856050201 0.17615420600324919 0 0.061588523123698932 0.16385330062564629 0 0.06406246796473869 0.18617428017747389 0 0.042429097979839112 0.16180633799127389 0 0.061588523123698932 0.16385330062564629 0 0.058890245511683398 0.14929507625485081 0 0.042429097979839112 0.16180633799127389 0 0.046567829856050201 0.17615420600324919 0 0.061588523123698932 0.16385330062564629 0 0.045176573760037649 0.14438523766814401 0 0.069197657485435507 0.13847941916057471 0 0.058890245511683398 0.14929507625485081 0 0.045176573760037649 0.14438523766814401 0 0.069197657485435507 0.13847941916057471 0 0.042429097979839112 0.16180633799127389 0 0.058890245511683398 0.14929507625485081 0 0.045176573760037649 0.14438523766814401 0 0.057870240120545209 0.11981388041563069 0 0.052177300177192937 0.13263396610011491 0 0.069197657485435507 0.13847941916057471 0 0.057870240120545209 0.11981388041563069 0 0.052177300177192937 0.13263396610011491 0 0.036914308185956278 0.12758449457061841 0 0.052177300177192937 0.13263396610011491 0 0.045176573760037649 0.14438523766814401 0 0.069197657485435507 0.13847941916057471 0 0.052177300177192937 0.13263396610011491 0 0.036914308185956278 0.12758449457061841 0 0.045176573760037649 0.14438523766814401 0 0.021605068877842599 0.15001822359022129 0 0.042429097979839112 0.16180633799127389 0 0.045176573760037649 0.14438523766814401 0 0.021605068877842599 0.15001822359022129 0 0.036914308185956278 0.12758449457061841 0 0.045176573760037649 0.14438523766814401 0 0.021605068877842599 0.15001822359022129 0 0.045176573760037649 0.14438523766814401 0 0.030996760692661909 0.24267850632233659 0 0.014802131818638559 0.24478714921947259 0 0.01950363720937388 0.2582274057835981 0 0.030996760692661909 0.24267850632233659 0 0.01344341362365347 0.22851243680721761 0 0.030996760692661909 0.24267850632233659 0 0.014802131818638559 0.24478714921947259 0 0.01344341362365347 0.22851243680721761 0 0.014802131818638559 0.24478714921947259 0 0.001546354976405674 0.24182248312587751 0 0.01344341362365347 0.22851243680721761 0 0.014802131818638559 0.24478714921947259 0 0.001546354976405674 0.24182248312587751 0 0.0021022769219057442 0.25480250730218768 0 -0.0041099334453547154 0.21434636729209819 0 0.01344341362365347 0.22851243680721761 0 -0.0041099334453547154 0.21434636729209819 0 -0.0010688181069628371 0.22920895513534159 0 0.01344341362365347 0.22851243680721761 0 -0.0010688181069628371 0.22920895513534159 0 0.001546354976405674 0.24182248312587751 0 0.01344341362365347 0.22851243680721761 0 0.01344341362365347 0.22851243680721761 0 0.029301395976285539 0.22682093666257541 0 0.01215781855303351 0.2121471166523296 0 0.030996760692661909 0.24267850632233659 0 0.01344341362365347 0.22851243680721761 0 0.029301395976285539 0.22682093666257541 0 0.029301395976285539 0.22682093666257541 0 0.026390649472226451 0.20807053072455151 0 0.01215781855303351 0.2121471166523296 0 0.026390649472226451 0.20807053072455151 0 0.01215781855303351 0.2121471166523296 0 0.01684977192169735 0.2022875407441527 0 -0.0041099334453547154 0.21434636729209819 0 0.01215781855303351 0.2121471166523296 0 0.006899093886187581 0.19659648086674539 0 -0.0041099334453547154 0.21434636729209819 0 0.006899093886187581 0.19659648086674539 0 -0.0041099334453547154 0.21434636729209819 0 0.01344341362365347 0.22851243680721761 0 0.01215781855303351 0.2121471166523296 0 0.01215781855303351 0.2121471166523296 0 0.006899093886187581 0.19659648086674539 0 0.01684977192169735 0.2022875407441527 0 0.006899093886187581 0.19659648086674539 0 0.021951525775341849 0.19233603473298419 0 0.01684977192169735 0.2022875407441527 0 0.017908121217727418 0.17884659444139109 0 0.006899093886187581 0.19659648086674539 0 -0.011252413899452951 0.20858217461560469 0 0.0044347205301438356 0.18700663260860501 0 0.006899093886187581 0.19659648086674539 0 0.017908121217727418 0.17884659444139109 0 0.006899093886187581 0.19659648086674539 0 0.021951525775341849 0.19233603473298419 0 0.026390649472226451 0.20807053072455151 0 0.021951525775341849 0.19233603473298419 0 0.01684977192169735 0.2022875407441527 0 0.026390649472226451 0.20807053072455151 0 0.021951525775341849 0.19233603473298419 0 0.035971017182035721 0.19595199961782719 0 0.035971017182035721 0.19595199961782719 0 0.0640739699650172 0.20786477559585961 0 0.06406246796473869 0.18617428017747389 0 0.035971017182035721 0.19595199961782719 0 0.043153991334132911 0.21891888763163 0 0.0640739699650172 0.20786477559585961 0 0.043153991334132911 0.21891888763163 0 0.059662681376764351 0.2263576832112271 0 0.0640739699650172 0.20786477559585961 0 0.035971017182035721 0.19595199961782719 0 0.043153991334132911 0.21891888763163 0 0.029301395976285539 0.22682093666257541 0 0.026390649472226451 0.20807053072455151 0 0.043153991334132911 0.21891888763163 0 0.026390649472226451 0.20807053072455151 0 0.035971017182035721 0.19595199961782719 0 0.043153991334132911 0.21891888763163 0 0.043153991334132911 0.21891888763163 0 0.050336965486230123 0.24188577564543279 0 0.029301395976285539 0.22682093666257541 0 0.043153991334132911 0.21891888763163 0 0.050336965486230123 0.24188577564543279 0 0.043153991334132911 0.21891888763163 0 0.059662681376764351 0.2263576832112271 0 0.050336965486230123 0.24188577564543279 0 0.050336965486230123 0.24188577564543279 0 0.067735116739930559 0.23991277386268431 0 0.057519939638322207 0.26485266365923732 0 0.059662681376764351 0.2263576832112271 0 0.050336965486230123 0.24188577564543279 0 0.067735116739930559 0.23991277386268431 0 0.030996760692661909 0.24267850632233659 0 0.048550107761670319 0.25684457583745562 0 0.030996760692661909 0.24267850632233659 0 0.050336965486230123 0.24188577564543279 0 0.048550107761670319 0.25684457583745562 0 0.030996760692661909 0.24267850632233659 0 0.029301395976285539 0.22682093666257541 0 0.050336965486230123 0.24188577564543279 0 0.067735116739930559 0.23991277386268431 0 0.078348807022190853 0.2259866120916284 0 0.096362904213725759 0.24476095872042289 0 0.067735116739930559 0.23991277386268431 0 0.096362904213725759 0.24476095872042289 0 0.076941421926016912 0.25480681118981641 0 0.096362904213725759 0.24476095872042289 0 0.076941421926016912 0.25480681118981641 0 0.059662681376764351 0.2263576832112271 0 0.067735116739930559 0.23991277386268431 0 0.078348807022190853 0.2259866120916284 0 0.059662681376764351 0.2263576832112271 0 0.078348807022190853 0.2259866120916284 0 0.0640739699650172 0.20786477559585961 0 0.078348807022190853 0.2259866120916284 0 0.098208644584271323 0.2240109111677332 0 0.096362904213725759 0.24476095872042289 0 0.078348807022190853 0.2259866120916284 0 0.088565744568406463 0.20660840525364779 0 0.098208644584271323 0.2240109111677332 0 0.078348807022190853 0.2259866120916284 0 0.088565744568406463 0.20660840525364779 0 0.078348807022190853 0.2259866120916284 0 0.088565744568406463 0.20660840525364779 0 0.0640739699650172 0.20786477559585961 0 0.0640739699650172 0.20786477559585961 0 0.081948715424201624 0.1907371673925517 0 0.06406246796473869 0.18617428017747389 0 0.088565744568406463 0.20660840525364779 0 0.081948715424201624 0.1907371673925517 0 0.098782682114616577 0.18723019841566421 0 0.088565744568406463 0.20660840525364779 0 0.098782682114616577 0.18723019841566421 0 0.088565744568406463 0.20660840525364779 0 0.0640739699650172 0.20786477559585961 0 0.081948715424201624 0.1907371673925517 0 0.088565744568406463 0.20660840525364779 0 0.1139078995244974 0.21215382597307769 0 0.098782682114616577 0.18723019841566421 0 0.1139078995244974 0.21215382597307769 0 0.098782682114616577 0.18723019841566421 0 0.121871739427974 0.1923922497230072 0 0.1139078995244974 0.21215382597307769 0 0.098782682114616577 0.18723019841566421 0 0.121871739427974 0.1923922497230072 0 0.1139078995244974 0.21215382597307769 0 0.13869417802629619 0.21699976141094179 0 0.088565744568406463 0.20660840525364779 0 0.1139078995244974 0.21215382597307769 0 0.098208644584271323 0.2240109111677332 0 0.1139078995244974 0.21215382597307769 0 0.098208644584271323 0.2240109111677332 0 0.1104602694200037 0.23317464472517491 0 0.098208644584271323 0.2240109111677332 0 0.1104602694200037 0.23317464472517491 0 0.096362904213725759 0.24476095872042289 0 0.1139078995244974 0.21215382597307769 0 0.12903311693438091 0.23707745353048951 0 0.1139078995244974 0.21215382597307769 0 0.1104602694200037 0.23317464472517491 0 0.12903311693438091 0.23707745353048951 0 0.1104602694200037 0.23317464472517491 0 0.1147887818431431 0.24787007423415131 0 0.12903311693438091 0.23707745353048951 0 0.1104602694200037 0.23317464472517491 0 0.1147887818431431 0.24787007423415131 0 0.096362904213725759 0.24476095872042289 0 0.071507720785234777 0.14228598641564241 0 0.085145201449924365 0.16475809241565431 0 0.09546622100757296 0.14518247586106861 0 0.071507720785234777 0.14228598641564241 0 0.085145201449924365 0.16475809241565431 0 0.077116737167053584 0.1172889807238653 0 0.093677103499700071 0.1264647034084235 0 0.076668230564059109 0.1324981781383496 0 0.093677103499700071 0.1264647034084235 0 0.076668230564059109 0.1324981781383496 0 0.09546622100757296 0.14518247586106861 0 0.076668230564059109 0.1324981781383496 0 0.09546622100757296 0.14518247586106861 0 0.076668230564059109 0.1324981781383496 0 0.071507720785234777 0.14228598641564241 0 0.09546622100757296 0.14518247586106861 0 0.076668230564059109 0.1324981781383496 0 0.069197657485435507 0.13847941916057471 0 0.071507720785234777 0.14228598641564241 0 0.057870240120545209 0.11981388041563069 0 0.069197657485435507 0.13847941916057471 0 0.057870240120545209 0.11981388041563069 0 0.076668230564059109 0.1324981781383496 0 0.069197657485435507 0.13847941916057471 0 0.057870240120545209 0.11981388041563069 0 0.076668230564059109 0.1324981781383496 0 0.069197657485435507 0.13847941916057471 0 0.071507720785234777 0.14228598641564241 0 0.061588523123698932 0.16385330062564629 0 0.058890245511683398 0.14929507625485081 0 0.071507720785234777 0.14228598641564241 0 0.058890245511683398 0.14929507625485081 0 0.069197657485435507 0.13847941916057471 0 0.071507720785234777 0.14228598641564241 0 0.061588523123698932 0.16385330062564629 0 0.071507720785234777 0.14228598641564241 0 0.085145201449924365 0.16475809241565431 0 0.061588523123698932 0.16385330062564629 0 0.06406246796473869 0.18617428017747389 0 0.085145201449924365 0.16475809241565431 0 0.081948715424201624 0.1907371673925517 0 0.06406246796473869 0.18617428017747389 0 0.085145201449924365 0.16475809241565431 0 0.085145201449924365 0.16475809241565431 0 0.098782682114616577 0.18723019841566421 0 0.081948715424201624 0.1907371673925517 0 0.085145201449924365 0.16475809241565431 0 0.098782682114616577 0.18723019841566421 0 0.085145201449924365 0.16475809241565431 0 0.099505889465101652 0.1594670883494988 0 0.09546622100757296 0.14518247586106861 0 0.085145201449924365 0.16475809241565431 0 0.099505889465101652 0.1594670883494988 0 0.10652344678285521 0.17254848599972761 0 0.099505889465101652 0.1594670883494988 0 0.10652344678285521 0.17254848599972761 0 0.11426421145108701 0.1578667735837874 0 0.085145201449924365 0.16475809241565431 0 0.098782682114616577 0.18723019841566421 0 0.10652344678285521 0.17254848599972761 0 0.098782682114616577 0.18723019841566421 0 0.10652344678285521 0.17254848599972761 0 0.1195318665511933 0.17772271776821269 0 0.098782682114616577 0.18723019841566421 0 0.10652344678285521 0.17254848599972761 0 0.121871739427974 0.1923922497230072 0 0.098782682114616577 0.18723019841566421 0 0.1195318665511933 0.17772271776821269 0 0.1195318665511933 0.17772271776821269 0 0.11426421145108701 0.1578667735837874 0 0.13271095558265961 0.17031406124907211 0 0.10652344678285521 0.17254848599972761 0 0.1195318665511933 0.17772271776821269 0 0.11426421145108701 0.1578667735837874 0 0.11426421145108701 0.1578667735837874 0 0.13271095558265961 0.17031406124907211 0 0.10652344678285521 0.17254848599972761 0 0.11426421145108701 0.1578667735837874 0 0.11426421145108701 0.1578667735837874 0 0.1244864210801282 0.13847856731975891 0 0.1338057245858576 0.15405923777746799 0 0.11426421145108701 0.1578667735837874 0 0.109027377169461 0.133744272384866 0 0.1244864210801282 0.13847856731975891 0 0.11426421145108701 0.1578667735837874 0 0.1244864210801282 0.13847856731975891 0 0.11426421145108701 0.1578667735837874 0 0.09546622100757296 0.14518247586106861 0 0.109027377169461 0.133744272384866 0 0.099505889465101652 0.1594670883494988 0 0.11426421145108701 0.1578667735837874 0 0.09546622100757296 0.14518247586106861 0 0.11426421145108701 0.1578667735837874 0 0.09546622100757296 0.14518247586106861 0 0.1060584911702588 0.11798265637048271 0 0.093677103499700071 0.1264647034084235 0 0.109027377169461 0.133744272384866 0 0.093677103499700071 0.1264647034084235 0 0.09546622100757296 0.14518247586106861 0 0.109027377169461 0.133744272384866 0 0.120211814808019 0.1164904577656751 0 0.109027377169461 0.133744272384866 0 0.1244864210801282 0.13847856731975891 0 0.1244864210801282 0.13847856731975891 0 0.14846141603528029 0.13884284112906359 0 0.13470863070916811 0.1190903610557298 0 0.1244864210801282 0.13847856731975891 0 0.13470863070916811 0.1190903610557298 0 0.14846141603528029 0.13884284112906359 0 0.14781721329042771 0.1128917366524694 0 0.14846141603528029 0.13884284112906359 0 0.16371743706791961 0.127106245685355 0 0.14781721329042771 0.1128917366524694 0 0.14846141603528029 0.13884284112906359 0 0.1338057245858576 0.15405923777746799 0 0.14910561878013279 0.16479394560565799 0 0.14846141603528029 0.13884284112906359 0 0.14910561878013279 0.16479394560565799 0 0.14846141603528029 0.13884284112906359 0 0.14910561878013279 0.16479394560565799 0 0.16018867262563841 0.1559227148777953 0 0.1244864210801282 0.13847856731975891 0 0.14846141603528029 0.13884284112906359 0 0.1338057245858576 0.15405923777746799 0 0.11426421145108701 0.1578667735837874 0 0.1338057245858576 0.15405923777746799 0 0.13271095558265961 0.17031406124907211 0 0.1338057245858576 0.15405923777746799 0 0.13271095558265961 0.17031406124907211 0 0.14910561878013279 0.16479394560565799 0 0.121871739427974 0.1923922497230072 0 0.1195318665511933 0.17772271776821269 0 0.13365607944167959 0.1818207034397715 0 0.1195318665511933 0.17772271776821269 0 0.13271095558265961 0.17031406124907211 0 0.13365607944167959 0.1818207034397715 0 0.13271095558265961 0.17031406124907211 0 0.13365607944167959 0.1818207034397715 0 0.1450475570486017 0.17673692989871859 0 0.1450475570486017 0.17673692989871859 0 0.16206401018686051 0.17290358895967109 0 0.1491182785979695 0.19193755855984679 0 0.13365607944167959 0.1818207034397715 0 0.1450475570486017 0.17673692989871859 0 0.1491182785979695 0.19193755855984679 0 0.1450475570486017 0.17673692989871859 0 0.14910561878013279 0.16479394560565799 0 0.16206401018686051 0.17290358895967109 0 0.13271095558265961 0.17031406124907211 0 0.1450475570486017 0.17673692989871859 0 0.14910561878013279 0.16479394560565799 0 0.14910561878013279 0.16479394560565799 0 0.16206401018686051 0.17290358895967109 0 0.16018867262563841 0.1559227148777953 0 0.16206401018686051 0.17290358895967109 0 0.1740329128055921 0.15929073062163229 0 0.16018867262563841 0.1559227148777953 0 0.16206401018686051 0.17290358895967109 0 0.1740329128055921 0.15929073062163229 0 0.17898122463779059 0.17076302975366631 0 0.16206401018686051 0.17290358895967109 0 0.17406709687003449 0.18456730194792639 0 0.1491182785979695 0.19193755855984679 0 0.16206401018686051 0.17290358895967109 0 0.17406709687003449 0.18456730194792639 0 0.17898122463779059 0.17076302975366631 0 0.17406709687003449 0.18456730194792639 0 0.17898122463779059 0.17076302975366631 0 0.19637610908694089 0.1779320692009134 0 0.1740329128055921 0.15929073062163229 0 0.17898122463779059 0.17076302975366631 0 0.1883659942395253 0.1591214580381882 0 0.1740329128055921 0.15929073062163229 0 0.1796780131623969 0.14785428518463989 0 0.1883659942395253 0.1591214580381882 0 0.1796780131623969 0.14785428518463989 0 0.1912892172255061 0.14318016526826369 0 0.1883659942395253 0.1591214580381882 0 0.1740329128055921 0.15929073062163229 0 0.1796780131623969 0.14785428518463989 0 0.16727940532032609 0.1437824680729517 0 0.1796780131623969 0.14785428518463989 0 0.1774225362210349 0.13389660392216349 0 0.16727940532032609 0.1437824680729517 0 0.1796780131623969 0.14785428518463989 0 0.1774225362210349 0.13389660392216349 0 0.1912892172255061 0.14318016526826369 0 0.1774225362210349 0.13389660392216349 0 0.1895043666122872 0.12708954340363471 0 0.1912892172255061 0.14318016526826369 0 0.1774225362210349 0.13389660392216349 0 0.1895043666122872 0.12708954340363471 0 0.17652714571659919 0.1225207110813805 0 0.1774225362210349 0.13389660392216349 0 0.16371743706791961 0.127106245685355 0 0.17652714571659919 0.1225207110813805 0 0.1774225362210349 0.13389660392216349 0 0.16371743706791961 0.127106245685355 0 0.16727940532032609 0.1437824680729517 0 0.14846141603528029 0.13884284112906359 0 0.16371743706791961 0.127106245685355 0 0.16727940532032609 0.1437824680729517 0 0.14846141603528029 0.13884284112906359 0 0.16018867262563841 0.1559227148777953 0 0.16727940532032609 0.1437824680729517 0 0.1740329128055921 0.15929073062163229 0 0.16018867262563841 0.1559227148777953 0 0.16727940532032609 0.1437824680729517 0 0.15551661662461841 0.24160727309887639 0 0.12903311693438091 0.23707745353048951 0 0.14415833434426439 0.26200108108790121 0 0.1147887818431431 0.24787007423415131 0 0.12903311693438091 0.23707745353048951 0 0.14415833434426439 0.26200108108790121 0 0.12903311693438091 0.23707745353048951 0 0.14415833434426439 0.26200108108790121 0 0.1139078995244974 0.21215382597307769 0 0.12903311693438091 0.23707745353048951 0 0.13869417802629619 0.21699976141094179 0 0.15551661662461841 0.24160727309887639 0 0.13869417802629619 0.21699976141094179 0 0.15551661662461841 0.24160727309887639 0 0.12903311693438091 0.23707745353048951 0 0.13869417802629619 0.21699976141094179 0 0.15551661662461841 0.24160727309887639 0 0.13869417802629619 0.21699976141094179 0 0.1672342722793646 0.22877712893256161 0 0.13869417802629619 0.21699976141094179 0 0.1491182785979695 0.19193755855984679 0 0.16526605163546679 0.2117628170955087 0 0.121871739427974 0.1923922497230072 0 0.13869417802629619 0.21699976141094179 0 0.121871739427974 0.1923922497230072 0 0.13365607944167959 0.1818207034397715 0 0.1491182785979695 0.19193755855984679 0 0.121871739427974 0.1923922497230072 0 0.13869417802629619 0.21699976141094179 0 0.1491182785979695 0.19193755855984679 0 0.17406709687003449 0.18456730194792639 0 0.1491182785979695 0.19193755855984679 0 0.16479546500901629 0.1966605907563036 0 0.1491182785979695 0.19193755855984679 0 0.16479546500901629 0.1966605907563036 0 0.16526605163546679 0.2117628170955087 0 0.17406709687003449 0.18456730194792639 0 0.16479546500901629 0.1966605907563036 0 0.18780760175822139 0.2012971788451631 0 0.17406709687003449 0.18456730194792639 0 0.18780760175822139 0.2012971788451631 0 0.19637610908694089 0.1779320692009134 0 0.16526605163546679 0.2117628170955087 0 0.1882250181538363 0.22514099487256931 0 0.18780760175822139 0.2012971788451631 0 0.16479546500901629 0.1966605907563036 0 0.16526605163546679 0.2117628170955087 0 0.18780760175822139 0.2012971788451631 0 0.13869417802629619 0.21699976141094179 0 0.16526605163546679 0.2117628170955087 0 0.1672342722793646 0.22877712893256161 0 0.16526605163546679 0.2117628170955087 0 0.1672342722793646 0.22877712893256161 0 0.1882250181538363 0.22514099487256931 0 0.1672342722793646 0.22877712893256161 0 0.17939746381074739 0.23843744182659929 0 0.1882250181538363 0.22514099487256931 0 0.15551661662461841 0.24160727309887639 0 0.17939746381074739 0.23843744182659929 0 0.18436284550824189 0.25477096691964168 0 0.17939746381074739 0.23843744182659929 0 0.19546047625603399 0.24492919888611711 0 0.18436284550824189 0.25477096691964168 0 0.15551661662461841 0.24160727309887639 0 0.1672342722793646 0.22877712893256161 0 0.17939746381074739 0.23843744182659929 0 0.21133650828851891 0.23668111909338951 0 0.19546047625603399 0.24492919888611711 0 0.2100679709325658 0.25314684296694617 0 0.21133650828851891 0.23668111909338951 0 0.2100679709325658 0.25314684296694617 0 0.2255124495043215 0.25298522798509959 0 0.21133650828851891 0.23668111909338951 0 0.19546047625603399 0.24492919888611711 0 0.1882250181538363 0.22514099487256931 0 0.17939746381074739 0.23843744182659929 0 0.19546047625603399 0.24492919888611711 0 0.1882250181538363 0.22514099487256931 0 0.21133650828851891 0.23668111909338951 0 0.1882250181538363 0.22514099487256931 0 0.20766331851198089 0.21249458950032671 0 0.21133650828851891 0.23668111909338951 0 0.20766331851198089 0.21249458950032671 0 0.22173059272625509 0.21816101093522791 0 0.20766331851198089 0.21249458950032671 0 0.20890358504619769 0.19739292329801519 0 0.22380372920333269 0.2015610251464017 0 0.20766331851198089 0.21249458950032671 0 0.22380372920333269 0.2015610251464017 0 0.22173059272625509 0.21816101093522791 0 0.1882250181538363 0.22514099487256931 0 0.20766331851198089 0.21249458950032671 0 0.18780760175822139 0.2012971788451631 0 0.20766331851198089 0.21249458950032671 0 0.18780760175822139 0.2012971788451631 0 0.20890358504619769 0.19739292329801519 0 0.18780760175822139 0.2012971788451631 0 0.19637610908694089 0.1779320692009134 0 0.18780760175822139 0.2012971788451631 0 0.20381106679286851 0.18755673140136361 0 0.20890358504619769 0.19739292329801519 0 0.18780760175822139 0.2012971788451631 0 0.20381106679286851 0.18755673140136361 0 0.19637610908694089 0.1779320692009134 0 0.20381106679286851 0.18755673140136361 0 0.20890358504619769 0.19739292329801519 0 0.21570617566415581 0.18756736502197949 0 0.20890358504619769 0.19739292329801519 0 0.21570617566415581 0.18756736502197949 0 0.22380372920333269 0.2015610251464017 0 0.21570617566415581 0.18756736502197949 0 0.22380372920333269 0.2015610251464017 0 0.2296912914606147 0.1813585632014699 0 0.22380372920333269 0.2015610251464017 0 0.2412840529287498 0.202215363022336 0 0.2296912914606147 0.1813585632014699 0 0.2491207205124025 0.18912300576219279 0 0.2412840529287498 0.202215363022336 0 0.2296912914606147 0.1813585632014699 0 0.2491207205124025 0.18912300576219279 0 0.2412840529287498 0.202215363022336 0 0.25176877608350462 0.2008112079738272 0 0.2412840529287498 0.202215363022336 0 0.24952928570714011 0.21318230820655429 0 0.23393188139888721 0.21242785942713729 0 0.24952928570714011 0.21318230820655429 0 0.23393188139888721 0.21242785942713729 0 0.23191752622855541 0.22764046150888431 0 0.2412840529287498 0.202215363022336 0 0.24952928570714011 0.21318230820655429 0 0.25176877608350462 0.2008112079738272 0 0.22380372920333269 0.2015610251464017 0 0.2412840529287498 0.202215363022336 0 0.23393188139888721 0.21242785942713729 0 0.22380372920333269 0.2015610251464017 0 0.23393188139888721 0.21242785942713729 0 0.22173059272625509 0.21816101093522791 0 0.21133650828851891 0.23668111909338951 0 0.22173059272625509 0.21816101093522791 0 0.23191752622855541 0.22764046150888431 0 0.23393188139888721 0.21242785942713729 0 0.22173059272625509 0.21816101093522791 0 0.23191752622855541 0.22764046150888431 0 0.23288911456170311 0.24337006429245009 0 0.2500150798737153 0.22104710959833829 0 0.24952928570714011 0.21318230820655429 0 0.23191752622855541 0.22764046150888431 0 0.2500150798737153 0.22104710959833829 0 0.23191752622855541 0.22764046150888431 0 0.23288911456170311 0.24337006429245009 0 0.2500150798737153 0.22104710959833829 0 0.24952928570714011 0.21318230820655429 0 0.23191752622855541 0.22764046150888431 0 0.23288911456170311 0.24337006429245009 0 0.25933000645894172 0.25157611021901422 0 0.25384493972390137 0.2445466193227451 0 0.23288911456170311 0.24337006429245009 0 0.25933000645894172 0.25157611021901422 0 0.23288911456170311 0.24337006429245009 0 0.25384493972390137 0.2445466193227451 0 0.2500150798737153 0.22104710959833829 0 0.21133650828851891 0.23668111909338951 0 0.23288911456170311 0.24337006429245009 0 0.21133650828851891 0.23668111909338951 0 0.23288911456170311 0.24337006429245009 0 0.2255124495043215 0.25298522798509959 0 0.21133650828851891 0.23668111909338951 0 0.23191752622855541 0.22764046150888431 0 0.23288911456170311 0.24337006429245009 0 0.23288911456170311 0.24337006429245009 0 0.2255124495043215 0.25298522798509959 0 0.20494461641566031 0.1545669595566638 0 0.20614274544796801 0.13228283284603259 0 0.19832023007562519 0.13686686507627249 0 0.20494461641566031 0.1545669595566638 0 0.21351312374437981 0.13120184991241429 0 0.21968689743521261 0.14719055647258761 0 0.20494461641566031 0.1545669595566638 0 0.2224232997449079 0.1627419166455927 0 0.21968689743521261 0.14719055647258761 0 0.20494461641566031 0.1545669595566638 0 0.21351312374437981 0.13120184991241429 0 0.20494461641566031 0.1545669595566638 0 0.21351312374437981 0.13120184991241429 0 0.20614274544796801 0.13228283284603259 0 0.21351312374437981 0.13120184991241429 0 0.20981250461080581 0.12617315222585121 0 0.215886811636811 0.1247291381856014 0 0.21351312374437981 0.13120184991241429 0 0.215886811636811 0.1247291381856014 0 0.20981250461080581 0.12617315222585121 0 0.20614274544796801 0.13228283284603259 0 0.19972020467670451 0.1272148243067675 0 0.21351312374437981 0.13120184991241429 0 0.20981250461080581 0.12617315222585121 0 0.20614274544796801 0.13228283284603259 0 0.21351312374437981 0.13120184991241429 0 0.20614274544796801 0.13228283284603259 0 0.19832023007562519 0.13686686507627249 0 0.1895043666122872 0.12708954340363471 0 0.1912892172255061 0.14318016526826369 0 0.20614274544796801 0.13228283284603259 0 0.19832023007562519 0.13686686507627249 0 0.19972020467670451 0.1272148243067675 0 0.19832023007562519 0.13686686507627249 0 0.19972020467670451 0.1272148243067675 0 0.1895043666122872 0.12708954340363471 0 0.20494461641566031 0.1545669595566638 0 0.1912892172255061 0.14318016526826369 0 0.1883659942395253 0.1591214580381882 0 0.20494461641566031 0.1545669595566638 0 0.19832023007562519 0.13686686507627249 0 0.1912892172255061 0.14318016526826369 0 0.20494461641566031 0.1545669595566638 0 0.19637610908694089 0.1779320692009134 0 0.20494461641566031 0.1545669595566638 0 0.1883659942395253 0.1591214580381882 0 0.19637610908694089 0.1779320692009134 0 0.17898122463779059 0.17076302975366631 0 0.1883659942395253 0.1591214580381882 0 0.19637610908694089 0.1779320692009134 0 0.21570617566415581 0.18756736502197949 0 0.21026186240882699 0.173594120640747 0 0.2296912914606147 0.1813585632014699 0 0.20381106679286851 0.18755673140136361 0 0.19637610908694089 0.1779320692009134 0 0.21026186240882699 0.173594120640747 0 0.20381106679286851 0.18755673140136361 0 0.21570617566415581 0.18756736502197949 0 0.21026186240882699 0.173594120640747 0 0.20494461641566031 0.1545669595566638 0 0.21026186240882699 0.173594120640747 0 0.2224232997449079 0.1627419166455927 0 0.20494461641566031 0.1545669595566638 0 0.19637610908694089 0.1779320692009134 0 0.21026186240882699 0.173594120640747 0 0.2224232997449079 0.1627419166455927 0 0.2296912914606147 0.1813585632014699 0 0.23812986829607311 0.169798899755152 0 0.2224232997449079 0.1627419166455927 0 0.23812986829607311 0.169798899755152 0 0.23385117867087901 0.15252239059140399 0 0.21026186240882699 0.173594120640747 0 0.2224232997449079 0.1627419166455927 0 0.2296912914606147 0.1813585632014699 0 0.21026186240882699 0.173594120640747 0 0.2296912914606147 0.1813585632014699 0 0.2491207205124025 0.18912300576219279 0 0.2296912914606147 0.1813585632014699 0 0.2491207205124025 0.18912300576219279 0 0.2296912914606147 0.1813585632014699 0 0.23812986829607311 0.169798899755152 0 0.2491207205124025 0.18912300576219279 0 0.23812986829607311 0.169798899755152 0 0.25301653249277928 0.16364512933074629 0 0.23812986829607311 0.169798899755152 0 0.23385117867087901 0.15252239059140399 0 0.25301653249277928 0.16364512933074629 0 0.2489748085747415 0.14238586728697381 0 0.23385117867087901 0.15252239059140399 0 0.23030041963465681 0.13968313959015369 0 0.2489748085747415 0.14238586728697381 0 0.23385117867087901 0.15252239059140399 0 0.25301653249277928 0.16364512933074629 0 0.23385117867087901 0.15252239059140399 0 0.21968689743521261 0.14719055647258761 0 0.23030041963465681 0.13968313959015369 0 0.2224232997449079 0.1627419166455927 0 0.23385117867087901 0.15252239059140399 0 0.21968689743521261 0.14719055647258761 0 0.21351312374437981 0.13120184991241429 0 0.23877516526528131 0.12749677065403409 0 0.215886811636811 0.1247291381856014 0 0.21351312374437981 0.13120184991241429 0 0.23030041963465681 0.13968313959015369 0 0.23877516526528131 0.12749677065403409 0 0.21351312374437981 0.13120184991241429 0 0.23877516526528131 0.12749677065403409 0 0.21351312374437981 0.13120184991241429 0 0.21968689743521261 0.14719055647258761 0 0.23030041963465681 0.13968313959015369 0 0.2489748085747415 0.14238586728697381 0 0.23030041963465681 0.13968313959015369 0 0.23877516526528131 0.12749677065403409 0 0.23877516526528131 0.12749677065403409 0 0.23495450005877611 0.1044865158052177 0 0.25311691439803963 0.1010492937196204 0 0.23495450005877611 0.1044865158052177 0 0.23496177546886571 0.091843212388845769 0 0.25311691439803963 0.1010492937196204 0 0.23495450005877611 0.1044865158052177 0 0.2216819852657666 0.096969827741350656 0 0.22342590689342959 0.11286185729457569 0 0.2216819852657666 0.096969827741350656 0 0.22342590689342959 0.11286185729457569 0 0.21441456230315339 0.10822515453531931 0 0.23495450005877611 0.1044865158052177 0 0.2216819852657666 0.096969827741350656 0 0.23496177546886571 0.091843212388845769 0 0.23877516526528131 0.12749677065403409 0 0.22342590689342959 0.11286185729457569 0 0.215886811636811 0.1247291381856014 0 0.23877516526528131 0.12749677065403409 0 0.23495450005877611 0.1044865158052177 0 0.22342590689342959 0.11286185729457569 0 0.20981250461080581 0.12617315222585121 0 0.2124449298713931 0.1176806438854041 0 0.215886811636811 0.1247291381856014 0 0.22342590689342959 0.11286185729457569 0 0.2124449298713931 0.1176806438854041 0 0.215886811636811 0.1247291381856014 0 0.20981250461080581 0.12617315222585121 0 0.19972020467670451 0.1272148243067675 0 0.2054265681453383 0.1210349104478006 0 0.20981250461080581 0.12617315222585121 0 0.2124449298713931 0.1176806438854041 0 0.2054265681453383 0.1210349104478006 0 0.2054265681453383 0.1210349104478006 0 0.20663921944211219 0.1126512639784088 0 0.19739428049816521 0.11524984017185259 0 0.2124449298713931 0.1176806438854041 0 0.2054265681453383 0.1210349104478006 0 0.20663921944211219 0.1126512639784088 0 0.2124449298713931 0.1176806438854041 0 0.20663921944211219 0.1126512639784088 0 0.21441456230315339 0.10822515453531931 0 0.22342590689342959 0.11286185729457569 0 0.2124449298713931 0.1176806438854041 0 0.21441456230315339 0.10822515453531931 0 0.2216819852657666 0.096969827741350656 0 0.21441456230315339 0.10822515453531931 0 0.2035157563925106 0.10106577085166719 0 0.2216819852657666 0.096969827741350656 0 0.2035157563925106 0.10106577085166719 0 0.2118776095043248 0.08713472037693247 0 0.20663921944211219 0.1126512639784088 0 0.21441456230315339 0.10822515453531931 0 0.2035157563925106 0.10106577085166719 0 0.2035157563925106 0.10106577085166719 0 0.1912499115197244 0.10611490640642759 0 0.19739428049816521 0.11524984017185259 0 0.2035157563925106 0.10106577085166719 0 0.19888288467733259 0.087557871944677956 0 0.1871913883155433 0.094760398300485577 0 0.2035157563925106 0.10106577085166719 0 0.1912499115197244 0.10611490640642759 0 0.1871913883155433 0.094760398300485577 0 0.1912499115197244 0.10611490640642759 0 0.19739428049816521 0.11524984017185259 0 0.18397245201889301 0.1139667288199863 0 0.1895043666122872 0.12708954340363471 0 0.19739428049816521 0.11524984017185259 0 0.18397245201889301 0.1139667288199863 0 0.19972020467670451 0.1272148243067675 0 0.2054265681453383 0.1210349104478006 0 0.19739428049816521 0.11524984017185259 0 0.19972020467670451 0.1272148243067675 0 0.1895043666122872 0.12708954340363471 0 0.19739428049816521 0.11524984017185259 0 0.20663921944211219 0.1126512639784088 0 0.2035157563925106 0.10106577085166719 0 0.19739428049816521 0.11524984017185259 0 0.1935453454885307 0.063003581492086208 0 0.20454382237704921 0.075774917405237466 0 0.21101901830707359 0.062055273380532613 0 0.1935453454885307 0.063003581492086208 0 0.20454382237704921 0.075774917405237466 0 0.18728584679723509 0.079053552789066964 0 0.19888288467733259 0.087557871944677956 0 0.20454382237704921 0.075774917405237466 0 0.18728584679723509 0.079053552789066964 0 0.19888288467733259 0.087557871944677956 0 0.1871913883155433 0.094760398300485577 0 0.18728584679723509 0.079053552789066964 0 0.19888288467733259 0.087557871944677956 0 0.2118776095043248 0.08713472037693247 0 0.20454382237704921 0.075774917405237466 0 0.2118776095043248 0.08713472037693247 0 0.20454382237704921 0.075774917405237466 0 0.2228588556118504 0.078403528634448966 0 0.2035157563925106 0.10106577085166719 0 0.19888288467733259 0.087557871944677956 0 0.2118776095043248 0.08713472037693247 0 0.20454382237704921 0.075774917405237466 0 0.2228588556118504 0.078403528634448966 0 0.21101901830707359 0.062055273380532613 0 0.2228588556118504 0.078403528634448966 0 0.2296436284198182 0.057991723770036717 0 0.21101901830707359 0.062055273380532613 0 0.23432205947910401 0.065563075755308092 0 0.2228588556118504 0.078403528634448966 0 0.24219662200989631 0.07830689604359084 0 0.23432205947910401 0.065563075755308092 0 0.2228588556118504 0.078403528634448966 0 0.2296436284198182 0.057991723770036717 0 0.23432205947910401 0.065563075755308092 0 0.2338222864518667 0.060866660675907583 0 0.2216819852657666 0.096969827741350656 0 0.2228588556118504 0.078403528634448966 0 0.23496177546886571 0.091843212388845769 0 0.2228588556118504 0.078403528634448966 0 0.23496177546886571 0.091843212388845769 0 0.24219662200989631 0.07830689604359084 0 0.2216819852657666 0.096969827741350656 0 0.2118776095043248 0.08713472037693247 0 0.2228588556118504 0.078403528634448966 0 0.24219662200989631 0.07830689604359084 0 0.25311691439803963 0.1010492937196204 0 0.24219662200989631 0.07830689604359084 0 0.25025696560716282 0.070440101888901763 0 0.25134549599301542 0.093113001833606171 0 0.24219662200989631 0.07830689604359084 0 0.25134549599301542 0.093113001833606171 0 0.25311691439803963 0.1010492937196204 0 0.23496177546886571 0.091843212388845769 0 0.24219662200989631 0.07830689604359084 0 0.25311691439803963 0.1010492937196204 0 0.24219662200989631 0.07830689604359084 0 0.25134549599301542 0.093113001833606171 0 0.24219662200989631 0.07830689604359084 0 0.2338222864518667 0.060866660675907583 0 0.25025696560716282 0.070440101888901763 0 0.24219662200989631 0.07830689604359084 0 0.2338222864518667 0.060866660675907583 0 0.23432205947910401 0.065563075755308092 0 0.24219662200989631 0.07830689604359084 0 0.2338222864518667 0.060866660675907583 0 0.23432205947910401 0.065563075755308092 0 0.24219662200989631 0.07830689604359084 0 0.24146536745794861 0.044043188993151169 0 0.23396998939131999 0.040190518210058333 0 0.2338222864518667 0.060866660675907583 0 0.24146536745794861 0.044043188993151169 0 0.2338222864518667 0.060866660675907583 0 0.25025696560716282 0.070440101888901763 0 0.24146536745794861 0.044043188993151169 0 0.25345862362690841 0.055986016951952537 0 0.25025696560716282 0.070440101888901763 0 0.24146536745794861 0.044043188993151169 0 0.25025696560716282 0.070440101888901763 0 0.24146536745794861 0.044043188993151169 0 0.23396998939131999 0.040190518210058333 0 0.25872593932393612 0.043392034392084333 0 0.23396998939131999 0.040190518210058333 0 0.25872593932393612 0.043392034392084333 0 0.24898720323988541 0.033178416017642383 0 0.23396998939131999 0.040190518210058333 0 0.25872593932393612 0.043392034392084333 0 0.24898720323988541 0.033178416017642383 0 0.23896680758935041 0.032101947244611899 0 0.23396998939131999 0.040190518210058333 0 0.23896680758935041 0.032101947244611899 0 0.23396998939131999 0.040190518210058333 0 0.2307987287914042 0.037220651344788358 0 0.22449360429853851 0.041438920851406803 0 0.2307987287914042 0.037220651344788358 0 0.21516492214520791 0.022011181026907061 0 0.22449360429853851 0.041438920851406803 0 0.2296436284198182 0.057991723770036717 0 0.2170906348297395 0.037676551496482802 0 0.22449360429853851 0.041438920851406803 0 0.2307987287914042 0.037220651344788358 0 0.2338222864518667 0.060866660675907583 0 0.22449360429853851 0.041438920851406803 0 0.21516492214520791 0.022011181026907061 0 0.22449360429853851 0.041438920851406803 0 0.21516492214520791 0.022011181026907061 0 0.2170906348297395 0.037676551496482802 0 0.23396998939131999 0.040190518210058333 0 0.2307987287914042 0.037220651344788358 0 0.2338222864518667 0.060866660675907583 0 0.2296436284198182 0.057991723770036717 0 0.2170906348297395 0.037676551496482802 0 0.22449360429853851 0.041438920851406803 0 0.2338222864518667 0.060866660675907583 0 0.2307987287914042 0.037220651344788358 0 0.2338222864518667 0.060866660675907583 0 0.22449360429853851 0.041438920851406803 0 0.2296436284198182 0.057991723770036717 0 0.2338222864518667 0.060866660675907583 0 0.2296436284198182 0.057991723770036717 0 0.21489763372500659 0.05145377534247992 0 0.2170906348297395 0.037676551496482802 0 0.23432205947910401 0.065563075755308092 0 0.2296436284198182 0.057991723770036717 0 0.23432205947910401 0.065563075755308092 0 0.2296436284198182 0.057991723770036717 0 0.2338222864518667 0.060866660675907583 0 0.24033510085611709 0.0080481825854214067 0 0.22777517113094431 0.01357464201366879 0 0.2361617531247045 -0.001793522683003997 0 0.24033510085611709 0.0080481825854214067 0 0.2471597475602246 -0.0042098564474911636 0 0.2361617531247045 -0.001793522683003997 0 0.24033510085611709 0.0080481825854214067 0 0.25099497988274638 0.0064577458443076993 0 0.2471597475602246 -0.0042098564474911636 0 0.2470455162795947 0.01469040919898796 0 0.24033510085611709 0.0080481825854214067 0 0.25099497988274638 0.0064577458443076993 0 0.24033510085611709 0.0080481825854214067 0 0.23785633878351861 0.021498397417035839 0 0.22777517113094431 0.01357464201366879 0 0.2470455162795947 0.01469040919898796 0 0.24033510085611709 0.0080481825854214067 0 0.23785633878351861 0.021498397417035839 0 0.23896680758935041 0.032101947244611899 0 0.2307987287914042 0.037220651344788358 0 0.23785633878351861 0.021498397417035839 0 0.2470455162795947 0.01469040919898796 0 0.23785633878351861 0.021498397417035839 0 0.24784890528390521 0.023156895577430951 0 0.2470455162795947 0.01469040919898796 0 0.24784890528390521 0.023156895577430951 0 0.25474360592552853 0.01481755191828278 0 0.24898720323988541 0.033178416017642383 0 0.24784890528390521 0.023156895577430951 0 0.24275056831936179 0.02825450963058777 0 0.24898720323988541 0.033178416017642383 0 0.23896680758935041 0.032101947244611899 0 0.24275056831936179 0.02825450963058777 0 0.23785633878351861 0.021498397417035839 0 0.24784890528390521 0.023156895577430951 0 0.24275056831936179 0.02825450963058777 0 0.23896680758935041 0.032101947244611899 0 0.23785633878351861 0.021498397417035839 0 0.24275056831936179 0.02825450963058777 0 0.2307987287914042 0.037220651344788358 0 0.23785633878351861 0.021498397417035839 0 0.22777517113094431 0.01357464201366879 0 0.2307987287914042 0.037220651344788358 0 0.22777517113094431 0.01357464201366879 0 0.21516492214520791 0.022011181026907061 0 0.2307987287914042 0.037220651344788358 0 0.22777517113094431 0.01357464201366879 0 0.22777517113094431 0.01357464201366879 0 0.21802032041234901 0.0037211667715176091 0 0.2247516134704845 -0.01007136731745076 0 0.22777517113094431 0.01357464201366879 0 0.2361617531247045 -0.001793522683003997 0 0.2247516134704845 -0.01007136731745076 0 0.22777517113094431 0.01357464201366879 0 0.21802032041234901 0.0037211667715176091 0 0.21516492214520791 0.022011181026907061 0 0.22777517113094431 0.01357464201366879 0 0.2247516134704845 -0.01007136731745076 0 0.20583623999187731 0.0025834412024074061 0 0.21516492214520791 0.022011181026907061 0 0.20453764123966109 0.01736137922292872 0 0.20583623999187731 0.0025834412024074061 0 0.21802032041234901 0.0037211667715176091 0 0.21516492214520791 0.022011181026907061 0 0.20583623999187731 0.0025834412024074061 0 0.21516492214520791 0.022011181026907061 0 0.20583623999187731 0.0025834412024074061 0 0.20453764123966109 0.01736137922292872 0 0.21516492214520791 0.022011181026907061 0 0.20453764123966109 0.01736137922292872 0 0.2170906348297395 0.037676551496482802 0 0.20453764123966109 0.01736137922292872 0 0.2170906348297395 0.037676551496482802 0 0.20318744729152821 0.032726465972898078 0 0.20453764123966109 0.01736137922292872 0 0.2170906348297395 0.037676551496482802 0 0.20453764123966109 0.01736137922292872 0 0.20318744729152821 0.032726465972898078 0 0.20453764123966109 0.01736137922292872 0 0.1934946504078435 0.025033154133055079 0 0.20318744729152821 0.032726465972898078 0 0.1934946504078435 0.025033154133055079 0 0.19211039227765669 0.036080624925994682 0 0.17942618474983341 0.022896598259985919 0 0.1934946504078435 0.025033154133055079 0 0.1904909139827124 0.01420000755077565 0 0.17942618474983341 0.022896598259985919 0 0.20453764123966109 0.01736137922292872 0 0.1934946504078435 0.025033154133055079 0 0.1904909139827124 0.01420000755077565 0 0.1904909139827124 0.01420000755077565 0 0.1956107411484494 0.0029145055015004332 0 0.17938535236777481 0.0027944006364079761 0 0.20453764123966109 0.01736137922292872 0 0.1956107411484494 0.0029145055015004332 0 0.20453764123966109 0.01736137922292872 0 0.1904909139827124 0.01420000755077565 0 0.1956107411484494 0.0029145055015004332 0 0.20583623999187731 0.0025834412024074061 0 0.20453764123966109 0.01736137922292872 0 0.1956107411484494 0.0029145055015004332 0 0.2296436284198182 0.057991723770036717 0 0.21101901830707359 0.062055273380532613 0 0.21489763372500659 0.05145377534247992 0 0.21101901830707359 0.062055273380532613 0 0.21489763372500659 0.05145377534247992 0 0.20183725334339489 0.048091552722867498 0 0.21489763372500659 0.05145377534247992 0 0.2170906348297395 0.037676551496482802 0 0.20183725334339489 0.048091552722867498 0 0.2170906348297395 0.037676551496482802 0 0.20318744729152821 0.032726465972898078 0 0.20183725334339489 0.048091552722867498 0 0.20318744729152821 0.032726465972898078 0 0.20183725334339489 0.048091552722867498 0 0.19211039227765669 0.036080624925994682 0 0.20183725334339489 0.048091552722867498 0 0.18146230776438921 0.044726172770816273 0 0.20318744729152821 0.032726465972898078 0 0.19211039227765669 0.036080624925994682 0 0.20183725334339489 0.048091552722867498 0 0.1934946504078435 0.025033154133055079 0 0.20318744729152821 0.032726465972898078 0 0.19211039227765669 0.036080624925994682 0 0.1935453454885307 0.063003581492086208 0 0.20183725334339489 0.048091552722867498 0 0.18146230776438921 0.044726172770816273 0 0.1935453454885307 0.063003581492086208 0 0.21101901830707359 0.062055273380532613 0 0.20183725334339489 0.048091552722867498 0 0.17704955745565421 0.062213082836407363 0 0.18146230776438921 0.044726172770816273 0 0.16313197808258861 0.051371843488125499 0 0.1935453454885307 0.063003581492086208 0 0.17704955745565421 0.062213082836407363 0 0.18146230776438921 0.044726172770816273 0 0.19211039227765669 0.036080624925994682 0 0.18146230776438921 0.044726172770816273 0 0.17942618474983341 0.022896598259985919 0 0.18146230776438921 0.044726172770816273 0 0.16826942219794719 0.034367364014807229 0 0.17942618474983341 0.022896598259985919 0 0.16826942219794719 0.034367364014807229 0 0.16313197808258861 0.051371843488125499 0 0.14588460505586989 0.035038423222687048 0 0.18146230776438921 0.044726172770816273 0 0.16826942219794719 0.034367364014807229 0 0.16313197808258861 0.051371843488125499 0 0.17704955745565421 0.062213082836407363 0 0.16313197808258861 0.051371843488125499 0 0.16154148961911949 0.073409021888922246 0 0.16313197808258861 0.051371843488125499 0 0.1465288078007225 0.060989527699281183 0 0.16154148961911949 0.073409021888922246 0 0.17938535236777481 0.0027944006364079761 0 0.17942618474983341 0.022896598259985919 0 0.16425275925440139 0.0057972351868864763 0 0.1904909139827124 0.01420000755077565 0 0.17938535236777481 0.0027944006364079761 0 0.17942618474983341 0.022896598259985919 0 0.17942618474983341 0.022896598259985919 0 0.1584365930047556 0.0217432882981984 0 0.16425275925440139 0.0057972351868864763 0 0.16826942219794719 0.034367364014807229 0 0.17942618474983341 0.022896598259985919 0 0.1584365930047556 0.0217432882981984 0 0.16826942219794719 0.034367364014807229 0 0.1584365930047556 0.0217432882981984 0 0.14588460505586989 0.035038423222687048 0 0.1584365930047556 0.0217432882981984 0 0.16425275925440139 0.0057972351868864763 0 0.14524040231101731 0.0090873187460928928 0 0.16425275925440139 0.0057972351868864763 0 0.14524040231101731 0.0090873187460928928 0 0.1513951225051974 -0.0045333370058090999 0 0.14524040231101731 0.0090873187460928928 0 0.1513951225051974 -0.0045333370058090999 0 0.13782170711226721 -0.003679602821842598 0 0.14524040231101731 0.0090873187460928928 0 0.13339656961897511 0.01269598775248857 0 0.14588460505586989 0.035038423222687048 0 0.1584365930047556 0.0217432882981984 0 0.14524040231101731 0.0090873187460928928 0 0.14588460505586989 0.035038423222687048 0 0.14524040231101731 0.0090873187460928928 0 0.14588460505586989 0.035038423222687048 0 0.12743380844766991 0.024261376410783551 0 0.13339656961897511 0.01269598775248857 0 0.14588460505586989 0.035038423222687048 0 0.14524040231101731 0.0090873187460928928 0 0.13339656961897511 0.01269598775248857 0 0.13566439556749521 0.0051779182556460166 0 0.1216211333496255 0.009637607208076996 0 0.12743380844766991 0.024261376410783551 0 0.13339656961897511 0.01269598775248857 0 0.1216211333496255 0.009637607208076996 0 0.13339656961897511 0.01269598775248857 0 0.1261989032277212 0.0026079693458452009 0 0.13339656961897511 0.01269598775248857 0 0.1261989032277212 0.0026079693458452009 0 0.13566439556749521 0.0051779182556460166 0 0.14524040231101731 0.0090873187460928928 0 0.13566439556749521 0.0051779182556460166 0 0.13782170711226721 -0.003679602821842598 0 0.1261989032277212 0.0026079693458452009 0 0.13566439556749521 0.0051779182556460166 0 0.13782170711226721 -0.003679602821842598 0 0.16313197808258861 0.051371843488125499 0 0.1465288078007225 0.060989527699281183 0 0.14588460505586989 0.035038423222687048 0 0.1465288078007225 0.060989527699281183 0 0.14588460505586989 0.035038423222687048 0 0.1465288078007225 0.060989527699281183 0 0.14588460505586989 0.035038423222687048 0 0.12874492345406871 0.042423756310692548 0 0.12743380844766991 0.024261376410783551 0 0.14588460505586989 0.035038423222687048 0 0.12874492345406871 0.042423756310692548 0 0.1465288078007225 0.060989527699281183 0 0.12874492345406871 0.042423756310692548 0 0.12597500637704179 0.063456803070288448 0 0.1465288078007225 0.060989527699281183 0 0.12597500637704179 0.063456803070288448 0 0.1297420299519457 0.083512858990461514 0 0.1465288078007225 0.060989527699281183 0 0.14717301054557511 0.08694063217587529 0 0.1465288078007225 0.060989527699281183 0 0.14717301054557511 0.08694063217587529 0 0.16154148961911949 0.073409021888922246 0 0.1465288078007225 0.060989527699281183 0 0.14717301054557511 0.08694063217587529 0 0.1297420299519457 0.083512858990461514 0 0.14717301054557511 0.08694063217587529 0 0.1297420299519457 0.083512858990461514 0 0.13425392639330311 0.1026690202795485 0 0.1227615119436771 0.099160115349369526 0 0.1297420299519457 0.083512858990461514 0 0.13425392639330311 0.1026690202795485 0 0.120211814808019 0.1164904577656751 0 0.1227615119436771 0.099160115349369526 0 0.13425392639330311 0.1026690202795485 0 0.120211814808019 0.1164904577656751 0 0.1244864210801282 0.13847856731975891 0 0.13470863070916811 0.1190903610557298 0 0.13425392639330311 0.1026690202795485 0 0.13470863070916811 0.1190903610557298 0 0.14781721329042771 0.1128917366524694 0 0.120211814808019 0.1164904577656751 0 0.13425392639330311 0.1026690202795485 0 0.13470863070916811 0.1190903610557298 0 0.14846141603528029 0.13884284112906359 0 0.13470863070916811 0.1190903610557298 0 0.14781721329042771 0.1128917366524694 0 0.14717301054557511 0.08694063217587529 0 0.14781721329042771 0.1128917366524694 0 0.14717301054557511 0.08694063217587529 0 0.14781721329042771 0.1128917366524694 0 0.15782390598150811 0.1006487343899744 0 0.14717301054557511 0.08694063217587529 0 0.13425392639330311 0.1026690202795485 0 0.14781721329042771 0.1128917366524694 0 0.14781721329042771 0.1128917366524694 0 0.15782390598150811 0.1006487343899744 0 0.1680189366628613 0.1105444335757631 0 0.15782390598150811 0.1006487343899744 0 0.1680189366628613 0.1105444335757631 0 0.16828646342716849 0.092218135155789888 0 0.1680189366628613 0.1105444335757631 0 0.1788391864588344 0.1042491331550169 0 0.16828646342716849 0.092218135155789888 0 0.16371743706791961 0.127106245685355 0 0.1680189366628613 0.1105444335757631 0 0.17652714571659919 0.1225207110813805 0 0.16371743706791961 0.127106245685355 0 0.14781721329042771 0.1128917366524694 0 0.1680189366628613 0.1105444335757631 0 0.1680189366628613 0.1105444335757631 0 0.17652714571659919 0.1225207110813805 0 0.18397245201889301 0.1139667288199863 0 0.1680189366628613 0.1105444335757631 0 0.18397245201889301 0.1139667288199863 0 0.1788391864588344 0.1042491331550169 0 0.1895043666122872 0.12708954340363471 0 0.17652714571659919 0.1225207110813805 0 0.18397245201889301 0.1139667288199863 0 0.1788391864588344 0.1042491331550169 0 0.1871913883155433 0.094760398300485577 0 0.16828646342716849 0.092218135155789888 0 0.1912499115197244 0.10611490640642759 0 0.18397245201889301 0.1139667288199863 0 0.1788391864588344 0.1042491331550169 0 0.1912499115197244 0.10611490640642759 0 0.1788391864588344 0.1042491331550169 0 0.1871913883155433 0.094760398300485577 0 0.18728584679723509 0.079053552789066964 0 0.16154148961911949 0.073409021888922246 0 0.16828646342716849 0.092218135155789888 0 0.1871913883155433 0.094760398300485577 0 0.18728584679723509 0.079053552789066964 0 0.16828646342716849 0.092218135155789888 0 0.1935453454885307 0.063003581492086208 0 0.17704955745565421 0.062213082836407363 0 0.18728584679723509 0.079053552789066964 0 0.17704955745565421 0.062213082836407363 0 0.18728584679723509 0.079053552789066964 0 0.16154148961911949 0.073409021888922246 0 0.14717301054557511 0.08694063217587529 0 0.16154148961911949 0.073409021888922246 0 0.16828646342716849 0.092218135155789888 0 0.14717301054557511 0.08694063217587529 0 0.15782390598150811 0.1006487343899744 0 0.16828646342716849 0.092218135155789888 0 0.1002971045671092 0.47607162365764782 0 0.10104103060238991 0.5 0 0.1233521795822832 0.47534509346272952 0 0.10104103060238991 0.5 0 0.1233521795822832 0.47534509346272952 0 0.1310630874019614 0.49999999999998029 0 0.1233521795822832 0.47534509346272952 0 0.1156412717625995 0.45069018692548041 0 0.1002971045671092 0.47607162365764782 0 0.1233521795822832 0.47534509346272952 0 0.1156412717625995 0.45069018692548041 0 0.1233521795822832 0.47534509346272952 0 0.1156412717625995 0.45069018692548041 0 0.12604579967045021 0.44839681128582148 0 0.1196165304270181 0.42777445133438408 0 0.12604579967045021 0.44839681128582148 0 0.1177367500270857 0.43959349922546892 0 0.1196165304270181 0.42777445133438408 0 0.12604579967045021 0.44839681128582148 0 0.1177367500270857 0.43959349922546892 0 0.1156412717625995 0.45069018692548041 0 0.10964339824827569 0.43151254735618949 0 0.1156412717625995 0.45069018692548041 0 0.10964339824827569 0.43151254735618949 0 0.1156412717625995 0.45069018692548041 0 0.12604579967045021 0.44839681128582148 0 0.1177367500270857 0.43959349922546892 0 0.1156412717625995 0.45069018692548041 0 0.12604579967045021 0.44839681128582148 0 0.1156412717625995 0.45069018692548041 0 0.099554400596238879 0.44507646154304192 0 0.087471860041463192 0.45689931464342598 0 0.099554400596238879 0.44507646154304192 0 0.08303551651736274 0.44148562452645029 0 0.10964339824827569 0.43151254735618949 0 0.1156412717625995 0.45069018692548041 0 0.099554400596238879 0.44507646154304192 0 0.10964339824827569 0.43151254735618949 0 0.1156412717625995 0.45069018692548041 0 0.087471860041463192 0.45689931464342598 0 0.1002971045671092 0.47607162365764782 0 0.1156412717625995 0.45069018692548041 0 0.087471860041463192 0.45689931464342598 0 0.087471860041463192 0.45689931464342598 0 0.08303551651736274 0.44148562452645029 0 0.071559364916399013 0.45323802080698539 0 0.099554400596238879 0.44507646154304192 0 0.087471860041463192 0.45689931464342598 0 0.08303551651736274 0.44148562452645029 0 0.08303551651736274 0.44148562452645029 0 0.071559364916399013 0.45323802080698539 0 0.056427634786443352 0.45145870169669378 0 0.08303551651736274 0.44148562452645029 0 0.056427634786443352 0.45145870169669378 0 0.065749003606344142 0.43567088000983212 0 0.08303551651736274 0.44148562452645029 0 0.056427634786443352 0.45145870169669378 0 0.087471860041463192 0.45689931464342598 0 0.071559364916399013 0.45323802080698539 0 0.059302448320326773 0.46310844236137172 0 0.087471860041463192 0.45689931464342598 0 0.059302448320326773 0.46310844236137172 0 0.087471860041463192 0.45689931464342598 0 0.077288316189544126 0.47770257046115411 0 0.059302448320326773 0.46310844236137172 0 0.077288316189544126 0.47770257046115411 0 0.057196733504885057 0.48408353010547961 0 0.059302448320326773 0.46310844236137172 0 0.1002971045671092 0.47607162365764782 0 0.087471860041463192 0.45689931464342598 0 0.077288316189544126 0.47770257046115411 0 0.10104103060238991 0.5 0 0.077288316189544126 0.47770257046115411 0 0.071018973802818408 0.5 0 0.1002971045671092 0.47607162365764782 0 0.10104103060238991 0.5 0 0.077288316189544126 0.47770257046115411 0 0.077288316189544126 0.47770257046115411 0 0.071018973802818408 0.5 0 0.057196733504885057 0.48408353010547961 0 0.071018973802818408 0.5 0 0.057196733504885057 0.48408353010547961 0 0.04099691700324698 0.5 0 0.057196733504885057 0.48408353010547961 0 0.049558195755477583 0.47220002561093583 0 0.059302448320326773 0.46310844236137172 0 0.057196733504885057 0.48408353010547961 0 0.049558195755477583 0.47220002561093583 0 0.037247135306303962 0.47998112572585361 0 0.049558195755477583 0.47220002561093583 0 0.037247135306303962 0.47998112572585361 0 0.043897346494196653 0.46073038856762383 0 0.057196733504885057 0.48408353010547961 0 0.037247135306303962 0.47998112572585361 0 0.04099691700324698 0.5 0 0.037247135306303962 0.47998112572585361 0 0.0033313810052136988 0.4718978639100726 0 0.01097486020367555 0.5 0 0.037247135306303962 0.47998112572585361 0 0.0033313810052136988 0.4718978639100726 0 0.028326918853331901 0.46146119989757278 0 0.037247135306303962 0.47998112572585361 0 0.04099691700324698 0.5 0 0.01097486020367555 0.5 0 -0.0020551185011731788 0.45054070506029809 0 0.015479751767126239 0.44775892075672707 0 0.0050144725327109689 0.4320986370502824 0 -0.0020551185011731788 0.45054070506029809 0 0.0033313810052136988 0.4718978639100726 0 0.015479751767126239 0.44775892075672707 0 0.0033313810052136988 0.4718978639100726 0 0.015479751767126239 0.44775892075672707 0 0.028326918853331901 0.46146119989757278 0 0.028326918853331901 0.46146119989757278 0 0.033394578539273127 0.43362143648006879 0 0.015479751767126239 0.44775892075672707 0 0.028326918853331901 0.46146119989757278 0 0.033394578539273127 0.43362143648006879 0 0.043775887130224823 0.44746332361833913 0 0.050276299037973891 0.43480957487421301 0 0.033394578539273127 0.43362143648006879 0 0.028326918853331901 0.46146119989757278 0 0.043775887130224823 0.44746332361833913 0 0.033394578539273127 0.43362143648006879 0 0.037247135306303962 0.47998112572585361 0 0.028326918853331901 0.46146119989757278 0 0.043897346494196653 0.46073038856762383 0 0.028326918853331901 0.46146119989757278 0 0.043775887130224823 0.44746332361833913 0 0.043897346494196653 0.46073038856762383 0 0.049558195755477583 0.47220002561093583 0 0.043897346494196653 0.46073038856762383 0 0.059302448320326773 0.46310844236137172 0 0.043897346494196653 0.46073038856762383 0 0.059302448320326773 0.46310844236137172 0 0.056427634786443352 0.45145870169669378 0 0.043775887130224823 0.44746332361833913 0 0.043897346494196653 0.46073038856762383 0 0.056427634786443352 0.45145870169669378 0 0.071559364916399013 0.45323802080698539 0 0.059302448320326773 0.46310844236137172 0 0.056427634786443352 0.45145870169669378 0 0.043775887130224823 0.44746332361833913 0 0.056427634786443352 0.45145870169669378 0 0.050276299037973891 0.43480957487421301 0 0.056427634786443352 0.45145870169669378 0 0.050276299037973891 0.43480957487421301 0 0.065749003606344142 0.43567088000983212 0 0.061643849023776627 0.42221442436011031 0 0.050276299037973891 0.43480957487421301 0 0.065749003606344142 0.43567088000983212 0 0.061643849023776627 0.42221442436011031 0 0.038462238225214371 0.40578167306256457 0 0.060510190233211782 0.40582822694787102 0 0.061643849023776627 0.42221442436011031 0 0.050276299037973891 0.43480957487421301 0 0.038462238225214371 0.40578167306256457 0 0.033394578539273127 0.43362143648006879 0 0.038462238225214371 0.40578167306256457 0 0.050276299037973891 0.43480957487421301 0 0.033394578539273127 0.43362143648006879 0 0.038462238225214371 0.40578167306256457 0 0.015479751767126239 0.44775892075672707 0 0.033394578539273127 0.43362143648006879 0 0.020600206609728399 0.42015608389025361 0 0.020600206609728399 0.42015608389025361 0 0.01774486089693748 0.4017218956846289 0 0.038462238225214371 0.40578167306256457 0 0.033394578539273127 0.43362143648006879 0 0.020600206609728399 0.42015608389025361 0 0.038462238225214371 0.40578167306256457 0 0.020600206609728399 0.42015608389025361 0 0.00042449267140891263 0.41049965572570318 0 0.01774486089693748 0.4017218956846289 0 0.020600206609728399 0.42015608389025361 0 0.00042449267140891263 0.41049965572570318 0 0.0050144725327109689 0.4320986370502824 0 0.015479751767126239 0.44775892075672707 0 0.020600206609728399 0.42015608389025361 0 0.0050144725327109689 0.4320986370502824 0 -0.0081722306902861364 0.37476184234240079 0 0.0057941121889391687 0.38870438886197972 0 0.0119649305746187 0.36479686370585201 0 0.0057941121889391687 0.38870438886197972 0 0.023443254789396559 0.3834676768826436 0 0.0119649305746187 0.36479686370585201 0 0.00042449267140891263 0.41049965572570318 0 0.0057941121889391687 0.38870438886197972 0 0.01774486089693748 0.4017218956846289 0 0.01774486089693748 0.4017218956846289 0 0.023443254789396559 0.3834676768826436 0 0.038462238225214371 0.40578167306256457 0 0.0057941121889391687 0.38870438886197972 0 0.01774486089693748 0.4017218956846289 0 0.023443254789396559 0.3834676768826436 0 0.023443254789396559 0.3834676768826436 0 0.043529897911155621 0.37794190964506053 0 0.038462238225214371 0.40578167306256457 0 0.043529897911155621 0.37794190964506053 0 0.038462238225214371 0.40578167306256457 0 0.043529897911155621 0.37794190964506053 0 0.038462238225214371 0.40578167306256457 0 0.05371276285881954 0.39227348754913399 0 0.038462238225214371 0.40578167306256457 0 0.05371276285881954 0.39227348754913399 0 0.060510190233211782 0.40582822694787102 0 0.05371276285881954 0.39227348754913399 0 0.060510190233211782 0.40582822694787102 0 0.069805006452150625 0.39505369833525161 0 0.05371276285881954 0.39227348754913399 0 0.059025417862616211 0.37581221330239128 0 0.069805006452150625 0.39505369833525161 0 0.043529897911155621 0.37794190964506053 0 0.05371276285881954 0.39227348754913399 0 0.059025417862616211 0.37581221330239128 0 0.059025417862616211 0.37581221330239128 0 0.075442760067996897 0.37541546110965229 0 0.069805006452150625 0.39505369833525161 0 0.075442760067996897 0.37541546110965229 0 0.092665631270852158 0.39205613980766663 0 0.075442760067996897 0.37541546110965229 0 0.092665631270852158 0.39205613980766663 0 0.069805006452150625 0.39505369833525161 0 0.075442760067996897 0.37541546110965229 0 0.092665631270852158 0.39205613980766663 0 0.091446543318658244 0.37332980570593671 0 0.092665631270852158 0.39205613980766663 0 0.097120575594281167 0.39147199320395332 0 0.091446543318658244 0.37332980570593671 0 0.088650351368725747 0.40286173594739022 0 0.092665631270852158 0.39205613980766663 0 0.069805006452150625 0.39505369833525161 0 0.092665631270852158 0.39205613980766663 0 0.069805006452150625 0.39505369833525161 0 0.088650351368725747 0.40286173594739022 0 0.069805006452150625 0.39505369833525161 0 0.078927094606097772 0.41381785143229471 0 0.088650351368725747 0.40286173594739022 0 0.092665631270852158 0.39205613980766663 0 0.099311538616055489 0.39847739254106929 0 0.060510190233211782 0.40582822694787102 0 0.069805006452150625 0.39505369833525161 0 0.078927094606097772 0.41381785143229471 0 0.061643849023776627 0.42221442436011031 0 0.076329204916435384 0.42762019670138363 0 0.078927094606097772 0.41381785143229471 0 0.061643849023776627 0.42221442436011031 0 0.060510190233211782 0.40582822694787102 0 0.078927094606097772 0.41381785143229471 0 0.08303551651736274 0.44148562452645029 0 0.065749003606344142 0.43567088000983212 0 0.076329204916435384 0.42762019670138363 0 0.061643849023776627 0.42221442436011031 0 0.065749003606344142 0.43567088000983212 0 0.076329204916435384 0.42762019670138363 0 0.08303551651736274 0.44148562452645029 0 0.076329204916435384 0.42762019670138363 0 0.090646902388115069 0.42579768937346613 0 0.076329204916435384 0.42762019670138363 0 0.090646902388115069 0.42579768937346613 0 0.078927094606097772 0.41381785143229471 0 0.088650351368725747 0.40286173594739022 0 0.078927094606097772 0.41381785143229471 0 0.1044774684321645 0.41499496994862978 0 0.090646902388115069 0.42579768937346613 0 0.078927094606097772 0.41381785143229471 0 0.1044774684321645 0.41499496994862978 0 0.1044774684321645 0.41499496994862978 0 0.11529845195220061 0.41392389301514249 0 0.099311538616055489 0.39847739254106929 0 0.1044774684321645 0.41499496994862978 0 0.099311538616055489 0.39847739254106929 0 0.08303551651736274 0.44148562452645029 0 0.090646902388115069 0.42579768937346613 0 0.10964339824827569 0.43151254735618949 0 0.090646902388115069 0.42579768937346613 0 0.1044774684321645 0.41499496994862978 0 0.10964339824827569 0.43151254735618949 0 0.08303551651736274 0.44148562452645029 0 0.10964339824827569 0.43151254735618949 0 0.1044774684321645 0.41499496994862978 0 0.10964339824827569 0.43151254735618949 0 0.11225896226491459 0.4220514654135864 0 0.1044774684321645 0.41499496994862978 0 0.10964339824827569 0.43151254735618949 0 0.1177367500270857 0.43959349922546892 0 0.10964339824827569 0.43151254735618949 0 0.1196165304270181 0.42777445133438408 0 0.10964339824827569 0.43151254735618949 0 0.1196165304270181 0.42777445133438408 0 0.10964339824827569 0.43151254735618949 0 0.11225896226491459 0.4220514654135864 0 0.1196165304270181 0.42777445133438408 0 0.1196165304270181 0.42777445133438408 0 0.11529845195220061 0.41392389301514249 0 0.12683379406011261 0.4250693007365704 0 0.1196165304270181 0.42777445133438408 0 0.12683379406011261 0.4250693007365704 0 0.11529845195220061 0.41392389301514249 0 0.11394803889608519 0.40959234255864641 0 0.099311538616055489 0.39847739254106929 0 0.11529845195220061 0.41392389301514249 0 0.11394803889608519 0.40959234255864641 0 0.1216096531045006 0.40813391523694248 0 0.11529845195220061 0.41392389301514249 0 0.11394803889608519 0.40959234255864641 0 0.11225896226491459 0.4220514654135864 0 0.1196165304270181 0.42777445133438408 0 0.11529845195220061 0.41392389301514249 0 0.1044774684321645 0.41499496994862978 0 0.11225896226491459 0.4220514654135864 0 0.11529845195220061 0.41392389301514249 0 0.11529845195220061 0.41392389301514249 0 0.12683379406011261 0.4250693007365704 0 0.11529845195220061 0.41392389301514249 0 0.1278511074300627 0.41350526162478779 0 0.12683379406011261 0.4250693007365704 0 0.1196165304270181 0.42777445133438408 0 0.11529845195220061 0.41392389301514249 0 0.11529845195220061 0.41392389301514249 0 0.1216096531045006 0.40813391523694248 0 0.1278511074300627 0.41350526162478779 0 0.11433328464751411 0.3997436954301713 0 0.1234906690191994 0.38801426188444588 0 0.097120575594281167 0.39147199320395332 0 0.1216096531045006 0.40813391523694248 0 0.11433328464751411 0.3997436954301713 0 0.1305192326549621 0.40277226715597292 0 0.11433328464751411 0.3997436954301713 0 0.1234906690191994 0.38801426188444588 0 0.1305192326549621 0.40277226715597292 0 0.11394803889608519 0.40959234255864641 0 0.1216096531045006 0.40813391523694248 0 0.11433328464751411 0.3997436954301713 0 0.1234906690191994 0.38801426188444588 0 0.1087496426983619 0.37787658157842979 0 0.1221008760585142 0.37017655509975561 0 0.1234906690191994 0.38801426188444588 0 0.097120575594281167 0.39147199320395332 0 0.1234906690191994 0.38801426188444588 0 0.1087496426983619 0.37787658157842979 0 0.097120575594281167 0.39147199320395332 0 0.1087496426983619 0.37787658157842979 0 0.097120575594281167 0.39147199320395332 0 0.091446543318658244 0.37332980570593671 0 0.097120575594281167 0.39147199320395332 0 0.091446543318658244 0.37332980570593671 0 0.11529845195220061 0.41392389301514249 0 0.099311538616055489 0.39847739254106929 0 0.088650351368725747 0.40286173594739022 0 0.1044774684321645 0.41499496994862978 0 0.099311538616055489 0.39847739254106929 0 0.092665631270852158 0.39205613980766663 0 0.097120575594281167 0.39147199320395332 0 0.099311538616055489 0.39847739254106929 0 0.11433328464751411 0.3997436954301713 0 0.097120575594281167 0.39147199320395332 0 0.099311538616055489 0.39847739254106929 0 0.092665631270852158 0.39205613980766663 0 0.097120575594281167 0.39147199320395332 0 0.097120575594281167 0.39147199320395332 0 0.099311538616055489 0.39847739254106929 0 0.092665631270852158 0.39205613980766663 0 0.099311538616055489 0.39847739254106929 0 0.11394803889608519 0.40959234255864641 0 0.11433328464751411 0.3997436954301713 0 0.099311538616055489 0.39847739254106929 0 0.11391307534017329 0.3515239079349971 0 0.1010065773571176 0.32982523944418651 0 0.085772511043044064 0.35518761820791728 0 0.11391307534017329 0.3515239079349971 0 0.085772511043044064 0.35518761820791728 0 0.11391307534017329 0.3515239079349971 0 0.085772511043044064 0.35518761820791728 0 0.091446543318658244 0.37332980570593671 0 0.1087496426983619 0.37787658157842979 0 0.11391307534017329 0.3515239079349971 0 0.091446543318658244 0.37332980570593671 0 0.1221008760585142 0.37017655509975561 0 0.11391307534017329 0.3515239079349971 0 0.13009308749075049 0.35876224311392679 0 0.1087496426983619 0.37787658157842979 0 0.1221008760585142 0.37017655509975561 0 0.11391307534017329 0.3515239079349971 0 0.11391307534017329 0.3515239079349971 0 0.1010065773571176 0.32982523944418651 0 0.1291399407940699 0.33050025340282368 0 0.115870718493172 0.31645391494932662 0 0.1010065773571176 0.32982523944418651 0 0.1291399407940699 0.33050025340282368 0 0.115870718493172 0.31645391494932662 0 0.1010065773571176 0.32982523944418651 0 0.10034304983929181 0.30742926072663129 0 0.1010065773571176 0.32982523944418651 0 0.086391577073358816 0.31171826807216929 0 0.10034304983929181 0.30742926072663129 0 0.077072892142698066 0.32737140046632462 0 0.085772511043044064 0.35518761820791728 0 0.1010065773571176 0.32982523944418651 0 0.077072892142698066 0.32737140046632462 0 0.085772511043044064 0.35518761820791728 0 0.1010065773571176 0.32982523944418651 0 0.077072892142698066 0.32737140046632462 0 0.086391577073358816 0.31171826807216929 0 0.077072892142698066 0.32737140046632462 0 0.068373273242353566 0.29955518272473147 0 0.077072892142698066 0.32737140046632462 0 0.068373273242353566 0.29955518272473147 0 0.086391577073358816 0.31171826807216929 0 0.077072892142698066 0.32737140046632462 0 0.057389085465333667 0.31921427348357079 0 0.068373273242353566 0.29955518272473147 0 0.077072892142698066 0.32737140046632462 0 0.065993681028360632 0.3473420820810833 0 0.085772511043044064 0.35518761820791728 0 0.077072892142698066 0.32737140046632462 0 0.065993681028360632 0.3473420820810833 0 0.053749438591053827 0.33956439264220473 0 0.077072892142698066 0.32737140046632462 0 0.053749438591053827 0.33956439264220473 0 0.057389085465333667 0.31921427348357079 0 0.085772511043044064 0.35518761820791728 0 0.058219888865144363 0.35877478241163541 0 0.065993681028360632 0.3473420820810833 0 0.085772511043044064 0.35518761820791728 0 0.058219888865144363 0.35877478241163541 0 0.075442760067996897 0.37541546110965229 0 0.085772511043044064 0.35518761820791728 0 0.091446543318658244 0.37332980570593671 0 0.085772511043044064 0.35518761820791728 0 0.091446543318658244 0.37332980570593671 0 0.059025417862616211 0.37581221330239128 0 0.075442760067996897 0.37541546110965229 0 0.058219888865144363 0.35877478241163541 0 0.075442760067996897 0.37541546110965229 0 0.058219888865144363 0.35877478241163541 0 0.075442760067996897 0.37541546110965229 0 0.085772511043044064 0.35518761820791728 0 0.058219888865144363 0.35877478241163541 0 0.048966903589699351 0.36857868210445721 0 0.058219888865144363 0.35877478241163541 0 0.035092409719881403 0.36178582305874302 0 0.059025417862616211 0.37581221330239128 0 0.048966903589699351 0.36857868210445721 0 0.058219888865144363 0.35877478241163541 0 0.043529897911155621 0.37794190964506053 0 0.059025417862616211 0.37581221330239128 0 0.048966903589699351 0.36857868210445721 0 0.065993681028360632 0.3473420820810833 0 0.05515367449986304 0.35581221667733592 0 0.053749438591053827 0.33956439264220473 0 0.058219888865144363 0.35877478241163541 0 0.05515367449986304 0.35581221667733592 0 0.035092409719881403 0.36178582305874302 0 0.05515367449986304 0.35581221667733592 0 0.04177666864155137 0.34816991737265618 0 0.053749438591053827 0.33956439264220473 0 0.065993681028360632 0.3473420820810833 0 0.058219888865144363 0.35877478241163541 0 0.05515367449986304 0.35581221667733592 0 0.058219888865144363 0.35877478241163541 0 0.05515367449986304 0.35581221667733592 0 0.05515367449986304 0.35581221667733592 0 0.04177666864155137 0.34816991737265618 0 0.035092409719881403 0.36178582305874302 0 0.04177666864155137 0.34816991737265618 0 0.035092409719881403 0.36178582305874302 0 0.024720618402768849 0.34737608664210928 0 0.043529897911155621 0.37794190964506053 0 0.048966903589699351 0.36857868210445721 0 0.035092409719881403 0.36178582305874302 0 0.023443254789396559 0.3834676768826436 0 0.043529897911155621 0.37794190964506053 0 0.035092409719881403 0.36178582305874302 0 0.058219888865144363 0.35877478241163541 0 0.035092409719881403 0.36178582305874302 0 0.035092409719881403 0.36178582305874302 0 0.0119649305746187 0.36479686370585201 0 0.023443254789396559 0.3834676768826436 0 0.035092409719881403 0.36178582305874302 0 0.0119649305746187 0.36479686370585201 0 0.035092409719881403 0.36178582305874302 0 0.024720618402768849 0.34737608664210928 0 0.0119649305746187 0.36479686370585201 0 -0.0071854820806393216 0.35650570035374268 0 0.0062736062189134396 0.34571272286146032 0 0.0119649305746187 0.36479686370585201 0 0.024720618402768849 0.34737608664210928 0 0.0062736062189134396 0.34571272286146032 0 0.0119649305746187 0.36479686370585201 0 0.011301192970428919 0.31704489445008782 0 5.0438710159473661e-05 0.32971074027311642 0 0.020213115810670989 0.33008531744466868 0 0.0062736062189134396 0.34571272286146032 0 5.0438710159473661e-05 0.32971074027311642 0 0.020213115810670989 0.33008531744466868 0 0.024720618402768849 0.34737608664210928 0 0.020213115810670989 0.33008531744466868 0 0.039095605455359943 0.33236742185381579 0 0.024720618402768849 0.34737608664210928 0 0.0062736062189134396 0.34571272286146032 0 0.020213115810670989 0.33008531744466868 0 0.011301192970428919 0.31704489445008782 0 0.039837233106395302 0.30830003858742278 0 0.011301192970428919 0.31704489445008782 0 0.020213115810670989 0.33008531744466868 0 0.039837233106395302 0.30830003858742278 0 0.020213115810670989 0.33008531744466868 0 0.039095605455359943 0.33236742185381579 0 0.039837233106395302 0.30830003858742278 0 0.039095605455359943 0.33236742185381579 0 0.057389085465333667 0.31921427348357079 0 0.039837233106395302 0.30830003858742278 0 0.04177666864155137 0.34816991737265618 0 0.039095605455359943 0.33236742185381579 0 0.053749438591053827 0.33956439264220473 0 0.04177666864155137 0.34816991737265618 0 0.024720618402768849 0.34737608664210928 0 0.039095605455359943 0.33236742185381579 0 0.039095605455359943 0.33236742185381579 0 0.053749438591053827 0.33956439264220473 0 0.057389085465333667 0.31921427348357079 0 0.057389085465333667 0.31921427348357079 0 0.039837233106395302 0.30830003858742278 0 0.068373273242353566 0.29955518272473147 0 0.039837233106395302 0.30830003858742278 0 0.068373273242353566 0.29955518272473147 0 0.039837233106395302 0.30830003858742278 0 0.062946606440340558 0.28220392319198367 0 0.068373273242353566 0.29955518272473147 0 0.039837233106395302 0.30830003858742278 0 0.032739022180783617 0.27767070901468999 0 0.062946606440340558 0.28220392319198367 0 0.039837233106395302 0.30830003858742278 0 0.0079581047232592725 0.29048875437017019 0 0.032739022180783617 0.27767070901468999 0 0.011301192970428919 0.31704489445008782 0 0.039837233106395302 0.30830003858742278 0 0.0079581047232592725 0.29048875437017019 0 0.0079581047232592725 0.29048875437017019 0 0.032739022180783617 0.27767070901468999 0 -0.016822812734265089 0.30330679972565039 0 0.011301192970428919 0.31704489445008782 0 0.0079581047232592725 0.29048875437017019 0 0.0021022769219057442 0.25480250730218768 0 0.0052438462786615816 0.27123723023514762 0 0.01950363720937388 0.2582274057835981 0 0.014802131818638559 0.24478714921947259 0 0.0021022769219057442 0.25480250730218768 0 0.01950363720937388 0.2582274057835981 0 0.0079581047232592725 0.29048875437017019 0 0.0052438462786615816 0.27123723023514762 0 0.032739022180783617 0.27767070901468999 0 0.0052438462786615816 0.27123723023514762 0 0.01950363720937388 0.2582274057835981 0 0.032739022180783617 0.27767070901468999 0 0.01950363720937388 0.2582274057835981 0 0.033470539379269727 0.25802547295787309 0 0.032739022180783617 0.27767070901468999 0 0.030996760692661909 0.24267850632233659 0 0.01950363720937388 0.2582274057835981 0 0.033470539379269727 0.25802547295787309 0 0.033470539379269727 0.25802547295787309 0 0.032739022180783617 0.27767070901468999 0 0.048550107761670319 0.25684457583745562 0 0.030996760692661909 0.24267850632233659 0 0.033470539379269727 0.25802547295787309 0 0.048550107761670319 0.25684457583745562 0 0.032739022180783617 0.27767070901468999 0 0.057519939638322207 0.26485266365923732 0 0.032739022180783617 0.27767070901468999 0 0.048550107761670319 0.25684457583745562 0 0.057519939638322207 0.26485266365923732 0 0.057519939638322207 0.26485266365923732 0 0.062946606440340558 0.28220392319198367 0 0.032739022180783617 0.27767070901468999 0 0.057519939638322207 0.26485266365923732 0 0.062946606440340558 0.28220392319198367 0 0.050336965486230123 0.24188577564543279 0 0.048550107761670319 0.25684457583745562 0 0.057519939638322207 0.26485266365923732 0 0.050336965486230123 0.24188577564543279 0 0.057519939638322207 0.26485266365923732 0 0.057519939638322207 0.26485266365923732 0 0.076941421926016912 0.25480681118981641 0 0.072385028955824854 0.27028275276519409 0 0.067735116739930559 0.23991277386268431 0 0.057519939638322207 0.26485266365923732 0 0.076941421926016912 0.25480681118981641 0 0.057519939638322207 0.26485266365923732 0 0.076941421926016912 0.25480681118981641 0 0.096362904213725759 0.24476095872042289 0 0.076941421926016912 0.25480681118981641 0 0.099686526542021064 0.26125115726496673 0 0.076941421926016912 0.25480681118981641 0 0.087970666239859774 0.27430049136637258 0 0.099686526542021064 0.26125115726496673 0 0.076941421926016912 0.25480681118981641 0 0.087970666239859774 0.27430049136637258 0 0.072385028955824854 0.27028275276519409 0 0.087970666239859774 0.27430049136637258 0 0.072385028955824854 0.27028275276519409 0 0.076552016394863948 0.28330149013165351 0 0.072385028955824854 0.27028275276519409 0 0.062946606440340558 0.28220392319198367 0 0.076552016394863948 0.28330149013165351 0 0.057519939638322207 0.26485266365923732 0 0.072385028955824854 0.27028275276519409 0 0.062946606440340558 0.28220392319198367 0 0.062946606440340558 0.28220392319198367 0 0.068373273242353566 0.29955518272473147 0 0.076552016394863948 0.28330149013165351 0 0.068373273242353566 0.29955518272473147 0 0.085162092785332863 0.29441025699897261 0 0.062946606440340558 0.28220392319198367 0 0.076552016394863948 0.28330149013165351 0 0.068373273242353566 0.29955518272473147 0 0.068373273242353566 0.29955518272473147 0 0.085162092785332863 0.29441025699897261 0 0.068373273242353566 0.29955518272473147 0 0.086391577073358816 0.31171826807216929 0 0.085162092785332863 0.29441025699897261 0 0.086391577073358816 0.31171826807216929 0 0.085162092785332863 0.29441025699897261 0 0.10034304983929181 0.30742926072663129 0 0.087970666239859774 0.27430049136637258 0 0.076552016394863948 0.28330149013165351 0 0.085162092785332863 0.29441025699897261 0 0.085162092785332863 0.29441025699897261 0 0.1019509123283041 0.28926533127318721 0 0.087970666239859774 0.27430049136637258 0 0.085162092785332863 0.29441025699897261 0 0.1019509123283041 0.28926533127318721 0 0.1019509123283041 0.28926533127318721 0 0.1166529969037796 0.28213476561386891 0 0.1045805661477308 0.27445626624959812 0 0.085162092785332863 0.29441025699897261 0 0.1019509123283041 0.28926533127318721 0 0.10034304983929181 0.30742926072663129 0 0.1019509123283041 0.28926533127318721 0 0.10034304983929181 0.30742926072663129 0 0.1160105070090426 0.29894108711534678 0 0.115870718493172 0.31645391494932662 0 0.10034304983929181 0.30742926072663129 0 0.1160105070090426 0.29894108711534678 0 0.115870718493172 0.31645391494932662 0 0.1160105070090426 0.29894108711534678 0 0.13161655490130211 0.31043738245650571 0 0.1160105070090426 0.29894108711534678 0 0.1166529969037796 0.28213476561386891 0 0.13083259523074781 0.29138837951179902 0 0.1019509123283041 0.28926533127318721 0 0.1160105070090426 0.29894108711534678 0 0.1166529969037796 0.28213476561386891 0 0.1166529969037796 0.28213476561386891 0 0.11664172872468941 0.26532958572959492 0 0.1045805661477308 0.27445626624959812 0 0.1166529969037796 0.28213476561386891 0 0.11664172872468941 0.26532958572959492 0 0.13052293846421559 0.2764566743932429 0 0.1147887818431431 0.24787007423415131 0 0.11664172872468941 0.26532958572959492 0 0.099686526542021064 0.26125115726496673 0 0.1147887818431431 0.24787007423415131 0 0.096362904213725759 0.24476095872042289 0 0.099686526542021064 0.26125115726496673 0 0.11664172872468941 0.26532958572959492 0 0.099686526542021064 0.26125115726496673 0 0.1045805661477308 0.27445626624959812 0 0.087970666239859774 0.27430049136637258 0 0.1019509123283041 0.28926533127318721 0 0.1045805661477308 0.27445626624959812 0 0.087970666239859774 0.27430049136637258 0 0.099686526542021064 0.26125115726496673 0 0.1045805661477308 0.27445626624959812 0 0.14415833434426439 0.26200108108790121 0 0.142321448578865 0.28327200514601608 0 0.15928355175414799 0.28692470864531289 0 0.14415833434426439 0.26200108108790121 0 0.15928355175414799 0.28692470864531289 0 0.1147887818431431 0.24787007423415131 0 0.11664172872468941 0.26532958572959492 0 0.14415833434426439 0.26200108108790121 0 0.14415833434426439 0.26200108108790121 0 0.13052293846421559 0.2764566743932429 0 0.142321448578865 0.28327200514601608 0 0.11664172872468941 0.26532958572959492 0 0.14415833434426439 0.26200108108790121 0 0.13052293846421559 0.2764566743932429 0 0.1166529969037796 0.28213476561386891 0 0.13052293846421559 0.2764566743932429 0 0.13083259523074781 0.29138837951179902 0 0.13083259523074781 0.29138837951179902 0 0.14680982310094909 0.29958918209182472 0 0.142321448578865 0.28327200514601608 0 0.13052293846421559 0.2764566743932429 0 0.13083259523074781 0.29138837951179902 0 0.142321448578865 0.28327200514601608 0 0.13083259523074781 0.29138837951179902 0 0.13161655490130211 0.31043738245650571 0 0.14680982310094909 0.29958918209182472 0 0.1160105070090426 0.29894108711534678 0 0.13083259523074781 0.29138837951179902 0 0.13161655490130211 0.31043738245650571 0 0.14680982310094909 0.29958918209182472 0 0.16509309081420789 0.30528176648510408 0 0.151035744779831 0.32575147766791313 0 0.13161655490130211 0.31043738245650571 0 0.14680982310094909 0.29958918209182472 0 0.151035744779831 0.32575147766791313 0 0.14680982310094909 0.29958918209182472 0 0.142321448578865 0.28327200514601608 0 0.15928355175414799 0.28692470864531289 0 0.15928355175414799 0.28692470864531289 0 0.16509309081420789 0.30528176648510408 0 0.1891614938212626 0.29082229647474539 0 0.14680982310094909 0.29958918209182472 0 0.15928355175414799 0.28692470864531289 0 0.16509309081420789 0.30528176648510408 0 0.16509309081420789 0.30528176648510408 0 0.1891614938212626 0.29082229647474539 0 0.17865404211940539 0.31604332135961771 0 0.1891614938212626 0.29082229647474539 0 0.1920937160803475 0.31926757369376868 0 0.17865404211940539 0.31604332135961771 0 0.15928355175414799 0.28692470864531289 0 0.17233905522294049 0.26621478478681088 0 0.1891614938212626 0.29082229647474539 0 0.17233905522294049 0.26621478478681088 0 0.1891614938212626 0.29082229647474539 0 0.14415833434426439 0.26200108108790121 0 0.15928355175414799 0.28692470864531289 0 0.17233905522294049 0.26621478478681088 0 0.15551661662461841 0.24160727309887639 0 0.17233905522294049 0.26621478478681088 0 0.15551661662461841 0.24160727309887639 0 0.14415833434426439 0.26200108108790121 0 0.17233905522294049 0.26621478478681088 0 0.15551661662461841 0.24160727309887639 0 0.17233905522294049 0.26621478478681088 0 0.18436284550824189 0.25477096691964168 0 0.17233905522294049 0.26621478478681088 0 0.18436284550824189 0.25477096691964168 0 0.19937305084229359 0.26139782763755681 0 0.19546047625603399 0.24492919888611711 0 0.19937305084229359 0.26139782763755681 0 0.2100679709325658 0.25314684296694617 0 0.19546047625603399 0.24492919888611711 0 0.18436284550824189 0.25477096691964168 0 0.19937305084229359 0.26139782763755681 0 0.17233905522294049 0.26621478478681088 0 0.19937305084229359 0.26139782763755681 0 0.20148294810369891 0.27838727961585991 0 0.17233905522294049 0.26621478478681088 0 0.20148294810369891 0.27838727961585991 0 0.1891614938212626 0.29082229647474539 0 0.19937305084229359 0.26139782763755681 0 0.20148294810369891 0.27838727961585991 0 0.2162883060087484 0.2692729563912114 0 0.20148294810369891 0.27838727961585991 0 0.2162883060087484 0.2692729563912114 0 0.22333915949298311 0.28381500217196021 0 0.19937305084229359 0.26139782763755681 0 0.2162883060087484 0.2692729563912114 0 0.2100679709325658 0.25314684296694617 0 0.2162883060087484 0.2692729563912114 0 0.2100679709325658 0.25314684296694617 0 0.2255124495043215 0.25298522798509959 0 0.2162883060087484 0.2692729563912114 0 0.2255124495043215 0.25298522798509959 0 0.22992465134554679 0.26745030043859241 0 0.23288911456170311 0.24337006429245009 0 0.2255124495043215 0.25298522798509959 0 0.2386818310387899 0.25754101816996422 0 0.2255124495043215 0.25298522798509959 0 0.22992465134554679 0.26745030043859241 0 0.2386818310387899 0.25754101816996422 0 0.22992465134554679 0.26745030043859241 0 0.24580151068289099 0.27363729747472648 0 0.22333915949298311 0.28381500217196021 0 0.2162883060087484 0.2692729563912114 0 0.22992465134554679 0.26745030043859241 0 0.22333915949298311 0.28381500217196021 0 0.22992465134554679 0.26745030043859241 0 0.24580151068289099 0.27363729747472648 0 0.2386818310387899 0.25754101816996422 0 0.24580151068289099 0.27363729747472648 0 0.2386818310387899 0.25754101816996422 0 0.25933000645894172 0.25157611021901422 0 0.23288911456170311 0.24337006429245009 0 0.2386818310387899 0.25754101816996422 0 0.25933000645894172 0.25157611021901422 0 0.2385419250639873 0.29550101761201619 0 0.22317987414591259 0.30638125220631718 0 0.24144820878411541 0.31794920375138142 0 0.2385419250639873 0.29550101761201619 0 0.24144820878411541 0.31794920375138142 0 0.25894087221403389 0.29572233245569518 0 0.24580151068289099 0.27363729747472648 0 0.2385419250639873 0.29550101761201619 0 0.25894087221403389 0.29572233245569518 0 0.24580151068289099 0.27363729747472648 0 0.2385419250639873 0.29550101761201619 0 0.22333915949298311 0.28381500217196021 0 0.2385419250639873 0.29550101761201619 0 0.22333915949298311 0.28381500217196021 0 0.22317987414591259 0.30638125220631718 0 0.22317987414591259 0.30638125220631718 0 0.20862678172697871 0.29501157724985583 0 0.20598393241958471 0.3154298081626799 0 0.22333915949298311 0.28381500217196021 0 0.22317987414591259 0.30638125220631718 0 0.20862678172697871 0.29501157724985583 0 0.20148294810369891 0.27838727961585991 0 0.22333915949298311 0.28381500217196021 0 0.20862678172697871 0.29501157724985583 0 0.20148294810369891 0.27838727961585991 0 0.20862678172697871 0.29501157724985583 0 0.1891614938212626 0.29082229647474539 0 0.1891614938212626 0.29082229647474539 0 0.20598393241958471 0.3154298081626799 0 0.1891614938212626 0.29082229647474539 0 0.1920937160803475 0.31926757369376868 0 0.20598393241958471 0.3154298081626799 0 0.20862678172697871 0.29501157724985583 0 0.1891614938212626 0.29082229647474539 0 0.20598393241958471 0.3154298081626799 0 0.1920937160803475 0.31926757369376868 0 0.1984650924404032 0.33485897767793671 0 0.20598393241958471 0.3154298081626799 0 0.1920937160803475 0.31926757369376868 0 0.1984650924404032 0.33485897767793671 0 0.18364192766576551 0.32870464789360571 0 0.1984650924404032 0.33485897767793671 0 0.17697353426854689 0.34331386464121372 0 0.20177058496358721 0.34008545712207922 0 0.1984650924404032 0.33485897767793671 0 0.17697353426854689 0.34331386464121372 0 0.20177058496358721 0.34008545712207922 0 0.17697353426854689 0.34331386464121372 0 0.20177058496358721 0.34008545712207922 0 0.2199566506122595 0.32640409071465948 0 0.22656763565862759 0.33685704960294532 0 0.20177058496358721 0.34008545712207922 0 0.22656763565862759 0.33685704960294532 0 0.20177058496358721 0.34008545712207922 0 0.22656763565862759 0.33685704960294532 0 0.21899692539129881 0.34647669405577608 0 0.20177058496358721 0.34008545712207922 0 0.1984650924404032 0.33485897767793671 0 0.2199566506122595 0.32640409071465948 0 0.1984650924404032 0.33485897767793671 0 0.2199566506122595 0.32640409071465948 0 0.1984650924404032 0.33485897767793671 0 0.20598393241958471 0.3154298081626799 0 0.2199566506122595 0.32640409071465948 0 0.22317987414591259 0.30638125220631718 0 0.20598393241958471 0.3154298081626799 0 0.2199566506122595 0.32640409071465948 0 0.2199566506122595 0.32640409071465948 0 0.22656763565862759 0.33685704960294532 0 0.24144820878411541 0.31794920375138142 0 0.22317987414591259 0.30638125220631718 0 0.2199566506122595 0.32640409071465948 0 0.24144820878411541 0.31794920375138142 0 0.2199566506122595 0.32640409071465948 0 0.24144820878411541 0.31794920375138142 0 0.22656763565862759 0.33685704960294532 0 0.24144820878411541 0.31794920375138142 0 0.22656763565862759 0.33685704960294532 0 0.21899692539129881 0.34647669405577608 0 0.22656763565862759 0.33685704960294532 0 0.23863496037195581 0.33528596591563598 0 0.22656763565862759 0.33685704960294532 0 0.23863496037195581 0.33528596591563598 0 0.2343999149239076 0.34825866449867771 0 0.22656763565862759 0.33685704960294532 0 0.23863496037195581 0.33528596591563598 0 0.24144820878411541 0.31794920375138142 0 0.23863496037195581 0.33528596591563598 0 0.24772732657349961 0.34061391323805368 0 0.2343999149239076 0.34825866449867771 0 0.23863496037195581 0.33528596591563598 0 0.24772732657349961 0.34061391323805368 0 0.25425045627425169 0.32892326829153973 0 0.23863496037195581 0.33528596591563598 0 0.24144820878411541 0.31794920375138142 0 0.25425045627425169 0.32892326829153973 0 0.24144820878411541 0.31794920375138142 0 0.25732352252861429 0.31170377556311513 0 0.23975277161822009 0.36074135268991742 0 0.2320405933009726 0.37378084727832128 0 0.25942824353548422 0.3701896906427487 0 0.2320405933009726 0.37378084727832128 0 0.25942824353548422 0.3701896906427487 0 0.23975277161822009 0.36074135268991742 0 0.25942824353548422 0.3701896906427487 0 0.2343999149239076 0.34825866449867771 0 0.25985705183132851 0.34931336020619558 0 0.23975277161822009 0.36074135268991742 0 0.2343999149239076 0.34825866449867771 0 0.25985705183132851 0.34931336020619558 0 0.24772732657349961 0.34061391323805368 0 0.2343999149239076 0.34825866449867771 0 0.25985705183132851 0.34931336020619558 0 0.23975277161822009 0.36074135268991742 0 0.2343999149239076 0.34825866449867771 0 0.22275080895800539 0.36102612382674071 0 0.22656763565862759 0.33685704960294532 0 0.2343999149239076 0.34825866449867771 0 0.21899692539129881 0.34647669405577608 0 0.2343999149239076 0.34825866449867771 0 0.21899692539129881 0.34647669405577608 0 0.22275080895800539 0.36102612382674071 0 0.23975277161822009 0.36074135268991742 0 0.22275080895800539 0.36102612382674071 0 0.2320405933009726 0.37378084727832128 0 0.22275080895800539 0.36102612382674071 0 0.2320405933009726 0.37378084727832128 0 0.2046529430664609 0.37737200391389247 0 0.22275080895800539 0.36102612382674071 0 0.20666170544717199 0.35952718052385979 0 0.2046529430664609 0.37737200391389247 0 0.21899692539129881 0.34647669405577608 0 0.22275080895800539 0.36102612382674071 0 0.20666170544717199 0.35952718052385979 0 0.20177058496358721 0.34008545712207922 0 0.21899692539129881 0.34647669405577608 0 0.20666170544717199 0.35952718052385979 0 0.20177058496358721 0.34008545712207922 0 0.18808145769552689 0.36141763063701632 0 0.17697353426854689 0.34331386464121372 0 0.20177058496358721 0.34008545712207922 0 0.20666170544717199 0.35952718052385979 0 0.18808145769552689 0.36141763063701632 0 0.20666170544717199 0.35952718052385979 0 0.18808145769552689 0.36141763063701632 0 0.2046529430664609 0.37737200391389247 0 0.18808145769552689 0.36141763063701632 0 0.1773950810810401 0.38094614229751778 0 0.2046529430664609 0.37737200391389247 0 0.18808145769552689 0.36141763063701632 0 0.2046529430664609 0.37737200391389247 0 0.18808145769552689 0.36141763063701632 0 0.16773140578878379 0.3670546938748408 0 0.17124233758448601 0.35626191867838042 0 0.18808145769552689 0.36141763063701632 0 0.16773140578878379 0.3670546938748408 0 0.1773950810810401 0.38094614229751778 0 0.16773140578878379 0.3670546938748408 0 0.15752974412703219 0.36583839825948178 0 0.15013721909561939 0.38452028068114408 0 0.16773140578878379 0.3670546938748408 0 0.16176686423025649 0.3551564222840507 0 0.17124233758448601 0.35626191867838042 0 0.16773140578878379 0.3670546938748408 0 0.15752974412703219 0.36583839825948178 0 0.16176686423025649 0.3551564222840507 0 0.16176686423025649 0.3551564222840507 0 0.16906335500380729 0.3464257689064994 0 0.1420536396373023 0.3478601976620771 0 0.16906335500380729 0.3464257689064994 0 0.17150997232459159 0.34546325736014122 0 0.1420536396373023 0.3478601976620771 0 0.17150997232459159 0.34546325736014122 0 0.1420536396373023 0.3478601976620771 0 0.15752974412703219 0.36583839825948178 0 0.16176686423025649 0.3551564222840507 0 0.15048348739346931 0.35662219619789348 0 0.16176686423025649 0.3551564222840507 0 0.17124233758448601 0.35626191867838042 0 0.1680317338850669 0.35122419821543532 0 0.16176686423025649 0.3551564222840507 0 0.1680317338850669 0.35122419821543532 0 0.16906335500380729 0.3464257689064994 0 0.17124233758448601 0.35626191867838042 0 0.1680317338850669 0.35122419821543532 0 0.17150997232459159 0.34546325736014122 0 0.1680317338850669 0.35122419821543532 0 0.16906335500380729 0.3464257689064994 0 0.17150997232459159 0.34546325736014122 0 0.16906335500380729 0.3464257689064994 0 0.17150997232459159 0.34546325736014122 0 0.18808145769552689 0.36141763063701632 0 0.17124233758448601 0.35626191867838042 0 0.17150997232459159 0.34546325736014122 0 0.18808145769552689 0.36141763063701632 0 0.17150997232459159 0.34546325736014122 0 0.17697353426854689 0.34331386464121372 0 0.17150997232459159 0.34546325736014122 0 0.17697353426854689 0.34331386464121372 0 0.18808145769552689 0.36141763063701632 0 0.17150997232459159 0.34546325736014122 0 0.1984650924404032 0.33485897767793671 0 0.18364192766576551 0.32870464789360571 0 0.17697353426854689 0.34331386464121372 0 0.17150997232459159 0.34546325736014122 0 0.17697353426854689 0.34331386464121372 0 0.1717021602377401 0.32930197275284928 0 0.18364192766576551 0.32870464789360571 0 0.17697353426854689 0.34331386464121372 0 0.1717021602377401 0.32930197275284928 0 0.1920937160803475 0.31926757369376868 0 0.18364192766576551 0.32870464789360571 0 0.17865404211940539 0.31604332135961771 0 0.18364192766576551 0.32870464789360571 0 0.17865404211940539 0.31604332135961771 0 0.1717021602377401 0.32930197275284928 0 0.16509309081420789 0.30528176648510408 0 0.1717021602377401 0.32930197275284928 0 0.151035744779831 0.32575147766791313 0 0.16509309081420789 0.30528176648510408 0 0.17865404211940539 0.31604332135961771 0 0.1717021602377401 0.32930197275284928 0 0.17150997232459159 0.34546325736014122 0 0.1717021602377401 0.32930197275284928 0 0.151035744779831 0.32575147766791313 0 0.17150997232459159 0.34546325736014122 0 0.151035744779831 0.32575147766791313 0 0.17150997232459159 0.34546325736014122 0 0.151035744779831 0.32575147766791313 0 0.1420536396373023 0.3478601976620771 0 0.151035744779831 0.32575147766791313 0 0.1291399407940699 0.33050025340282368 0 0.1420536396373023 0.3478601976620771 0 0.115870718493172 0.31645391494932662 0 0.13161655490130211 0.31043738245650571 0 0.1291399407940699 0.33050025340282368 0 0.13161655490130211 0.31043738245650571 0 0.151035744779831 0.32575147766791313 0 0.1291399407940699 0.33050025340282368 0 0.11391307534017329 0.3515239079349971 0 0.1291399407940699 0.33050025340282368 0 0.1420536396373023 0.3478601976620771 0 0.11391307534017329 0.3515239079349971 0 0.1420536396373023 0.3478601976620771 0 0.11391307534017329 0.3515239079349971 0 0.13009308749075049 0.35876224311392679 0 0.1420536396373023 0.3478601976620771 0 0.13009308749075049 0.35876224311392679 0 0.1420536396373023 0.3478601976620771 0 0.14169876617096619 0.35688418113097647 0 0.1221008760585142 0.37017655509975561 0 0.13009308749075049 0.35876224311392679 0 0.1342579057440858 0.37470578098697799 0 0.13009308749075049 0.35876224311392679 0 0.1342579057440858 0.37470578098697799 0 0.14394794116613799 0.36489504469532241 0 0.13009308749075049 0.35876224311392679 0 0.14394794116613799 0.36489504469532241 0 0.14169876617096619 0.35688418113097647 0 0.14394794116613799 0.36489504469532241 0 0.15048348739346931 0.35662219619789348 0 0.14169876617096619 0.35688418113097647 0 0.1342579057440858 0.37470578098697799 0 0.14394794116613799 0.36489504469532241 0 0.15013721909561939 0.38452028068114408 0 0.15752974412703219 0.36583839825948178 0 0.15048348739346931 0.35662219619789348 0 0.15013721909561939 0.38452028068114408 0 0.14394794116613799 0.36489504469532241 0 0.15013721909561939 0.38452028068114408 0 0.14394794116613799 0.36489504469532241 0 0.15048348739346931 0.35662219619789348 0 0.15013721909561939 0.38452028068114408 0 0.15048348739346931 0.35662219619789348 0 0.15013721909561939 0.38452028068114408 0 0.16176686423025649 0.3551564222840507 0 0.15048348739346931 0.35662219619789348 0 0.1420536396373023 0.3478601976620771 0 0.15048348739346931 0.35662219619789348 0 0.1420536396373023 0.3478601976620771 0 0.14169876617096619 0.35688418113097647 0 0.14993316205569099 0.40096071307038211 0 0.15013721909561939 0.38452028068114408 0 0.15013721909561939 0.38452028068114408 0 0.15847737974220749 0.41320875786652489 0 0.14993316205569099 0.40096071307038211 0 0.15013721909561939 0.38452028068114408 0 0.15847737974220749 0.41320875786652489 0 0.14075316377098701 0.39396702707475317 0 0.14993316205569099 0.40096071307038211 0 0.15013721909561939 0.38452028068114408 0 0.14075316377098701 0.39396702707475317 0 0.14993316205569099 0.40096071307038211 0 0.14058932723348419 0.4020604514342252 0 0.14993316205569099 0.40096071307038211 0 0.14058932723348419 0.4020604514342252 0 0.1383030595227045 0.41091245984980868 0 0.1234906690191994 0.38801426188444588 0 0.15013721909561939 0.38452028068114408 0 0.1234906690191994 0.38801426188444588 0 0.14075316377098701 0.39396702707475317 0 0.15013721909561939 0.38452028068114408 0 0.1234906690191994 0.38801426188444588 0 0.1221008760585142 0.37017655509975561 0 0.1342579057440858 0.37470578098697799 0 0.1234906690191994 0.38801426188444588 0 0.1342579057440858 0.37470578098697799 0 0.15013721909561939 0.38452028068114408 0 0.1234906690191994 0.38801426188444588 0 0.14075316377098701 0.39396702707475317 0 0.1305192326549621 0.40277226715597292 0 0.14058932723348419 0.4020604514342252 0 0.1305192326549621 0.40277226715597292 0 0.1383030595227045 0.41091245984980868 0 0.14075316377098701 0.39396702707475317 0 0.14058932723348419 0.4020604514342252 0 0.1305192326549621 0.40277226715597292 0 0.1305192326549621 0.40277226715597292 0 0.1278511074300627 0.41350526162478779 0 0.1383030595227045 0.41091245984980868 0 0.12683379406011261 0.4250693007365704 0 0.14974049489291419 0.41648348780221289 0 0.1383030595227045 0.41091245984980868 0 0.12683379406011261 0.4250693007365704 0 0.14974049489291419 0.41648348780221289 0 0.1216096531045006 0.40813391523694248 0 0.1305192326549621 0.40277226715597292 0 0.1278511074300627 0.41350526162478779 0 0.1278511074300627 0.41350526162478779 0 0.1383030595227045 0.41091245984980868 0 0.12683379406011261 0.4250693007365704 0 0.13145787386874341 0.42953707068404839 0 0.12683379406011261 0.4250693007365704 0 0.14974049489291419 0.41648348780221289 0 0.1196165304270181 0.42777445133438408 0 0.13145787386874341 0.42953707068404839 0 0.13384151234498479 0.44042749669674858 0 0.1196165304270181 0.42777445133438408 0 0.13145787386874341 0.42953707068404839 0 0.12683379406011261 0.4250693007365704 0 0.13145787386874341 0.42953707068404839 0 0.12683379406011261 0.4250693007365704 0 0.13145787386874341 0.42953707068404839 0 0.1369704996915791 0.43546731836131258 0 0.13384151234498479 0.44042749669674858 0 0.13145787386874341 0.42953707068404839 0 0.1369704996915791 0.43546731836131258 0 0.14174884804029009 0.4327402954726593 0 0.1369704996915791 0.43546731836131258 0 0.14174884804029009 0.4327402954726593 0 0.14083376451229809 0.43916441059179367 0 0.14974049489291419 0.41648348780221289 0 0.16320829023632941 0.42894011950551397 0 0.14939496196408039 0.44432232520147552 0 0.13145787386874341 0.42953707068404839 0 0.14174884804029009 0.4327402954726593 0 0.14974049489291419 0.41648348780221289 0 0.14174884804029009 0.4327402954726593 0 0.14974049489291419 0.41648348780221289 0 0.14939496196408039 0.44432232520147552 0 0.14974049489291419 0.41648348780221289 0 0.14939496196408039 0.44432232520147552 0 0.14993316205569099 0.40096071307038211 0 0.1383030595227045 0.41091245984980868 0 0.14974049489291419 0.41648348780221289 0 0.14974049489291419 0.41648348780221289 0 0.15847737974220749 0.41320875786652489 0 0.14993316205569099 0.40096071307038211 0 0.14974049489291419 0.41648348780221289 0 0.15847737974220749 0.41320875786652489 0 0.14993316205569099 0.40096071307038211 0 0.14974049489291419 0.41648348780221289 0 0.15847737974220749 0.41320875786652489 0 0.18379704202613301 0.40371852679755871 0 0.15847737974220749 0.41320875786652489 0 0.16320829023632941 0.42894011950551397 0 0.1771703366423352 0.41837234779719129 0 0.14974049489291419 0.41648348780221289 0 0.15847737974220749 0.41320875786652489 0 0.16320829023632941 0.42894011950551397 0 0.15847737974220749 0.41320875786652489 0 0.16320829023632941 0.42894011950551397 0 0.16320829023632941 0.42894011950551397 0 0.16793920073045121 0.44467148114450311 0 0.16320829023632941 0.42894011950551397 0 0.1867891493435592 0.42963488748376388 0 0.1771703366423352 0.41837234779719129 0 0.16320829023632941 0.42894011950551397 0 0.1867891493435592 0.42963488748376388 0 0.1799201887742338 0.44198881247272648 0 0.15847737974220749 0.41320875786652489 0 0.1771703366423352 0.41837234779719129 0 0.18379704202613301 0.40371852679755871 0 0.1867891493435592 0.42963488748376388 0 0.1771703366423352 0.41837234779719129 0 0.19357982186344669 0.416359447332595 0 0.1771703366423352 0.41837234779719129 0 0.18379704202613301 0.40371852679755871 0 0.19357982186344669 0.416359447332595 0 0.18379704202613301 0.40371852679755871 0 0.1773950810810401 0.38094614229751778 0 0.19290672849741369 0.38950172785857978 0 0.18379704202613301 0.40371852679755871 0 0.1639865102326937 0.39356632919625939 0 0.1773950810810401 0.38094614229751778 0 0.15847737974220749 0.41320875786652489 0 0.18379704202613301 0.40371852679755871 0 0.1639865102326937 0.39356632919625939 0 0.15013721909561939 0.38452028068114408 0 0.15847737974220749 0.41320875786652489 0 0.1639865102326937 0.39356632919625939 0 0.16773140578878379 0.3670546938748408 0 0.15013721909561939 0.38452028068114408 0 0.1773950810810401 0.38094614229751778 0 0.15013721909561939 0.38452028068114408 0 0.1773950810810401 0.38094614229751778 0 0.15013721909561939 0.38452028068114408 0 0.1639865102326937 0.39356632919625939 0 0.1773950810810401 0.38094614229751778 0 0.19290672849741369 0.38950172785857978 0 0.20911670431005919 0.39422829572859441 0 0.2046529430664609 0.37737200391389247 0 0.1773950810810401 0.38094614229751778 0 0.2046529430664609 0.37737200391389247 0 0.1773950810810401 0.38094614229751778 0 0.19290672849741369 0.38950172785857978 0 0.2046529430664609 0.37737200391389247 0 0.18379704202613301 0.40371852679755871 0 0.19290672849741369 0.38950172785857978 0 0.20911670431005919 0.39422829572859441 0 0.18379704202613301 0.40371852679755871 0 0.20911670431005919 0.39422829572859441 0 0.20259115772065511 0.40630376292298642 0 0.18379704202613301 0.40371852679755871 0 0.20911670431005919 0.39422829572859441 0 0.20911670431005919 0.39422829572859441 0 0.2159600570573432 0.40436917001002048 0 0.20259115772065511 0.40630376292298642 0 0.20911670431005919 0.39422829572859441 0 0.2159600570573432 0.40436917001002048 0 0.2243562861421147 0.39638171662590649 0 0.20911670431005919 0.39422829572859441 0 0.2046529430664609 0.37737200391389247 0 0.2160722162166781 0.38836603023749011 0 0.2046529430664609 0.37737200391389247 0 0.2160722162166781 0.38836603023749011 0 0.2218005297945243 0.38106423652233368 0 0.2320405933009726 0.37378084727832128 0 0.2046529430664609 0.37737200391389247 0 0.2046529430664609 0.37737200391389247 0 0.2160722162166781 0.38836603023749011 0 0.2320405933009726 0.37378084727832128 0 0.2046529430664609 0.37737200391389247 0 0.2218005297945243 0.38106423652233368 0 0.20911670431005919 0.39422829572859441 0 0.23443636659398531 0.38473806465963012 0 0.20911670431005919 0.39422829572859441 0 0.2160722162166781 0.38836603023749011 0 0.23443636659398531 0.38473806465963012 0 0.2160722162166781 0.38836603023749011 0 0.2218005297945243 0.38106423652233368 0 0.23443636659398531 0.38473806465963012 0 0.2320405933009726 0.37378084727832128 0 0.2218005297945243 0.38106423652233368 0 0.23443636659398531 0.38473806465963012 0 0.20911670431005919 0.39422829572859441 0 0.2243562861421147 0.39638171662590649 0 0.23443636659398531 0.38473806465963012 0 0.2159600570573432 0.40436917001002048 0 0.2243562861421147 0.39638171662590649 0 0.2279559891442233 0.40552543862360407 0 0.2279559891442233 0.40552543862360407 0 0.2349238044517615 0.39603533827358878 0 0.23895404708153059 0.40744634374641342 0 0.2243562861421147 0.39638171662590649 0 0.2279559891442233 0.40552543862360407 0 0.2349238044517615 0.39603533827358878 0 0.2243562861421147 0.39638171662590649 0 0.2349238044517615 0.39603533827358878 0 0.23443636659398531 0.38473806465963012 0 0.2349238044517615 0.39603533827358878 0 0.24376754789883279 0.39936718204771893 0 0.24506680983499279 0.3870933417336706 0 0.2349238044517615 0.39603533827358878 0 0.24376754789883279 0.39936718204771893 0 0.23895404708153059 0.40744634374641342 0 0.24376754789883279 0.39936718204771893 0 0.24983968240297941 0.40812732298050969 0 0.23895404708153059 0.40744634374641342 0 0.24376754789883279 0.39936718204771893 0 0.24983968240297941 0.40812732298050969 0 0.25311075943973432 0.39740741682294672 0 0.24376754789883279 0.39936718204771893 0 0.24506680983499279 0.3870933417336706 0 0.25311075943973432 0.39740741682294672 0 0.2320405933009726 0.37378084727832128 0 0.24506680983499279 0.3870933417336706 0 0.25942824353548422 0.3701896906427487 0 0.2320405933009726 0.37378084727832128 0 0.24506680983499279 0.3870933417336706 0 0.23443636659398531 0.38473806465963012 0 0.2349238044517615 0.39603533827358878 0 0.24506680983499279 0.3870933417336706 0 0.23443636659398531 0.38473806465963012 0 0.2368882334306496 0.4314974722828282 0 0.24474911724694531 0.41806916662651028 0 0.23248814134444121 0.41755361392654822 0 0.2368882334306496 0.4314974722828282 0 0.24894748304271469 0.44529199912820849 0 0.25073732065305371 0.42967410883794921 0 0.2368882334306496 0.4314974722828282 0 0.24474911724694531 0.41806916662651028 0 0.25073732065305371 0.42967410883794921 0 0.24474911724694531 0.41806916662651028 0 0.24983968240297941 0.40812732298050969 0 0.23895404708153059 0.40744634374641342 0 0.24474911724694531 0.41806916662651028 0 0.23895404708153059 0.40744634374641342 0 0.23248814134444121 0.41755361392654822 0 0.2279559891442233 0.40552543862360407 0 0.23248814134444121 0.41755361392654822 0 0.22172896716691379 0.41340620430728842 0 0.2279559891442233 0.40552543862360407 0 0.23895404708153059 0.40744634374641342 0 0.23248814134444121 0.41755361392654822 0 0.2159600570573432 0.40436917001002048 0 0.2279559891442233 0.40552543862360407 0 0.22172896716691379 0.41340620430728842 0 0.23248814134444121 0.41755361392654822 0 0.22172896716691379 0.41340620430728842 0 0.2219917854228203 0.42466706428696022 0 0.2368882334306496 0.4314974722828282 0 0.2219917854228203 0.42466706428696022 0 0.22001501221560441 0.44252983284523778 0 0.2368882334306496 0.4314974722828282 0 0.23248814134444121 0.41755361392654822 0 0.2219917854228203 0.42466706428696022 0 0.2219917854228203 0.42466706428696022 0 0.2063194009146726 0.42850074259830961 0 0.22001501221560441 0.44252983284523778 0 0.2219917854228203 0.42466706428696022 0 0.2063194009146726 0.42850074259830961 0 0.21024886286574079 0.41491573468930909 0 0.2063194009146726 0.42850074259830961 0 0.21024886286574079 0.41491573468930909 0 0.19357982186344669 0.416359447332595 0 0.2159600570573432 0.40436917001002048 0 0.22172896716691379 0.41340620430728842 0 0.21024886286574079 0.41491573468930909 0 0.22172896716691379 0.41340620430728842 0 0.2219917854228203 0.42466706428696022 0 0.21024886286574079 0.41491573468930909 0 0.2159600570573432 0.40436917001002048 0 0.21024886286574079 0.41491573468930909 0 0.20259115772065511 0.40630376292298642 0 0.21024886286574079 0.41491573468930909 0 0.19357982186344669 0.416359447332595 0 0.20259115772065511 0.40630376292298642 0 0.18379704202613301 0.40371852679755871 0 0.19357982186344669 0.416359447332595 0 0.20259115772065511 0.40630376292298642 0 0.1867891493435592 0.42963488748376388 0 0.2063194009146726 0.42850074259830961 0 0.19357982186344669 0.416359447332595 0 0.1867891493435592 0.42963488748376388 0 0.2063194009146726 0.42850074259830961 0 0.19754647598331651 0.44281564661779471 0 0.19754647598331651 0.44281564661779471 0 0.20659274420460461 0.45975123637060972 0 0.18564236044722429 0.45448836793612091 0 0.19754647598331651 0.44281564661779471 0 0.18564236044722429 0.45448836793612091 0 0.1799201887742338 0.44198881247272648 0 0.1867891493435592 0.42963488748376388 0 0.19754647598331651 0.44281564661779471 0 0.1799201887742338 0.44198881247272648 0 0.1931421055670498 0.46622894702259121 0 0.20659274420460461 0.45975123637060972 0 0.18564236044722429 0.45448836793612091 0 0.1931421055670498 0.46622894702259121 0 0.20659274420460461 0.45975123637060972 0 0.20019919798601049 0.47927586733236438 0 0.20659274420460461 0.45975123637060972 0 0.22168308399193359 0.45734388136696341 0 0.2212955022299708 0.47383552866598388 0 0.20659274420460461 0.45975123637060972 0 0.22001501221560441 0.44252983284523778 0 0.22168308399193359 0.45734388136696341 0 0.2063194009146726 0.42850074259830961 0 0.19754647598331651 0.44281564661779471 0 0.22001501221560441 0.44252983284523778 0 0.19754647598331651 0.44281564661779471 0 0.20659274420460461 0.45975123637060972 0 0.22001501221560441 0.44252983284523778 0 0.2368882334306496 0.4314974722828282 0 0.22001501221560441 0.44252983284523778 0 0.23445819102341231 0.44576660030539322 0 0.22001501221560441 0.44252983284523778 0 0.22168308399193359 0.45734388136696341 0 0.23445819102341231 0.44576660030539322 0 0.22168308399193359 0.45734388136696341 0 0.2360731542145777 0.46023789204762872 0 0.2212955022299708 0.47383552866598388 0 0.22168308399193359 0.45734388136696341 0 0.2360731542145777 0.46023789204762872 0 0.23445819102341231 0.44576660030539322 0 0.2360731542145777 0.46023789204762872 0 0.2499945297026557 0.46091901841247801 0 0.24894748304271469 0.44529199912820849 0 0.2360731542145777 0.46023789204762872 0 0.2499945297026557 0.46091901841247801 0 0.24172054360973219 0.47832892173968827 0 0.2368882334306496 0.4314974722828282 0 0.24894748304271469 0.44529199912820849 0 0.23445819102341231 0.44576660030539322 0 0.2360731542145777 0.46023789204762872 0 0.24894748304271469 0.44529199912820849 0 0.23445819102341231 0.44576660030539322 0 0.24753098876197949 0.5 0 0.24172054360973219 0.47832892173968827 0 0.25965323348248898 0.48644800176276448 0 0.24753098876197949 0.5 0 0.24172054360973219 0.47832892173968827 0 0.22282421559808771 0.5 0 0.2360731542145777 0.46023789204762872 0 0.24172054360973219 0.47832892173968827 0 0.2212955022299708 0.47383552866598388 0 0.24172054360973219 0.47832892173968827 0 0.2212955022299708 0.47383552866598388 0 0.22282421559808771 0.5 0 0.22282421559808771 0.5 0 0.20019919798601049 0.47927586733236438 0 0.19811744243419599 0.5 0 0.20659274420460461 0.45975123637060972 0 0.2212955022299708 0.47383552866598388 0 0.20019919798601049 0.47927586733236438 0 0.2212955022299708 0.47383552866598388 0 0.22282421559808771 0.5 0 0.20019919798601049 0.47927586733236438 0 0.20019919798601049 0.47927586733236438 0 0.1850643170194162 0.48764949202464958 0 0.18013411963035991 0.47140031645127012 0 0.1931421055670498 0.46622894702259121 0 0.20019919798601049 0.47927586733236438 0 0.18013411963035991 0.47140031645127012 0 0.20019919798601049 0.47927586733236438 0 0.19811744243419599 0.5 0 0.1850643170194162 0.48764949202464958 0 0.19811744243419599 0.5 0 0.1850643170194162 0.48764949202464958 0 0.1734106692703043 0.5 0 0.1850643170194162 0.48764949202464958 0 0.1734106692703043 0.5 0 0.1664531646828778 0.48236069582260382 0 0.1734106692703043 0.5 0 0.1664531646828778 0.48236069582260382 0 0.14870389610641249 0.50000000000000089 0 0.1664531646828778 0.48236069582260382 0 0.18013411963035991 0.47140031645127012 0 0.1661706704293574 0.46165737933993972 0 0.1664531646828778 0.48236069582260382 0 0.1661706704293574 0.46165737933993972 0 0.14904942903524651 0.47216116260073843 0 0.1850643170194162 0.48764949202464958 0 0.1664531646828778 0.48236069582260382 0 0.18013411963035991 0.47140031645127012 0 0.18013411963035991 0.47140031645127012 0 0.18564236044722429 0.45448836793612091 0 0.1661706704293574 0.46165737933993972 0 0.1931421055670498 0.46622894702259121 0 0.18013411963035991 0.47140031645127012 0 0.18564236044722429 0.45448836793612091 0 0.18564236044722429 0.45448836793612091 0 0.16793920073045121 0.44467148114450311 0 0.1661706704293574 0.46165737933993972 0 0.18564236044722429 0.45448836793612091 0 0.1799201887742338 0.44198881247272648 0 0.16793920073045121 0.44467148114450311 0 0.16793920073045121 0.44467148114450311 0 0.1661706704293574 0.46165737933993972 0 0.14939496196408039 0.44432232520147552 0 0.16320829023632941 0.42894011950551397 0 0.1799201887742338 0.44198881247272648 0 0.16793920073045121 0.44467148114450311 0 0.16320829023632941 0.42894011950551397 0 0.16793920073045121 0.44467148114450311 0 0.14939496196408039 0.44432232520147552 0 0.14939496196408039 0.44432232520147552 0 0.14904942903524651 0.47216116260073843 0 0.14056903649777691 0.45669191429172318 0 0.1340897576569349 0.47419840564291132 0 0.14904942903524651 0.47216116260073843 0 0.1661706704293574 0.46165737933993972 0 0.14939496196408039 0.44432232520147552 0 0.14904942903524651 0.47216116260073843 0 0.14939496196408039 0.44432232520147552 0 0.14056903649777691 0.45669191429172318 0 0.14904942903524651 0.47216116260073843 0 0.14939496196408039 0.44432232520147552 0 0.14426523416217291 0.44438086672766908 0 0.14056903649777691 0.45669191429172318 0 0.14174884804029009 0.4327402954726593 0 0.14939496196408039 0.44432232520147552 0 0.14083376451229809 0.43916441059179367 0 0.14939496196408039 0.44432232520147552 0 0.14426523416217291 0.44438086672766908 0 0.14083376451229809 0.43916441059179367 0 0.14426523416217291 0.44438086672766908 0 0.12604579967045021 0.44839681128582148 0 0.14056903649777691 0.45669191429172318 0 0.1196165304270181 0.42777445133438408 0 0.13384151234498479 0.44042749669674858 0 0.12604579967045021 0.44839681128582148 0 0.14426523416217291 0.44438086672766908 0 0.13384151234498479 0.44042749669674858 0 0.12604579967045021 0.44839681128582148 0 0.14426523416217291 0.44438086672766908 0 0.12604579967045021 0.44839681128582148 0 0.14426523416217291 0.44438086672766908 0 0.14083376451229809 0.43916441059179367 0 0.13384151234498479 0.44042749669674858 0 0.1369704996915791 0.43546731836131258 0 0.14083376451229809 0.43916441059179367 0 0.13384151234498479 0.44042749669674858 0 0.12604579967045021 0.44839681128582148 0 0.14056903649777691 0.45669191429172318 0 0.1340897576569349 0.47419840564291132 0 0.12604579967045021 0.44839681128582148 0 0.1340897576569349 0.47419840564291132 0 0.1233521795822832 0.47534509346272952 0 0.12604579967045021 0.44839681128582148 0 0.1340897576569349 0.47419840564291132 0 0.1233521795822832 0.47534509346272952 0 0.1340897576569349 0.47419840564291132 0 0.1310630874019614 0.49999999999998029 0 0.1233521795822832 0.47534509346272952 0 0.1310630874019614 0.49999999999998029 0 0.1340897576569349 0.47419840564291132 0 0.14213371564342001 0.50000000000000067 0 0.1340897576569349 0.47419840564291132 0 0.1310630874019614 0.49999999999998029 0 0.14213371564342001 0.50000000000000067 0 0.14213371564342001 0.50000000000000067 0 0.14870389610641249 0.50000000000000089 0 0.14904942903524651 0.47216116260073843 0 0.1664531646828778 0.48236069582260382 0 0.14870389610641249 0.50000000000000089 0 0.14904942903524651 0.47216116260073843 0 0.14870389610641249 0.50000000000000089 0 0.14904942903524651 0.47216116260073843 0 0.1340897576569349 0.47419840564291132 0 0.14213371564342001 0.50000000000000067 0 0.14904942903524651 0.47216116260073843 0 0.3538604207471312 0.47296218335378759 0 0.34798585922898267 0.48726880308200909 0 0.33499744096202211 0.48074174473077391 0 0.3538604207471312 0.47296218335378759 0 0.33499744096202211 0.48074174473077391 0 0.3538604207471312 0.47296218335378759 0 0.35695088606096548 0.50000000000000089 0 0.3538604207471312 0.47296218335378759 0 0.34798585922898267 0.48726880308200909 0 0.35695088606096548 0.50000000000000089 0 0.34798585922898267 0.48726880308200909 0 0.345205024949923 0.4999999999999995 0 0.35695088606096548 0.50000000000000089 0 0.3538604207471312 0.47296218335378759 0 0.35695088606096548 0.50000000000000089 0 0.37318866431135761 0.48174232907414499 0 0.35695088606096548 0.50000000000000089 0 0.37318866431135761 0.48174232907414499 0 0.38214154872489497 0.5 0 0.3538604207471312 0.47296218335378759 0 0.37318866431135761 0.48174232907414499 0 0.38037359216501598 0.46202749293405271 0 0.3538604207471312 0.47296218335378759 0 0.35148548307386779 0.4521843642116673 0 0.38037359216501598 0.46202749293405271 0 0.3538604207471312 0.47296218335378759 0 0.38037359216501598 0.46202749293405271 0 0.36759308160263382 0.44069077566344278 0 0.35148548307386779 0.4521843642116673 0 0.38037359216501598 0.46202749293405271 0 0.35148548307386779 0.4521843642116673 0 0.3402577354876144 0.44371790825716678 0 0.34911054540060532 0.43140654506954701 0 0.35148548307386779 0.4521843642116673 0 0.34911054540060532 0.43140654506954701 0 0.36759308160263382 0.44069077566344278 0 0.35148548307386779 0.4521843642116673 0 0.34911054540060532 0.43140654506954701 0 0.3538604207471312 0.47296218335378759 0 0.35148548307386779 0.4521843642116673 0 0.3538604207471312 0.47296218335378759 0 0.35148548307386779 0.4521843642116673 0 0.34062588316806852 0.46571968712185913 0 0.35148548307386779 0.4521843642116673 0 0.34062588316806852 0.46571968712185913 0 0.3393021227713709 0.45410992893078261 0 0.34062588316806852 0.46571968712185913 0 0.3393021227713709 0.45410992893078261 0 0.3227268909422194 0.45759137096400909 0 0.3393021227713709 0.45410992893078261 0 0.3227268909422194 0.45759137096400909 0 0.34062588316806852 0.46571968712185913 0 0.3227268909422194 0.45759137096400909 0 0.33499744096202211 0.48074174473077391 0 0.3393021227713709 0.45410992893078261 0 0.33010827020948108 0.44803375377009108 0 0.3227268909422194 0.45759137096400909 0 0.35148548307386779 0.4521843642116673 0 0.3393021227713709 0.45410992893078261 0 0.3402577354876144 0.44371790825716678 0 0.3393021227713709 0.45410992893078261 0 0.3402577354876144 0.44371790825716678 0 0.33010827020948108 0.44803375377009108 0 0.33010827020948108 0.44803375377009108 0 0.32146058160958502 0.43938239923666922 0 0.33324359782373297 0.43491575574025571 0 0.3402577354876144 0.44371790825716678 0 0.33010827020948108 0.44803375377009108 0 0.33324359782373297 0.43491575574025571 0 0.33010827020948108 0.44803375377009108 0 0.32006214648989678 0.45256390031561988 0 0.3227268909422194 0.45759137096400909 0 0.33010827020948108 0.44803375377009108 0 0.32146058160958502 0.43938239923666922 0 0.32006214648989678 0.45256390031561988 0 0.32006214648989678 0.45256390031561988 0 0.31403025687848429 0.44317715961323012 0 0.30581731146010249 0.44775155910417519 0 0.32146058160958502 0.43938239923666922 0 0.32006214648989678 0.45256390031561988 0 0.31403025687848429 0.44317715961323012 0 0.32146058160958502 0.43938239923666922 0 0.31403025687848429 0.44317715961323012 0 0.30878098795435288 0.4330107797964563 0 0.3227268909422194 0.45759137096400909 0 0.31632218280348928 0.47375461686823589 0 0.30129841204463831 0.46209218325496881 0 0.32006214648989678 0.45256390031561988 0 0.3227268909422194 0.45759137096400909 0 0.30129841204463831 0.46209218325496881 0 0.32006214648989678 0.45256390031561988 0 0.3227268909422194 0.45759137096400909 0 0.31632218280348928 0.47375461686823589 0 0.33499744096202211 0.48074174473077391 0 0.31738125492594621 0.48800709739813092 0 0.33499744096202211 0.48074174473077391 0 0.31738125492594621 0.48800709739813092 0 0.3227268909422194 0.45759137096400909 0 0.31632218280348928 0.47375461686823589 0 0.33499744096202211 0.48074174473077391 0 0.31632218280348928 0.47375461686823589 0 0.31738125492594621 0.48800709739813092 0 0.30524495193473478 0.48356991549657391 0 0.3227268909422194 0.45759137096400909 0 0.33499744096202211 0.48074174473077391 0 0.3538604207471312 0.47296218335378759 0 0.34062588316806852 0.46571968712185913 0 0.33499744096202211 0.48074174473077391 0 0.345205024949923 0.4999999999999995 0 0.33499744096202211 0.48074174473077391 0 0.345205024949923 0.4999999999999995 0 0.32897540463806701 0.49112972879375932 0 0.32088260394190582 0.5 0 0.345205024949923 0.4999999999999995 0 0.33499744096202211 0.48074174473077391 0 0.32897540463806701 0.49112972879375932 0 0.34798585922898267 0.48726880308200909 0 0.345205024949923 0.4999999999999995 0 0.33499744096202211 0.48074174473077391 0 0.32897540463806701 0.49112972879375932 0 0.32088260394190582 0.5 0 0.31738125492594621 0.48800709739813092 0 0.32088260394190582 0.5 0 0.31738125492594621 0.48800709739813092 0 0.29976506888986992 0.4952724500654872 0 0.33499744096202211 0.48074174473077391 0 0.32897540463806701 0.49112972879375932 0 0.31738125492594621 0.48800709739813092 0 0.31738125492594621 0.48800709739813092 0 0.29976506888986992 0.4952724500654872 0 0.30524495193473478 0.48356991549657391 0 0.32088260394190582 0.5 0 0.29976506888986992 0.4952724500654872 0 0.29656018293388853 0.5 0 0.31738125492594621 0.48800709739813092 0 0.29976506888986992 0.4952724500654872 0 0.29976506888986992 0.4952724500654872 0 0.30524495193473478 0.48356991549657391 0 0.2965450486356494 0.48703193366597908 0 0.31632218280348928 0.47375461686823589 0 0.30524495193473478 0.48356991549657391 0 0.30129841204463831 0.46209218325496881 0 0.30524495193473478 0.48356991549657391 0 0.29222383633954763 0.47862515140656381 0 0.30129841204463831 0.46209218325496881 0 0.30524495193473478 0.48356991549657391 0 0.29222383633954763 0.47862515140656381 0 0.2965450486356494 0.48703193366597908 0 0.29222383633954763 0.47862515140656381 0 0.28894633737844561 0.49066021769529178 0 0.2760538475364635 0.48329649777296319 0 0.29222383633954763 0.47862515140656381 0 0.2760538475364635 0.48329649777296319 0 0.2798699331470571 0.46659299554592792 0 0.29222383633954763 0.47862515140656381 0 0.2798699331470571 0.46659299554592792 0 0.30129841204463831 0.46209218325496881 0 0.29656018293388853 0.5 0 0.28894633737844561 0.49066021769529178 0 0.27223776192587129 0.49999999999999872 0 0.29976506888986992 0.4952724500654872 0 0.29656018293388853 0.5 0 0.28894633737844561 0.49066021769529178 0 0.29976506888986992 0.4952724500654872 0 0.2965450486356494 0.48703193366597908 0 0.28894633737844561 0.49066021769529178 0 0.29222383633954763 0.47862515140656381 0 0.2965450486356494 0.48703193366597908 0 0.28894633737844561 0.49066021769529178 0 0.27223776192587129 0.49999999999999872 0 0.2760538475364635 0.48329649777296319 0 0.25965323348248898 0.48644800176276448 0 0.27223776192587129 0.49999999999999872 0 0.2760538475364635 0.48329649777296319 0 0.28894633737844561 0.49066021769529178 0 0.27223776192587129 0.49999999999999872 0 0.2760538475364635 0.48329649777296319 0 0.2760538475364635 0.48329649777296319 0 0.2798699331470571 0.46659299554592792 0 0.2760538475364635 0.48329649777296319 0 0.26072302557839888 0.47061458930117223 0 0.2798699331470571 0.46659299554592792 0 0.2499945297026557 0.46091901841247801 0 0.24172054360973219 0.47832892173968827 0 0.26072302557839888 0.47061458930117223 0 0.24172054360973219 0.47832892173968827 0 0.26072302557839888 0.47061458930117223 0 0.25965323348248898 0.48644800176276448 0 0.2760538475364635 0.48329649777296319 0 0.26072302557839888 0.47061458930117223 0 0.25965323348248898 0.48644800176276448 0 0.24753098876197949 0.5 0 0.27223776192587129 0.49999999999999872 0 0.25965323348248898 0.48644800176276448 0 0.24894748304271469 0.44529199912820849 0 0.26584999625029671 0.45322339297699782 0 0.26393509086451539 0.43480514946900972 0 0.2499945297026557 0.46091901841247801 0 0.26072302557839888 0.47061458930117223 0 0.26584999625029671 0.45322339297699782 0 0.2499945297026557 0.46091901841247801 0 0.24894748304271469 0.44529199912820849 0 0.26584999625029671 0.45322339297699782 0 0.26072302557839888 0.47061458930117223 0 0.2798699331470571 0.46659299554592792 0 0.26584999625029671 0.45322339297699782 0 0.2798699331470571 0.46659299554592792 0 0.28523429239461351 0.44311249857031493 0 0.26072302557839888 0.47061458930117223 0 0.26584999625029671 0.45322339297699782 0 0.2798699331470571 0.46659299554592792 0 0.26584999625029671 0.45322339297699782 0 0.28523429239461351 0.44311249857031493 0 0.26393509086451539 0.43480514946900972 0 0.2798699331470571 0.46659299554592792 0 0.28523429239461351 0.44311249857031493 0 0.2798699331470571 0.46659299554592792 0 0.28523429239461351 0.44311249857031493 0 0.30129841204463831 0.46209218325496881 0 0.2798699331470571 0.46659299554592792 0 0.30129841204463831 0.46209218325496881 0 0.32006214648989678 0.45256390031561988 0 0.30129841204463831 0.46209218325496881 0 0.30581731146010249 0.44775155910417519 0 0.3227268909422194 0.45759137096400909 0 0.30129841204463831 0.46209218325496881 0 0.28523429239461351 0.44311249857031493 0 0.30581731146010249 0.44775155910417519 0 0.30878098795435288 0.4330107797964563 0 0.28523429239461351 0.44311249857031493 0 0.30129841204463831 0.46209218325496881 0 0.30581731146010249 0.44775155910417519 0 0.31403025687848429 0.44317715961323012 0 0.30581731146010249 0.44775155910417519 0 0.30878098795435288 0.4330107797964563 0 0.30878098795435288 0.4330107797964563 0 0.30761435032256829 0.41547636128313792 0 0.29059865164217102 0.41963200159470199 0 0.30761435032256829 0.41547636128313792 0 0.29059865164217102 0.41963200159470199 0 0.29596301088972932 0.39615150461908938 0 0.29059865164217102 0.41963200159470199 0 0.27539241477553988 0.41495414431735927 0 0.28210281370939111 0.40309815880401911 0 0.29059865164217102 0.41963200159470199 0 0.28210281370939111 0.40309815880401911 0 0.29596301088972932 0.39615150461908938 0 0.29059865164217102 0.41963200159470199 0 0.29596301088972932 0.39615150461908938 0 0.28523429239461351 0.44311249857031493 0 0.29059865164217102 0.41963200159470199 0 0.28523429239461351 0.44311249857031493 0 0.30878098795435288 0.4330107797964563 0 0.29059865164217102 0.41963200159470199 0 0.28523429239461351 0.44311249857031493 0 0.29059865164217102 0.41963200159470199 0 0.27750536422996058 0.42763758239427152 0 0.28523429239461351 0.44311249857031493 0 0.27750536422996058 0.42763758239427152 0 0.26393509086451539 0.43480514946900972 0 0.27750536422996058 0.42763758239427152 0 0.25916667868044319 0.41870675668318902 0 0.26393509086451539 0.43480514946900972 0 0.29059865164217102 0.41963200159470199 0 0.27750536422996058 0.42763758239427152 0 0.27539241477553988 0.41495414431735927 0 0.27750536422996058 0.42763758239427152 0 0.27539241477553988 0.41495414431735927 0 0.25916667868044319 0.41870675668318902 0 0.27539241477553988 0.41495414431735927 0 0.25916667868044319 0.41870675668318902 0 0.26854908896895829 0.40596140165892219 0 0.27539241477553988 0.41495414431735927 0 0.26854908896895829 0.40596140165892219 0 0.28210281370939111 0.40309815880401911 0 0.25916667868044319 0.41870675668318902 0 0.25868259288810191 0.40557153794632 0 0.26854908896895829 0.40596140165892219 0 0.24983968240297941 0.40812732298050969 0 0.25916667868044319 0.41870675668318902 0 0.25868259288810191 0.40557153794632 0 0.24474911724694531 0.41806916662651028 0 0.24983968240297941 0.40812732298050969 0 0.25916667868044319 0.41870675668318902 0 0.24474911724694531 0.41806916662651028 0 0.25916667868044319 0.41870675668318902 0 0.25073732065305371 0.42967410883794921 0 0.25916667868044319 0.41870675668318902 0 0.25073732065305371 0.42967410883794921 0 0.26393509086451539 0.43480514946900972 0 0.24894748304271469 0.44529199912820849 0 0.25073732065305371 0.42967410883794921 0 0.26393509086451539 0.43480514946900972 0 0.25800477182967818 0.38778712275122629 0 0.26805035755522139 0.38535416790565619 0 0.25942824353548422 0.3701896906427487 0 0.24506680983499279 0.3870933417336706 0 0.25800477182967818 0.38778712275122629 0 0.25942824353548422 0.3701896906427487 0 0.25800477182967818 0.38778712275122629 0 0.26330315178382102 0.39649799347823439 0 0.26805035755522139 0.38535416790565619 0 0.24506680983499279 0.3870933417336706 0 0.25800477182967818 0.38778712275122629 0 0.25311075943973432 0.39740741682294672 0 0.24983968240297941 0.40812732298050969 0 0.25311075943973432 0.39740741682294672 0 0.25868259288810191 0.40557153794632 0 0.25311075943973432 0.39740741682294672 0 0.25868259288810191 0.40557153794632 0 0.26330315178382102 0.39649799347823439 0 0.25868259288810191 0.40557153794632 0 0.26330315178382102 0.39649799347823439 0 0.26854908896895829 0.40596140165892219 0 0.25800477182967818 0.38778712275122629 0 0.25311075943973432 0.39740741682294672 0 0.26330315178382102 0.39649799347823439 0 0.26330315178382102 0.39649799347823439 0 0.27264688197645331 0.39693981872441181 0 0.26805035755522139 0.38535416790565619 0 0.27264688197645331 0.39693981872441181 0 0.27824579278366363 0.39172111919704389 0 0.26805035755522139 0.38535416790565619 0 0.26330315178382102 0.39649799347823439 0 0.27264688197645331 0.39693981872441181 0 0.26854908896895829 0.40596140165892219 0 0.27264688197645331 0.39693981872441181 0 0.26854908896895829 0.40596140165892219 0 0.28210281370939111 0.40309815880401911 0 0.27264688197645331 0.39693981872441181 0 0.27824579278366363 0.39172111919704389 0 0.28210281370939111 0.40309815880401911 0 0.26805035755522139 0.38535416790565619 0 0.27856209870918508 0.37937793938116909 0 0.25942824353548422 0.3701896906427487 0 0.27824579278366363 0.39172111919704389 0 0.26805035755522139 0.38535416790565619 0 0.27856209870918508 0.37937793938116909 0 0.27856209870918508 0.37937793938116909 0 0.28847277150592981 0.37746057468263761 0 0.29769595388288578 0.38856618811959009 0 0.27856209870918508 0.37937793938116909 0 0.28997759434929321 0.39444483201859898 0 0.29769595388288578 0.38856618811959009 0 0.27856209870918508 0.37937793938116909 0 0.29769595388288578 0.38856618811959009 0 0.27824579278366363 0.39172111919704389 0 0.27856209870918508 0.37937793938116909 0 0.28997759434929321 0.39444483201859898 0 0.28847277150592981 0.37746057468263761 0 0.2949846934959599 0.37813488750545782 0 0.29769595388288578 0.38856618811959009 0 0.28847277150592981 0.37746057468263761 0 0.2949846934959599 0.37813488750545782 0 0.29396210666239347 0.37217445452841919 0 0.27824579278366363 0.39172111919704389 0 0.28210281370939111 0.40309815880401911 0 0.28997759434929321 0.39444483201859898 0 0.28210281370939111 0.40309815880401911 0 0.28997759434929321 0.39444483201859898 0 0.29596301088972932 0.39615150461908938 0 0.29596301088972932 0.39615150461908938 0 0.29769595388288578 0.38856618811959009 0 0.28997759434929321 0.39444483201859898 0 0.29596301088972932 0.39615150461908938 0 0.29769595388288578 0.38856618811959009 0 0.28997759434929321 0.39444483201859898 0 0.29596301088972932 0.39615150461908938 0 0.29596301088972932 0.39615150461908938 0 0.29769595388288578 0.38856618811959009 0 0.31402738116511192 0.39640868586822903 0 0.29769595388288578 0.38856618811959009 0 0.31402738116511192 0.39640868586822903 0 0.29596301088972932 0.39615150461908938 0 0.321349309308535 0.40339011527325958 0 0.31402738116511192 0.39640868586822903 0 0.30761435032256829 0.41547636128313792 0 0.29596301088972932 0.39615150461908938 0 0.321349309308535 0.40339011527325958 0 0.29596301088972932 0.39615150461908938 0 0.321349309308535 0.40339011527325958 0 0.29769595388288578 0.38856618811959009 0 0.30916813764674339 0.38371520530725362 0 0.31402738116511192 0.39640868586822903 0 0.29769595388288578 0.38856618811959009 0 0.30103973626508412 0.37393001845066609 0 0.29769595388288578 0.38856618811959009 0 0.30916813764674339 0.38371520530725362 0 0.30103973626508412 0.37393001845066609 0 0.2949846934959599 0.37813488750545782 0 0.29769595388288578 0.38856618811959009 0 0.30103973626508412 0.37393001845066609 0 0.30916813764674339 0.38371520530725362 0 0.30822948250808302 0.37585122621143691 0 0.31639743397056341 0.377401376404571 0 0.30916813764674339 0.38371520530725362 0 0.30822948250808302 0.37585122621143691 0 0.30103973626508412 0.37393001845066609 0 0.31639743397056341 0.377401376404571 0 0.31770155165048442 0.38725274020132761 0 0.32442236347929893 0.38314270900358799 0 0.30916813764674339 0.38371520530725362 0 0.31639743397056341 0.377401376404571 0 0.31770155165048442 0.38725274020132761 0 0.30916813764674339 0.38371520530725362 0 0.31770155165048442 0.38725274020132761 0 0.31402738116511192 0.39640868586822903 0 0.32442236347929893 0.38314270900358799 0 0.33102126608008742 0.38792999601588418 0 0.3252597200959807 0.39386085788689151 0 0.31770155165048442 0.38725274020132761 0 0.32442236347929893 0.38314270900358799 0 0.3252597200959807 0.39386085788689151 0 0.32442236347929893 0.38314270900358799 0 0.33033939230015041 0.37768374485751222 0 0.32454133433499588 0.37212435075831879 0 0.31639743397056341 0.377401376404571 0 0.32442236347929893 0.38314270900358799 0 0.32454133433499588 0.37212435075831879 0 0.33033939230015041 0.37768374485751222 0 0.33655751475364748 0.38226554753368869 0 0.3367923942874233 0.37052755481984911 0 0.33780147286707768 0.39406687675256669 0 0.34653699238706381 0.37584457959385048 0 0.33655751475364748 0.38226554753368869 0 0.33780147286707768 0.39406687675256669 0 0.34653699238706381 0.37584457959385048 0 0.33033939230015041 0.37768374485751222 0 0.33102126608008742 0.38792999601588418 0 0.33655751475364748 0.38226554753368869 0 0.32442236347929893 0.38314270900358799 0 0.33033939230015041 0.37768374485751222 0 0.33102126608008742 0.38792999601588418 0 0.33102126608008742 0.38792999601588418 0 0.33655751475364748 0.38226554753368869 0 0.33780147286707768 0.39406687675256669 0 0.33655751475364748 0.38226554753368869 0 0.34653699238706381 0.37584457959385048 0 0.3367923942874233 0.37052755481984911 0 0.34107305885848999 0.40321252611324532 0 0.330358808447338 0.40425118361686768 0 0.34673560772734152 0.41062872592742672 0 0.330358808447338 0.40425118361686768 0 0.321349309308535 0.40339011527325958 0 0.34673560772734152 0.41062872592742672 0 0.34107305885848999 0.40321252611324532 0 0.33780147286707768 0.39406687675256669 0 0.330358808447338 0.40425118361686768 0 0.34107305885848999 0.40321252611324532 0 0.33780147286707768 0.39406687675256669 0 0.34489910636695548 0.40013874292309759 0 0.33780147286707768 0.39406687675256669 0 0.34757228123807032 0.39514578968338748 0 0.34489910636695548 0.40013874292309759 0 0.33102126608008742 0.38792999601588418 0 0.33780147286707768 0.39406687675256669 0 0.3252597200959807 0.39386085788689151 0 0.33780147286707768 0.39406687675256669 0 0.330358808447338 0.40425118361686768 0 0.3252597200959807 0.39386085788689151 0 0.330358808447338 0.40425118361686768 0 0.321349309308535 0.40339011527325958 0 0.31402738116511192 0.39640868586822903 0 0.330358808447338 0.40425118361686768 0 0.3252597200959807 0.39386085788689151 0 0.31402738116511192 0.39640868586822903 0 0.330358808447338 0.40425118361686768 0 0.31402738116511192 0.39640868586822903 0 0.31770155165048442 0.38725274020132761 0 0.3252597200959807 0.39386085788689151 0 0.31402738116511192 0.39640868586822903 0 0.30761435032256829 0.41547636128313792 0 0.321349309308535 0.40339011527325958 0 0.3213797918180531 0.42519740513218179 0 0.321349309308535 0.40339011527325958 0 0.3213797918180531 0.42519740513218179 0 0.33613783919233481 0.42300066264927688 0 0.30878098795435288 0.4330107797964563 0 0.30761435032256829 0.41547636128313792 0 0.3213797918180531 0.42519740513218179 0 0.32146058160958502 0.43938239923666922 0 0.30878098795435288 0.4330107797964563 0 0.3213797918180531 0.42519740513218179 0 0.32146058160958502 0.43938239923666922 0 0.3213797918180531 0.42519740513218179 0 0.33324359782373297 0.43491575574025571 0 0.33324359782373297 0.43491575574025571 0 0.33613783919233481 0.42300066264927688 0 0.34911054540060532 0.43140654506954701 0 0.3402577354876144 0.44371790825716678 0 0.33324359782373297 0.43491575574025571 0 0.34911054540060532 0.43140654506954701 0 0.3213797918180531 0.42519740513218179 0 0.33324359782373297 0.43491575574025571 0 0.33613783919233481 0.42300066264927688 0 0.321349309308535 0.40339011527325958 0 0.34673560772734152 0.41062872592742672 0 0.321349309308535 0.40339011527325958 0 0.33613783919233481 0.42300066264927688 0 0.34673560772734152 0.41062872592742672 0 0.34673560772734152 0.41062872592742672 0 0.36347146244019662 0.41540076217440702 0 0.35878951223348382 0.40388463571122529 0 0.33613783919233481 0.42300066264927688 0 0.34673560772734152 0.41062872592742672 0 0.34911054540060532 0.43140654506954701 0 0.34107305885848999 0.40321252611324532 0 0.34623965468449941 0.40628973937498142 0 0.34673560772734152 0.41062872592742672 0 0.34623965468449941 0.40628973937498142 0 0.34673560772734152 0.41062872592742672 0 0.34673560772734152 0.41062872592742672 0 0.34911054540060532 0.43140654506954701 0 0.34623965468449941 0.40628973937498142 0 0.34673560772734152 0.41062872592742672 0 0.3518090641866401 0.40197878269130671 0 0.34673560772734152 0.41062872592742672 0 0.36166832673390809 0.42817692990116529 0 0.36347146244019662 0.41540076217440702 0 0.34673560772734152 0.41062872592742672 0 0.36347146244019662 0.41540076217440702 0 0.34673560772734152 0.41062872592742672 0 0.34911054540060532 0.43140654506954701 0 0.36166832673390809 0.42817692990116529 0 0.36759308160263382 0.44069077566344278 0 0.34911054540060532 0.43140654506954701 0 0.36166832673390809 0.42817692990116529 0 0.36166832673390809 0.42817692990116529 0 0.37461525171859988 0.43019365704791368 0 0.37102625942533612 0.41929375164671939 0 0.36759308160263382 0.44069077566344278 0 0.36166832673390809 0.42817692990116529 0 0.37461525171859988 0.43019365704791368 0 0.36347146244019662 0.41540076217440702 0 0.37102625942533612 0.41929375164671939 0 0.38020731715305239 0.42017279842138422 0 0.36347146244019662 0.41540076217440702 0 0.37209493371354091 0.40659424812207351 0 0.38020731715305239 0.42017279842138422 0 0.36347146244019662 0.41540076217440702 0 0.38020731715305239 0.42017279842138422 0 0.36347146244019662 0.41540076217440702 0 0.37209493371354091 0.40659424812207351 0 0.35878951223348382 0.40388463571122529 0 0.36166832673390809 0.42817692990116529 0 0.36347146244019662 0.41540076217440702 0 0.37102625942533612 0.41929375164671939 0 0.37209493371354091 0.40659424812207351 0 0.36553506409241882 0.39735961870647812 0 0.37646299548540302 0.39618012433209843 0 0.37209493371354091 0.40659424812207351 0 0.36553506409241882 0.39735961870647812 0 0.35878951223348382 0.40388463571122529 0 0.36553506409241882 0.39735961870647812 0 0.36721554665477091 0.38759835152755551 0 0.35619283196438689 0.39287225633943212 0 0.36553506409241882 0.39735961870647812 0 0.35878951223348382 0.40388463571122529 0 0.35619283196438689 0.39287225633943212 0 0.36553506409241882 0.39735961870647812 0 0.36721554665477091 0.38759835152755551 0 0.37646299548540302 0.39618012433209843 0 0.36721554665477091 0.38759835152755551 0 0.37927713716371919 0.38447561026290222 0 0.37646299548540302 0.39618012433209843 0 0.36721554665477091 0.38759835152755551 0 0.36859946894306378 0.37510046181231282 0 0.37927713716371919 0.38447561026290222 0 0.36859946894306378 0.37510046181231282 0 0.35720475670829621 0.38014238291503638 0 0.36101871522548451 0.37190545065412572 0 0.36721554665477091 0.38759835152755551 0 0.36859946894306378 0.37510046181231282 0 0.35720475670829621 0.38014238291503638 0 0.36721554665477091 0.38759835152755551 0 0.35720475670829621 0.38014238291503638 0 0.35619283196438689 0.39287225633943212 0 0.33780147286707768 0.39406687675256669 0 0.34653699238706381 0.37584457959385048 0 0.34906905739731903 0.38759822771964292 0 0.35720475670829621 0.38014238291503638 0 0.34906905739731903 0.38759822771964292 0 0.35619283196438689 0.39287225633943212 0 0.35720475670829621 0.38014238291503638 0 0.34653699238706381 0.37584457959385048 0 0.35606263023444551 0.37008304547179521 0 0.35720475670829621 0.38014238291503638 0 0.34653699238706381 0.37584457959385048 0 0.34906905739731903 0.38759822771964292 0 0.33780147286707768 0.39406687675256669 0 0.34906905739731903 0.38759822771964292 0 0.34757228123807032 0.39514578968338748 0 0.34906905739731903 0.38759822771964292 0 0.34757228123807032 0.39514578968338748 0 0.35619283196438689 0.39287225633943212 0 0.34107305885848999 0.40321252611324532 0 0.34623965468449941 0.40628973937498142 0 0.34489910636695548 0.40013874292309759 0 0.34623965468449941 0.40628973937498142 0 0.34489910636695548 0.40013874292309759 0 0.3518090641866401 0.40197878269130671 0 0.34757228123807032 0.39514578968338748 0 0.34489910636695548 0.40013874292309759 0 0.3518090641866401 0.40197878269130671 0 0.34673560772734152 0.41062872592742672 0 0.3518090641866401 0.40197878269130671 0 0.35878951223348382 0.40388463571122529 0 0.3518090641866401 0.40197878269130671 0 0.35878951223348382 0.40388463571122529 0 0.35619283196438689 0.39287225633943212 0 0.34757228123807032 0.39514578968338748 0 0.3518090641866401 0.40197878269130671 0 0.35619283196438689 0.39287225633943212 0 0.35527251190705539 0.35762228243513688 0 0.35504514861607289 0.34481684927319378 0 0.36385823718965721 0.33971245611457918 0 0.35527251190705539 0.35762228243513688 0 0.36002218795423879 0.35699948966148509 0 0.35527251190705539 0.35762228243513688 0 0.35504514861607289 0.34481684927319378 0 0.34803422391006339 0.3476603823782114 0 0.35527251190705539 0.35762228243513688 0 0.34330192176654051 0.3591919046497849 0 0.35527251190705539 0.35762228243513688 0 0.34803422391006339 0.3476603823782114 0 0.34330192176654051 0.3591919046497849 0 0.34879398239122128 0.36623035869744919 0 0.34330192176654051 0.3591919046497849 0 0.34653699238706381 0.37584457959385048 0 0.35527251190705539 0.35762228243513688 0 0.34879398239122128 0.36623035869744919 0 0.34653699238706381 0.37584457959385048 0 0.35527251190705539 0.35762228243513688 0 0.35606263023444551 0.37008304547179521 0 0.34653699238706381 0.37584457959385048 0 0.35527251190705539 0.35762228243513688 0 0.35527251190705539 0.35762228243513688 0 0.34879398239122128 0.36623035869744919 0 0.34330192176654051 0.3591919046497849 0 0.34653699238706381 0.37584457959385048 0 0.34879398239122128 0.36623035869744919 0 0.3367923942874233 0.37052755481984911 0 0.35720475670829621 0.38014238291503638 0 0.35606263023444551 0.37008304547179521 0 0.36101871522548451 0.37190545065412572 0 0.35606263023444551 0.37008304547179521 0 0.36028017494433268 0.36490053176082882 0 0.36101871522548451 0.37190545065412572 0 0.35527251190705539 0.35762228243513688 0 0.35606263023444551 0.37008304547179521 0 0.36028017494433268 0.36490053176082882 0 0.35527251190705539 0.35762228243513688 0 0.36028017494433268 0.36490053176082882 0 0.36002218795423879 0.35699948966148509 0 0.36028017494433268 0.36490053176082882 0 0.36517133294745813 0.36172966377999433 0 0.36002218795423879 0.35699948966148509 0 0.36028017494433268 0.36490053176082882 0 0.36517133294745813 0.36172966377999433 0 0.36546759267325268 0.36776440321565279 0 0.36028017494433268 0.36490053176082882 0 0.36101871522548451 0.37190545065412572 0 0.36546759267325268 0.36776440321565279 0 0.36859946894306378 0.37510046181231282 0 0.36101871522548451 0.37190545065412572 0 0.36546759267325268 0.36776440321565279 0 0.36859946894306378 0.37510046181231282 0 0.36546759267325268 0.36776440321565279 0 0.37226827130592433 0.36518590807100237 0 0.36859946894306378 0.37510046181231282 0 0.37226827130592433 0.36518590807100237 0 0.3806406261938996 0.37286873145149591 0 0.37226827130592433 0.36518590807100237 0 0.36900178089622759 0.3552009353235786 0 0.3774158997637807 0.35809612644963279 0 0.36517133294745813 0.36172966377999433 0 0.37226827130592433 0.36518590807100237 0 0.36900178089622759 0.3552009353235786 0 0.36517133294745813 0.36172966377999433 0 0.36546759267325268 0.36776440321565279 0 0.37226827130592433 0.36518590807100237 0 0.36900178089622759 0.3552009353235786 0 0.37543545364944891 0.34965282560090127 0 0.3774158997637807 0.35809612644963279 0 0.35527251190705539 0.35762228243513688 0 0.36385823718965721 0.33971245611457918 0 0.35527251190705539 0.35762228243513688 0 0.36002218795423879 0.35699948966148509 0 0.36385823718965721 0.33971245611457918 0 0.36900178089622759 0.3552009353235786 0 0.36002218795423879 0.35699948966148509 0 0.36385823718965721 0.33971245611457918 0 0.36517133294745813 0.36172966377999433 0 0.36900178089622759 0.3552009353235786 0 0.36002218795423879 0.35699948966148509 0 0.36900178089622759 0.3552009353235786 0 0.36385823718965721 0.33971245611457918 0 0.37543545364944891 0.34965282560090127 0 0.36385823718965721 0.33971245611457918 0 0.37244396247226769 0.32180262979402602 0 0.36385823718965721 0.33971245611457918 0 0.38127304779083809 0.34120769568174653 0 0.37543545364944891 0.34965282560090127 0 0.36385823718965721 0.33971245611457918 0 0.37244396247226769 0.32180262979402602 0 0.38062769900083199 0.32878151859563198 0 0.36385823718965721 0.33971245611457918 0 0.37244396247226769 0.32180262979402602 0 0.35301562145752119 0.33427227616485028 0 0.37244396247226769 0.32180262979402602 0 0.35301562145752119 0.33427227616485028 0 0.37244396247226769 0.32180262979402602 0 0.3560941029259902 0.31769871315621201 0 0.37515378582598907 0.31614993721102608 0 0.37244396247226769 0.32180262979402602 0 0.3560941029259902 0.31769871315621201 0 0.35301562145752119 0.33427227616485028 0 0.37244396247226769 0.32180262979402602 0 0.37515378582598907 0.31614993721102608 0 0.3560941029259902 0.31769871315621201 0 0.35301562145752119 0.33427227616485028 0 0.3380867099691599 0.3253619683241612 0 0.3560941029259902 0.31769871315621201 0 0.3380867099691599 0.3253619683241612 0 0.33924651782773668 0.30825433687432641 0 0.34803422391006339 0.3476603823782114 0 0.35301562145752119 0.33427227616485028 0 0.33358728044277453 0.34674192253567482 0 0.35504514861607289 0.34481684927319378 0 0.34803422391006339 0.3476603823782114 0 0.35301562145752119 0.33427227616485028 0 0.35504514861607289 0.34481684927319378 0 0.36385823718965721 0.33971245611457918 0 0.35301562145752119 0.33427227616485028 0 0.35301562145752119 0.33427227616485028 0 0.33358728044277453 0.34674192253567482 0 0.35301562145752119 0.33427227616485028 0 0.3380867099691599 0.3253619683241612 0 0.33358728044277453 0.34674192253567482 0 0.3380867099691599 0.3253619683241612 0 0.32339584829622708 0.3336809001352643 0 0.33358728044277453 0.34674192253567482 0 0.32339584829622708 0.3336809001352643 0 0.33358728044277453 0.34674192253567482 0 0.3380867099691599 0.3253619683241612 0 0.32463220034621743 0.31372695477561119 0 0.33924651782773668 0.30825433687432641 0 0.3380867099691599 0.3253619683241612 0 0.32463220034621743 0.31372695477561119 0 0.32339584829622708 0.3336809001352643 0 0.32463220034621743 0.31372695477561119 0 0.31320441614968042 0.32061987773485318 0 0.32339584829622708 0.3336809001352643 0 0.31320441614968042 0.32061987773485318 0 0.32339584829622708 0.3336809001352643 0 0.31320441614968042 0.32061987773485318 0 0.31302546459621983 0.34033689908909093 0 0.31320441614968042 0.32061987773485318 0 0.32339584829622708 0.3336809001352643 0 0.31302546459621983 0.34033689908909093 0 0.32339584829622708 0.3336809001352643 0 0.32137009955926038 0.34499898845333521 0 0.33358728044277453 0.34674192253567482 0 0.32339584829622708 0.3336809001352643 0 0.31302546459621983 0.34033689908909093 0 0.32137009955926038 0.34499898845333521 0 0.32137009955926038 0.34499898845333521 0 0.33358728044277453 0.34674192253567482 0 0.31284651304275901 0.36005392044332862 0 0.33358728044277453 0.34674192253567482 0 0.31284651304275901 0.36005392044332862 0 0.31302546459621983 0.34033689908909093 0 0.31284651304275901 0.36005392044332862 0 0.33358728044277453 0.34674192253567482 0 0.32805999021241139 0.36119047565426632 0 0.31284651304275901 0.36005392044332862 0 0.31302546459621983 0.34033689908909093 0 0.32137009955926038 0.34499898845333521 0 0.31284651304275901 0.36005392044332862 0 0.33358728044277453 0.34674192253567482 0 0.34330192176654051 0.3591919046497849 0 0.32805999021241139 0.36119047565426632 0 0.33358728044277453 0.34674192253567482 0 0.34330192176654051 0.3591919046497849 0 0.34803422391006339 0.3476603823782114 0 0.33358728044277453 0.34674192253567482 0 0.34330192176654051 0.3591919046497849 0 0.34879398239122128 0.36623035869744919 0 0.34330192176654051 0.3591919046497849 0 0.3367923942874233 0.37052755481984911 0 0.34330192176654051 0.3591919046497849 0 0.3367923942874233 0.37052755481984911 0 0.32805999021241139 0.36119047565426632 0 0.34330192176654051 0.3591919046497849 0 0.32805999021241139 0.36119047565426632 0 0.3367923942874233 0.37052755481984911 0 0.32454133433499588 0.37212435075831879 0 0.32805999021241139 0.36119047565426632 0 0.33033939230015041 0.37768374485751222 0 0.3367923942874233 0.37052755481984911 0 0.32454133433499588 0.37212435075831879 0 0.32454133433499588 0.37212435075831879 0 0.32805999021241139 0.36119047565426632 0 0.3189127221117144 0.36898927193428049 0 0.32805999021241139 0.36119047565426632 0 0.31281805865828222 0.36318904665874518 0 0.32805999021241139 0.36119047565426632 0 0.31281805865828222 0.36318904665874518 0 0.3189127221117144 0.36898927193428049 0 0.31281805865828222 0.36318904665874518 0 0.31274679338231881 0.37104111019549979 0 0.32805999021241139 0.36119047565426632 0 0.31281805865828222 0.36318904665874518 0 0.31284651304275901 0.36005392044332862 0 0.31281805865828222 0.36318904665874518 0 0.31284651304275901 0.36005392044332862 0 0.31281805865828222 0.36318904665874518 0 0.31274679338231881 0.37104111019549979 0 0.3189127221117144 0.36898927193428049 0 0.31639743397056341 0.377401376404571 0 0.32454133433499588 0.37212435075831879 0 0.3189127221117144 0.36898927193428049 0 0.31639743397056341 0.377401376404571 0 0.31274679338231881 0.37104111019549979 0 0.3189127221117144 0.36898927193428049 0 0.30822948250808302 0.37585122621143691 0 0.30671499161451848 0.36398930040537641 0 0.30103973626508412 0.37393001845066609 0 0.30822948250808302 0.37585122621143691 0 0.31274679338231881 0.37104111019549979 0 0.30671499161451848 0.36398930040537641 0 0.30822948250808302 0.37585122621143691 0 0.31639743397056341 0.377401376404571 0 0.31274679338231881 0.37104111019549979 0 0.31281805865828222 0.36318904665874518 0 0.30671499161451848 0.36398930040537641 0 0.31281805865828222 0.36318904665874518 0 0.31274679338231881 0.37104111019549979 0 0.30671499161451848 0.36398930040537641 0 0.31281805865828222 0.36318904665874518 0 0.31284651304275901 0.36005392044332862 0 0.30671499161451848 0.36398930040537641 0 0.31284651304275901 0.36005392044332862 0 0.30671499161451848 0.36398930040537641 0 0.30671499161451848 0.36398930040537641 0 0.29396210666239347 0.37217445452841919 0 0.30671499161451848 0.36398930040537641 0 0.30103973626508412 0.37393001845066609 0 0.29396210666239347 0.37217445452841919 0 0.3107713256461706 0.35142275162123149 0 0.28531418873874947 0.35036805591371362 0 0.3107713256461706 0.35142275162123149 0 0.28531418873874947 0.35036805591371362 0 0.2978773360874028 0.34232597160953349 0 0.31302546459621983 0.34033689908909093 0 0.31284651304275901 0.36005392044332862 0 0.3107713256461706 0.35142275162123149 0 0.30671499161451848 0.36398930040537641 0 0.3107713256461706 0.35142275162123149 0 0.28531418873874947 0.35036805591371362 0 0.31302546459621983 0.34033689908909093 0 0.3107713256461706 0.35142275162123149 0 0.2978773360874028 0.34232597160953349 0 0.31284651304275901 0.36005392044332862 0 0.30671499161451848 0.36398930040537641 0 0.3107713256461706 0.35142275162123149 0 0.30671499161451848 0.36398930040537641 0 0.28307161757500138 0.36708949552406278 0 0.30671499161451848 0.36398930040537641 0 0.28531418873874947 0.35036805591371362 0 0.28307161757500138 0.36708949552406278 0 0.30671499161451848 0.36398930040537641 0 0.29396210666239347 0.37217445452841919 0 0.28307161757500138 0.36708949552406278 0 0.2949846934959599 0.37813488750545782 0 0.30103973626508412 0.37393001845066609 0 0.29396210666239347 0.37217445452841919 0 0.28847277150592981 0.37746057468263761 0 0.29396210666239347 0.37217445452841919 0 0.28307161757500138 0.36708949552406278 0 0.27856209870918508 0.37937793938116909 0 0.28847277150592981 0.37746057468263761 0 0.28307161757500138 0.36708949552406278 0 0.28307161757500138 0.36708949552406278 0 0.2707705249353588 0.35970184910440078 0 0.25942824353548422 0.3701896906427487 0 0.28307161757500138 0.36708949552406278 0 0.25942824353548422 0.3701896906427487 0 0.27856209870918508 0.37937793938116909 0 0.25942824353548422 0.3701896906427487 0 0.27856209870918508 0.37937793938116909 0 0.28307161757500138 0.36708949552406278 0 0.25942824353548422 0.3701896906427487 0 0.28531418873874947 0.35036805591371362 0 0.2707705249353588 0.35970184910440078 0 0.25985705183132851 0.34931336020619558 0 0.28531418873874947 0.35036805591371362 0 0.25985705183132851 0.34931336020619558 0 0.28220408768517058 0.33727061774597028 0 0.28531418873874947 0.35036805591371362 0 0.28307161757500138 0.36708949552406278 0 0.2707705249353588 0.35970184910440078 0 0.28531418873874947 0.35036805591371362 0 0.25985705183132851 0.34931336020619558 0 0.23975277161822009 0.36074135268991742 0 0.25985705183132851 0.34931336020619558 0 0.25942824353548422 0.3701896906427487 0 0.2707705249353588 0.35970184910440078 0 0.25985705183132851 0.34931336020619558 0 0.25942824353548422 0.3701896906427487 0 0.25425045627425169 0.32892326829153973 0 0.26946476493592098 0.32662060732959752 0 0.25732352252861429 0.31170377556311513 0 0.24144820878411541 0.31794920375138142 0 0.25425045627425169 0.32892326829153973 0 0.25732352252861429 0.31170377556311513 0 0.24772732657349961 0.34061391323805368 0 0.25985705183132851 0.34931336020619558 0 0.25425045627425169 0.32892326829153973 0 0.25985705183132851 0.34931336020619558 0 0.25425045627425169 0.32892326829153973 0 0.26946476493592098 0.32662060732959752 0 0.25985705183132851 0.34931336020619558 0 0.26946476493592098 0.32662060732959752 0 0.28220408768517058 0.33727061774597028 0 0.26946476493592098 0.32662060732959752 0 0.28890898123097752 0.31982929152172918 0 0.28220408768517058 0.33727061774597028 0 0.26946476493592098 0.32662060732959752 0 0.28890898123097752 0.31982929152172918 0 0.27569002894757488 0.30517544319486212 0 0.26946476493592098 0.32662060732959752 0 0.27569002894757488 0.30517544319486212 0 0.25732352252861429 0.31170377556311513 0 0.28531418873874947 0.35036805591371362 0 0.28220408768517058 0.33727061774597028 0 0.2978773360874028 0.34232597160953349 0 0.28890898123097752 0.31982929152172918 0 0.28220408768517058 0.33727061774597028 0 0.29807161377070368 0.33223153367766151 0 0.28220408768517058 0.33727061774597028 0 0.2978773360874028 0.34232597160953349 0 0.29807161377070368 0.33223153367766151 0 0.31320441614968042 0.32061987773485318 0 0.31302546459621983 0.34033689908909093 0 0.29807161377070368 0.33223153367766151 0 0.31302546459621983 0.34033689908909093 0 0.2978773360874028 0.34232597160953349 0 0.29807161377070368 0.33223153367766151 0 0.31320441614968042 0.32061987773485318 0 0.28890898123097752 0.31982929152172918 0 0.29481897589681538 0.29705766944743089 0 0.31320441614968042 0.32061987773485318 0 0.28890898123097752 0.31982929152172918 0 0.29807161377070368 0.33223153367766151 0 0.31320441614968042 0.32061987773485318 0 0.29481897589681538 0.29705766944743089 0 0.29481897589681538 0.29705766944743089 0 0.27569002894757488 0.30517544319486212 0 0.27643353564395129 0.273495461160008 0 0.31320441614968042 0.32061987773485318 0 0.29481897589681538 0.29705766944743089 0 0.31337116041400059 0.30224786499345863 0 0.29481897589681538 0.29705766944743089 0 0.29623767854898048 0.28041420112579207 0 0.3135379046783201 0.28387585225206391 0 0.29481897589681538 0.29705766944743089 0 0.3135379046783201 0.28387585225206391 0 0.31337116041400059 0.30224786499345863 0 0.29481897589681538 0.29705766944743089 0 0.27643353564395129 0.273495461160008 0 0.29481897589681538 0.29705766944743089 0 0.27643353564395129 0.273495461160008 0 0.29623767854898048 0.28041420112579207 0 0.28890898123097752 0.31982929152172918 0 0.29481897589681538 0.29705766944743089 0 0.27569002894757488 0.30517544319486212 0 0.27569002894757488 0.30517544319486212 0 0.25894087221403389 0.29572233245569518 0 0.27643353564395129 0.273495461160008 0 0.25894087221403389 0.29572233245569518 0 0.27643353564395129 0.273495461160008 0 0.24144820878411541 0.31794920375138142 0 0.25894087221403389 0.29572233245569518 0 0.24144820878411541 0.31794920375138142 0 0.25894087221403389 0.29572233245569518 0 0.25732352252861429 0.31170377556311513 0 0.27569002894757488 0.30517544319486212 0 0.25894087221403389 0.29572233245569518 0 0.25732352252861429 0.31170377556311513 0 0.24580151068289099 0.27363729747472648 0 0.25933000645894172 0.25157611021901422 0 0.27643353564395129 0.273495461160008 0 0.24580151068289099 0.27363729747472648 0 0.25894087221403389 0.29572233245569518 0 0.27643353564395129 0.273495461160008 0 0.25933000645894172 0.25157611021901422 0 0.28694034111612898 0.26014509779799561 0 0.25933000645894172 0.25157611021901422 0 0.28694034111612898 0.26014509779799561 0 0.2731172397574792 0.24256290321852991 0 0.25933000645894172 0.25157611021901422 0 0.27643353564395129 0.273495461160008 0 0.25933000645894172 0.25157611021901422 0 0.27643353564395129 0.273495461160008 0 0.28694034111612898 0.26014509779799561 0 0.28694034111612898 0.26014509779799561 0 0.2731172397574792 0.24256290321852991 0 0.29513857327887272 0.24972809915948049 0 0.28694034111612898 0.26014509779799561 0 0.28975382907128872 0.26951698362557353 0 0.29940376097609478 0.26401317441849842 0 0.28694034111612898 0.26014509779799561 0 0.29940376097609478 0.26401317441849842 0 0.28694034111612898 0.26014509779799561 0 0.29940376097609478 0.26401317441849842 0 0.29513857327887272 0.24972809915948049 0 0.28694034111612898 0.26014509779799561 0 0.29513857327887272 0.24972809915948049 0 0.27643353564395129 0.273495461160008 0 0.29623767854898048 0.28041420112579207 0 0.28975382907128872 0.26951698362557353 0 0.29623767854898048 0.28041420112579207 0 0.28975382907128872 0.26951698362557353 0 0.29940376097609478 0.26401317441849842 0 0.27643353564395129 0.273495461160008 0 0.28694034111612898 0.26014509779799561 0 0.27643353564395129 0.273495461160008 0 0.28694034111612898 0.26014509779799561 0 0.28975382907128872 0.26951698362557353 0 0.29623767854898048 0.28041420112579207 0 0.30856661454496093 0.2714506897318979 0 0.29940376097609478 0.26401317441849842 0 0.29623767854898048 0.28041420112579207 0 0.30856661454496093 0.2714506897318979 0 0.3135379046783201 0.28387585225206391 0 0.30856661454496093 0.2714506897318979 0 0.29940376097609478 0.26401317441849842 0 0.30726535604800248 0.2618909758573007 0 0.30856661454496093 0.2714506897318979 0 0.30726535604800248 0.2618909758573007 0 0.31503466717035927 0.26703667826581529 0 0.30726535604800248 0.2618909758573007 0 0.31818316426972387 0.25722623771081238 0 0.29513857327887272 0.24972809915948049 0 0.31818316426972387 0.25722623771081238 0 0.29513857327887272 0.24972809915948049 0 0.29940376097609478 0.26401317441849842 0 0.30726535604800248 0.2618909758573007 0 0.29513857327887272 0.24972809915948049 0 0.31818316426972387 0.25722623771081238 0 0.33779402892669591 0.26360712684734489 0 0.31818316426972387 0.25722623771081238 0 0.32463810111848379 0.27066603533553579 0 0.31503466717035927 0.26703667826581529 0 0.30726535604800248 0.2618909758573007 0 0.31818316426972387 0.25722623771081238 0 0.31503466717035927 0.26703667826581529 0 0.31818316426972387 0.25722623771081238 0 0.33201922052591171 0.26863344931662569 0 0.32463810111848379 0.27066603533553579 0 0.31818316426972387 0.25722623771081238 0 0.32463810111848379 0.27066603533553579 0 0.31818316426972387 0.25722623771081238 0 0.33084089493006752 0.25143756927828481 0 0.32215285561373952 0.2458190294923166 0 0.31818316426972387 0.25722623771081238 0 0.33779402892669591 0.26360712684734489 0 0.33201922052591171 0.26863344931662569 0 0.31818316426972387 0.25722623771081238 0 0.33084089493006752 0.25143756927828481 0 0.33779402892669591 0.26360712684734489 0 0.33084089493006752 0.25143756927828481 0 0.33779402892669591 0.26360712684734489 0 0.34285969426899532 0.24925208607327889 0 0.32463810111848379 0.27066603533553579 0 0.32827981970570669 0.28669119978183882 0 0.34147666268764992 0.28582733596070181 0 0.32463810111848379 0.27066603533553579 0 0.34147666268764992 0.28582733596070181 0 0.33664097460728448 0.27289311166856162 0 0.32463810111848379 0.27066603533553579 0 0.34147666268764992 0.28582733596070181 0 0.33664097460728448 0.27289311166856162 0 0.34147666268764992 0.28582733596070181 0 0.3464619661737362 0.2754999027051907 0 0.33779402892669591 0.26360712684734489 0 0.33664097460728448 0.27289311166856162 0 0.3464619661737362 0.2754999027051907 0 0.33779402892669591 0.26360712684734489 0 0.33664097460728448 0.27289311166856162 0 0.33201922052591171 0.26863344931662569 0 0.33664097460728448 0.27289311166856162 0 0.33201922052591171 0.26863344931662569 0 0.32463810111848379 0.27066603533553579 0 0.32046588774764262 0.27961015831029068 0 0.32463810111848379 0.27066603533553579 0 0.32827981970570669 0.28669119978183882 0 0.32046588774764262 0.27961015831029068 0 0.32463810111848379 0.27066603533553579 0 0.31616731322579938 0.27478641946127869 0 0.32463810111848379 0.27066603533553579 0 0.32827981970570669 0.28669119978183882 0 0.32463810111848379 0.27066603533553579 0 0.31503466717035927 0.26703667826581529 0 0.31616731322579938 0.27478641946127869 0 0.30856661454496093 0.2714506897318979 0 0.31503466717035927 0.26703667826581529 0 0.31616731322579938 0.27478641946127869 0 0.30856661454496093 0.2714506897318979 0 0.31616731322579938 0.27478641946127869 0 0.3135379046783201 0.28387585225206391 0 0.32046588774764262 0.27961015831029068 0 0.31616731322579938 0.27478641946127869 0 0.3135379046783201 0.28387585225206391 0 0.3135379046783201 0.28387585225206391 0 0.31337116041400059 0.30224786499345863 0 0.3135379046783201 0.28387585225206391 0 0.31337116041400059 0.30224786499345863 0 0.32397169697611827 0.29748468546433499 0 0.3135379046783201 0.28387585225206391 0 0.32397169697611827 0.29748468546433499 0 0.32827981970570669 0.28669119978183882 0 0.32046588774764262 0.27961015831029068 0 0.3135379046783201 0.28387585225206391 0 0.32827981970570669 0.28669119978183882 0 0.31320441614968042 0.32061987773485318 0 0.31337116041400059 0.30224786499345863 0 0.32463220034621743 0.31372695477561119 0 0.31320441614968042 0.32061987773485318 0 0.31337116041400059 0.30224786499345863 0 0.32463220034621743 0.31372695477561119 0 0.31337116041400059 0.30224786499345863 0 0.32397169697611827 0.29748468546433499 0 0.32463220034621743 0.31372695477561119 0 0.32397169697611827 0.29748468546433499 0 0.33924651782773668 0.30825433687432641 0 0.32397169697611827 0.29748468546433499 0 0.33924651782773668 0.30825433687432641 0 0.33554111411041487 0.29638566690029322 0 0.32397169697611827 0.29748468546433499 0 0.32827981970570669 0.28669119978183882 0 0.33554111411041487 0.29638566690029322 0 0.32827981970570669 0.28669119978183882 0 0.33554111411041487 0.29638566690029322 0 0.34147666268764992 0.28582733596070181 0 0.34147666268764992 0.28582733596070181 0 0.35899327106338319 0.28518392306546658 0 0.35831522425681611 0.30098863658586777 0 0.33554111411041487 0.29638566690029322 0 0.34147666268764992 0.28582733596070181 0 0.35831522425681611 0.30098863658586777 0 0.34147666268764992 0.28582733596070181 0 0.35831522425681611 0.30098863658586777 0 0.34147666268764992 0.28582733596070181 0 0.35899327106338319 0.28518392306546658 0 0.3464619661737362 0.2754999027051907 0 0.3560941029259902 0.31769871315621201 0 0.33924651782773668 0.30825433687432641 0 0.35831522425681611 0.30098863658586777 0 0.33924651782773668 0.30825433687432641 0 0.33554111411041487 0.29638566690029322 0 0.35831522425681611 0.30098863658586777 0 0.35831522425681611 0.30098863658586777 0 0.37515378582598907 0.31614993721102608 0 0.3560941029259902 0.31769871315621201 0 0.35831522425681611 0.30098863658586777 0 0.37515378582598907 0.31614993721102608 0 0.35831522425681611 0.30098863658586777 0 0.37134937161871567 0.29694909379495088 0 0.37515378582598907 0.31614993721102608 0 0.35899327106338319 0.28518392306546658 0 0.35831522425681611 0.30098863658586777 0 0.37134937161871567 0.29694909379495088 0 0.35899327106338319 0.28518392306546658 0 0.37134937161871567 0.29694909379495088 0 0.37701575824063849 0.27636890512041301 0 0.35899327106338319 0.28518392306546658 0 0.35740489358366728 0.26998801598387862 0 0.37701575824063849 0.27636890512041301 0 0.35740489358366728 0.26998801598387862 0 0.37701575824063849 0.27636890512041301 0 0.35740489358366728 0.26998801598387862 0 0.37701575824063849 0.27636890512041301 0 0.37585797484324479 0.27359628800569852 0 0.36978785820605081 0.2634652438420278 0 0.35740489358366728 0.26998801598387862 0 0.37585797484324479 0.27359628800569852 0 0.36978785820605081 0.2634652438420278 0 0.36430736403106673 0.25323084233556958 0 0.35740489358366728 0.26998801598387862 0 0.36430736403106673 0.25323084233556958 0 0.38158120036622462 0.25704582904296452 0 0.36883678126117009 0.24474921281383891 0 0.36978785820605081 0.2634652438420278 0 0.36430736403106673 0.25323084233556958 0 0.38158120036622462 0.25704582904296452 0 0.36430736403106673 0.25323084233556958 0 0.3516968734478001 0.25648411558653872 0 0.35740489358366728 0.26998801598387862 0 0.33779402892669591 0.26360712684734489 0 0.3516968734478001 0.25648411558653872 0 0.35740489358366728 0.26998801598387862 0 0.36430736403106673 0.25323084233556958 0 0.3516968734478001 0.25648411558653872 0 0.35611838642857491 0.246342506692621 0 0.3516968734478001 0.25648411558653872 0 0.34285969426899532 0.24925208607327889 0 0.35611838642857491 0.246342506692621 0 0.33779402892669591 0.26360712684734489 0 0.3516968734478001 0.25648411558653872 0 0.34285969426899532 0.24925208607327889 0 0.33779402892669591 0.26360712684734489 0 0.35740489358366728 0.26998801598387862 0 0.33779402892669591 0.26360712684734489 0 0.3464619661737362 0.2754999027051907 0 0.35740489358366728 0.26998801598387862 0 0.35899327106338319 0.28518392306546658 0 0.3464619661737362 0.2754999027051907 0 0.35740489358366728 0.26998801598387862 0 0.39190226405776102 0.28121260502405149 0 0.41317832675617211 0.28229755779105348 0 0.41243841254427471 0.27429615924938161 0 0.39190226405776102 0.28121260502405149 0 0.40194164981753971 0.26027044237566649 0 0.39190226405776102 0.28121260502405149 0 0.40194164981753971 0.26027044237566649 0 0.41243841254427471 0.27429615924938161 0 0.39190226405776102 0.28121260502405149 0 0.40194164981753971 0.26027044237566649 0 0.39044063242546889 0.26699771926417132 0 0.40194164981753971 0.26027044237566649 0 0.39769101060800582 0.25070658361372339 0 0.41198103557731919 0.23932827972728199 0 0.40194164981753971 0.26027044237566649 0 0.39769101060800582 0.25070658361372339 0 0.39044063242546889 0.26699771926417132 0 0.36978785820605081 0.2634652438420278 0 0.38158120036622462 0.25704582904296452 0 0.37585797484324479 0.27359628800569852 0 0.39769101060800582 0.25070658361372339 0 0.38158120036622462 0.25704582904296452 0 0.39044063242546889 0.26699771926417132 0 0.38158120036622462 0.25704582904296452 0 0.38888383497305651 0.2802304830374524 0 0.38158120036622462 0.25704582904296452 0 0.38888383497305651 0.2802304830374524 0 0.37585797484324479 0.27359628800569852 0 0.38158120036622462 0.25704582904296452 0 0.39044063242546889 0.26699771926417132 0 0.38888383497305651 0.2802304830374524 0 0.38888383497305651 0.2802304830374524 0 0.37701575824063849 0.27636890512041301 0 0.39190226405776102 0.28121260502405149 0 0.39044063242546889 0.26699771926417132 0 0.38888383497305651 0.2802304830374524 0 0.38888383497305651 0.2802304830374524 0 0.37701575824063849 0.27636890512041301 0 0.39026737329499972 0.28462298779896961 0 0.39190226405776102 0.28121260502405149 0 0.38888383497305651 0.2802304830374524 0 0.38888383497305651 0.2802304830374524 0 0.37701575824063849 0.27636890512041301 0 0.37585797484324479 0.27359628800569852 0 0.37701575824063849 0.27636890512041301 0 0.37585797484324479 0.27359628800569852 0 0.37701575824063849 0.27636890512041301 0 0.38502710627648312 0.29555418686320151 0 0.37701575824063849 0.27636890512041301 0 0.38502710627648312 0.29555418686320151 0 0.39026737329499972 0.28462298779896961 0 0.37134937161871567 0.29694909379495088 0 0.37701575824063849 0.27636890512041301 0 0.38502710627648312 0.29555418686320151 0 0.38502710627648312 0.29555418686320151 0 0.39026737329499972 0.28462298779896961 0 0.38888383497305651 0.2802304830374524 0 0.39026737329499972 0.28462298779896961 0 0.39190226405776102 0.28121260502405149 0 0.38888383497305651 0.2802304830374524 0 0.39026737329499972 0.28462298779896961 0 0.38502710627648312 0.29555418686320151 0 0.37515378582598907 0.31614993721102608 0 0.38502710627648312 0.29555418686320151 0 0.39101152567342889 0.30988545442066417 0 0.37515378582598907 0.31614993721102608 0 0.37134937161871567 0.29694909379495088 0 0.38502710627648312 0.29555418686320151 0 0.37515378582598907 0.31614993721102608 0 0.38502710627648312 0.29555418686320151 0 0.39101152567342889 0.30988545442066417 0 0.39701150870167101 0.3060344994401889 0 0.40902352893598187 0.29832485277466869 0 0.40022930768868847 0.31625047766647407 0 0.39101152567342889 0.30988545442066417 0 0.39701150870167101 0.3060344994401889 0 0.40022930768868847 0.31625047766647407 0 0.39101152567342889 0.30988545442066417 0 0.39701150870167101 0.3060344994401889 0 0.38502710627648312 0.29555418686320151 0 0.39101152567342889 0.30988545442066417 0 0.39701150870167101 0.3060344994401889 0 0.39701150870167101 0.3060344994401889 0 0.40902352893598187 0.29832485277466869 0 0.39701150870167101 0.3060344994401889 0 0.40897301833268468 0.29071342270257622 0 0.40902352893598187 0.29832485277466869 0 0.39701150870167101 0.3060344994401889 0 0.40022930768868847 0.31625047766647407 0 0.39026737329499972 0.28462298779896961 0 0.39701150870167101 0.3060344994401889 0 0.40897301833268468 0.29071342270257622 0 0.39026737329499972 0.28462298779896961 0 0.39701150870167101 0.3060344994401889 0 0.38502710627648312 0.29555418686320151 0 0.39026737329499972 0.28462298779896961 0 0.39701150870167101 0.3060344994401889 0 0.39190226405776102 0.28121260502405149 0 0.42017879089249599 0.29041308578075731 0 0.39190226405776102 0.28121260502405149 0 0.39026737329499972 0.28462298779896961 0 0.40897301833268468 0.29071342270257622 0 0.39190226405776102 0.28121260502405149 0 0.39026737329499972 0.28462298779896961 0 0.39190226405776102 0.28121260502405149 0 0.41317832675617211 0.28229755779105348 0 0.42017879089249599 0.29041308578075731 0 0.39190226405776102 0.28121260502405149 0 0.40897301833268468 0.29071342270257622 0 0.42017879089249599 0.29041308578075731 0 0.40897301833268468 0.29071342270257622 0 0.40902352893598187 0.29832485277466869 0 0.40897301833268468 0.29071342270257622 0 0.41657877378617431 0.29347568776076638 0 0.40902352893598187 0.29832485277466869 0 0.41657877378617431 0.29347568776076638 0 0.40902352893598187 0.29832485277466869 0 0.40897301833268468 0.29071342270257622 0 0.42017879089249599 0.29041308578075731 0 0.41657877378617431 0.29347568776076638 0 0.42017879089249599 0.29041308578075731 0 0.41657877378617431 0.29347568776076638 0 0.42551908370445118 0.30048575741543099 0 0.41317832675617211 0.28229755779105348 0 0.4201945647687137 0.28509485942812779 0 0.42176773931566031 0.28057846811846188 0 0.41317832675617211 0.28229755779105348 0 0.42017879089249599 0.29041308578075731 0 0.4201945647687137 0.28509485942812779 0 0.40902352893598187 0.29832485277466869 0 0.40920794206707828 0.3261140209893324 0 0.40902352893598187 0.29832485277466869 0 0.41949781835998801 0.30951283203213781 0 0.40920794206707828 0.3261140209893324 0 0.41657877378617431 0.29347568776076638 0 0.40902352893598187 0.29832485277466869 0 0.41765480119664872 0.30044978249575072 0 0.40902352893598187 0.29832485277466869 0 0.41765480119664872 0.30044978249575072 0 0.41949781835998801 0.30951283203213781 0 0.41657877378617431 0.29347568776076638 0 0.41765480119664872 0.30044978249575072 0 0.42551908370445118 0.30048575741543099 0 0.41765480119664872 0.30044978249575072 0 0.41949781835998801 0.30951283203213781 0 0.42551908370445118 0.30048575741543099 0 0.42551908370445118 0.30048575741543099 0 0.43181637178898469 0.3081410290781324 0 0.44845531772723352 0.29961356653745552 0 0.41949781835998801 0.30951283203213781 0 0.42551908370445118 0.30048575741543099 0 0.43181637178898469 0.3081410290781324 0 0.42017879089249599 0.29041308578075731 0 0.42551908370445118 0.30048575741543099 0 0.44845531772723352 0.29961356653745552 0 0.42017879089249599 0.29041308578075731 0 0.42941107398530393 0.28677442597534297 0 0.44845531772723352 0.29961356653745552 0 0.42017879089249599 0.29041308578075731 0 0.44845531772723352 0.29961356653745552 0 0.42941107398530393 0.28677442597534297 0 0.42858348957370401 0.2789473700085135 0 0.42176773931566031 0.28057846811846188 0 0.4201945647687137 0.28509485942812779 0 0.42941107398530393 0.28677442597534297 0 0.42176773931566031 0.28057846811846188 0 0.42017879089249599 0.29041308578075731 0 0.4201945647687137 0.28509485942812779 0 0.42941107398530393 0.28677442597534297 0 0.42941107398530393 0.28677442597534297 0 0.43728654163401559 0.28599920597874262 0 0.42858348957370401 0.2789473700085135 0 0.43728654163401559 0.28599920597874262 0 0.43519112619902428 0.27385722433306442 0 0.42858348957370401 0.2789473700085135 0 0.43519112619902428 0.27385722433306442 0 0.42914305563336053 0.27260321679491689 0 0.42858348957370401 0.2789473700085135 0 0.43519112619902428 0.27385722433306442 0 0.42914305563336053 0.27260321679491689 0 0.43051069958662108 0.26262303157993422 0 0.42914305563336053 0.27260321679491689 0 0.42245907254963699 0.27355577880365739 0 0.42102902552668292 0.26656789501187189 0 0.42914305563336053 0.27260321679491689 0 0.42102902552668292 0.26656789501187189 0 0.43051069958662108 0.26262303157993422 0 0.42914305563336053 0.27260321679491689 0 0.42858348957370401 0.2789473700085135 0 0.42245907254963699 0.27355577880365739 0 0.42858348957370401 0.2789473700085135 0 0.42245907254963699 0.27355577880365739 0 0.42176773931566031 0.28057846811846188 0 0.42245907254963699 0.27355577880365739 0 0.42176773931566031 0.28057846811846188 0 0.41243841254427471 0.27429615924938161 0 0.40194164981753971 0.26027044237566649 0 0.42102902552668292 0.26656789501187189 0 0.41243841254427471 0.27429615924938161 0 0.41317832675617211 0.28229755779105348 0 0.42176773931566031 0.28057846811846188 0 0.41243841254427471 0.27429615924938161 0 0.42245907254963699 0.27355577880365739 0 0.42102902552668292 0.26656789501187189 0 0.41243841254427471 0.27429615924938161 0 0.40194164981753971 0.26027044237566649 0 0.42102902552668292 0.26656789501187189 0 0.4214236879189977 0.25385601230963539 0 0.40194164981753971 0.26027044237566649 0 0.4214236879189977 0.25385601230963539 0 0.41198103557731919 0.23932827972728199 0 0.4214236879189977 0.25385601230963539 0 0.43051069958662108 0.26262303157993422 0 0.43063296504362181 0.25380982229139198 0 0.43519112619902428 0.27385722433306442 0 0.43051069958662108 0.26262303157993422 0 0.44036363658667538 0.25645444177873772 0 0.42102902552668292 0.26656789501187189 0 0.4214236879189977 0.25385601230963539 0 0.43051069958662108 0.26262303157993422 0 0.43063296504362181 0.25380982229139198 0 0.44036363658667538 0.25645444177873772 0 0.43023383608219318 0.2423058034972608 0 0.43051069958662108 0.26262303157993422 0 0.43063296504362181 0.25380982229139198 0 0.44036363658667538 0.25645444177873772 0 0.44036363658667538 0.25645444177873772 0 0.44566657192315851 0.26233784949019018 0 0.44988817805137449 0.25477347674998468 0 0.44566657192315851 0.26233784949019018 0 0.44988817805137449 0.25477347674998468 0 0.45963687631606082 0.26163327473548831 0 0.44036363658667538 0.25645444177873772 0 0.44988817805137449 0.25477347674998468 0 0.44684841970518652 0.2445411477309167 0 0.44566657192315851 0.26233784949019018 0 0.46377771461543882 0.27646206063761608 0 0.444515551331573 0.28595968545284989 0 0.43519112619902428 0.27385722433306442 0 0.44036363658667538 0.25645444177873772 0 0.444515551331573 0.28595968545284989 0 0.44036363658667538 0.25645444177873772 0 0.44566657192315851 0.26233784949019018 0 0.444515551331573 0.28595968545284989 0 0.44036363658667538 0.25645444177873772 0 0.444515551331573 0.28595968545284989 0 0.44566657192315851 0.26233784949019018 0 0.46377771461543882 0.27646206063761608 0 0.44566657192315851 0.26233784949019018 0 0.46377771461543882 0.27646206063761608 0 0.45963687631606082 0.26163327473548831 0 0.46377771461543882 0.27646206063761608 0 0.45963687631606082 0.26163327473548831 0 0.4740483249193963 0.25704937579464482 0 0.45963687631606082 0.26163327473548831 0 0.4740483249193963 0.25704937579464482 0 0.45692538572579128 0.24890067001459051 0 0.44988817805137449 0.25477347674998468 0 0.45963687631606082 0.26163327473548831 0 0.45692538572579128 0.24890067001459051 0 0.46377771461543882 0.27646206063761608 0 0.48361495842727242 0.27200274467265589 0 0.48188885730771902 0.29058627178504198 0 0.46377771461543882 0.27646206063761608 0 0.4740483249193963 0.25704937579464482 0 0.48361495842727242 0.27200274467265589 0 0.48361495842727242 0.27200274467265589 0 0.5 0.2786399186163081 0 0.48188885730771902 0.29058627178504198 0 0.48361495842727242 0.27200274467265589 0 0.5 0.2786399186163081 0 0.5 0.25256935430014837 0 0.4740483249193963 0.25704937579464482 0 0.48361495842727242 0.27200274467265589 0 0.5 0.25256935430014837 0 0.49185040091682442 0.30041779165638949 0 0.47566991111203649 0.31795532524429609 0 0.49019297254582761 0.31434565782655832 0 0.49185040091682442 0.30041779165638949 0 0.49999999999999939 0.30471048293246777 0 0.48188885730771902 0.29058627178504198 0 0.49999999999999939 0.30471048293246777 0 0.48188885730771902 0.29058627178504198 0 0.49185040091682442 0.30041779165638949 0 0.49999999999999939 0.30471048293246777 0 0.49019297254582761 0.31434565782655832 0 0.5 0.2786399186163081 0 0.49999999999999939 0.30471048293246777 0 0.48188885730771902 0.29058627178504198 0 0.46377771461543882 0.27646206063761608 0 0.48188885730771902 0.29058627178504198 0 0.46377771461543882 0.27646206063761608 0 0.48188885730771902 0.29058627178504198 0 0.46907842464992699 0.29225481657292579 0 0.48188885730771902 0.29058627178504198 0 0.46907842464992699 0.29225481657292579 0 0.47681421042754718 0.30038519750321979 0 0.49185040091682442 0.30041779165638949 0 0.47681421042754718 0.30038519750321979 0 0.47566991111203649 0.31795532524429609 0 0.49185040091682442 0.30041779165638949 0 0.47566991111203649 0.31795532524429609 0 0.47681421042754718 0.30038519750321979 0 0.46462924760385022 0.30284017064709262 0 0.47566991111203649 0.31795532524429609 0 0.46907842464992699 0.29225481657292579 0 0.47681421042754718 0.30038519750321979 0 0.46462924760385022 0.30284017064709262 0 0.49185040091682442 0.30041779165638949 0 0.48188885730771902 0.29058627178504198 0 0.47681421042754718 0.30038519750321979 0 0.46462924760385022 0.30284017064709262 0 0.44845531772723352 0.29961356653745552 0 0.45595021591771862 0.31694495759805258 0 0.46462924760385022 0.30284017064709262 0 0.45828209329508018 0.29100038229165859 0 0.44845531772723352 0.29961356653745552 0 0.46377771461543882 0.27646206063761608 0 0.46907842464992699 0.29225481657292579 0 0.45828209329508018 0.29100038229165859 0 0.46377771461543882 0.27646206063761608 0 0.45828209329508018 0.29100038229165859 0 0.444515551331573 0.28595968545284989 0 0.46907842464992699 0.29225481657292579 0 0.46462924760385022 0.30284017064709262 0 0.45828209329508018 0.29100038229165859 0 0.42941107398530393 0.28677442597534297 0 0.43728654163401559 0.28599920597874262 0 0.44845531772723352 0.29961356653745552 0 0.45828209329508018 0.29100038229165859 0 0.444515551331573 0.28595968545284989 0 0.44845531772723352 0.29961356653745552 0 0.43728654163401559 0.28599920597874262 0 0.444515551331573 0.28595968545284989 0 0.44845531772723352 0.29961356653745552 0 0.43728654163401559 0.28599920597874262 0 0.43519112619902428 0.27385722433306442 0 0.444515551331573 0.28595968545284989 0 0.43181637178898469 0.3081410290781324 0 0.44845531772723352 0.29961356653745552 0 0.44154965556794862 0.31361467052655922 0 0.44845531772723352 0.29961356653745552 0 0.44154965556794862 0.31361467052655922 0 0.45595021591771862 0.31694495759805258 0 0.4406910703786891 0.32966016318026709 0 0.45948942130724868 0.33549285883220281 0 0.45595021591771862 0.31694495759805258 0 0.44154965556794862 0.31361467052655922 0 0.4406910703786891 0.32966016318026709 0 0.45595021591771862 0.31694495759805258 0 0.4406910703786891 0.32966016318026709 0 0.45948942130724868 0.33549285883220281 0 0.44330893150246092 0.35303039242010947 0 0.46462924760385022 0.30284017064709262 0 0.45595021591771862 0.31694495759805258 0 0.47566991111203649 0.31795532524429609 0 0.45948942130724868 0.33549285883220281 0 0.45595021591771862 0.31694495759805258 0 0.47566991111203649 0.31795532524429609 0 0.45948942130724868 0.33549285883220281 0 0.47566991111203649 0.31795532524429609 0 0.45948942130724868 0.33549285883220281 0 0.47566991111203649 0.31795532524429609 0 0.48471640080795791 0.34448362128997861 0 0.47566991111203649 0.31795532524429609 0 0.5 0.33170550997296228 0 0.48471640080795791 0.34448362128997861 0 0.49999999999999939 0.30471048293246777 0 0.5 0.33170550997296228 0 0.49019297254582761 0.31434565782655832 0 0.47566991111203649 0.31795532524429609 0 0.5 0.33170550997296228 0 0.49019297254582761 0.31434565782655832 0 0.5 0.35870053701345678 0 0.48140772818349942 0.37068496863394979 0 0.5 0.38569556405395128 0 0.5 0.33170550997296228 0 0.5 0.35870053701345678 0 0.48471640080795791 0.34448362128997861 0 0.5 0.35870053701345678 0 0.48471640080795791 0.34448362128997861 0 0.48140772818349942 0.37068496863394979 0 0.48471640080795791 0.34448362128997861 0 0.48140772818349942 0.37068496863394979 0 0.46561957858498698 0.35508120247922292 0 0.45948942130724868 0.33549285883220281 0 0.48471640080795791 0.34448362128997861 0 0.46561957858498698 0.35508120247922292 0 0.48471640080795791 0.34448362128997861 0 0.48140772818349942 0.37068496863394979 0 0.45917541112376842 0.37171417121987399 0 0.46561957858498698 0.35508120247922292 0 0.44330893150246092 0.35303039242010947 0 0.48140772818349942 0.37068496863394979 0 0.45917541112376842 0.37171417121987399 0 0.46561957858498698 0.35508120247922292 0 0.45948942130724868 0.33549285883220281 0 0.46561957858498698 0.35508120247922292 0 0.44330893150246092 0.35303039242010947 0 0.45948942130724868 0.33549285883220281 0 0.44330893150246092 0.35303039242010947 0 0.45917541112376842 0.37171417121987399 0 0.44330893150246092 0.35303039242010947 0 0.44134471465003172 0.3763175360886995 0 0.44330893150246092 0.35303039242010947 0 0.42712844169767289 0.37056792600801608 0 0.44330893150246092 0.35303039242010947 0 0.42712844169767289 0.37056792600801608 0 0.44134471465003172 0.3763175360886995 0 0.44330893150246092 0.35303039242010947 0 0.42712844169767289 0.37056792600801608 0 0.42354541570953419 0.35637413201886331 0 0.42712844169767289 0.37056792600801608 0 0.41512881148608988 0.36764064382418798 0 0.42354541570953419 0.35637413201886331 0 0.42712844169767289 0.37056792600801608 0 0.4200533000412236 0.37351230578811612 0 0.41512881148608988 0.36764064382418798 0 0.4200533000412236 0.37351230578811612 0 0.41512881148608988 0.36764064382418798 0 0.41288476442111433 0.37239015717754642 0 0.4200533000412236 0.37351230578811612 0 0.41288476442111433 0.37239015717754642 0 0.41334401692486822 0.37810977951538971 0 0.41512881148608988 0.36764064382418798 0 0.40948844431921022 0.36838283461890498 0 0.40939235519817307 0.35390318920399599 0 0.40948844431921022 0.36838283461890498 0 0.40939235519817307 0.35390318920399599 0 0.40343393112959081 0.36118438324656832 0 0.40948844431921022 0.36838283461890498 0 0.40939235519817307 0.35390318920399599 0 0.41512881148608988 0.36764064382418798 0 0.40939235519817307 0.35390318920399599 0 0.40948844431921022 0.36838283461890498 0 0.4072476632330676 0.37343506413256772 0 0.41288476442111433 0.37239015717754642 0 0.4072476632330676 0.37343506413256772 0 0.41288476442111433 0.37239015717754642 0 0.41334401692486822 0.37810977951538971 0 0.41512881148608988 0.36764064382418798 0 0.40948844431921022 0.36838283461890498 0 0.41288476442111433 0.37239015717754642 0 0.40939235519817307 0.35390318920399599 0 0.42354541570953419 0.35637413201886331 0 0.42497089640733221 0.33989780088110172 0 0.40671895628996418 0.34457095385923581 0 0.40939235519817307 0.35390318920399599 0 0.40475821372796511 0.34280551758316719 0 0.40939235519817307 0.35390318920399599 0 0.40475821372796511 0.34280551758316719 0 0.41512881148608988 0.36764064382418798 0 0.40939235519817307 0.35390318920399599 0 0.42354541570953419 0.35637413201886331 0 0.44330893150246092 0.35303039242010947 0 0.42354541570953419 0.35637413201886331 0 0.42497089640733221 0.33989780088110172 0 0.4406910703786891 0.32966016318026709 0 0.42497089640733221 0.33989780088110172 0 0.42795562576167012 0.32115675278125511 0 0.4406910703786891 0.32966016318026709 0 0.44330893150246092 0.35303039242010947 0 0.42497089640733221 0.33989780088110172 0 0.44154965556794862 0.31361467052655922 0 0.4406910703786891 0.32966016318026709 0 0.42795562576167012 0.32115675278125511 0 0.43181637178898469 0.3081410290781324 0 0.44154965556794862 0.31361467052655922 0 0.42795562576167012 0.32115675278125511 0 0.41949781835998801 0.30951283203213781 0 0.43181637178898469 0.3081410290781324 0 0.42795562576167012 0.32115675278125511 0 0.41949781835998801 0.30951283203213781 0 0.42795562576167012 0.32115675278125511 0 0.40920794206707828 0.3261140209893324 0 0.40939235519817307 0.35390318920399599 0 0.40920794206707828 0.3261140209893324 0 0.40671895628996418 0.34457095385923581 0 0.40939235519817307 0.35390318920399599 0 0.40920794206707828 0.3261140209893324 0 0.40671895628996418 0.34457095385923581 0 0.40920794206707828 0.3261140209893324 0 0.40475821372796511 0.34280551758316719 0 0.42497089640733221 0.33989780088110172 0 0.42795562576167012 0.32115675278125511 0 0.40920794206707828 0.3261140209893324 0 0.40939235519817307 0.35390318920399599 0 0.42497089640733221 0.33989780088110172 0 0.40920794206707828 0.3261140209893324 0 0.40475821372796511 0.34280551758316719 0 0.39788486970069559 0.32634548600191632 0 0.40475821372796511 0.34280551758316719 0 0.3912247729639009 0.33062012020976073 0 0.39788486970069559 0.32634548600191632 0 0.40920794206707828 0.3261140209893324 0 0.40475821372796511 0.34280551758316719 0 0.39788486970069559 0.32634548600191632 0 0.40671895628996418 0.34457095385923581 0 0.40475821372796511 0.34280551758316719 0 0.40475821372796511 0.34280551758316719 0 0.3912247729639009 0.33062012020976073 0 0.40475821372796511 0.34280551758316719 0 0.3912247729639009 0.33062012020976073 0 0.39236912175157512 0.34623415966068 0 0.39101152567342889 0.30988545442066417 0 0.39788486970069559 0.32634548600191632 0 0.40902352893598187 0.29832485277466869 0 0.40920794206707828 0.3261140209893324 0 0.40022930768868847 0.31625047766647407 0 0.39101152567342889 0.30988545442066417 0 0.40022930768868847 0.31625047766647407 0 0.39788486970069559 0.32634548600191632 0 0.39101152567342889 0.30988545442066417 0 0.39788486970069559 0.32634548600191632 0 0.38928467232142833 0.32027164385265489 0 0.40920794206707828 0.3261140209893324 0 0.40022930768868847 0.31625047766647407 0 0.39788486970069559 0.32634548600191632 0 0.3912247729639009 0.33062012020976073 0 0.39788486970069559 0.32634548600191632 0 0.38928467232142833 0.32027164385265489 0 0.39101152567342889 0.30988545442066417 0 0.3776913321998383 0.31843472283635232 0 0.37515378582598907 0.31614993721102608 0 0.39101152567342889 0.30988545442066417 0 0.38928467232142833 0.32027164385265489 0 0.3776913321998383 0.31843472283635232 0 0.39101152567342889 0.30988545442066417 0 0.3776913321998383 0.31843472283635232 0 0.3912247729639009 0.33062012020976073 0 0.3776913321998383 0.31843472283635232 0 0.38062769900083199 0.32878151859563198 0 0.3912247729639009 0.33062012020976073 0 0.38928467232142833 0.32027164385265489 0 0.3776913321998383 0.31843472283635232 0 0.3912247729639009 0.33062012020976073 0 0.3776913321998383 0.31843472283635232 0 0.37244396247226769 0.32180262979402602 0 0.3776913321998383 0.31843472283635232 0 0.38062769900083199 0.32878151859563198 0 0.37244396247226769 0.32180262979402602 0 0.3776913321998383 0.31843472283635232 0 0.37515378582598907 0.31614993721102608 0 0.37244396247226769 0.32180262979402602 0 0.3776913321998383 0.31843472283635232 0 0.3776913321998383 0.31843472283635232 0 0.37515378582598907 0.31614993721102608 0 0.36385823718965721 0.33971245611457918 0 0.38062769900083199 0.32878151859563198 0 0.38127304779083809 0.34120769568174653 0 0.3912247729639009 0.33062012020976073 0 0.38127304779083809 0.34120769568174653 0 0.39236912175157512 0.34623415966068 0 0.3912247729639009 0.33062012020976073 0 0.38062769900083199 0.32878151859563198 0 0.38127304779083809 0.34120769568174653 0 0.38127304779083809 0.34120769568174653 0 0.37543545364944891 0.34965282560090127 0 0.38412300218961498 0.352245093908926 0 0.38127304779083809 0.34120769568174653 0 0.38412300218961498 0.352245093908926 0 0.39236912175157512 0.34623415966068 0 0.38412300218961498 0.352245093908926 0 0.38481193589815249 0.36080730650521697 0 0.39167295113229361 0.35663219953583503 0 0.38412300218961498 0.352245093908926 0 0.39236912175157512 0.34623415966068 0 0.39167295113229361 0.35663219953583503 0 0.37543545364944891 0.34965282560090127 0 0.38412300218961498 0.352245093908926 0 0.3774158997637807 0.35809612644963279 0 0.38412300218961498 0.352245093908926 0 0.3774158997637807 0.35809612644963279 0 0.38481193589815249 0.36080730650521697 0 0.37226827130592433 0.36518590807100237 0 0.3774158997637807 0.35809612644963279 0 0.37996840013495081 0.36495064855953152 0 0.3774158997637807 0.35809612644963279 0 0.37996840013495081 0.36495064855953152 0 0.38481193589815249 0.36080730650521697 0 0.37996840013495081 0.36495064855953152 0 0.3806406261938996 0.37286873145149591 0 0.38541131238530552 0.36720243759626292 0 0.37226827130592433 0.36518590807100237 0 0.37996840013495081 0.36495064855953152 0 0.3806406261938996 0.37286873145149591 0 0.3806406261938996 0.37286873145149591 0 0.38541131238530552 0.36720243759626292 0 0.39127790685191438 0.37175840914193697 0 0.3806406261938996 0.37286873145149591 0 0.39127790685191438 0.37175840914193697 0 0.38829268577774961 0.37968178923843349 0 0.38541131238530552 0.36720243759626292 0 0.39176978259222722 0.36444162687504078 0 0.39127790685191438 0.37175840914193697 0 0.37996840013495081 0.36495064855953152 0 0.38541131238530552 0.36720243759626292 0 0.38481193589815249 0.36080730650521697 0 0.38541131238530552 0.36720243759626292 0 0.38481193589815249 0.36080730650521697 0 0.39176978259222722 0.36444162687504078 0 0.38481193589815249 0.36080730650521697 0 0.39176978259222722 0.36444162687504078 0 0.39167295113229361 0.35663219953583503 0 0.39176978259222722 0.36444162687504078 0 0.39775181086595701 0.36101695484229818 0 0.40039882329204901 0.3686397209046483 0 0.39176978259222722 0.36444162687504078 0 0.39775181086595701 0.36101695484229818 0 0.39167295113229361 0.35663219953583503 0 0.39127790685191438 0.37175840914193697 0 0.40039882329204901 0.3686397209046483 0 0.40089906622598048 0.37841487580810079 0 0.39176978259222722 0.36444162687504078 0 0.39127790685191438 0.37175840914193697 0 0.40039882329204901 0.3686397209046483 0 0.4072476632330676 0.37343506413256772 0 0.40039882329204901 0.3686397209046483 0 0.40089906622598048 0.37841487580810079 0 0.40948844431921022 0.36838283461890498 0 0.4072476632330676 0.37343506413256772 0 0.40039882329204901 0.3686397209046483 0 0.40948844431921022 0.36838283461890498 0 0.40039882329204901 0.3686397209046483 0 0.40343393112959081 0.36118438324656832 0 0.39775181086595701 0.36101695484229818 0 0.40039882329204901 0.3686397209046483 0 0.40343393112959081 0.36118438324656832 0 0.40939235519817307 0.35390318920399599 0 0.40343393112959081 0.36118438324656832 0 0.40013822197256438 0.35397921666299381 0 0.39775181086595701 0.36101695484229818 0 0.40343393112959081 0.36118438324656832 0 0.40013822197256438 0.35397921666299381 0 0.40475821372796511 0.34280551758316719 0 0.40013822197256438 0.35397921666299381 0 0.39236912175157512 0.34623415966068 0 0.40939235519817307 0.35390318920399599 0 0.40475821372796511 0.34280551758316719 0 0.40013822197256438 0.35397921666299381 0 0.40013822197256438 0.35397921666299381 0 0.39236912175157512 0.34623415966068 0 0.39167295113229361 0.35663219953583503 0 0.39775181086595701 0.36101695484229818 0 0.40013822197256438 0.35397921666299381 0 0.39167295113229361 0.35663219953583503 0 0.39435887495177518 0.3883977955361666 0 0.4078258312226134 0.40625217548337678 0 0.39435887495177518 0.3883977955361666 0 0.38810325087669068 0.40656754938684853 0 0.4078258312226134 0.40625217548337678 0 0.39435887495177518 0.3883977955361666 0 0.4078258312226134 0.40625217548337678 0 0.41134018629313862 0.38766331403254828 0 0.40089906622598048 0.37841487580810079 0 0.39435887495177518 0.3883977955361666 0 0.41134018629313862 0.38766331403254828 0 0.40089906622598048 0.37841487580810079 0 0.39435887495177518 0.3883977955361666 0 0.38829268577774961 0.37968178923843349 0 0.39127790685191438 0.37175840914193697 0 0.40089906622598048 0.37841487580810079 0 0.38829268577774961 0.37968178923843349 0 0.39435887495177518 0.3883977955361666 0 0.38829268577774961 0.37968178923843349 0 0.37927713716371919 0.38447561026290222 0 0.39435887495177518 0.3883977955361666 0 0.37927713716371919 0.38447561026290222 0 0.37646299548540302 0.39618012433209843 0 0.36859946894306378 0.37510046181231282 0 0.3806406261938996 0.37286873145149591 0 0.37927713716371919 0.38447561026290222 0 0.3806406261938996 0.37286873145149591 0 0.38829268577774961 0.37968178923843349 0 0.37927713716371919 0.38447561026290222 0 0.37209493371354091 0.40659424812207351 0 0.37646299548540302 0.39618012433209843 0 0.38810325087669068 0.40656754938684853 0 0.39435887495177518 0.3883977955361666 0 0.37646299548540302 0.39618012433209843 0 0.38810325087669068 0.40656754938684853 0 0.38810325087669068 0.40656754938684853 0 0.38020731715305239 0.42017279842138422 0 0.40075005232325162 0.4221396769259862 0 0.37209493371354091 0.40659424812207351 0 0.38810325087669068 0.40656754938684853 0 0.38020731715305239 0.42017279842138422 0 0.38020731715305239 0.42017279842138422 0 0.40075005232325162 0.4221396769259862 0 0.37102625942533612 0.41929375164671939 0 0.38020731715305239 0.42017279842138422 0 0.36759308160263382 0.44069077566344278 0 0.37461525171859988 0.43019365704791368 0 0.38830529052380591 0.44015566481631141 0 0.37461525171859988 0.43019365704791368 0 0.38393856106725471 0.43036137444007128 0 0.38830529052380591 0.44015566481631141 0 0.37461525171859988 0.43019365704791368 0 0.37102625942533612 0.41929375164671939 0 0.38020731715305239 0.42017279842138422 0 0.37461525171859988 0.43019365704791368 0 0.38020731715305239 0.42017279842138422 0 0.38393856106725471 0.43036137444007128 0 0.38020731715305239 0.42017279842138422 0 0.38393856106725471 0.43036137444007128 0 0.39262638487356072 0.43092337747467618 0 0.38393856106725471 0.43036137444007128 0 0.39262638487356072 0.43092337747467618 0 0.38830529052380591 0.44015566481631141 0 0.38020731715305239 0.42017279842138422 0 0.40572439316185183 0.42744869879935099 0 0.38020731715305239 0.42017279842138422 0 0.39262638487356072 0.43092337747467618 0 0.40572439316185183 0.42744869879935099 0 0.38020731715305239 0.42017279842138422 0 0.40075005232325162 0.4221396769259862 0 0.40572439316185183 0.42744869879935099 0 0.39262638487356072 0.43092337747467618 0 0.40118761986914558 0.43952235518589611 0 0.38830529052380591 0.44015566481631141 0 0.39262638487356072 0.43092337747467618 0 0.40572439316185183 0.42744869879935099 0 0.40118761986914558 0.43952235518589611 0 0.38810325087669068 0.40656754938684853 0 0.40075005232325162 0.4221396769259862 0 0.4078258312226134 0.40625217548337678 0 0.4078258312226134 0.40625217548337678 0 0.42129278749345078 0.42410655543058762 0 0.40075005232325162 0.4221396769259862 0 0.4078258312226134 0.40625217548337678 0 0.42129278749345078 0.42410655543058762 0 0.4078258312226134 0.40625217548337678 0 0.42129278749345078 0.42410655543058762 0 0.42673989509381582 0.4132059168484718 0 0.4078258312226134 0.40625217548337678 0 0.42673989509381582 0.4132059168484718 0 0.42474503390221019 0.40248733428761119 0 0.40075005232325162 0.4221396769259862 0 0.42129278749345078 0.42410655543058762 0 0.40572439316185183 0.42744869879935099 0 0.42129278749345078 0.42410655543058762 0 0.40118761986914558 0.43952235518589611 0 0.40075005232325162 0.4221396769259862 0 0.40572439316185183 0.42744869879935099 0 0.42129278749345078 0.42410655543058762 0 0.42129278749345078 0.42410655543058762 0 0.43705569978741882 0.42561578646063708 0 0.42129278749345078 0.42410655543058762 0 0.43705569978741882 0.42561578646063708 0 0.43339993500078339 0.44015811209457673 0 0.42129278749345078 0.42410655543058762 0 0.43339993500078339 0.44015811209457673 0 0.43705569978741882 0.42561578646063708 0 0.43698629937090572 0.43867900635118828 0 0.43705569978741882 0.42561578646063708 0 0.43339993500078339 0.44015811209457673 0 0.43698629937090572 0.43867900635118828 0 0.42129278749345078 0.42410655543058762 0 0.43705569978741882 0.42561578646063708 0 0.42673989509381582 0.4132059168484718 0 0.42673989509381582 0.4132059168484718 0 0.43524690122100218 0.40561243733630881 0 0.42474503390221019 0.40248733428761119 0 0.43705569978741882 0.42561578646063708 0 0.42673989509381582 0.4132059168484718 0 0.4371140643415341 0.41462984368780109 0 0.43705569978741882 0.42561578646063708 0 0.4371140643415341 0.41462984368780109 0 0.42673989509381582 0.4132059168484718 0 0.4371140643415341 0.41462984368780109 0 0.43524690122100218 0.40561243733630881 0 0.43524690122100218 0.40561243733630881 0 0.43569998742214888 0.3933443479117148 0 0.42474503390221019 0.40248733428761119 0 0.43569998742214888 0.3933443479117148 0 0.42474503390221019 0.40248733428761119 0 0.42084421921265991 0.39429823540113879 0 0.4078258312226134 0.40625217548337678 0 0.42474503390221019 0.40248733428761119 0 0.42084421921265991 0.39429823540113879 0 0.4078258312226134 0.40625217548337678 0 0.42084421921265991 0.39429823540113879 0 0.41134018629313862 0.38766331403254828 0 0.4072476632330676 0.37343506413256772 0 0.40089906622598048 0.37841487580810079 0 0.41334401692486822 0.37810977951538971 0 0.40089906622598048 0.37841487580810079 0 0.41334401692486822 0.37810977951538971 0 0.41134018629313862 0.38766331403254828 0 0.42084421921265991 0.39429823540113879 0 0.41134018629313862 0.38766331403254828 0 0.42461005722318851 0.38174400529044311 0 0.41334401692486822 0.37810977951538971 0 0.41134018629313862 0.38766331403254828 0 0.42461005722318851 0.38174400529044311 0 0.4200533000412236 0.37351230578811612 0 0.41334401692486822 0.37810977951538971 0 0.42461005722318851 0.38174400529044311 0 0.42712844169767289 0.37056792600801608 0 0.42461005722318851 0.38174400529044311 0 0.44134471465003172 0.3763175360886995 0 0.42712844169767289 0.37056792600801608 0 0.4200533000412236 0.37351230578811612 0 0.42461005722318851 0.38174400529044311 0 0.43569998742214888 0.3933443479117148 0 0.42461005722318851 0.38174400529044311 0 0.44134471465003172 0.3763175360886995 0 0.43569998742214888 0.3933443479117148 0 0.42084421921265991 0.39429823540113879 0 0.42461005722318851 0.38174400529044311 0 0.43569998742214888 0.3933443479117148 0 0.44134471465003172 0.3763175360886995 0 0.45129800536115999 0.38886835367358302 0 0.45917541112376842 0.37171417121987399 0 0.44134471465003172 0.3763175360886995 0 0.45129800536115999 0.38886835367358302 0 0.45129800536115999 0.38886835367358302 0 0.44509838420544823 0.40216959163598659 0 0.45791809867633448 0.40520343338059173 0 0.43524690122100218 0.40561243733630881 0 0.44509838420544823 0.40216959163598659 0 0.44557545897167711 0.41076151088581891 0 0.43524690122100218 0.40561243733630881 0 0.43569998742214888 0.3933443479117148 0 0.44509838420544823 0.40216959163598659 0 0.43569998742214888 0.3933443479117148 0 0.45129800536115999 0.38886835367358302 0 0.44509838420544823 0.40216959163598659 0 0.44509838420544823 0.40216959163598659 0 0.45791809867633448 0.40520343338059173 0 0.44557545897167711 0.41076151088581891 0 0.45129800536115999 0.38886835367358302 0 0.45791809867633448 0.40520343338059173 0 0.46557965978076071 0.386671448577184 0 0.45791809867633448 0.40520343338059173 0 0.47809905555904098 0.39688631597792118 0 0.46483654347747699 0.41445487952559362 0 0.45791809867633448 0.40520343338059173 0 0.46557965978076071 0.386671448577184 0 0.47809905555904098 0.39688631597792118 0 0.45917541112376842 0.37171417121987399 0 0.45129800536115999 0.38886835367358302 0 0.46557965978076071 0.386671448577184 0 0.48140772818349942 0.37068496863394979 0 0.45917541112376842 0.37171417121987399 0 0.46557965978076071 0.386671448577184 0 0.48140772818349942 0.37068496863394979 0 0.46557965978076071 0.386671448577184 0 0.47809905555904098 0.39688631597792118 0 0.48140772818349942 0.37068496863394979 0 0.47809905555904098 0.39688631597792118 0 0.47809905555904098 0.39688631597792118 0 0.5 0.38569556405395128 0 0.50000000000000022 0.41269059109444578 0 0.48140772818349942 0.37068496863394979 0 0.47809905555904098 0.39688631597792118 0 0.5 0.38569556405395128 0 0.48592361876799173 0.4322808795144219 0 0.5 0.43549330157510729 0 0.50000000000000022 0.41269059109444578 0 0.48592361876799173 0.4322808795144219 0 0.50000000000000022 0.41269059109444578 0 0.47479038293458331 0.42308766332189268 0 0.50000000000000022 0.41269059109444578 0 0.47479038293458331 0.42308766332189268 0 0.47809905555904098 0.39688631597792118 0 0.47479038293458331 0.42308766332189268 0 0.46483654347747699 0.41445487952559362 0 0.47809905555904098 0.39688631597792118 0 0.47479038293458331 0.42308766332189268 0 0.47809905555904098 0.39688631597792118 0 0.50000000000000022 0.41269059109444578 0 0.47479038293458331 0.42308766332189268 0 0.48592361876799173 0.4322808795144219 0 0.47479038293458331 0.42308766332189268 0 0.47285450605513613 0.4384178540934382 0 0.47479038293458331 0.42308766332189268 0 0.47285450605513613 0.4384178540934382 0 0.47479038293458331 0.42308766332189268 0 0.46816708550875968 0.42859456778243737 0 0.47285450605513613 0.4384178540934382 0 0.46577366324085728 0.43645823601247918 0 0.46816708550875968 0.42859456778243737 0 0.47285450605513613 0.4384178540934382 0 0.46577366324085728 0.43645823601247918 0 0.46816708550875968 0.42859456778243737 0 0.46270574546087218 0.42807166797101948 0 0.46577366324085728 0.43645823601247918 0 0.46270574546087218 0.42807166797101948 0 0.45888974341956829 0.44163474561981753 0 0.47479038293458331 0.42308766332189268 0 0.46270574546087218 0.42807166797101948 0 0.47479038293458331 0.42308766332189268 0 0.46816708550875968 0.42859456778243737 0 0.46270574546087218 0.42807166797101948 0 0.46816708550875968 0.42859456778243737 0 0.46270574546087218 0.42807166797101948 0 0.47479038293458331 0.42308766332189268 0 0.46270574546087218 0.42807166797101948 0 0.46483654347747699 0.41445487952559362 0 0.46270574546087218 0.42807166797101948 0 0.46483654347747699 0.41445487952559362 0 0.45066943475655352 0.41902531697654138 0 0.45791809867633448 0.40520343338059173 0 0.46483654347747699 0.41445487952559362 0 0.45066943475655352 0.41902531697654138 0 0.45791809867633448 0.40520343338059173 0 0.44557545897167711 0.41076151088581891 0 0.45066943475655352 0.41902531697654138 0 0.43705569978741882 0.42561578646063708 0 0.4371140643415341 0.41462984368780109 0 0.45066943475655352 0.41902531697654138 0 0.4371140643415341 0.41462984368780109 0 0.44557545897167711 0.41076151088581891 0 0.45066943475655352 0.41902531697654138 0 0.4371140643415341 0.41462984368780109 0 0.43524690122100218 0.40561243733630881 0 0.44557545897167711 0.41076151088581891 0 0.43705569978741882 0.42561578646063708 0 0.46270574546087218 0.42807166797101948 0 0.45066943475655352 0.41902531697654138 0 0.46270574546087218 0.42807166797101948 0 0.43698629937090572 0.43867900635118828 0 0.43705569978741882 0.42561578646063708 0 0.46270574546087218 0.42807166797101948 0 0.46270574546087218 0.42807166797101948 0 0.44866911095318313 0.44343620090681052 0 0.43698629937090572 0.43867900635118828 0 0.43705569978741882 0.42561578646063708 0 0.46270574546087218 0.42807166797101948 0 0.43698629937090572 0.43867900635118828 0 0.44866911095318313 0.44343620090681052 0 0.43698629937090572 0.43867900635118828 0 0.43695341254739239 0.44486928342201271 0 0.44258026038828302 0.45232931204585031 0 0.43695341254739239 0.44486928342201271 0 0.44258026038828302 0.45232931204585031 0 0.44866911095318313 0.44343620090681052 0 0.43695341254739239 0.44486928342201271 0 0.44258026038828302 0.45232931204585031 0 0.44866911095318313 0.44343620090681052 0 0.45735360368167149 0.45449192974984542 0 0.44258026038828302 0.45232931204585031 0 0.44739354250497521 0.46399702312409119 0 0.43682091928266131 0.4698084514871369 0 0.44258026038828302 0.45232931204585031 0 0.43682091928266131 0.4698084514871369 0 0.43695341254739239 0.44486928342201271 0 0.44258026038828302 0.45232931204585031 0 0.44739354250497521 0.46399702312409119 0 0.45735360368167149 0.45449192974984542 0 0.45735360368167149 0.45449192974984542 0 0.46877808630569923 0.46744883487752148 0 0.45646779426241929 0.47036711717442781 0 0.44739354250497521 0.46399702312409119 0 0.45735360368167149 0.45449192974984542 0 0.45646779426241929 0.47036711717442781 0 0.45735360368167149 0.45449192974984542 0 0.47091862917568972 0.45374804486498371 0 0.46877808630569923 0.46744883487752148 0 0.46270574546087218 0.42807166797101948 0 0.44866911095318313 0.44343620090681052 0 0.45888974341956829 0.44163474561981753 0 0.45735360368167149 0.45449192974984542 0 0.45888974341956829 0.44163474561981753 0 0.46596666510049423 0.44541038537880201 0 0.44866911095318313 0.44343620090681052 0 0.45735360368167149 0.45449192974984542 0 0.45888974341956829 0.44163474561981753 0 0.45735360368167149 0.45449192974984542 0 0.46596666510049423 0.44541038537880201 0 0.47091862917568972 0.45374804486498371 0 0.46577366324085728 0.43645823601247918 0 0.46596666510049423 0.44541038537880201 0 0.47285450605513613 0.4384178540934382 0 0.46577366324085728 0.43645823601247918 0 0.45888974341956829 0.44163474561981753 0 0.46596666510049423 0.44541038537880201 0 0.48592361876799173 0.4322808795144219 0 0.47285450605513613 0.4384178540934382 0 0.48545912707908301 0.44677529635365909 0 0.47285450605513613 0.4384178540934382 0 0.47091862917568972 0.45374804486498371 0 0.48545912707908301 0.44677529635365909 0 0.47285450605513613 0.4384178540934382 0 0.47091862917568972 0.45374804486498371 0 0.46596666510049423 0.44541038537880201 0 0.47285450605513613 0.4384178540934382 0 0.47091862917568972 0.45374804486498371 0 0.47091862917568972 0.45374804486498371 0 0.48305800847568092 0.46241568601823541 0 0.48545912707908301 0.44677529635365909 0 0.47091862917568972 0.45374804486498371 0 0.46877808630569923 0.46744883487752148 0 0.48305800847568092 0.46241568601823541 0 0.48305800847568092 0.46241568601823541 0 0.5 0.45829601205576881 0 0.50000000000000089 0.48109872253643032 0 0.48305800847568092 0.46241568601823541 0 0.5 0.45829601205576881 0 0.48545912707908301 0.44677529635365909 0 0.5 0.43549330157510729 0 0.5 0.45829601205576881 0 0.48545912707908301 0.44677529635365909 0 0.48592361876799173 0.4322808795144219 0 0.5 0.43549330157510729 0 0.48545912707908301 0.44677529635365909 0 0.5 0.5 0 0.50000000000000089 0.48109872253643032 0 0.4829041993806128 0.50000000000000067 0 0.50000000000000089 0.48109872253643032 0 0.47986744683130561 0.47910819589288223 0 0.4829041993806128 0.50000000000000067 0 0.50000000000000089 0.48109872253643032 0 0.4829041993806128 0.50000000000000067 0 0.48305800847568092 0.46241568601823541 0 0.50000000000000089 0.48109872253643032 0 0.47986744683130561 0.47910819589288223 0 0.46877808630569923 0.46744883487752148 0 0.48305800847568092 0.46241568601823541 0 0.47986744683130561 0.47910819589288223 0 0.46877808630569923 0.46744883487752148 0 0.47986744683130561 0.47910819589288223 0 0.46500303540742838 0.48456203556475569 0 0.47986744683130561 0.47910819589288223 0 0.4829041993806128 0.50000000000000067 0 0.46500303540742838 0.48456203556475569 0 0.45771353671668341 0.5 0 0.46500303540742838 0.48456203556475569 0 0.44971862934670609 0.48049474177639878 0 0.4829041993806128 0.50000000000000067 0 0.45771353671668341 0.5 0 0.46500303540742838 0.48456203556475569 0 0.46877808630569923 0.46744883487752148 0 0.46500303540742838 0.48456203556475569 0 0.45646779426241929 0.47036711717442781 0 0.46500303540742838 0.48456203556475569 0 0.45646779426241929 0.47036711717442781 0 0.44971862934670609 0.48049474177639878 0 0.44971862934670609 0.48049474177639878 0 0.43668842601792962 0.49474761955226099 0 0.43682091928266131 0.4698084514871369 0 0.44739354250497521 0.46399702312409119 0 0.45646779426241929 0.47036711717442781 0 0.44971862934670609 0.48049474177639878 0 0.44739354250497521 0.46399702312409119 0 0.44971862934670609 0.48049474177639878 0 0.43682091928266131 0.4698084514871369 0 0.45771353671668341 0.5 0 0.43252287405275402 0.5 0 0.43668842601792962 0.49474761955226099 0 0.45771353671668341 0.5 0 0.44971862934670609 0.48049474177639878 0 0.43668842601792962 0.49474761955226099 0 0.43252287405275402 0.5 0 0.43668842601792962 0.49474761955226099 0 0.42053369884778752 0.48554601440730177 0 0.43252287405275402 0.5 0 0.40733221138882458 0.5 0 0.42053369884778752 0.48554601440730177 0 0.40733221138882458 0.5 0 0.42053369884778752 0.48554601440730177 0 0.39737309988203728 0.4785145783150947 0 0.42053369884778752 0.48554601440730177 0 0.41738392403412738 0.46803773280906408 0 0.39737309988203728 0.4785145783150947 0 0.43668842601792962 0.49474761955226099 0 0.42053369884778752 0.48554601440730177 0 0.43682091928266131 0.4698084514871369 0 0.42053369884778752 0.48554601440730177 0 0.43682091928266131 0.4698084514871369 0 0.41738392403412738 0.46803773280906408 0 0.43668842601792962 0.49474761955226099 0 0.43682091928266131 0.4698084514871369 0 0.43682091928266131 0.4698084514871369 0 0.43695341254739239 0.44486928342201271 0 0.43682091928266131 0.4698084514871369 0 0.42530513857525132 0.45522681732147191 0 0.43695341254739239 0.44486928342201271 0 0.43682091928266131 0.4698084514871369 0 0.42530513857525132 0.45522681732147191 0 0.41738392403412738 0.46803773280906408 0 0.43339993500078339 0.44015811209457673 0 0.43698629937090572 0.43867900635118828 0 0.43695341254739239 0.44486928342201271 0 0.43339993500078339 0.44015811209457673 0 0.43698629937090572 0.43867900635118828 0 0.43339993500078339 0.44015811209457673 0 0.43695341254739239 0.44486928342201271 0 0.43698629937090572 0.43867900635118828 0 0.43695341254739239 0.44486928342201271 0 0.42530513857525132 0.45522681732147191 0 0.43339993500078339 0.44015811209457673 0 0.43695341254739239 0.44486928342201271 0 0.42129278749345078 0.42410655543058762 0 0.43339993500078339 0.44015811209457673 0 0.40688676358289999 0.45109280251431533 0 0.42129278749345078 0.42410655543058762 0 0.40688676358289999 0.45109280251431533 0 0.40118761986914558 0.43952235518589611 0 0.43339993500078339 0.44015811209457673 0 0.40688676358289999 0.45109280251431533 0 0.42530513857525132 0.45522681732147191 0 0.43339993500078339 0.44015811209457673 0 0.40688676358289999 0.45109280251431533 0 0.42530513857525132 0.45522681732147191 0 0.40688676358289999 0.45109280251431533 0 0.41738392403412738 0.46803773280906408 0 0.40688676358289999 0.45109280251431533 0 0.41738392403412738 0.46803773280906408 0 0.39737309988203728 0.4785145783150947 0 0.40688676358289999 0.45109280251431533 0 0.38037359216501598 0.46202749293405271 0 0.39737309988203728 0.4785145783150947 0 0.40688676358289999 0.45109280251431533 0 0.38037359216501598 0.46202749293405271 0 0.40688676358289999 0.45109280251431533 0 0.38830529052380591 0.44015566481631141 0 0.38037359216501598 0.46202749293405271 0 0.40688676358289999 0.45109280251431533 0 0.40118761986914558 0.43952235518589611 0 0.38830529052380591 0.44015566481631141 0 0.36759308160263382 0.44069077566344278 0 0.38830529052380591 0.44015566481631141 0 0.38037359216501598 0.46202749293405271 0 0.37318866431135761 0.48174232907414499 0 0.38037359216501598 0.46202749293405271 0 0.39737309988203728 0.4785145783150947 0 0.37318866431135761 0.48174232907414499 0 0.38214154872489497 0.5 0 0.39737309988203728 0.4785145783150947 0 0.40733221138882458 0.5 0 0.38214154872489497 0.5 0 0.39737309988203728 0.4785145783150947 0 0.32947592647403429 0.0901621911687642 0 0.33532117623289792 0.080580236175288908 0 0.33565589059461098 0.10517835023954369 0 0.32947592647403429 0.0901621911687642 0 0.33532117623289792 0.080580236175288908 0 0.33277616035619961 0.073942932289610769 0 0.33532117623289792 0.080580236175288908 0 0.33565589059461098 0.10517835023954369 0 0.33532117623289792 0.080580236175288908 0 0.34090483650267878 0.092858705205274353 0 0.33565589059461098 0.10517835023954369 0 0.33532117623289792 0.080580236175288908 0 0.34090483650267878 0.092858705205274353 0 0.34317733798846478 0.085575227135666343 0 0.34090483650267878 0.092858705205274353 0 0.34317733798846478 0.085575227135666343 0 0.34650598249495568 0.092405835749461665 0 0.33532117623289792 0.080580236175288908 0 0.34317733798846478 0.085575227135666343 0 0.34283077156500802 0.079335176543093258 0 0.32962162476220702 0.06347927202523812 0 0.33277616035619961 0.073942932289610769 0 0.33498646187118442 0.055982122111034073 0 0.33532117623289792 0.080580236175288908 0 0.33498646187118442 0.055982122111034073 0 0.33532117623289792 0.080580236175288908 0 0.34154436272040362 0.073897558242921338 0 0.33969340283432148 0.066839369098377399 0 0.33532117623289792 0.080580236175288908 0 0.34283077156500802 0.079335176543093258 0 0.34154436272040362 0.073897558242921338 0 0.33532117623289792 0.080580236175288908 0 0.33277616035619961 0.073942932289610769 0 0.33498646187118442 0.055982122111034073 0 0.33532117623289792 0.080580236175288908 0 0.33969340283432148 0.066839369098377399 0 0.33498646187118442 0.055982122111034073 0 0.33969340283432148 0.066839369098377399 0 0.33921798947349441 0.060436859139996961 0 0.34209538759911817 0.062404009856164733 0 0.33969340283432148 0.066839369098377399 0 0.34499503910883039 0.067735429064858438 0 0.34209538759911817 0.062404009856164733 0 0.34154436272040362 0.073897558242921338 0 0.33969340283432148 0.066839369098377399 0 0.34499503910883039 0.067735429064858438 0 0.32962162476220702 0.06347927202523812 0 0.33277616035619961 0.073942932289610769 0 0.32760233033581893 0.069750646398253541 0 0.33277616035619961 0.073942932289610769 0 0.32279972607268942 0.073135002240846653 0 0.32760233033581893 0.069750646398253541 0 0.33277616035619961 0.073942932289610769 0 0.32279972607268942 0.073135002240846653 0 0.32051126608383801 0.081836032876382178 0 0.32279972607268942 0.073135002240846653 0 0.32760233033581893 0.069750646398253541 0 0.31996797702451901 0.064085906817923491 0 0.32962162476220702 0.06347927202523812 0 0.32760233033581893 0.069750646398253541 0 0.31996797702451901 0.064085906817923491 0 0.32279972607268942 0.073135002240846653 0 0.31996797702451901 0.064085906817923491 0 0.31490463301179988 0.070790843342330281 0 0.31996797702451901 0.064085906817923491 0 0.31490463301179988 0.070790843342330281 0 0.30737465903828121 0.063118819825089004 0 0.32279972607268942 0.073135002240846653 0 0.31633415134578158 0.077160905093590568 0 0.31490463301179988 0.070790843342330281 0 0.32279972607268942 0.073135002240846653 0 0.31633415134578158 0.077160905093590568 0 0.32051126608383801 0.081836032876382178 0 0.31633415134578158 0.077160905093590568 0 0.31490463301179988 0.070790843342330281 0 0.30804665157772859 0.076453582734201747 0 0.32947592647403429 0.0901621911687642 0 0.33277616035619961 0.073942932289610769 0 0.31523557394740931 0.096454212744800122 0 0.33277616035619961 0.073942932289610769 0 0.32051126608383801 0.081836032876382178 0 0.31523557394740931 0.096454212744800122 0 0.31633415134578158 0.077160905093590568 0 0.31398052983791208 0.085205207409029746 0 0.30804665157772859 0.076453582734201747 0 0.33277616035619961 0.073942932289610769 0 0.31523557394740931 0.096454212744800122 0 0.31633415134578158 0.077160905093590568 0 0.31398052983791208 0.085205207409029746 0 0.32051126608383801 0.081836032876382178 0 0.31398052983791208 0.085205207409029746 0 0.32051126608383801 0.081836032876382178 0 0.31523557394740931 0.096454212744800122 0 0.31398052983791208 0.085205207409029746 0 0.31523557394740931 0.096454212744800122 0 0.30977500623480297 0.094121303596174113 0 0.31523557394740931 0.096454212744800122 0 0.33565589059461098 0.10517835023954369 0 0.31523557394740931 0.096454212744800122 0 0.30977500623480297 0.094121303596174113 0 0.32947592647403429 0.0901621911687642 0 0.31523557394740931 0.096454212744800122 0 0.33565589059461098 0.10517835023954369 0 0.31523557394740931 0.096454212744800122 0 0.32799137801582928 0.10731035614261129 0 0.33565589059461098 0.10517835023954369 0 0.31523557394740931 0.096454212744800122 0 0.31828261083984283 0.1048892718492936 0 0.31161214929344988 0.1095185583394164 0 0.31828261083984283 0.1048892718492936 0 0.31830079617283741 0.1126527891229132 0 0.31161214929344988 0.1095185583394164 0 0.31828261083984283 0.1048892718492936 0 0.32245321916115272 0.108749512710588 0 0.31830079617283741 0.1126527891229132 0 0.31828261083984283 0.1048892718492936 0 0.32245321916115272 0.108749512710588 0 0.32799137801582928 0.10731035614261129 0 0.31523557394740931 0.096454212744800122 0 0.31828261083984283 0.1048892718492936 0 0.32799137801582928 0.10731035614261129 0 0.31830079617283741 0.1126527891229132 0 0.32459639739545881 0.1238335895582441 0 0.3105325881499289 0.1169724059092154 0 0.32459639739545881 0.1238335895582441 0 0.3105325881499289 0.1169724059092154 0 0.30915168392987391 0.12618718950294749 0 0.31830079617283741 0.1126527891229132 0 0.3105325881499289 0.1169724059092154 0 0.31161214929344988 0.1095185583394164 0 0.31830079617283741 0.1126527891229132 0 0.32512090974022989 0.1131073507342321 0 0.32459639739545881 0.1238335895582441 0 0.32245321916115272 0.108749512710588 0 0.31830079617283741 0.1126527891229132 0 0.32512090974022989 0.1131073507342321 0 0.32245321916115272 0.108749512710588 0 0.32799137801582928 0.10731035614261129 0 0.32512090974022989 0.1131073507342321 0 0.32799137801582928 0.10731035614261129 0 0.32512090974022989 0.1131073507342321 0 0.33050068917613312 0.1147905216930088 0 0.32512090974022989 0.1131073507342321 0 0.32459639739545881 0.1238335895582441 0 0.33050068917613312 0.1147905216930088 0 0.32459639739545881 0.1238335895582441 0 0.33887202918455678 0.118792126007953 0 0.34443169349996849 0.13055627056741179 0 0.33571577503413103 0.1095792497600635 0 0.33565589059461098 0.10517835023954369 0 0.35911559081709299 0.1152009984610369 0 0.32459639739545881 0.1238335895582441 0 0.33050068917613312 0.1147905216930088 0 0.33887202918455678 0.118792126007953 0 0.33050068917613312 0.1147905216930088 0 0.33571577503413103 0.1095792497600635 0 0.33887202918455678 0.118792126007953 0 0.32799137801582928 0.10731035614261129 0 0.33050068917613312 0.1147905216930088 0 0.33266766964566957 0.1083341575044129 0 0.33050068917613312 0.1147905216930088 0 0.33571577503413103 0.1095792497600635 0 0.33266766964566957 0.1083341575044129 0 0.33571577503413103 0.1095792497600635 0 0.33266766964566957 0.1083341575044129 0 0.33565589059461098 0.10517835023954369 0 0.33571577503413103 0.1095792497600635 0 0.33565589059461098 0.10517835023954369 0 0.32799137801582928 0.10731035614261129 0 0.33266766964566957 0.1083341575044129 0 0.33565589059461098 0.10517835023954369 0 0.34090483650267878 0.092858705205274353 0 0.33565589059461098 0.10517835023954369 0 0.34733959184469698 0.1010805360425715 0 0.33565589059461098 0.10517835023954369 0 0.34733959184469698 0.1010805360425715 0 0.35911559081709299 0.1152009984610369 0 0.34090483650267878 0.092858705205274353 0 0.34733959184469698 0.1010805360425715 0 0.34650598249495568 0.092405835749461665 0 0.34733959184469698 0.1010805360425715 0 0.35567178267421912 0.0944711503599064 0 0.34650598249495568 0.092405835749461665 0 0.34733959184469698 0.1010805360425715 0 0.35567178267421912 0.0944711503599064 0 0.35911559081709299 0.1152009984610369 0 0.33887202918455678 0.118792126007953 0 0.35911559081709299 0.1152009984610369 0 0.34443169349996849 0.13055627056741179 0 0.33571577503413103 0.1095792497600635 0 0.33887202918455678 0.118792126007953 0 0.35911559081709299 0.1152009984610369 0 0.33565589059461098 0.10517835023954369 0 0.35911559081709299 0.1152009984610369 0 0.35911559081709299 0.1152009984610369 0 0.38257529103957533 0.12522364668252911 0 0.35911559081709299 0.1152009984610369 0 0.36214561989453808 0.13455472503582941 0 0.38257529103957533 0.12522364668252911 0 0.35911559081709299 0.1152009984610369 0 0.38257529103957533 0.12522364668252911 0 0.38023948013423192 0.1082954779422447 0 0.35911559081709299 0.1152009984610369 0 0.37087998821928547 0.095379791376698289 0 0.38023948013423192 0.1082954779422447 0 0.35567178267421912 0.0944711503599064 0 0.35911559081709299 0.1152009984610369 0 0.37087998821928547 0.095379791376698289 0 0.37087998821928547 0.095379791376698289 0 0.36402871843243101 0.082075660413048021 0 0.37826408423317831 0.078025493116255493 0 0.35567178267421912 0.0944711503599064 0 0.37087998821928547 0.095379791376698289 0 0.36402871843243101 0.082075660413048021 0 0.35567178267421912 0.0944711503599064 0 0.36402871843243101 0.082075660413048021 0 0.35032392314678318 0.082696182005213573 0 0.36402871843243101 0.082075660413048021 0 0.35032392314678318 0.082696182005213573 0 0.35787529935766499 0.072686120576477053 0 0.34283077156500802 0.079335176543093258 0 0.35032392314678318 0.082696182005213573 0 0.34804304176797951 0.073960662834438848 0 0.34317733798846478 0.085575227135666343 0 0.34283077156500802 0.079335176543093258 0 0.35032392314678318 0.082696182005213573 0 0.34317733798846478 0.085575227135666343 0 0.35032392314678318 0.082696182005213573 0 0.34650598249495568 0.092405835749461665 0 0.35567178267421912 0.0944711503599064 0 0.35032392314678318 0.082696182005213573 0 0.34650598249495568 0.092405835749461665 0 0.34499503910883039 0.067735429064858438 0 0.34804304176797951 0.073960662834438848 0 0.35162341438397421 0.067393256190333914 0 0.34499503910883039 0.067735429064858438 0 0.35162341438397421 0.067393256190333914 0 0.34816520952405838 0.061559370172567449 0 0.34499503910883039 0.067735429064858438 0 0.34816520952405838 0.061559370172567449 0 0.34209538759911817 0.062404009856164733 0 0.34154436272040362 0.073897558242921338 0 0.34499503910883039 0.067735429064858438 0 0.34804304176797951 0.073960662834438848 0 0.34283077156500802 0.079335176543093258 0 0.34154436272040362 0.073897558242921338 0 0.34804304176797951 0.073960662834438848 0 0.34804304176797951 0.073960662834438848 0 0.35787529935766499 0.072686120576477053 0 0.35162341438397421 0.067393256190333914 0 0.35032392314678318 0.082696182005213573 0 0.34804304176797951 0.073960662834438848 0 0.35787529935766499 0.072686120576477053 0 0.35162341438397421 0.067393256190333914 0 0.34816520952405838 0.061559370172567449 0 0.35729305629783747 0.060695736220336187 0 0.35787529935766499 0.072686120576477053 0 0.35162341438397421 0.067393256190333914 0 0.35729305629783747 0.060695736220336187 0 0.35787529935766499 0.072686120576477053 0 0.36862736152008851 0.068121488118488768 0 0.35729305629783747 0.060695736220336187 0 0.36402871843243101 0.082075660413048021 0 0.35787529935766499 0.072686120576477053 0 0.36862736152008851 0.068121488118488768 0 0.36402871843243101 0.082075660413048021 0 0.36862736152008851 0.068121488118488768 0 0.37826408423317831 0.078025493116255493 0 0.36862736152008851 0.068121488118488768 0 0.36838348233918489 0.055665138606747502 0 0.37894948866811312 0.063408514195723825 0 0.36862736152008851 0.068121488118488768 0 0.36838348233918489 0.055665138606747502 0 0.35729305629783747 0.060695736220336187 0 0.36838348233918489 0.055665138606747502 0 0.356273709442124 0.045099058920270822 0 0.35729305629783747 0.060695736220336187 0 0.36838348233918489 0.055665138606747502 0 0.37071873772007918 0.043391986722389933 0 0.356273709442124 0.045099058920270822 0 0.36838348233918489 0.055665138606747502 0 0.37071873772007918 0.043391986722389933 0 0.37946994248149618 0.052811618606571457 0 0.37071873772007918 0.043391986722389933 0 0.356273709442124 0.045099058920270822 0 0.36670660797298932 0.02358760611472362 0 0.356273709442124 0.045099058920270822 0 0.34903451994953988 0.03264784309989581 0 0.36670660797298932 0.02358760611472362 0 0.356273709442124 0.045099058920270822 0 0.34526731984579251 0.042148169984533079 0 0.34738692456651848 0.052776056943420482 0 0.356273709442124 0.045099058920270822 0 0.34903451994953988 0.03264784309989581 0 0.34526731984579251 0.042148169984533079 0 0.34526731984579251 0.042148169984533079 0 0.34738692456651848 0.052776056943420482 0 0.34076446329190507 0.047715034831316498 0 0.34738692456651848 0.052776056943420482 0 0.34816520952405838 0.061559370172567449 0 0.35729305629783747 0.060695736220336187 0 0.34738692456651848 0.052776056943420482 0 0.34816520952405838 0.061559370172567449 0 0.34152986266655921 0.056284817070815653 0 0.34816520952405838 0.061559370172567449 0 0.34209538759911817 0.062404009856164733 0 0.34152986266655921 0.056284817070815653 0 0.356273709442124 0.045099058920270822 0 0.34738692456651848 0.052776056943420482 0 0.35729305629783747 0.060695736220336187 0 0.35962780628892171 0.0029283534002974079 0 0.36670660797298932 0.02358760611472362 0 0.38202126979674728 0.0016257403202125471 0 0.36670660797298932 0.02358760611472362 0 0.34169542231774119 0.0081689964314487929 0 0.36670660797298932 0.02358760611472362 0 0.34169542231774119 0.0081689964314487929 0 0.34296529068654402 0.022176337388167919 0 0.34903451994953988 0.03264784309989581 0 0.36670660797298932 0.02358760611472362 0 0.34296529068654402 0.022176337388167919 0 0.35962780628892171 0.0029283534002974079 0 0.34169542231774119 0.0081689964314487929 0 0.33875701322577201 -0.010660491715663641 0 0.35962780628892171 0.0029283534002974079 0 0.36670660797298932 0.02358760611472362 0 0.34169542231774119 0.0081689964314487929 0 0.34169542231774119 0.0081689964314487929 0 0.31668423666249312 -0.0072496132518260273 0 0.34169542231774119 0.0081689964314487929 0 0.34296529068654402 0.022176337388167919 0 0.32273815568297859 0.01509323324799218 0 0.34296529068654402 0.022176337388167919 0 0.32273815568297859 0.01509323324799218 0 0.33465174750947091 0.031384008046779197 0 0.34903451994953988 0.03264784309989581 0 0.34296529068654402 0.022176337388167919 0 0.33465174750947091 0.031384008046779197 0 0.32273815568297859 0.01509323324799218 0 0.30696788696067528 0.011260977800671489 0 0.31031079988587063 0.030995555142770342 0 0.32436695753284878 0.02963013853698921 0 0.32273815568297859 0.01509323324799218 0 0.31031079988587063 0.030995555142770342 0 0.32436695753284878 0.02963013853698921 0 0.32273815568297859 0.01509323324799218 0 0.33465174750947091 0.031384008046779197 0 0.34169542231774119 0.0081689964314487929 0 0.32273815568297859 0.01509323324799218 0 0.31668423666249312 -0.0072496132518260273 0 0.32273815568297859 0.01509323324799218 0 0.30696788696067528 0.011260977800671489 0 0.31668423666249312 -0.0072496132518260273 0 0.33299378912178412 0.052996582938162257 0 0.33498646187118442 0.055982122111034073 0 0.33269619807731982 0.044067967748028937 0 0.33299378912178412 0.052996582938162257 0 0.33051737217764438 0.057439342168588189 0 0.32446761295540227 0.057299391599918308 0 0.32962162476220702 0.06347927202523812 0 0.33051737217764438 0.057439342168588189 0 0.33498646187118442 0.055982122111034073 0 0.32962162476220702 0.06347927202523812 0 0.33051737217764438 0.057439342168588189 0 0.32446761295540227 0.057299391599918308 0 0.33299378912178412 0.052996582938162257 0 0.33051737217764438 0.057439342168588189 0 0.33498646187118442 0.055982122111034073 0 0.33969340283432148 0.066839369098377399 0 0.33498646187118442 0.055982122111034073 0 0.33921798947349441 0.060436859139996961 0 0.33498646187118442 0.055982122111034073 0 0.33921798947349441 0.060436859139996961 0 0.34152986266655921 0.056284817070815653 0 0.33921798947349441 0.060436859139996961 0 0.34209538759911817 0.062404009856164733 0 0.34152986266655921 0.056284817070815653 0 0.33498646187118442 0.055982122111034073 0 0.34152986266655921 0.056284817070815653 0 0.34076446329190507 0.047715034831316498 0 0.34738692456651848 0.052776056943420482 0 0.34152986266655921 0.056284817070815653 0 0.34076446329190507 0.047715034831316498 0 0.33498646187118442 0.055982122111034073 0 0.34076446329190507 0.047715034831316498 0 0.33465174750947091 0.031384008046779197 0 0.33498646187118442 0.055982122111034073 0 0.33465174750947091 0.031384008046779197 0 0.34526731984579251 0.042148169984533079 0 0.34076446329190507 0.047715034831316498 0 0.33465174750947091 0.031384008046779197 0 0.33498646187118442 0.055982122111034073 0 0.33465174750947091 0.031384008046779197 0 0.33269619807731982 0.044067967748028937 0 0.34903451994953988 0.03264784309989581 0 0.34526731984579251 0.042148169984533079 0 0.33465174750947091 0.031384008046779197 0 0.32436695753284878 0.02963013853698921 0 0.33465174750947091 0.031384008046779197 0 0.33269619807731982 0.044067967748028937 0 0.33269619807731982 0.044067967748028937 0 0.31031079988587063 0.030995555142770342 0 0.33269619807731982 0.044067967748028937 0 0.30823783918916819 0.049795066756136298 0 0.31031079988587063 0.030995555142770342 0 0.32436695753284878 0.02963013853698921 0 0.33269619807731982 0.044067967748028937 0 0.31031079988587063 0.030995555142770342 0 0.33299378912178412 0.052996582938162257 0 0.32446761295540227 0.057299391599918308 0 0.30823783918916819 0.049795066756136298 0 0.33299378912178412 0.052996582938162257 0 0.33269619807731982 0.044067967748028937 0 0.30823783918916819 0.049795066756136298 0 0.33299378912178412 0.052996582938162257 0 0.30823783918916819 0.049795066756136298 0 0.31996797702451901 0.064085906817923491 0 0.32446761295540227 0.057299391599918308 0 0.30823783918916819 0.049795066756136298 0 0.32962162476220702 0.06347927202523812 0 0.31996797702451901 0.064085906817923491 0 0.32446761295540227 0.057299391599918308 0 0.31996797702451901 0.064085906817923491 0 0.30823783918916819 0.049795066756136298 0 0.30737465903828121 0.063118819825089004 0 0.30823783918916819 0.049795066756136298 0 0.29436033408655782 0.059250311261576719 0 0.30737465903828121 0.063118819825089004 0 0.30823783918916819 0.049795066756136298 0 0.29364858819061612 0.033957607196965417 0 0.31031079988587063 0.030995555142770342 0 0.29364858819061612 0.033957607196965417 0 0.28348188925655221 0.046593550574110319 0 0.27573267833481419 0.030732837745312259 0 0.30823783918916819 0.049795066756136298 0 0.29364858819061612 0.033957607196965417 0 0.28348188925655221 0.046593550574110319 0 0.30823783918916819 0.049795066756136298 0 0.28348188925655221 0.046593550574110319 0 0.29436033408655782 0.059250311261576719 0 0.28348188925655221 0.046593550574110319 0 0.29436033408655782 0.059250311261576719 0 0.28183493219024108 0.063310283077672044 0 0.30823783918916819 0.049795066756136298 0 0.28348188925655221 0.046593550574110319 0 0.30696788696067528 0.011260977800671489 0 0.31668423666249312 -0.0072496132518260273 0 0.29718084087761248 -0.00045742867309077448 0 0.30696788696067528 0.011260977800671489 0 0.28792540169442138 0.01792314253751174 0 0.29718084087761248 -0.00045742867309077448 0 0.31031079988587063 0.030995555142770342 0 0.28792540169442138 0.01792314253751174 0 0.29364858819061612 0.033957607196965417 0 0.31031079988587063 0.030995555142770342 0 0.28792540169442138 0.01792314253751174 0 0.30696788696067528 0.011260977800671489 0 0.31031079988587063 0.030995555142770342 0 0.28792540169442138 0.01792314253751174 0 0.29364858819061612 0.033957607196965417 0 0.28792540169442138 0.01792314253751174 0 0.27573267833481419 0.030732837745312259 0 0.28792540169442138 0.01792314253751174 0 0.28241787866306112 0.0011469095833447421 0 0.29718084087761248 -0.00045742867309077448 0 0.28792540169442138 0.01792314253751174 0 0.26554000350297241 0.0048507299322529994 0 0.28792540169442138 0.01792314253751174 0 0.27051027850045961 0.017580999312341181 0 0.26554000350297241 0.0048507299322529994 0 0.28792540169442138 0.01792314253751174 0 0.28241787866306112 0.0011469095833447421 0 0.26554000350297241 0.0048507299322529994 0 0.27051027850045961 0.017580999312341181 0 0.26275846254317081 0.013439969769493449 0 0.26554000350297241 0.0048507299322529994 0 0.27051027850045961 0.017580999312341181 0 0.26554000350297241 0.0048507299322529994 0 0.27573267833481419 0.030732837745312259 0 0.27051027850045961 0.017580999312341181 0 0.25992419175121517 0.025389734461324951 0 0.28792540169442138 0.01792314253751174 0 0.27573267833481419 0.030732837745312259 0 0.27051027850045961 0.017580999312341181 0 0.24898720323988541 0.033178416017642383 0 0.24784890528390521 0.023156895577430951 0 0.25992419175121517 0.025389734461324951 0 0.24784890528390521 0.023156895577430951 0 0.25992419175121517 0.025389734461324951 0 0.25474360592552853 0.01481755191828278 0 0.27051027850045961 0.017580999312341181 0 0.25992419175121517 0.025389734461324951 0 0.26275846254317081 0.013439969769493449 0 0.25992419175121517 0.025389734461324951 0 0.26275846254317081 0.013439969769493449 0 0.25474360592552853 0.01481755191828278 0 0.26275846254317081 0.013439969769493449 0 0.26554000350297241 0.0048507299322529994 0 0.25857980897391297 0.0074839920646921692 0 0.26275846254317081 0.013439969769493449 0 0.25474360592552853 0.01481755191828278 0 0.25857980897391297 0.0074839920646921692 0 0.2470455162795947 0.01469040919898796 0 0.25474360592552853 0.01481755191828278 0 0.25099497988274638 0.0064577458443076993 0 0.25474360592552853 0.01481755191828278 0 0.25099497988274638 0.0064577458443076993 0 0.25857980897391297 0.0074839920646921692 0 0.25099497988274638 0.0064577458443076993 0 0.25747072455547149 0.00013850891538732049 0 0.2471597475602246 -0.0042098564474911636 0 0.25099497988274638 0.0064577458443076993 0 0.25747072455547149 0.00013850891538732049 0 0.25857980897391297 0.0074839920646921692 0 0.25747072455547149 0.00013850891538732049 0 0.26554000350297241 0.0048507299322529994 0 0.25857980897391297 0.0074839920646921692 0 0.25747072455547149 0.00013850891538732049 0 0.26554000350297241 0.0048507299322529994 0 0.28348188925655221 0.046593550574110319 0 0.26655043322777111 0.059491884379718682 0 0.25872593932393612 0.043392034392084333 0 0.28348188925655221 0.046593550574110319 0 0.26655043322777111 0.059491884379718682 0 0.28183493219024108 0.063310283077672044 0 0.28348188925655221 0.046593550574110319 0 0.27573267833481419 0.030732837745312259 0 0.25872593932393612 0.043392034392084333 0 0.28348188925655221 0.046593550574110319 0 0.25872593932393612 0.043392034392084333 0 0.24898720323988541 0.033178416017642383 0 0.25992419175121517 0.025389734461324951 0 0.25872593932393612 0.043392034392084333 0 0.27573267833481419 0.030732837745312259 0 0.25992419175121517 0.025389734461324951 0 0.25872593932393612 0.043392034392084333 0 0.26655043322777111 0.059491884379718682 0 0.25872593932393612 0.043392034392084333 0 0.25345862362690841 0.055986016951952537 0 0.24146536745794861 0.044043188993151169 0 0.25872593932393612 0.043392034392084333 0 0.25345862362690841 0.055986016951952537 0 0.26655043322777111 0.059491884379718682 0 0.25345862362690841 0.055986016951952537 0 0.25825193906831112 0.064477969990544517 0 0.25345862362690841 0.055986016951952537 0 0.25025696560716282 0.070440101888901763 0 0.25825193906831112 0.064477969990544517 0 0.25025696560716282 0.070440101888901763 0 0.26274173381140231 0.071993876741605081 0 0.25825193906831112 0.064477969990544517 0 0.25025696560716282 0.070440101888901763 0 0.26274173381140231 0.071993876741605081 0 0.26059319846874762 0.082007458489164436 0 0.26655043322777111 0.059491884379718682 0 0.26274173381140231 0.071993876741605081 0 0.25825193906831112 0.064477969990544517 0 0.25025696560716282 0.070440101888901763 0 0.26059319846874762 0.082007458489164436 0 0.25904856375637703 0.096837014784652217 0 0.25025696560716282 0.070440101888901763 0 0.25904856375637703 0.096837014784652217 0 0.25025696560716282 0.070440101888901763 0 0.25134549599301542 0.093113001833606171 0 0.25904856375637703 0.096837014784652217 0 0.26274173381140231 0.071993876741605081 0 0.26059319846874762 0.082007458489164436 0 0.269056001978975 0.08264541269258488 0 0.26059319846874762 0.082007458489164436 0 0.26521916594415479 0.090231852247843178 0 0.269056001978975 0.08264541269258488 0 0.26059319846874762 0.082007458489164436 0 0.26521916594415479 0.090231852247843178 0 0.25904856375637703 0.096837014784652217 0 0.27207706844959562 0.09043556254963514 0 0.269056001978975 0.08264541269258488 0 0.2777726931835694 0.084984700291543674 0 0.26521916594415479 0.090231852247843178 0 0.27207706844959562 0.09043556254963514 0 0.269056001978975 0.08264541269258488 0 0.2777726931835694 0.084984700291543674 0 0.2743461595583892 0.07448260506136356 0 0.28507078870188662 0.078738825990649186 0 0.269056001978975 0.08264541269258488 0 0.2777726931835694 0.084984700291543674 0 0.2743461595583892 0.07448260506136356 0 0.27207706844959562 0.09043556254963514 0 0.2777726931835694 0.084984700291543674 0 0.27873149412094239 0.094696560783835648 0 0.26655043322777111 0.059491884379718682 0 0.26274173381140231 0.071993876741605081 0 0.2743461595583892 0.07448260506136356 0 0.26274173381140231 0.071993876741605081 0 0.269056001978975 0.08264541269258488 0 0.2743461595583892 0.07448260506136356 0 0.2743461595583892 0.07448260506136356 0 0.28183493219024108 0.063310283077672044 0 0.28507078870188662 0.078738825990649186 0 0.26655043322777111 0.059491884379718682 0 0.2743461595583892 0.07448260506136356 0 0.28183493219024108 0.063310283077672044 0 0.29436033408655782 0.059250311261576719 0 0.28183493219024108 0.063310283077672044 0 0.29453825518038612 0.071127798301142686 0 0.29453825518038612 0.071127798301142686 0 0.28507078870188662 0.078738825990649186 0 0.29468278708232942 0.08447975218253985 0 0.28183493219024108 0.063310283077672044 0 0.29453825518038612 0.071127798301142686 0 0.28507078870188662 0.078738825990649186 0 0.2777726931835694 0.084984700291543674 0 0.28507078870188662 0.078738825990649186 0 0.28736571362840102 0.088366273728839581 0 0.28507078870188662 0.078738825990649186 0 0.28736571362840102 0.088366273728839581 0 0.29468278708232942 0.08447975218253985 0 0.2777726931835694 0.084984700291543674 0 0.28736571362840102 0.088366273728839581 0 0.27873149412094239 0.094696560783835648 0 0.28736571362840102 0.088366273728839581 0 0.28595833760110112 0.097689608214238721 0 0.27873149412094239 0.094696560783835648 0 0.28736571362840102 0.088366273728839581 0 0.29248885867984181 0.093661243003696146 0 0.28595833760110112 0.097689608214238721 0 0.29248885867984181 0.093661243003696146 0 0.29468278708232942 0.08447975218253985 0 0.30059752206250617 0.097987828394355631 0 0.28736571362840102 0.088366273728839581 0 0.29248885867984181 0.093661243003696146 0 0.29468278708232942 0.08447975218253985 0 0.30804665157772859 0.076453582734201747 0 0.30977500623480297 0.094121303596174113 0 0.30059752206250617 0.097987828394355631 0 0.29468278708232942 0.08447975218253985 0 0.30804665157772859 0.076453582734201747 0 0.30059752206250617 0.097987828394355631 0 0.30804665157772859 0.076453582734201747 0 0.30059752206250617 0.097987828394355631 0 0.31398052983791208 0.085205207409029746 0 0.30804665157772859 0.076453582734201747 0 0.30977500623480297 0.094121303596174113 0 0.31490463301179988 0.070790843342330281 0 0.30804665157772859 0.076453582734201747 0 0.30737465903828121 0.063118819825089004 0 0.29453825518038612 0.071127798301142686 0 0.30804665157772859 0.076453582734201747 0 0.30737465903828121 0.063118819825089004 0 0.29436033408655782 0.059250311261576719 0 0.29453825518038612 0.071127798301142686 0 0.30737465903828121 0.063118819825089004 0 0.29453825518038612 0.071127798301142686 0 0.29468278708232942 0.08447975218253985 0 0.30804665157772859 0.076453582734201747 0 0.29779197693054371 0.1188410187182391 0 0.30059752206250617 0.097987828394355631 0 0.29314839254728547 0.11952207405451019 0 0.29779197693054371 0.1188410187182391 0 0.3105325881499289 0.1169724059092154 0 0.29779197693054371 0.1188410187182391 0 0.3105325881499289 0.1169724059092154 0 0.30915168392987391 0.12618718950294749 0 0.29779197693054371 0.1188410187182391 0 0.3105325881499289 0.1169724059092154 0 0.31161214929344988 0.1095185583394164 0 0.31523557394740931 0.096454212744800122 0 0.29779197693054371 0.1188410187182391 0 0.31523557394740931 0.096454212744800122 0 0.29779197693054371 0.1188410187182391 0 0.30059752206250617 0.097987828394355631 0 0.31523557394740931 0.096454212744800122 0 0.29779197693054371 0.1188410187182391 0 0.31161214929344988 0.1095185583394164 0 0.31523557394740931 0.096454212744800122 0 0.30977500623480297 0.094121303596174113 0 0.30059752206250617 0.097987828394355631 0 0.30059752206250617 0.097987828394355631 0 0.29052670303627598 0.1091271208036696 0 0.29135706276245238 0.1015339550369538 0 0.30059752206250617 0.097987828394355631 0 0.29314839254728547 0.11952207405451019 0 0.30059752206250617 0.097987828394355631 0 0.29052670303627598 0.1091271208036696 0 0.29314839254728547 0.11952207405451019 0 0.29248885867984181 0.093661243003696146 0 0.30059752206250617 0.097987828394355631 0 0.29135706276245238 0.1015339550369538 0 0.29248885867984181 0.093661243003696146 0 0.29135706276245238 0.1015339550369538 0 0.28595833760110112 0.097689608214238721 0 0.29135706276245238 0.1015339550369538 0 0.28595833760110112 0.097689608214238721 0 0.28467298986659301 0.10621617739662439 0 0.28595833760110112 0.097689608214238721 0 0.28467298986659301 0.10621617739662439 0 0.27862311293065112 0.10234998337139301 0 0.29052670303627598 0.1091271208036696 0 0.29135706276245238 0.1015339550369538 0 0.28467298986659301 0.10621617739662439 0 0.28467298986659301 0.10621617739662439 0 0.28137440986598611 0.1136112590298704 0 0.27812958788795927 0.107644081280749 0 0.29052670303627598 0.1091271208036696 0 0.28137440986598611 0.1136112590298704 0 0.29314839254728547 0.11952207405451019 0 0.29052670303627598 0.1091271208036696 0 0.28467298986659301 0.10621617739662439 0 0.28137440986598611 0.1136112590298704 0 0.29314839254728547 0.11952207405451019 0 0.26784016190559068 0.1232339276804028 0 0.28986467446423858 0.1290147794416939 0 0.29779197693054371 0.1188410187182391 0 0.28986467446423858 0.1290147794416939 0 0.29779197693054371 0.1188410187182391 0 0.29314839254728547 0.11952207405451019 0 0.28986467446423858 0.1290147794416939 0 0.29314839254728547 0.11952207405451019 0 0.28986467446423858 0.1290147794416939 0 0.29779197693054371 0.1188410187182391 0 0.29314839254728547 0.11952207405451019 0 0.29314839254728547 0.11952207405451019 0 0.26784016190559068 0.1232339276804028 0 0.27226762443554209 0.11073118326949789 0 0.26784016190559068 0.1232339276804028 0 0.25904856375637703 0.096837014784652217 0 0.28137440986598611 0.1136112590298704 0 0.29314839254728547 0.11952207405451019 0 0.26784016190559068 0.1232339276804028 0 0.28137440986598611 0.1136112590298704 0 0.27226762443554209 0.11073118326949789 0 0.26784016190559068 0.1232339276804028 0 0.28137440986598611 0.1136112590298704 0 0.27226762443554209 0.11073118326949789 0 0.27812958788795927 0.107644081280749 0 0.26784016190559068 0.1232339276804028 0 0.26403720678618231 0.1237916913956502 0 0.27873149412094239 0.094696560783835648 0 0.27862311293065112 0.10234998337139301 0 0.26907964521769162 0.10079388712199901 0 0.28595833760110112 0.097689608214238721 0 0.27873149412094239 0.094696560783835648 0 0.27862311293065112 0.10234998337139301 0 0.27429208111026487 0.1053603607824667 0 0.27862311293065112 0.10234998337139301 0 0.26907964521769162 0.10079388712199901 0 0.27429208111026487 0.1053603607824667 0 0.27862311293065112 0.10234998337139301 0 0.27812958788795927 0.107644081280749 0 0.28467298986659301 0.10621617739662439 0 0.27862311293065112 0.10234998337139301 0 0.27812958788795927 0.107644081280749 0 0.27226762443554209 0.11073118326949789 0 0.27429208111026487 0.1053603607824667 0 0.27812958788795927 0.107644081280749 0 0.27226762443554209 0.11073118326949789 0 0.26907964521769162 0.10079388712199901 0 0.25904856375637703 0.096837014784652217 0 0.27226762443554209 0.11073118326949789 0 0.27429208111026487 0.1053603607824667 0 0.26907964521769162 0.10079388712199901 0 0.27207706844959562 0.09043556254963514 0 0.27873149412094239 0.094696560783835648 0 0.26907964521769162 0.10079388712199901 0 0.26521916594415479 0.090231852247843178 0 0.27207706844959562 0.09043556254963514 0 0.26907964521769162 0.10079388712199901 0 0.26784016190559068 0.1232339276804028 0 0.25904856375637703 0.096837014784652217 0 0.26049436997613412 0.1079191076236217 0 0.26521916594415479 0.090231852247843178 0 0.26907964521769162 0.10079388712199901 0 0.25904856375637703 0.096837014784652217 0 0.25134549599301542 0.093113001833606171 0 0.26049436997613412 0.1079191076236217 0 0.25311691439803963 0.1010492937196204 0 0.25134549599301542 0.093113001833606171 0 0.26049436997613412 0.1079191076236217 0 0.25134549599301542 0.093113001833606171 0 0.25904856375637703 0.096837014784652217 0 0.26049436997613412 0.1079191076236217 0 0.25311691439803963 0.1010492937196204 0 0.26403720678618231 0.1237916913956502 0 0.26049436997613412 0.1079191076236217 0 0.25311691439803963 0.1010492937196204 0 0.26403720678618231 0.1237916913956502 0 0.26784016190559068 0.1232339276804028 0 0.25904856375637703 0.096837014784652217 0 0.23877516526528131 0.12749677065403409 0 0.25311691439803963 0.1010492937196204 0 0.26403720678618231 0.1237916913956502 0 0.26784016190559068 0.1232339276804028 0 0.26049436997613412 0.1079191076236217 0 0.26403720678618231 0.1237916913956502 0 0.2489748085747415 0.14238586728697381 0 0.23877516526528131 0.12749677065403409 0 0.26403720678618231 0.1237916913956502 0 0.2489748085747415 0.14238586728697381 0 0.26403720678618231 0.1237916913956502 0 0.27705573921233068 0.1509038447217991 0 0.23877516526528131 0.12749677065403409 0 0.26403720678618231 0.1237916913956502 0 0.26784016190559068 0.1232339276804028 0 0.28986467446423858 0.1290147794416939 0 0.28472014539306079 0.13561717767583259 0 0.26403720678618231 0.1237916913956502 0 0.27705573921233068 0.1509038447217991 0 0.26784016190559068 0.1232339276804028 0 0.27705573921233068 0.1509038447217991 0 0.26784016190559068 0.1232339276804028 0 0.27705573921233068 0.1509038447217991 0 0.28472014539306079 0.13561717767583259 0 0.26784016190559068 0.1232339276804028 0 0.26403720678618231 0.1237916913956502 0 0.27705573921233068 0.1509038447217991 0 0.2489748085747415 0.14238586728697381 0 0.27705573921233068 0.1509038447217991 0 0.25301653249277928 0.16364512933074629 0 0.27705573921233068 0.1509038447217991 0 0.25301653249277928 0.16364512933074629 0 0.26658063814503419 0.175159318275625 0 0.2491207205124025 0.18912300576219279 0 0.26658063814503419 0.175159318275625 0 0.26910720522038789 0.19711006045598889 0 0.2491207205124025 0.18912300576219279 0 0.25301653249277928 0.16364512933074629 0 0.26658063814503419 0.175159318275625 0 0.28589588726413301 0.18121494093478829 0 0.28841360001121558 0.18126071752460679 0 0.26910720522038789 0.19711006045598889 0 0.28516004894346481 0.17523716324046809 0 0.26910720522038789 0.19711006045598889 0 0.28589588726413301 0.18121494093478829 0 0.28516004894346481 0.17523716324046809 0 0.26910720522038789 0.19711006045598889 0 0.26658063814503419 0.175159318275625 0 0.28516004894346481 0.17523716324046809 0 0.26910720522038789 0.19711006045598889 0 0.27705573921233068 0.1509038447217991 0 0.28516004894346481 0.17523716324046809 0 0.27705573921233068 0.1509038447217991 0 0.26658063814503419 0.175159318275625 0 0.28516004894346481 0.17523716324046809 0 0.28736186524305979 0.17236719097291739 0 0.29977337596052311 0.15618932383469061 0 0.27705573921233068 0.1509038447217991 0 0.28858043918331749 0.1604521377369488 0 0.28736186524305979 0.17236719097291739 0 0.28736186524305979 0.17236719097291739 0 0.29072224811124631 0.1793654617898259 0 0.29977337596052311 0.15618932383469061 0 0.27705573921233068 0.1509038447217991 0 0.28736186524305979 0.17236719097291739 0 0.27705573921233068 0.1509038447217991 0 0.28516004894346481 0.17523716324046809 0 0.28736186524305979 0.17236719097291739 0 0.28858043918331749 0.1604521377369488 0 0.28736186524305979 0.17236719097291739 0 0.29977337596052311 0.15618932383469061 0 0.28589588726413301 0.18121494093478829 0 0.28841360001121558 0.18126071752460679 0 0.28841360001121558 0.18126071752460679 0 0.28516004894346481 0.17523716324046809 0 0.29072224811124631 0.1793654617898259 0 0.28589588726413301 0.18121494093478829 0 0.28841360001121558 0.18126071752460679 0 0.28516004894346481 0.17523716324046809 0 0.28736186524305979 0.17236719097291739 0 0.29072224811124631 0.1793654617898259 0 0.28516004894346481 0.17523716324046809 0 0.28736186524305979 0.17236719097291739 0 0.29072224811124631 0.1793654617898259 0 0.28516004894346481 0.17523716324046809 0 0.28736186524305979 0.17236719097291739 0 0.29072224811124631 0.1793654617898259 0 0.29166064742898817 0.1813197547431912 0 0.30436046564585878 0.17401919735283311 0 0.28841360001121558 0.18126071752460679 0 0.29166064742898817 0.1813197547431912 0 0.28986537892493841 0.1907362010186163 0 0.28841360001121558 0.18126071752460679 0 0.29072224811124631 0.1793654617898259 0 0.28841360001121558 0.18126071752460679 0 0.29072224811124631 0.1793654617898259 0 0.29166064742898817 0.1813197547431912 0 0.28841360001121558 0.18126071752460679 0 0.29166064742898817 0.1813197547431912 0 0.29072224811124631 0.1793654617898259 0 0.29166064742898817 0.1813197547431912 0 0.29166064742898817 0.1813197547431912 0 0.31303048529522609 0.1954901176923238 0 0.32104843074838518 0.18185407801111039 0 0.29166064742898817 0.1813197547431912 0 0.30436046564585878 0.17401919735283311 0 0.32104843074838518 0.18185407801111039 0 0.29166064742898817 0.1813197547431912 0 0.32104843074838518 0.18185407801111039 0 0.29072224811124631 0.1793654617898259 0 0.30436046564585878 0.17401919735283311 0 0.31226087470522262 0.1616835961252375 0 0.29072224811124631 0.1793654617898259 0 0.31226087470522262 0.1616835961252375 0 0.29072224811124631 0.1793654617898259 0 0.31226087470522262 0.1616835961252375 0 0.29977337596052311 0.15618932383469061 0 0.30436046564585878 0.17401919735283311 0 0.31226087470522262 0.1616835961252375 0 0.31583055223933532 0.1718583466035507 0 0.29977337596052311 0.15618932383469061 0 0.31218488667799088 0.14001145669646739 0 0.31226087470522262 0.1616835961252375 0 0.29977337596052311 0.15618932383469061 0 0.31218488667799088 0.14001145669646739 0 0.29977337596052311 0.15618932383469061 0 0.2983693518225114 0.14312494966125511 0 0.31218488667799088 0.14001145669646739 0 0.31218488667799088 0.14001145669646739 0 0.30915168392987391 0.12618718950294749 0 0.30065257049544641 0.13127747663257111 0 0.29779197693054371 0.1188410187182391 0 0.30915168392987391 0.12618718950294749 0 0.30065257049544641 0.13127747663257111 0 0.2983693518225114 0.14312494966125511 0 0.30065257049544641 0.13127747663257111 0 0.29538553194348149 0.13544414854636369 0 0.2983693518225114 0.14312494966125511 0 0.31218488667799088 0.14001145669646739 0 0.30065257049544641 0.13127747663257111 0 0.28986467446423858 0.1290147794416939 0 0.28472014539306079 0.13561717767583259 0 0.28257446004032999 0.1500896269119697 0 0.2983693518225114 0.14312494966125511 0 0.29538553194348149 0.13544414854636369 0 0.29162648783267248 0.1417081772799304 0 0.28986467446423858 0.1290147794416939 0 0.28257446004032999 0.1500896269119697 0 0.29162648783267248 0.1417081772799304 0 0.28986467446423858 0.1290147794416939 0 0.28257446004032999 0.1500896269119697 0 0.29538553194348149 0.13544414854636369 0 0.28986467446423858 0.1290147794416939 0 0.29162648783267248 0.1417081772799304 0 0.30065257049544641 0.13127747663257111 0 0.29538553194348149 0.13544414854636369 0 0.28986467446423858 0.1290147794416939 0 0.29779197693054371 0.1188410187182391 0 0.30065257049544641 0.13127747663257111 0 0.28986467446423858 0.1290147794416939 0 0.28986467446423858 0.1290147794416939 0 0.28472014539306079 0.13561717767583259 0 0.27705573921233068 0.1509038447217991 0 0.28472014539306079 0.13561717767583259 0 0.28257446004032999 0.1500896269119697 0 0.28257446004032999 0.1500896269119697 0 0.29167044090346328 0.1517394622628479 0 0.29162648783267248 0.1417081772799304 0 0.28497026983486029 0.1532962679083914 0 0.28257446004032999 0.1500896269119697 0 0.29167044090346328 0.1517394622628479 0 0.27705573921233068 0.1509038447217991 0 0.28858043918331749 0.1604521377369488 0 0.28497026983486029 0.1532962679083914 0 0.27705573921233068 0.1509038447217991 0 0.28497026983486029 0.1532962679083914 0 0.28257446004032999 0.1500896269119697 0 0.28858043918331749 0.1604521377369488 0 0.28497026983486029 0.1532962679083914 0 0.29167044090346328 0.1517394622628479 0 0.28858043918331749 0.1604521377369488 0 0.29977337596052311 0.15618932383469061 0 0.29167044090346328 0.1517394622628479 0 0.29977337596052311 0.15618932383469061 0 0.2983693518225114 0.14312494966125511 0 0.29167044090346328 0.1517394622628479 0 0.2983693518225114 0.14312494966125511 0 0.29167044090346328 0.1517394622628479 0 0.29162648783267248 0.1417081772799304 0 0.25933000645894172 0.25157611021901422 0 0.2731172397574792 0.24256290321852991 0 0.25384493972390137 0.2445466193227451 0 0.2731172397574792 0.24256290321852991 0 0.25384493972390137 0.2445466193227451 0 0.26306448563691531 0.23287484750968371 0 0.25933000645894172 0.25157611021901422 0 0.25384493972390137 0.2445466193227451 0 0.25384493972390137 0.2445466193227451 0 0.2500150798737153 0.22104710959833829 0 0.26306448563691531 0.23287484750968371 0 0.2500150798737153 0.22104710959833829 0 0.26306448563691531 0.23287484750968371 0 0.27528068319256532 0.22334275789912139 0 0.2731172397574792 0.24256290321852991 0 0.26306448563691531 0.23287484750968371 0 0.27528068319256532 0.22334275789912139 0 0.2731172397574792 0.24256290321852991 0 0.27528068319256532 0.22334275789912139 0 0.28536372676892369 0.22859576600843451 0 0.2500150798737153 0.22104710959833829 0 0.27528068319256532 0.22334275789912139 0 0.27535341962450222 0.20672325268963879 0 0.27528068319256532 0.22334275789912139 0 0.27535341962450222 0.20672325268963879 0 0.28700169083073801 0.21647722050108939 0 0.24952928570714011 0.21318230820655429 0 0.26714104518572529 0.1987241549042251 0 0.24952928570714011 0.21318230820655429 0 0.2500150798737153 0.22104710959833829 0 0.26714104518572529 0.1987241549042251 0 0.2500150798737153 0.22104710959833829 0 0.26714104518572529 0.1987241549042251 0 0.24952928570714011 0.21318230820655429 0 0.25176877608350462 0.2008112079738272 0 0.26714104518572529 0.1987241549042251 0 0.2500150798737153 0.22104710959833829 0 0.27535341962450222 0.20672325268963879 0 0.26714104518572529 0.1987241549042251 0 0.2491207205124025 0.18912300576219279 0 0.25176877608350462 0.2008112079738272 0 0.26714104518572529 0.1987241549042251 0 0.2491207205124025 0.18912300576219279 0 0.26910720522038789 0.19711006045598889 0 0.2491207205124025 0.18912300576219279 0 0.26714104518572529 0.1987241549042251 0 0.26910720522038789 0.19711006045598889 0 0.27535341962450222 0.20672325268963879 0 0.26910720522038789 0.19711006045598889 0 0.28650459977978521 0.2040624557323856 0 0.26910720522038789 0.19711006045598889 0 0.28650459977978521 0.2040624557323856 0 0.28841360001121558 0.18126071752460679 0 0.26910720522038789 0.19711006045598889 0 0.27535341962450222 0.20672325268963879 0 0.26714104518572529 0.1987241549042251 0 0.26910720522038789 0.19711006045598889 0 0.26714104518572529 0.1987241549042251 0 0.26910720522038789 0.19711006045598889 0 0.26910720522038789 0.19711006045598889 0 0.28986537892493841 0.1907362010186163 0 0.28650459977978521 0.2040624557323856 0 0.29833659363552623 0.19522295605836471 0 0.30501253984206661 0.20912615737353701 0 0.28650459977978521 0.2040624557323856 0 0.28841360001121558 0.18126071752460679 0 0.26910720522038789 0.19711006045598889 0 0.28986537892493841 0.1907362010186163 0 0.28986537892493841 0.1907362010186163 0 0.29833659363552623 0.19522295605836471 0 0.28650459977978521 0.2040624557323856 0 0.29166064742898817 0.1813197547431912 0 0.29833659363552623 0.19522295605836471 0 0.29166064742898817 0.1813197547431912 0 0.28986537892493841 0.1907362010186163 0 0.29833659363552623 0.19522295605836471 0 0.29166064742898817 0.1813197547431912 0 0.29833659363552623 0.19522295605836471 0 0.31303048529522609 0.1954901176923238 0 0.30501253984206661 0.20912615737353701 0 0.31303048529522609 0.1954901176923238 0 0.29833659363552623 0.19522295605836471 0 0.30501253984206661 0.20912615737353701 0 0.31303048529522609 0.1954901176923238 0 0.30501253984206661 0.20912615737353701 0 0.31523619773248662 0.20408009092754539 0 0.31303048529522609 0.1954901176923238 0 0.29833659363552623 0.19522295605836471 0 0.30501253984206661 0.20912615737353701 0 0.30501253984206661 0.20912615737353701 0 0.3039019943391833 0.21101485100878059 0 0.28650459977978521 0.2040624557323856 0 0.30501253984206661 0.20912615737353701 0 0.3039019943391833 0.21101485100878059 0 0.30501253984206661 0.20912615737353701 0 0.3063984877315481 0.212012506652524 0 0.31449024662171771 0.2104703036080425 0 0.30501253984206661 0.20912615737353701 0 0.31523619773248662 0.20408009092754539 0 0.31449024662171771 0.2104703036080425 0 0.30501253984206661 0.20912615737353701 0 0.3063984877315481 0.212012506652524 0 0.30501253984206661 0.20912615737353701 0 0.3063984877315481 0.212012506652524 0 0.3039019943391833 0.21101485100878059 0 0.3063984877315481 0.212012506652524 0 0.30352025538624849 0.2144356268157798 0 0.3133793276302137 0.22655067389614869 0 0.3063984877315481 0.212012506652524 0 0.3039019943391833 0.21101485100878059 0 0.3039019943391833 0.21101485100878059 0 0.29560572127946833 0.2251242396681761 0 0.3039019943391833 0.21101485100878059 0 0.30352025538624849 0.2144356268157798 0 0.29560572127946833 0.2251242396681761 0 0.3063984877315481 0.212012506652524 0 0.3039019943391833 0.21101485100878059 0 0.30352025538624849 0.2144356268157798 0 0.3039019943391833 0.21101485100878059 0 0.28650459977978521 0.2040624557323856 0 0.28700169083073801 0.21647722050108939 0 0.3039019943391833 0.21101485100878059 0 0.28700169083073801 0.21647722050108939 0 0.29560572127946833 0.2251242396681761 0 0.3039019943391833 0.21101485100878059 0 0.28650459977978521 0.2040624557323856 0 0.27535341962450222 0.20672325268963879 0 0.28650459977978521 0.2040624557323856 0 0.28700169083073801 0.21647722050108939 0 0.27528068319256532 0.22334275789912139 0 0.28700169083073801 0.21647722050108939 0 0.28536372676892369 0.22859576600843451 0 0.29560572127946833 0.2251242396681761 0 0.28730944821975318 0.23923362832757161 0 0.29560572127946833 0.2251242396681761 0 0.29686418423525079 0.23642228197899551 0 0.28730944821975318 0.23923362832757161 0 0.28536372676892369 0.22859576600843451 0 0.29560572127946833 0.2251242396681761 0 0.28730944821975318 0.23923362832757161 0 0.28700169083073801 0.21647722050108939 0 0.28536372676892369 0.22859576600843451 0 0.29560572127946833 0.2251242396681761 0 0.30352025538624849 0.2144356268157798 0 0.30940299416290801 0.23160316076075321 0 0.3133793276302137 0.22655067389614869 0 0.30352025538624849 0.2144356268157798 0 0.29560572127946833 0.2251242396681761 0 0.30940299416290801 0.23160316076075321 0 0.30352025538624849 0.2144356268157798 0 0.30940299416290801 0.23160316076075321 0 0.3063984877315481 0.212012506652524 0 0.3133793276302137 0.22655067389614869 0 0.30940299416290801 0.23160316076075321 0 0.3133793276302137 0.22655067389614869 0 0.29560572127946833 0.2251242396681761 0 0.30940299416290801 0.23160316076075321 0 0.29686418423525079 0.23642228197899551 0 0.30940299416290801 0.23160316076075321 0 0.29513857327887272 0.24972809915948049 0 0.30940299416290801 0.23160316076075321 0 0.29513857327887272 0.24972809915948049 0 0.29686418423525079 0.23642228197899551 0 0.31818316426972387 0.25722623771081238 0 0.30940299416290801 0.23160316076075321 0 0.29513857327887272 0.24972809915948049 0 0.2731172397574792 0.24256290321852991 0 0.29513857327887272 0.24972809915948049 0 0.2731172397574792 0.24256290321852991 0 0.29513857327887272 0.24972809915948049 0 0.28730944821975318 0.23923362832757161 0 0.29513857327887272 0.24972809915948049 0 0.29686418423525079 0.23642228197899551 0 0.28730944821975318 0.23923362832757161 0 0.2731172397574792 0.24256290321852991 0 0.28536372676892369 0.22859576600843451 0 0.28730944821975318 0.23923362832757161 0 0.34285969426899532 0.24925208607327889 0 0.33321473157118248 0.24128336626767241 0 0.34527292685078798 0.23834092789224601 0 0.33321473157118248 0.24128336626767241 0 0.33121038715833429 0.23100364088330541 0 0.34527292685078798 0.23834092789224601 0 0.33321473157118248 0.24128336626767241 0 0.32590226224884272 0.23505311119298031 0 0.33121038715833429 0.23100364088330541 0 0.33084089493006752 0.25143756927828481 0 0.33321473157118248 0.24128336626767241 0 0.32215285561373952 0.2458190294923166 0 0.33084089493006752 0.25143756927828481 0 0.34285969426899532 0.24925208607327889 0 0.33321473157118248 0.24128336626767241 0 0.31818316426972387 0.25722623771081238 0 0.30940299416290801 0.23160316076075321 0 0.31818316426972387 0.25722623771081238 0 0.30940299416290801 0.23160316076075321 0 0.32215285561373952 0.2458190294923166 0 0.30940299416290801 0.23160316076075321 0 0.32215285561373952 0.2458190294923166 0 0.31731699220060722 0.23475118084154609 0 0.33321473157118248 0.24128336626767241 0 0.32215285561373952 0.2458190294923166 0 0.32590226224884272 0.23505311119298031 0 0.32215285561373952 0.2458190294923166 0 0.31731699220060722 0.23475118084154609 0 0.32590226224884272 0.23505311119298031 0 0.31731699220060722 0.23475118084154609 0 0.32590226224884272 0.23505311119298031 0 0.32200225951649158 0.2283990640106964 0 0.32590226224884272 0.23505311119298031 0 0.32200225951649158 0.2283990640106964 0 0.33121038715833429 0.23100364088330541 0 0.31731699220060722 0.23475118084154609 0 0.32200225951649158 0.2283990640106964 0 0.3133793276302137 0.22655067389614869 0 0.31731699220060722 0.23475118084154609 0 0.3133793276302137 0.22655067389614869 0 0.30940299416290801 0.23160316076075321 0 0.31731699220060722 0.23475118084154609 0 0.3133793276302137 0.22655067389614869 0 0.32200225951649158 0.2283990640106964 0 0.3133793276302137 0.22655067389614869 0 0.32041323109633918 0.21761311743574141 0 0.3133793276302137 0.22655067389614869 0 0.32041323109633918 0.21761311743574141 0 0.32200225951649158 0.2283990640106964 0 0.33121038715833429 0.23100364088330541 0 0.32041323109633918 0.21761311743574141 0 0.33121038715833429 0.23100364088330541 0 0.34288253092466031 0.22659236162411309 0 0.32041323109633918 0.21761311743574141 0 0.34288253092466031 0.22659236162411309 0 0.32226081711777299 0.2152655014268601 0 0.32041323109633918 0.21761311743574141 0 0.34288253092466031 0.22659236162411309 0 0.32041323109633918 0.21761311743574141 0 0.33121038715833429 0.23100364088330541 0 0.34288253092466031 0.22659236162411309 0 0.34527292685078798 0.23834092789224601 0 0.34288253092466031 0.22659236162411309 0 0.32795238140697031 0.20778431624093369 0 0.35525878128763838 0.21677375706925911 0 0.34288253092466031 0.22659236162411309 0 0.32226081711777299 0.2152655014268601 0 0.32795238140697031 0.20778431624093369 0 0.32795238140697031 0.20778431624093369 0 0.34382124610301212 0.20052082912637309 0 0.35525878128763838 0.21677375706925911 0 0.32795238140697031 0.20778431624093369 0 0.35525878128763838 0.21677375706925911 0 0.32226081711777299 0.2152655014268601 0 0.31923570809945923 0.2125519320525899 0 0.32109413908799028 0.2084722942450622 0 0.32226081711777299 0.2152655014268601 0 0.32041323109633918 0.21761311743574141 0 0.31923570809945923 0.2125519320525899 0 0.32226081711777299 0.2152655014268601 0 0.32041323109633918 0.21761311743574141 0 0.3063984877315481 0.212012506652524 0 0.32041323109633918 0.21761311743574141 0 0.31449024662171771 0.2104703036080425 0 0.3063984877315481 0.212012506652524 0 0.32041323109633918 0.21761311743574141 0 0.3063984877315481 0.212012506652524 0 0.3133793276302137 0.22655067389614869 0 0.32041323109633918 0.21761311743574141 0 0.32041323109633918 0.21761311743574141 0 0.31923570809945923 0.2125519320525899 0 0.31449024662171771 0.2104703036080425 0 0.31523619773248662 0.20408009092754539 0 0.32109413908799028 0.2084722942450622 0 0.32307404619802282 0.19844755308256051 0 0.31523619773248662 0.20408009092754539 0 0.31449024662171771 0.2104703036080425 0 0.32109413908799028 0.2084722942450622 0 0.31923570809945923 0.2125519320525899 0 0.31449024662171771 0.2104703036080425 0 0.32109413908799028 0.2084722942450622 0 0.32109413908799028 0.2084722942450622 0 0.32795238140697031 0.20778431624093369 0 0.32307404619802282 0.19844755308256051 0 0.32226081711777299 0.2152655014268601 0 0.32109413908799028 0.2084722942450622 0 0.32795238140697031 0.20778431624093369 0 0.32307404619802282 0.19844755308256051 0 0.33209026727440438 0.19279838934387661 0 0.32104843074838518 0.18185407801111039 0 0.32795238140697031 0.20778431624093369 0 0.32307404619802282 0.19844755308256051 0 0.33209026727440438 0.19279838934387661 0 0.32307404619802282 0.19844755308256051 0 0.31303048529522609 0.1954901176923238 0 0.32104843074838518 0.18185407801111039 0 0.31523619773248662 0.20408009092754539 0 0.32307404619802282 0.19844755308256051 0 0.31303048529522609 0.1954901176923238 0 0.31303048529522609 0.1954901176923238 0 0.32104843074838518 0.18185407801111039 0 0.32795238140697031 0.20778431624093369 0 0.33209026727440438 0.19279838934387661 0 0.34382124610301212 0.20052082912637309 0 0.33209026727440438 0.19279838934387661 0 0.34382124610301212 0.20052082912637309 0 0.34411333819229428 0.18227343991349801 0 0.34382124610301212 0.20052082912637309 0 0.36020742204179412 0.19867811941397129 0 0.34411333819229428 0.18227343991349801 0 0.36020742204179412 0.19867811941397129 0 0.34411333819229428 0.18227343991349801 0 0.36717824563620338 0.18269280181588601 0 0.36020742204179412 0.19867811941397129 0 0.37365211512771168 0.20686980750760459 0 0.3782166182729747 0.1933668958558957 0 0.36020742204179412 0.19867811941397129 0 0.36717824563620338 0.18269280181588601 0 0.3782166182729747 0.1933668958558957 0 0.36020742204179412 0.19867811941397129 0 0.37365211512771168 0.20686980750760459 0 0.35525878128763838 0.21677375706925911 0 0.37365211512771168 0.20686980750760459 0 0.37475831855490688 0.21531477433497609 0 0.35525878128763838 0.21677375706925911 0 0.34382124610301212 0.20052082912637309 0 0.36020742204179412 0.19867811941397129 0 0.35525878128763838 0.21677375706925911 0 0.34288253092466031 0.22659236162411309 0 0.36535183075298111 0.23557160581248551 0 0.34527292685078798 0.23834092789224601 0 0.34288253092466031 0.22659236162411309 0 0.36535183075298111 0.23557160581248551 0 0.34288253092466031 0.22659236162411309 0 0.35525878128763838 0.21677375706925911 0 0.36535183075298111 0.23557160581248551 0 0.35525878128763838 0.21677375706925911 0 0.37427856575939211 0.23386117504847689 0 0.38256518116830668 0.22576319789758451 0 0.35525878128763838 0.21677375706925911 0 0.37427856575939211 0.23386117504847689 0 0.36535183075298111 0.23557160581248551 0 0.35525878128763838 0.21677375706925911 0 0.38256518116830668 0.22576319789758451 0 0.37475831855490688 0.21531477433497609 0 0.35525878128763838 0.21677375706925911 0 0.38256518116830668 0.22576319789758451 0 0.38158120036622462 0.25704582904296452 0 0.37427856575939211 0.23386117504847689 0 0.36883678126117009 0.24474921281383891 0 0.37427856575939211 0.23386117504847689 0 0.36535183075298111 0.23557160581248551 0 0.36883678126117009 0.24474921281383891 0 0.36430736403106673 0.25323084233556958 0 0.36883678126117009 0.24474921281383891 0 0.35611838642857491 0.246342506692621 0 0.36535183075298111 0.23557160581248551 0 0.36883678126117009 0.24474921281383891 0 0.35611838642857491 0.246342506692621 0 0.36535183075298111 0.23557160581248551 0 0.35611838642857491 0.246342506692621 0 0.34527292685078798 0.23834092789224601 0 0.34285969426899532 0.24925208607327889 0 0.35611838642857491 0.246342506692621 0 0.34527292685078798 0.23834092789224601 0 0.33379950129919961 0.14400173046065001 0 0.34889098259295231 0.14851356874877711 0 0.34443169349996849 0.13055627056741179 0 0.33379950129919961 0.14400173046065001 0 0.33135276687299309 0.16432959657075 0 0.34889098259295231 0.14851356874877711 0 0.32459639739545881 0.1238335895582441 0 0.33379950129919961 0.14400173046065001 0 0.34443169349996849 0.13055627056741179 0 0.32459639739545881 0.1238335895582441 0 0.31218488667799088 0.14001145669646739 0 0.30915168392987391 0.12618718950294749 0 0.32459639739545881 0.1238335895582441 0 0.31218488667799088 0.14001145669646739 0 0.32459639739545881 0.1238335895582441 0 0.31218488667799088 0.14001145669646739 0 0.33379950129919961 0.14400173046065001 0 0.31226087470522262 0.1616835961252375 0 0.31218488667799088 0.14001145669646739 0 0.33379950129919961 0.14400173046065001 0 0.31226087470522262 0.1616835961252375 0 0.33379950129919961 0.14400173046065001 0 0.31226087470522262 0.1616835961252375 0 0.33379950129919961 0.14400173046065001 0 0.33135276687299309 0.16432959657075 0 0.31226087470522262 0.1616835961252375 0 0.31583055223933532 0.1718583466035507 0 0.33135276687299309 0.16432959657075 0 0.31583055223933532 0.1718583466035507 0 0.32104843074838518 0.18185407801111039 0 0.33135276687299309 0.16432959657075 0 0.32104843074838518 0.18185407801111039 0 0.33135276687299309 0.16432959657075 0 0.30436046564585878 0.17401919735283311 0 0.31583055223933532 0.1718583466035507 0 0.32104843074838518 0.18185407801111039 0 0.32104843074838518 0.18185407801111039 0 0.33135276687299309 0.16432959657075 0 0.34411333819229428 0.18227343991349801 0 0.32104843074838518 0.18185407801111039 0 0.34411333819229428 0.18227343991349801 0 0.33209026727440438 0.19279838934387661 0 0.32104843074838518 0.18185407801111039 0 0.34411333819229428 0.18227343991349801 0 0.33135276687299309 0.16432959657075 0 0.35056560142656351 0.16417578903007879 0 0.34889098259295231 0.14851356874877711 0 0.33135276687299309 0.16432959657075 0 0.35056560142656351 0.16417578903007879 0 0.34411333819229428 0.18227343991349801 0 0.34411333819229428 0.18227343991349801 0 0.36717824563620338 0.18269280181588601 0 0.35056560142656351 0.16417578903007879 0 0.34411333819229428 0.18227343991349801 0 0.36717824563620338 0.18269280181588601 0 0.36717824563620338 0.18269280181588601 0 0.36724568943659319 0.16702308146021361 0 0.38322555377988232 0.16757400402501799 0 0.35056560142656351 0.16417578903007879 0 0.36724568943659319 0.16702308146021361 0 0.36801335690372389 0.15364973096987161 0 0.36724568943659319 0.16702308146021361 0 0.36801335690372389 0.15364973096987161 0 0.38322555377988232 0.16757400402501799 0 0.35056560142656351 0.16417578903007879 0 0.36717824563620338 0.18269280181588601 0 0.36724568943659319 0.16702308146021361 0 0.36801335690372389 0.15364973096987161 0 0.36214561989453808 0.13455472503582941 0 0.3784288519638066 0.14068463976687051 0 0.36801335690372389 0.15364973096987161 0 0.34889098259295231 0.14851356874877711 0 0.36214561989453808 0.13455472503582941 0 0.35056560142656351 0.16417578903007879 0 0.36801335690372389 0.15364973096987161 0 0.34889098259295231 0.14851356874877711 0 0.34889098259295231 0.14851356874877711 0 0.34443169349996849 0.13055627056741179 0 0.36214561989453808 0.13455472503582941 0 0.35911559081709299 0.1152009984610369 0 0.34443169349996849 0.13055627056741179 0 0.36214561989453808 0.13455472503582941 0 0.36214561989453808 0.13455472503582941 0 0.38257529103957533 0.12522364668252911 0 0.3784288519638066 0.14068463976687051 0 0.38257529103957533 0.12522364668252911 0 0.3909808876237289 0.1386661019544419 0 0.3784288519638066 0.14068463976687051 0 0.40215314881171971 0.12943133699188999 0 0.3909808876237289 0.1386661019544419 0 0.40419439449084649 0.14535804032680341 0 0.38257529103957533 0.12522364668252911 0 0.40215314881171971 0.12943133699188999 0 0.3909808876237289 0.1386661019544419 0 0.3909808876237289 0.1386661019544419 0 0.40419439449084649 0.14535804032680341 0 0.3884291043574668 0.15132899419168061 0 0.40419439449084649 0.14535804032680341 0 0.3884291043574668 0.15132899419168061 0 0.40203310872254611 0.16006879767032611 0 0.36801335690372389 0.15364973096987161 0 0.3884291043574668 0.15132899419168061 0 0.3784288519638066 0.14068463976687051 0 0.3909808876237289 0.1386661019544419 0 0.3884291043574668 0.15132899419168061 0 0.3784288519638066 0.14068463976687051 0 0.36801335690372389 0.15364973096987161 0 0.3884291043574668 0.15132899419168061 0 0.38322555377988232 0.16757400402501799 0 0.36717824563620338 0.18269280181588601 0 0.38991373940181617 0.1850273425175285 0 0.3782166182729747 0.1933668958558957 0 0.36717824563620338 0.18269280181588601 0 0.38322555377988232 0.16757400402501799 0 0.38991373940181617 0.1850273425175285 0 0.38991373940181617 0.1850273425175285 0 0.40092831218789488 0.17461987383507041 0 0.40715230098497562 0.18628055594051901 0 0.38322555377988232 0.16757400402501799 0 0.38991373940181617 0.1850273425175285 0 0.40092831218789488 0.17461987383507041 0 0.3884291043574668 0.15132899419168061 0 0.38322555377988232 0.16757400402501799 0 0.40203310872254611 0.16006879767032611 0 0.38322555377988232 0.16757400402501799 0 0.40092831218789488 0.17461987383507041 0 0.40203310872254611 0.16006879767032611 0 0.40092831218789488 0.17461987383507041 0 0.40203310872254611 0.16006879767032611 0 0.412180276872262 0.16784599360050689 0 0.40203310872254611 0.16006879767032611 0 0.412180276872262 0.16784599360050689 0 0.41931480752873501 0.1561873032819896 0 0.412180276872262 0.16784599360050689 0 0.42428140510752149 0.1725062514454988 0 0.41931480752873501 0.1561873032819896 0 0.41364350049116339 0.178169370994812 0 0.42428140510752149 0.1725062514454988 0 0.42083371094102728 0.18935899441336099 0 0.40715230098497562 0.18628055594051901 0 0.41364350049116339 0.178169370994812 0 0.42083371094102728 0.18935899441336099 0 0.40092831218789488 0.17461987383507041 0 0.40715230098497562 0.18628055594051901 0 0.41364350049116339 0.178169370994812 0 0.40092831218789488 0.17461987383507041 0 0.412180276872262 0.16784599360050689 0 0.41364350049116339 0.178169370994812 0 0.412180276872262 0.16784599360050689 0 0.41364350049116339 0.178169370994812 0 0.42428140510752149 0.1725062514454988 0 0.42083371094102728 0.18935899441336099 0 0.44093497525037872 0.17893035016728279 0 0.42428140510752149 0.1725062514454988 0 0.42083371094102728 0.18935899441336099 0 0.44093497525037872 0.17893035016728279 0 0.42083371094102728 0.18935899441336099 0 0.43085442352710818 0.18887799435375591 0 0.44093497525037872 0.17893035016728279 0 0.42428140510752149 0.1725062514454988 0 0.43434594961710887 0.1624161008003267 0 0.44093497525037872 0.17893035016728279 0 0.42428140510752149 0.1725062514454988 0 0.43434594961710887 0.1624161008003267 0 0.41931480752873501 0.1561873032819896 0 0.43434594961710887 0.1624161008003267 0 0.4368111932001712 0.1452439418489653 0 0.41931480752873501 0.1561873032819896 0 0.4368111932001712 0.1452439418489653 0 0.42072346033561903 0.13835080100526451 0 0.41931480752873501 0.1561873032819896 0 0.4368111932001712 0.1452439418489653 0 0.43048336346106941 0.1259692990475377 0 0.42072346033561903 0.13835080100526451 0 0.43048336346106941 0.1259692990475377 0 0.42072346033561903 0.13835080100526451 0 0.41628309039226657 0.12022525353706071 0 0.40215314881171971 0.12943133699188999 0 0.42072346033561903 0.13835080100526451 0 0.41628309039226657 0.12022525353706071 0 0.40215314881171971 0.12943133699188999 0 0.40419439449084649 0.14535804032680341 0 0.42072346033561903 0.13835080100526451 0 0.40419439449084649 0.14535804032680341 0 0.42072346033561903 0.13835080100526451 0 0.41931480752873501 0.1561873032819896 0 0.40419439449084649 0.14535804032680341 0 0.40203310872254611 0.16006879767032611 0 0.41931480752873501 0.1561873032819896 0 0.40227278839675912 0.24102989082061299 0 0.39244148688764591 0.24173064346507411 0 0.38256518116830668 0.22576319789758451 0 0.39769101060800582 0.25070658361372339 0 0.40227278839675912 0.24102989082061299 0 0.41198103557731919 0.23932827972728199 0 0.39769101060800582 0.25070658361372339 0 0.40227278839675912 0.24102989082061299 0 0.39244148688764591 0.24173064346507411 0 0.39769101060800582 0.25070658361372339 0 0.38158120036622462 0.25704582904296452 0 0.39244148688764591 0.24173064346507411 0 0.39244148688764591 0.24173064346507411 0 0.38384324124691299 0.2367637484819646 0 0.38256518116830668 0.22576319789758451 0 0.38158120036622462 0.25704582904296452 0 0.39244148688764591 0.24173064346507411 0 0.38384324124691299 0.2367637484819646 0 0.38158120036622462 0.25704582904296452 0 0.37427856575939211 0.23386117504847689 0 0.38158120036622462 0.25704582904296452 0 0.37427856575939211 0.23386117504847689 0 0.38384324124691299 0.2367637484819646 0 0.37427856575939211 0.23386117504847689 0 0.38384324124691299 0.2367637484819646 0 0.38256518116830668 0.22576319789758451 0 0.38256518116830668 0.22576319789758451 0 0.3925553508495041 0.21987249077093091 0 0.38755719663597082 0.21185233486545629 0 0.40227278839675912 0.24102989082061299 0 0.38256518116830668 0.22576319789758451 0 0.40987158104897498 0.2347526387259099 0 0.3925553508495041 0.21987249077093091 0 0.39937069851101831 0.22531596123612241 0 0.40072832708272088 0.21655846908456061 0 0.38256518116830668 0.22576319789758451 0 0.40987158104897498 0.2347526387259099 0 0.38256518116830668 0.22576319789758451 0 0.39937069851101831 0.22531596123612241 0 0.40987158104897498 0.2347526387259099 0 0.38256518116830668 0.22576319789758451 0 0.3925553508495041 0.21987249077093091 0 0.39937069851101831 0.22531596123612241 0 0.39937069851101831 0.22531596123612241 0 0.40875273067035162 0.22198000359588399 0 0.40987158104897498 0.2347526387259099 0 0.39937069851101831 0.22531596123612241 0 0.40072832708272088 0.21655846908456061 0 0.40875273067035162 0.22198000359588399 0 0.40072832708272088 0.21655846908456061 0 0.39940625302973881 0.20601713213608169 0 0.41003645260038663 0.21149130386400061 0 0.39940625302973881 0.20601713213608169 0 0.38755719663597082 0.21185233486545629 0 0.39120434178382341 0.1983636500749151 0 0.3925553508495041 0.21987249077093091 0 0.40072832708272088 0.21655846908456061 0 0.38755719663597082 0.21185233486545629 0 0.40072832708272088 0.21655846908456061 0 0.39940625302973881 0.20601713213608169 0 0.38755719663597082 0.21185233486545629 0 0.37475831855490688 0.21531477433497609 0 0.38256518116830668 0.22576319789758451 0 0.38755719663597082 0.21185233486545629 0 0.37365211512771168 0.20686980750760459 0 0.37475831855490688 0.21531477433497609 0 0.38755719663597082 0.21185233486545629 0 0.37365211512771168 0.20686980750760459 0 0.38755719663597082 0.21185233486545629 0 0.38265756795512013 0.20261317207596791 0 0.38755719663597082 0.21185233486545629 0 0.38265756795512013 0.20261317207596791 0 0.39120434178382341 0.1983636500749151 0 0.38265756795512013 0.20261317207596791 0 0.3782166182729747 0.1933668958558957 0 0.39120434178382341 0.1983636500749151 0 0.37365211512771168 0.20686980750760459 0 0.38265756795512013 0.20261317207596791 0 0.3782166182729747 0.1933668958558957 0 0.38991373940181617 0.1850273425175285 0 0.3782166182729747 0.1933668958558957 0 0.39120434178382341 0.1983636500749151 0 0.38991373940181617 0.1850273425175285 0 0.39120434178382341 0.1983636500749151 0 0.40175863725897248 0.1957894829442994 0 0.38991373940181617 0.1850273425175285 0 0.40715230098497562 0.18628055594051901 0 0.40175863725897248 0.1957894829442994 0 0.39940625302973881 0.20601713213608169 0 0.39120434178382341 0.1983636500749151 0 0.40175863725897248 0.1957894829442994 0 0.39940625302973881 0.20601713213608169 0 0.40175863725897248 0.1957894829442994 0 0.40942805547444361 0.20209129294011191 0 0.40715230098497562 0.18628055594051901 0 0.4116334310926954 0.19512092380212059 0 0.42083371094102728 0.18935899441336099 0 0.40715230098497562 0.18628055594051901 0 0.40175863725897248 0.1957894829442994 0 0.4116334310926954 0.19512092380212059 0 0.4116334310926954 0.19512092380212059 0 0.40942805547444361 0.20209129294011191 0 0.41899445080405789 0.20208429277231191 0 0.40175863725897248 0.1957894829442994 0 0.4116334310926954 0.19512092380212059 0 0.40942805547444361 0.20209129294011191 0 0.4116334310926954 0.19512092380212059 0 0.41899445080405789 0.20208429277231191 0 0.42083371094102728 0.18935899441336099 0 0.42083371094102728 0.18935899441336099 0 0.43085442352710818 0.18887799435375591 0 0.43205980709687919 0.19744395443051321 0 0.43205980709687919 0.19744395443051321 0 0.44093497525037872 0.17893035016728279 0 0.43085442352710818 0.18887799435375591 0 0.43205980709687919 0.19744395443051321 0 0.44093497525037872 0.17893035016728279 0 0.43085442352710818 0.18887799435375591 0 0.43205980709687919 0.19744395443051321 0 0.41899445080405789 0.20208429277231191 0 0.42083371094102728 0.18935899441336099 0 0.43205980709687919 0.19744395443051321 0 0.43205980709687919 0.19744395443051321 0 0.42202042133709877 0.21838611707889741 0 0.43205980709687919 0.19744395443051321 0 0.42202042133709877 0.21838611707889741 0 0.43621172184177781 0.22694919810462541 0 0.41899445080405789 0.20208429277231191 0 0.43205980709687919 0.19744395443051321 0 0.42202042133709877 0.21838611707889741 0 0.43205980709687919 0.19744395443051321 0 0.43621172184177781 0.22694919810462541 0 0.41899445080405789 0.20208429277231191 0 0.42202042133709877 0.21838611707889741 0 0.41003645260038663 0.21149130386400061 0 0.40942805547444361 0.20209129294011191 0 0.41899445080405789 0.20208429277231191 0 0.41003645260038663 0.21149130386400061 0 0.39940625302973881 0.20601713213608169 0 0.40942805547444361 0.20209129294011191 0 0.41003645260038663 0.21149130386400061 0 0.42202042133709877 0.21838611707889741 0 0.41003645260038663 0.21149130386400061 0 0.40875273067035162 0.22198000359588399 0 0.40072832708272088 0.21655846908456061 0 0.41003645260038663 0.21149130386400061 0 0.40875273067035162 0.22198000359588399 0 0.42202042133709877 0.21838611707889741 0 0.41198103557731919 0.23932827972728199 0 0.40987158104897498 0.2347526387259099 0 0.42202042133709877 0.21838611707889741 0 0.41198103557731919 0.23932827972728199 0 0.42202042133709877 0.21838611707889741 0 0.40875273067035162 0.22198000359588399 0 0.40987158104897498 0.2347526387259099 0 0.42202042133709877 0.21838611707889741 0 0.43023383608219318 0.2423058034972608 0 0.41198103557731919 0.23932827972728199 0 0.42202042133709877 0.21838611707889741 0 0.43621172184177781 0.22694919810462541 0 0.43023383608219318 0.2423058034972608 0 0.44036363658667538 0.25645444177873772 0 0.43621172184177781 0.22694919810462541 0 0.43023383608219318 0.2423058034972608 0 0.4214236879189977 0.25385601230963539 0 0.43063296504362181 0.25380982229139198 0 0.43023383608219318 0.2423058034972608 0 0.40194164981753971 0.26027044237566649 0 0.41198103557731919 0.23932827972728199 0 0.4214236879189977 0.25385601230963539 0 0.43023383608219318 0.2423058034972608 0 0.41198103557731919 0.23932827972728199 0 0.40227278839675912 0.24102989082061299 0 0.41198103557731919 0.23932827972728199 0 0.40987158104897498 0.2347526387259099 0 0.4740483249193963 0.25704937579464482 0 0.46622008092528899 0.23730849393509351 0 0.45692538572579128 0.24890067001459051 0 0.46622008092528899 0.23730849393509351 0 0.45692538572579128 0.24890067001459051 0 0.45214538520962 0.2360355253178022 0 0.44036363658667538 0.25645444177873772 0 0.43621172184177781 0.22694919810462541 0 0.44988817805137449 0.25477347674998468 0 0.45692538572579128 0.24890067001459051 0 0.44684841970518652 0.2445411477309167 0 0.43621172184177781 0.22694919810462541 0 0.44684841970518652 0.2445411477309167 0 0.45214538520962 0.2360355253178022 0 0.44036363658667538 0.25645444177873772 0 0.43621172184177781 0.22694919810462541 0 0.44684841970518652 0.2445411477309167 0 0.45692538572579128 0.24890067001459051 0 0.44684841970518652 0.2445411477309167 0 0.45214538520962 0.2360355253178022 0 0.43621172184177781 0.22694919810462541 0 0.45214538520962 0.2360355253178022 0 0.45724208537746341 0.22101034800530919 0 0.43621172184177781 0.22694919810462541 0 0.45724208537746341 0.22101034800530919 0 0.44822228149005161 0.209546005775858 0 0.46622008092528899 0.23730849393509351 0 0.45724208537746341 0.22101034800530919 0 0.47120345985146239 0.22194979655047761 0 0.46622008092528899 0.23730849393509351 0 0.45214538520962 0.2360355253178022 0 0.45724208537746341 0.22101034800530919 0 0.45724208537746341 0.22101034800530919 0 0.46192785708352713 0.20557149838980829 0 0.4703596021235053 0.2119284966139611 0 0.45724208537746341 0.22101034800530919 0 0.4703596021235053 0.2119284966139611 0 0.47120345985146239 0.22194979655047761 0 0.46192785708352713 0.20557149838980829 0 0.44822228149005161 0.209546005775858 0 0.45184646923256189 0.19487380581793129 0 0.45724208537746341 0.22101034800530919 0 0.46192785708352713 0.20557149838980829 0 0.44822228149005161 0.209546005775858 0 0.43205980709687919 0.19744395443051321 0 0.43621172184177781 0.22694919810462541 0 0.44822228149005161 0.209546005775858 0 0.43205980709687919 0.19744395443051321 0 0.44822228149005161 0.209546005775858 0 0.45184646923256189 0.19487380581793129 0 0.43205980709687919 0.19744395443051321 0 0.45184646923256189 0.19487380581793129 0 0.44093497525037872 0.17893035016728279 0 0.45184646923256189 0.19487380581793129 0 0.46761730785753952 0.1940387560823616 0 0.46031658661699232 0.18371227006176241 0 0.46192785708352713 0.20557149838980829 0 0.45184646923256189 0.19487380581793129 0 0.46761730785753952 0.1940387560823616 0 0.46761730785753952 0.1940387560823616 0 0.47750287511170691 0.191559691883019 0 0.47231035401765747 0.1831517867978342 0 0.46192785708352713 0.20557149838980829 0 0.46761730785753952 0.1940387560823616 0 0.47716371805005348 0.20036456844244979 0 0.46761730785753952 0.1940387560823616 0 0.47716371805005348 0.20036456844244979 0 0.47750287511170691 0.191559691883019 0 0.47716371805005348 0.20036456844244979 0 0.48471292562149693 0.19343658633627339 0 0.48624618431907268 0.20088430703963481 0 0.47716371805005348 0.20036456844244979 0 0.47750287511170691 0.191559691883019 0 0.48471292562149693 0.19343658633627339 0 0.47750287511170691 0.191559691883019 0 0.48471292562149693 0.19343658633627339 0 0.48237432250511481 0.18524259987139791 0 0.49053664832355098 0.19418525997359459 0 0.49602556211092569 0.20447828496424289 0 0.49516575558632281 0.17785974315541611 0 0.49602556211092569 0.20447828496424289 0 0.49516575558632281 0.17785974315541611 0 0.48471292562149693 0.19343658633627339 0 0.48237432250511481 0.18524259987139791 0 0.48944886813742361 0.1871417723229844 0 0.5 0.20042822566782911 0 0.49602556211092569 0.20447828496424289 0 0.49516575558632281 0.17785974315541611 0 0.48471292562149693 0.19343658633627339 0 0.49053664832355098 0.19418525997359459 0 0.48944886813742361 0.1871417723229844 0 0.49053664832355098 0.19418525997359459 0 0.49028827921581358 0.2018959020037587 0 0.49602556211092569 0.20447828496424289 0 0.49053664832355098 0.19418525997359459 0 0.49028827921581358 0.2018959020037587 0 0.48624618431907268 0.20088430703963481 0 0.48471292562149693 0.19343658633627339 0 0.49053664832355098 0.19418525997359459 0 0.48624618431907268 0.20088430703963481 0 0.5 0.20042822566782911 0 0.49602556211092569 0.20447828496424289 0 0.5 0.22649878998398881 0 0.48624618431907268 0.20088430703963481 0 0.48834472210970492 0.20803575603756241 0 0.48057452516361071 0.20935604896983859 0 0.48834472210970492 0.20803575603756241 0 0.49602556211092569 0.20447828496424289 0 0.48945067050334728 0.21698174984399901 0 0.49602556211092569 0.20447828496424289 0 0.48945067050334728 0.21698174984399901 0 0.5 0.22649878998398881 0 0.49028827921581358 0.2018959020037587 0 0.48624618431907268 0.20088430703963481 0 0.48834472210970492 0.20803575603756241 0 0.49028827921581358 0.2018959020037587 0 0.48834472210970492 0.20803575603756241 0 0.49602556211092569 0.20447828496424289 0 0.48834472210970492 0.20803575603756241 0 0.48945067050334728 0.21698174984399901 0 0.48057452516361071 0.20935604896983859 0 0.48945067050334728 0.21698174984399901 0 0.48057452516361071 0.20935604896983859 0 0.47120345985146239 0.22194979655047761 0 0.47716371805005348 0.20036456844244979 0 0.48624618431907268 0.20088430703963481 0 0.48057452516361071 0.20935604896983859 0 0.47716371805005348 0.20036456844244979 0 0.48057452516361071 0.20935604896983859 0 0.4703596021235053 0.2119284966139611 0 0.46192785708352713 0.20557149838980829 0 0.47716371805005348 0.20036456844244979 0 0.4703596021235053 0.2119284966139611 0 0.48057452516361071 0.20935604896983859 0 0.4703596021235053 0.2119284966139611 0 0.47120345985146239 0.22194979655047761 0 0.48945067050334728 0.21698174984399901 0 0.47120345985146239 0.22194979655047761 0 0.48348708936658252 0.23539292673472531 0 0.46622008092528899 0.23730849393509351 0 0.47120345985146239 0.22194979655047761 0 0.48348708936658252 0.23539292673472531 0 0.48945067050334728 0.21698174984399901 0 0.5 0.22649878998398881 0 0.48348708936658252 0.23539292673472531 0 0.5 0.25256935430014837 0 0.5 0.22649878998398881 0 0.48348708936658252 0.23539292673472531 0 0.4740483249193963 0.25704937579464482 0 0.5 0.25256935430014837 0 0.48348708936658252 0.23539292673472531 0 0.4740483249193963 0.25704937579464482 0 0.46622008092528899 0.23730849393509351 0 0.48348708936658252 0.23539292673472531 0 0.4679971511720461 0.1506943020344185 0 0.4598397587470866 0.13949496434850531 0 0.45038736699873461 0.15921265725789499 0 0.4598397587470866 0.13949496434850531 0 0.45038736699873461 0.15921265725789499 0 0.4679971511720461 0.1506943020344185 0 0.4598397587470866 0.13949496434850531 0 0.47487446437755382 0.13821420949409011 0 0.4598397587470866 0.13949496434850531 0 0.46929215049543421 0.11977727143911331 0 0.45720848020021793 0.1213798587835129 0 0.4598397587470866 0.13949496434850531 0 0.46929215049543421 0.11977727143911331 0 0.4598397587470866 0.13949496434850531 0 0.47487446437755382 0.13821420949409011 0 0.46929215049543421 0.11977727143911331 0 0.4598397587470866 0.13949496434850531 0 0.44563656006934532 0.1285890180489275 0 0.45720848020021793 0.1213798587835129 0 0.4368111932001712 0.1452439418489653 0 0.43048336346106941 0.1259692990475377 0 0.44563656006934532 0.1285890180489275 0 0.4368111932001712 0.1452439418489653 0 0.4598397587470866 0.13949496434850531 0 0.44563656006934532 0.1285890180489275 0 0.43434594961710887 0.1624161008003267 0 0.4368111932001712 0.1452439418489653 0 0.45038736699873461 0.15921265725789499 0 0.4368111932001712 0.1452439418489653 0 0.4598397587470866 0.13949496434850531 0 0.45038736699873461 0.15921265725789499 0 0.43434594961710887 0.1624161008003267 0 0.45038736699873461 0.15921265725789499 0 0.44093497525037872 0.17893035016728279 0 0.45038736699873461 0.15921265725789499 0 0.44093497525037872 0.17893035016728279 0 0.46762046215604908 0.16508577575693401 0 0.45038736699873461 0.15921265725789499 0 0.44093497525037872 0.17893035016728279 0 0.45184646923256189 0.19487380581793129 0 0.44093497525037872 0.17893035016728279 0 0.46031658661699232 0.18371227006176241 0 0.46031658661699232 0.18371227006176241 0 0.46762046215604908 0.16508577575693401 0 0.47231035401765747 0.1831517867978342 0 0.44093497525037872 0.17893035016728279 0 0.46762046215604908 0.16508577575693401 0 0.44093497525037872 0.17893035016728279 0 0.46031658661699232 0.18371227006176241 0 0.46762046215604908 0.16508577575693401 0 0.46761730785753952 0.1940387560823616 0 0.46031658661699232 0.18371227006176241 0 0.47231035401765747 0.1831517867978342 0 0.4679971511720461 0.1506943020344185 0 0.45038736699873461 0.15921265725789499 0 0.46762046215604908 0.16508577575693401 0 0.46762046215604908 0.16508577575693401 0 0.4872830259946872 0.16479120627583049 0 0.49430594906172171 0.15124120134658939 0 0.46762046215604908 0.16508577575693401 0 0.48136257944214522 0.17601711673429171 0 0.4872830259946872 0.16479120627583049 0 0.46762046215604908 0.16508577575693401 0 0.49430594906172171 0.15124120134658939 0 0.46762046215604908 0.16508577575693401 0 0.47231035401765747 0.1831517867978342 0 0.48136257944214522 0.17601711673429171 0 0.47750287511170691 0.191559691883019 0 0.47231035401765747 0.1831517867978342 0 0.48237432250511481 0.18524259987139791 0 0.48136257944214522 0.17601711673429171 0 0.48237432250511481 0.18524259987139791 0 0.48772058464307022 0.18038422956049749 0 0.47231035401765747 0.1831517867978342 0 0.48136257944214522 0.17601711673429171 0 0.48237432250511481 0.18524259987139791 0 0.5 0.20042822566782911 0 0.5 0.1743576613516695 0 0.49516575558632281 0.17785974315541611 0 0.49053664832355098 0.19418525997359459 0 0.48944886813742361 0.1871417723229844 0 0.49516575558632281 0.17785974315541611 0 0.48944886813742361 0.1871417723229844 0 0.48772058464307022 0.18038422956049749 0 0.49516575558632281 0.17785974315541611 0 0.48237432250511481 0.18524259987139791 0 0.48944886813742361 0.1871417723229844 0 0.48772058464307022 0.18038422956049749 0 0.48788298641655631 0.17476307393150889 0 0.49516575558632281 0.17785974315541611 0 0.4872830259946872 0.16479120627583049 0 0.48772058464307022 0.18038422956049749 0 0.48788298641655631 0.17476307393150889 0 0.49516575558632281 0.17785974315541611 0 0.48136257944214522 0.17601711673429171 0 0.48772058464307022 0.18038422956049749 0 0.48788298641655631 0.17476307393150889 0 0.49516575558632281 0.17785974315541611 0 0.49430594906172171 0.15124120134658939 0 0.5 0.1743576613516695 0 0.49516575558632281 0.17785974315541611 0 0.49430594906172171 0.15124120134658939 0 0.49516575558632281 0.17785974315541611 0 0.4872830259946872 0.16479120627583049 0 0.49430594906172171 0.15124120134658939 0 0.5 0.1743576613516695 0 0.49430594906172171 0.15124120134658939 0 0.50000000000000155 0.14828709703550991 0 0.48136257944214522 0.17601711673429171 0 0.48788298641655631 0.17476307393150889 0 0.4872830259946872 0.16479120627583049 0 0.49430594906172171 0.15124120134658939 0 0.50000000000000155 0.14828709703550991 0 0.49344544952639202 0.1246012047866923 0 0.49430594906172171 0.15124120134658939 0 0.47796977671379498 0.14863863729007881 0 0.48505085680160409 0.1379576978183612 0 0.49430594906172171 0.15124120134658939 0 0.50000000000000155 0.14828709703550991 0 0.4679971511720461 0.1506943020344185 0 0.46762046215604908 0.16508577575693401 0 0.47796977671379498 0.14863863729007881 0 0.46762046215604908 0.16508577575693401 0 0.49430594906172171 0.15124120134658939 0 0.47796977671379498 0.14863863729007881 0 0.47796977671379498 0.14863863729007881 0 0.47487446437755382 0.13821420949409011 0 0.48505085680160409 0.1379576978183612 0 0.4679971511720461 0.1506943020344185 0 0.47796977671379498 0.14863863729007881 0 0.47487446437755382 0.13821420949409011 0 0.47487446437755382 0.13821420949409011 0 0.48082121107991999 0.1268529595781622 0 0.46929215049543421 0.11977727143911331 0 0.47487446437755382 0.13821420949409011 0 0.46929215049543421 0.11977727143911331 0 0.47487446437755382 0.13821420949409011 0 0.48082121107991999 0.1268529595781622 0 0.48505085680160409 0.1379576978183612 0 0.49430594906172171 0.15124120134658939 0 0.49344544952639202 0.1246012047866923 0 0.50000000000000155 0.14828709703550991 0 0.49344544952639202 0.1246012047866923 0 0.5 0.1189939347435285 0 0.49430594906172171 0.15124120134658939 0 0.48505085680160409 0.1379576978183612 0 0.49344544952639202 0.1246012047866923 0 0.48082121107991999 0.1268529595781622 0 0.48505085680160409 0.1379576978183612 0 0.49344544952639202 0.1246012047866923 0 0.49344544952639202 0.1246012047866923 0 0.5 0.1189939347435285 0 0.49084344151620268 0.11032680598071851 0 0.49344544952639202 0.1246012047866923 0 0.48637183938005107 0.1214578593414168 0 0.49084344151620268 0.11032680598071851 0 0.48082121107991999 0.1268529595781622 0 0.49344544952639202 0.1246012047866923 0 0.48637183938005107 0.1214578593414168 0 0.48637183938005107 0.1214578593414168 0 0.49084344151620268 0.11032680598071851 0 0.48343074048124762 0.11429779521054489 0 0.5 0.1189939347435285 0 0.49084344151620268 0.11032680598071851 0 0.5 0.089700772451547284 0 0.49047424459570987 0.097509203219102739 0 0.48502337315593441 0.10324932528679311 0 0.48606546736522438 0.084788125843453327 0 0.49084344151620268 0.11032680598071851 0 0.49047424459570987 0.097509203219102739 0 0.5 0.089700772451547284 0 0.49084344151620268 0.11032680598071851 0 0.48502337315593441 0.10324932528679311 0 0.48343074048124762 0.11429779521054489 0 0.49084344151620268 0.11032680598071851 0 0.49047424459570987 0.097509203219102739 0 0.48502337315593441 0.10324932528679311 0 0.47430297182128789 0.1093246961801463 0 0.47050309454290179 0.089531591055492868 0 0.46451221447301932 0.1039903798001398 0 0.47430297182128789 0.1093246961801463 0 0.48606546736522438 0.084788125843453327 0 0.47050309454290179 0.089531591055492868 0 0.48502337315593441 0.10324932528679311 0 0.47430297182128789 0.1093246961801463 0 0.48606546736522438 0.084788125843453327 0 0.47430297182128789 0.1093246961801463 0 0.48606546736522438 0.084788125843453327 0 0.48502337315593441 0.10324932528679311 0 0.47430297182128789 0.1093246961801463 0 0.48343074048124762 0.11429779521054489 0 0.47430297182128789 0.1093246961801463 0 0.46451221447301932 0.1039903798001398 0 0.47430297182128789 0.1093246961801463 0 0.46929215049543421 0.11977727143911331 0 0.46451221447301932 0.1039903798001398 0 0.47430297182128789 0.1093246961801463 0 0.46929215049543421 0.11977727143911331 0 0.48343074048124762 0.11429779521054489 0 0.47430297182128789 0.1093246961801463 0 0.46929215049543421 0.11977727143911331 0 0.48082121107991999 0.1268529595781622 0 0.48637183938005107 0.1214578593414168 0 0.48343074048124762 0.11429779521054489 0 0.48082121107991999 0.1268529595781622 0 0.46929215049543421 0.11977727143911331 0 0.48343074048124762 0.11429779521054489 0 0.47430297182128789 0.1093246961801463 0 0.48343074048124762 0.11429779521054489 0 0.48606546736522438 0.084788125843453327 0 0.49782796290915771 0.060251555506758828 0 0.5 0.089700772451547284 0 0.49999999999999539 0.060407610159565951 0 0.49782796290915771 0.060251555506758828 0 0.48606546736522438 0.084788125843453327 0 0.47455481161098317 0.058579446148603657 0 0.49782796290915771 0.060251555506758828 0 0.48606546736522438 0.084788125843453327 0 0.5 0.089700772451547284 0 0.49782796290915771 0.060251555506758828 0 0.49047424459570987 0.097509203219102739 0 0.48606546736522438 0.084788125843453327 0 0.5 0.089700772451547284 0 0.48606546736522438 0.084788125843453327 0 0.47050309454290179 0.089531591055492868 0 0.46261405797056931 0.067314190175525493 0 0.48606546736522438 0.084788125843453327 0 0.46261405797056931 0.067314190175525493 0 0.47455481161098317 0.058579446148603657 0 0.45762445880802749 0.08124190538348576 0 0.45073670314303488 0.058493430966832002 0 0.46261405797056931 0.067314190175525493 0 0.45762445880802749 0.08124190538348576 0 0.45073670314303488 0.058493430966832002 0 0.45762445880802749 0.08124190538348576 0 0.43974161286525548 0.090494567249743835 0 0.46451221447301932 0.1039903798001398 0 0.47050309454290179 0.089531591055492868 0 0.45762445880802749 0.08124190538348576 0 0.46451221447301932 0.1039903798001398 0 0.45762445880802749 0.08124190538348576 0 0.46451221447301932 0.1039903798001398 0 0.47050309454290179 0.089531591055492868 0 0.46261405797056931 0.067314190175525493 0 0.45762445880802749 0.08124190538348576 0 0.45762445880802749 0.08124190538348576 0 0.43974161286525548 0.090494567249743835 0 0.44594615309866581 0.072436294642079041 0 0.43974161286525548 0.090494567249743835 0 0.44594615309866581 0.072436294642079041 0 0.43550184101463452 0.0780296581636548 0 0.43974161286525548 0.090494567249743835 0 0.44594615309866581 0.072436294642079041 0 0.43974161286525548 0.090494567249743835 0 0.43832662395797117 0.094612882944921206 0 0.45762445880802749 0.08124190538348576 0 0.44594615309866581 0.072436294642079041 0 0.45073670314303488 0.058493430966832002 0 0.44594615309866581 0.072436294642079041 0 0.43133756619107583 0.0634305600616758 0 0.43550184101463452 0.0780296581636548 0 0.44594615309866581 0.072436294642079041 0 0.43133756619107583 0.0634305600616758 0 0.44234708332241229 0.061364152180739429 0 0.44594615309866581 0.072436294642079041 0 0.43133756619107583 0.0634305600616758 0 0.44594615309866581 0.072436294642079041 0 0.45073670314303488 0.058493430966832002 0 0.44234708332241229 0.061364152180739429 0 0.44594615309866581 0.072436294642079041 0 0.45073670314303488 0.058493430966832002 0 0.45720848020021793 0.1213798587835129 0 0.46451221447301932 0.1039903798001398 0 0.44827245902400958 0.1148732603906817 0 0.46929215049543421 0.11977727143911331 0 0.46451221447301932 0.1039903798001398 0 0.46929215049543421 0.11977727143911331 0 0.45720848020021793 0.1213798587835129 0 0.46451221447301932 0.1039903798001398 0 0.43974161286525548 0.090494567249743835 0 0.46451221447301932 0.1039903798001398 0 0.44149994351033311 0.10462836118203329 0 0.46451221447301932 0.1039903798001398 0 0.44149994351033311 0.10462836118203329 0 0.44827245902400958 0.1148732603906817 0 0.43974161286525548 0.090494567249743835 0 0.46451221447301932 0.1039903798001398 0 0.43832662395797117 0.094612882944921206 0 0.44149994351033311 0.10462836118203329 0 0.43424904756422228 0.1012404829594423 0 0.43974161286525548 0.090494567249743835 0 0.43832662395797117 0.094612882944921206 0 0.44149994351033311 0.10462836118203329 0 0.44149994351033311 0.10462836118203329 0 0.43796191748646912 0.11718649710648581 0 0.44827245902400958 0.1148732603906817 0 0.44563656006934532 0.1285890180489275 0 0.45720848020021793 0.1213798587835129 0 0.44827245902400958 0.1148732603906817 0 0.43048336346106941 0.1259692990475377 0 0.44563656006934532 0.1285890180489275 0 0.43796191748646912 0.11718649710648581 0 0.44563656006934532 0.1285890180489275 0 0.43796191748646912 0.11718649710648581 0 0.44827245902400958 0.1148732603906817 0 0.43048336346106941 0.1259692990475377 0 0.42922231504475861 0.109721218409806 0 0.41628309039226657 0.12022525353706071 0 0.43048336346106941 0.1259692990475377 0 0.43796191748646912 0.11718649710648581 0 0.42922231504475861 0.109721218409806 0 0.44149994351033311 0.10462836118203329 0 0.43796191748646912 0.11718649710648581 0 0.42922231504475861 0.109721218409806 0 0.42922231504475861 0.109721218409806 0 0.41628309039226657 0.12022525353706071 0 0.4151234941480737 0.1037526891740559 0 0.41628309039226657 0.12022525353706071 0 0.4151234941480737 0.1037526891740559 0 0.39772111799630039 0.1102787422188483 0 0.4151234941480737 0.1037526891740559 0 0.41567316458935738 0.090438296118451195 0 0.40322623116615403 0.091888493636890514 0 0.4151234941480737 0.1037526891740559 0 0.42794730774382628 0.095999469301008833 0 0.41567316458935738 0.090438296118451195 0 0.42922231504475861 0.109721218409806 0 0.4151234941480737 0.1037526891740559 0 0.42794730774382628 0.095999469301008833 0 0.42922231504475861 0.109721218409806 0 0.42794730774382628 0.095999469301008833 0 0.43424904756422228 0.1012404829594423 0 0.44149994351033311 0.10462836118203329 0 0.42922231504475861 0.109721218409806 0 0.43424904756422228 0.1012404829594423 0 0.43832662395797117 0.094612882944921206 0 0.42794730774382628 0.095999469301008833 0 0.43424904756422228 0.1012404829594423 0 0.43974161286525548 0.090494567249743835 0 0.42397626236444208 0.081905102265430171 0 0.43550184101463452 0.0780296581636548 0 0.43974161286525548 0.090494567249743835 0 0.43832662395797117 0.094612882944921206 0 0.42794730774382628 0.095999469301008833 0 0.43974161286525548 0.090494567249743835 0 0.42794730774382628 0.095999469301008833 0 0.42397626236444208 0.081905102265430171 0 0.43974161286525548 0.090494567249743835 0 0.42397626236444208 0.081905102265430171 0 0.42794730774382628 0.095999469301008833 0 0.42397626236444208 0.081905102265430171 0 0.41567316458935738 0.090438296118451195 0 0.42397626236444208 0.081905102265430171 0 0.43133756619107583 0.0634305600616758 0 0.41821548115255403 0.067123398692898531 0 0.42397626236444208 0.081905102265430171 0 0.43133756619107583 0.0634305600616758 0 0.43550184101463452 0.0780296581636548 0 0.42397626236444208 0.081905102265430171 0 0.41821548115255403 0.067123398692898531 0 0.40821091186362862 0.073315637281116244 0 0.42397626236444208 0.081905102265430171 0 0.40821091186362862 0.073315637281116244 0 0.41821548115255403 0.067123398692898531 0 0.40821091186362862 0.073315637281116244 0 0.4028146718488711 0.064706033862578879 0 0.42397626236444208 0.081905102265430171 0 0.40821091186362862 0.073315637281116244 0 0.41567316458935738 0.090438296118451195 0 0.40821091186362862 0.073315637281116244 0 0.41567316458935738 0.090438296118451195 0 0.40322623116615403 0.091888493636890514 0 0.40821091186362862 0.073315637281116244 0 0.40322623116615403 0.091888493636890514 0 0.39524460278721713 0.079173531904547914 0 0.40322623116615403 0.091888493636890514 0 0.39524460278721713 0.079173531904547914 0 0.38757877826104409 0.094056568614795 0 0.40821091186362862 0.073315637281116244 0 0.39524460278721713 0.079173531904547914 0 0.4028146718488711 0.064706033862578879 0 0.39524460278721713 0.079173531904547914 0 0.4028146718488711 0.064706033862578879 0 0.38859699227956668 0.068658031324783292 0 0.4028146718488711 0.064706033862578879 0 0.38859699227956668 0.068658031324783292 0 0.3903550691551646 0.057169315401496529 0 0.39524460278721713 0.079173531904547914 0 0.38859699227956668 0.068658031324783292 0 0.37826408423317831 0.078025493116255493 0 0.38859699227956668 0.068658031324783292 0 0.37894948866811312 0.063408514195723825 0 0.3903550691551646 0.057169315401496529 0 0.38859699227956668 0.068658031324783292 0 0.37826408423317831 0.078025493116255493 0 0.37894948866811312 0.063408514195723825 0 0.36862736152008851 0.068121488118488768 0 0.37826408423317831 0.078025493116255493 0 0.37894948866811312 0.063408514195723825 0 0.39524460278721713 0.079173531904547914 0 0.37826408423317831 0.078025493116255493 0 0.38757877826104409 0.094056568614795 0 0.37087998821928547 0.095379791376698289 0 0.37826408423317831 0.078025493116255493 0 0.38757877826104409 0.094056568614795 0 0.37087998821928547 0.095379791376698289 0 0.38023948013423192 0.1082954779422447 0 0.38757877826104409 0.094056568614795 0 0.38023948013423192 0.1082954779422447 0 0.38757877826104409 0.094056568614795 0 0.39772111799630039 0.1102787422188483 0 0.38257529103957533 0.12522364668252911 0 0.38023948013423192 0.1082954779422447 0 0.39772111799630039 0.1102787422188483 0 0.40215314881171971 0.12943133699188999 0 0.41628309039226657 0.12022525353706071 0 0.39772111799630039 0.1102787422188483 0 0.38257529103957533 0.12522364668252911 0 0.40215314881171971 0.12943133699188999 0 0.39772111799630039 0.1102787422188483 0 0.4151234941480737 0.1037526891740559 0 0.40322623116615403 0.091888493636890514 0 0.39772111799630039 0.1102787422188483 0 0.40322623116615403 0.091888493636890514 0 0.38757877826104409 0.094056568614795 0 0.39772111799630039 0.1102787422188483 0 0.39436218753231672 0.02113590368811075 0 0.41085092145348429 0.035466320912962652 0 0.41215449154649081 0.020268576158592441 0 0.39436218753231672 0.02113590368811075 0 0.4027220407959507 0.0068609628241748342 0 0.41215449154649081 0.020268576158592441 0 0.39436218753231672 0.02113590368811075 0 0.4027220407959507 0.0068609628241748342 0 0.38202126979674728 0.0016257403202125471 0 0.36670660797298932 0.02358760611472362 0 0.39436218753231672 0.02113590368811075 0 0.38202126979674728 0.0016257403202125471 0 0.36670660797298932 0.02358760611472362 0 0.39436218753231672 0.02113590368811075 0 0.39171779362823728 0.0390062157979984 0 0.37071873772007918 0.043391986722389933 0 0.36670660797298932 0.02358760611472362 0 0.39171779362823728 0.0390062157979984 0 0.37071873772007918 0.043391986722389933 0 0.37946994248149618 0.052811618606571457 0 0.39171779362823728 0.0390062157979984 0 0.36670660797298932 0.02358760611472362 0 0.39171779362823728 0.0390062157979984 0 0.37946994248149618 0.052811618606571457 0 0.3903550691551646 0.057169315401496529 0 0.39171779362823728 0.0390062157979984 0 0.36838348233918489 0.055665138606747502 0 0.37894948866811312 0.063408514195723825 0 0.37946994248149618 0.052811618606571457 0 0.37894948866811312 0.063408514195723825 0 0.37946994248149618 0.052811618606571457 0 0.3903550691551646 0.057169315401496529 0 0.40143220148799658 0.053325795746383881 0 0.39171779362823728 0.0390062157979984 0 0.41672897928348518 0.054424825481273538 0 0.3903550691551646 0.057169315401496529 0 0.40143220148799658 0.053325795746383881 0 0.39171779362823728 0.0390062157979984 0 0.4028146718488711 0.064706033862578879 0 0.3903550691551646 0.057169315401496529 0 0.40143220148799658 0.053325795746383881 0 0.39171779362823728 0.0390062157979984 0 0.41672897928348518 0.054424825481273538 0 0.39436218753231672 0.02113590368811075 0 0.39171779362823728 0.0390062157979984 0 0.41085092145348429 0.035466320912962652 0 0.41085092145348429 0.035466320912962652 0 0.41672897928348518 0.054424825481273538 0 0.42315856374172001 0.04264387421550192 0 0.39171779362823728 0.0390062157979984 0 0.41085092145348429 0.035466320912962652 0 0.41672897928348518 0.054424825481273538 0 0.41085092145348429 0.035466320912962652 0 0.42315856374172001 0.04264387421550192 0 0.42704883683265649 0.026993479262903981 0 0.41821548115255403 0.067123398692898531 0 0.4028146718488711 0.064706033862578879 0 0.41672897928348518 0.054424825481273538 0 0.4028146718488711 0.064706033862578879 0 0.40143220148799658 0.053325795746383881 0 0.41672897928348518 0.054424825481273538 0 0.40143220148799658 0.053325795746383881 0 0.41672897928348518 0.054424825481273538 0 0.43133756619107583 0.0634305600616758 0 0.41672897928348518 0.054424825481273538 0 0.4334813244875898 0.055628433571461647 0 0.41672897928348518 0.054424825481273538 0 0.4334813244875898 0.055628433571461647 0 0.42315856374172001 0.04264387421550192 0 0.41672897928348518 0.054424825481273538 0 0.4334813244875898 0.055628433571461647 0 0.43133756619107583 0.0634305600616758 0 0.41821548115255403 0.067123398692898531 0 0.41672897928348518 0.054424825481273538 0 0.43133756619107583 0.0634305600616758 0 0.41672897928348518 0.054424825481273538 0 0.43133756619107583 0.0634305600616758 0 0.4334813244875898 0.055628433571461647 0 0.44234708332241229 0.061364152180739429 0 0.42315856374172001 0.04264387421550192 0 0.43544005371654038 0.042201266565284203 0 0.42704883683265649 0.026993479262903981 0 0.43544005371654038 0.042201266565284203 0 0.42704883683265649 0.026993479262903981 0 0.44295985755775741 0.030906224104374411 0 0.4334813244875898 0.055628433571461647 0 0.42315856374172001 0.04264387421550192 0 0.43544005371654038 0.042201266565284203 0 0.42704883683265649 0.026993479262903981 0 0.44295985755775741 0.030906224104374411 0 0.42704883683265649 0.026993479262903981 0 0.43359549516192941 0.0144486652876435 0 0.44295985755775741 0.030906224104374411 0 0.42704883683265649 0.026993479262903981 0 0.42297410953636749 0.0076815276236235786 0 0.43359549516192941 0.0144486652876435 0 0.41085092145348429 0.035466320912962652 0 0.42704883683265649 0.026993479262903981 0 0.41215449154649081 0.020268576158592441 0 0.42704883683265649 0.026993479262903981 0 0.41215449154649081 0.020268576158592441 0 0.42297410953636749 0.0076815276236235786 0 0.4027220407959507 0.0068609628241748342 0 0.41215449154649081 0.020268576158592441 0 0.42297410953636749 0.0076815276236235786 0 0.4027220407959507 0.0068609628241748342 0 0.42297410953636749 0.0076815276236235786 0 0.41586236275646948 -0.0080451436689564296 0 0.42297410953636749 0.0076815276236235786 0 0.4367476754283498 0.0044171083123250039 0 0.43386711193933192 -0.0080323110652625804 0 0.42297410953636749 0.0076815276236235786 0 0.43359549516192941 0.0144486652876435 0 0.4367476754283498 0.0044171083123250039 0 0.4367476754283498 0.0044171083123250039 0 0.44662832293839799 0.010627429752393039 0 0.44667333756572242 -0.0026397700367725169 0 0.44662832293839799 0.010627429752393039 0 0.45471793344451528 0.0046277864098249631 0 0.44667333756572242 -0.0026397700367725169 0 0.44662832293839799 0.010627429752393039 0 0.45438699636212732 0.01892620202627366 0 0.45471793344451528 0.0046277864098249631 0 0.43359549516192941 0.0144486652876435 0 0.4367476754283498 0.0044171083123250039 0 0.44662832293839799 0.010627429752393039 0 0.43359549516192941 0.0144486652876435 0 0.44662832293839799 0.010627429752393039 0 0.44295985755775741 0.030906224104374411 0 0.44295985755775741 0.030906224104374411 0 0.45438699636212732 0.01892620202627366 0 0.45887087828285811 0.034818968945844887 0 0.44662832293839799 0.010627429752393039 0 0.44295985755775741 0.030906224104374411 0 0.45438699636212732 0.01892620202627366 0 0.46812918500062589 0.0078727295299568789 0 0.45887087828285811 0.034818968945844887 0 0.47718167944645168 0.024933854838152941 0 0.45438699636212732 0.01892620202627366 0 0.46812918500062589 0.0078727295299568789 0 0.45887087828285811 0.034818968945844887 0 0.46812918500062589 0.0078727295299568789 0 0.45887087828285811 0.034818968945844887 0 0.46812918500062589 0.0078727295299568789 0 0.45471793344451528 0.0046277864098249631 0 0.45777182535570238 -0.01164765922272624 0 0.45438699636212732 0.01892620202627366 0 0.46812918500062589 0.0078727295299568789 0 0.45471793344451528 0.0046277864098249631 0 0.4334813244875898 0.055628433571461647 0 0.45128166031280792 0.056907336790460339 0 0.44761675238845577 0.048189041064836978 0 0.4334813244875898 0.055628433571461647 0 0.45128166031280792 0.056907336790460339 0 0.4334813244875898 0.055628433571461647 0 0.45128166031280792 0.056907336790460339 0 0.44234708332241229 0.061364152180739429 0 0.45128166031280792 0.056907336790460339 0 0.45073670314303488 0.058493430966832002 0 0.44234708332241229 0.061364152180739429 0 0.45128166031280792 0.056907336790460339 0 0.45073670314303488 0.058493430966832002 0 0.4334813244875898 0.055628433571461647 0 0.43544005371654038 0.042201266565284203 0 0.44761675238845577 0.048189041064836978 0 0.45128166031280792 0.056907336790460339 0 0.44761675238845577 0.048189041064836978 0 0.44295985755775741 0.030906224104374411 0 0.45887087828285811 0.034818968945844887 0 0.43544005371654038 0.042201266565284203 0 0.44295985755775741 0.030906224104374411 0 0.44761675238845577 0.048189041064836978 0 0.45128166031280792 0.056907336790460339 0 0.44761675238845577 0.048189041064836978 0 0.45887087828285811 0.034818968945844887 0 0.44295985755775741 0.030906224104374411 0 0.44761675238845577 0.048189041064836978 0 0.45887087828285811 0.034818968945844887 0 0.45128166031280792 0.056907336790460339 0 0.45887087828285811 0.034818968945844887 0 0.46575551403209747 0.047339919975727431 0 0.45887087828285811 0.034818968945844887 0 0.47777914796007809 0.039468779659997233 0 0.45887087828285811 0.034818968945844887 0 0.46575551403209747 0.047339919975727431 0 0.47777914796007809 0.039468779659997233 0 0.45128166031280792 0.056907336790460339 0 0.45887087828285811 0.034818968945844887 0 0.46261405797056931 0.067314190175525493 0 0.45128166031280792 0.056907336790460339 0 0.47455481161098317 0.058579446148603657 0 0.45128166031280792 0.056907336790460339 0 0.46575551403209747 0.047339919975727431 0 0.47455481161098317 0.058579446148603657 0 0.45128166031280792 0.056907336790460339 0 0.47455481161098317 0.058579446148603657 0 0.46261405797056931 0.067314190175525493 0 0.45128166031280792 0.056907336790460339 0 0.45073670314303488 0.058493430966832002 0 0.46575551403209747 0.047339919975727431 0 0.47455481161098317 0.058579446148603657 0 0.47777914796007809 0.039468779659997233 0 0.47455481161098317 0.058579446148603657 0 0.47777914796007809 0.039468779659997233 0 0.48704148202749131 0.052907323804776023 0 0.45887087828285811 0.034818968945844887 0 0.47777914796007809 0.039468779659997233 0 0.47718167944645168 0.024933854838152941 0 0.47777914796007809 0.039468779659997233 0 0.48514687914221799 0.032121901778210303 0 0.47718167944645168 0.024933854838152941 0 0.49668741763729751 0.044118590374152368 0 0.48893927152504402 0.019966382240541428 0 0.48514687914221799 0.032121901778210303 0 0.49668741763729751 0.044118590374152368 0 0.48893927152504402 0.019966382240541428 0 0.50000000000000111 0.044933201188600308 0 0.49668741763729751 0.044118590374152368 0 0.5 0.018022035888800029 0 0.47777914796007809 0.039468779659997233 0 0.48514687914221799 0.032121901778210303 0 0.49668741763729751 0.044118590374152368 0 0.47777914796007809 0.039468779659997233 0 0.49668741763729751 0.044118590374152368 0 0.47777914796007809 0.039468779659997233 0 0.49668741763729751 0.044118590374152368 0 0.48704148202749131 0.052907323804776023 0 0.50000000000000111 0.044933201188600308 0 0.49668741763729751 0.044118590374152368 0 0.47455481161098317 0.058579446148603657 0 0.48704148202749131 0.052907323804776023 0 0.49782796290915771 0.060251555506758828 0 0.47455481161098317 0.058579446148603657 0 0.49782796290915771 0.060251555506758828 0 0.49668741763729751 0.044118590374152368 0 0.49999999999999939 0.054444438328570682 0 0.50000000000000111 0.044933201188600308 0 0.49668741763729751 0.044118590374152368 0 0.49999999999999939 0.054444438328570682 0 0.49668741763729751 0.044118590374152368 0 0.48704148202749131 0.052907323804776023 0 0.49631137251479368 0.0534885186588289 0 0.49668741763729751 0.044118590374152368 0 0.49999999999999939 0.054444438328570682 0 0.49631137251479368 0.0534885186588289 0 0.48704148202749131 0.052907323804776023 0 0.49631137251479368 0.0534885186588289 0 0.49782796290915771 0.060251555506758828 0 0.49999999999999939 0.054444438328570682 0 0.49999999999999539 0.060407610159565951 0 0.49782796290915771 0.060251555506758828 0 0.49999999999999939 0.054444438328570682 0 0.49631137251479368 0.0534885186588289 0 0.49782796290915771 0.060251555506758828 0 0.49999999999999939 0.054444438328570682 0 0.49782796290915771 0.060251555506758828 0 0.49999999999999539 0.060407610159565951 0 0.49782796290915771 0.060251555506758828 0 0.46812918500062589 0.0078727295299568789 0 0.47886031534622842 0.012146785178895321 0 0.48119112541279191 -0.0041858258930699901 0 0.46812918500062589 0.0078727295299568789 0 0.47886031534622842 0.012146785178895321 0 0.47718167944645168 0.024933854838152941 0 0.47886031534622842 0.012146785178895321 0 0.48893927152504402 0.019966382240541428 0 0.48119112541279191 -0.0041858258930699901 0 0.46812918500062589 0.0078727295299568789 0 0.47718167944645168 0.024933854838152941 0 0.48514687914221799 0.032121901778210303 0 0.47718167944645168 0.024933854838152941 0 0.48893927152504402 0.019966382240541428 0 0.47886031534622842 0.012146785178895321 0 0.47718167944645168 0.024933854838152941 0 0.48893927152504402 0.019966382240541428 0 0.49668741763729751 0.044118590374152368 0 0.48893927152504402 0.019966382240541428 0 0.5 0.018022035888800029 0 0.48893927152504402 0.019966382240541428 0 0.5 0.018022035888800029 0 0.49221814534893188 0.0045535808687618773 0 0.48893927152504402 0.019966382240541428 0 0.48119112541279191 -0.0041858258930699901 0 0.48893927152504402 0.019966382240541428 0 0.49221814534893188 0.0045535808687618773 0 0.48119112541279191 -0.0041858258930699901 0 0.5 0.018022035888800029 0 0.49221814534893188 0.0045535808687618773 0 0.5 -0.0088891294110001184 0 0.49221814534893188 0.0045535808687618773 0 0.5 -0.0088891294110001184 0 0.49037072410748372 -0.004818859520816959 0 0.5 -0.0088891294110001184 0 0.48505468083070208 -0.01277483967160328 0 0.49037072410748372 -0.004818859520816959 0 0.49221814534893188 0.0045535808687618773 0 0.49037072410748372 -0.004818859520816959 0 0.48119112541279191 -0.0041858258930699901 0 0.48505468083070208 -0.01277483967160328 0 0.49037072410748372 -0.004818859520816959 0 0.48119112541279191 -0.0041858258930699901 0 0.46812918500062589 0.0078727295299568789 0 0.47479181534877518 -0.011518811274821799 0 0.46812918500062589 0.0078727295299568789 0 0.48119112541279191 -0.0041858258930699901 0 0.47479181534877518 -0.011518811274821799 0 0.48505468083070208 -0.01277483967160328 0 0.47479181534877518 -0.011518811274821799 0 0.47694380167313688 -0.021931234772157152 0 0.48505468083070208 -0.01277483967160328 0 0.48119112541279191 -0.0041858258930699901 0 0.47479181534877518 -0.011518811274821799 0 0.47694380167313688 -0.021931234772157152 0 0.47305991866478808 -0.034930139026607993 0 0.46492758559899883 -0.024226752462468741 0 0.47479181534877518 -0.011518811274821799 0 0.47694380167313688 -0.021931234772157152 0 0.46492758559899883 -0.024226752462468741 0 0.48505468083070208 -0.01277483967160328 0 0.47694380167313688 -0.021931234772157152 0 0.48688500792242029 -0.026205631425283961 0 0.47694380167313688 -0.021931234772157152 0 0.48688500792242029 -0.026205631425283961 0 0.47305991866478808 -0.034930139026607993 0 0.5 -0.0088891294110001184 0 0.48505468083070208 -0.01277483967160328 0 0.48688500792242029 -0.026205631425283961 0 0.5 -0.0088891294110001184 0 0.48688500792242029 -0.026205631425283961 0 0.49999999999999972 -0.03580029471080038 0 0.49999999999999972 -0.03580029471080038 0 0.4844677052012758 -0.041115375932724449 0 0.48707847968762552 -0.058302588512068529 0 0.48688500792242029 -0.026205631425283961 0 0.49999999999999972 -0.03580029471080038 0 0.4844677052012758 -0.041115375932724449 0 0.49999999999999972 -0.03580029471080038 0 0.5 -0.060073709325327462 0 0.48707847968762552 -0.058302588512068529 0 0.49999999999999972 -0.03580029471080038 0 0.48707847968762552 -0.058302588512068529 0 0.5 -0.060073709325327462 0 0.48707847968762552 -0.058302588512068529 0 0.49236913474813182 -0.068649892725809916 0 0.4844677052012758 -0.041115375932724449 0 0.48707847968762552 -0.058302588512068529 0 0.47531511973154522 -0.05033822598886141 0 0.48707847968762552 -0.058302588512068529 0 0.47537872358826411 -0.059122466767976833 0 0.47377802023268389 -0.06731666877537254 0 0.48707847968762552 -0.058302588512068529 0 0.47531511973154522 -0.05033822598886141 0 0.47537872358826411 -0.059122466767976833 0 0.47531511973154522 -0.05033822598886141 0 0.47537872358826411 -0.059122466767976833 0 0.46534327470120168 -0.060532383795604848 0 0.47537872358826411 -0.059122466767976833 0 0.46534327470120168 -0.060532383795604848 0 0.47377802023268389 -0.06731666877537254 0 0.48688500792242029 -0.026205631425283961 0 0.4844677052012758 -0.041115375932724449 0 0.47305991866478808 -0.034930139026607993 0 0.4844677052012758 -0.041115375932724449 0 0.47531511973154522 -0.05033822598886141 0 0.47305991866478808 -0.034930139026607993 0 0.47531511973154522 -0.05033822598886141 0 0.47305991866478808 -0.034930139026607993 0 0.46361598864710191 -0.045857822668814399 0 0.47305991866478808 -0.034930139026607993 0 0.46361598864710191 -0.045857822668814399 0 0.46039230914702711 -0.035558182066368758 0 0.47305991866478808 -0.034930139026607993 0 0.46039230914702711 -0.035558182066368758 0 0.46492758559899883 -0.024226752462468741 0 0.46361598864710191 -0.045857822668814399 0 0.45479803959822079 -0.043088431174828169 0 0.46039230914702711 -0.035558182066368758 0 0.45479803959822079 -0.043088431174828169 0 0.46039230914702711 -0.035558182066368758 0 0.44741446571078058 -0.031168047975410281 0 0.47531511973154522 -0.05033822598886141 0 0.46361598864710191 -0.045857822668814399 0 0.46534327470120168 -0.060532383795604848 0 0.46361598864710191 -0.045857822668814399 0 0.46534327470120168 -0.060532383795604848 0 0.45587467719795699 -0.052591978345609081 0 0.46361598864710191 -0.045857822668814399 0 0.45479803959822079 -0.043088431174828169 0 0.45587467719795699 -0.052591978345609081 0 0.46534327470120168 -0.060532383795604848 0 0.45587467719795699 -0.052591978345609081 0 0.45311881130135162 -0.061154264698498183 0 0.45311881130135162 -0.061154264698498183 0 0.44004092671985762 -0.05714704712176237 0 0.44631545298724229 -0.066673492110515778 0 0.45311881130135162 -0.061154264698498183 0 0.44723621396522328 -0.049999173448461581 0 0.44004092671985762 -0.05714704712176237 0 0.45479803959822079 -0.043088431174828169 0 0.45587467719795699 -0.052591978345609081 0 0.44723621396522328 -0.049999173448461581 0 0.45587467719795699 -0.052591978345609081 0 0.45311881130135162 -0.061154264698498183 0 0.44723621396522328 -0.049999173448461581 0 0.44723621396522328 -0.049999173448461581 0 0.44004092671985762 -0.05714704712176237 0 0.44004092671985762 -0.05714704712176237 0 0.44741446571078058 -0.031168047975410281 0 0.44741446571078058 -0.031168047975410281 0 0.43321639670759482 -0.030224516926975691 0 0.43694968168863818 -0.050890898134933443 0 0.44004092671985762 -0.05714704712176237 0 0.44741446571078058 -0.031168047975410281 0 0.43694968168863818 -0.050890898134933443 0 0.45479803959822079 -0.043088431174828169 0 0.44723621396522328 -0.049999173448461581 0 0.44741446571078058 -0.031168047975410281 0 0.44723621396522328 -0.049999173448461581 0 0.44004092671985762 -0.05714704712176237 0 0.44741446571078058 -0.031168047975410281 0 0.44741446571078058 -0.031168047975410281 0 0.43694968168863818 -0.050890898134933443 0 0.44741446571078058 -0.031168047975410281 0 0.44893130392265801 -0.025823811149644799 0 0.43959064703757 -0.021764634686686529 0 0.44741446571078058 -0.031168047975410281 0 0.43959064703757 -0.021764634686686529 0 0.43321639670759482 -0.030224516926975691 0 0.44741446571078058 -0.031168047975410281 0 0.45777182535570238 -0.01164765922272624 0 0.44741446571078058 -0.031168047975410281 0 0.44893130392265801 -0.025823811149644799 0 0.45777182535570238 -0.01164765922272624 0 0.44741446571078058 -0.031168047975410281 0 0.44893130392265801 -0.025823811149644799 0 0.44893130392265801 -0.025823811149644799 0 0.44548456609600579 -0.013998445363968199 0 0.45777182535570238 -0.01164765922272624 0 0.44893130392265801 -0.025823811149644799 0 0.43959064703757 -0.021764634686686529 0 0.44548456609600579 -0.013998445363968199 0 0.44667333756572242 -0.0026397700367725169 0 0.44548456609600579 -0.013998445363968199 0 0.43386711193933192 -0.0080323110652625804 0 0.45471793344451528 0.0046277864098249631 0 0.44667333756572242 -0.0026397700367725169 0 0.45777182535570238 -0.01164765922272624 0 0.43959064703757 -0.021764634686686529 0 0.44548456609600579 -0.013998445363968199 0 0.43386711193933192 -0.0080323110652625804 0 0.4367476754283498 0.0044171083123250039 0 0.44667333756572242 -0.0026397700367725169 0 0.43386711193933192 -0.0080323110652625804 0 0.44667333756572242 -0.0026397700367725169 0 0.44548456609600579 -0.013998445363968199 0 0.45777182535570238 -0.01164765922272624 0 0.46812918500062589 0.0078727295299568789 0 0.47479181534877518 -0.011518811274821799 0 0.45777182535570238 -0.01164765922272624 0 0.46812918500062589 0.0078727295299568789 0 0.45777182535570238 -0.01164765922272624 0 0.47479181534877518 -0.011518811274821799 0 0.45777182535570238 -0.01164765922272624 0 0.46492758559899883 -0.024226752462468741 0 0.44741446571078058 -0.031168047975410281 0 0.45777182535570238 -0.01164765922272624 0 0.46492758559899883 -0.024226752462468741 0 0.46039230914702711 -0.035558182066368758 0 0.44741446571078058 -0.031168047975410281 0 0.46492758559899883 -0.024226752462468741 0 0.47653335145070691 -0.12429085624092211 0 0.48174228177642431 -0.11516476929486 0 0.49439980166231801 -0.1164205408849641 0 0.47653335145070691 -0.12429085624092211 0 0.48174228177642431 -0.11516476929486 0 0.46741729153400502 -0.1172799937326168 0 0.48174228177642431 -0.11516476929486 0 0.47639609577500308 -0.1071856635816945 0 0.46741729153400502 -0.1172799937326168 0 0.48174228177642431 -0.11516476929486 0 0.48789995832194349 -0.11116555520302859 0 0.47639609577500308 -0.1071856635816945 0 0.49432867113496909 -0.1130997122871034 0 0.5 -0.10862053855438179 0 0.49999999999999989 -0.13289395316890901 0 0.49439980166231801 -0.1164205408849641 0 0.49432867113496909 -0.1130997122871034 0 0.49999999999999989 -0.13289395316890901 0 0.49432867113496909 -0.1130997122871034 0 0.49999999999999989 -0.13289395316890901 0 0.49439980166231801 -0.1164205408849641 0 0.49432867113496909 -0.1130997122871034 0 0.48789995832194349 -0.11116555520302859 0 0.49432867113496909 -0.1130997122871034 0 0.48789995832194349 -0.11116555520302859 0 0.48596022540839601 -0.10453944430038099 0 0.48174228177642431 -0.11516476929486 0 0.49439980166231801 -0.1164205408849641 0 0.48789995832194349 -0.11116555520302859 0 0.5 -0.10862053855438179 0 0.48865734226993851 -0.093305471405297685 0 0.5 -0.084347123939854551 0 0.49432867113496909 -0.1130997122871034 0 0.5 -0.10862053855438179 0 0.48865734226993851 -0.093305471405297685 0 0.49432867113496909 -0.1130997122871034 0 0.48865734226993851 -0.093305471405297685 0 0.49432867113496909 -0.1130997122871034 0 0.48596022540839601 -0.10453944430038099 0 0.48865734226993851 -0.093305471405297685 0 0.48596022540839601 -0.10453944430038099 0 0.47971781770278438 -0.098395513898847181 0 0.48865734226993851 -0.093305471405297685 0 0.47971781770278438 -0.098395513898847181 0 0.47792768270375652 -0.089623133941451993 0 0.48865734226993851 -0.093305471405297685 0 0.48789995832194349 -0.11116555520302859 0 0.48596022540839601 -0.10453944430038099 0 0.47639609577500308 -0.1071856635816945 0 0.48596022540839601 -0.10453944430038099 0 0.47971781770278438 -0.098395513898847181 0 0.47639609577500308 -0.1071856635816945 0 0.47639609577500308 -0.1071856635816945 0 0.46964774235682771 -0.097323856265410708 0 0.4614850108767834 -0.1063878331767024 0 0.47971781770278438 -0.098395513898847181 0 0.46964774235682771 -0.097323856265410708 0 0.47792768270375652 -0.089623133941451993 0 0.47971781770278438 -0.098395513898847181 0 0.47639609577500308 -0.1071856635816945 0 0.46964774235682771 -0.097323856265410708 0 0.47792768270375652 -0.089623133941451993 0 0.48865734226993851 -0.093305471405297685 0 0.48298601340490788 -0.073511230523491983 0 0.47415695937525149 -0.080804882313336893 0 0.47792768270375652 -0.089623133941451993 0 0.48298601340490788 -0.073511230523491983 0 0.46964774235682771 -0.097323856265410708 0 0.47792768270375652 -0.089623133941451993 0 0.46487971163530578 -0.086520427346941292 0 0.47415695937525149 -0.080804882313336893 0 0.47792768270375652 -0.089623133941451993 0 0.46487971163530578 -0.086520427346941292 0 0.48865734226993851 -0.093305471405297685 0 0.48298601340490788 -0.073511230523491983 0 0.48865734226993851 -0.093305471405297685 0 0.49179582462410287 -0.078520101778215418 0 0.48298601340490788 -0.073511230523491983 0 0.48865734226993851 -0.093305471405297685 0 0.5 -0.084347123939854551 0 0.49179582462410287 -0.078520101778215418 0 0.49179582462410287 -0.078520101778215418 0 0.49236913474813182 -0.068649892725809916 0 0.48298601340490788 -0.073511230523491983 0 0.5 -0.060073709325327462 0 0.5 -0.084347123939854551 0 0.49236913474813182 -0.068649892725809916 0 0.5 -0.084347123939854551 0 0.49179582462410287 -0.078520101778215418 0 0.49236913474813182 -0.068649892725809916 0 0.48707847968762552 -0.058302588512068529 0 0.49236913474813182 -0.068649892725809916 0 0.48298601340490788 -0.073511230523491983 0 0.48707847968762552 -0.058302588512068529 0 0.47415695937525149 -0.080804882313336893 0 0.48298601340490788 -0.073511230523491983 0 0.48707847968762552 -0.058302588512068529 0 0.47415695937525149 -0.080804882313336893 0 0.47377802023268389 -0.06731666877537254 0 0.48707847968762552 -0.058302588512068529 0 0.47415695937525149 -0.080804882313336893 0 0.47415695937525149 -0.080804882313336893 0 0.47377802023268389 -0.06731666877537254 0 0.46353226738537961 -0.07363319149972769 0 0.46534327470120168 -0.060532383795604848 0 0.47377802023268389 -0.06731666877537254 0 0.46353226738537961 -0.07363319149972769 0 0.46534327470120168 -0.060532383795604848 0 0.46353226738537961 -0.07363319149972769 0 0.45833897748969971 -0.067101124508855067 0 0.46353226738537961 -0.07363319149972769 0 0.45833897748969971 -0.067101124508855067 0 0.45136155657086591 -0.073084658041589534 0 0.46353226738537961 -0.07363319149972769 0 0.45136155657086591 -0.073084658041589534 0 0.45516310411147382 -0.082486606393866235 0 0.46534327470120168 -0.060532383795604848 0 0.45311881130135162 -0.061154264698498183 0 0.45833897748969971 -0.067101124508855067 0 0.45311881130135162 -0.061154264698498183 0 0.45833897748969971 -0.067101124508855067 0 0.45136155657086591 -0.073084658041589534 0 0.45311881130135162 -0.061154264698498183 0 0.44631545298724229 -0.066673492110515778 0 0.45136155657086591 -0.073084658041589534 0 0.44004092671985762 -0.05714704712176237 0 0.44255416634775202 -0.073590217559866278 0 0.43302369902409438 -0.081870663900948312 0 0.44004092671985762 -0.05714704712176237 0 0.44631545298724229 -0.066673492110515778 0 0.44255416634775202 -0.073590217559866278 0 0.44255416634775202 -0.073590217559866278 0 0.45136155657086591 -0.073084658041589534 0 0.44565649441841532 -0.085739664583822164 0 0.44631545298724229 -0.066673492110515778 0 0.44255416634775202 -0.073590217559866278 0 0.45136155657086591 -0.073084658041589534 0 0.45136155657086591 -0.073084658041589534 0 0.44565649441841532 -0.085739664583822164 0 0.45516310411147382 -0.082486606393866235 0 0.44565649441841532 -0.085739664583822164 0 0.44123493879923409 -0.097590691699700499 0 0.43302369902409438 -0.081870663900948312 0 0.44255416634775202 -0.073590217559866278 0 0.44565649441841532 -0.085739664583822164 0 0.43302369902409438 -0.081870663900948312 0 0.44565649441841532 -0.085739664583822164 0 0.45453684803103461 -0.094975734371091344 0 0.44123493879923409 -0.097590691699700499 0 0.44565649441841532 -0.085739664583822164 0 0.45516310411147382 -0.082486606393866235 0 0.45453684803103461 -0.094975734371091344 0 0.45516310411147382 -0.082486606393866235 0 0.46487971163530578 -0.086520427346941292 0 0.45453684803103461 -0.094975734371091344 0 0.47415695937525149 -0.080804882313336893 0 0.46353226738537961 -0.07363319149972769 0 0.46487971163530578 -0.086520427346941292 0 0.46353226738537961 -0.07363319149972769 0 0.45516310411147382 -0.082486606393866235 0 0.46487971163530578 -0.086520427346941292 0 0.46964774235682771 -0.097323856265410708 0 0.46487971163530578 -0.086520427346941292 0 0.45453684803103461 -0.094975734371091344 0 0.46964774235682771 -0.097323856265410708 0 0.4614850108767834 -0.1063878331767024 0 0.45453684803103461 -0.094975734371091344 0 0.4614850108767834 -0.1063878331767024 0 0.45453684803103461 -0.094975734371091344 0 0.44924971518774259 -0.1057456563717829 0 0.45453684803103461 -0.094975734371091344 0 0.44123493879923409 -0.097590691699700499 0 0.44924971518774259 -0.1057456563717829 0 0.44123493879923409 -0.097590691699700499 0 0.44924971518774259 -0.1057456563717829 0 0.43991163785031229 -0.1104320091089467 0 0.43991163785031229 -0.1104320091089467 0 0.44908014038134858 -0.11934201350247341 0 0.43336998754557932 -0.12159295788546159 0 0.44924971518774259 -0.1057456563717829 0 0.43991163785031229 -0.1104320091089467 0 0.44908014038134858 -0.11934201350247341 0 0.44908014038134858 -0.11934201350247341 0 0.46741729153400502 -0.1172799937326168 0 0.46063053461824499 -0.13148793758122421 0 0.47653335145070691 -0.12429085624092211 0 0.46741729153400502 -0.1172799937326168 0 0.46063053461824499 -0.13148793758122421 0 0.4614850108767834 -0.1063878331767024 0 0.44908014038134858 -0.11934201350247341 0 0.46741729153400502 -0.1172799937326168 0 0.4614850108767834 -0.1063878331767024 0 0.44924971518774259 -0.1057456563717829 0 0.44908014038134858 -0.11934201350247341 0 0.47639609577500308 -0.1071856635816945 0 0.4614850108767834 -0.1063878331767024 0 0.46741729153400502 -0.1172799937326168 0 0.40743141707026292 -0.124186865533741 0 0.41481310520166309 -0.1098488106712676 0 0.41898924363256862 -0.1313178974593209 0 0.41481310520166309 -0.1098488106712676 0 0.42600647132833153 -0.1065942806801346 0 0.41898924363256862 -0.1313178974593209 0 0.40743141707026292 -0.124186865533741 0 0.41481310520166309 -0.1098488106712676 0 0.40370056055159897 -0.11355510914341101 0 0.43336998754557932 -0.12159295788546159 0 0.42600647132833153 -0.1065942806801346 0 0.41898924363256862 -0.1313178974593209 0 0.42600647132833153 -0.1065942806801346 0 0.41898924363256862 -0.1313178974593209 0 0.43991163785031229 -0.1104320091089467 0 0.43336998754557932 -0.12159295788546159 0 0.42600647132833153 -0.1065942806801346 0 0.44123493879923409 -0.097590691699700499 0 0.42600647132833153 -0.1065942806801346 0 0.43302369902409438 -0.081870663900948312 0 0.42600647132833153 -0.1065942806801346 0 0.41890154225967458 -0.097391502694109316 0 0.43302369902409438 -0.081870663900948312 0 0.42600647132833153 -0.1065942806801346 0 0.43302369902409438 -0.081870663900948312 0 0.44123493879923409 -0.097590691699700499 0 0.43991163785031229 -0.1104320091089467 0 0.42600647132833153 -0.1065942806801346 0 0.41258042825912972 -0.09681933133266396 0 0.40370056055159897 -0.11355510914341101 0 0.41481310520166309 -0.1098488106712676 0 0.41258042825912972 -0.09681933133266396 0 0.40370056055159897 -0.11355510914341101 0 0.41481310520166309 -0.1098488106712676 0 0.41890154225967458 -0.097391502694109316 0 0.41258042825912972 -0.09681933133266396 0 0.41890154225967458 -0.097391502694109316 0 0.41258042825912972 -0.09681933133266396 0 0.41481310520166309 -0.1098488106712676 0 0.42600647132833153 -0.1065942806801346 0 0.41890154225967458 -0.097391502694109316 0 0.41258042825912972 -0.09681933133266396 0 0.40114725366971488 -0.095784429087599182 0 0.41890154225967458 -0.097391502694109316 0 0.41258042825912972 -0.09681933133266396 0 0.42648489766649572 -0.07061374829445663 0 0.41258042825912972 -0.09681933133266396 0 0.41381607566810508 -0.083199088691027684 0 0.42648489766649572 -0.07061374829445663 0 0.41258042825912972 -0.09681933133266396 0 0.42648489766649572 -0.07061374829445663 0 0.41381607566810508 -0.083199088691027684 0 0.4042940239314276 -0.083944258843526298 0 0.40114725366971488 -0.095784429087599182 0 0.41258042825912972 -0.09681933133266396 0 0.41381607566810508 -0.083199088691027684 0 0.40114725366971488 -0.095784429087599182 0 0.41381607566810508 -0.083199088691027684 0 0.40114725366971488 -0.095784429087599182 0 0.41381607566810508 -0.083199088691027684 0 0.40660008278454562 -0.076115913220961007 0 0.4042940239314276 -0.083944258843526298 0 0.41890154225967458 -0.097391502694109316 0 0.43302369902409438 -0.081870663900948312 0 0.42648489766649572 -0.07061374829445663 0 0.44004092671985762 -0.05714704712176237 0 0.43302369902409438 -0.081870663900948312 0 0.44004092671985762 -0.05714704712176237 0 0.43302369902409438 -0.081870663900948312 0 0.42648489766649572 -0.07061374829445663 0 0.44004092671985762 -0.05714704712176237 0 0.42648489766649572 -0.07061374829445663 0 0.40660008278454562 -0.076115913220961007 0 0.41392467613471801 -0.069560491316642561 0 0.40366542742723172 -0.059387927489029768 0 0.42648489766649572 -0.07061374829445663 0 0.41392467613471801 -0.069560491316642561 0 0.42063538174169701 -0.057634502500857901 0 0.41381607566810508 -0.083199088691027684 0 0.42648489766649572 -0.07061374829445663 0 0.41392467613471801 -0.069560491316642561 0 0.41381607566810508 -0.083199088691027684 0 0.42648489766649572 -0.07061374829445663 0 0.41381607566810508 -0.083199088691027684 0 0.40660008278454562 -0.076115913220961007 0 0.41392467613471801 -0.069560491316642561 0 0.39677344842215762 -0.084831362985996986 0 0.40366542742723172 -0.059387927489029768 0 0.38892735569855458 -0.071428653584605803 0 0.40366542742723172 -0.059387927489029768 0 0.38377401975295289 -0.058480097150683003 0 0.38892735569855458 -0.071428653584605803 0 0.39677344842215762 -0.084831362985996986 0 0.40366542742723172 -0.059387927489029768 0 0.40660008278454562 -0.076115913220961007 0 0.39677344842215762 -0.084831362985996986 0 0.40366542742723172 -0.059387927489029768 0 0.37564745168350028 -0.07256940500574105 0 0.38892735569855458 -0.071428653584605803 0 0.38377401975295289 -0.058480097150683003 0 0.37564745168350028 -0.07256940500574105 0 0.38377401975295289 -0.058480097150683003 0 0.36864952290635328 -0.06061279701218833 0 0.37564745168350028 -0.07256940500574105 0 0.38892735569855458 -0.071428653584605803 0 0.38477643120693128 -0.081874475291578416 0 0.38892735569855458 -0.071428653584605803 0 0.38477643120693128 -0.081874475291578416 0 0.39677344842215762 -0.084831362985996986 0 0.37564745168350028 -0.07256940500574105 0 0.38477643120693128 -0.081874475291578416 0 0.37416301086466019 -0.084488518593128281 0 0.38477643120693128 -0.081874475291578416 0 0.38255953491292799 -0.094101915475865466 0 0.37416301086466019 -0.084488518593128281 0 0.39677344842215762 -0.084831362985996986 0 0.38255953491292799 -0.094101915475865466 0 0.38477643120693128 -0.081874475291578416 0 0.39677344842215762 -0.084831362985996986 0 0.38255953491292799 -0.094101915475865466 0 0.39677344842215762 -0.084831362985996986 0 0.4000173451881418 -0.08952019153623092 0 0.39398222024802082 -0.095135868259976719 0 0.39677344842215762 -0.084831362985996986 0 0.39398222024802082 -0.095135868259976719 0 0.38255953491292799 -0.094101915475865466 0 0.39677344842215762 -0.084831362985996986 0 0.39398222024802082 -0.095135868259976719 0 0.4000173451881418 -0.08952019153623092 0 0.40114725366971488 -0.095784429087599182 0 0.39398222024802082 -0.095135868259976719 0 0.39677344842215762 -0.084831362985996986 0 0.39959625707574309 -0.085695903282583183 0 0.4042940239314276 -0.083944258843526298 0 0.40660008278454562 -0.076115913220961007 0 0.39677344842215762 -0.084831362985996986 0 0.4042940239314276 -0.083944258843526298 0 0.4042940239314276 -0.083944258843526298 0 0.4000173451881418 -0.08952019153623092 0 0.40114725366971488 -0.095784429087599182 0 0.39677344842215762 -0.084831362985996986 0 0.39959625707574309 -0.085695903282583183 0 0.4000173451881418 -0.08952019153623092 0 0.39959625707574309 -0.085695903282583183 0 0.4042940239314276 -0.083944258843526298 0 0.4000173451881418 -0.08952019153623092 0 0.41258042825912972 -0.09681933133266396 0 0.40092873533046741 -0.10441515053274331 0 0.40370056055159897 -0.11355510914341101 0 0.41258042825912972 -0.09681933133266396 0 0.40114725366971488 -0.095784429087599182 0 0.40092873533046741 -0.10441515053274331 0 0.40092873533046741 -0.10441515053274331 0 0.3974077241751251 -0.1101098164936677 0 0.40370056055159897 -0.11355510914341101 0 0.40114725366971488 -0.095784429087599182 0 0.40092873533046741 -0.10441515053274331 0 0.39110400880121121 -0.10576149367752601 0 0.40092873533046741 -0.10441515053274331 0 0.39110400880121121 -0.10576149367752601 0 0.3974077241751251 -0.1101098164936677 0 0.39110400880121121 -0.10576149367752601 0 0.39398222024802082 -0.095135868259976719 0 0.38770181335995269 -0.098511369316914496 0 0.40114725366971488 -0.095784429087599182 0 0.39110400880121121 -0.10576149367752601 0 0.39398222024802082 -0.095135868259976719 0 0.40114725366971488 -0.095784429087599182 0 0.39110400880121121 -0.10576149367752601 0 0.39110400880121121 -0.10576149367752601 0 0.39398222024802082 -0.095135868259976719 0 0.40114725366971488 -0.095784429087599182 0 0.39398222024802082 -0.095135868259976719 0 0.38126039708302328 -0.097719849608258108 0 0.38485152153862218 -0.1045101091984698 0 0.38099084871604622 -0.12358288802424 0 0.39398222024802082 -0.095135868259976719 0 0.38255953491292799 -0.094101915475865466 0 0.39398222024802082 -0.095135868259976719 0 0.38770181335995269 -0.098511369316914496 0 0.38255953491292799 -0.094101915475865466 0 0.38126039708302328 -0.097719849608258108 0 0.37794662915294341 -0.1072835713945732 0 0.37805340755955691 -0.1161667966647305 0 0.38770181335995269 -0.098511369316914496 0 0.3844412672666031 -0.099882106220187825 0 0.38485152153862218 -0.1045101091984698 0 0.3844412672666031 -0.099882106220187825 0 0.38126039708302328 -0.097719849608258108 0 0.38485152153862218 -0.1045101091984698 0 0.38770181335995269 -0.098511369316914496 0 0.3844412672666031 -0.099882106220187825 0 0.38255953491292799 -0.094101915475865466 0 0.38255953491292799 -0.094101915475865466 0 0.38126039708302328 -0.097719849608258108 0 0.36728471270507329 -0.10406441039040069 0 0.3844412672666031 -0.099882106220187825 0 0.38255953491292799 -0.094101915475865466 0 0.38126039708302328 -0.097719849608258108 0 0.38126039708302328 -0.097719849608258108 0 0.37794662915294341 -0.1072835713945732 0 0.37645261806144448 -0.1046905476931399 0 0.37794662915294341 -0.1072835713945732 0 0.37509747467983501 -0.11165342048337849 0 0.37470231875839072 -0.10733920627910511 0 0.37794662915294341 -0.1072835713945732 0 0.37645261806144448 -0.1046905476931399 0 0.37470231875839072 -0.10733920627910511 0 0.38126039708302328 -0.097719849608258108 0 0.37645261806144448 -0.1046905476931399 0 0.37344832723863147 -0.10425286016468061 0 0.39110400880121121 -0.10576149367752601 0 0.38770181335995269 -0.098511369316914496 0 0.38485152153862218 -0.1045101091984698 0 0.39110400880121121 -0.10576149367752601 0 0.38485152153862218 -0.1045101091984698 0 0.38655162012296912 -0.1102838842471036 0 0.39110400880121121 -0.10576149367752601 0 0.38655162012296912 -0.1102838842471036 0 0.38126039708302328 -0.097719849608258108 0 0.38099084871604622 -0.12358288802424 0 0.38126039708302328 -0.097719849608258108 0 0.37805340755955691 -0.1161667966647305 0 0.38099084871604622 -0.12358288802424 0 0.38485152153862218 -0.1045101091984698 0 0.38655162012296912 -0.1102838842471036 0 0.38099084871604622 -0.12358288802424 0 0.39110400880121121 -0.10576149367752601 0 0.38613396114641441 -0.1241096469189331 0 0.39110400880121121 -0.10576149367752601 0 0.38613396114641441 -0.1241096469189331 0 0.3938975920172228 -0.11670751262099061 0 0.39110400880121121 -0.10576149367752601 0 0.38655162012296912 -0.1102838842471036 0 0.38613396114641441 -0.1241096469189331 0 0.37794662915294341 -0.1072835713945732 0 0.37805340755955691 -0.1161667966647305 0 0.37509747467983501 -0.11165342048337849 0 0.37805340755955691 -0.1161667966647305 0 0.37509747467983501 -0.11165342048337849 0 0.37212277994158272 -0.115950577809429 0 0.37805340755955691 -0.1161667966647305 0 0.38099084871604622 -0.12358288802424 0 0.373297658075465 -0.12312681369454399 0 0.38655162012296912 -0.1102838842471036 0 0.38099084871604622 -0.12358288802424 0 0.38613396114641441 -0.1241096469189331 0 0.38613396114641441 -0.1241096469189331 0 0.39226537828793379 -0.1229714364071476 0 0.3911989989712657 -0.12720080669893649 0 0.3938975920172228 -0.11670751262099061 0 0.40370056055159897 -0.11355510914341101 0 0.39713427764850429 -0.1269178815242378 0 0.39226537828793379 -0.1229714364071476 0 0.3938975920172228 -0.11670751262099061 0 0.39713427764850429 -0.1269178815242378 0 0.38613396114641441 -0.1241096469189331 0 0.39226537828793379 -0.1229714364071476 0 0.3938975920172228 -0.11670751262099061 0 0.3974077241751251 -0.1101098164936677 0 0.3938975920172228 -0.11670751262099061 0 0.40370056055159897 -0.11355510914341101 0 0.39110400880121121 -0.10576149367752601 0 0.3974077241751251 -0.1101098164936677 0 0.3938975920172228 -0.11670751262099061 0 0.40743141707026292 -0.124186865533741 0 0.40370056055159897 -0.11355510914341101 0 0.39713427764850429 -0.1269178815242378 0 0.40960155083713912 -0.025333510624147671 0 0.43321639670759482 -0.030224516926975691 0 0.40960155083713912 -0.025333510624147671 0 0.41586236275646948 -0.0080451436689564296 0 0.42642761385562111 -0.018680023394405779 0 0.40960155083713912 -0.025333510624147671 0 0.41586236275646948 -0.0080451436689564296 0 0.40012548213281768 -0.0096506892410577593 0 0.42297410953636749 0.0076815276236235786 0 0.41586236275646948 -0.0080451436689564296 0 0.43386711193933192 -0.0080323110652625804 0 0.41586236275646948 -0.0080451436689564296 0 0.43386711193933192 -0.0080323110652625804 0 0.42642761385562111 -0.018680023394405779 0 0.43959064703757 -0.021764634686686529 0 0.43386711193933192 -0.0080323110652625804 0 0.42642761385562111 -0.018680023394405779 0 0.40960155083713912 -0.025333510624147671 0 0.42642761385562111 -0.018680023394405779 0 0.43321639670759482 -0.030224516926975691 0 0.43959064703757 -0.021764634686686529 0 0.42642761385562111 -0.018680023394405779 0 0.43321639670759482 -0.030224516926975691 0 0.43321639670759482 -0.030224516926975691 0 0.43694968168863818 -0.050890898134933443 0 0.41755717616328758 -0.043757372615560737 0 0.42648489766649572 -0.07061374829445663 0 0.43694968168863818 -0.050890898134933443 0 0.42063538174169701 -0.057634502500857901 0 0.43694968168863818 -0.050890898134933443 0 0.42063538174169701 -0.057634502500857901 0 0.41755717616328758 -0.043757372615560737 0 0.44004092671985762 -0.05714704712176237 0 0.42648489766649572 -0.07061374829445663 0 0.43694968168863818 -0.050890898134933443 0 0.42648489766649572 -0.07061374829445663 0 0.43694968168863818 -0.050890898134933443 0 0.41392467613471801 -0.069560491316642561 0 0.42063538174169701 -0.057634502500857901 0 0.40366542742723172 -0.059387927489029768 0 0.42063538174169701 -0.057634502500857901 0 0.41755717616328758 -0.043757372615560737 0 0.40366542742723172 -0.059387927489029768 0 0.40960155083713912 -0.025333510624147671 0 0.43321639670759482 -0.030224516926975691 0 0.41755717616328758 -0.043757372615560737 0 0.40960155083713912 -0.025333510624147671 0 0.41755717616328758 -0.043757372615560737 0 0.39124885777754298 -0.040546420795919559 0 0.41755717616328758 -0.043757372615560737 0 0.39124885777754298 -0.040546420795919559 0 0.40366542742723172 -0.059387927489029768 0 0.39124885777754298 -0.040546420795919559 0 0.40366542742723172 -0.059387927489029768 0 0.38377401975295289 -0.058480097150683003 0 0.39124885777754298 -0.040546420795919559 0 0.38377401975295289 -0.058480097150683003 0 0.37002427397660381 -0.047582728708248777 0 0.39124885777754298 -0.040546420795919559 0 0.36703651842784718 -0.030784735033792959 0 0.37002427397660381 -0.047582728708248777 0 0.39124885777754298 -0.040546420795919559 0 0.38598670496668341 -0.020442504321319659 0 0.36703651842784718 -0.030784735033792959 0 0.40960155083713912 -0.025333510624147671 0 0.38598670496668341 -0.020442504321319659 0 0.40012548213281768 -0.0096506892410577593 0 0.40960155083713912 -0.025333510624147671 0 0.38598670496668341 -0.020442504321319659 0 0.40960155083713912 -0.025333510624147671 0 0.39124885777754298 -0.040546420795919559 0 0.38598670496668341 -0.020442504321319659 0 0.4027220407959507 0.0068609628241748342 0 0.38202126979674728 0.0016257403202125471 0 0.40012548213281768 -0.0096506892410577593 0 0.4027220407959507 0.0068609628241748342 0 0.41586236275646948 -0.0080451436689564296 0 0.40012548213281768 -0.0096506892410577593 0 0.38202126979674728 0.0016257403202125471 0 0.38598670496668341 -0.020442504321319659 0 0.36237185909622771 -0.01555149801849165 0 0.38202126979674728 0.0016257403202125471 0 0.38598670496668341 -0.020442504321319659 0 0.40012548213281768 -0.0096506892410577593 0 0.35962780628892171 0.0029283534002974079 0 0.38202126979674728 0.0016257403202125471 0 0.36237185909622771 -0.01555149801849165 0 0.38598670496668341 -0.020442504321319659 0 0.36237185909622771 -0.01555149801849165 0 0.36703651842784718 -0.030784735033792959 0 0.38598670496668341 -0.020442504321319659 0 0.36237185909622771 -0.01555149801849165 0 0.36237185909622771 -0.01555149801849165 0 0.34720221218489011 -0.02933954601418667 0 0.33875701322577201 -0.010660491715663641 0 0.36237185909622771 -0.01555149801849165 0 0.36703651842784718 -0.030784735033792959 0 0.34720221218489011 -0.02933954601418667 0 0.35962780628892171 0.0029283534002974079 0 0.36237185909622771 -0.01555149801849165 0 0.33875701322577201 -0.010660491715663641 0 0.36237185909622771 -0.01555149801849165 0 0.33875701322577201 -0.010660491715663641 0 0.34169542231774119 0.0081689964314487929 0 0.33875701322577201 -0.010660491715663641 0 0.31668423666249312 -0.0072496132518260273 0 0.34720221218489011 -0.02933954601418667 0 0.33875701322577201 -0.010660491715663641 0 0.33045661019772049 -0.031801588981780128 0 0.33875701322577201 -0.010660491715663641 0 0.31668423666249312 -0.0072496132518260273 0 0.33045661019772049 -0.031801588981780128 0 0.31668423666249312 -0.0072496132518260273 0 0.31276848754004988 -0.033759403380116397 0 0.33045661019772049 -0.031801588981780128 0 0.33729324338623262 -0.047285041055936949 0 0.31770645329974462 -0.069670472774840939 0 0.3191980520368064 -0.049431502413126202 0 0.33729324338623262 -0.047285041055936949 0 0.31770645329974462 -0.069670472774840939 0 0.3191980520368064 -0.049431502413126202 0 0.31276848754004988 -0.033759403380116397 0 0.33045661019772049 -0.031801588981780128 0 0.3191980520368064 -0.049431502413126202 0 0.33045661019772049 -0.031801588981780128 0 0.33729324338623262 -0.047285041055936949 0 0.34720221218489011 -0.02933954601418667 0 0.33045661019772049 -0.031801588981780128 0 0.33729324338623262 -0.047285041055936949 0 0.33729324338623262 -0.047285041055936949 0 0.33694541980099152 -0.062361008659909831 0 0.31770645329974462 -0.069670472774840939 0 0.33729324338623262 -0.047285041055936949 0 0.33694541980099152 -0.062361008659909831 0 0.35246802716580528 -0.055809888992548178 0 0.35246802716580528 -0.055809888992548178 0 0.35469563913384178 -0.042033838062784483 0 0.37002427397660381 -0.047582728708248777 0 0.33729324338623262 -0.047285041055936949 0 0.35246802716580528 -0.055809888992548178 0 0.35469563913384178 -0.042033838062784483 0 0.36703651842784718 -0.030784735033792959 0 0.34720221218489011 -0.02933954601418667 0 0.35469563913384178 -0.042033838062784483 0 0.34720221218489011 -0.02933954601418667 0 0.33729324338623262 -0.047285041055936949 0 0.35469563913384178 -0.042033838062784483 0 0.36703651842784718 -0.030784735033792959 0 0.35469563913384178 -0.042033838062784483 0 0.37002427397660381 -0.047582728708248777 0 0.35246802716580528 -0.055809888992548178 0 0.36864952290635328 -0.06061279701218833 0 0.35969142958967881 -0.069933046084275044 0 0.35246802716580528 -0.055809888992548178 0 0.37002427397660381 -0.047582728708248777 0 0.36864952290635328 -0.06061279701218833 0 0.38377401975295289 -0.058480097150683003 0 0.37002427397660381 -0.047582728708248777 0 0.36864952290635328 -0.06061279701218833 0 0.37564745168350028 -0.07256940500574105 0 0.36864952290635328 -0.06061279701218833 0 0.35969142958967881 -0.069933046084275044 0 0.37564745168350028 -0.07256940500574105 0 0.35969142958967881 -0.069933046084275044 0 0.36231343652170123 -0.081337420547268544 0 0.38255953491292799 -0.094101915475865466 0 0.36551819999824031 -0.09255937664518743 0 0.37564745168350028 -0.07256940500574105 0 0.37416301086466019 -0.084488518593128281 0 0.36231343652170123 -0.081337420547268544 0 0.38255953491292799 -0.094101915475865466 0 0.37416301086466019 -0.084488518593128281 0 0.36551819999824031 -0.09255937664518743 0 0.37416301086466019 -0.084488518593128281 0 0.36551819999824031 -0.09255937664518743 0 0.36231343652170123 -0.081337420547268544 0 0.36551819999824031 -0.09255937664518743 0 0.34847686508355258 -0.091016837814508006 0 0.36231343652170123 -0.081337420547268544 0 0.34847686508355258 -0.091016837814508006 0 0.35099107039217892 -0.079911414393002603 0 0.36551819999824031 -0.09255937664518743 0 0.36231343652170123 -0.081337420547268544 0 0.34847686508355258 -0.091016837814508006 0 0.34847686508355258 -0.091016837814508006 0 0.34124938455875281 -0.086002916041754307 0 0.34847686508355258 -0.091016837814508006 0 0.34205635902839948 -0.09043566973394071 0 0.34124938455875281 -0.086002916041754307 0 0.34847686508355258 -0.091016837814508006 0 0.34205635902839948 -0.09043566973394071 0 0.35099107039217892 -0.079911414393002603 0 0.34826906630148158 -0.07080365483429775 0 0.34124938455875281 -0.086002916041754307 0 0.34847686508355258 -0.091016837814508006 0 0.35099107039217892 -0.079911414393002603 0 0.34124938455875281 -0.086002916041754307 0 0.33694541980099152 -0.062361008659909831 0 0.35246802716580528 -0.055809888992548178 0 0.34826906630148158 -0.07080365483429775 0 0.35246802716580528 -0.055809888992548178 0 0.35969142958967881 -0.069933046084275044 0 0.34826906630148158 -0.07080365483429775 0 0.35969142958967881 -0.069933046084275044 0 0.36231343652170123 -0.081337420547268544 0 0.35099107039217892 -0.079911414393002603 0 0.35969142958967881 -0.069933046084275044 0 0.35099107039217892 -0.079911414393002603 0 0.34826906630148158 -0.07080365483429775 0 0.36505687826152178 -0.1123159032433703 0 0.36728471270507329 -0.10406441039040069 0 0.34695168433892759 -0.1173259520920481 0 0.3637568385380851 -0.12162095742681819 0 0.373297658075465 -0.12312681369454399 0 0.37212277994158272 -0.115950577809429 0 0.3637568385380851 -0.12162095742681819 0 0.373297658075465 -0.12312681369454399 0 0.36827101832246367 -0.12943955730339521 0 0.37805340755955691 -0.1161667966647305 0 0.373297658075465 -0.12312681369454399 0 0.37212277994158272 -0.115950577809429 0 0.37509747467983501 -0.11165342048337849 0 0.37165338025414207 -0.10997616878653051 0 0.37470231875839072 -0.10733920627910511 0 0.37509747467983501 -0.11165342048337849 0 0.37212277994158272 -0.115950577809429 0 0.37165338025414207 -0.10997616878653051 0 0.37212277994158272 -0.115950577809429 0 0.37165338025414207 -0.10997616878653051 0 0.36505687826152178 -0.1123159032433703 0 0.3637568385380851 -0.12162095742681819 0 0.37212277994158272 -0.115950577809429 0 0.36505687826152178 -0.1123159032433703 0 0.36551819999824031 -0.09255937664518743 0 0.34847686508355258 -0.091016837814508006 0 0.36728471270507329 -0.10406441039040069 0 0.38255953491292799 -0.094101915475865466 0 0.36551819999824031 -0.09255937664518743 0 0.36728471270507329 -0.10406441039040069 0 0.38126039708302328 -0.097719849608258108 0 0.37344832723863147 -0.10425286016468061 0 0.36728471270507329 -0.10406441039040069 0 0.37165338025414207 -0.10997616878653051 0 0.37219615891115809 -0.1066524177996877 0 0.36728471270507329 -0.10406441039040069 0 0.37165338025414207 -0.10997616878653051 0 0.36505687826152178 -0.1123159032433703 0 0.36728471270507329 -0.10406441039040069 0 0.37165338025414207 -0.10997616878653051 0 0.37219615891115809 -0.1066524177996877 0 0.37470231875839072 -0.10733920627910511 0 0.37219615891115809 -0.1066524177996877 0 0.37470231875839072 -0.10733920627910511 0 0.37344832723863147 -0.10425286016468061 0 0.37645261806144448 -0.1046905476931399 0 0.37470231875839072 -0.10733920627910511 0 0.37344832723863147 -0.10425286016468061 0 0.37219615891115809 -0.1066524177996877 0 0.37344832723863147 -0.10425286016468061 0 0.36728471270507329 -0.10406441039040069 0 0.38255953491292799 -0.094101915475865466 0 0.36728471270507329 -0.10406441039040069 0 0.34695168433892759 -0.1173259520920481 0 0.34205635902839948 -0.09043566973394071 0 0.34847686508355258 -0.091016837814508006 0 0.36728471270507329 -0.10406441039040069 0 0.34695168433892759 -0.1173259520920481 0 0.34847686508355258 -0.091016837814508006 0 0.36728471270507329 -0.10406441039040069 0 0.34847686508355258 -0.091016837814508006 0 0.34695168433892759 -0.1173259520920481 0 0.34205635902839948 -0.09043566973394071 0 0.36728471270507329 -0.10406441039040069 0 0.34695168433892759 -0.1173259520920481 0 0.3637568385380851 -0.12162095742681819 0 0.36505687826152178 -0.1123159032433703 0 0.34695168433892759 -0.1173259520920481 0 0.3637568385380851 -0.12162095742681819 0 0.34695168433892759 -0.1173259520920481 0 0.36123880290971738 -0.13189295292447481 0 0.34695168433892759 -0.1173259520920481 0 0.32896692945687278 -0.11393423777835231 0 0.33803322593400448 -0.10505880710473001 0 0.34695168433892759 -0.1173259520920481 0 0.32896692945687278 -0.11393423777835231 0 0.32999202081958062 -0.12838732873293521 0 0.34695168433892759 -0.1173259520920481 0 0.32999202081958062 -0.12838732873293521 0 0.34695168433892759 -0.1173259520920481 0 0.33803322593400448 -0.10505880710473001 0 0.34205635902839948 -0.09043566973394071 0 0.32896692945687278 -0.11393423777835231 0 0.33803322593400448 -0.10505880710473001 0 0.32764850269118528 -0.1005058540606034 0 0.33803322593400448 -0.10505880710473001 0 0.3350770729886583 -0.096308201571264573 0 0.34205635902839948 -0.09043566973394071 0 0.33803322593400448 -0.10505880710473001 0 0.3350770729886583 -0.096308201571264573 0 0.32764850269118528 -0.1005058540606034 0 0.3350770729886583 -0.096308201571264573 0 0.32764850269118528 -0.1005058540606034 0 0.32952502069433809 -0.08900182563453686 0 0.3173523238320563 -0.10563062679348791 0 0.31847140282444297 -0.090200087513400209 0 0.30185711268008247 -0.087784432778737306 0 0.32764850269118528 -0.1005058540606034 0 0.3173523238320563 -0.10563062679348791 0 0.31847140282444297 -0.090200087513400209 0 0.32896692945687278 -0.11393423777835231 0 0.32764850269118528 -0.1005058540606034 0 0.3173523238320563 -0.10563062679348791 0 0.32896692945687278 -0.11393423777835231 0 0.3173523238320563 -0.10563062679348791 0 0.31489922947947352 -0.12102179814776221 0 0.32896692945687278 -0.11393423777835231 0 0.31489922947947352 -0.12102179814776221 0 0.32999202081958062 -0.12838732873293521 0 0.33694541980099152 -0.062361008659909831 0 0.34826906630148158 -0.07080365483429775 0 0.34124938455875281 -0.086002916041754307 0 0.34124938455875281 -0.086002916041754307 0 0.31770645329974462 -0.069670472774840939 0 0.33694541980099152 -0.062361008659909831 0 0.34124938455875281 -0.086002916041754307 0 0.31770645329974462 -0.069670472774840939 0 0.33694541980099152 -0.062361008659909831 0 0.34124938455875281 -0.086002916041754307 0 0.34124938455875281 -0.086002916041754307 0 0.32952502069433809 -0.08900182563453686 0 0.31770645329974462 -0.069670472774840939 0 0.34205635902839948 -0.09043566973394071 0 0.34124938455875281 -0.086002916041754307 0 0.33670126864742322 -0.089950940404003005 0 0.34205635902839948 -0.09043566973394071 0 0.34124938455875281 -0.086002916041754307 0 0.3350770729886583 -0.096308201571264573 0 0.34205635902839948 -0.09043566973394071 0 0.33670126864742322 -0.089950940404003005 0 0.34205635902839948 -0.09043566973394071 0 0.33670126864742322 -0.089950940404003005 0 0.34124938455875281 -0.086002916041754307 0 0.33670126864742322 -0.089950940404003005 0 0.32952502069433809 -0.08900182563453686 0 0.3350770729886583 -0.096308201571264573 0 0.33670126864742322 -0.089950940404003005 0 0.32952502069433809 -0.08900182563453686 0 0.32952502069433809 -0.08900182563453686 0 0.31847140282444297 -0.090200087513400209 0 0.31770645329974462 -0.069670472774840939 0 0.31847140282444297 -0.090200087513400209 0 0.31770645329974462 -0.069670472774840939 0 0.30185711268008247 -0.087784432778737306 0 0.32764850269118528 -0.1005058540606034 0 0.32952502069433809 -0.08900182563453686 0 0.31847140282444297 -0.090200087513400209 0 0.31770645329974462 -0.069670472774840939 0 0.29295726589214399 -0.072358724681919673 0 0.29639222651379821 -0.054884149188801169 0 0.31770645329974462 -0.069670472774840939 0 0.30185711268008247 -0.087784432778737306 0 0.29295726589214399 -0.072358724681919673 0 0.31770645329974462 -0.069670472774840939 0 0.30185711268008247 -0.087784432778737306 0 0.30185711268008247 -0.087784432778737306 0 0.28600777206041672 -0.1058983927826305 0 0.27849435808678852 -0.085105162008826896 0 0.30185711268008247 -0.087784432778737306 0 0.29295726589214399 -0.072358724681919673 0 0.27849435808678852 -0.085105162008826896 0 0.29295726589214399 -0.072358724681919673 0 0.27203611010869849 -0.061455828714295363 0 0.29639222651379821 -0.054884149188801169 0 0.3173523238320563 -0.10563062679348791 0 0.31489922947947352 -0.12102179814776221 0 0.30161865180235209 -0.1092022248952248 0 0.31489922947947352 -0.12102179814776221 0 0.30161865180235209 -0.1092022248952248 0 0.29818276728878479 -0.1295246798012267 0 0.3173523238320563 -0.10563062679348791 0 0.30185711268008247 -0.087784432778737306 0 0.30161865180235209 -0.1092022248952248 0 0.30185711268008247 -0.087784432778737306 0 0.28600777206041672 -0.1058983927826305 0 0.30185711268008247 -0.087784432778737306 0 0.30161865180235209 -0.1092022248952248 0 0.28600777206041672 -0.1058983927826305 0 0.30161865180235209 -0.1092022248952248 0 0.28600777206041672 -0.1058983927826305 0 0.28396152622885351 -0.1221006941163241 0 0.30161865180235209 -0.1092022248952248 0 0.28396152622885351 -0.1221006941163241 0 0.29818276728878479 -0.1295246798012267 0 0.28600777206041672 -0.1058983927826305 0 0.28396152622885351 -0.1221006941163241 0 0.27015843144075102 -0.1240123527865236 0 0.28600777206041672 -0.1058983927826305 0 0.27015843144075102 -0.1240123527865236 0 0.26299651267147689 -0.1135322950362638 0 0.28600777206041672 -0.1058983927826305 0 0.27015843144075102 -0.1240123527865236 0 0.28600777206041672 -0.1058983927826305 0 0.26193908655172332 -0.099778616189599004 0 0.27849435808678852 -0.085105162008826896 0 0.28600777206041672 -0.1058983927826305 0 0.26193908655172332 -0.099778616189599004 0 0.26299651267147689 -0.1135322950362638 0 0.26193908655172332 -0.099778616189599004 0 0.26299651267147689 -0.1135322950362638 0 0.24379894379493161 -0.11250487873852059 0 0.26299651267147689 -0.1135322950362638 0 0.25307832950956188 -0.12546723468404561 0 0.24379894379493161 -0.11250487873852059 0 0.27015843144075102 -0.1240123527865236 0 0.26299651267147689 -0.1135322950362638 0 0.25307832950956188 -0.12546723468404561 0 0.29295726589214399 -0.072358724681919673 0 0.27849435808678852 -0.085105162008826896 0 0.27203611010869849 -0.061455828714295363 0 0.27849435808678852 -0.085105162008826896 0 0.25548491960858971 -0.078406524054481799 0 0.27203611010869849 -0.061455828714295363 0 0.26193908655172332 -0.099778616189599004 0 0.27849435808678852 -0.085105162008826896 0 0.25548491960858971 -0.078406524054481799 0 0.26193908655172332 -0.099778616189599004 0 0.25548491960858971 -0.078406524054481799 0 0.24325324569035511 -0.095765154759331339 0 0.25548491960858971 -0.078406524054481799 0 0.27203611010869849 -0.061455828714295363 0 0.2436501633852933 -0.051215294890519659 0 0.27203611010869849 -0.061455828714295363 0 0.26024784800152262 -0.043773306648376947 0 0.2436501633852933 -0.051215294890519659 0 0.27203611010869849 -0.061455828714295363 0 0.27507799972785152 -0.040097825602761893 0 0.29639222651379821 -0.054884149188801169 0 0.27203611010869849 -0.061455828714295363 0 0.27507799972785152 -0.040097825602761893 0 0.26024784800152262 -0.043773306648376947 0 0.27507799972785152 -0.040097825602761893 0 0.25376377294190638 -0.02531150201672052 0 0.27507799972785152 -0.040097825602761893 0 0.26024784800152262 -0.043773306648376947 0 0.25376377294190638 -0.02531150201672052 0 0.26024784800152262 -0.043773306648376947 0 0.25376377294190638 -0.02531150201672052 0 0.2436501633852933 -0.051215294890519659 0 0.25376377294190638 -0.02531150201672052 0 0.25965188822243979 -0.01023038604223391 0 0.27385904215491369 -0.02126935689133588 0 0.25376377294190638 -0.02531150201672052 0 0.25965188822243979 -0.01023038604223391 0 0.25376377294190638 -0.02531150201672052 0 0.25034063533258072 -0.014015239688903461 0 0.25965188822243979 -0.01023038604223391 0 0.25747072455547149 0.00013850891538732049 0 0.25965188822243979 -0.01023038604223391 0 0.2471597475602246 -0.0042098564474911636 0 0.25034063533258072 -0.014015239688903461 0 0.25965188822243979 -0.01023038604223391 0 0.2471597475602246 -0.0042098564474911636 0 0.25747072455547149 0.00013850891538732049 0 0.26554000350297241 0.0048507299322529994 0 0.25965188822243979 -0.01023038604223391 0 0.26554000350297241 0.0048507299322529994 0 0.25965188822243979 -0.01023038604223391 0 0.27265695881179758 -0.0070062756675876373 0 0.27385904215491369 -0.02126935689133588 0 0.28837795124302928 -0.01275588815952596 0 0.28241787866306112 0.0011469095833447421 0 0.27265695881179758 -0.0070062756675876373 0 0.28837795124302928 -0.01275588815952596 0 0.28241787866306112 0.0011469095833447421 0 0.26554000350297241 0.0048507299322529994 0 0.27265695881179758 -0.0070062756675876373 0 0.26554000350297241 0.0048507299322529994 0 0.25965188822243979 -0.01023038604223391 0 0.27265695881179758 -0.0070062756675876373 0 0.25965188822243979 -0.01023038604223391 0 0.27265695881179758 -0.0070062756675876373 0 0.27385904215491369 -0.02126935689133588 0 0.27507799972785152 -0.040097825602761893 0 0.25376377294190638 -0.02531150201672052 0 0.27385904215491369 -0.02126935689133588 0 0.27507799972785152 -0.040097825602761893 0 0.27385904215491369 -0.02126935689133588 0 0.2926890412642722 -0.0312269827762038 0 0.27385904215491369 -0.02126935689133588 0 0.2926890412642722 -0.0312269827762038 0 0.28837795124302928 -0.01275588815952596 0 0.2926890412642722 -0.0312269827762038 0 0.28837795124302928 -0.01275588815952596 0 0.30154011151749138 -0.017089863248152589 0 0.28837795124302928 -0.01275588815952596 0 0.29718084087761248 -0.00045742867309077448 0 0.30154011151749138 -0.017089863248152589 0 0.28241787866306112 0.0011469095833447421 0 0.28837795124302928 -0.01275588815952596 0 0.29718084087761248 -0.00045742867309077448 0 0.31668423666249312 -0.0072496132518260273 0 0.29718084087761248 -0.00045742867309077448 0 0.30154011151749138 -0.017089863248152589 0 0.31276848754004988 -0.033759403380116397 0 0.2926890412642722 -0.0312269827762038 0 0.30154011151749138 -0.017089863248152589 0 0.31668423666249312 -0.0072496132518260273 0 0.31276848754004988 -0.033759403380116397 0 0.30154011151749138 -0.017089863248152589 0 0.3191980520368064 -0.049431502413126202 0 0.31276848754004988 -0.033759403380116397 0 0.29639222651379821 -0.054884149188801169 0 0.31276848754004988 -0.033759403380116397 0 0.2926890412642722 -0.0312269827762038 0 0.29639222651379821 -0.054884149188801169 0 0.3191980520368064 -0.049431502413126202 0 0.31770645329974462 -0.069670472774840939 0 0.29639222651379821 -0.054884149188801169 0 0.31770645329974462 -0.069670472774840939 0 0.29639222651379821 -0.054884149188801169 0 0.27507799972785152 -0.040097825602761893 0 0.29639222651379821 -0.054884149188801169 0 0.27507799972785152 -0.040097825602761893 0 0.2926890412642722 -0.0312269827762038 0 0.29639222651379821 -0.054884149188801169 0 0.28698070121143798 -0.20375661429593711 0 0.29976562433602999 -0.2050419052433832 0 0.29289011447968522 -0.21921528491597139 0 0.28698070121143798 -0.20375661429593711 0 0.29289011447968522 -0.21921528491597139 0 0.27980283043314752 -0.2155018419184212 0 0.28698070121143798 -0.20375661429593711 0 0.29546752435938028 -0.18972277648497751 0 0.28080714686243968 -0.1921341171074642 0 0.28698070121143798 -0.20375661429593711 0 0.29546752435938028 -0.18972277648497751 0 0.29976562433602999 -0.2050419052433832 0 0.29546752435938028 -0.18972277648497751 0 0.31093347988477388 -0.18908206602740751 0 0.29976562433602999 -0.2050419052433832 0 0.31093347988477388 -0.18908206602740751 0 0.29976562433602999 -0.2050419052433832 0 0.31434932866790061 -0.20565177972409859 0 0.29976562433602999 -0.2050419052433832 0 0.30947945285045431 -0.223513338041371 0 0.29289011447968522 -0.21921528491597139 0 0.29976562433602999 -0.2050419052433832 0 0.30947945285045431 -0.223513338041371 0 0.31434932866790061 -0.20565177972409859 0 0.30947945285045431 -0.223513338041371 0 0.30312161690947398 -0.24426095551615151 0 0.29239360153289151 -0.23407783357470729 0 0.30947945285045431 -0.223513338041371 0 0.29289011447968522 -0.21921528491597139 0 0.29239360153289151 -0.23407783357470729 0 0.30312161690947398 -0.24426095551615151 0 0.28694766094943702 -0.24741734539740221 0 0.29239360153289151 -0.23407783357470729 0 0.28199544159005141 -0.2369799897027112 0 0.28694766094943702 -0.24741734539740221 0 0.29239360153289151 -0.23407783357470729 0 0.28199544159005141 -0.2369799897027112 0 0.28694766094943702 -0.24741734539740221 0 0.277943669603888 -0.24478247151693469 0 0.29289011447968522 -0.21921528491597139 0 0.29239360153289151 -0.23407783357470729 0 0.28228777853595932 -0.22766531933837361 0 0.28199544159005141 -0.2369799897027112 0 0.29239360153289151 -0.23407783357470729 0 0.28228777853595932 -0.22766531933837361 0 0.29289011447968522 -0.21921528491597139 0 0.28228777853595932 -0.22766531933837361 0 0.27980283043314752 -0.2155018419184212 0 0.28228777853595932 -0.22766531933837361 0 0.27344900163109248 -0.22331810471598379 0 0.27980283043314752 -0.2155018419184212 0 0.27394188961672378 -0.23474933386987079 0 0.26868981439572581 -0.23959115904570871 0 0.26208422348148769 -0.2219923007541125 0 0.28228777853595932 -0.22766531933837361 0 0.27344900163109248 -0.22331810471598379 0 0.27394188961672378 -0.23474933386987079 0 0.28199544159005141 -0.2369799897027112 0 0.28228777853595932 -0.22766531933837361 0 0.27394188961672378 -0.23474933386987079 0 0.27344900163109248 -0.22331810471598379 0 0.27394188961672378 -0.23474933386987079 0 0.26208422348148769 -0.2219923007541125 0 0.27344900163109248 -0.22331810471598379 0 0.26208422348148769 -0.2219923007541125 0 0.26643024433135709 -0.21193379616113331 0 0.277943669603888 -0.24478247151693469 0 0.26868981439572581 -0.23959115904570871 0 0.2783925133346638 -0.26544144645972678 0 0.28199544159005141 -0.2369799897027112 0 0.277943669603888 -0.24478247151693469 0 0.27394188961672378 -0.23474933386987079 0 0.277943669603888 -0.24478247151693469 0 0.27394188961672378 -0.23474933386987079 0 0.26868981439572581 -0.23959115904570871 0 0.27394188961672378 -0.23474933386987079 0 0.26868981439572581 -0.23959115904570871 0 0.26868981439572581 -0.23959115904570871 0 0.2532056918276841 -0.23460617000945991 0 0.25020103332250959 -0.25663574464360273 0 0.26868981439572581 -0.23959115904570871 0 0.25020103332250959 -0.25663574464360273 0 0.26868981439572581 -0.23959115904570871 0 0.26208422348148769 -0.2219923007541125 0 0.26868981439572581 -0.23959115904570871 0 0.2532056918276841 -0.23460617000945991 0 0.26208422348148769 -0.2219923007541125 0 0.2532056918276841 -0.23460617000945991 0 0.26208422348148769 -0.2219923007541125 0 0.24988521161435959 -0.22065093421590709 0 0.26208422348148769 -0.2219923007541125 0 0.25541340096430232 -0.20421965002648601 0 0.26643024433135709 -0.21193379616113331 0 0.26208422348148769 -0.2219923007541125 0 0.25408186593628368 -0.21011597023667741 0 0.25541340096430232 -0.20421965002648601 0 0.26208422348148769 -0.2219923007541125 0 0.25408186593628368 -0.21011597023667741 0 0.24988521161435959 -0.22065093421590709 0 0.26208422348148769 -0.2219923007541125 0 0.25541340096430232 -0.20421965002648601 0 0.25408186593628368 -0.21011597023667741 0 0.25541340096430232 -0.20421965002648601 0 0.26643024433135709 -0.21193379616113331 0 0.26741692855016641 -0.2006921456233598 0 0.26047067490662962 -0.2027389636914064 0 0.25541340096430232 -0.20421965002648601 0 0.26643024433135709 -0.21193379616113331 0 0.26047067490662962 -0.2027389636914064 0 0.25541340096430232 -0.20421965002648601 0 0.26047067490662962 -0.2027389636914064 0 0.27344900163109248 -0.22331810471598379 0 0.26643024433135709 -0.21193379616113331 0 0.27980283043314752 -0.2155018419184212 0 0.26643024433135709 -0.21193379616113331 0 0.27499922251853848 -0.20282143601551861 0 0.26741692855016641 -0.2006921456233598 0 0.26643024433135709 -0.21193379616113331 0 0.27980283043314752 -0.2155018419184212 0 0.27499922251853848 -0.20282143601551861 0 0.28698070121143798 -0.20375661429593711 0 0.27980283043314752 -0.2155018419184212 0 0.27499922251853848 -0.20282143601551861 0 0.28080714686243968 -0.1921341171074642 0 0.27016049652281621 -0.19222612707559211 0 0.2737093615175602 -0.18188977845200141 0 0.28080714686243968 -0.1921341171074642 0 0.27499922251853848 -0.20282143601551861 0 0.27016049652281621 -0.19222612707559211 0 0.28698070121143798 -0.20375661429593711 0 0.28080714686243968 -0.1921341171074642 0 0.27499922251853848 -0.20282143601551861 0 0.26741692855016641 -0.2006921456233598 0 0.27016049652281621 -0.19222612707559211 0 0.26301312726912562 -0.19592305980789479 0 0.27499922251853848 -0.20282143601551861 0 0.26741692855016641 -0.2006921456233598 0 0.27016049652281621 -0.19222612707559211 0 0.27016049652281621 -0.19222612707559211 0 0.26301312726912562 -0.19592305980789479 0 0.26148819898635101 -0.17977235689140411 0 0.25541340096430232 -0.20421965002648601 0 0.24608664359444801 -0.17937095996933211 0 0.25541340096430232 -0.20421965002648601 0 0.26148819898635101 -0.17977235689140411 0 0.25541340096430232 -0.20421965002648601 0 0.26301312726912562 -0.19592305980789479 0 0.26148819898635101 -0.17977235689140411 0 0.25541340096430232 -0.20421965002648601 0 0.26148819898635101 -0.17977235689140411 0 0.24608664359444801 -0.17937095996933211 0 0.25541340096430232 -0.20421965002648601 0 0.26301312726912562 -0.19592305980789479 0 0.26047067490662962 -0.2027389636914064 0 0.26741692855016641 -0.2006921456233598 0 0.26301312726912562 -0.19592305980789479 0 0.26047067490662962 -0.2027389636914064 0 0.26148819898635101 -0.17977235689140411 0 0.25191964289289609 -0.17371596287125671 0 0.24608664359444801 -0.17937095996933211 0 0.26148819898635101 -0.17977235689140411 0 0.25191964289289609 -0.17371596287125671 0 0.25416550914145403 -0.16506446950883469 0 0.26148819898635101 -0.17977235689140411 0 0.25416550914145403 -0.16506446950883469 0 0.26744706059303941 -0.15535900802509789 0 0.26148819898635101 -0.17977235689140411 0 0.26744706059303941 -0.15535900802509789 0 0.28042170565351421 -0.17145978689495589 0 0.26744706059303941 -0.15535900802509789 0 0.28496100078291131 -0.15862886621777489 0 0.26148819898635101 -0.17977235689140411 0 0.28042170565351421 -0.17145978689495589 0 0.26744706059303941 -0.15535900802509789 0 0.26148819898635101 -0.17977235689140411 0 0.28042170565351421 -0.17145978689495589 0 0.2737093615175602 -0.18188977845200141 0 0.28080714686243968 -0.1921341171074642 0 0.28042170565351421 -0.17145978689495589 0 0.2737093615175602 -0.18188977845200141 0 0.27016049652281621 -0.19222612707559211 0 0.26148819898635101 -0.17977235689140411 0 0.2737093615175602 -0.18188977845200141 0 0.27015843144075102 -0.1240123527865236 0 0.25430909082108533 -0.14212631279041679 0 0.27015843144075102 -0.1240123527865236 0 0.25307832950956188 -0.12546723468404561 0 0.25430909082108533 -0.14212631279041679 0 0.25430909082108533 -0.14212631279041679 0 0.26744706059303941 -0.15535900802509789 0 0.2734059221997277 -0.13094565915879169 0 0.25416550914145403 -0.16506446950883469 0 0.25430909082108533 -0.14212631279041679 0 0.26744706059303941 -0.15535900802509789 0 0.26744706059303941 -0.15535900802509789 0 0.28123231717211988 -0.1460242603680231 0 0.2734059221997277 -0.13094565915879169 0 0.26744706059303941 -0.15535900802509789 0 0.28123231717211988 -0.1460242603680231 0 0.28496100078291131 -0.15862886621777489 0 0.26744706059303941 -0.15535900802509789 0 0.2734059221997277 -0.13094565915879169 0 0.27015843144075102 -0.1240123527865236 0 0.25430909082108533 -0.14212631279041679 0 0.2734059221997277 -0.13094565915879169 0 0.28123231717211988 -0.1460242603680231 0 0.2734059221997277 -0.13094565915879169 0 0.28590535169005238 -0.1355154561906293 0 0.28396152622885351 -0.1221006941163241 0 0.2734059221997277 -0.13094565915879169 0 0.28590535169005238 -0.1355154561906293 0 0.28396152622885351 -0.1221006941163241 0 0.27015843144075102 -0.1240123527865236 0 0.2734059221997277 -0.13094565915879169 0 0.28590535169005238 -0.1355154561906293 0 0.29607269378088691 -0.15051008201470989 0 0.29818276728878479 -0.1295246798012267 0 0.28396152622885351 -0.1221006941163241 0 0.28590535169005238 -0.1355154561906293 0 0.29818276728878479 -0.1295246798012267 0 0.28123231717211988 -0.1460242603680231 0 0.28590535169005238 -0.1355154561906293 0 0.29607269378088691 -0.15051008201470989 0 0.28123231717211988 -0.1460242603680231 0 0.29607269378088691 -0.15051008201470989 0 0.28496100078291131 -0.15862886621777489 0 0.29607269378088691 -0.15051008201470989 0 0.31303235730023371 -0.13944870537382259 0 0.29607269378088691 -0.15051008201470989 0 0.31303235730023371 -0.13944870537382259 0 0.31355560164521112 -0.15588897242913219 0 0.31489922947947352 -0.12102179814776221 0 0.29818276728878479 -0.1295246798012267 0 0.31303235730023371 -0.13944870537382259 0 0.29607269378088691 -0.15051008201470989 0 0.29818276728878479 -0.1295246798012267 0 0.31303235730023371 -0.13944870537382259 0 0.29546752435938028 -0.18972277648497751 0 0.28042170565351421 -0.17145978689495589 0 0.29915112526626808 -0.1708386432639187 0 0.29546752435938028 -0.18972277648497751 0 0.28080714686243968 -0.1921341171074642 0 0.28042170565351421 -0.17145978689495589 0 0.29607269378088691 -0.15051008201470989 0 0.28496100078291131 -0.15862886621777489 0 0.29915112526626808 -0.1708386432639187 0 0.28042170565351421 -0.17145978689495589 0 0.28496100078291131 -0.15862886621777489 0 0.29915112526626808 -0.1708386432639187 0 0.29915112526626808 -0.1708386432639187 0 0.31794505204949791 -0.1720905882575077 0 0.31355560164521112 -0.15588897242913219 0 0.29607269378088691 -0.15051008201470989 0 0.29915112526626808 -0.1708386432639187 0 0.31355560164521112 -0.15588897242913219 0 0.31093347988477388 -0.18908206602740751 0 0.29915112526626808 -0.1708386432639187 0 0.31794505204949791 -0.1720905882575077 0 0.29546752435938028 -0.18972277648497751 0 0.31093347988477388 -0.18908206602740751 0 0.29915112526626808 -0.1708386432639187 0 0.31794505204949791 -0.1720905882575077 0 0.32652220554177541 -0.18277013546536669 0 0.33462373788814193 -0.17150663114554629 0 0.31093347988477388 -0.18908206602740751 0 0.31794505204949791 -0.1720905882575077 0 0.32652220554177541 -0.18277013546536669 0 0.31794505204949791 -0.1720905882575077 0 0.33115388825414999 -0.15732487021147551 0 0.33462373788814193 -0.17150663114554629 0 0.31794505204949791 -0.1720905882575077 0 0.33115388825414999 -0.15732487021147551 0 0.31355560164521112 -0.15588897242913219 0 0.33115388825414999 -0.15732487021147551 0 0.33462373788814193 -0.17150663114554629 0 0.35555369118291708 -0.16457723330594429 0 0.32652220554177541 -0.18277013546536669 0 0.34538957165542461 -0.17863190723652089 0 0.340541206502389 -0.19783113356492679 0 0.32652220554177541 -0.18277013546536669 0 0.33462373788814193 -0.17150663114554629 0 0.34538957165542461 -0.17863190723652089 0 0.31303235730023371 -0.13944870537382259 0 0.32999202081958062 -0.12838732873293521 0 0.31489922947947352 -0.12102179814776221 0 0.31303235730023371 -0.13944870537382259 0 0.32999202081958062 -0.12838732873293521 0 0.31303235730023371 -0.13944870537382259 0 0.32742421246328579 -0.1429825242024424 0 0.32999202081958062 -0.12838732873293521 0 0.33115388825414999 -0.15732487021147551 0 0.31355560164521112 -0.15588897242913219 0 0.32742421246328579 -0.1429825242024424 0 0.31303235730023371 -0.13944870537382259 0 0.31355560164521112 -0.15588897242913219 0 0.32742421246328579 -0.1429825242024424 0 0.33115388825414999 -0.15732487021147551 0 0.32742421246328579 -0.1429825242024424 0 0.35125268776092278 -0.1409515926989961 0 0.34695168433892759 -0.1173259520920481 0 0.32999202081958062 -0.12838732873293521 0 0.35125268776092278 -0.1409515926989961 0 0.32742421246328579 -0.1429825242024424 0 0.32999202081958062 -0.12838732873293521 0 0.35125268776092278 -0.1409515926989961 0 0.34695168433892759 -0.1173259520920481 0 0.35125268776092278 -0.1409515926989961 0 0.34695168433892759 -0.1173259520920481 0 0.35125268776092278 -0.1409515926989961 0 0.36123880290971738 -0.13189295292447481 0 0.35125268776092278 -0.1409515926989961 0 0.36345683912401833 -0.14144334123706931 0 0.36123880290971738 -0.13189295292447481 0 0.33115388825414999 -0.15732487021147551 0 0.35125268776092278 -0.1409515926989961 0 0.35555369118291708 -0.16457723330594429 0 0.35125268776092278 -0.1409515926989961 0 0.36502833343663649 -0.15344717083501361 0 0.35555369118291708 -0.16457723330594429 0 0.35125268776092278 -0.1409515926989961 0 0.35555369118291708 -0.16457723330594429 0 0.37259172920887212 -0.15230386375400601 0 0.37101374087094863 -0.14492872055493619 0 0.38072130034906898 -0.14944592644022181 0 0.36502833343663649 -0.15344717083501361 0 0.37259172920887212 -0.15230386375400601 0 0.37360354217883418 -0.16139363718585231 0 0.36502833343663649 -0.15344717083501361 0 0.37259172920887212 -0.15230386375400601 0 0.37101374087094863 -0.14492872055493619 0 0.37101374087094863 -0.14492872055493619 0 0.36345683912401833 -0.14144334123706931 0 0.36875063064186547 -0.13599626917192609 0 0.36502833343663649 -0.15344717083501361 0 0.37101374087094863 -0.14492872055493619 0 0.36345683912401833 -0.14144334123706931 0 0.35125268776092278 -0.1409515926989961 0 0.36502833343663649 -0.15344717083501361 0 0.36345683912401833 -0.14144334123706931 0 0.36345683912401833 -0.14144334123706931 0 0.36875063064186547 -0.13599626917192609 0 0.36123880290971738 -0.13189295292447481 0 0.37101374087094863 -0.14492872055493619 0 0.37431116144718513 -0.13456079329921261 0 0.36875063064186547 -0.13599626917192609 0 0.37431116144718513 -0.13456079329921261 0 0.36875063064186547 -0.13599626917192609 0 0.36827101832246367 -0.12943955730339521 0 0.373297658075465 -0.12312681369454399 0 0.37431116144718513 -0.13456079329921261 0 0.36827101832246367 -0.12943955730339521 0 0.3637568385380851 -0.12162095742681819 0 0.36827101832246367 -0.12943955730339521 0 0.36123880290971738 -0.13189295292447481 0 0.36875063064186547 -0.13599626917192609 0 0.36827101832246367 -0.12943955730339521 0 0.36123880290971738 -0.13189295292447481 0 0.34538957165542461 -0.17863190723652089 0 0.35555369118291708 -0.16457723330594429 0 0.35985469460491343 -0.188202873912892 0 0.35555369118291708 -0.16457723330594429 0 0.36110726508288499 -0.1812116721751719 0 0.35985469460491343 -0.188202873912892 0 0.35555369118291708 -0.16457723330594429 0 0.35985469460491343 -0.188202873912892 0 0.33462373788814193 -0.17150663114554629 0 0.34538957165542461 -0.17863190723652089 0 0.35555369118291708 -0.16457723330594429 0 0.35555369118291708 -0.16457723330594429 0 0.36696988229361499 -0.16943491042575751 0 0.36110726508288499 -0.1812116721751719 0 0.36502833343663649 -0.15344717083501361 0 0.35555369118291708 -0.16457723330594429 0 0.36696988229361499 -0.16943491042575751 0 0.36502833343663649 -0.15344717083501361 0 0.36696988229361499 -0.16943491042575751 0 0.37360354217883418 -0.16139363718585231 0 0.36696988229361499 -0.16943491042575751 0 0.37360354217883418 -0.16139363718585231 0 0.38045175198209191 -0.1753089648562037 0 0.36696988229361499 -0.16943491042575751 0 0.36914022915468708 -0.1782668720650788 0 0.38045175198209191 -0.1753089648562037 0 0.36696988229361499 -0.16943491042575751 0 0.36914022915468708 -0.1782668720650788 0 0.36110726508288499 -0.1812116721751719 0 0.36914022915468708 -0.1782668720650788 0 0.36110726508288499 -0.1812116721751719 0 0.37042988237468999 -0.18678176003925029 0 0.36110726508288499 -0.1812116721751719 0 0.37042988237468999 -0.18678176003925029 0 0.35985469460491343 -0.188202873912892 0 0.36110726508288499 -0.1812116721751719 0 0.35985469460491343 -0.188202873912892 0 0.36914022915468708 -0.1782668720650788 0 0.37042988237468999 -0.18678176003925029 0 0.38045175198209191 -0.1753089648562037 0 0.35985469460491343 -0.188202873912892 0 0.36368535044011852 -0.20924487020350341 0 0.36818868593030918 -0.19755536646121399 0 0.35985469460491343 -0.188202873912892 0 0.36368535044011852 -0.20924487020350341 0 0.37042988237468999 -0.18678176003925029 0 0.36818868593030918 -0.19755536646121399 0 0.38018220361511479 -0.20117200327218551 0 0.35985469460491343 -0.188202873912892 0 0.36368535044011852 -0.20924487020350341 0 0.35569168099065268 -0.211438666649572 0 0.37042988237468999 -0.18678176003925029 0 0.36818868593030918 -0.19755536646121399 0 0.35985469460491343 -0.188202873912892 0 0.36368535044011852 -0.20924487020350341 0 0.35569168099065268 -0.211438666649572 0 0.36686989381823709 -0.23163629435669389 0 0.3729005424108488 -0.21232990491536261 0 0.36368535044011852 -0.20924487020350341 0 0.3708514544209765 -0.22332066949146159 0 0.36818868593030918 -0.19755536646121399 0 0.3729005424108488 -0.21232990491536261 0 0.36368535044011852 -0.20924487020350341 0 0.36818868593030918 -0.19755536646121399 0 0.3729005424108488 -0.21232990491536261 0 0.38018220361511479 -0.20117200327218551 0 0.35569168099065268 -0.211438666649572 0 0.340541206502389 -0.19783113356492679 0 0.34121497724559802 -0.22083579206385781 0 0.35985469460491343 -0.188202873912892 0 0.35569168099065268 -0.211438666649572 0 0.340541206502389 -0.19783113356492679 0 0.35985469460491343 -0.188202873912892 0 0.35569168099065268 -0.211438666649572 0 0.34538957165542461 -0.17863190723652089 0 0.35985469460491343 -0.188202873912892 0 0.340541206502389 -0.19783113356492679 0 0.32652220554177541 -0.18277013546536669 0 0.340541206502389 -0.19783113356492679 0 0.32470216371685717 -0.1971937828841254 0 0.340541206502389 -0.19783113356492679 0 0.32686592255138752 -0.213427806424206 0 0.32470216371685717 -0.1971937828841254 0 0.340541206502389 -0.19783113356492679 0 0.32686592255138752 -0.213427806424206 0 0.34121497724559802 -0.22083579206385781 0 0.32686592255138752 -0.213427806424206 0 0.31434932866790061 -0.20565177972409859 0 0.32470216371685717 -0.1971937828841254 0 0.30947945285045431 -0.223513338041371 0 0.32686592255138752 -0.213427806424206 0 0.31434932866790061 -0.20565177972409859 0 0.31093347988477388 -0.18908206602740751 0 0.31434932866790061 -0.20565177972409859 0 0.32470216371685717 -0.1971937828841254 0 0.31093347988477388 -0.18908206602740751 0 0.32652220554177541 -0.18277013546536669 0 0.32470216371685717 -0.1971937828841254 0 0.30947945285045431 -0.223513338041371 0 0.30312161690947398 -0.24426095551615151 0 0.32732514214293218 -0.23946770745120211 0 0.32732514214293218 -0.23946770745120211 0 0.31908501265015221 -0.25338082040381199 0 0.33265432383720989 -0.25624671888636802 0 0.30312161690947398 -0.24426095551615151 0 0.32732514214293218 -0.23946770745120211 0 0.31908501265015221 -0.25338082040381199 0 0.30312161690947398 -0.24426095551615151 0 0.32732514214293218 -0.23946770745120211 0 0.30947945285045431 -0.223513338041371 0 0.32686592255138752 -0.213427806424206 0 0.32732514214293218 -0.23946770745120211 0 0.32732514214293218 -0.23946770745120211 0 0.34121497724559802 -0.22083579206385781 0 0.35152866737639032 -0.2346744593862517 0 0.32686592255138752 -0.213427806424206 0 0.32732514214293218 -0.23946770745120211 0 0.34121497724559802 -0.22083579206385781 0 0.32732514214293218 -0.23946770745120211 0 0.34125715901687831 -0.24631295959495231 0 0.35152866737639032 -0.2346744593862517 0 0.32732514214293218 -0.23946770745120211 0 0.34125715901687831 -0.24631295959495231 0 0.33265432383720989 -0.25624671888636802 0 0.32732514214293218 -0.23946770745120211 0 0.35152866737639032 -0.2346744593862517 0 0.34125715901687831 -0.24631295959495231 0 0.35152866737639032 -0.2346744593862517 0 0.34684906049028008 -0.26079360906240417 0 0.35152866737639032 -0.2346744593862517 0 0.34684906049028008 -0.26079360906240417 0 0.35152866737639032 -0.2346744593862517 0 0.36686989381823709 -0.23163629435669389 0 0.35553196568426959 -0.25531594324767681 0 0.35569168099065268 -0.211438666649572 0 0.35152866737639032 -0.2346744593862517 0 0.35569168099065268 -0.211438666649572 0 0.34121497724559802 -0.22083579206385781 0 0.35152866737639032 -0.2346744593862517 0 0.35569168099065268 -0.211438666649572 0 0.35152866737639032 -0.2346744593862517 0 0.36686989381823709 -0.23163629435669389 0 0.35152866737639032 -0.2346744593862517 0 0.36686989381823709 -0.23163629435669389 0 0.36368535044011852 -0.20924487020350341 0 0.36686989381823709 -0.23163629435669389 0 0.36368535044011852 -0.20924487020350341 0 0.36686989381823709 -0.23163629435669389 0 0.3708514544209765 -0.22332066949146159 0 0.36686989381823709 -0.23163629435669389 0 0.3708514544209765 -0.22332066949146159 0 0.36686989381823709 -0.23163629435669389 0 0.37980921503834553 -0.23964752323137639 0 0.37117659030456479 -0.25039464930686101 0 0.36686989381823709 -0.23163629435669389 0 0.37117659030456479 -0.25039464930686101 0 0.36686989381823709 -0.23163629435669389 0 0.35553196568426959 -0.25531594324767681 0 0.37117659030456479 -0.25039464930686101 0 0.36686989381823709 -0.23163629435669389 0 0.35553196568426959 -0.25531594324767681 0 0.37980921503834553 -0.23964752323137639 0 0.3921013834865843 -0.2435934775238256 0 0.39124881869475892 -0.22680831027739959 0 0.38152004530313322 -0.2477560543852661 0 0.37980921503834553 -0.23964752323137639 0 0.37117659030456479 -0.25039464930686101 0 0.38152004530313322 -0.2477560543852661 0 0.3921013834865843 -0.2435934775238256 0 0.38299299238303858 -0.25738856747900152 0 0.38152004530313322 -0.2477560543852661 0 0.37980921503834553 -0.23964752323137639 0 0.3921013834865843 -0.2435934775238256 0 0.3921013834865843 -0.2435934775238256 0 0.40605223581183231 -0.22966153362499239 0 0.4130675015364938 -0.24870822911988991 0 0.3921013834865843 -0.2435934775238256 0 0.4130675015364938 -0.24870822911988991 0 0.39517251135287917 -0.25389175787244839 0 0.3921013834865843 -0.2435934775238256 0 0.39124881869475892 -0.22680831027739959 0 0.40605223581183231 -0.22966153362499239 0 0.39124881869475892 -0.22680831027739959 0 0.40605223581183231 -0.22966153362499239 0 0.40856296121029262 -0.21575568814420651 0 0.36686989381823709 -0.23163629435669389 0 0.37980921503834553 -0.23964752323137639 0 0.39124881869475892 -0.22680831027739959 0 0.36686989381823709 -0.23163629435669389 0 0.3708514544209765 -0.22332066949146159 0 0.39124881869475892 -0.22680831027739959 0 0.36686989381823709 -0.23163629435669389 0 0.39124881869475892 -0.22680831027739959 0 0.3708514544209765 -0.22332066949146159 0 0.39124881869475892 -0.22680831027739959 0 0.38264178249473257 -0.214400962554715 0 0.38264178249473257 -0.214400962554715 0 0.38018220361511479 -0.20117200327218551 0 0.3979375605452799 -0.20548874779687981 0 0.3729005424108488 -0.21232990491536261 0 0.3708514544209765 -0.22332066949146159 0 0.38264178249473257 -0.214400962554715 0 0.39124881869475892 -0.22680831027739959 0 0.38264178249473257 -0.214400962554715 0 0.3979375605452799 -0.20548874779687981 0 0.3729005424108488 -0.21232990491536261 0 0.38264178249473257 -0.214400962554715 0 0.38018220361511479 -0.20117200327218551 0 0.38018220361511479 -0.20117200327218551 0 0.38045175198209191 -0.1753089648562037 0 0.37042988237468999 -0.18678176003925029 0 0.38018220361511479 -0.20117200327218551 0 0.38045175198209191 -0.1753089648562037 0 0.38018220361511479 -0.20117200327218551 0 0.3921799901484726 -0.1904969469876249 0 0.3979375605452799 -0.20548874779687981 0 0.38018220361511479 -0.20117200327218551 0 0.3921799901484726 -0.1904969469876249 0 0.38045175198209191 -0.1753089648562037 0 0.3921799901484726 -0.1904969469876249 0 0.3979375605452799 -0.20548874779687981 0 0.40495478824104281 -0.18076513101769351 0 0.3979375605452799 -0.20548874779687981 0 0.40889269949841323 -0.19239402066931099 0 0.40495478824104281 -0.18076513101769351 0 0.3979375605452799 -0.20548874779687981 0 0.40495478824104281 -0.18076513101769351 0 0.39124881869475892 -0.22680831027739959 0 0.3979375605452799 -0.20548874779687981 0 0.40856296121029262 -0.21575568814420651 0 0.3979375605452799 -0.20548874779687981 0 0.40856296121029262 -0.21575568814420651 0 0.41573507620609002 -0.2008387157375536 0 0.40856296121029262 -0.21575568814420651 0 0.41573507620609002 -0.2008387157375536 0 0.4235225655377271 -0.21069268971482319 0 0.40856296121029262 -0.21575568814420651 0 0.4235225655377271 -0.21069268971482319 0 0.41688151046606747 -0.22104413171359061 0 0.40889269949841323 -0.19239402066931099 0 0.41573507620609002 -0.2008387157375536 0 0.41694337300124018 -0.18248348812511711 0 0.3979375605452799 -0.20548874779687981 0 0.40889269949841323 -0.19239402066931099 0 0.41573507620609002 -0.2008387157375536 0 0.41573507620609002 -0.2008387157375536 0 0.43542579586548552 -0.1970866202458213 0 0.4235225655377271 -0.21069268971482319 0 0.41573507620609002 -0.2008387157375536 0 0.43542579586548552 -0.1970866202458213 0 0.41694337300124018 -0.18248348812511711 0 0.43542579586548552 -0.1970866202458213 0 0.41694337300124018 -0.18248348812511711 0 0.43542579586548552 -0.1970866202458213 0 0.4235225655377271 -0.21069268971482319 0 0.43434097378144582 -0.2147673009259394 0 0.4235225655377271 -0.21069268971482319 0 0.42552241940124258 -0.2216928520576591 0 0.41688151046606747 -0.22104413171359061 0 0.4235225655377271 -0.21069268971482319 0 0.43434097378144582 -0.2147673009259394 0 0.42552241940124258 -0.2216928520576591 0 0.43434097378144582 -0.2147673009259394 0 0.42552241940124258 -0.2216928520576591 0 0.43360683506758729 -0.2315397008727032 0 0.42552241940124258 -0.2216928520576591 0 0.43360683506758729 -0.2315397008727032 0 0.41926021215338499 -0.23042043706123899 0 0.43360683506758729 -0.2315397008727032 0 0.4130675015364938 -0.24870822911988991 0 0.4278885898259821 -0.24726295599035389 0 0.43815741487464072 -0.24158193802760419 0 0.4322519361834638 -0.2578521890481949 0 0.43360683506758729 -0.2315397008727032 0 0.4278885898259821 -0.24726295599035389 0 0.4130675015364938 -0.24870822911988991 0 0.43360683506758729 -0.2315397008727032 0 0.4130675015364938 -0.24870822911988991 0 0.41926021215338499 -0.23042043706123899 0 0.43360683506758729 -0.2315397008727032 0 0.4278885898259821 -0.24726295599035389 0 0.43815741487464072 -0.24158193802760419 0 0.40605223581183231 -0.22966153362499239 0 0.4130675015364938 -0.24870822911988991 0 0.41926021215338499 -0.23042043706123899 0 0.40605223581183231 -0.22966153362499239 0 0.40856296121029262 -0.21575568814420651 0 0.41688151046606747 -0.22104413171359061 0 0.42552241940124258 -0.2216928520576591 0 0.41688151046606747 -0.22104413171359061 0 0.41926021215338499 -0.23042043706123899 0 0.40605223581183231 -0.22966153362499239 0 0.41688151046606747 -0.22104413171359061 0 0.41926021215338499 -0.23042043706123899 0 0.40743141707026292 -0.124186865533741 0 0.40251989831697982 -0.1392946288704677 0 0.39713427764850429 -0.1269178815242378 0 0.40251989831697982 -0.1392946288704677 0 0.39713427764850429 -0.1269178815242378 0 0.38926237880221037 -0.13480426194542741 0 0.40251989831697982 -0.1392946288704677 0 0.38926237880221037 -0.13480426194542741 0 0.39020118482069571 -0.14626476200287869 0 0.39713427764850429 -0.1269178815242378 0 0.3911989989712657 -0.12720080669893649 0 0.38926237880221037 -0.13480426194542741 0 0.39226537828793379 -0.1229714364071476 0 0.39713427764850429 -0.1269178815242378 0 0.3911989989712657 -0.12720080669893649 0 0.38099084871604622 -0.12358288802424 0 0.38613396114641441 -0.1241096469189331 0 0.38079417178443031 -0.14245394665822 0 0.38613396114641441 -0.1241096469189331 0 0.3911989989712657 -0.12720080669893649 0 0.38926237880221037 -0.13480426194542741 0 0.38099084871604622 -0.12358288802424 0 0.37431116144718513 -0.13456079329921261 0 0.38079417178443031 -0.14245394665822 0 0.38613396114641441 -0.1241096469189331 0 0.38926237880221037 -0.13480426194542741 0 0.38079417178443031 -0.14245394665822 0 0.38613396114641441 -0.1241096469189331 0 0.38079417178443031 -0.14245394665822 0 0.38099084871604622 -0.12358288802424 0 0.38079417178443031 -0.14245394665822 0 0.38099084871604622 -0.12358288802424 0 0.373297658075465 -0.12312681369454399 0 0.37431116144718513 -0.13456079329921261 0 0.38926237880221037 -0.13480426194542741 0 0.39020118482069571 -0.14626476200287869 0 0.38079417178443031 -0.14245394665822 0 0.39020118482069571 -0.14626476200287869 0 0.38079417178443031 -0.14245394665822 0 0.38072130034906898 -0.14944592644022181 0 0.37431116144718513 -0.13456079329921261 0 0.38079417178443031 -0.14245394665822 0 0.38072130034906898 -0.14944592644022181 0 0.37101374087094863 -0.14492872055493619 0 0.37431116144718513 -0.13456079329921261 0 0.38072130034906898 -0.14944592644022181 0 0.38079417178443031 -0.14245394665822 0 0.38072130034906898 -0.14944592644022181 0 0.37259172920887212 -0.15230386375400601 0 0.37360354217883418 -0.16139363718585231 0 0.38072130034906898 -0.14944592644022181 0 0.39020118482069571 -0.14626476200287869 0 0.38072130034906898 -0.14944592644022181 0 0.38932355158218512 -0.1585351109065139 0 0.40251989831697982 -0.1392946288704677 0 0.39831418682989628 -0.15380638834660579 0 0.41197201593680571 -0.15604151423850721 0 0.39020118482069571 -0.14626476200287869 0 0.39831418682989628 -0.15380638834660579 0 0.38932355158218512 -0.1585351109065139 0 0.40251989831697982 -0.1392946288704677 0 0.39020118482069571 -0.14626476200287869 0 0.39831418682989628 -0.15380638834660579 0 0.39630438436553078 -0.16680310005865681 0 0.40495478824104281 -0.18076513101769351 0 0.41197201593680571 -0.15604151423850721 0 0.39831418682989628 -0.15380638834660579 0 0.39630438436553078 -0.16680310005865681 0 0.41197201593680571 -0.15604151423850721 0 0.39831418682989628 -0.15380638834660579 0 0.39630438436553078 -0.16680310005865681 0 0.38932355158218512 -0.1585351109065139 0 0.38072130034906898 -0.14944592644022181 0 0.38045175198209191 -0.1753089648562037 0 0.37360354217883418 -0.16139363718585231 0 0.38072130034906898 -0.14944592644022181 0 0.38045175198209191 -0.1753089648562037 0 0.38072130034906898 -0.14944592644022181 0 0.38932355158218512 -0.1585351109065139 0 0.38045175198209191 -0.1753089648562037 0 0.39630438436553078 -0.16680310005865681 0 0.38932355158218512 -0.1585351109065139 0 0.38045175198209191 -0.1753089648562037 0 0.39630438436553078 -0.16680310005865681 0 0.38045175198209191 -0.1753089648562037 0 0.39331141536561659 -0.17799310713252381 0 0.3921799901484726 -0.1904969469876249 0 0.38045175198209191 -0.1753089648562037 0 0.39331141536561659 -0.17799310713252381 0 0.3921799901484726 -0.1904969469876249 0 0.39331141536561659 -0.17799310713252381 0 0.40495478824104281 -0.18076513101769351 0 0.39630438436553078 -0.16680310005865681 0 0.39331141536561659 -0.17799310713252381 0 0.40495478824104281 -0.18076513101769351 0 0.40495478824104281 -0.18076513101769351 0 0.41694337300124018 -0.18248348812511711 0 0.41197201593680571 -0.15604151423850721 0 0.40889269949841323 -0.19239402066931099 0 0.40495478824104281 -0.18076513101769351 0 0.41694337300124018 -0.18248348812511711 0 0.41694337300124018 -0.18248348812511711 0 0.43239047874415681 -0.18172421289349161 0 0.43090699031146079 -0.1661698681037394 0 0.43542579586548552 -0.1970866202458213 0 0.41694337300124018 -0.18248348812511711 0 0.43239047874415681 -0.18172421289349161 0 0.43239047874415681 -0.18172421289349161 0 0.43090699031146079 -0.1661698681037394 0 0.44628575579844088 -0.18115687509928891 0 0.41694337300124018 -0.18248348812511711 0 0.43090699031146079 -0.1661698681037394 0 0.41197201593680571 -0.15604151423850721 0 0.40495478824104281 -0.18076513101769351 0 0.41197201593680571 -0.15604151423850721 0 0.41197201593680571 -0.15604151423850721 0 0.41898924363256862 -0.1313178974593209 0 0.40251989831697982 -0.1392946288704677 0 0.41197201593680571 -0.15604151423850721 0 0.41898924363256862 -0.1313178974593209 0 0.43090699031146079 -0.1661698681037394 0 0.41197201593680571 -0.15604151423850721 0 0.43889304721932848 -0.1417487713121669 0 0.41197201593680571 -0.15604151423850721 0 0.41898924363256862 -0.1313178974593209 0 0.43889304721932848 -0.1417487713121669 0 0.43336998754557932 -0.12159295788546159 0 0.41898924363256862 -0.1313178974593209 0 0.43889304721932848 -0.1417487713121669 0 0.40743141707026292 -0.124186865533741 0 0.40251989831697982 -0.1392946288704677 0 0.41898924363256862 -0.1313178974593209 0 0.43090699031146079 -0.1661698681037394 0 0.43889304721932848 -0.1417487713121669 0 0.46232377108639988 -0.15957809702784731 0 0.44908014038134858 -0.11934201350247341 0 0.46063053461824499 -0.13148793758122421 0 0.43889304721932848 -0.1417487713121669 0 0.44908014038134858 -0.11934201350247341 0 0.43336998754557932 -0.12159295788546159 0 0.43889304721932848 -0.1417487713121669 0 0.46063053461824499 -0.13148793758122421 0 0.46232377108639988 -0.15957809702784731 0 0.478361786374359 -0.1379993189564056 0 0.46063053461824499 -0.13148793758122421 0 0.43889304721932848 -0.1417487713121669 0 0.46232377108639988 -0.15957809702784731 0 0.43090699031146079 -0.1661698681037394 0 0.46232377108639988 -0.15957809702784731 0 0.44628575579844088 -0.18115687509928891 0 0.46232377108639988 -0.15957809702784731 0 0.44628575579844088 -0.18115687509928891 0 0.46773990501541679 -0.173431966344088 0 0.46232377108639988 -0.15957809702784731 0 0.44628575579844088 -0.18115687509928891 0 0.43542579586548552 -0.1970866202458213 0 0.43239047874415681 -0.18172421289349161 0 0.44628575579844088 -0.18115687509928891 0 0.44628575579844088 -0.18115687509928891 0 0.45947881584769928 -0.1844539856022053 0 0.45585314814830108 -0.1940869479227581 0 0.44628575579844088 -0.18115687509928891 0 0.46773990501541679 -0.173431966344088 0 0.45947881584769928 -0.1844539856022053 0 0.46773990501541679 -0.173431966344088 0 0.45947881584769928 -0.1844539856022053 0 0.46803645442863878 -0.1891401530426863 0 0.46773990501541679 -0.173431966344088 0 0.48166437682706359 -0.18714999718388031 0 0.46803645442863878 -0.1891401530426863 0 0.46773990501541679 -0.173431966344088 0 0.48166437682706359 -0.18714999718388031 0 0.48613458826106198 -0.1740068535650634 0 0.48166437682706359 -0.18714999718388031 0 0.48613458826106198 -0.1740068535650634 0 0.5 -0.19050062270313259 0 0.48613458826106198 -0.1740068535650634 0 0.5 -0.16169728793602081 0 0.5 -0.19050062270313259 0 0.48613458826106198 -0.1740068535650634 0 0.5 -0.16169728793602081 0 0.48133444889726679 -0.15695805722928521 0 0.46773990501541679 -0.173431966344088 0 0.48613458826106198 -0.1740068535650634 0 0.48133444889726679 -0.15695805722928521 0 0.46232377108639988 -0.15957809702784731 0 0.46773990501541679 -0.173431966344088 0 0.48133444889726679 -0.15695805722928521 0 0.46232377108639988 -0.15957809702784731 0 0.48133444889726679 -0.15695805722928521 0 0.478361786374359 -0.1379993189564056 0 0.46232377108639988 -0.15957809702784731 0 0.478361786374359 -0.1379993189564056 0 0.5 -0.16169728793602081 0 0.48133444889726679 -0.15695805722928521 0 0.49999999999999989 -0.13289395316890901 0 0.48133444889726679 -0.15695805722928521 0 0.49999999999999989 -0.13289395316890901 0 0.478361786374359 -0.1379993189564056 0 0.49439980166231801 -0.1164205408849641 0 0.49999999999999989 -0.13289395316890901 0 0.478361786374359 -0.1379993189564056 0 0.49439980166231801 -0.1164205408849641 0 0.478361786374359 -0.1379993189564056 0 0.47653335145070691 -0.12429085624092211 0 0.46063053461824499 -0.13148793758122421 0 0.478361786374359 -0.1379993189564056 0 0.47653335145070691 -0.12429085624092211 0 0.49439980166231801 -0.1164205408849641 0 0.478361786374359 -0.1379993189564056 0 0.46281163583790708 -0.22691896218864041 0 0.4564911679213226 -0.240796607187341 0 0.45414616859868162 -0.2143711726255173 0 0.45567963861005478 -0.2130893674896952 0 0.47764726812411079 -0.23044619340633549 0 0.4564911679213226 -0.240796607187341 0 0.45414616859868162 -0.2143711726255173 0 0.46281163583790708 -0.22691896218864041 0 0.45567963861005478 -0.2130893674896952 0 0.47764726812411079 -0.23044619340633549 0 0.46281163583790708 -0.22691896218864041 0 0.4564911679213226 -0.240796607187341 0 0.47002471050903671 -0.24237038266498889 0 0.4564911679213226 -0.240796607187341 0 0.47002471050903671 -0.24237038266498889 0 0.46694279794435539 -0.2539684151340395 0 0.4564911679213226 -0.240796607187341 0 0.43815741487464072 -0.24158193802760419 0 0.44184276068704542 -0.23385979296494749 0 0.4564911679213226 -0.240796607187341 0 0.43815741487464072 -0.24158193802760419 0 0.44775248982484872 -0.2511856764295034 0 0.43360683506758729 -0.2315397008727032 0 0.43815741487464072 -0.24158193802760419 0 0.44184276068704542 -0.23385979296494749 0 0.43360683506758729 -0.2315397008727032 0 0.45414616859868162 -0.2143711726255173 0 0.43360683506758729 -0.2315397008727032 0 0.44826832874911482 -0.2282095387047009 0 0.45414616859868162 -0.2143711726255173 0 0.43360683506758729 -0.2315397008727032 0 0.44184276068704542 -0.23385979296494749 0 0.44826832874911482 -0.2282095387047009 0 0.4564911679213226 -0.240796607187341 0 0.44826832874911482 -0.2282095387047009 0 0.45414616859868162 -0.2143711726255173 0 0.43360683506758729 -0.2315397008727032 0 0.44549303039537319 -0.2137877861660443 0 0.45414616859868162 -0.2143711726255173 0 0.43434097378144582 -0.2147673009259394 0 0.43360683506758729 -0.2315397008727032 0 0.44549303039537319 -0.2137877861660443 0 0.4564911679213226 -0.240796607187341 0 0.44184276068704542 -0.23385979296494749 0 0.44826832874911482 -0.2282095387047009 0 0.43542579586548552 -0.1970866202458213 0 0.45390821872973042 -0.2116897523665261 0 0.43542579586548552 -0.1970866202458213 0 0.44549303039537319 -0.2137877861660443 0 0.45390821872973042 -0.2116897523665261 0 0.43542579586548552 -0.1970866202458213 0 0.45390821872973042 -0.2116897523665261 0 0.45323528539930841 -0.20351332795013041 0 0.43542579586548552 -0.1970866202458213 0 0.43434097378144582 -0.2147673009259394 0 0.44549303039537319 -0.2137877861660443 0 0.44549303039537319 -0.2137877861660443 0 0.45414616859868162 -0.2143711726255173 0 0.45390821872973042 -0.2116897523665261 0 0.43542579586548552 -0.1970866202458213 0 0.45585314814830108 -0.1940869479227581 0 0.45323528539930841 -0.20351332795013041 0 0.43542579586548552 -0.1970866202458213 0 0.44628575579844088 -0.18115687509928891 0 0.45585314814830108 -0.1940869479227581 0 0.45585314814830108 -0.1940869479227581 0 0.45323528539930841 -0.20351332795013041 0 0.46157585999248929 -0.2037192833380245 0 0.45585314814830108 -0.1940869479227581 0 0.46672709550996938 -0.1991562341445309 0 0.46157585999248929 -0.2037192833380245 0 0.45585314814830108 -0.1940869479227581 0 0.46672709550996938 -0.1991562341445309 0 0.46803645442863878 -0.1891401530426863 0 0.45947881584769928 -0.1844539856022053 0 0.45585314814830108 -0.1940869479227581 0 0.46803645442863878 -0.1891401530426863 0 0.45567963861005478 -0.2130893674896952 0 0.46857109200588309 -0.21003957961084771 0 0.47764726812411079 -0.23044619340633549 0 0.46281163583790708 -0.22691896218864041 0 0.45414616859868162 -0.2143711726255173 0 0.45567963861005478 -0.2130893674896952 0 0.45567963861005478 -0.2130893674896952 0 0.4567213287931367 -0.21033112049055211 0 0.45962060514399322 -0.20979517125120981 0 0.45567963861005478 -0.2130893674896952 0 0.45962060514399322 -0.20979517125120981 0 0.45414616859868162 -0.2143711726255173 0 0.45390821872973042 -0.2116897523665261 0 0.45414616859868162 -0.2143711726255173 0 0.45567963861005478 -0.2130893674896952 0 0.45390821872973042 -0.2116897523665261 0 0.45414616859868162 -0.2143711726255173 0 0.45567963861005478 -0.2130893674896952 0 0.45567963861005478 -0.2130893674896952 0 0.45390821872973042 -0.2116897523665261 0 0.4567213287931367 -0.21033112049055211 0 0.45567963861005478 -0.2130893674896952 0 0.45390821872973042 -0.2116897523665261 0 0.45390821872973042 -0.2116897523665261 0 0.45532241445919369 -0.20840586880977471 0 0.45323528539930841 -0.20351332795013041 0 0.45323528539930841 -0.20351332795013041 0 0.45761361027031139 -0.2065356203847816 0 0.46157585999248929 -0.2037192833380245 0 0.45532241445919369 -0.20840586880977471 0 0.4567213287931367 -0.21033112049055211 0 0.45761361027031139 -0.2065356203847816 0 0.45390821872973042 -0.2116897523665261 0 0.45532241445919369 -0.20840586880977471 0 0.4567213287931367 -0.21033112049055211 0 0.45532241445919369 -0.20840586880977471 0 0.45323528539930841 -0.20351332795013041 0 0.45761361027031139 -0.2065356203847816 0 0.45761361027031139 -0.2065356203847816 0 0.45962060514399322 -0.20979517125120981 0 0.46157585999248929 -0.2037192833380245 0 0.4567213287931367 -0.21033112049055211 0 0.45761361027031139 -0.2065356203847816 0 0.45962060514399322 -0.20979517125120981 0 0.46672709550996938 -0.1991562341445309 0 0.46857109200588309 -0.21003957961084771 0 0.46157585999248929 -0.2037192833380245 0 0.45962060514399322 -0.20979517125120981 0 0.46857109200588309 -0.21003957961084771 0 0.46157585999248929 -0.2037192833380245 0 0.45567963861005478 -0.2130893674896952 0 0.45962060514399322 -0.20979517125120981 0 0.46857109200588309 -0.21003957961084771 0 0.46857109200588309 -0.21003957961084771 0 0.48103312429368372 -0.21401638129576039 0 0.47764726812411079 -0.23044619340633549 0 0.46857109200588309 -0.21003957961084771 0 0.48103312429368372 -0.21401638129576039 0 0.47771405236688019 -0.20005442635037801 0 0.48103312429368372 -0.21401638129576039 0 0.47771405236688019 -0.20005442635037801 0 0.48680356205507969 -0.20630323543328641 0 0.48166437682706359 -0.18714999718388031 0 0.46803645442863878 -0.1891401530426863 0 0.47771405236688019 -0.20005442635037801 0 0.46672709550996938 -0.1991562341445309 0 0.46803645442863878 -0.1891401530426863 0 0.47771405236688019 -0.20005442635037801 0 0.46672709550996938 -0.1991562341445309 0 0.46857109200588309 -0.21003957961084771 0 0.47771405236688019 -0.20005442635037801 0 0.48166437682706359 -0.18714999718388031 0 0.47771405236688019 -0.20005442635037801 0 0.49036126089038379 -0.19576596109793379 0 0.5 -0.19050062270313259 0 0.49036126089038379 -0.19576596109793379 0 0.5 -0.2193039574702447 0 0.48166437682706359 -0.18714999718388031 0 0.5 -0.19050062270313259 0 0.49036126089038379 -0.19576596109793379 0 0.47771405236688019 -0.20005442635037801 0 0.49036126089038379 -0.19576596109793379 0 0.48680356205507969 -0.20630323543328641 0 0.49036126089038379 -0.19576596109793379 0 0.49498807926427602 -0.2217844902104544 0 0.5 -0.2193039574702447 0 0.49036126089038379 -0.19576596109793379 0 0.48680356205507969 -0.20630323543328641 0 0.49498807926427602 -0.2217844902104544 0 0.49036126089038379 -0.19576596109793379 0 0.49498807926427602 -0.2217844902104544 0 0.48103312429368372 -0.21401638129576039 0 0.48709259895370949 -0.21666845260646639 0 0.48680356205507969 -0.20630323543328641 0 0.48709259895370949 -0.21666845260646639 0 0.48680356205507969 -0.20630323543328641 0 0.49498807926427602 -0.2217844902104544 0 0.48103312429368372 -0.21401638129576039 0 0.48709259895370949 -0.21666845260646639 0 0.48623621217446761 -0.22291908768660701 0 0.49498807926427602 -0.2217844902104544 0 0.5 -0.2193039574702447 0 0.49961489763816719 -0.24780301932297541 0 0.49498807926427602 -0.2217844902104544 0 0.4890860791603921 -0.22769642440953239 0 0.49312863704430859 -0.23454430248677829 0 0.4890860791603921 -0.22769642440953239 0 0.47764726812411079 -0.23044619340633549 0 0.49312863704430859 -0.23454430248677829 0 0.48709259895370949 -0.21666845260646639 0 0.49498807926427602 -0.2217844902104544 0 0.48623621217446761 -0.22291908768660701 0 0.49498807926427602 -0.2217844902104544 0 0.4890860791603921 -0.22769642440953239 0 0.48623621217446761 -0.22291908768660701 0 0.48103312429368372 -0.21401638129576039 0 0.48623621217446761 -0.22291908768660701 0 0.47764726812411079 -0.23044619340633549 0 0.4890860791603921 -0.22769642440953239 0 0.48623621217446761 -0.22291908768660701 0 0.47764726812411079 -0.23044619340633549 0 0.46281163583790708 -0.22691896218864041 0 0.47764726812411079 -0.23044619340633549 0 0.47002471050903671 -0.24237038266498889 0 0.47002471050903671 -0.24237038266498889 0 0.48219468396025811 -0.24422840326976489 0 0.47728713212786977 -0.25368376242546642 0 0.47764726812411079 -0.23044619340633549 0 0.47002471050903671 -0.24237038266498889 0 0.48219468396025811 -0.24422840326976489 0 0.48219468396025811 -0.24422840326976489 0 0.4888458391900205 -0.25083509407788712 0 0.47728713212786977 -0.25368376242546642 0 0.49498807926427602 -0.2217844902104544 0 0.49961489763816719 -0.24780301932297541 0 0.47764726812411079 -0.23044619340633549 0 0.49961489763816719 -0.24780301932297541 0 0.47764726812411079 -0.23044619340633549 0 0.49312863704430859 -0.23454430248677829 0 0.49961489763816719 -0.24780301932297541 0 0.47764726812411079 -0.23044619340633549 0 0.48219468396025811 -0.24422840326976489 0 0.49961489763816719 -0.24780301932297541 0 0.49498807926427602 -0.2217844902104544 0 0.49312863704430859 -0.23454430248677829 0 0.49961489763816719 -0.24780301932297541 0 0.48219468396025811 -0.24422840326976489 0 0.49961489763816719 -0.24780301932297541 0 0.4888458391900205 -0.25083509407788712 0 0.4999999999999995 -0.2499686104923049 0 0.49961489763816719 -0.24780301932297541 0 0.4888458391900205 -0.25083509407788712 0 0.4999999999999995 -0.2499686104923049 0 0.48605759668809922 -0.26225579851558189 0 0.5 -0.27503032629580249 0 0.4999999999999995 -0.2499686104923049 0 0.48605759668809922 -0.26225579851558189 0 0.4888458391900205 -0.25083509407788712 0 0.48605759668809922 -0.26225579851558189 0 0.5 -0.27503032629580249 0 0.47795443918311642 -0.27884224694717052 0 0.5 -0.27503032629580249 0 0.47795443918311642 -0.27884224694717052 0 0.48780457410942818 -0.28967366485625778 0 0.48605759668809922 -0.26225579851558189 0 0.47795443918311642 -0.27884224694717052 0 0.47207481191958628 -0.26576928164323599 0 0.47795443918311642 -0.27884224694717052 0 0.47207481191958628 -0.26576928164323599 0 0.468753970707384 -0.27930518966332768 0 0.48605759668809922 -0.26225579851558189 0 0.4888458391900205 -0.25083509407788712 0 0.47728713212786977 -0.25368376242546642 0 0.48605759668809922 -0.26225579851558189 0 0.47207481191958628 -0.26576928164323599 0 0.47728713212786977 -0.25368376242546642 0 0.47207481191958628 -0.26576928164323599 0 0.47728713212786977 -0.25368376242546642 0 0.46694279794435539 -0.2539684151340395 0 0.47002471050903671 -0.24237038266498889 0 0.47728713212786977 -0.25368376242546642 0 0.46694279794435539 -0.2539684151340395 0 0.4564911679213226 -0.240796607187341 0 0.46694279794435539 -0.2539684151340395 0 0.45883616724396148 -0.26722204174916497 0 0.4564911679213226 -0.240796607187341 0 0.45883616724396148 -0.26722204174916497 0 0.44775248982484872 -0.2511856764295034 0 0.4564911679213226 -0.240796607187341 0 0.45883616724396148 -0.26722204174916497 0 0.47207481191958628 -0.26576928164323599 0 0.46694279794435539 -0.2539684151340395 0 0.45883616724396148 -0.26722204174916497 0 0.47207481191958628 -0.26576928164323599 0 0.468753970707384 -0.27930518966332768 0 0.45883616724396148 -0.26722204174916497 0 0.45883616724396148 -0.26722204174916497 0 0.46118116656660052 -0.29364747631098892 0 0.468753970707384 -0.27930518966332768 0 0.45883616724396148 -0.26722204174916497 0 0.46118116656660052 -0.29364747631098892 0 0.45883616724396148 -0.26722204174916497 0 0.44585009785836488 -0.26462733404298611 0 0.45354278084208921 -0.28767273005836802 0 0.44221769315977211 -0.28028661850394609 0 0.44585009785836488 -0.26462733404298611 0 0.43457846682035628 -0.2713805204311176 0 0.44221769315977211 -0.28028661850394609 0 0.44585009785836488 -0.26462733404298611 0 0.45354278084208921 -0.28767273005836802 0 0.44585009785836488 -0.26462733404298611 0 0.45354278084208921 -0.28767273005836802 0 0.44585009785836488 -0.26462733404298611 0 0.4322519361834638 -0.2578521890481949 0 0.43457846682035628 -0.2713805204311176 0 0.43815741487464072 -0.24158193802760419 0 0.44585009785836488 -0.26462733404298611 0 0.4322519361834638 -0.2578521890481949 0 0.43815741487464072 -0.24158193802760419 0 0.44775248982484872 -0.2511856764295034 0 0.44585009785836488 -0.26462733404298611 0 0.43815741487464072 -0.24158193802760419 0 0.44585009785836488 -0.26462733404298611 0 0.45883616724396148 -0.26722204174916497 0 0.44775248982484872 -0.2511856764295034 0 0.44585009785836488 -0.26462733404298611 0 0.44952440268042537 -0.30189842691133822 0 0.44869928380749141 -0.31245050840384991 0 0.43990124598866992 -0.30586322985545189 0 0.44869928380749141 -0.31245050840384991 0 0.43990124598866992 -0.30586322985545189 0 0.44027899407070548 -0.3175141007846235 0 0.44952440268042537 -0.30189842691133822 0 0.43990124598866992 -0.30586322985545189 0 0.44284550477265372 -0.29315780077006559 0 0.44221769315977211 -0.28028661850394609 0 0.44284550477265372 -0.29315780077006559 0 0.43331704786469422 -0.28582798324360481 0 0.44221769315977211 -0.28028661850394609 0 0.44284550477265372 -0.29315780077006559 0 0.45354278084208921 -0.28767273005836802 0 0.44952440268042537 -0.30189842691133822 0 0.44284550477265372 -0.29315780077006559 0 0.45354278084208921 -0.28767273005836802 0 0.45883616724396148 -0.26722204174916497 0 0.45354278084208921 -0.28767273005836802 0 0.46118116656660052 -0.29364747631098892 0 0.468753970707384 -0.27930518966332768 0 0.46118116656660052 -0.29364747631098892 0 0.47372326862365488 -0.29104490166607788 0 0.46118116656660052 -0.29364747631098892 0 0.47076747220022819 -0.30343874750190131 0 0.47372326862365488 -0.29104490166607788 0 0.44952440268042537 -0.30189842691133822 0 0.45354278084208921 -0.28767273005836802 0 0.46123546382581349 -0.31071812607374988 0 0.45354278084208921 -0.28767273005836802 0 0.46118116656660052 -0.29364747631098892 0 0.46123546382581349 -0.31071812607374988 0 0.46118116656660052 -0.29364747631098892 0 0.46123546382581349 -0.31071812607374988 0 0.47076747220022819 -0.30343874750190131 0 0.45354278084208921 -0.28767273005836802 0 0.46123546382581349 -0.31071812607374988 0 0.44952440268042537 -0.30189842691133822 0 0.44869928380749141 -0.31245050840384991 0 0.46123546382581349 -0.31071812607374988 0 0.47076747220022819 -0.30343874750190131 0 0.48205354242015802 -0.30400040392779232 0 0.4756439195649142 -0.31778282953089743 0 0.46123546382581349 -0.31071812607374988 0 0.47076747220022819 -0.30343874750190131 0 0.4756439195649142 -0.31778282953089743 0 0.47076747220022819 -0.30343874750190131 0 0.48205354242015802 -0.30400040392779232 0 0.47372326862365488 -0.29104490166607788 0 0.47795443918311642 -0.27884224694717052 0 0.468753970707384 -0.27930518966332768 0 0.47372326862365488 -0.29104490166607788 0 0.48205354242015802 -0.30400040392779232 0 0.47372326862365488 -0.29104490166607788 0 0.48780457410942818 -0.28967366485625778 0 0.47795443918311642 -0.27884224694717052 0 0.47372326862365488 -0.29104490166607788 0 0.48780457410942818 -0.28967366485625778 0 0.5 -0.27503032629580249 0 0.48780457410942818 -0.28967366485625778 0 0.50000000000000067 -0.30009204209930002 0 0.48205354242015802 -0.30400040392779232 0 0.50000000000000067 -0.30009204209930002 0 0.49291456260414651 -0.32091647519784078 0 0.50000000000000067 -0.30009204209930002 0 0.49291456260414651 -0.32091647519784078 0 0.48205354242015802 -0.30400040392779232 0 0.48780457410942818 -0.28967366485625778 0 0.50000000000000067 -0.30009204209930002 0 0.48205354242015802 -0.30400040392779232 0 0.49074860023622963 -0.3272823402679399 0 0.49291456260414651 -0.32091647519784078 0 0.50000000000000067 -0.30009204209930002 0 0.5 -0.3272621936933835 0 0.49291456260414651 -0.32091647519784078 0 0.49074860023622963 -0.3272823402679399 0 0.49291456260414651 -0.32091647519784078 0 0.5 -0.3272621936933835 0 0.49291456260414651 -0.32091647519784078 0 0.495513532305279 -0.34122584097677661 0 0.49074860023622963 -0.3272823402679399 0 0.49291456260414651 -0.32091647519784078 0 0.495513532305279 -0.34122584097677661 0 0.5 -0.3272621936933835 0 0.495513532305279 -0.34122584097677661 0 0.5 -0.35443234528746681 0 0.49074860023622963 -0.3272823402679399 0 0.495513532305279 -0.34122584097677661 0 0.48149720047245897 -0.35447263843658022 0 0.49074860023622963 -0.3272823402679399 0 0.48149720047245897 -0.35447263843658022 0 0.49291456260414651 -0.32091647519784078 0 0.495513532305279 -0.34122584097677661 0 0.49074860023622963 -0.3272823402679399 0 0.46892814680953782 -0.33376352208913179 0 0.48149720047245897 -0.35447263843658022 0 0.49074860023622963 -0.3272823402679399 0 0.46892814680953782 -0.33376352208913179 0 0.4756439195649142 -0.31778282953089743 0 0.48205354242015802 -0.30400040392779232 0 0.49074860023622963 -0.3272823402679399 0 0.4756439195649142 -0.31778282953089743 0 0.49775676615263942 -0.36141416892916328 0 0.49999999999999989 -0.38160249688155012 0 0.49109237685982809 -0.3705379094156947 0 0.49775676615263942 -0.36141416892916328 0 0.49999999999999989 -0.38160249688155012 0 0.49775676615263942 -0.36141416892916328 0 0.5 -0.35443234528746681 0 0.49999999999999989 -0.38160249688155012 0 0.48448892520123832 -0.36997858719444782 0 0.49109237685982809 -0.3705379094156947 0 0.48450849960130332 -0.38164315905203411 0 0.49109237685982809 -0.3705379094156947 0 0.49775676615263942 -0.36141416892916328 0 0.48901952712811347 -0.35812935788710337 0 0.48448892520123832 -0.36997858719444782 0 0.49109237685982809 -0.3705379094156947 0 0.48901952712811347 -0.35812935788710337 0 0.48448892520123832 -0.36997858719444782 0 0.48901952712811347 -0.35812935788710337 0 0.48149720047245897 -0.35447263843658022 0 0.495513532305279 -0.34122584097677661 0 0.49775676615263942 -0.36141416892916328 0 0.5 -0.35443234528746681 0 0.495513532305279 -0.34122584097677661 0 0.48901952712811347 -0.35812935788710337 0 0.48149720047245897 -0.35447263843658022 0 0.495513532305279 -0.34122584097677661 0 0.49775676615263942 -0.36141416892916328 0 0.48901952712811347 -0.35812935788710337 0 0.495513532305279 -0.34122584097677661 0 0.49775676615263942 -0.36141416892916328 0 0.46892814680953782 -0.33376352208913179 0 0.48149720047245897 -0.35447263843658022 0 0.46476421725194811 -0.35406090527130379 0 0.48448892520123832 -0.36997858719444782 0 0.48149720047245897 -0.35447263843658022 0 0.4726611348686709 -0.38044225001313919 0 0.48149720047245897 -0.35447263843658022 0 0.4726611348686709 -0.38044225001313919 0 0.46051322931189032 -0.37517803279947659 0 0.48149720047245897 -0.35447263843658022 0 0.46051322931189032 -0.37517803279947659 0 0.48149720047245897 -0.35447263843658022 0 0.46476421725194811 -0.35406090527130379 0 0.46051322931189032 -0.37517803279947659 0 0.48149720047245897 -0.35447263843658022 0 0.4726611348686709 -0.38044225001313919 0 0.4545198295287009 -0.36350385789299128 0 0.46476421725194811 -0.35406090527130379 0 0.46051322931189032 -0.37517803279947659 0 0.45599071010687747 -0.37267340687585621 0 0.4545198295287009 -0.36350385789299128 0 0.46051322931189032 -0.37517803279947659 0 0.46892814680953782 -0.33376352208913179 0 0.46476421725194811 -0.35406090527130379 0 0.45830198770178338 -0.34370613428157709 0 0.4545198295287009 -0.36350385789299128 0 0.45598803376037522 -0.35439209245249848 0 0.46476421725194811 -0.35406090527130379 0 0.45598803376037522 -0.35439209245249848 0 0.45021425568777018 -0.35010552407756579 0 0.45830198770178338 -0.34370613428157709 0 0.45598803376037522 -0.35439209245249848 0 0.46476421725194811 -0.35406090527130379 0 0.45830198770178338 -0.34370613428157709 0 0.45021425568777018 -0.35010552407756579 0 0.45830198770178338 -0.34370613428157709 0 0.44662542531592592 -0.34218517386580399 0 0.45021425568777018 -0.35010552407756579 0 0.44182036581599021 -0.35314085611279722 0 0.44662542531592592 -0.34218517386580399 0 0.44182036581599021 -0.35314085611279722 0 0.44662542531592592 -0.34218517386580399 0 0.43705364604902552 -0.34550432734917741 0 0.44182036581599021 -0.35314085611279722 0 0.44029651791182839 -0.36238461310929643 0 0.43354409728595089 -0.35795786324021961 0 0.44182036581599021 -0.35314085611279722 0 0.44833546584477579 -0.35710336367515227 0 0.44029651791182839 -0.36238461310929643 0 0.45021425568777018 -0.35010552407756579 0 0.44182036581599021 -0.35314085611279722 0 0.44833546584477579 -0.35710336367515227 0 0.4545198295287009 -0.36350385789299128 0 0.45598803376037522 -0.35439209245249848 0 0.44833546584477579 -0.35710336367515227 0 0.45598803376037522 -0.35439209245249848 0 0.45021425568777018 -0.35010552407756579 0 0.44833546584477579 -0.35710336367515227 0 0.45599071010687747 -0.37267340687585621 0 0.44029651791182839 -0.36238461310929643 0 0.44404389214908868 -0.37096132492388761 0 0.45599071010687747 -0.37267340687585621 0 0.4545198295287009 -0.36350385789299128 0 0.44029651791182839 -0.36238461310929643 0 0.45599071010687747 -0.37267340687585621 0 0.44029651791182839 -0.36238461310929643 0 0.4545198295287009 -0.36350385789299128 0 0.44833546584477579 -0.35710336367515227 0 0.44029651791182839 -0.36238461310929643 0 0.44404389214908868 -0.37096132492388761 0 0.43612617841829998 -0.37106238366048161 0 0.44376216215934933 -0.37772489604991621 0 0.44029651791182839 -0.36238461310929643 0 0.44404389214908868 -0.37096132492388761 0 0.43612617841829998 -0.37106238366048161 0 0.45599071010687747 -0.37267340687585621 0 0.44404389214908868 -0.37096132492388761 0 0.44376216215934933 -0.37772489604991621 0 0.44869928380749141 -0.31245050840384991 0 0.46123546382581349 -0.31071812607374988 0 0.44976084414102407 -0.32699917960367447 0 0.46123546382581349 -0.31071812607374988 0 0.46892814680953782 -0.33376352208913179 0 0.46123546382581349 -0.31071812607374988 0 0.46892814680953782 -0.33376352208913179 0 0.44976084414102407 -0.32699917960367447 0 0.46123546382581349 -0.31071812607374988 0 0.46892814680953782 -0.33376352208913179 0 0.4756439195649142 -0.31778282953089743 0 0.46892814680953782 -0.33376352208913179 0 0.45830198770178338 -0.34370613428157709 0 0.44976084414102407 -0.32699917960367447 0 0.45830198770178338 -0.34370613428157709 0 0.44662542531592592 -0.34218517386580399 0 0.44976084414102407 -0.32699917960367447 0 0.43859372457388868 -0.33601231874156667 0 0.44976084414102407 -0.32699917960367447 0 0.43274251513285328 -0.32722867282005752 0 0.44662542531592592 -0.34218517386580399 0 0.43859372457388868 -0.33601231874156667 0 0.43705364604902552 -0.34550432734917741 0 0.44662542531592592 -0.34218517386580399 0 0.43859372457388868 -0.33601231874156667 0 0.44976084414102407 -0.32699917960367447 0 0.44976084414102407 -0.32699917960367447 0 0.44027899407070548 -0.3175141007846235 0 0.43274251513285328 -0.32722867282005752 0 0.44869928380749141 -0.31245050840384991 0 0.44976084414102407 -0.32699917960367447 0 0.44027899407070548 -0.3175141007846235 0 0.44027899407070548 -0.3175141007846235 0 0.43122570205629451 -0.31253385072714229 0 0.43274251513285328 -0.32722867282005752 0 0.42678619223061498 -0.33814424006911992 0 0.4185554315480029 -0.31469184139473633 0 0.43274251513285328 -0.32722867282005752 0 0.42678619223061498 -0.33814424006911992 0 0.4185554315480029 -0.31469184139473633 0 0.43122570205629451 -0.31253385072714229 0 0.43274251513285328 -0.32722867282005752 0 0.4185554315480029 -0.31469184139473633 0 0.43274251513285328 -0.32722867282005752 0 0.42678619223061498 -0.33814424006911992 0 0.43859372457388868 -0.33601231874156667 0 0.43274251513285328 -0.32722867282005752 0 0.42678619223061498 -0.33814424006911992 0 0.43859372457388868 -0.33601231874156667 0 0.42678619223061498 -0.33814424006911992 0 0.43705364604902552 -0.34550432734917741 0 0.42060365341938882 -0.34947437096893008 0 0.39913168916268449 -0.33539778714387308 0 0.42678619223061498 -0.33814424006911992 0 0.41368194144927412 -0.33686583733054293 0 0.40896903125043871 -0.32534734138883648 0 0.41368194144927412 -0.33686583733054293 0 0.42060365341938882 -0.34947437096893008 0 0.39913168916268449 -0.33539778714387308 0 0.42678619223061498 -0.33814424006911992 0 0.41368194144927412 -0.33686583733054293 0 0.42060365341938882 -0.34947437096893008 0 0.41368194144927412 -0.33686583733054293 0 0.40896903125043871 -0.32534734138883648 0 0.39913168916268449 -0.33539778714387308 0 0.40896903125043871 -0.32534734138883648 0 0.4185554315480029 -0.31469184139473633 0 0.39752776804138079 -0.31442974565784843 0 0.42678619223061498 -0.33814424006911992 0 0.40896903125043871 -0.32534734138883648 0 0.4185554315480029 -0.31469184139473633 0 0.42674309575933678 -0.37075734515052039 0 0.43612617841829998 -0.37106238366048161 0 0.42952125334710167 -0.38158152941318801 0 0.42674309575933678 -0.37075734515052039 0 0.43612617841829998 -0.37106238366048161 0 0.43103303028626849 -0.36324025018013922 0 0.44029651791182839 -0.36238461310929643 0 0.43612617841829998 -0.37106238366048161 0 0.43103303028626849 -0.36324025018013922 0 0.44029651791182839 -0.36238461310929643 0 0.43103303028626849 -0.36324025018013922 0 0.43354409728595089 -0.35795786324021961 0 0.44029651791182839 -0.36238461310929643 0 0.43354409728595089 -0.35795786324021961 0 0.43103303028626849 -0.36324025018013922 0 0.42413127557690189 -0.36620248980155973 0 0.42460232571677797 -0.35209581934273843 0 0.42674309575933678 -0.37075734515052039 0 0.43103303028626849 -0.36324025018013922 0 0.42413127557690189 -0.36620248980155973 0 0.42678619223061498 -0.33814424006911992 0 0.43354409728595089 -0.35795786324021961 0 0.42764552202955008 -0.34434767382247022 0 0.42678619223061498 -0.33814424006911992 0 0.43354409728595089 -0.35795786324021961 0 0.42678619223061498 -0.33814424006911992 0 0.43354409728595089 -0.35795786324021961 0 0.43705364604902552 -0.34550432734917741 0 0.42460232571677797 -0.35209581934273843 0 0.43354409728595089 -0.35795786324021961 0 0.43103303028626849 -0.36324025018013922 0 0.42460232571677797 -0.35209581934273843 0 0.43354409728595089 -0.35795786324021961 0 0.44182036581599021 -0.35314085611279722 0 0.43354409728595089 -0.35795786324021961 0 0.43705364604902552 -0.34550432734917741 0 0.42460232571677797 -0.35209581934273843 0 0.43354409728595089 -0.35795786324021961 0 0.42764552202955008 -0.34434767382247022 0 0.42678619223061498 -0.33814424006911992 0 0.42060365341938882 -0.34947437096893008 0 0.42678619223061498 -0.33814424006911992 0 0.42764552202955008 -0.34434767382247022 0 0.42060365341938882 -0.34947437096893008 0 0.42460232571677797 -0.35209581934273843 0 0.42764552202955008 -0.34434767382247022 0 0.42460232571677797 -0.35209581934273843 0 0.42764552202955008 -0.34434767382247022 0 0.42060365341938882 -0.34947437096893008 0 0.42460232571677797 -0.35209581934273843 0 0.42060365341938882 -0.34947437096893008 0 0.42060365341938882 -0.34947437096893008 0 0.41025770788130911 -0.35457254430346219 0 0.40856572234137029 -0.37153510346755431 0 0.42460232571677797 -0.35209581934273843 0 0.42060365341938882 -0.34947437096893008 0 0.40856572234137029 -0.37153510346755431 0 0.42060365341938882 -0.34947437096893008 0 0.41025770788130911 -0.35457254430346219 0 0.39913168916268449 -0.33539778714387308 0 0.42460232571677797 -0.35209581934273843 0 0.40856572234137029 -0.37153510346755431 0 0.41414665054522448 -0.37871654453284109 0 0.41025770788130911 -0.35457254430346219 0 0.40856572234137029 -0.37153510346755431 0 0.40500664434922162 -0.36156673998925271 0 0.42460232571677797 -0.35209581934273843 0 0.41414665054522448 -0.37871654453284109 0 0.42060365341938882 -0.34947437096893008 0 0.40856572234137029 -0.37153510346755431 0 0.42413127557690189 -0.36620248980155973 0 0.42460232571677797 -0.35209581934273843 0 0.41414665054522448 -0.37871654453284109 0 0.42674309575933678 -0.37075734515052039 0 0.42413127557690189 -0.36620248980155973 0 0.41414665054522448 -0.37871654453284109 0 0.39820804949476202 -0.36543282168027019 0 0.38863394510417443 -0.37241944101563751 0 0.39542971533391941 -0.37771130353363541 0 0.40856572234137029 -0.37153510346755431 0 0.39820804949476202 -0.36543282168027019 0 0.39542971533391941 -0.37771130353363541 0 0.40500664434922162 -0.36156673998925271 0 0.39820804949476202 -0.36543282168027019 0 0.4010539406257615 -0.35470547632930188 0 0.40856572234137029 -0.37153510346755431 0 0.40500664434922162 -0.36156673998925271 0 0.39820804949476202 -0.36543282168027019 0 0.39820804949476202 -0.36543282168027019 0 0.39000427834965451 -0.35766329202374381 0 0.38863394510417443 -0.37241944101563751 0 0.41025770788130911 -0.35457254430346219 0 0.4010539406257615 -0.35470547632930188 0 0.39913168916268449 -0.33539778714387308 0 0.38322448005357468 -0.34570470608457432 0 0.39000427834965451 -0.35766329202374381 0 0.39913168916268449 -0.33539778714387308 0 0.4010539406257615 -0.35470547632930188 0 0.39000427834965451 -0.35766329202374381 0 0.39913168916268449 -0.33539778714387308 0 0.39820804949476202 -0.36543282168027019 0 0.4010539406257615 -0.35470547632930188 0 0.39000427834965451 -0.35766329202374381 0 0.41025770788130911 -0.35457254430346219 0 0.40500664434922162 -0.36156673998925271 0 0.4010539406257615 -0.35470547632930188 0 0.38322448005357468 -0.34570470608457432 0 0.36977356565697012 -0.37231951988880552 0 0.38322448005357468 -0.34570470608457432 0 0.39000427834965451 -0.35766329202374381 0 0.36977356565697012 -0.37231951988880552 0 0.39000427834965451 -0.35766329202374381 0 0.38863394510417443 -0.37241944101563751 0 0.36977356565697012 -0.37231951988880552 0 0.39752776804138079 -0.31442974565784843 0 0.39913168916268449 -0.33539778714387308 0 0.37765972490598049 -0.32132120331881581 0 0.40896903125043871 -0.32534734138883648 0 0.39752776804138079 -0.31442974565784843 0 0.39913168916268449 -0.33539778714387308 0 0.38322448005357468 -0.34570470608457432 0 0.39913168916268449 -0.33539778714387308 0 0.37765972490598049 -0.32132120331881581 0 0.38322448005357468 -0.34570470608457432 0 0.37765972490598049 -0.32132120331881581 0 0.36472043153167077 -0.3371009235910592 0 0.39913168916268449 -0.33539778714387308 0 0.37765972490598049 -0.32132120331881581 0 0.39752776804138079 -0.31442974565784843 0 0.37765972490598049 -0.32132120331881581 0 0.3715668737265399 -0.3034476381112351 0 0.39752776804138079 -0.31442974565784843 0 0.38792929215580779 -0.29100404132019092 0 0.3715668737265399 -0.3034476381112351 0 0.39752776804138079 -0.31442974565784843 0 0.38792929215580779 -0.29100404132019092 0 0.41032467086539132 -0.29123944272035251 0 0.38792929215580779 -0.29100404132019092 0 0.39504246741157301 -0.27819175159468817 0 0.41032467086539132 -0.29123944272035251 0 0.38792929215580779 -0.29100404132019092 0 0.37228297391739329 -0.28427396786919051 0 0.3715668737265399 -0.3034476381112351 0 0.38792929215580779 -0.29100404132019092 0 0.38458240212192002 -0.27404385806348919 0 0.37228297391739329 -0.28427396786919051 0 0.38458240212192002 -0.27404385806348919 0 0.38299299238303858 -0.25738856747900152 0 0.37462254555308883 -0.26932346480905961 0 0.38792929215580779 -0.29100404132019092 0 0.38458240212192002 -0.27404385806348919 0 0.39504246741157301 -0.27819175159468817 0 0.38458240212192002 -0.27404385806348919 0 0.37462254555308883 -0.26932346480905961 0 0.37228297391739329 -0.28427396786919051 0 0.38458240212192002 -0.27404385806348919 0 0.38299299238303858 -0.25738856747900152 0 0.3925281680054003 -0.26587675736707661 0 0.38299299238303858 -0.25738856747900152 0 0.37117659030456479 -0.25039464930686101 0 0.37462254555308883 -0.26932346480905961 0 0.38152004530313322 -0.2477560543852661 0 0.38299299238303858 -0.25738856747900152 0 0.37117659030456479 -0.25039464930686101 0 0.38299299238303858 -0.25738856747900152 0 0.39517251135287917 -0.25389175787244839 0 0.3925281680054003 -0.26587675736707661 0 0.3921013834865843 -0.2435934775238256 0 0.38299299238303858 -0.25738856747900152 0 0.39517251135287917 -0.25389175787244839 0 0.4130675015364938 -0.24870822911988991 0 0.3925281680054003 -0.26587675736707661 0 0.4130675015364938 -0.24870822911988991 0 0.3925281680054003 -0.26587675736707661 0 0.40209391018277962 -0.26778704404596881 0 0.4130675015364938 -0.24870822911988991 0 0.39517251135287917 -0.25389175787244839 0 0.3925281680054003 -0.26587675736707661 0 0.40209391018277962 -0.26778704404596881 0 0.41032467086539132 -0.29123944272035251 0 0.39504246741157301 -0.27819175159468817 0 0.40209391018277962 -0.26778704404596881 0 0.41032467086539132 -0.29123944272035251 0 0.38458240212192002 -0.27404385806348919 0 0.39504246741157301 -0.27819175159468817 0 0.3925281680054003 -0.26587675736707661 0 0.39504246741157301 -0.27819175159468817 0 0.3925281680054003 -0.26587675736707661 0 0.40209391018277962 -0.26778704404596881 0 0.40209391018277962 -0.26778704404596881 0 0.4147657395875558 -0.27344532157927681 0 0.41032467086539132 -0.29123944272035251 0 0.40209391018277962 -0.26778704404596881 0 0.4147657395875558 -0.27344532157927681 0 0.41537599384967611 -0.26295827161063212 0 0.4147657395875558 -0.27344532157927681 0 0.41537599384967611 -0.26295827161063212 0 0.42408262380382489 -0.26773907013232268 0 0.4147657395875558 -0.27344532157927681 0 0.42408262380382489 -0.26773907013232268 0 0.42405592620319971 -0.28126083186920142 0 0.4130675015364938 -0.24870822911988991 0 0.40209391018277962 -0.26778704404596881 0 0.41537599384967611 -0.26295827161063212 0 0.41537599384967611 -0.26295827161063212 0 0.42235926146772518 -0.25663272288337752 0 0.42408262380382489 -0.26773907013232268 0 0.4278885898259821 -0.24726295599035389 0 0.4130675015364938 -0.24870822911988991 0 0.42235926146772518 -0.25663272288337752 0 0.4130675015364938 -0.24870822911988991 0 0.41537599384967611 -0.26295827161063212 0 0.42235926146772518 -0.25663272288337752 0 0.4278885898259821 -0.24726295599035389 0 0.42235926146772518 -0.25663272288337752 0 0.4322519361834638 -0.2578521890481949 0 0.42235926146772518 -0.25663272288337752 0 0.4322519361834638 -0.2578521890481949 0 0.42408262380382489 -0.26773907013232268 0 0.42408262380382489 -0.26773907013232268 0 0.43457846682035628 -0.2713805204311176 0 0.42405592620319971 -0.28126083186920142 0 0.4322519361834638 -0.2578521890481949 0 0.42408262380382489 -0.26773907013232268 0 0.43457846682035628 -0.2713805204311176 0 0.44221769315977211 -0.28028661850394609 0 0.43457846682035628 -0.2713805204311176 0 0.43331704786469422 -0.28582798324360481 0 0.43457846682035628 -0.2713805204311176 0 0.43331704786469422 -0.28582798324360481 0 0.42405592620319971 -0.28126083186920142 0 0.43331704786469422 -0.28582798324360481 0 0.42405592620319971 -0.28126083186920142 0 0.42726700827737568 -0.29793265310853417 0 0.44284550477265372 -0.29315780077006559 0 0.43331704786469422 -0.28582798324360481 0 0.42726700827737568 -0.29793265310853417 0 0.43990124598866992 -0.30586322985545189 0 0.44284550477265372 -0.29315780077006559 0 0.42726700827737568 -0.29793265310853417 0 0.43122570205629451 -0.31253385072714229 0 0.4185554315480029 -0.31469184139473633 0 0.42726700827737568 -0.29793265310853417 0 0.43990124598866992 -0.30586322985545189 0 0.44027899407070548 -0.3175141007846235 0 0.43122570205629451 -0.31253385072714229 0 0.43990124598866992 -0.30586322985545189 0 0.43122570205629451 -0.31253385072714229 0 0.42726700827737568 -0.29793265310853417 0 0.4185554315480029 -0.31469184139473633 0 0.42726700827737568 -0.29793265310853417 0 0.41032467086539132 -0.29123944272035251 0 0.4185554315480029 -0.31469184139473633 0 0.39752776804138079 -0.31442974565784843 0 0.41032467086539132 -0.29123944272035251 0 0.4185554315480029 -0.31469184139473633 0 0.41032467086539132 -0.29123944272035251 0 0.42405592620319971 -0.28126083186920142 0 0.42726700827737568 -0.29793265310853417 0 0.41032467086539132 -0.29123944272035251 0 0.4147657395875558 -0.27344532157927681 0 0.42405592620319971 -0.28126083186920142 0 0.41032467086539132 -0.29123944272035251 0 0.43873300126457643 -0.48808025789196691 0 0.5 -0.5 0 0.41852363859958741 -0.49999999999999778 0 0.43873300126457643 -0.48808025789196691 0 0.45915533417638399 -0.47603490319234182 0 0.5 -0.5 0 0.43873300126457643 -0.48808025789196691 0 0.45915533417638399 -0.47603490319234182 0 0.43873300126457643 -0.48808025789196691 0 0.45915533417638399 -0.47603490319234182 0 0.44366569848226661 -0.46620052653634692 0 0.5 -0.5 0 0.47957766708819261 -0.46398954849271828 0 0.50000000000000089 -0.45194419379309458 0 0.45915533417638399 -0.47603490319234182 0 0.5 -0.5 0 0.47957766708819261 -0.46398954849271828 0 0.45915533417638399 -0.47603490319234182 0 0.47957766708819261 -0.46398954849271828 0 0.47957766708819261 -0.46398954849271828 0 0.50000000000000089 -0.45194419379309458 0 0.47957766708819261 -0.46398954849271828 0 0.50000000000000089 -0.45194419379309458 0 0.48062228335777268 -0.44121506790994203 0 0.50000000000000089 -0.45194419379309458 0 0.48062228335777268 -0.44121506790994203 0 0.5 -0.42849696148924632 0 0.47957766708819261 -0.46398954849271828 0 0.48062228335777268 -0.44121506790994203 0 0.45992616414271248 -0.45361323180417579 0 0.48062228335777268 -0.44121506790994203 0 0.45992616414271248 -0.45361323180417579 0 0.46153451181274208 -0.42934795624931371 0 0.45915533417638399 -0.47603490319234182 0 0.45992616414271248 -0.45361323180417579 0 0.44366569848226661 -0.46620052653634692 0 0.45915533417638399 -0.47603490319234182 0 0.47957766708819261 -0.46398954849271828 0 0.45992616414271248 -0.45361323180417579 0 0.45992616414271248 -0.45361323180417579 0 0.44366569848226661 -0.46620052653634692 0 0.437226417314236 -0.447747184772328 0 0.45992616414271248 -0.45361323180417579 0 0.46153451181274208 -0.42934795624931371 0 0.437226417314236 -0.447747184772328 0 0.43907077621103913 -0.42445322710128269 0 0.46153451181274208 -0.42934795624931371 0 0.437226417314236 -0.447747184772328 0 0.43907077621103913 -0.42445322710128269 0 0.45499967194935192 -0.41008640986449091 0 0.43952925815132049 -0.39588342716237201 0 0.43907077621103913 -0.42445322710128269 0 0.45499967194935192 -0.41008640986449091 0 0.46153451181274208 -0.42934795624931371 0 0.45499967194935192 -0.41008640986449091 0 0.46153451181274208 -0.42934795624931371 0 0.47376861330736231 -0.40670229805570052 0 0.48062228335777268 -0.44121506790994203 0 0.46153451181274208 -0.42934795624931371 0 0.48318508169557539 -0.42216240257792009 0 0.48062228335777268 -0.44121506790994203 0 0.48318508169557539 -0.42216240257792009 0 0.5 -0.42849696148924632 0 0.48318508169557539 -0.42216240257792009 0 0.47376861330736231 -0.40670229805570052 0 0.5 -0.40504972918539822 0 0.48318508169557539 -0.42216240257792009 0 0.5 -0.42849696148924632 0 0.5 -0.40504972918539822 0 0.46153451181274208 -0.42934795624931371 0 0.48318508169557539 -0.42216240257792009 0 0.47376861330736231 -0.40670229805570052 0 0.47376861330736231 -0.40670229805570052 0 0.47344825066658258 -0.39299934004973358 0 0.46109520026429518 -0.39404514075378538 0 0.47376861330736231 -0.40670229805570052 0 0.47344825066658258 -0.39299934004973358 0 0.48612897330043242 -0.39370286185270509 0 0.5 -0.40504972918539822 0 0.48612897330043242 -0.39370286185270509 0 0.49999999999999989 -0.38160249688155012 0 0.47376861330736231 -0.40670229805570052 0 0.5 -0.40504972918539822 0 0.48612897330043242 -0.39370286185270509 0 0.48612897330043242 -0.39370286185270509 0 0.49999999999999989 -0.38160249688155012 0 0.48450849960130332 -0.38164315905203411 0 0.49109237685982809 -0.3705379094156947 0 0.49999999999999989 -0.38160249688155012 0 0.48450849960130332 -0.38164315905203411 0 0.48448892520123832 -0.36997858719444782 0 0.48450849960130332 -0.38164315905203411 0 0.4726611348686709 -0.38044225001313919 0 0.47344825066658258 -0.39299934004973358 0 0.48612897330043242 -0.39370286185270509 0 0.48450849960130332 -0.38164315905203411 0 0.47344825066658258 -0.39299934004973358 0 0.48450849960130332 -0.38164315905203411 0 0.4726611348686709 -0.38044225001313919 0 0.47344825066658258 -0.39299934004973358 0 0.4726611348686709 -0.38044225001313919 0 0.46109520026429518 -0.39404514075378538 0 0.4726611348686709 -0.38044225001313919 0 0.46051322931189032 -0.37517803279947659 0 0.46109520026429518 -0.39404514075378538 0 0.46051322931189032 -0.37517803279947659 0 0.46109520026429518 -0.39404514075378538 0 0.43952925815132049 -0.39588342716237201 0 0.45599071010687747 -0.37267340687585621 0 0.46051322931189032 -0.37517803279947659 0 0.44376216215934933 -0.37772489604991621 0 0.45499967194935192 -0.41008640986449091 0 0.47376861330736231 -0.40670229805570052 0 0.46109520026429518 -0.39404514075378538 0 0.45499967194935192 -0.41008640986449091 0 0.46109520026429518 -0.39404514075378538 0 0.43952925815132049 -0.39588342716237201 0 0.46051322931189032 -0.37517803279947659 0 0.43952925815132049 -0.39588342716237201 0 0.44376216215934933 -0.37772489604991621 0 0.46051322931189032 -0.37517803279947659 0 0.43952925815132049 -0.39588342716237201 0 0.43952925815132049 -0.39588342716237201 0 0.44376216215934933 -0.37772489604991621 0 0.42952125334710167 -0.38158152941318801 0 0.42674309575933678 -0.37075734515052039 0 0.42952125334710167 -0.38158152941318801 0 0.41414665054522448 -0.37871654453284109 0 0.43612617841829998 -0.37106238366048161 0 0.44376216215934933 -0.37772489604991621 0 0.42952125334710167 -0.38158152941318801 0 0.43952925815132049 -0.39588342716237201 0 0.41854528699075078 -0.41658882152526738 0 0.43952925815132049 -0.39588342716237201 0 0.42108668488161372 -0.39562151847132249 0 0.41854528699075078 -0.41658882152526738 0 0.43952925815132049 -0.39588342716237201 0 0.42952125334710167 -0.38158152941318801 0 0.42108668488161372 -0.39562151847132249 0 0.41414665054522448 -0.37871654453284109 0 0.40369097537367121 -0.40533726972294398 0 0.42108668488161372 -0.39562151847132249 0 0.41414665054522448 -0.37871654453284109 0 0.40369097537367121 -0.40533726972294398 0 0.42108668488161372 -0.39562151847132249 0 0.40369097537367121 -0.40533726972294398 0 0.41854528699075078 -0.41658882152526738 0 0.40856572234137029 -0.37153510346755431 0 0.41414665054522448 -0.37871654453284109 0 0.39652779126335191 -0.39359583596617842 0 0.42952125334710167 -0.38158152941318801 0 0.42108668488161372 -0.39562151847132249 0 0.41414665054522448 -0.37871654453284109 0 0.39542971533391941 -0.37771130353363541 0 0.3852130684659385 -0.38557331553853641 0 0.39652779126335191 -0.39359583596617842 0 0.40856572234137029 -0.37153510346755431 0 0.39652779126335191 -0.39359583596617842 0 0.40856572234137029 -0.37153510346755431 0 0.39542971533391941 -0.37771130353363541 0 0.39652779126335191 -0.39359583596617842 0 0.38863394510417443 -0.37241944101563751 0 0.39542971533391941 -0.37771130353363541 0 0.3852130684659385 -0.38557331553853641 0 0.3852130684659385 -0.38557331553853641 0 0.37366364049266221 -0.39462383461382272 0 0.36977356565697012 -0.37231951988880552 0 0.38863394510417443 -0.37241944101563751 0 0.3852130684659385 -0.38557331553853641 0 0.36977356565697012 -0.37231951988880552 0 0.38264812544553051 -0.39976587380787337 0 0.39652779126335191 -0.39359583596617842 0 0.38448986018533338 -0.41565656846480259 0 0.39652779126335191 -0.39359583596617842 0 0.38448986018533338 -0.41565656846480259 0 0.38264812544553051 -0.39976587380787337 0 0.37334626682036642 -0.40937981445602689 0 0.37366364049266221 -0.39462383461382272 0 0.3852130684659385 -0.38557331553853641 0 0.38264812544553051 -0.39976587380787337 0 0.37366364049266221 -0.39462383461382272 0 0.3852130684659385 -0.38557331553853641 0 0.38264812544553051 -0.39976587380787337 0 0.39652779126335191 -0.39359583596617842 0 0.39652779126335191 -0.39359583596617842 0 0.40369097537367121 -0.40533726972294398 0 0.38448986018533338 -0.41565656846480259 0 0.41414665054522448 -0.37871654453284109 0 0.39652779126335191 -0.39359583596617842 0 0.40369097537367121 -0.40533726972294398 0 0.40369097537367121 -0.40533726972294398 0 0.38448986018533338 -0.41565656846480259 0 0.38766422539609652 -0.42508597021646671 0 0.40369097537367121 -0.40533726972294398 0 0.38766422539609652 -0.42508597021646671 0 0.39323530020211872 -0.43195799491304721 0 0.40369097537367121 -0.40533726972294398 0 0.39323530020211872 -0.43195799491304721 0 0.40369097537367121 -0.40533726972294398 0 0.40373034805506031 -0.42071640539688299 0 0.39323530020211872 -0.43195799491304721 0 0.38264812544553051 -0.39976587380787337 0 0.38448986018533338 -0.41565656846480259 0 0.37334626682036642 -0.40937981445602689 0 0.38448986018533338 -0.41565656846480259 0 0.37537227125518802 -0.42389619555465169 0 0.38766422539609652 -0.42508597021646671 0 0.38448986018533338 -0.41565656846480259 0 0.37537227125518802 -0.42389619555465169 0 0.37334626682036642 -0.40937981445602689 0 0.38162477995480759 -0.43341507831901588 0 0.37537227125518802 -0.42389619555465169 0 0.37082603694357558 -0.43636697780704192 0 0.38162477995480759 -0.43341507831901588 0 0.37537227125518802 -0.42389619555465169 0 0.38766422539609652 -0.42508597021646671 0 0.38766422539609652 -0.42508597021646671 0 0.38847726654068632 -0.43178215353636801 0 0.39323530020211872 -0.43195799491304721 0 0.38766422539609652 -0.42508597021646671 0 0.39323530020211872 -0.43195799491304721 0 0.38162477995480759 -0.43341507831901588 0 0.38847726654068632 -0.43178215353636801 0 0.39138476060972233 -0.4366695706969424 0 0.38162477995480759 -0.43341507831901588 0 0.38766422539609652 -0.42508597021646671 0 0.38847726654068632 -0.43178215353636801 0 0.39138476060972233 -0.4366695706969424 0 0.39323530020211872 -0.43195799491304721 0 0.40373034805506031 -0.42071640539688299 0 0.39323530020211872 -0.43195799491304721 0 0.39756131583018223 -0.43729421588816397 0 0.39138476060972233 -0.4366695706969424 0 0.39323530020211872 -0.43195799491304721 0 0.39756131583018223 -0.43729421588816397 0 0.38847726654068632 -0.43178215353636801 0 0.39138476060972233 -0.4366695706969424 0 0.39323530020211872 -0.43195799491304721 0 0.39323530020211872 -0.43195799491304721 0 0.39756131583018223 -0.43729421588816397 0 0.39756131583018223 -0.43729421588816397 0 0.42075471344565341 -0.43653236356767061 0 0.41854528699075078 -0.41658882152526738 0 0.39756131583018223 -0.43729421588816397 0 0.41854528699075078 -0.41658882152526738 0 0.40373034805506031 -0.42071640539688299 0 0.39756131583018223 -0.43729421588816397 0 0.41854528699075078 -0.41658882152526738 0 0.40369097537367121 -0.40533726972294398 0 0.40373034805506031 -0.42071640539688299 0 0.41854528699075078 -0.41658882152526738 0 0.43907077621103913 -0.42445322710128269 0 0.43952925815132049 -0.39588342716237201 0 0.41854528699075078 -0.41658882152526738 0 0.43907077621103913 -0.42445322710128269 0 0.42075471344565341 -0.43653236356767061 0 0.437226417314236 -0.447747184772328 0 0.43907077621103913 -0.42445322710128269 0 0.42075471344565341 -0.43653236356767061 0 0.41854528699075078 -0.41658882152526738 0 0.42075471344565341 -0.43653236356767061 0 0.437226417314236 -0.447747184772328 0 0.41128521097498022 -0.45422289655609832 0 0.44366569848226661 -0.46620052653634692 0 0.437226417314236 -0.447747184772328 0 0.42500910611977821 -0.47115157722403272 0 0.437226417314236 -0.447747184772328 0 0.41128521097498022 -0.45422289655609832 0 0.42500910611977821 -0.47115157722403272 0 0.41128521097498022 -0.45422289655609832 0 0.42500910611977821 -0.47115157722403272 0 0.41128521097498022 -0.45422289655609832 0 0.40363942986582418 -0.46726464195734613 0 0.42500910611977821 -0.47115157722403272 0 0.39756131583018223 -0.43729421588816397 0 0.42075471344565341 -0.43653236356767061 0 0.41128521097498022 -0.45422289655609832 0 0.39756131583018223 -0.43729421588816397 0 0.41128521097498022 -0.45422289655609832 0 0.39756131583018223 -0.43729421588816397 0 0.38058041147830901 -0.45404968693573983 0 0.39584199487468641 -0.4539359111267649 0 0.39756131583018223 -0.43729421588816397 0 0.41128521097498022 -0.45422289655609832 0 0.39584199487468641 -0.4539359111267649 0 0.39138476060972233 -0.4366695706969424 0 0.37823621724642709 -0.44317921130958871 0 0.38058041147830901 -0.45404968693573983 0 0.39138476060972233 -0.4366695706969424 0 0.39756131583018223 -0.43729421588816397 0 0.38058041147830901 -0.45404968693573983 0 0.38162477995480759 -0.43341507831901588 0 0.39138476060972233 -0.4366695706969424 0 0.37823621724642709 -0.44317921130958871 0 0.39756131583018223 -0.43729421588816397 0 0.38058041147830901 -0.45404968693573983 0 0.38162477995480759 -0.43341507831901588 0 0.37823621724642709 -0.44317921130958871 0 0.37082603694357558 -0.43636697780704192 0 0.38058041147830901 -0.45404968693573983 0 0.39584199487468641 -0.4539359111267649 0 0.38617653914147171 -0.47547516932989481 0 0.38058041147830901 -0.45404968693573983 0 0.38617653914147171 -0.47547516932989481 0 0.36359950712643702 -0.47080515798331668 0 0.39584199487468641 -0.4539359111267649 0 0.40363942986582418 -0.46726464195734613 0 0.38617653914147171 -0.47547516932989481 0 0.41128521097498022 -0.45422289655609832 0 0.39584199487468641 -0.4539359111267649 0 0.40363942986582418 -0.46726464195734613 0 0.40363942986582418 -0.46726464195734613 0 0.38617653914147171 -0.47547516932989481 0 0.40681355136788072 -0.48221421714480889 0 0.38617653914147171 -0.47547516932989481 0 0.38894278635508839 -0.5 0 0.36870962880001201 -0.48473544716994449 0 0.38617653914147171 -0.47547516932989481 0 0.38894278635508839 -0.5 0 0.40681355136788072 -0.48221421714480889 0 0.38894278635508839 -0.5 0 0.41852363859958741 -0.49999999999999778 0 0.40681355136788072 -0.48221421714480889 0 0.41852363859958741 -0.49999999999999778 0 0.40681355136788072 -0.48221421714480889 0 0.42500910611977821 -0.47115157722403272 0 0.40363942986582418 -0.46726464195734613 0 0.40681355136788072 -0.48221421714480889 0 0.42500910611977821 -0.47115157722403272 0 0.43873300126457643 -0.48808025789196691 0 0.44366569848226661 -0.46620052653634692 0 0.42500910611977821 -0.47115157722403272 0 0.43873300126457643 -0.48808025789196691 0 0.42500910611977821 -0.47115157722403272 0 0.43873300126457643 -0.48808025789196691 0 0.41852363859958741 -0.49999999999999778 0 0.42500910611977821 -0.47115157722403272 0 0.43873300126457643 -0.48808025789196691 0 0.41852363859958741 -0.49999999999999778 0 0.33452290197507489 -0.5 0 0.30864095575112133 -0.48096195588528878 0 0.30968386983956059 -0.5 0 0.32622239588416169 -0.4735844389345884 0 0.33452290197507489 -0.5 0 0.30864095575112133 -0.48096195588528878 0 0.32622239588416169 -0.4735844389345884 0 0.31464155569349028 -0.45401571705744909 0 0.30864095575112133 -0.48096195588528878 0 0.32622239588416169 -0.4735844389345884 0 0.33971647369703523 -0.4800437753658463 0 0.33991518882850508 -0.46488372808108969 0 0.32622239588416169 -0.4735844389345884 0 0.33971647369703523 -0.4800437753658463 0 0.33452290197507489 -0.5 0 0.33971647369703523 -0.4800437753658463 0 0.33452290197507489 -0.5 0 0.35936193411058931 -0.50000000000000133 0 0.35936193411058931 -0.50000000000000133 0 0.35386520169497943 -0.47518304916575688 0 0.33971647369703523 -0.4800437753658463 0 0.35936193411058931 -0.50000000000000133 0 0.35386520169497943 -0.47518304916575688 0 0.35936193411058931 -0.50000000000000133 0 0.36870962880001201 -0.48473544716994449 0 0.35386520169497943 -0.47518304916575688 0 0.38894278635508839 -0.5 0 0.35936193411058931 -0.50000000000000133 0 0.36870962880001201 -0.48473544716994449 0 0.38617653914147171 -0.47547516932989481 0 0.36870962880001201 -0.48473544716994449 0 0.36359950712643702 -0.47080515798331668 0 0.36870962880001201 -0.48473544716994449 0 0.36359950712643702 -0.47080515798331668 0 0.35386520169497943 -0.47518304916575688 0 0.33971647369703523 -0.4800437753658463 0 0.35386520169497943 -0.47518304916575688 0 0.33991518882850508 -0.46488372808108969 0 0.35386520169497943 -0.47518304916575688 0 0.36421808607756129 -0.45444963861083632 0 0.34836846927936982 -0.45036609833151242 0 0.35386520169497943 -0.47518304916575688 0 0.34836846927936982 -0.45036609833151242 0 0.33991518882850508 -0.46488372808108969 0 0.35386520169497943 -0.47518304916575688 0 0.34836846927936982 -0.45036609833151242 0 0.36359950712643702 -0.47080515798331668 0 0.35386520169497943 -0.47518304916575688 0 0.36421808607756129 -0.45444963861083632 0 0.38058041147830901 -0.45404968693573983 0 0.36359950712643702 -0.47080515798331668 0 0.36421808607756129 -0.45444963861083632 0 0.38058041147830901 -0.45404968693573983 0 0.36359950712643702 -0.47080515798331668 0 0.37823621724642709 -0.44317921130958871 0 0.36421808607756129 -0.45444963861083632 0 0.37082603694357558 -0.43636697780704192 0 0.36421808607756129 -0.45444963861083632 0 0.35927659754800589 -0.43570298558802001 0 0.37082603694357558 -0.43636697780704192 0 0.37823621724642709 -0.44317921130958871 0 0.38058041147830901 -0.45404968693573983 0 0.36421808607756129 -0.45444963861083632 0 0.36421808607756129 -0.45444963861083632 0 0.34836846927936982 -0.45036609833151242 0 0.35927659754800589 -0.43570298558802001 0 0.34836846927936982 -0.45036609833151242 0 0.34287173686376038 -0.42554914749726769 0 0.34836846927936982 -0.45036609833151242 0 0.3322529487067063 -0.44656014060104671 0 0.34287173686376038 -0.42554914749726769 0 0.3322529487067063 -0.44656014060104671 0 0.33991518882850508 -0.46488372808108969 0 0.32825802227821582 -0.45976100616854348 0 0.34836846927936982 -0.45036609833151242 0 0.3322529487067063 -0.44656014060104671 0 0.33991518882850508 -0.46488372808108969 0 0.32622239588416169 -0.4735844389345884 0 0.33991518882850508 -0.46488372808108969 0 0.32825802227821582 -0.45976100616854348 0 0.3322529487067063 -0.44656014060104671 0 0.32825802227821582 -0.45976100616854348 0 0.31464155569349028 -0.45401571705744909 0 0.32622239588416169 -0.4735844389345884 0 0.32825802227821582 -0.45976100616854348 0 0.31464155569349028 -0.45401571705744909 0 0.31464155569349028 -0.45401571705744909 0 0.32556686499301968 -0.42999222534819398 0 0.30770192008082542 -0.4297842000217949 0 0.3322529487067063 -0.44656014060104671 0 0.31464155569349028 -0.45401571705744909 0 0.32556686499301968 -0.42999222534819398 0 0.32556686499301968 -0.42999222534819398 0 0.32002150961112441 -0.41297678088873818 0 0.30770192008082542 -0.4297842000217949 0 0.32002150961112441 -0.41297678088873818 0 0.34287173686376038 -0.42554914749726769 0 0.33756976376940412 -0.4016115067939533 0 0.34287173686376038 -0.42554914749726769 0 0.33756976376940412 -0.4016115067939533 0 0.3322529487067063 -0.44656014060104671 0 0.32556686499301968 -0.42999222534819398 0 0.34287173686376038 -0.42554914749726769 0 0.3322529487067063 -0.44656014060104671 0 0.34287173686376038 -0.42554914749726769 0 0.32556686499301968 -0.42999222534819398 0 0.32002150961112441 -0.41297678088873818 0 0.34287173686376038 -0.42554914749726769 0 0.34287173686376038 -0.42554914749726769 0 0.35927659754800589 -0.43570298558802001 0 0.36207062685090641 -0.4200719317496176 0 0.34836846927936982 -0.45036609833151242 0 0.34287173686376038 -0.42554914749726769 0 0.35927659754800589 -0.43570298558802001 0 0.35927659754800589 -0.43570298558802001 0 0.36688638314941902 -0.42900952267483278 0 0.36207062685090641 -0.4200719317496176 0 0.35927659754800589 -0.43570298558802001 0 0.36688638314941902 -0.42900952267483278 0 0.37082603694357558 -0.43636697780704192 0 0.37537227125518802 -0.42389619555465169 0 0.36688638314941902 -0.42900952267483278 0 0.36207062685090641 -0.4200719317496176 0 0.37537227125518802 -0.42389619555465169 0 0.36688638314941902 -0.42900952267483278 0 0.37082603694357558 -0.43636697780704192 0 0.37334626682036642 -0.40937981445602689 0 0.36207062685090641 -0.4200719317496176 0 0.35632265126036539 -0.39893433369303671 0 0.37537227125518802 -0.42389619555465169 0 0.37334626682036642 -0.40937981445602689 0 0.36207062685090641 -0.4200719317496176 0 0.34287173686376038 -0.42554914749726769 0 0.35632265126036539 -0.39893433369303671 0 0.34287173686376038 -0.42554914749726769 0 0.35632265126036539 -0.39893433369303671 0 0.33756976376940412 -0.4016115067939533 0 0.34287173686376038 -0.42554914749726769 0 0.36207062685090641 -0.4200719317496176 0 0.35632265126036539 -0.39893433369303671 0 0.35632265126036539 -0.39893433369303671 0 0.34713355162556547 -0.38710103589735001 0 0.33756976376940412 -0.4016115067939533 0 0.37334626682036642 -0.40937981445602689 0 0.35632265126036539 -0.39893433369303671 0 0.37366364049266221 -0.39462383461382272 0 0.35632265126036539 -0.39893433369303671 0 0.36977356565697012 -0.37231951988880552 0 0.35632265126036539 -0.39893433369303671 0 0.37366364049266221 -0.39462383461382272 0 0.36977356565697012 -0.37231951988880552 0 0.34713355162556547 -0.38710103589735001 0 0.36977356565697012 -0.37231951988880552 0 0.34315842377135691 -0.37358073275126807 0 0.35632265126036539 -0.39893433369303671 0 0.34713355162556547 -0.38710103589735001 0 0.36977356565697012 -0.37231951988880552 0 0.34713355162556547 -0.38710103589735001 0 0.33238703930494201 -0.38491330402125951 0 0.34315842377135691 -0.37358073275126807 0 0.34713355162556547 -0.38710103589735001 0 0.33238703930494201 -0.38491330402125951 0 0.33756976376940412 -0.4016115067939533 0 0.33238703930494201 -0.38491330402125951 0 0.33756976376940412 -0.4016115067939533 0 0.32236650982256593 -0.39677335663297469 0 0.32002150961112441 -0.41297678088873818 0 0.32236650982256593 -0.39677335663297469 0 0.30580834454502381 -0.40000273208370962 0 0.32236650982256593 -0.39677335663297469 0 0.31589571276853778 -0.38271771498759449 0 0.30580834454502381 -0.40000273208370962 0 0.32002150961112441 -0.41297678088873818 0 0.33756976376940412 -0.4016115067939533 0 0.32236650982256593 -0.39677335663297469 0 0.33238703930494201 -0.38491330402125951 0 0.31589571276853778 -0.38271771498759449 0 0.32916483430070409 -0.36491209161083038 0 0.33238703930494201 -0.38491330402125951 0 0.32236650982256593 -0.39677335663297469 0 0.31589571276853778 -0.38271771498759449 0 0.31589571276853778 -0.38271771498759449 0 0.30077019568964208 -0.38740231063968111 0 0.30580834454502381 -0.40000273208370962 0 0.31589571276853778 -0.38271771498759449 0 0.30077019568964208 -0.38740231063968111 0 0.30202196475466447 -0.3757046758235098 0 0.30077019568964208 -0.38740231063968111 0 0.30580834454502381 -0.40000273208370962 0 0.29429110499093569 -0.39592143873518482 0 0.29429110499093569 -0.39592143873518482 0 0.2871888621339842 -0.38434761751706992 0 0.28339701759509273 -0.41193309470027872 0 0.2871888621339842 -0.38434761751706992 0 0.27432085995726552 -0.39619785440628458 0 0.28339701759509273 -0.41193309470027872 0 0.30580834454502381 -0.40000273208370962 0 0.29429110499093569 -0.39592143873518482 0 0.28339701759509273 -0.41193309470027872 0 0.2871888621339842 -0.38434761751706992 0 0.28339701759509273 -0.41193309470027872 0 0.2871888621339842 -0.38434761751706992 0 0.28305146244754031 -0.38369685383200169 0 0.27826884055175999 -0.3882380124821187 0 0.30077019568964208 -0.38740231063968111 0 0.29429110499093569 -0.39592143873518482 0 0.2871888621339842 -0.38434761751706992 0 0.30077019568964208 -0.38740231063968111 0 0.30202196475466447 -0.3757046758235098 0 0.2871888621339842 -0.38434761751706992 0 0.2871888621339842 -0.38434761751706992 0 0.28305146244754031 -0.38369685383200169 0 0.28209797868466152 -0.36878166796026529 0 0.28305146244754031 -0.38369685383200169 0 0.27571780128658291 -0.38331032103997781 0 0.27219475889920652 -0.37726513538453449 0 0.28305146244754031 -0.38369685383200169 0 0.27219475889920652 -0.37726513538453449 0 0.26941708664028929 -0.36927683336389883 0 0.27826884055175999 -0.3882380124821187 0 0.26935614324782448 -0.38404128246125607 0 0.27432085995726552 -0.39619785440628458 0 0.27826884055175999 -0.3882380124821187 0 0.27571780128658291 -0.38331032103997781 0 0.26935614324782448 -0.38404128246125607 0 0.2871888621339842 -0.38434761751706992 0 0.27826884055175999 -0.3882380124821187 0 0.27432085995726552 -0.39619785440628458 0 0.28305146244754031 -0.38369685383200169 0 0.27826884055175999 -0.3882380124821187 0 0.27571780128658291 -0.38331032103997781 0 0.26935614324782448 -0.38404128246125607 0 0.27219475889920652 -0.37726513538453449 0 0.26456748077747838 -0.37613428559076328 0 0.27571780128658291 -0.38331032103997781 0 0.26935614324782448 -0.38404128246125607 0 0.27219475889920652 -0.37726513538453449 0 0.25635448840571567 -0.37789214917184888 0 0.2628833655148014 -0.39598676372973729 0 0.26935614324782448 -0.38404128246125607 0 0.26456748077747838 -0.37613428559076328 0 0.25635448840571567 -0.37789214917184888 0 0.26935614324782448 -0.38404128246125607 0 0.25635448840571567 -0.37789214917184888 0 0.2628833655148014 -0.39598676372973729 0 0.25635448840571567 -0.37789214917184888 0 0.2628833655148014 -0.39598676372973729 0 0.24757731665554211 -0.39397937018667939 0 0.25207415565990432 -0.40529248333692852 0 0.2628833655148014 -0.39598676372973729 0 0.24757731665554211 -0.39397937018667939 0 0.25207415565990432 -0.40529248333692852 0 0.2628833655148014 -0.39598676372973729 0 0.26390514832594941 -0.41038945298422908 0 0.2628833655148014 -0.39598676372973729 0 0.27432085995726552 -0.39619785440628458 0 0.26390514832594941 -0.41038945298422908 0 0.27432085995726552 -0.39619785440628458 0 0.26390514832594941 -0.41038945298422908 0 0.28339701759509273 -0.41193309470027872 0 0.26935614324782448 -0.38404128246125607 0 0.2628833655148014 -0.39598676372973729 0 0.27432085995726552 -0.39619785440628458 0 0.26390514832594941 -0.41038945298422908 0 0.26243344209993058 -0.42923514927863282 0 0.28339701759509273 -0.41193309470027872 0 0.26390514832594941 -0.41038945298422908 0 0.26243344209993058 -0.42923514927863282 0 0.2461001714306674 -0.4182892063022704 0 0.25207415565990432 -0.40529248333692852 0 0.26390514832594941 -0.41038945298422908 0 0.2461001714306674 -0.4182892063022704 0 0.26243344209993058 -0.42923514927863282 0 0.24394066691110711 -0.43689245887928319 0 0.2461001714306674 -0.4182892063022704 0 0.26243344209993058 -0.42923514927863282 0 0.28339701759509273 -0.41193309470027872 0 0.27960517305620131 -0.43951857188348747 0 0.28339701759509273 -0.41193309470027872 0 0.30770192008082542 -0.4297842000217949 0 0.29637889112602539 -0.44251766820231442 0 0.28339701759509273 -0.41193309470027872 0 0.29637889112602539 -0.44251766820231442 0 0.27960517305620131 -0.43951857188348747 0 0.28339701759509273 -0.41193309470027872 0 0.27960517305620131 -0.43951857188348747 0 0.32002150961112441 -0.41297678088873818 0 0.30423219795801659 -0.41367420192363041 0 0.30770192008082542 -0.4297842000217949 0 0.28339701759509273 -0.41193309470027872 0 0.30423219795801659 -0.41367420192363041 0 0.30770192008082542 -0.4297842000217949 0 0.30580834454502381 -0.40000273208370962 0 0.28339701759509273 -0.41193309470027872 0 0.30423219795801659 -0.41367420192363041 0 0.32002150961112441 -0.41297678088873818 0 0.30580834454502381 -0.40000273208370962 0 0.30423219795801659 -0.41367420192363041 0 0.31464155569349028 -0.45401571705744909 0 0.30770192008082542 -0.4297842000217949 0 0.29637889112602539 -0.44251766820231442 0 0.31464155569349028 -0.45401571705744909 0 0.29264107139733919 -0.46898984000204552 0 0.30864095575112133 -0.48096195588528878 0 0.31464155569349028 -0.45401571705744909 0 0.29637889112602539 -0.44251766820231442 0 0.29264107139733919 -0.46898984000204552 0 0.29637889112602539 -0.44251766820231442 0 0.27135170467576558 -0.45876606583748319 0 0.29264107139733919 -0.46898984000204552 0 0.29637889112602539 -0.44251766820231442 0 0.27960517305620131 -0.43951857188348747 0 0.27135170467576558 -0.45876606583748319 0 0.27960517305620131 -0.43951857188348747 0 0.25378485024219122 -0.44736468920457029 0 0.27135170467576558 -0.45876606583748319 0 0.26243344209993058 -0.42923514927863282 0 0.27960517305620131 -0.43951857188348747 0 0.25378485024219122 -0.44736468920457029 0 0.26243344209993058 -0.42923514927863282 0 0.25378485024219122 -0.44736468920457029 0 0.24394066691110711 -0.43689245887928319 0 0.25378485024219122 -0.44736468920457029 0 0.25125852619731792 -0.45960679680412142 0 0.27135170467576558 -0.45876606583748319 0 0.25125852619731792 -0.45960679680412142 0 0.27135170467576558 -0.45876606583748319 0 0.2566778222055624 -0.47370805155112272 0 0.25125852619731792 -0.45960679680412142 0 0.2566778222055624 -0.47370805155112272 0 0.24550694710042301 -0.46913314500442782 0 0.27135170467576558 -0.45876606583748319 0 0.27410080227946471 -0.48038265915823292 0 0.2566778222055624 -0.47370805155112272 0 0.27135170467576558 -0.45876606583748319 0 0.27410080227946471 -0.48038265915823292 0 0.29264107139733919 -0.46898984000204552 0 0.27410080227946471 -0.48038265915823292 0 0.2566778222055624 -0.47370805155112272 0 0.26000580556853198 -0.5 0 0.2566778222055624 -0.47370805155112272 0 0.26000580556853198 -0.5 0 0.24230218856454169 -0.48313180079606288 0 0.27410080227946471 -0.48038265915823292 0 0.26000580556853198 -0.5 0 0.28484483770404628 -0.5 0 0.28484483770404628 -0.5 0 0.29264107139733919 -0.46898984000204552 0 0.30864095575112133 -0.48096195588528878 0 0.27410080227946471 -0.48038265915823292 0 0.28484483770404628 -0.5 0 0.29264107139733919 -0.46898984000204552 0 0.28484483770404628 -0.5 0 0.30864095575112133 -0.48096195588528878 0 0.30968386983956059 -0.5 0 0.33285610941633459 -0.30267524102964261 0 0.32905484390042339 -0.28056116691558908 0 0.34419403755030209 -0.27899559213865971 0 0.33285610941633459 -0.30267524102964261 0 0.34419403755030209 -0.27899559213865971 0 0.33285610941633459 -0.30267524102964261 0 0.31529257228651653 -0.28772803248564283 0 0.30672443514233549 -0.30831479053078997 0 0.33285610941633459 -0.30267524102964261 0 0.32151818128236698 -0.32635488992062539 0 0.30672443514233549 -0.30831479053078997 0 0.33285610941633459 -0.30267524102964261 0 0.31529257228651653 -0.28772803248564283 0 0.32905484390042339 -0.28056116691558908 0 0.31529257228651653 -0.28772803248564283 0 0.32289562459030352 -0.26975245673254439 0 0.32905484390042339 -0.28056116691558908 0 0.31529257228651653 -0.28772803248564283 0 0.32289562459030352 -0.26975245673254439 0 0.30075781405652852 -0.27153579031614872 0 0.32289562459030352 -0.26975245673254439 0 0.31908501265015221 -0.25338082040381199 0 0.33265432383720989 -0.25624671888636802 0 0.32289562459030352 -0.26975245673254439 0 0.31908501265015221 -0.25338082040381199 0 0.30075781405652852 -0.27153579031614872 0 0.32289562459030352 -0.26975245673254439 0 0.33265432383720989 -0.25624671888636802 0 0.3351295780737038 -0.2692699087471131 0 0.33265432383720989 -0.25624671888636802 0 0.3351295780737038 -0.2692699087471131 0 0.34684906049028008 -0.26079360906240417 0 0.34125715901687831 -0.24631295959495231 0 0.33265432383720989 -0.25624671888636802 0 0.34684906049028008 -0.26079360906240417 0 0.3351295780737038 -0.2692699087471131 0 0.34419403755030209 -0.27899559213865971 0 0.34684906049028008 -0.26079360906240417 0 0.32289562459030352 -0.26975245673254439 0 0.32905484390042339 -0.28056116691558908 0 0.3351295780737038 -0.2692699087471131 0 0.32905484390042339 -0.28056116691558908 0 0.3351295780737038 -0.2692699087471131 0 0.34419403755030209 -0.27899559213865971 0 0.34419403755030209 -0.27899559213865971 0 0.35553196568426959 -0.25531594324767681 0 0.34419403755030209 -0.27899559213865971 0 0.35553196568426959 -0.25531594324767681 0 0.35998102210702132 -0.27326513548743231 0 0.35152866737639032 -0.2346744593862517 0 0.35553196568426959 -0.25531594324767681 0 0.34684906049028008 -0.26079360906240417 0 0.34419403755030209 -0.27899559213865971 0 0.35553196568426959 -0.25531594324767681 0 0.34684906049028008 -0.26079360906240417 0 0.35553196568426959 -0.25531594324767681 0 0.36532803091223609 -0.26207479821275742 0 0.35998102210702132 -0.27326513548743231 0 0.35553196568426959 -0.25531594324767681 0 0.36532803091223609 -0.26207479821275742 0 0.37117659030456479 -0.25039464930686101 0 0.36532803091223609 -0.26207479821275742 0 0.37117659030456479 -0.25039464930686101 0 0.37462254555308883 -0.26932346480905961 0 0.37117659030456479 -0.25039464930686101 0 0.37462254555308883 -0.26932346480905961 0 0.36532803091223609 -0.26207479821275742 0 0.35998102210702132 -0.27326513548743231 0 0.37462254555308883 -0.26932346480905961 0 0.35998102210702132 -0.27326513548743231 0 0.37462254555308883 -0.26932346480905961 0 0.37228297391739329 -0.28427396786919051 0 0.35998102210702132 -0.27326513548743231 0 0.37228297391739329 -0.28427396786919051 0 0.35481540458069138 -0.29473124836661357 0 0.37228297391739329 -0.28427396786919051 0 0.35481540458069138 -0.29473124836661357 0 0.3715668737265399 -0.3034476381112351 0 0.34419403755030209 -0.27899559213865971 0 0.35998102210702132 -0.27326513548743231 0 0.35481540458069138 -0.29473124836661357 0 0.33285610941633459 -0.30267524102964261 0 0.34419403755030209 -0.27899559213865971 0 0.35481540458069138 -0.29473124836661357 0 0.33285610941633459 -0.30267524102964261 0 0.35481540458069138 -0.29473124836661357 0 0.35092974431091323 -0.32101440982816498 0 0.35481540458069138 -0.29473124836661357 0 0.3715668737265399 -0.3034476381112351 0 0.35092974431091323 -0.32101440982816498 0 0.35481540458069138 -0.29473124836661357 0 0.35092974431091323 -0.32101440982816498 0 0.37765972490598049 -0.32132120331881581 0 0.36472043153167077 -0.3371009235910592 0 0.35092974431091323 -0.32101440982816498 0 0.37765972490598049 -0.32132120331881581 0 0.3715668737265399 -0.3034476381112351 0 0.35092974431091323 -0.32101440982816498 0 0.35092974431091323 -0.32101440982816498 0 0.34704408404113501 -0.34729757128971661 0 0.36472043153167077 -0.3371009235910592 0 0.35092974431091323 -0.32101440982816498 0 0.34704408404113501 -0.34729757128971661 0 0.38322448005357468 -0.34570470608457432 0 0.36977356565697012 -0.37231951988880552 0 0.36336682542108217 -0.35503692784885188 0 0.38322448005357468 -0.34570470608457432 0 0.36472043153167077 -0.3371009235910592 0 0.36336682542108217 -0.35503692784885188 0 0.36472043153167077 -0.3371009235910592 0 0.36336682542108217 -0.35503692784885188 0 0.34704408404113501 -0.34729757128971661 0 0.36336682542108217 -0.35503692784885188 0 0.34704408404113501 -0.34729757128971661 0 0.34315842377135691 -0.37358073275126807 0 0.36977356565697012 -0.37231951988880552 0 0.36336682542108217 -0.35503692784885188 0 0.34315842377135691 -0.37358073275126807 0 0.34704408404113501 -0.34729757128971661 0 0.34315842377135691 -0.37358073275126807 0 0.33238703930494201 -0.38491330402125951 0 0.32916483430070409 -0.36491209161083038 0 0.34315842377135691 -0.37358073275126807 0 0.34704408404113501 -0.34729757128971661 0 0.32916483430070409 -0.36491209161083038 0 0.34315842377135691 -0.37358073275126807 0 0.34704408404113501 -0.34729757128971661 0 0.32916483430070409 -0.36491209161083038 0 0.32984683236752382 -0.34277363379572051 0 0.31990699150200619 -0.35494627358206959 0 0.32984683236752382 -0.34277363379572051 0 0.30788564512914102 -0.34493438457919462 0 0.31990699150200619 -0.35494627358206959 0 0.3105032573505192 -0.36338088925720169 0 0.30788564512914102 -0.34493438457919462 0 0.32916483430070409 -0.36491209161083038 0 0.31990699150200619 -0.35494627358206959 0 0.32984683236752382 -0.34277363379572051 0 0.32916483430070409 -0.36491209161083038 0 0.31990699150200619 -0.35494627358206959 0 0.3105032573505192 -0.36338088925720169 0 0.31589571276853778 -0.38271771498759449 0 0.32916483430070409 -0.36491209161083038 0 0.3105032573505192 -0.36338088925720169 0 0.33285610941633459 -0.30267524102964261 0 0.35092974431091323 -0.32101440982816498 0 0.32151818128236698 -0.32635488992062539 0 0.35092974431091323 -0.32101440982816498 0 0.32984683236752382 -0.34277363379572051 0 0.32151818128236698 -0.32635488992062539 0 0.35092974431091323 -0.32101440982816498 0 0.34704408404113501 -0.34729757128971661 0 0.32984683236752382 -0.34277363379572051 0 0.32984683236752382 -0.34277363379572051 0 0.32151818128236698 -0.32635488992062539 0 0.30788564512914102 -0.34493438457919462 0 0.33285610941633459 -0.30267524102964261 0 0.32151818128236698 -0.32635488992062539 0 0.32151818128236698 -0.32635488992062539 0 0.29477255121176721 -0.32917666315065192 0 0.30672443514233549 -0.30831479053078997 0 0.32151818128236698 -0.32635488992062539 0 0.29477255121176721 -0.32917666315065192 0 0.30788564512914102 -0.34493438457919462 0 0.29477255121176721 -0.32917666315065192 0 0.30788564512914102 -0.34493438457919462 0 0.29098070667287568 -0.35676214033386089 0 0.29477255121176721 -0.32917666315065192 0 0.27763758530020322 -0.32594647621438227 0 0.27700988093562051 -0.34180343955313502 0 0.29477255121176721 -0.32917666315065192 0 0.29098070667287568 -0.35676214033386089 0 0.27700988093562051 -0.34180343955313502 0 0.29477255121176721 -0.32917666315065192 0 0.29098070667287568 -0.35676214033386089 0 0.29477255121176721 -0.32917666315065192 0 0.27763758530020322 -0.32594647621438227 0 0.28252133168056898 -0.31077754772189281 0 0.29477255121176721 -0.32917666315065192 0 0.28252133168056898 -0.31077754772189281 0 0.30672443514233549 -0.30831479053078997 0 0.31589571276853778 -0.38271771498759449 0 0.30202196475466447 -0.3757046758235098 0 0.3105032573505192 -0.36338088925720169 0 0.30202196475466447 -0.3757046758235098 0 0.3105032573505192 -0.36338088925720169 0 0.29098070667287568 -0.35676214033386089 0 0.3105032573505192 -0.36338088925720169 0 0.30788564512914102 -0.34493438457919462 0 0.29098070667287568 -0.35676214033386089 0 0.29098070667287568 -0.35676214033386089 0 0.27736851150307179 -0.3568183234574992 0 0.27700988093562051 -0.34180343955313502 0 0.2871888621339842 -0.38434761751706992 0 0.29098070667287568 -0.35676214033386089 0 0.2871888621339842 -0.38434761751706992 0 0.29098070667287568 -0.35676214033386089 0 0.28209797868466152 -0.36878166796026529 0 0.30202196475466447 -0.3757046758235098 0 0.2871888621339842 -0.38434761751706992 0 0.29098070667287568 -0.35676214033386089 0 0.29098070667287568 -0.35676214033386089 0 0.28209797868466152 -0.36878166796026529 0 0.27736851150307179 -0.3568183234574992 0 0.28305146244754031 -0.38369685383200169 0 0.28209797868466152 -0.36878166796026529 0 0.26784559653838191 -0.36428261205586671 0 0.28305146244754031 -0.38369685383200169 0 0.26784559653838191 -0.36428261205586671 0 0.28305146244754031 -0.38369685383200169 0 0.26941708664028929 -0.36927683336389883 0 0.26784559653838191 -0.36428261205586671 0 0.27219475889920652 -0.37726513538453449 0 0.26456748077747838 -0.37613428559076328 0 0.26941708664028929 -0.36927683336389883 0 0.28209797868466152 -0.36878166796026529 0 0.26784559653838191 -0.36428261205586671 0 0.27736851150307179 -0.3568183234574992 0 0.26784559653838191 -0.36428261205586671 0 0.26742478256845592 -0.35171464244009942 0 0.27736851150307179 -0.3568183234574992 0 0.26742478256845592 -0.35171464244009942 0 0.27736851150307179 -0.3568183234574992 0 0.27700988093562051 -0.34180343955313502 0 0.26742478256845592 -0.35171464244009942 0 0.27700988093562051 -0.34180343955313502 0 0.2645249343468829 -0.34122131565333691 0 0.26784559653838191 -0.36428261205586671 0 0.25263973062922351 -0.34486837027973172 0 0.24982561129663111 -0.35979753461396008 0 0.26784559653838191 -0.36428261205586671 0 0.26742478256845592 -0.35171464244009942 0 0.25263973062922351 -0.34486837027973172 0 0.26784559653838191 -0.36428261205586671 0 0.25263973062922351 -0.34486837027973172 0 0.26742478256845592 -0.35171464244009942 0 0.25263973062922351 -0.34486837027973172 0 0.2645249343468829 -0.34122131565333691 0 0.26941708664028929 -0.36927683336389883 0 0.26784559653838191 -0.36428261205586671 0 0.24982561129663111 -0.35979753461396008 0 0.25635448840571567 -0.37789214917184888 0 0.244685375660469 -0.37082457697003868 0 0.24982561129663111 -0.35979753461396008 0 0.26941708664028929 -0.36927683336389883 0 0.24982561129663111 -0.35979753461396008 0 0.25635448840571567 -0.37789214917184888 0 0.24982561129663111 -0.35979753461396008 0 0.26456748077747838 -0.37613428559076328 0 0.26941708664028929 -0.36927683336389883 0 0.24982561129663111 -0.35979753461396008 0 0.26456748077747838 -0.37613428559076328 0 0.25635448840571567 -0.37789214917184888 0 0.24982561129663111 -0.35979753461396008 0 0.26709370848087638 -0.31965014721506602 0 0.26637533957523812 -0.30708832893341192 0 0.28252133168056898 -0.31077754772189281 0 0.26709370848087638 -0.31965014721506602 0 0.27763758530020322 -0.32594647621438227 0 0.2670518035032709 -0.3320001606162401 0 0.26709370848087638 -0.31965014721506602 0 0.27763758530020322 -0.32594647621438227 0 0.28252133168056898 -0.31077754772189281 0 0.27763758530020322 -0.32594647621438227 0 0.27700988093562051 -0.34180343955313502 0 0.2670518035032709 -0.3320001606162401 0 0.27700988093562051 -0.34180343955313502 0 0.2670518035032709 -0.3320001606162401 0 0.2645249343468829 -0.34122131565333691 0 0.2670518035032709 -0.3320001606162401 0 0.25849847409784349 -0.335719965377478 0 0.25969532287649189 -0.32422764865142628 0 0.2670518035032709 -0.3320001606162401 0 0.25849847409784349 -0.335719965377478 0 0.2645249343468829 -0.34122131565333691 0 0.25263973062922351 -0.34486837027973172 0 0.25849847409784349 -0.335719965377478 0 0.2645249343468829 -0.34122131565333691 0 0.25263973062922351 -0.34486837027973172 0 0.25849847409784349 -0.335719965377478 0 0.25265298121672408 -0.33525859420974152 0 0.25263973062922351 -0.34486837027973172 0 0.25265298121672408 -0.33525859420974152 0 0.24760088339293451 -0.33261137597632551 0 0.25849847409784349 -0.335719965377478 0 0.25187283674689481 -0.32783466520543098 0 0.25969532287649189 -0.32422764865142628 0 0.25849847409784349 -0.335719965377478 0 0.25265298121672408 -0.33525859420974152 0 0.25187283674689481 -0.32783466520543098 0 0.25265298121672408 -0.33525859420974152 0 0.25187283674689481 -0.32783466520543098 0 0.24760088339293451 -0.33261137597632551 0 0.25187283674689481 -0.32783466520543098 0 0.25309486223231348 -0.32044627157215549 0 0.25969532287649189 -0.32422764865142628 0 0.25187283674689481 -0.32783466520543098 0 0.25309486223231348 -0.32044627157215549 0 0.2475020751845502 -0.32184420185913071 0 0.26709370848087638 -0.31965014721506602 0 0.2670518035032709 -0.3320001606162401 0 0.25969532287649189 -0.32422764865142628 0 0.26709370848087638 -0.31965014721506602 0 0.25969532287649189 -0.32422764865142628 0 0.25853877455866342 -0.31401257623769901 0 0.26709370848087638 -0.31965014721506602 0 0.25853877455866342 -0.31401257623769901 0 0.26637533957523812 -0.30708832893341192 0 0.25309486223231348 -0.32044627157215549 0 0.25853877455866342 -0.31401257623769901 0 0.24772983355334491 -0.31471335422545998 0 0.25309486223231348 -0.32044627157215549 0 0.25969532287649189 -0.32422764865142628 0 0.25853877455866342 -0.31401257623769901 0 0.25853877455866342 -0.31401257623769901 0 0.25427298266855808 -0.30573645410763067 0 0.24772983355334491 -0.31471335422545998 0 0.25427298266855808 -0.30573645410763067 0 0.25014118485144449 -0.29680263714615618 0 0.26090186959010409 -0.29662450906835708 0 0.25427298266855808 -0.30573645410763067 0 0.26090186959010409 -0.29662450906835708 0 0.26637533957523812 -0.30708832893341192 0 0.25853877455866342 -0.31401257623769901 0 0.25427298266855808 -0.30573645410763067 0 0.26637533957523812 -0.30708832893341192 0 0.25265951486612498 -0.28540915111717041 0 0.25014118485144449 -0.29680263714615618 0 0.26090186959010409 -0.29662450906835708 0 0.25265951486612498 -0.28540915111717041 0 0.26090186959010409 -0.29662450906835708 0 0.26758780049759401 -0.28723890893096238 0 0.25265951486612498 -0.28540915111717041 0 0.26758780049759401 -0.28723890893096238 0 0.26433043139789392 -0.27938668233278757 0 0.26758780049759401 -0.28723890893096238 0 0.28002017637987048 -0.28551779477174227 0 0.27203298282728278 -0.28087303078277842 0 0.26758780049759401 -0.28723890893096238 0 0.27203298282728278 -0.28087303078277842 0 0.26433043139789392 -0.27938668233278757 0 0.26090186959010409 -0.29662450906835708 0 0.26758780049759401 -0.28723890893096238 0 0.27526560521834242 -0.2965077406665334 0 0.26758780049759401 -0.28723890893096238 0 0.27526560521834242 -0.2965077406665334 0 0.28002017637987048 -0.28551779477174227 0 0.27526560521834242 -0.2965077406665334 0 0.26637533957523812 -0.30708832893341192 0 0.28252133168056898 -0.31077754772189281 0 0.26090186959010409 -0.29662450906835708 0 0.27526560521834242 -0.2965077406665334 0 0.26637533957523812 -0.30708832893341192 0 0.27526560521834242 -0.2965077406665334 0 0.28252133168056898 -0.31077754772189281 0 0.29338586497645858 -0.2931763688762849 0 0.28252133168056898 -0.31077754772189281 0 0.29338586497645858 -0.2931763688762849 0 0.30672443514233549 -0.30831479053078997 0 0.27526560521834242 -0.2965077406665334 0 0.28002017637987048 -0.28551779477174227 0 0.29338586497645858 -0.2931763688762849 0 0.28002017637987048 -0.28551779477174227 0 0.29338586497645858 -0.2931763688762849 0 0.30075781405652852 -0.27153579031614872 0 0.31529257228651653 -0.28772803248564283 0 0.29338586497645858 -0.2931763688762849 0 0.30075781405652852 -0.27153579031614872 0 0.31529257228651653 -0.28772803248564283 0 0.29338586497645858 -0.2931763688762849 0 0.30672443514233549 -0.30831479053078997 0 0.30312161690947398 -0.24426095551615151 0 0.30075781405652852 -0.27153579031614872 0 0.28939244640751077 -0.26018123492947248 0 0.30312161690947398 -0.24426095551615151 0 0.31908501265015221 -0.25338082040381199 0 0.30075781405652852 -0.27153579031614872 0 0.28002017637987048 -0.28551779477174227 0 0.30075781405652852 -0.27153579031614872 0 0.27774262678745049 -0.27225063695793289 0 0.30075781405652852 -0.27153579031614872 0 0.27774262678745049 -0.27225063695793289 0 0.30075781405652852 -0.27153579031614872 0 0.28939244640751077 -0.26018123492947248 0 0.27774262678745049 -0.27225063695793289 0 0.28939244640751077 -0.26018123492947248 0 0.2783925133346638 -0.26544144645972678 0 0.27774262678745049 -0.27225063695793289 0 0.28694766094943702 -0.24741734539740221 0 0.28939244640751077 -0.26018123492947248 0 0.2783925133346638 -0.26544144645972678 0 0.30312161690947398 -0.24426095551615151 0 0.28694766094943702 -0.24741734539740221 0 0.28939244640751077 -0.26018123492947248 0 0.26868981439572581 -0.23959115904570871 0 0.2783925133346638 -0.26544144645972678 0 0.28694766094943702 -0.24741734539740221 0 0.277943669603888 -0.24478247151693469 0 0.2783925133346638 -0.26544144645972678 0 0.26868981439572581 -0.23959115904570871 0 0.26978385158464002 -0.25969422566244321 0 0.26300965709125212 -0.25739834646097981 0 0.26868981439572581 -0.23959115904570871 0 0.2783925133346638 -0.26544144645972678 0 0.26978385158464002 -0.25969422566244321 0 0.2783925133346638 -0.26544144645972678 0 0.26978385158464002 -0.25969422566244321 0 0.27303057994347102 -0.26627499930123472 0 0.26978385158464002 -0.25969422566244321 0 0.2662033280671296 -0.26771368812483592 0 0.27303057994347102 -0.26627499930123472 0 0.26978385158464002 -0.25969422566244321 0 0.2662033280671296 -0.26771368812483592 0 0.26300965709125212 -0.25739834646097981 0 0.27774262678745049 -0.27225063695793289 0 0.25472743951837262 -0.27296548359971712 0 0.27774262678745049 -0.27225063695793289 0 0.2662033280671296 -0.26771368812483592 0 0.25472743951837262 -0.27296548359971712 0 0.28002017637987048 -0.28551779477174227 0 0.27774262678745049 -0.27225063695793289 0 0.27203298282728278 -0.28087303078277842 0 0.2783925133346638 -0.26544144645972678 0 0.27774262678745049 -0.27225063695793289 0 0.27303057994347102 -0.26627499930123472 0 0.27774262678745049 -0.27225063695793289 0 0.2662033280671296 -0.26771368812483592 0 0.27303057994347102 -0.26627499930123472 0 0.27774262678745049 -0.27225063695793289 0 0.27203298282728278 -0.28087303078277842 0 0.26433043139789392 -0.27938668233278757 0 0.27774262678745049 -0.27225063695793289 0 0.26433043139789392 -0.27938668233278757 0 0.25472743951837262 -0.27296548359971712 0 0.2662033280671296 -0.26771368812483592 0 0.25472743951837262 -0.27296548359971712 0 0.25853536449981601 -0.26367831570728389 0 0.25265951486612498 -0.28540915111717041 0 0.26433043139789392 -0.27938668233278757 0 0.25472743951837262 -0.27296548359971712 0 0.25472743951837262 -0.27296548359971712 0 0.25853536449981601 -0.26367831570728389 0 0.25020103332250959 -0.25663574464360273 0 0.26868981439572581 -0.23959115904570871 0 0.26300965709125212 -0.25739834646097981 0 0.25020103332250959 -0.25663574464360273 0 0.2662033280671296 -0.26771368812483592 0 0.26300965709125212 -0.25739834646097981 0 0.25853536449981601 -0.26367831570728389 0 0.26300965709125212 -0.25739834646097981 0 0.25853536449981601 -0.26367831570728389 0 0.25020103332250959 -0.25663574464360273 0 0.25020103332250959 -0.25663574464360273 0 0.23171225224929459 -0.2736803302414979 0 0.25020103332250959 -0.25663574464360273 0 0.23171225224929459 -0.2736803302414979 0 0.2246033797065928 -0.26274255842303429 0 0.25472743951837262 -0.27296548359971712 0 0.25020103332250959 -0.25663574464360273 0 0.23171225224929459 -0.2736803302414979 0 0.25265951486612498 -0.28540915111717041 0 0.25472743951837262 -0.27296548359971712 0 0.23171225224929459 -0.2736803302414979 0 0.25472743951837262 -0.27296548359971712 0 0.23171225224929459 -0.2736803302414979 0 0.23171225224929459 -0.2736803302414979 0 0.2246033797065928 -0.26274255842303429 0 0.2181870046660393 -0.27410042144915259 0 0.23171225224929459 -0.2736803302414979 0 0.2181870046660393 -0.27410042144915259 0 0.21776081464608851 -0.28654199329542052 0 0.23171225224929459 -0.2736803302414979 0 0.21776081464608851 -0.28654199329542052 0 0.23171225224929459 -0.2736803302414979 0 0.2181870046660393 -0.27410042144915259 0 0.25020103332250959 -0.25663574464360273 0 0.2246033797065928 -0.26274255842303429 0 0.22490999937336131 -0.24839662353886441 0 0.2246033797065928 -0.26274255842303429 0 0.20923723190706209 -0.26408044562777822 0 0.22490999937336131 -0.24839662353886441 0 0.20923723190706209 -0.26408044562777822 0 0.22490999937336131 -0.24839662353886441 0 0.20112092782514659 -0.23976618644775011 0 0.20923723190706209 -0.26408044562777822 0 0.20863340902614849 -0.28026206612122651 0 0.19707314238081669 -0.28098891115988689 0 0.20923723190706209 -0.26408044562777822 0 0.2181870046660393 -0.27410042144915259 0 0.20863340902614849 -0.28026206612122651 0 0.2246033797065928 -0.26274255842303429 0 0.20923723190706209 -0.26408044562777822 0 0.2181870046660393 -0.27410042144915259 0 0.2181870046660393 -0.27410042144915259 0 0.20863340902614849 -0.28026206612122651 0 0.21776081464608851 -0.28654199329542052 0 0.19707314238081669 -0.28098891115988689 0 0.1903369077187507 -0.26257416597042899 0 0.18155860650776201 -0.28114009150550517 0 0.20923723190706209 -0.26408044562777822 0 0.19707314238081669 -0.28098891115988689 0 0.1903369077187507 -0.26257416597042899 0 0.19707314238081669 -0.28098891115988689 0 0.1903369077187507 -0.26257416597042899 0 0.20923723190706209 -0.26408044562777822 0 0.1903369077187507 -0.26257416597042899 0 0.20112092782514659 -0.23976618644775011 0 0.1903369077187507 -0.26257416597042899 0 0.18687160578303541 -0.25310112125746681 0 0.20112092782514659 -0.23976618644775011 0 0.1903369077187507 -0.26257416597042899 0 0.20112092782514659 -0.23976618644775011 0 0.1903369077187507 -0.26257416597042899 0 0.18687160578303541 -0.25310112125746681 0 0.19024744030271409 -0.31190624322760602 0 0.20380937704288349 -0.29940365634934452 0 0.20927511377436661 -0.314345260113501 0 0.19024744030271409 -0.31190624322760602 0 0.18909377430619009 -0.29462898385658493 0 0.20380937704288349 -0.29940365634934452 0 0.19024744030271409 -0.31190624322760602 0 0.20380937704288349 -0.29940365634934452 0 0.19707314238081669 -0.28098891115988689 0 0.18909377430619009 -0.29462898385658493 0 0.20380937704288349 -0.29940365634934452 0 0.19707314238081669 -0.28098891115988689 0 0.20380937704288349 -0.29940365634934452 0 0.19707314238081669 -0.28098891115988689 0 0.18909377430619009 -0.29462898385658493 0 0.18155860650776201 -0.28114009150550517 0 0.21776081464608851 -0.28654199329542052 0 0.20380937704288349 -0.29940365634934452 0 0.20863340902614849 -0.28026206612122651 0 0.21776081464608851 -0.28654199329542052 0 0.20380937704288349 -0.29940365634934452 0 0.20863340902614849 -0.28026206612122651 0 0.19707314238081669 -0.28098891115988689 0 0.20380937704288349 -0.29940365634934452 0 0.21776081464608851 -0.28654199329542052 0 0.20380937704288349 -0.29940365634934452 0 0.2189745522772589 -0.29195350520325147 0 0.21392475695459831 -0.30083421295416612 0 0.2168577013915548 -0.31062018454045431 0 0.2189745522772589 -0.29195350520325147 0 0.2168577013915548 -0.31062018454045431 0 0.2189745522772589 -0.29195350520325147 0 0.21392475695459831 -0.30083421295416612 0 0.20380937704288349 -0.29940365634934452 0 0.2189745522772589 -0.29195350520325147 0 0.20380937704288349 -0.29940365634934452 0 0.20927511377436661 -0.314345260113501 0 0.21392475695459831 -0.30083421295416612 0 0.20380937704288349 -0.29940365634934452 0 0.20927511377436661 -0.314345260113501 0 0.21392475695459831 -0.30083421295416612 0 0.2168577013915548 -0.31062018454045431 0 0.20927511377436661 -0.314345260113501 0 0.2168577013915548 -0.31062018454045431 0 0.22493901745284961 -0.31187021647997171 0 0.2252229945268529 -0.30324589507255068 0 0.2168577013915548 -0.31062018454045431 0 0.2252229945268529 -0.30324589507255068 0 0.2189745522772589 -0.29195350520325147 0 0.2252229945268529 -0.30324589507255068 0 0.23308050178138759 -0.30101035242373508 0 0.22800721377404989 -0.29483102018484808 0 0.22493901745284961 -0.31187021647997171 0 0.2252229945268529 -0.30324589507255068 0 0.231869032688064 -0.310031340018528 0 0.2252229945268529 -0.30324589507255068 0 0.23308050178138759 -0.30101035242373508 0 0.231869032688064 -0.310031340018528 0 0.23171225224929459 -0.2736803302414979 0 0.22787975289803181 -0.28722187709301028 0 0.23835237403541679 -0.29176618780804869 0 0.21776081464608851 -0.28654199329542052 0 0.2189745522772589 -0.29195350520325147 0 0.22787975289803181 -0.28722187709301028 0 0.23171225224929459 -0.2736803302414979 0 0.21776081464608851 -0.28654199329542052 0 0.22787975289803181 -0.28722187709301028 0 0.2252229945268529 -0.30324589507255068 0 0.2189745522772589 -0.29195350520325147 0 0.22800721377404989 -0.29483102018484808 0 0.2189745522772589 -0.29195350520325147 0 0.22800721377404989 -0.29483102018484808 0 0.22787975289803181 -0.28722187709301028 0 0.22800721377404989 -0.29483102018484808 0 0.22787975289803181 -0.28722187709301028 0 0.23835237403541679 -0.29176618780804869 0 0.23308050178138759 -0.30101035242373508 0 0.22800721377404989 -0.29483102018484808 0 0.23835237403541679 -0.29176618780804869 0 0.25265951486612498 -0.28540915111717041 0 0.23171225224929459 -0.2736803302414979 0 0.23835237403541679 -0.29176618780804869 0 0.25265951486612498 -0.28540915111717041 0 0.25014118485144449 -0.29680263714615618 0 0.23835237403541679 -0.29176618780804869 0 0.23308050178138759 -0.30101035242373508 0 0.231869032688064 -0.310031340018528 0 0.2419508938825542 -0.30517731903470002 0 0.231869032688064 -0.310031340018528 0 0.2419508938825542 -0.30517731903470002 0 0.23936687188875061 -0.31558789510204122 0 0.23308050178138759 -0.30101035242373508 0 0.23835237403541679 -0.29176618780804869 0 0.2419508938825542 -0.30517731903470002 0 0.25014118485144449 -0.29680263714615618 0 0.23835237403541679 -0.29176618780804869 0 0.2419508938825542 -0.30517731903470002 0 0.25427298266855808 -0.30573645410763067 0 0.25014118485144449 -0.29680263714615618 0 0.2419508938825542 -0.30517731903470002 0 0.2419508938825542 -0.30517731903470002 0 0.24772983355334491 -0.31471335422545998 0 0.23936687188875061 -0.31558789510204122 0 0.25427298266855808 -0.30573645410763067 0 0.2419508938825542 -0.30517731903470002 0 0.24772983355334491 -0.31471335422545998 0 0.24772983355334491 -0.31471335422545998 0 0.23936687188875061 -0.31558789510204122 0 0.242551095942036 -0.32100609240501082 0 0.25309486223231348 -0.32044627157215549 0 0.24772983355334491 -0.31471335422545998 0 0.2475020751845502 -0.32184420185913071 0 0.24772983355334491 -0.31471335422545998 0 0.242551095942036 -0.32100609240501082 0 0.2475020751845502 -0.32184420185913071 0 0.231869032688064 -0.310031340018528 0 0.23936687188875061 -0.31558789510204122 0 0.2374338647200647 -0.32545412850359678 0 0.231869032688064 -0.310031340018528 0 0.2374338647200647 -0.32545412850359678 0 0.23412467988891039 -0.32122909358761331 0 0.231869032688064 -0.310031340018528 0 0.2374338647200647 -0.32545412850359678 0 0.23936687188875061 -0.31558789510204122 0 0.2374338647200647 -0.32545412850359678 0 0.242551095942036 -0.32100609240501082 0 0.2374338647200647 -0.32545412850359678 0 0.24539215119729599 -0.32575009278989892 0 0.242551095942036 -0.32100609240501082 0 0.2374338647200647 -0.32545412850359678 0 0.23412467988891039 -0.32122909358761331 0 0.2324390764389111 -0.32599132827117439 0 0.2374338647200647 -0.32545412850359678 0 0.23362528537680141 -0.33111175972821227 0 0.2324390764389111 -0.32599132827117439 0 0.2374338647200647 -0.32545412850359678 0 0.23412467988891039 -0.32122909358761331 0 0.2374338647200647 -0.32545412850359678 0 0.24539215119729599 -0.32575009278989892 0 0.24760088339293451 -0.33261137597632551 0 0.24539215119729599 -0.32575009278989892 0 0.242551095942036 -0.32100609240501082 0 0.2475020751845502 -0.32184420185913071 0 0.25187283674689481 -0.32783466520543098 0 0.24539215119729599 -0.32575009278989892 0 0.2475020751845502 -0.32184420185913071 0 0.25263973062922351 -0.34486837027973172 0 0.2374338647200647 -0.32545412850359678 0 0.24362973800834711 -0.34262583155877868 0 0.2374338647200647 -0.32545412850359678 0 0.24362973800834711 -0.34262583155877868 0 0.23596925841221769 -0.33619126495569618 0 0.25263973062922351 -0.34486837027973172 0 0.2374338647200647 -0.32545412850359678 0 0.24760088339293451 -0.33261137597632551 0 0.2374338647200647 -0.32545412850359678 0 0.24362973800834711 -0.34262583155877868 0 0.25263973062922351 -0.34486837027973172 0 0.2374338647200647 -0.32545412850359678 0 0.25187283674689481 -0.32783466520543098 0 0.24539215119729599 -0.32575009278989892 0 0.24760088339293451 -0.33261137597632551 0 0.24362973800834711 -0.34262583155877868 0 0.23596925841221769 -0.33619126495569618 0 0.23464077164883551 -0.34234255114346462 0 0.2374338647200647 -0.32545412850359678 0 0.23596925841221769 -0.33619126495569618 0 0.23362528537680141 -0.33111175972821227 0 0.23362528537680141 -0.33111175972821227 0 0.2286806108941187 -0.32945217273751759 0 0.2324390764389111 -0.32599132827117439 0 0.22410516719745499 -0.33516949401835011 0 0.22075683041219829 -0.34573265928085839 0 0.21474085050585101 -0.32928686387765699 0 0.23362528537680141 -0.33111175972821227 0 0.2286806108941187 -0.32945217273751759 0 0.2309894276698731 -0.33692310979446449 0 0.23596925841221769 -0.33619126495569618 0 0.23362528537680141 -0.33111175972821227 0 0.2309894276698731 -0.33692310979446449 0 0.2286806108941187 -0.32945217273751759 0 0.2309894276698731 -0.33692310979446449 0 0.22410516719745499 -0.33516949401835011 0 0.23464077164883551 -0.34234255114346462 0 0.2309894276698731 -0.33692310979446449 0 0.22863312062591801 -0.34276397372949952 0 0.23596925841221769 -0.33619126495569618 0 0.23464077164883551 -0.34234255114346462 0 0.2309894276698731 -0.33692310979446449 0 0.2309894276698731 -0.33692310979446449 0 0.22863312062591801 -0.34276397372949952 0 0.22410516719745499 -0.33516949401835011 0 0.22863312062591801 -0.34276397372949952 0 0.22410516719745499 -0.33516949401835011 0 0.22075683041219829 -0.34573265928085839 0 0.2286806108941187 -0.32945217273751759 0 0.22410516719745499 -0.33516949401835011 0 0.22369360774040409 -0.32722330634228508 0 0.22410516719745499 -0.33516949401835011 0 0.22369360774040409 -0.32722330634228508 0 0.21474085050585101 -0.32928686387765699 0 0.22369360774040409 -0.32722330634228508 0 0.22261046878993559 -0.3194985142789693 0 0.21474085050585101 -0.32928686387765699 0 0.22369360774040409 -0.32722330634228508 0 0.22261046878993559 -0.3194985142789693 0 0.2283309413146602 -0.32270948679893169 0 0.2168577013915548 -0.31062018454045431 0 0.22493901745284961 -0.31187021647997171 0 0.22261046878993559 -0.3194985142789693 0 0.22493901745284961 -0.31187021647997171 0 0.22261046878993559 -0.3194985142789693 0 0.228374828026884 -0.31706773023280282 0 0.22261046878993559 -0.3194985142789693 0 0.228374828026884 -0.31706773023280282 0 0.2283309413146602 -0.32270948679893169 0 0.231869032688064 -0.310031340018528 0 0.228374828026884 -0.31706773023280282 0 0.23412467988891039 -0.32122909358761331 0 0.22493901745284961 -0.31187021647997171 0 0.231869032688064 -0.310031340018528 0 0.228374828026884 -0.31706773023280282 0 0.23412467988891039 -0.32122909358761331 0 0.2324390764389111 -0.32599132827117439 0 0.2283309413146602 -0.32270948679893169 0 0.2286806108941187 -0.32945217273751759 0 0.2324390764389111 -0.32599132827117439 0 0.2283309413146602 -0.32270948679893169 0 0.2286806108941187 -0.32945217273751759 0 0.22369360774040409 -0.32722330634228508 0 0.2283309413146602 -0.32270948679893169 0 0.228374828026884 -0.31706773023280282 0 0.23412467988891039 -0.32122909358761331 0 0.2283309413146602 -0.32270948679893169 0 0.23952911400756199 -0.36302145895010568 0 0.23529122085441501 -0.35276509694740882 0 0.22949119931694609 -0.36960967453352289 0 0.244685375660469 -0.37082457697003868 0 0.22949119931694609 -0.36960967453352289 0 0.24045882993474879 -0.38174266809933072 0 0.244685375660469 -0.37082457697003868 0 0.23952911400756199 -0.36302145895010568 0 0.22949119931694609 -0.36960967453352289 0 0.244685375660469 -0.37082457697003868 0 0.24982561129663111 -0.35979753461396008 0 0.23952911400756199 -0.36302145895010568 0 0.24362973800834711 -0.34262583155877868 0 0.24982561129663111 -0.35979753461396008 0 0.23529122085441501 -0.35276509694740882 0 0.24362973800834711 -0.34262583155877868 0 0.24982561129663111 -0.35979753461396008 0 0.25263973062922351 -0.34486837027973172 0 0.24362973800834711 -0.34262583155877868 0 0.24982561129663111 -0.35979753461396008 0 0.24982561129663111 -0.35979753461396008 0 0.23952911400756199 -0.36302145895010568 0 0.23529122085441501 -0.35276509694740882 0 0.24982561129663111 -0.35979753461396008 0 0.23529122085441501 -0.35276509694740882 0 0.24362973800834711 -0.34262583155877868 0 0.23464077164883551 -0.34234255114346462 0 0.23529122085441501 -0.35276509694740882 0 0.23529122085441501 -0.35276509694740882 0 0.22075683041219829 -0.34573265928085839 0 0.22949119931694609 -0.36960967453352289 0 0.22075683041219829 -0.34573265928085839 0 0.21940555229579861 -0.35976301805002109 0 0.22949119931694609 -0.36960967453352289 0 0.22075683041219829 -0.34573265928085839 0 0.22949119931694609 -0.36960967453352289 0 0.23529122085441501 -0.35276509694740882 0 0.22075683041219829 -0.34573265928085839 0 0.22863312062591801 -0.34276397372949952 0 0.23529122085441501 -0.35276509694740882 0 0.22075683041219829 -0.34573265928085839 0 0.23464077164883551 -0.34234255114346462 0 0.22863312062591801 -0.34276397372949952 0 0.23529122085441501 -0.35276509694740882 0 0.22949119931694609 -0.36960967453352289 0 0.21008562042365689 -0.37033731659119712 0 0.2212213569389252 -0.38401321254664039 0 0.21940555229579861 -0.35976301805002109 0 0.22949119931694609 -0.36960967453352289 0 0.21008562042365689 -0.37033731659119712 0 0.21008562042365689 -0.37033731659119712 0 0.21328578733437289 -0.34211780904288103 0 0.21008562042365689 -0.37033731659119712 0 0.19721588814415039 -0.3542699714179619 0 0.21328578733437289 -0.34211780904288103 0 0.22075683041219829 -0.34573265928085839 0 0.21940555229579861 -0.35976301805002109 0 0.21328578733437289 -0.34211780904288103 0 0.21940555229579861 -0.35976301805002109 0 0.21008562042365689 -0.37033731659119712 0 0.21328578733437289 -0.34211780904288103 0 0.22075683041219829 -0.34573265928085839 0 0.21328578733437289 -0.34211780904288103 0 0.19721588814415039 -0.3542699714179619 0 0.1791372476032001 -0.356552677362375 0 0.19150965827954169 -0.37955078099249201 0 0.21008562042365689 -0.37033731659119712 0 0.19721588814415039 -0.3542699714179619 0 0.19150965827954169 -0.37955078099249201 0 0.2168577013915548 -0.31062018454045431 0 0.22261046878993559 -0.3194985142789693 0 0.21474085050585101 -0.32928686387765699 0 0.2168577013915548 -0.31062018454045431 0 0.20927511377436661 -0.314345260113501 0 0.21474085050585101 -0.32928686387765699 0 0.2168577013915548 -0.31062018454045431 0 0.21474085050585101 -0.32928686387765699 0 0.20357985250550181 -0.32489912713695912 0 0.20927511377436661 -0.314345260113501 0 0.21474085050585101 -0.32928686387765699 0 0.20927511377436661 -0.314345260113501 0 0.21474085050585101 -0.32928686387765699 0 0.22075683041219829 -0.34573265928085839 0 0.21474085050585101 -0.32928686387765699 0 0.21328578733437289 -0.34211780904288103 0 0.19498564544845851 -0.33326331957437599 0 0.21474085050585101 -0.32928686387765699 0 0.21328578733437289 -0.34211780904288103 0 0.20357985250550181 -0.32489912713695912 0 0.21474085050585101 -0.32928686387765699 0 0.21328578733437289 -0.34211780904288103 0 0.22075683041219829 -0.34573265928085839 0 0.21474085050585101 -0.32928686387765699 0 0.21328578733437289 -0.34211780904288103 0 0.20357985250550181 -0.32489912713695912 0 0.21328578733437289 -0.34211780904288103 0 0.19498564544845851 -0.33326331957437599 0 0.19721588814415039 -0.3542699714179619 0 0.21328578733437289 -0.34211780904288103 0 0.19498564544845851 -0.33326331957437599 0 0.19721588814415039 -0.3542699714179619 0 0.19498564544845851 -0.33326331957437599 0 0.18237919657883911 -0.33999828484581912 0 0.19024744030271409 -0.31190624322760602 0 0.20357985250550181 -0.32489912713695912 0 0.19498564544845851 -0.33326331957437599 0 0.19024744030271409 -0.31190624322760602 0 0.20357985250550181 -0.32489912713695912 0 0.20927511377436661 -0.314345260113501 0 0.19024744030271409 -0.31190624322760602 0 0.17561880345797351 -0.31313515467019148 0 0.17668550356254539 -0.32440883010586818 0 0.19024744030271409 -0.31190624322760602 0 0.17668550356254539 -0.32440883010586818 0 0.19024744030271409 -0.31190624322760602 0 0.19498564544845851 -0.33326331957437599 0 0.17668550356254539 -0.32440883010586818 0 0.17561880345797351 -0.31313515467019148 0 0.17668550356254539 -0.32440883010586818 0 0.16400200408578569 -0.31827194257565788 0 0.19498564544845851 -0.33326331957437599 0 0.17668550356254539 -0.32440883010586818 0 0.18237919657883911 -0.33999828484581912 0 0.16676483692685881 -0.33355457373225772 0 0.1791372476032001 -0.356552677362375 0 0.19498564544845851 -0.33326331957437599 0 0.17668550356254539 -0.32440883010586818 0 0.18237919657883911 -0.33999828484581912 0 0.17668550356254539 -0.32440883010586818 0 0.18237919657883911 -0.33999828484581912 0 0.16676483692685881 -0.33355457373225772 0 0.16676483692685881 -0.33355457373225772 0 0.16143224885930699 -0.32370692173978799 0 0.17668550356254539 -0.32440883010586818 0 0.16676483692685881 -0.33355457373225772 0 0.16676483692685881 -0.33355457373225772 0 0.15836521792478431 -0.3301131953646057 0 0.15206868169920029 -0.33626367306476168 0 0.16676483692685881 -0.33355457373225772 0 0.15836521792478431 -0.3301131953646057 0 0.16143224885930699 -0.32370692173978799 0 0.16143224885930699 -0.32370692173978799 0 0.16013502135133029 -0.32123092964678351 0 0.15319510421377161 -0.32692761292161532 0 0.15836521792478431 -0.3301131953646057 0 0.16143224885930699 -0.32370692173978799 0 0.15319510421377161 -0.32692761292161532 0 0.16143224885930699 -0.32370692173978799 0 0.16013502135133029 -0.32123092964678351 0 0.16400200408578569 -0.31827194257565788 0 0.16143224885930699 -0.32370692173978799 0 0.16400200408578569 -0.31827194257565788 0 0.16143224885930699 -0.32370692173978799 0 0.16013502135133029 -0.32123092964678351 0 0.17668550356254539 -0.32440883010586818 0 0.16400200408578569 -0.31827194257565788 0 0.17668550356254539 -0.32440883010586818 0 0.16143224885930699 -0.32370692173978799 0 0.16400200408578569 -0.31827194257565788 0 0.17668550356254539 -0.32440883010586818 0 0.16676483692685881 -0.33355457373225772 0 0.16143224885930699 -0.32370692173978799 0 0.1791372476032001 -0.356552677362375 0 0.1703688021240003 -0.37268438211413601 0 0.19150965827954169 -0.37955078099249201 0 0.1791372476032001 -0.356552677362375 0 0.16720943070881311 -0.36183649103543369 0 0.1703688021240003 -0.37268438211413601 0 0.1791372476032001 -0.356552677362375 0 0.19150965827954169 -0.37955078099249201 0 0.19721588814415039 -0.3542699714179619 0 0.18237919657883911 -0.33999828484581912 0 0.1791372476032001 -0.356552677362375 0 0.16676483692685881 -0.33355457373225772 0 0.1791372476032001 -0.356552677362375 0 0.1791372476032001 -0.356552677362375 0 0.1624862471494026 -0.35253186727016173 0 0.16720943070881311 -0.36183649103543369 0 0.16676483692685881 -0.33355457373225772 0 0.1791372476032001 -0.356552677362375 0 0.1624862471494026 -0.35253186727016173 0 0.16676483692685881 -0.33355457373225772 0 0.1624862471494026 -0.35253186727016173 0 0.14476658742193901 -0.35383449620013668 0 0.1574771122811322 -0.3660241693102933 0 0.1703688021240003 -0.37268438211413601 0 0.15614092459492951 -0.3821084620672997 0 0.16720943070881311 -0.36183649103543369 0 0.1574771122811322 -0.3660241693102933 0 0.1703688021240003 -0.37268438211413601 0 0.1624862471494026 -0.35253186727016173 0 0.16720943070881311 -0.36183649103543369 0 0.1574771122811322 -0.3660241693102933 0 0.1574771122811322 -0.3660241693102933 0 0.14428548563926091 -0.37342877462161089 0 0.14476658742193901 -0.35383449620013668 0 0.1574771122811322 -0.3660241693102933 0 0.14428548563926091 -0.37342877462161089 0 0.15614092459492951 -0.3821084620672997 0 0.14476658742193901 -0.35383449620013668 0 0.15206868169920029 -0.33626367306476168 0 0.14260592560083141 -0.34131556920530309 0 0.1624862471494026 -0.35253186727016173 0 0.1574771122811322 -0.3660241693102933 0 0.14476658742193901 -0.35383449620013668 0 0.14476658742193901 -0.35383449620013668 0 0.13496373539083151 -0.34779915963192393 0 0.14260592560083141 -0.34131556920530309 0 0.14476658742193901 -0.35383449620013668 0 0.13496373539083151 -0.34779915963192393 0 0.122496978453228 -0.35613318591378929 0 0.14476658742193901 -0.35383449620013668 0 0.1227683379170192 -0.37411441866801581 0 0.14428548563926091 -0.37342877462161089 0 0.14476658742193901 -0.35383449620013668 0 0.1227683379170192 -0.37411441866801581 0 0.14476658742193901 -0.35383449620013668 0 0.1227683379170192 -0.37411441866801581 0 0.122496978453228 -0.35613318591378929 0 0.16400200408578569 -0.31827194257565788 0 0.14350903254972319 -0.31887203216465571 0 0.13717464880108479 -0.3052915768322142 0 0.16013502135133029 -0.32123092964678351 0 0.14350903254972319 -0.31887203216465571 0 0.15319510421377161 -0.32692761292161532 0 0.16013502135133029 -0.32123092964678351 0 0.16400200408578569 -0.31827194257565788 0 0.14350903254972319 -0.31887203216465571 0 0.14350903254972319 -0.31887203216465571 0 0.14407473164156481 -0.33122309306827519 0 0.13541478125224499 -0.32626383313133928 0 0.14350903254972319 -0.31887203216465571 0 0.15319510421377161 -0.32692761292161532 0 0.14407473164156481 -0.33122309306827519 0 0.16676483692685881 -0.33355457373225772 0 0.14476658742193901 -0.35383449620013668 0 0.15319510421377161 -0.32692761292161532 0 0.15206868169920029 -0.33626367306476168 0 0.14407473164156481 -0.33122309306827519 0 0.16676483692685881 -0.33355457373225772 0 0.14476658742193901 -0.35383449620013668 0 0.15206868169920029 -0.33626367306476168 0 0.15836521792478431 -0.3301131953646057 0 0.15319510421377161 -0.32692761292161532 0 0.15206868169920029 -0.33626367306476168 0 0.14260592560083141 -0.34131556920530309 0 0.14407473164156481 -0.33122309306827519 0 0.13715589185062149 -0.33745742406141782 0 0.15206868169920029 -0.33626367306476168 0 0.14260592560083141 -0.34131556920530309 0 0.14407473164156481 -0.33122309306827519 0 0.13496373539083151 -0.34779915963192393 0 0.12869626483080349 -0.33356230690395411 0 0.1185492547077379 -0.34535244466316278 0 0.13715589185062149 -0.33745742406141782 0 0.12869626483080349 -0.33356230690395411 0 0.13541478125224499 -0.32626383313133928 0 0.14407473164156481 -0.33122309306827519 0 0.13715589185062149 -0.33745742406141782 0 0.13541478125224499 -0.32626383313133928 0 0.13496373539083151 -0.34779915963192393 0 0.13715589185062149 -0.33745742406141782 0 0.12869626483080349 -0.33356230690395411 0 0.13496373539083151 -0.34779915963192393 0 0.14260592560083141 -0.34131556920530309 0 0.13715589185062149 -0.33745742406141782 0 0.14350903254972319 -0.31887203216465571 0 0.13541478125224499 -0.32626383313133928 0 0.12432076628891719 -0.31689767271897762 0 0.12869626483080349 -0.33356230690395411 0 0.13541478125224499 -0.32626383313133928 0 0.12432076628891719 -0.31689767271897762 0 0.14350903254972319 -0.31887203216465571 0 0.13717464880108479 -0.3052915768322142 0 0.12432076628891719 -0.31689767271897762 0 0.13717464880108479 -0.3052915768322142 0 0.1315484349202912 -0.27340611545995608 0 0.1103472935163861 -0.29231121108876601 0 0.13717464880108479 -0.3052915768322142 0 0.15433983864041781 -0.291119313394824 0 0.1315484349202912 -0.27340611545995608 0 0.16400200408578569 -0.31827194257565788 0 0.13717464880108479 -0.3052915768322142 0 0.16400200408578569 -0.31827194257565788 0 0.13717464880108479 -0.3052915768322142 0 0.15433983864041781 -0.291119313394824 0 0.1315484349202912 -0.27340611545995608 0 0.1178361446961015 -0.25438522520056522 0 0.1335561985377903 -0.24472646869262221 0 0.1315484349202912 -0.27340611545995608 0 0.1500337050372389 -0.25472409195391782 0 0.1335561985377903 -0.24472646869262221 0 0.1500337050372389 -0.25472409195391782 0 0.15363831303543901 -0.27160720992618842 0 0.16298920910054049 -0.25539579174330118 0 0.15433983864041781 -0.291119313394824 0 0.1315484349202912 -0.27340611545995608 0 0.15363831303543901 -0.27160720992618842 0 0.1315484349202912 -0.27340611545995608 0 0.1500337050372389 -0.25472409195391782 0 0.15363831303543901 -0.27160720992618842 0 0.15363831303543901 -0.27160720992618842 0 0.17006203933913089 -0.2666399150790294 0 0.1664758205639047 -0.2820425093892257 0 0.15363831303543901 -0.27160720992618842 0 0.17006203933913089 -0.2666399150790294 0 0.16298920910054049 -0.25539579174330118 0 0.1500337050372389 -0.25472409195391782 0 0.16298920910054049 -0.25539579174330118 0 0.16456358482649891 -0.24169347422879001 0 0.17006203933913089 -0.2666399150790294 0 0.16298920910054049 -0.25539579174330118 0 0.17517517398518781 -0.25177012561693107 0 0.17006203933913089 -0.2666399150790294 0 0.17517517398518781 -0.25177012561693107 0 0.18058465720363659 -0.26077126576784038 0 0.1903369077187507 -0.26257416597042899 0 0.18058465720363659 -0.26077126576784038 0 0.18687160578303541 -0.25310112125746681 0 0.17517517398518781 -0.25177012561693107 0 0.18058465720363659 -0.26077126576784038 0 0.18687160578303541 -0.25310112125746681 0 0.17006203933913089 -0.2666399150790294 0 0.18058465720363659 -0.26077126576784038 0 0.18155860650776201 -0.28114009150550517 0 0.1903369077187507 -0.26257416597042899 0 0.18155860650776201 -0.28114009150550517 0 0.1903369077187507 -0.26257416597042899 0 0.18058465720363659 -0.26077126576784038 0 0.18155860650776201 -0.28114009150550517 0 0.17006203933913089 -0.2666399150790294 0 0.18155860650776201 -0.28114009150550517 0 0.1664758205639047 -0.2820425093892257 0 0.18909377430619009 -0.29462898385658493 0 0.18155860650776201 -0.28114009150550517 0 0.17278030529677391 -0.29970601704058158 0 0.18155860650776201 -0.28114009150550517 0 0.17278030529677391 -0.29970601704058158 0 0.18155860650776201 -0.28114009150550517 0 0.17278030529677391 -0.29970601704058158 0 0.1664758205639047 -0.2820425093892257 0 0.19024744030271409 -0.31190624322760602 0 0.18909377430619009 -0.29462898385658493 0 0.17278030529677391 -0.29970601704058158 0 0.19024744030271409 -0.31190624322760602 0 0.17561880345797351 -0.31313515467019148 0 0.17278030529677391 -0.29970601704058158 0 0.17561880345797351 -0.31313515467019148 0 0.16400200408578569 -0.31827194257565788 0 0.17278030529677391 -0.29970601704058158 0 0.16400200408578569 -0.31827194257565788 0 0.17278030529677391 -0.29970601704058158 0 0.16400200408578569 -0.31827194257565788 0 0.15433983864041781 -0.291119313394824 0 0.17278030529677391 -0.29970601704058158 0 0.15433983864041781 -0.291119313394824 0 0.17278030529677391 -0.29970601704058158 0 0.1664758205639047 -0.2820425093892257 0 0.15433983864041781 -0.291119313394824 0 0.15363831303543901 -0.27160720992618842 0 0.1664758205639047 -0.2820425093892257 0 0.20155639564280389 -0.49105736580042458 0 0.17972628365540341 -0.48524907922722449 0 0.19409337985161559 -0.5 0 0.20155639564280389 -0.49105736580042458 0 0.17972628365540341 -0.48524907922722449 0 0.19882038478777159 -0.4725073630580538 0 0.18817722108496879 -0.4624262647455506 0 0.17790227641871509 -0.47288241073231091 0 0.20155639564280389 -0.49105736580042458 0 0.19882038478777159 -0.4725073630580538 0 0.17972628365540341 -0.48524907922722449 0 0.19882038478777159 -0.4725073630580538 0 0.17790227641871509 -0.47288241073231091 0 0.20155639564280389 -0.49105736580042458 0 0.19882038478777159 -0.4725073630580538 0 0.21306739959880899 -0.47972660132987738 0 0.19882038478777159 -0.4725073630580538 0 0.21306739959880899 -0.47972660132987738 0 0.2167636959897199 -0.45984346467666742 0 0.20155639564280389 -0.49105736580042458 0 0.21306739959880899 -0.47972660132987738 0 0.22338650763020509 -0.49686565237362212 0 0.20155639564280389 -0.49105736580042458 0 0.2226669248224247 -0.50000000000000067 0 0.22338650763020509 -0.49686565237362212 0 0.19409337985161559 -0.5 0 0.20155639564280389 -0.49105736580042458 0 0.2226669248224247 -0.50000000000000067 0 0.20155639564280389 -0.49105736580042458 0 0.22338650763020509 -0.49686565237362212 0 0.22338650763020509 -0.49686565237362212 0 0.22805788152325121 -0.47651815446888601 0 0.22338650763020509 -0.49686565237362212 0 0.23222833778775401 -0.4891289019096427 0 0.22805788152325121 -0.47651815446888601 0 0.2226669248224247 -0.50000000000000067 0 0.22338650763020509 -0.49686565237362212 0 0.2226669248224247 -0.50000000000000067 0 0.22338650763020509 -0.49686565237362212 0 0.2351667734330177 -0.49999999999999989 0 0.22338650763020509 -0.49686565237362212 0 0.2351667734330177 -0.49999999999999989 0 0.22338650763020509 -0.49686565237362212 0 0.23222833778775401 -0.4891289019096427 0 0.2351667734330177 -0.49999999999999989 0 0.26000580556853198 -0.5 0 0.2351667734330177 -0.49999999999999989 0 0.24230218856454169 -0.48313180079606288 0 0.23222833778775401 -0.4891289019096427 0 0.2351667734330177 -0.49999999999999989 0 0.24230218856454169 -0.48313180079606288 0 0.2566778222055624 -0.47370805155112272 0 0.24550694710042301 -0.46913314500442782 0 0.24230218856454169 -0.48313180079606288 0 0.24230218856454169 -0.48313180079606288 0 0.23715077042401189 -0.46972501732669841 0 0.22805788152325121 -0.47651815446888601 0 0.24550694710042301 -0.46913314500442782 0 0.24230218856454169 -0.48313180079606288 0 0.23715077042401189 -0.46972501732669841 0 0.21306739959880899 -0.47972660132987738 0 0.22338650763020509 -0.49686565237362212 0 0.22805788152325121 -0.47651815446888601 0 0.21306739959880899 -0.47972660132987738 0 0.22805788152325121 -0.47651815446888601 0 0.2167636959897199 -0.45984346467666742 0 0.23222833778775401 -0.4891289019096427 0 0.24230218856454169 -0.48313180079606288 0 0.22805788152325121 -0.47651815446888601 0 0.22805788152325121 -0.47651815446888601 0 0.23272925541629669 -0.45617065656414979 0 0.2167636959897199 -0.45984346467666742 0 0.23715077042401189 -0.46972501732669841 0 0.22805788152325121 -0.47651815446888601 0 0.23442278730982311 -0.45931863014885482 0 0.23272925541629669 -0.45617065656414979 0 0.2286268903085687 -0.44854509188284192 0 0.2167636959897199 -0.45984346467666742 0 0.22805788152325121 -0.47651815446888601 0 0.23272925541629669 -0.45617065656414979 0 0.23442278730982311 -0.45931863014885482 0 0.22805788152325121 -0.47651815446888601 0 0.23272925541629669 -0.45617065656414979 0 0.23272925541629669 -0.45617065656414979 0 0.23442278730982311 -0.45931863014885482 0 0.24550694710042301 -0.46913314500442782 0 0.23715077042401189 -0.46972501732669841 0 0.24146343197392059 -0.46133974760176838 0 0.23715077042401189 -0.46972501732669841 0 0.24146343197392059 -0.46133974760176838 0 0.23442278730982311 -0.45931863014885482 0 0.23272925541629669 -0.45617065656414979 0 0.23442278730982311 -0.45931863014885482 0 0.24093405443751331 -0.45419790934055709 0 0.24146343197392059 -0.46133974760176838 0 0.23442278730982311 -0.45931863014885482 0 0.24093405443751331 -0.45419790934055709 0 0.25378485024219122 -0.44736468920457029 0 0.25125852619731792 -0.45960679680412142 0 0.24093405443751331 -0.45419790934055709 0 0.25125852619731792 -0.45960679680412142 0 0.24146343197392059 -0.46133974760176838 0 0.24093405443751331 -0.45419790934055709 0 0.25125852619731792 -0.45960679680412142 0 0.24550694710042301 -0.46913314500442782 0 0.24146343197392059 -0.46133974760176838 0 0.25378485024219122 -0.44736468920457029 0 0.24093405443751331 -0.45419790934055709 0 0.23454366513327979 -0.44826747887811902 0 0.25378485024219122 -0.44736468920457029 0 0.23454366513327979 -0.44826747887811902 0 0.25378485024219122 -0.44736468920457029 0 0.23454366513327979 -0.44826747887811902 0 0.24394066691110711 -0.43689245887928319 0 0.23272925541629669 -0.45617065656414979 0 0.24093405443751331 -0.45419790934055709 0 0.23454366513327979 -0.44826747887811902 0 0.23454366513327979 -0.44826747887811902 0 0.2362962408027717 -0.43982983573076662 0 0.24394066691110711 -0.43689245887928319 0 0.2362962408027717 -0.43982983573076662 0 0.2286268903085687 -0.44854509188284192 0 0.23110615441628321 -0.43479475490599773 0 0.23272925541629669 -0.45617065656414979 0 0.23454366513327979 -0.44826747887811902 0 0.2286268903085687 -0.44854509188284192 0 0.23454366513327979 -0.44826747887811902 0 0.2362962408027717 -0.43982983573076662 0 0.2286268903085687 -0.44854509188284192 0 0.23272925541629669 -0.45617065656414979 0 0.23454366513327979 -0.44826747887811902 0 0.23272925541629669 -0.45617065656414979 0 0.2286268903085687 -0.44854509188284192 0 0.23454366513327979 -0.44826747887811902 0 0.2286268903085687 -0.44854509188284192 0 0.2286268903085687 -0.44854509188284192 0 0.20389471700483669 -0.44970551680140353 0 0.21625447963222499 -0.42554698825272602 0 0.2286268903085687 -0.44854509188284192 0 0.20389471700483669 -0.44970551680140353 0 0.2167636959897199 -0.45984346467666742 0 0.2286268903085687 -0.44854509188284192 0 0.20389471700483669 -0.44970551680140353 0 0.19882038478777159 -0.4725073630580538 0 0.20389471700483669 -0.44970551680140353 0 0.2167636959897199 -0.45984346467666742 0 0.20389471700483669 -0.44970551680140353 0 0.18817722108496879 -0.4624262647455506 0 0.1791625437011049 -0.45086594171996608 0 0.19882038478777159 -0.4725073630580538 0 0.20389471700483669 -0.44970551680140353 0 0.18817722108496879 -0.4624262647455506 0 0.20389471700483669 -0.44970551680140353 0 0.19401287330235459 -0.42780977636083112 0 0.1791625437011049 -0.45086594171996608 0 0.20389471700483669 -0.44970551680140353 0 0.1791625437011049 -0.45086594171996608 0 0.19401287330235459 -0.42780977636083112 0 0.2038820689558834 -0.40254888462260902 0 0.18454535863730689 -0.40823902432122189 0 0.21625447963222499 -0.42554698825272602 0 0.219159866822765 -0.41135226252755341 0 0.2038820689558834 -0.40254888462260902 0 0.19401287330235459 -0.42780977636083112 0 0.21625447963222499 -0.42554698825272602 0 0.2038820689558834 -0.40254888462260902 0 0.21625447963222499 -0.42554698825272602 0 0.2038820689558834 -0.40254888462260902 0 0.20389471700483669 -0.44970551680140353 0 0.19401287330235459 -0.42780977636083112 0 0.21625447963222499 -0.42554698825272602 0 0.2286268903085687 -0.44854509188284192 0 0.21625447963222499 -0.42554698825272602 0 0.2286268903085687 -0.44854509188284192 0 0.21625447963222499 -0.42554698825272602 0 0.23110615441628321 -0.43479475490599773 0 0.21625447963222499 -0.42554698825272602 0 0.23122863094109319 -0.42326292803324261 0 0.23110615441628321 -0.43479475490599773 0 0.23122863094109319 -0.42326292803324261 0 0.23110615441628321 -0.43479475490599773 0 0.24394066691110711 -0.43689245887928319 0 0.23122863094109319 -0.42326292803324261 0 0.24394066691110711 -0.43689245887928319 0 0.2461001714306674 -0.4182892063022704 0 0.2362962408027717 -0.43982983573076662 0 0.23110615441628321 -0.43479475490599773 0 0.24394066691110711 -0.43689245887928319 0 0.25207415565990432 -0.40529248333692852 0 0.2461001714306674 -0.4182892063022704 0 0.24007322376989129 -0.40517856149606918 0 0.23122863094109319 -0.42326292803324261 0 0.2461001714306674 -0.4182892063022704 0 0.23081044643351151 -0.41270189733162449 0 0.2461001714306674 -0.4182892063022704 0 0.23081044643351151 -0.41270189733162449 0 0.24007322376989129 -0.40517856149606918 0 0.23081044643351151 -0.41270189733162449 0 0.2290742412105522 -0.40433293696845468 0 0.24007322376989129 -0.40517856149606918 0 0.23122863094109319 -0.42326292803324261 0 0.23081044643351151 -0.41270189733162449 0 0.219159866822765 -0.41135226252755341 0 0.21625447963222499 -0.42554698825272602 0 0.23122863094109319 -0.42326292803324261 0 0.219159866822765 -0.41135226252755341 0 0.23081044643351151 -0.41270189733162449 0 0.219159866822765 -0.41135226252755341 0 0.2290742412105522 -0.40433293696845468 0 0.219159866822765 -0.41135226252755341 0 0.22212216930520631 -0.39831003294567002 0 0.2290742412105522 -0.40433293696845468 0 0.22212216930520631 -0.39831003294567002 0 0.2212213569389252 -0.38401321254664039 0 0.21482974268455751 -0.39030407955476548 0 0.22212216930520631 -0.39831003294567002 0 0.23480301122917019 -0.39647547485045842 0 0.2310098364787988 -0.38701206401208921 0 0.22212216930520631 -0.39831003294567002 0 0.2290742412105522 -0.40433293696845468 0 0.23480301122917019 -0.39647547485045842 0 0.2290742412105522 -0.40433293696845468 0 0.24007322376989129 -0.40517856149606918 0 0.23480301122917019 -0.39647547485045842 0 0.24007322376989129 -0.40517856149606918 0 0.23480301122917019 -0.39647547485045842 0 0.24757731665554211 -0.39397937018667939 0 0.23480301122917019 -0.39647547485045842 0 0.24757731665554211 -0.39397937018667939 0 0.24045882993474879 -0.38174266809933072 0 0.25207415565990432 -0.40529248333692852 0 0.24007322376989129 -0.40517856149606918 0 0.24757731665554211 -0.39397937018667939 0 0.25635448840571567 -0.37789214917184888 0 0.244685375660469 -0.37082457697003868 0 0.24045882993474879 -0.38174266809933072 0 0.25635448840571567 -0.37789214917184888 0 0.24757731665554211 -0.39397937018667939 0 0.24045882993474879 -0.38174266809933072 0 0.23480301122917019 -0.39647547485045842 0 0.24045882993474879 -0.38174266809933072 0 0.2310098364787988 -0.38701206401208921 0 0.22949119931694609 -0.36960967453352289 0 0.24045882993474879 -0.38174266809933072 0 0.2310098364787988 -0.38701206401208921 0 0.22949119931694609 -0.36960967453352289 0 0.2310098364787988 -0.38701206401208921 0 0.2212213569389252 -0.38401321254664039 0 0.22212216930520631 -0.39831003294567002 0 0.2310098364787988 -0.38701206401208921 0 0.2212213569389252 -0.38401321254664039 0 0.21008562042365689 -0.37033731659119712 0 0.21482974268455751 -0.39030407955476548 0 0.20688545351294491 -0.39855682413951382 0 0.21008562042365689 -0.37033731659119712 0 0.20688545351294491 -0.39855682413951382 0 0.21008562042365689 -0.37033731659119712 0 0.2212213569389252 -0.38401321254664039 0 0.21482974268455751 -0.39030407955476548 0 0.21482974268455751 -0.39030407955476548 0 0.2131522674568084 -0.40041657830780308 0 0.20688545351294491 -0.39855682413951382 0 0.22212216930520631 -0.39831003294567002 0 0.21482974268455751 -0.39030407955476548 0 0.2131522674568084 -0.40041657830780308 0 0.219159866822765 -0.41135226252755341 0 0.22212216930520631 -0.39831003294567002 0 0.2131522674568084 -0.40041657830780308 0 0.219159866822765 -0.41135226252755341 0 0.2131522674568084 -0.40041657830780308 0 0.2038820689558834 -0.40254888462260902 0 0.2131522674568084 -0.40041657830780308 0 0.20688545351294491 -0.39855682413951382 0 0.2038820689558834 -0.40254888462260902 0 0.2038820689558834 -0.40254888462260902 0 0.19150965827954169 -0.37955078099249201 0 0.18454535863730689 -0.40823902432122189 0 0.2038820689558834 -0.40254888462260902 0 0.19150965827954169 -0.37955078099249201 0 0.20688545351294491 -0.39855682413951382 0 0.2038820689558834 -0.40254888462260902 0 0.19150965827954169 -0.37955078099249201 0 0.21008562042365689 -0.37033731659119712 0 0.20688545351294491 -0.39855682413951382 0 0.19150965827954169 -0.37955078099249201 0 0.1703688021240003 -0.37268438211413601 0 0.19150965827954169 -0.37955078099249201 0 0.1712434286576838 -0.39366432719586308 0 0.19150965827954169 -0.37955078099249201 0 0.1712434286576838 -0.39366432719586308 0 0.18454535863730689 -0.40823902432122189 0 0.1712434286576838 -0.39366432719586308 0 0.16838997812976819 -0.41562162311749112 0 0.18454535863730689 -0.40823902432122189 0 0.1712434286576838 -0.39366432719586308 0 0.15614092459492951 -0.3821084620672997 0 0.1551515125978136 -0.4035770825689774 0 0.1712434286576838 -0.39366432719586308 0 0.1551515125978136 -0.4035770825689774 0 0.16838997812976819 -0.41562162311749112 0 0.1703688021240003 -0.37268438211413601 0 0.1712434286576838 -0.39366432719586308 0 0.15614092459492951 -0.3821084620672997 0 0.1703688021240003 -0.37268438211413601 0 0.15614092459492951 -0.3821084620672997 0 0.14428548563926091 -0.37342877462161089 0 0.15614092459492951 -0.3821084620672997 0 0.141913047065859 -0.39153254202046373 0 0.15614092459492951 -0.3821084620672997 0 0.141913047065859 -0.39153254202046373 0 0.141913047065859 -0.39153254202046373 0 0.1227683379170192 -0.37411441866801581 0 0.14428548563926091 -0.37342877462161089 0 0.141913047065859 -0.39153254202046373 0 0.1227683379170192 -0.37411441866801581 0 0.12606568613086669 -0.38972050186885748 0 0.141913047065859 -0.39153254202046373 0 0.1227683379170192 -0.37411441866801581 0 0.141913047065859 -0.39153254202046373 0 0.1399436834928062 -0.41144846192415913 0 0.1215518656798904 -0.40501912151414893 0 0.12606568613086669 -0.38972050186885748 0 0.141913047065859 -0.39153254202046373 0 0.1215518656798904 -0.40501912151414893 0 0.141913047065859 -0.39153254202046373 0 0.1215518656798904 -0.40501912151414893 0 0.15614092459492951 -0.3821084620672997 0 0.141913047065859 -0.39153254202046373 0 0.1551515125978136 -0.4035770825689774 0 0.141913047065859 -0.39153254202046373 0 0.1551515125978136 -0.4035770825689774 0 0.1399436834928062 -0.41144846192415913 0 0.141913047065859 -0.39153254202046373 0 0.1551515125978136 -0.4035770825689774 0 0.1551515125978136 -0.4035770825689774 0 0.15295575055437219 -0.41859675237497862 0 0.1399436834928062 -0.41144846192415913 0 0.15295575055437219 -0.41859675237497862 0 0.1399436834928062 -0.41144846192415913 0 0.1414873647498093 -0.42765640506031682 0 0.1399436834928062 -0.41144846192415913 0 0.1262310120512124 -0.42202585740567061 0 0.1414873647498093 -0.42765640506031682 0 0.1399436834928062 -0.41144846192415913 0 0.1262310120512124 -0.42202585740567061 0 0.1215518656798904 -0.40501912151414893 0 0.1262310120512124 -0.42202585740567061 0 0.1414873647498093 -0.42765640506031682 0 0.12858703422458159 -0.43808180146997538 0 0.1414873647498093 -0.42765640506031682 0 0.14265321675026141 -0.44101310654581261 0 0.12858703422458159 -0.43808180146997538 0 0.1414873647498093 -0.42765640506031682 0 0.15906311728590211 -0.43411416800315072 0 0.14265321675026141 -0.44101310654581261 0 0.15295575055437219 -0.41859675237497862 0 0.1414873647498093 -0.42765640506031682 0 0.15906311728590211 -0.43411416800315072 0 0.15906311728590211 -0.43411416800315072 0 0.16838997812976819 -0.41562162311749112 0 0.17573119782453961 -0.42886664935547891 0 0.15295575055437219 -0.41859675237497862 0 0.15906311728590211 -0.43411416800315072 0 0.16838997812976819 -0.41562162311749112 0 0.1551515125978136 -0.4035770825689774 0 0.16838997812976819 -0.41562162311749112 0 0.1551515125978136 -0.4035770825689774 0 0.15295575055437219 -0.41859675237497862 0 0.16838997812976819 -0.41562162311749112 0 0.16838997812976819 -0.41562162311749112 0 0.18454535863730689 -0.40823902432122189 0 0.17573119782453961 -0.42886664935547891 0 0.19401287330235459 -0.42780977636083112 0 0.18454535863730689 -0.40823902432122189 0 0.17573119782453961 -0.42886664935547891 0 0.19401287330235459 -0.42780977636083112 0 0.17573119782453961 -0.42886664935547891 0 0.1791625437011049 -0.45086594171996608 0 0.18817722108496879 -0.4624262647455506 0 0.1791625437011049 -0.45086594171996608 0 0.16766903517151971 -0.46154488952563938 0 0.18817722108496879 -0.4624262647455506 0 0.16766903517151971 -0.46154488952563938 0 0.17790227641871509 -0.47288241073231091 0 0.1791625437011049 -0.45086594171996608 0 0.16766903517151971 -0.46154488952563938 0 0.15443037039737301 -0.4520263666385288 0 0.16766903517151971 -0.46154488952563938 0 0.15661612343774481 -0.46268746242302811 0 0.1569841680496587 -0.47325745840656808 0 0.16766903517151971 -0.46154488952563938 0 0.15661612343774481 -0.46268746242302811 0 0.15443037039737301 -0.4520263666385288 0 0.15906311728590211 -0.43411416800315072 0 0.1791625437011049 -0.45086594171996608 0 0.15443037039737301 -0.4520263666385288 0 0.1791625437011049 -0.45086594171996608 0 0.15443037039737301 -0.4520263666385288 0 0.15906311728590211 -0.43411416800315072 0 0.17573119782453961 -0.42886664935547891 0 0.1791625437011049 -0.45086594171996608 0 0.15443037039737301 -0.4520263666385288 0 0.14265321675026141 -0.44101310654581261 0 0.129698197093641 -0.45318679155709141 0 0.15906311728590211 -0.43411416800315072 0 0.15443037039737301 -0.4520263666385288 0 0.14265321675026141 -0.44101310654581261 0 0.15443037039737301 -0.4520263666385288 0 0.129698197093641 -0.45318679155709141 0 0.14265321675026141 -0.44101310654581261 0 0.12858703422458159 -0.43808180146997538 0 0.129698197093641 -0.45318679155709141 0 0.129698197093641 -0.45318679155709141 0 0.1351925096131697 -0.46372406252643639 0 0.1288378849121517 -0.47186293498240311 0 0.129698197093641 -0.45318679155709141 0 0.1351925096131697 -0.46372406252643639 0 0.1459648645693995 -0.46354726537127688 0 0.1351925096131697 -0.46372406252643639 0 0.1459648645693995 -0.46354726537127688 0 0.1360660596806022 -0.47363250608082458 0 0.15443037039737301 -0.4520263666385288 0 0.129698197093641 -0.45318679155709141 0 0.1459648645693995 -0.46354726537127688 0 0.15661612343774481 -0.46268746242302811 0 0.15443037039737301 -0.4520263666385288 0 0.1459648645693995 -0.46354726537127688 0 0.15661612343774481 -0.46268746242302811 0 0.1459648645693995 -0.46354726537127688 0 0.1569841680496587 -0.47325745840656808 0 0.1360660596806022 -0.47363250608082458 0 0.15789617166800299 -0.47944079265402439 0 0.1360660596806022 -0.47363250608082458 0 0.1569841680496587 -0.47325745840656808 0 0.1459648645693995 -0.46354726537127688 0 0.1360660596806022 -0.47363250608082458 0 0.1569841680496587 -0.47325745840656808 0 0.1360660596806022 -0.47363250608082458 0 0.15789617166800299 -0.47944079265402439 0 0.1569841680496587 -0.47325745840656808 0 0.1360660596806022 -0.47363250608082458 0 0.1418620666251672 -0.49185649381036151 0 0.15789617166800299 -0.47944079265402439 0 0.13006075590751989 -0.47374017715574152 0 0.1418620666251672 -0.49185649381036151 0 0.1351925096131697 -0.46372406252643639 0 0.1360660596806022 -0.47363250608082458 0 0.1288378849121517 -0.47186293498240311 0 0.1360660596806022 -0.47363250608082458 0 0.13006075590751989 -0.47374017715574152 0 0.1418620666251672 -0.49185649381036151 0 0.1360660596806022 -0.47363250608082458 0 0.13006075590751989 -0.47374017715574152 0 0.1360660596806022 -0.47363250608082458 0 0.1288378849121517 -0.47186293498240311 0 0.1360660596806022 -0.47363250608082458 0 0.1288378849121517 -0.47186293498240311 0 0.13006075590751989 -0.47374017715574152 0 0.1288378849121517 -0.47186293498240311 0 0.13006075590751989 -0.47374017715574152 0 0.13694628990999741 -0.5 0 0.12584835997518221 -0.48823866819766037 0 0.1418620666251672 -0.49185649381036151 0 0.13006075590751989 -0.47374017715574152 0 0.12584835997518221 -0.48823866819766037 0 0.1418620666251672 -0.49185649381036151 0 0.13694628990999741 -0.5 0 0.1418620666251672 -0.49185649381036151 0 0.16551983488080649 -0.5 0 0.1418620666251672 -0.49185649381036151 0 0.16551983488080649 -0.5 0 0.15789617166800299 -0.47944079265402439 0 0.16551983488080649 -0.5 0 0.15789617166800299 -0.47944079265402439 0 0.17972628365540341 -0.48524907922722449 0 0.15789617166800299 -0.47944079265402439 0 0.17972628365540341 -0.48524907922722449 0 0.15789617166800299 -0.47944079265402439 0 0.1569841680496587 -0.47325745840656808 0 0.17790227641871509 -0.47288241073231091 0 0.16766903517151971 -0.46154488952563938 0 0.1569841680496587 -0.47325745840656808 0 0.17790227641871509 -0.47288241073231091 0 0.1569841680496587 -0.47325745840656808 0 0.17790227641871509 -0.47288241073231091 0 0.15789617166800299 -0.47944079265402439 0 0.17790227641871509 -0.47288241073231091 0 0.17972628365540341 -0.48524907922722449 0 0.19882038478777159 -0.4725073630580538 0 0.17790227641871509 -0.47288241073231091 0 0.17972628365540341 -0.48524907922722449 0 0.19409337985161559 -0.5 0 0.16551983488080649 -0.5 0 0.17972628365540341 -0.48524907922722449 0 0.079799199968379253 -0.5 0 0.057052474060402238 -0.47504916675581299 0 0.051225654997570147 -0.5 0 0.081388568009441428 -0.47461283688912242 0 0.066851872917483735 -0.46493982440385678 0 0.057052474060402238 -0.47504916675581299 0 0.081388568009441428 -0.47461283688912242 0 0.079799199968379253 -0.5 0 0.057052474060402238 -0.47504916675581299 0 0.081388568009441428 -0.47461283688912242 0 0.057052474060402238 -0.47504916675581299 0 0.081388568009441428 -0.47461283688912242 0 0.1057246619584807 -0.47417650702243169 0 0.081388568009441428 -0.47461283688912242 0 0.09382129371887242 -0.48719733597788861 0 0.1057246619584807 -0.47417650702243169 0 0.081388568009441428 -0.47461283688912242 0 0.079799199968379253 -0.5 0 0.09382129371887242 -0.48719733597788861 0 0.079799199968379253 -0.5 0 0.09382129371887242 -0.48719733597788861 0 0.10837274493918821 -0.5 0 0.09382129371887242 -0.48719733597788861 0 0.10837274493918821 -0.5 0 0.1057246619584807 -0.47417650702243169 0 0.12584835997518221 -0.48823866819766037 0 0.10837274493918821 -0.5 0 0.1057246619584807 -0.47417650702243169 0 0.13694628990999741 -0.5 0 0.12584835997518221 -0.48823866819766037 0 0.10837274493918821 -0.5 0 0.1288378849121517 -0.47186293498240311 0 0.13006075590751989 -0.47374017715574152 0 0.1057246619584807 -0.47417650702243169 0 0.13006075590751989 -0.47374017715574152 0 0.1057246619584807 -0.47417650702243169 0 0.13006075590751989 -0.47374017715574152 0 0.12584835997518221 -0.48823866819766037 0 0.1057246619584807 -0.47417650702243169 0 0.081388568009441428 -0.47461283688912242 0 0.1057246619584807 -0.47417650702243169 0 0.097254826427591701 -0.45744467776986258 0 0.1057246619584807 -0.47417650702243169 0 0.097254826427591701 -0.45744467776986258 0 0.1137789119952472 -0.44874574669856337 0 0.1288378849121517 -0.47186293498240311 0 0.1137789119952472 -0.44874574669856337 0 0.129698197093641 -0.45318679155709141 0 0.1288378849121517 -0.47186293498240311 0 0.1137789119952472 -0.44874574669856337 0 0.1288378849121517 -0.47186293498240311 0 0.1057246619584807 -0.47417650702243169 0 0.1137789119952472 -0.44874574669856337 0 0.12858703422458159 -0.43808180146997538 0 0.129698197093641 -0.45318679155709141 0 0.1137789119952472 -0.44874574669856337 0 0.12858703422458159 -0.43808180146997538 0 0.1137789119952472 -0.44874574669856337 0 0.1185942080969315 -0.43339738233350389 0 0.097254826427591701 -0.45744467776986258 0 0.098060203422228945 -0.44150824612553319 0 0.087321786752560332 -0.44818005211366257 0 0.1137789119952472 -0.44874574669856337 0 0.098060203422228945 -0.44150824612553319 0 0.097497068082975119 -0.42375131624138479 0 0.097254826427591701 -0.45744467776986258 0 0.1137789119952472 -0.44874574669856337 0 0.098060203422228945 -0.44150824612553319 0 0.087321786752560332 -0.44818005211366257 0 0.071807709283551027 -0.45105333382028101 0 0.077197148405089733 -0.43344584639152228 0 0.098060203422228945 -0.44150824612553319 0 0.087321786752560332 -0.44818005211366257 0 0.08950354616082698 -0.43416065676498661 0 0.087321786752560332 -0.44818005211366257 0 0.077197148405089733 -0.43344584639152228 0 0.08950354616082698 -0.43416065676498661 0 0.081388568009441428 -0.47461283688912242 0 0.097254826427591701 -0.45744467776986258 0 0.087321786752560332 -0.44818005211366257 0 0.081388568009441428 -0.47461283688912242 0 0.087321786752560332 -0.44818005211366257 0 0.071807709283551027 -0.45105333382028101 0 0.081388568009441428 -0.47461283688912242 0 0.066851872917483735 -0.46493982440385678 0 0.071807709283551027 -0.45105333382028101 0 0.066851872917483735 -0.46493982440385678 0 0.071807709283551027 -0.45105333382028101 0 0.057758924098356562 -0.45412974791497418 0 0.071807709283551027 -0.45105333382028101 0 0.077197148405089733 -0.43344584639152228 0 0.060686198789705943 -0.43862043640581999 0 0.071807709283551027 -0.45105333382028101 0 0.060686198789705943 -0.43862043640581999 0 0.057758924098356562 -0.45412974791497418 0 0.077197148405089733 -0.43344584639152228 0 0.062364839873992002 -0.42185644346979678 0 0.060686198789705943 -0.43862043640581999 0 0.077197148405089733 -0.43344584639152228 0 0.073785639127048094 -0.41652899221768258 0 0.062364839873992002 -0.42185644346979678 0 0.073785639127048094 -0.41652899221768258 0 0.062253340746978178 -0.40564236130097681 0 0.062364839873992002 -0.42185644346979678 0 0.073785639127048094 -0.41652899221768258 0 0.081215224170703135 -0.39875688578420632 0 0.062253340746978178 -0.40564236130097681 0 0.097497068082975119 -0.42375131624138479 0 0.1011906842939219 -0.41850570100783452 0 0.081215224170703135 -0.39875688578420632 0 0.085897642438477501 -0.42294342414191072 0 0.097497068082975119 -0.42375131624138479 0 0.081215224170703135 -0.39875688578420632 0 0.073785639127048094 -0.41652899221768258 0 0.085897642438477501 -0.42294342414191072 0 0.081215224170703135 -0.39875688578420632 0 0.097497068082975119 -0.42375131624138479 0 0.081215224170703135 -0.39875688578420632 0 0.077197148405089733 -0.43344584639152228 0 0.073785639127048094 -0.41652899221768258 0 0.085897642438477501 -0.42294342414191072 0 0.085897642438477501 -0.42294342414191072 0 0.08950354616082698 -0.43416065676498661 0 0.097497068082975119 -0.42375131624138479 0 0.077197148405089733 -0.43344584639152228 0 0.085897642438477501 -0.42294342414191072 0 0.08950354616082698 -0.43416065676498661 0 0.1137789119952472 -0.44874574669856337 0 0.097497068082975119 -0.42375131624138479 0 0.1137789119952472 -0.44874574669856337 0 0.097497068082975119 -0.42375131624138479 0 0.11115493123871981 -0.42544334957230567 0 0.098060203422228945 -0.44150824612553319 0 0.08950354616082698 -0.43416065676498661 0 0.097497068082975119 -0.42375131624138479 0 0.097497068082975119 -0.42375131624138479 0 0.11115493123871981 -0.42544334957230567 0 0.1011906842939219 -0.41850570100783452 0 0.1262310120512124 -0.42202585740567061 0 0.12858703422458159 -0.43808180146997538 0 0.1185942080969315 -0.43339738233350389 0 0.1137789119952472 -0.44874574669856337 0 0.11115493123871981 -0.42544334957230567 0 0.1185942080969315 -0.43339738233350389 0 0.1262310120512124 -0.42202585740567061 0 0.11115493123871981 -0.42544334957230567 0 0.1185942080969315 -0.43339738233350389 0 0.1262310120512124 -0.42202585740567061 0 0.11115493123871981 -0.42544334957230567 0 0.1215518656798904 -0.40501912151414893 0 0.1011906842939219 -0.41850570100783452 0 0.1215518656798904 -0.40501912151414893 0 0.11115493123871981 -0.42544334957230567 0 0.1011906842939219 -0.41850570100783452 0 0.1215518656798904 -0.40501912151414893 0 0.1011906842939219 -0.41850570100783452 0 0.1037771675986902 -0.4012359811756524 0 0.1215518656798904 -0.40501912151414893 0 0.1011906842939219 -0.41850570100783452 0 0.1037771675986902 -0.4012359811756524 0 0.081215224170703135 -0.39875688578420632 0 0.1037771675986902 -0.4012359811756524 0 0.10985413013740949 -0.38601987198356208 0 0.095274685748324706 -0.38888342763071981 0 0.1037771675986902 -0.4012359811756524 0 0.1215518656798904 -0.40501912151414893 0 0.10985413013740949 -0.38601987198356208 0 0.12606568613086669 -0.38972050186885748 0 0.1215518656798904 -0.40501912151414893 0 0.10985413013740949 -0.38601987198356208 0 0.12606568613086669 -0.38972050186885748 0 0.10985413013740949 -0.38601987198356208 0 0.1227683379170192 -0.37411441866801581 0 0.10985413013740949 -0.38601987198356208 0 0.1227683379170192 -0.37411441866801581 0 0.10985413013740949 -0.38601987198356208 0 0.1227683379170192 -0.37411441866801581 0 0.10817459204419071 -0.3745323483605737 0 0.10985413013740949 -0.38601987198356208 0 0.096850201759796778 -0.37765500736829821 0 0.10817459204419071 -0.3745323483605737 0 0.10985413013740949 -0.38601987198356208 0 0.095274685748324706 -0.38888342763071981 0 0.096850201759796778 -0.37765500736829821 0 0.095274685748324706 -0.38888342763071981 0 0.096850201759796778 -0.37765500736829821 0 0.084676705075023909 -0.38074939184188028 0 0.095274685748324706 -0.38888342763071981 0 0.084676705075023909 -0.38074939184188028 0 0.081215224170703135 -0.39875688578420632 0 0.096850201759796778 -0.37765500736829821 0 0.084676705075023909 -0.38074939184188028 0 0.080228975735496033 -0.36784209595436851 0 0.1037771675986902 -0.4012359811756524 0 0.095274685748324706 -0.38888342763071981 0 0.081215224170703135 -0.39875688578420632 0 0.081215224170703135 -0.39875688578420632 0 0.064372292409790546 -0.39192832404252798 0 0.062253340746978178 -0.40564236130097681 0 0.081215224170703135 -0.39875688578420632 0 0.064852787835328468 -0.3735451681895236 0 0.081215224170703135 -0.39875688578420632 0 0.064372292409790546 -0.39192832404252798 0 0.064852787835328468 -0.3735451681895236 0 0.084676705075023909 -0.38074939184188028 0 0.081215224170703135 -0.39875688578420632 0 0.064852787835328468 -0.3735451681895236 0 0.064372292409790546 -0.39192832404252798 0 0.058912300785301117 -0.38250125422996289 0 0.064852787835328468 -0.3735451681895236 0 0.064372292409790546 -0.39192832404252798 0 0.055361746805340631 -0.38641904778927882 0 0.04830849770274042 -0.39333244773635168 0 0.052861595907828331 -0.37786356411559069 0 0.055361746805340631 -0.38641904778927882 0 0.04830849770274042 -0.39333244773635168 0 0.057004889877836563 -0.37645597607222481 0 0.064852787835328468 -0.3735451681895236 0 0.057004889877836563 -0.37645597607222481 0 0.058912300785301117 -0.38250125422996289 0 0.064852787835328468 -0.3735451681895236 0 0.052861595907828331 -0.37786356411559069 0 0.057004889877836563 -0.37645597607222481 0 0.058912300785301117 -0.38250125422996289 0 0.052861595907828331 -0.37786356411559069 0 0.058912300785301117 -0.38250125422996289 0 0.055361746805340631 -0.38641904778927882 0 0.052861595907828331 -0.37786356411559069 0 0.057004889877836563 -0.37645597607222481 0 0.064372292409790546 -0.39192832404252798 0 0.058912300785301117 -0.38250125422996289 0 0.055361746805340631 -0.38641904778927882 0 0.062253340746978178 -0.40564236130097681 0 0.04830849770274042 -0.39333244773635168 0 0.047067247935635707 -0.41008687756125323 0 0.064372292409790546 -0.39192832404252798 0 0.062253340746978178 -0.40564236130097681 0 0.04830849770274042 -0.39333244773635168 0 0.04830849770274042 -0.39333244773635168 0 0.03702979348398007 -0.40182025836623919 0 0.025494216080160621 -0.38788503227681298 0 0.04830849770274042 -0.39333244773635168 0 0.03702979348398007 -0.40182025836623919 0 0.047067247935635707 -0.41008687756125323 0 0.052861595907828331 -0.37786356411559069 0 0.025494216080160621 -0.38788503227681298 0 0.052861595907828331 -0.37786356411559069 0 0.04830849770274042 -0.39333244773635168 0 0.025494216080160621 -0.38788503227681298 0 0.052861595907828331 -0.37786356411559069 0 0.025494216080160621 -0.38788503227681298 0 0.038791917046415103 -0.3650134572347023 0 0.025494216080160621 -0.38788503227681298 0 0.01232518706557627 -0.38158025174585869 0 0.013166416516699871 -0.39992630423524411 0 0.025494216080160621 -0.38788503227681298 0 0.01232518706557627 -0.38158025174585869 0 0.026102232132214489 -0.36747161115695909 0 -0.0017967946481693259 -0.37376702826922092 0 -0.0033272595925888941 -0.39598474572276809 0 0.01232518706557627 -0.38158025174585869 0 -0.0033272595925888941 -0.39598474572276809 0 0.01232518706557627 -0.38158025174585869 0 0.013166416516699871 -0.39992630423524411 0 -0.0033272595925888941 -0.39598474572276809 0 0.013166416516699871 -0.39992630423524411 0 0.005803058972465215 -0.41467922602276353 0 0.025494216080160621 -0.38788503227681298 0 0.013166416516699871 -0.39992630423524411 0 0.026088094128290249 -0.41073829140905838 0 0.03702979348398007 -0.40182025836623919 0 0.025494216080160621 -0.38788503227681298 0 0.026088094128290249 -0.41073829140905838 0 0.026088094128290249 -0.41073829140905838 0 0.005803058972465215 -0.41467922602276353 0 0.022369790942443329 -0.43127199927398691 0 0.013166416516699871 -0.39992630423524411 0 0.026088094128290249 -0.41073829140905838 0 0.005803058972465215 -0.41467922602276353 0 0.005803058972465215 -0.41467922602276353 0 0.0020425619738814252 -0.43644278707211959 0 0.022369790942443329 -0.43127199927398691 0 0.026088094128290249 -0.41073829140905838 0 0.022369790942443329 -0.43127199927398691 0 0.042807064943362727 -0.42810771336110431 0 0.022369790942443329 -0.43127199927398691 0 0.042807064943362727 -0.42810771336110431 0 0.034064328129846423 -0.43989093028487031 0 0.026088094128290249 -0.41073829140905838 0 0.042807064943362727 -0.42810771336110431 0 0.047067247935635707 -0.41008687756125323 0 0.03702979348398007 -0.40182025836623919 0 0.026088094128290249 -0.41073829140905838 0 0.047067247935635707 -0.41008687756125323 0 0.042807064943362727 -0.42810771336110431 0 0.047067247935635707 -0.41008687756125323 0 0.062364839873992002 -0.42185644346979678 0 0.062253340746978178 -0.40564236130097681 0 0.047067247935635707 -0.41008687756125323 0 0.062364839873992002 -0.42185644346979678 0 0.042807064943362727 -0.42810771336110431 0 0.060686198789705943 -0.43862043640581999 0 0.046284368761050299 -0.44497683180554659 0 0.042807064943362727 -0.42810771336110431 0 0.062364839873992002 -0.42185644346979678 0 0.060686198789705943 -0.43862043640581999 0 0.057758924098356562 -0.45412974791497418 0 0.045253041738975042 -0.45871989072611929 0 0.046284368761050299 -0.44497683180554659 0 0.060686198789705943 -0.43862043640581999 0 0.057758924098356562 -0.45412974791497418 0 0.046284368761050299 -0.44497683180554659 0 0.066851872917483735 -0.46493982440385678 0 0.0544314877777081 -0.46478650539081351 0 0.057052474060402238 -0.47504916675581299 0 0.066851872917483735 -0.46493982440385678 0 0.057758924098356562 -0.45412974791497418 0 0.0544314877777081 -0.46478650539081351 0 0.0544314877777081 -0.46478650539081351 0 0.045253041738975042 -0.45871989072611929 0 0.045241126073322917 -0.47109389715330402 0 0.057758924098356562 -0.45412974791497418 0 0.0544314877777081 -0.46478650539081351 0 0.045253041738975042 -0.45871989072611929 0 0.045253041738975042 -0.45871989072611929 0 0.035139977908902928 -0.46396040063464561 0 0.045241126073322917 -0.47109389715330402 0 0.045253041738975042 -0.45871989072611929 0 0.035139977908902928 -0.46396040063464561 0 0.033441501791461978 -0.45256909070169071 0 0.033441501791461978 -0.45256909070169071 0 0.046284368761050299 -0.44497683180554659 0 0.034064328129846423 -0.43989093028487031 0 0.042807064943362727 -0.42810771336110431 0 0.046284368761050299 -0.44497683180554659 0 0.034064328129846423 -0.43989093028487031 0 0.045253041738975042 -0.45871989072611929 0 0.033441501791461978 -0.45256909070169071 0 0.046284368761050299 -0.44497683180554659 0 0.022369790942443329 -0.43127199927398691 0 0.034064328129846423 -0.43989093028487031 0 0.020707381801263861 -0.44603589394216792 0 0.033441501791461978 -0.45256909070169071 0 0.034064328129846423 -0.43989093028487031 0 0.020707381801263861 -0.44603589394216792 0 -0.0077591932673332894 -0.4560817609030326 0 0.0020425619738814252 -0.43644278707211959 0 0.0098019565102068062 -0.45481327622676082 0 0.0020425619738814252 -0.43644278707211959 0 0.020707381801263861 -0.44603589394216792 0 0.0098019565102068062 -0.45481327622676082 0 0.0020425619738814252 -0.43644278707211959 0 0.022369790942443329 -0.43127199927398691 0 0.020707381801263861 -0.44603589394216792 0 -0.0077591932673332894 -0.4560817609030326 0 0.0098019565102068062 -0.45481327622676082 0 0.0083802861623239536 -0.47592182648919418 0 0.0098019565102068062 -0.45481327622676082 0 0.022524151459743211 -0.46122728009357911 0 0.0083802861623239536 -0.47592182648919418 0 0.020707381801263861 -0.44603589394216792 0 0.0098019565102068062 -0.45481327622676082 0 0.022524151459743211 -0.46122728009357911 0 0.035139977908902928 -0.46396040063464561 0 0.033441501791461978 -0.45256909070169071 0 0.022524151459743211 -0.46122728009357911 0 0.033441501791461978 -0.45256909070169071 0 0.020707381801263861 -0.44603589394216792 0 0.022524151459743211 -0.46122728009357911 0 0.035139977908902928 -0.46396040063464561 0 0.022524151459743211 -0.46122728009357911 0 0.026810706117823421 -0.4735078618212491 0 0.026810706117823421 -0.4735078618212491 0 0.0083802861623239536 -0.47592182648919418 0 0.022524151459743211 -0.46122728009357911 0 0.026810706117823421 -0.4735078618212491 0 0.0083802861623239536 -0.47592182648919418 0 0.0083802861623239536 -0.47592182648919418 0 0.032716380111363103 -0.47548549662250361 0 0.026810706117823421 -0.4735078618212491 0 0.0083802861623239536 -0.47592182648919418 0 0.032716380111363103 -0.47548549662250361 0 0.0083802861623239536 -0.47592182648919418 0 0.022652110026761041 -0.5 0 0.032716380111363103 -0.47548549662250361 0 -0.0059214349440480096 -0.5 0 -0.001559218297712473 -0.48630381278426621 0 0.022652110026761041 -0.5 0 -0.001559218297712473 -0.48630381278426621 0 0.0083802861623239536 -0.47592182648919418 0 0.022652110026761041 -0.5 0 0.022652110026761041 -0.5 0 0.032716380111363103 -0.47548549662250361 0 0.051225654997570147 -0.5 0 0.032716380111363103 -0.47548549662250361 0 0.057052474060402238 -0.47504916675581299 0 0.026810706117823421 -0.4735078618212491 0 0.032716380111363103 -0.47548549662250361 0 0.045241126073322917 -0.47109389715330402 0 0.035139977908902928 -0.46396040063464561 0 0.026810706117823421 -0.4735078618212491 0 0.045241126073322917 -0.47109389715330402 0 0.032716380111363103 -0.47548549662250361 0 0.045241126073322917 -0.47109389715330402 0 0.057052474060402238 -0.47504916675581299 0 0.026810706117823421 -0.4735078618212491 0 0.045241126073322917 -0.47109389715330402 0 0.032716380111363103 -0.47548549662250361 0 0.057052474060402238 -0.47504916675581299 0 0.051225654997570147 -0.5 0 0.0544314877777081 -0.46478650539081351 0 0.045241126073322917 -0.47109389715330402 0 0.057052474060402238 -0.47504916675581299 0 0.081118842629079771 -0.30168805617415378 0 0.083519938231687282 -0.27933084534531771 0 0.1103472935163861 -0.29231121108876601 0 0.081118842629079771 -0.30168805617415378 0 0.063357554445907807 -0.31429821883825831 0 0.059433572494966343 -0.29890443778677039 0 0.081118842629079771 -0.30168805617415378 0 0.066619386336831413 -0.28484967818570478 0 0.059433572494966343 -0.29890443778677039 0 0.081118842629079771 -0.30168805617415378 0 0.066619386336831413 -0.28484967818570478 0 0.083519938231687282 -0.27933084534531771 0 0.083519938231687282 -0.27933084534531771 0 0.056692582946988472 -0.26635047960186942 0 0.066619386336831413 -0.28484967818570478 0 0.083519938231687282 -0.27933084534531771 0 0.056692582946988472 -0.26635047960186942 0 0.075666061419851979 -0.25058102630538681 0 0.083519938231687282 -0.27933084534531771 0 0.056692582946988472 -0.26635047960186942 0 0.075666061419851979 -0.25058102630538681 0 0.083519938231687282 -0.27933084534531771 0 0.098131758774508041 -0.25132227540013069 0 0.083519938231687282 -0.27933084534531771 0 0.1065751036730464 -0.27163593425720178 0 0.1103472935163861 -0.29231121108876601 0 0.083519938231687282 -0.27933084534531771 0 0.1065751036730464 -0.27163593425720178 0 0.098131758774508041 -0.25132227540013069 0 0.1065751036730464 -0.27163593425720178 0 0.098131758774508041 -0.25132227540013069 0 0.1178361446961015 -0.25438522520056522 0 0.1315484349202912 -0.27340611545995608 0 0.1065751036730464 -0.27163593425720178 0 0.1178361446961015 -0.25438522520056522 0 0.1315484349202912 -0.27340611545995608 0 0.1065751036730464 -0.27163593425720178 0 0.1103472935163861 -0.29231121108876601 0 0.083519938231687282 -0.27933084534531771 0 0.1103472935163861 -0.29231121108876601 0 0.081118842629079771 -0.30168805617415378 0 0.1103472935163861 -0.29231121108876601 0 0.1022791844200315 -0.31585517468283358 0 0.13717464880108479 -0.3052915768322142 0 0.1103472935163861 -0.29231121108876601 0 0.12432076628891719 -0.31689767271897762 0 0.1103472935163861 -0.29231121108876601 0 0.12432076628891719 -0.31689767271897762 0 0.1022791844200315 -0.31585517468283358 0 0.13717464880108479 -0.3052915768322142 0 0.1103472935163861 -0.29231121108876601 0 0.12869626483080349 -0.33356230690395411 0 0.12432076628891719 -0.31689767271897762 0 0.1140226696683022 -0.32797927448933661 0 0.12432076628891719 -0.31689767271897762 0 0.1140226696683022 -0.32797927448933661 0 0.1022791844200315 -0.31585517468283358 0 0.12869626483080349 -0.33356230690395411 0 0.1140226696683022 -0.32797927448933661 0 0.1197219978513696 -0.33610024192499149 0 0.12869626483080349 -0.33356230690395411 0 0.1197219978513696 -0.33610024192499149 0 0.1185492547077379 -0.34535244466316278 0 0.1197219978513696 -0.33610024192499149 0 0.1111186384223242 -0.33995338008544018 0 0.1185492547077379 -0.34535244466316278 0 0.1140226696683022 -0.32797927448933661 0 0.1197219978513696 -0.33610024192499149 0 0.1111186384223242 -0.33995338008544018 0 0.1140226696683022 -0.32797927448933661 0 0.1111186384223242 -0.33995338008544018 0 0.1004793628605473 -0.33295840943302152 0 0.1111186384223242 -0.33995338008544018 0 0.1004793628605473 -0.33295840943302152 0 0.1017657741911329 -0.34457045637038147 0 0.1004793628605473 -0.33295840943302152 0 0.1017657741911329 -0.34457045637038147 0 0.088632662375152604 -0.34407407879925572 0 0.1004793628605473 -0.33295840943302152 0 0.1022791844200315 -0.31585517468283358 0 0.084728140986064043 -0.32486828594532818 0 0.1140226696683022 -0.32797927448933661 0 0.1004793628605473 -0.33295840943302152 0 0.1022791844200315 -0.31585517468283358 0 0.1227683379170192 -0.37411441866801581 0 0.122496978453228 -0.35613318591378929 0 0.10829433572242329 -0.36094576963454039 0 0.1102250157623898 -0.36931480321375842 0 0.1227683379170192 -0.37411441866801581 0 0.10829433572242329 -0.36094576963454039 0 0.1227683379170192 -0.37411441866801581 0 0.10829433572242329 -0.36094576963454039 0 0.1102250157623898 -0.36931480321375842 0 0.1227683379170192 -0.37411441866801581 0 0.10817459204419071 -0.3745323483605737 0 0.13496373539083151 -0.34779915963192393 0 0.1075963555631637 -0.35782062779314622 0 0.13496373539083151 -0.34779915963192393 0 0.122496978453228 -0.35613318591378929 0 0.1075963555631637 -0.35782062779314622 0 0.13496373539083151 -0.34779915963192393 0 0.1185492547077379 -0.34535244466316278 0 0.1075963555631637 -0.35782062779314622 0 0.122496978453228 -0.35613318591378929 0 0.1075963555631637 -0.35782062779314622 0 0.10829433572242329 -0.36094576963454039 0 0.1111186384223242 -0.33995338008544018 0 0.1185492547077379 -0.34535244466316278 0 0.108728994557564 -0.34805268128755867 0 0.1185492547077379 -0.34535244466316278 0 0.108728994557564 -0.34805268128755867 0 0.1075963555631637 -0.35782062779314622 0 0.097809760286578756 -0.35219858917179647 0 0.1075963555631637 -0.35782062779314622 0 0.089373970988225845 -0.35609721125915961 0 0.1111186384223242 -0.33995338008544018 0 0.108728994557564 -0.34805268128755867 0 0.1017657741911329 -0.34457045637038147 0 0.108728994557564 -0.34805268128755867 0 0.1039752211496098 -0.3506605886557207 0 0.1017657741911329 -0.34457045637038147 0 0.1017657741911329 -0.34457045637038147 0 0.097809760286578756 -0.35219858917179647 0 0.088632662375152604 -0.34407407879925572 0 0.1039752211496098 -0.3506605886557207 0 0.1017657741911329 -0.34457045637038147 0 0.097809760286578756 -0.35219858917179647 0 0.1039752211496098 -0.3506605886557207 0 0.097809760286578756 -0.35219858917179647 0 0.1075963555631637 -0.35782062779314622 0 0.108728994557564 -0.34805268128755867 0 0.1039752211496098 -0.3506605886557207 0 0.1075963555631637 -0.35782062779314622 0 0.1075963555631637 -0.35782062779314622 0 0.101662797365926 -0.36766667619190352 0 0.080228975735496033 -0.36784209595436851 0 0.1075963555631637 -0.35782062779314622 0 0.080228975735496033 -0.36784209595436851 0 0.1102250157623898 -0.36931480321375842 0 0.10829433572242329 -0.36094576963454039 0 0.101662797365926 -0.36766667619190352 0 0.1075963555631637 -0.35782062779314622 0 0.10829433572242329 -0.36094576963454039 0 0.101662797365926 -0.36766667619190352 0 0.1102250157623898 -0.36931480321375842 0 0.101662797365926 -0.36766667619190352 0 0.10817459204419071 -0.3745323483605737 0 0.096850201759796778 -0.37765500736829821 0 0.101662797365926 -0.36766667619190352 0 0.10817459204419071 -0.3745323483605737 0 0.096850201759796778 -0.37765500736829821 0 0.101662797365926 -0.36766667619190352 0 0.080228975735496033 -0.36784209595436851 0 0.1075963555631637 -0.35782062779314622 0 0.080228975735496033 -0.36784209595436851 0 0.089373970988225845 -0.35609721125915961 0 0.088632662375152604 -0.34407407879925572 0 0.076080371470746588 -0.3533455530197343 0 0.070815395714644985 -0.33625067264021719 0 0.080228975735496033 -0.36784209595436851 0 0.089373970988225845 -0.35609721125915961 0 0.076080371470746588 -0.3533455530197343 0 0.097809760286578756 -0.35219858917179647 0 0.089373970988225845 -0.35609721125915961 0 0.088632662375152604 -0.34407407879925572 0 0.089373970988225845 -0.35609721125915961 0 0.088632662375152604 -0.34407407879925572 0 0.076080371470746588 -0.3533455530197343 0 0.076080371470746588 -0.3533455530197343 0 0.070815395714644985 -0.33625067264021719 0 0.060668906007330159 -0.34945736648917358 0 0.076080371470746588 -0.3533455530197343 0 0.065219394327938621 -0.3622163342484892 0 0.060668906007330159 -0.34945736648917358 0 0.084676705075023909 -0.38074939184188028 0 0.080228975735496033 -0.36784209595436851 0 0.064852787835328468 -0.3735451681895236 0 0.080228975735496033 -0.36784209595436851 0 0.076080371470746588 -0.3533455530197343 0 0.065219394327938621 -0.3622163342484892 0 0.080228975735496033 -0.36784209595436851 0 0.065219394327938621 -0.3622163342484892 0 0.064852787835328468 -0.3735451681895236 0 0.080228975735496033 -0.36784209595436851 0 0.064852787835328468 -0.3735451681895236 0 0.081118842629079771 -0.30168805617415378 0 0.1022791844200315 -0.31585517468283358 0 0.084728140986064043 -0.32486828594532818 0 0.1004793628605473 -0.33295840943302152 0 0.088632662375152604 -0.34407407879925572 0 0.084728140986064043 -0.32486828594532818 0 0.088632662375152604 -0.34407407879925572 0 0.084728140986064043 -0.32486828594532818 0 0.070815395714644985 -0.33625067264021719 0 0.081118842629079771 -0.30168805617415378 0 0.084728140986064043 -0.32486828594532818 0 0.063357554445907807 -0.31429821883825831 0 0.084728140986064043 -0.32486828594532818 0 0.070815395714644985 -0.33625067264021719 0 0.063357554445907807 -0.31429821883825831 0 0.084728140986064043 -0.32486828594532818 0 0.063357554445907807 -0.31429821883825831 0 0.063357554445907807 -0.31429821883825831 0 0.051785937762109803 -0.33021529489966378 0 0.041986967905752008 -0.30372815173118778 0 0.070815395714644985 -0.33625067264021719 0 0.063357554445907807 -0.31429821883825831 0 0.051785937762109803 -0.33021529489966378 0 0.051785937762109803 -0.33021529489966378 0 0.060668906007330159 -0.34945736648917358 0 0.042526841744702087 -0.34869400274384899 0 0.070815395714644985 -0.33625067264021719 0 0.051785937762109803 -0.33021529489966378 0 0.060668906007330159 -0.34945736648917358 0 0.051785937762109803 -0.33021529489966378 0 0.031359960754321722 -0.32886335695529689 0 0.042526841744702087 -0.34869400274384899 0 0.031359960754321722 -0.32886335695529689 0 0.041986967905752008 -0.30372815173118778 0 0.031359960754321722 -0.32886335695529689 0 0.025690267251229418 -0.3114815422935609 0 0.041986967905752008 -0.30372815173118778 0 0.051785937762109803 -0.33021529489966378 0 0.031359960754321722 -0.32886335695529689 0 0.041986967905752008 -0.30372815173118778 0 0.057004889877836563 -0.37645597607222481 0 0.038791917046415103 -0.3650134572347023 0 0.052861595907828331 -0.37786356411559069 0 0.057004889877836563 -0.37645597607222481 0 0.038791917046415103 -0.3650134572347023 0 0.057004889877836563 -0.37645597607222481 0 0.052811587923265041 -0.3602819026012426 0 0.038791917046415103 -0.3650134572347023 0 0.057004889877836563 -0.37645597607222481 0 0.065219394327938621 -0.3622163342484892 0 0.052811587923265041 -0.3602819026012426 0 0.057004889877836563 -0.37645597607222481 0 0.065219394327938621 -0.3622163342484892 0 0.064852787835328468 -0.3735451681895236 0 0.052811587923265041 -0.3602819026012426 0 0.060668906007330159 -0.34945736648917358 0 0.042526841744702087 -0.34869400274384899 0 0.065219394327938621 -0.3622163342484892 0 0.052811587923265041 -0.3602819026012426 0 0.060668906007330159 -0.34945736648917358 0 0.031359960754321722 -0.32886335695529689 0 0.042526841744702087 -0.34869400274384899 0 0.02073295360289111 -0.35399856217940578 0 0.052811587923265041 -0.3602819026012426 0 0.042526841744702087 -0.34869400274384899 0 0.038791917046415103 -0.3650134572347023 0 0.042526841744702087 -0.34869400274384899 0 0.038791917046415103 -0.3650134572347023 0 0.02073295360289111 -0.35399856217940578 0 0.01232518706557627 -0.38158025174585869 0 0.026102232132214489 -0.36747161115695909 0 0.011501263550186269 -0.36478424459629483 0 0.025494216080160621 -0.38788503227681298 0 0.038791917046415103 -0.3650134572347023 0 0.026102232132214489 -0.36747161115695909 0 0.038791917046415103 -0.3650134572347023 0 0.026102232132214489 -0.36747161115695909 0 0.02073295360289111 -0.35399856217940578 0 0.038791917046415103 -0.3650134572347023 0 0.02073295360289111 -0.35399856217940578 0 0.026102232132214489 -0.36747161115695909 0 0.01981031745592773 -0.3561807992448992 0 0.011501263550186269 -0.36478424459629483 0 0.026102232132214489 -0.36747161115695909 0 0.02073295360289111 -0.35399856217940578 0 0.01981031745592773 -0.3561807992448992 0 0.02073295360289111 -0.35399856217940578 0 0.01981031745592773 -0.3561807992448992 0 0.01050169479713855 -0.35431620341975861 0 0.02073295360289111 -0.35399856217940578 0 0.01981031745592773 -0.3561807992448992 0 0.02073295360289111 -0.35399856217940578 0 0.01050169479713855 -0.35431620341975861 0 0.001851480826797145 -0.34248198528569201 0 0.02073295360289111 -0.35399856217940578 0 0.01589813533370673 -0.33648527218573399 0 0.001851480826797145 -0.34248198528569201 0 0.02073295360289111 -0.35399856217940578 0 0.001851480826797145 -0.34248198528569201 0 -0.00016034541594564481 -0.35905415536001412 0 0.01050169479713855 -0.35431620341975861 0 0.001851480826797145 -0.34248198528569201 0 0.01981031745592773 -0.3561807992448992 0 0.01050169479713855 -0.35431620341975861 0 0.011501263550186269 -0.36478424459629483 0 -0.0017967946481693259 -0.37376702826922092 0 0.01232518706557627 -0.38158025174585869 0 0.011501263550186269 -0.36478424459629483 0 -0.00016034541594564481 -0.35905415536001412 0 -0.0017967946481693259 -0.37376702826922092 0 0.011501263550186269 -0.36478424459629483 0 -0.00016034541594564481 -0.35905415536001412 0 0.01050169479713855 -0.35431620341975861 0 0.011501263550186269 -0.36478424459629483 0 0.031359960754321722 -0.32886335695529689 0 0.0096481461508169282 -0.32059718432254158 0 0.025690267251229418 -0.3114815422935609 0 0.031359960754321722 -0.32886335695529689 0 0.02073295360289111 -0.35399856217940578 0 0.031359960754321722 -0.32886335695529689 0 0.01589813533370673 -0.33648527218573399 0 0.0096481461508169282 -0.32059718432254158 0 0.031359960754321722 -0.32886335695529689 0 0.02073295360289111 -0.35399856217940578 0 0.01589813533370673 -0.33648527218573399 0 0.01589813533370673 -0.33648527218573399 0 0.001851480826797145 -0.34248198528569201 0 0.0096481461508169282 -0.32059718432254158 0 -0.0088985459957128116 -0.30660601876018317 0 0.0096481461508169282 -0.32059718432254158 0 0.019765994194027019 -0.29273747616521739 0 -0.0088985459957128116 -0.30660601876018317 0 -0.0024549795176976338 -0.28174680059924628 0 0.019765994194027019 -0.29273747616521739 0 -0.0024549795176976338 -0.28174680059924628 0 0.019765994194027019 -0.29273747616521739 0 0.0096481461508169282 -0.32059718432254158 0 0.019765994194027019 -0.29273747616521739 0 0.025690267251229418 -0.3114815422935609 0 0.019765994194027019 -0.29273747616521739 0 0.041986967905752008 -0.30372815173118778 0 0.019765994194027019 -0.29273747616521739 0 0.025690267251229418 -0.3114815422935609 0 0.041986967905752008 -0.30372815173118778 0 0.019765994194027019 -0.29273747616521739 0 0.04899145521389274 -0.2871610013123525 0 0.035573581877709787 -0.27254431980869442 0 0.019765994194027019 -0.29273747616521739 0 0.041986967905752008 -0.30372815173118778 0 0.04899145521389274 -0.2871610013123525 0 0.041986967905752008 -0.30372815173118778 0 0.04899145521389274 -0.2871610013123525 0 0.066619386336831413 -0.28484967818570478 0 0.04899145521389274 -0.2871610013123525 0 0.059433572494966343 -0.29890443778677039 0 0.041986967905752008 -0.30372815173118778 0 0.04899145521389274 -0.2871610013123525 0 0.059433572494966343 -0.29890443778677039 0 0.063357554445907807 -0.31429821883825831 0 0.041986967905752008 -0.30372815173118778 0 0.063357554445907807 -0.31429821883825831 0 0.041986967905752008 -0.30372815173118778 0 0.059433572494966343 -0.29890443778677039 0 0.056692582946988472 -0.26635047960186942 0 0.02986522766228987 -0.25337011385842118 0 0.050672133334879119 -0.23138535083256251 0 0.066619386336831413 -0.28484967818570478 0 0.055995942522033472 -0.27059385089351717 0 0.056692582946988472 -0.26635047960186942 0 0.04899145521389274 -0.2871610013123525 0 0.055995942522033472 -0.27059385089351717 0 0.049313390640156107 -0.27416241290410842 0 0.066619386336831413 -0.28484967818570478 0 0.04899145521389274 -0.2871610013123525 0 0.055995942522033472 -0.27059385089351717 0 0.056692582946988472 -0.26635047960186942 0 0.049313390640156107 -0.27416241290410842 0 0.035573581877709787 -0.27254431980869442 0 0.04899145521389274 -0.2871610013123525 0 0.055995942522033472 -0.27059385089351717 0 0.055995942522033472 -0.27059385089351717 0 0.056692582946988472 -0.26635047960186942 0 0.049313390640156107 -0.27416241290410842 0 0.04899145521389274 -0.2871610013123525 0 0.049313390640156107 -0.27416241290410842 0 0.035573581877709787 -0.27254431980869442 0 0.056692582946988472 -0.26635047960186942 0 0.02986522766228987 -0.25337011385842118 0 0.056692582946988472 -0.26635047960186942 0 0.035573581877709787 -0.27254431980869442 0 0.02986522766228987 -0.25337011385842118 0 0.035573581877709787 -0.27254431980869442 0 0.02986522766228987 -0.25337011385842118 0 0.01053898167853382 -0.26196387814045702 0 0.019765994194027019 -0.29273747616521739 0 0.035573581877709787 -0.27254431980869442 0 0.01053898167853382 -0.26196387814045702 0 -0.0024549795176976338 -0.28174680059924628 0 0.019765994194027019 -0.29273747616521739 0 0.01053898167853382 -0.26196387814045702 0 0.02986522766228987 -0.25337011385842118 0 0.01053898167853382 -0.26196387814045702 0 0.0030378723775897828 -0.24038974811497629 0 -0.010819040425910659 -0.25557293657412511 0 0.01053898167853382 -0.26196387814045702 0 0.0030378723775897828 -0.24038974811497629 0 0.0030378723775897828 -0.24038974811497629 0 0.018894798920638681 -0.2230151201946339 0 -0.0017146979285968689 -0.2201291090249857 0 0.0030378723775897828 -0.24038974811497629 0 0.018894798920638681 -0.2230151201946339 0 0.02986522766228987 -0.25337011385842118 0 0.0030378723775897828 -0.24038974811497629 0 0.02986522766228987 -0.25337011385842118 0 0.0030378723775897828 -0.24038974811497629 0 0.018894798920638681 -0.2230151201946339 0 0.010998487786589651 -0.2039049364373606 0 0.028450834224835291 -0.1857139341266939 0 0.0037036872983158189 -0.18532614146338761 0 -0.0017146979285968689 -0.2201291090249857 0 0.018894798920638681 -0.2230151201946339 0 0.010998487786589651 -0.2039049364373606 0 0.018894798920638681 -0.2230151201946339 0 0.034751725463678489 -0.20564049227428319 0 0.018894798920638681 -0.2230151201946339 0 0.010998487786589651 -0.2039049364373606 0 0.034751725463678489 -0.20564049227428319 0 0.010998487786589651 -0.2039049364373606 0 0.034751725463678489 -0.20564049227428319 0 0.028450834224835291 -0.1857139341266939 0 0.034751725463678489 -0.20564049227428319 0 0.05060865200671829 -0.18826586435393261 0 0.034751725463678489 -0.20564049227428319 0 0.05060865200671829 -0.18826586435393261 0 0.028450834224835291 -0.1857139341266939 0 0.034751725463678489 -0.20564049227428319 0 0.058110166651793797 -0.2094383506815406 0 0.050672133334879119 -0.23138535083256251 0 0.034751725463678489 -0.20564049227428319 0 0.058110166651793797 -0.2094383506815406 0 0.05060865200671829 -0.18826586435393261 0 0.058110166651793797 -0.2094383506815406 0 0.05060865200671829 -0.18826586435393261 0 0.076879476181799355 -0.19591254911064021 0 0.02986522766228987 -0.25337011385842118 0 0.018894798920638681 -0.2230151201946339 0 0.050672133334879119 -0.23138535083256251 0 0.075666061419851979 -0.25058102630538681 0 0.056692582946988472 -0.26635047960186942 0 0.050672133334879119 -0.23138535083256251 0 0.018894798920638681 -0.2230151201946339 0 0.034751725463678489 -0.20564049227428319 0 0.050672133334879119 -0.23138535083256251 0 0.075666061419851979 -0.25058102630538681 0 0.050672133334879119 -0.23138535083256251 0 0.080309637489329483 -0.22523104530991159 0 0.075666061419851979 -0.25058102630538681 0 0.098131758774508041 -0.25132227540013069 0 0.080309637489329483 -0.22523104530991159 0 0.058110166651793797 -0.2094383506815406 0 0.050672133334879119 -0.23138535083256251 0 0.080309637489329483 -0.22523104530991159 0 0.058110166651793797 -0.2094383506815406 0 0.080309637489329483 -0.22523104530991159 0 0.076879476181799355 -0.19591254911064021 0 0.076879476181799355 -0.19591254911064021 0 0.098496299356997885 -0.20611736976675829 0 0.10044661442515281 -0.1811027452885785 0 0.080309637489329483 -0.22523104530991159 0 0.076879476181799355 -0.19591254911064021 0 0.098496299356997885 -0.20611736976675829 0 0.098496299356997885 -0.20611736976675829 0 0.1200465015242379 -0.19935528873319 0 0.10044661442515281 -0.1811027452885785 0 0.1200465015242379 -0.19935528873319 0 0.10044661442515281 -0.1811027452885785 0 0.1200465015242379 -0.19935528873319 0 0.11563926977356601 -0.2271066975156624 0 0.1357376281676487 -0.20776248780239509 0 0.098496299356997885 -0.20611736976675829 0 0.1200465015242379 -0.19935528873319 0 0.11563926977356601 -0.2271066975156624 0 0.098131758774508041 -0.25132227540013069 0 0.080309637489329483 -0.22523104530991159 0 0.11563926977356601 -0.2271066975156624 0 0.080309637489329483 -0.22523104530991159 0 0.098496299356997885 -0.20611736976675829 0 0.11563926977356601 -0.2271066975156624 0 0.1178361446961015 -0.25438522520056522 0 0.11563926977356601 -0.2271066975156624 0 0.1335561985377903 -0.24472646869262221 0 0.098131758774508041 -0.25132227540013069 0 0.1178361446961015 -0.25438522520056522 0 0.11563926977356601 -0.2271066975156624 0 0.099461111383962242 -0.13013365886931819 0 0.1106650433206371 -0.14631898978087629 0 0.090270839121076946 -0.14560862029165861 0 0.095927327658147141 -0.15056071791366141 0 0.1106650433206371 -0.14631898978087629 0 0.090270839121076946 -0.14560862029165861 0 0.1106650433206371 -0.14631898978087629 0 0.090270839121076946 -0.14560862029165861 0 0.099461111383962242 -0.13013365886931819 0 0.11536127226820569 -0.14686245808194459 0 0.1106650433206371 -0.14631898978087629 0 0.10803652126945271 -0.1525380328183604 0 0.1009344685437812 -0.15425403197726531 0 0.1106650433206371 -0.14631898978087629 0 0.1009344685437812 -0.15425403197726531 0 0.095927327658147141 -0.15056071791366141 0 0.1106650433206371 -0.14631898978087629 0 0.10803652126945271 -0.1525380328183604 0 0.1009344685437812 -0.15425403197726531 0 0.11158953184486101 -0.15889258842229889 0 0.1009344685437812 -0.15425403197726531 0 0.095927327658147141 -0.15056071791366141 0 0.091183295547602863 -0.15621927508804251 0 0.099461111383962242 -0.13013365886931819 0 0.090270839121076946 -0.14560862029165861 0 0.099461111383962242 -0.13013365886931819 0 0.11536127226820569 -0.14686245808194459 0 0.099461111383962242 -0.13013365886931819 0 0.11941225322926111 -0.13803902848049299 0 0.11536127226820569 -0.14686245808194459 0 0.099461111383962242 -0.13013365886931819 0 0.1170016071620527 -0.12792091724090421 0 0.11941225322926111 -0.13803902848049299 0 0.1170016071620527 -0.12792091724090421 0 0.12649762265596601 -0.1206141667289754 0 0.12873445694653279 -0.1356233751993875 0 0.11941225322926111 -0.13803902848049299 0 0.12591033640807511 -0.14704369877296469 0 0.12873445694653279 -0.1356233751993875 0 0.1170016071620527 -0.12792091724090421 0 0.11941225322926111 -0.13803902848049299 0 0.12873445694653279 -0.1356233751993875 0 0.11536127226820569 -0.14686245808194459 0 0.1312614331524497 -0.1635912572945705 0 0.12591033640807511 -0.14704369877296469 0 0.11536127226820569 -0.14686245808194459 0 0.1312614331524497 -0.1635912572945705 0 0.11941225322926111 -0.13803902848049299 0 0.11536127226820569 -0.14686245808194459 0 0.12591033640807511 -0.14704369877296469 0 0.10803652126945271 -0.1525380328183604 0 0.11536127226820569 -0.14686245808194459 0 0.11158953184486101 -0.15889258842229889 0 0.10803652126945271 -0.1525380328183604 0 0.11536127226820569 -0.14686245808194459 0 0.1106650433206371 -0.14631898978087629 0 0.11158953184486101 -0.15889258842229889 0 0.1178015717316883 -0.17548725694934281 0 0.1312614331524497 -0.1635912572945705 0 0.11158953184486101 -0.15889258842229889 0 0.1178015717316883 -0.17548725694934281 0 0.1004849744452441 -0.1648803893471987 0 0.11536127226820569 -0.14686245808194459 0 0.11158953184486101 -0.15889258842229889 0 0.1312614331524497 -0.1635912572945705 0 0.1200465015242379 -0.19935528873319 0 0.1178015717316883 -0.17548725694934281 0 0.10044661442515281 -0.1811027452885785 0 0.1178015717316883 -0.17548725694934281 0 0.10044661442515281 -0.1811027452885785 0 0.1004849744452441 -0.1648803893471987 0 0.10044661442515281 -0.1811027452885785 0 0.1004849744452441 -0.1648803893471987 0 0.080846727326067763 -0.16285020184396709 0 0.1009344685437812 -0.15425403197726531 0 0.11158953184486101 -0.15889258842229889 0 0.1004849744452441 -0.1648803893471987 0 0.1009344685437812 -0.15425403197726531 0 0.1004849744452441 -0.1648803893471987 0 0.091183295547602863 -0.15621927508804251 0 0.1004849744452441 -0.1648803893471987 0 0.080846727326067763 -0.16285020184396709 0 0.091183295547602863 -0.15621927508804251 0 0.080846727326067763 -0.16285020184396709 0 0.082418862937627971 -0.1515575400468534 0 0.091183295547602863 -0.15621927508804251 0 0.10044661442515281 -0.1811027452885785 0 0.080846727326067763 -0.16285020184396709 0 0.10044661442515281 -0.1811027452885785 0 0.080846727326067763 -0.16285020184396709 0 0.081022006064117288 -0.17936720619484389 0 0.076879476181799355 -0.19591254911064021 0 0.10044661442515281 -0.1811027452885785 0 0.081022006064117288 -0.17936720619484389 0 0.076879476181799355 -0.19591254911064021 0 0.081022006064117288 -0.17936720619484389 0 0.066465578549758084 -0.17089123643358189 0 0.05060865200671829 -0.18826586435393261 0 0.076879476181799355 -0.19591254911064021 0 0.066465578549758084 -0.17089123643358189 0 0.080846727326067763 -0.16285020184396709 0 0.066465578549758084 -0.17089123643358189 0 0.06200048331877181 -0.15919415192403799 0 0.080846727326067763 -0.16285020184396709 0 0.081022006064117288 -0.17936720619484389 0 0.066465578549758084 -0.17089123643358189 0 0.082418862937627971 -0.1515575400468534 0 0.090270839121076946 -0.14560862029165861 0 0.061246840226982097 -0.14459765839935651 0 0.090270839121076946 -0.14560862029165861 0 0.061246840226982097 -0.14459765839935651 0 0.080846727326067763 -0.16285020184396709 0 0.061246840226982097 -0.14459765839935651 0 0.080846727326067763 -0.16285020184396709 0 0.082418862937627971 -0.1515575400468534 0 0.061246840226982097 -0.14459765839935651 0 0.080846727326067763 -0.16285020184396709 0 0.061246840226982097 -0.14459765839935651 0 0.06200048331877181 -0.15919415192403799 0 0.090270839121076946 -0.14560862029165861 0 0.088546612466410213 -0.14851194461124251 0 0.095927327658147141 -0.15056071791366141 0 0.090270839121076946 -0.14560862029165861 0 0.088546612466410213 -0.14851194461124251 0 0.082418862937627971 -0.1515575400468534 0 0.091183295547602863 -0.15621927508804251 0 0.088546612466410213 -0.14851194461124251 0 0.095927327658147141 -0.15056071791366141 0 0.091183295547602863 -0.15621927508804251 0 0.088546612466410213 -0.14851194461124251 0 0.082418862937627971 -0.1515575400468534 0 0.090270839121076946 -0.14560862029165861 0 0.088546612466410213 -0.14851194461124251 0 0.099461111383962242 -0.13013365886931819 0 0.090270839121076946 -0.14560862029165861 0 0.087896553422643603 -0.13373213836533909 0 0.090270839121076946 -0.14560862029165861 0 0.087896553422643603 -0.13373213836533909 0 0.076273510722176141 -0.13032729858833181 0 0.090270839121076946 -0.14560862029165861 0 0.076273510722176141 -0.13032729858833181 0 0.061246840226982097 -0.14459765839935651 0 0.076273510722176141 -0.13032729858833181 0 0.061882904551070282 -0.1264255339603941 0 0.061246840226982097 -0.14459765839935651 0 0.048273375529177077 -0.13251602104977719 0 0.061246840226982097 -0.14459765839935651 0 0.03295360434457259 -0.14361215039299011 0 0.061882904551070282 -0.1264255339603941 0 0.048273375529177077 -0.13251602104977719 0 0.04872371585495143 -0.1161819578950597 0 0.061882904551070282 -0.1264255339603941 0 0.048273375529177077 -0.13251602104977719 0 0.061246840226982097 -0.14459765839935651 0 0.048273375529177077 -0.13251602104977719 0 0.061246840226982097 -0.14459765839935651 0 0.061246840226982097 -0.14459765839935651 0 0.06200048331877181 -0.15919415192403799 0 0.046505175578559849 -0.1611882733181845 0 0.061246840226982097 -0.14459765839935651 0 0.03295360434457259 -0.14361215039299011 0 0.046505175578559849 -0.1611882733181845 0 0.061246840226982097 -0.14459765839935651 0 0.03295360434457259 -0.14361215039299011 0 0.03295360434457259 -0.14361215039299011 0 0.046505175578559849 -0.1611882733181845 0 0.030431451662984998 -0.16356764601514581 0 0.048273375529177077 -0.13251602104977719 0 0.03295360434457259 -0.14361215039299011 0 0.030881491201611471 -0.13142245338813499 0 0.048273375529177077 -0.13251602104977719 0 0.030881491201611471 -0.13142245338813499 0 0.035299910831371482 -0.1204343837001987 0 0.048273375529177077 -0.13251602104977719 0 0.035299910831371482 -0.1204343837001987 0 0.05060865200671829 -0.18826586435393261 0 0.066465578549758084 -0.17089123643358189 0 0.040429030083843021 -0.17562347397569661 0 0.05060865200671829 -0.18826586435393261 0 0.066465578549758084 -0.17089123643358189 0 0.066465578549758084 -0.17089123643358189 0 0.046505175578559849 -0.1611882733181845 0 0.040429030083843021 -0.17562347397569661 0 0.066465578549758084 -0.17089123643358189 0 0.06200048331877181 -0.15919415192403799 0 0.046505175578559849 -0.1611882733181845 0 0.046505175578559849 -0.1611882733181845 0 0.040429030083843021 -0.17562347397569661 0 0.030431451662984998 -0.16356764601514581 0 0.040429030083843021 -0.17562347397569661 0 0.028450834224835291 -0.1857139341266939 0 0.030431451662984998 -0.16356764601514581 0 0.05060865200671829 -0.18826586435393261 0 0.040429030083843021 -0.17562347397569661 0 0.028450834224835291 -0.1857139341266939 0 0.028450834224835291 -0.1857139341266939 0 0.030431451662984998 -0.16356764601514581 0 0.012624301280439039 -0.16680119825529191 0 0.030431451662984998 -0.16356764601514581 0 0.012624301280439039 -0.16680119825529191 0 0.01847811310324967 -0.15256111557992169 0 0.0038534333372737331 -0.1589623078312796 0 0.012624301280439039 -0.16680119825529191 0 0.0088324042951283301 -0.1514005134141071 0 0.012624301280439039 -0.16680119825529191 0 0.01847811310324967 -0.15256111557992169 0 0.0088324042951283301 -0.1514005134141071 0 -0.0021974887681538891 -0.1710032044305812 0 0.0038534333372737331 -0.1589623078312796 0 0.012624301280439039 -0.16680119825529191 0 -0.0021974887681538891 -0.1710032044305812 0 0.012624301280439039 -0.16680119825529191 0 0.0037036872983158189 -0.18532614146338761 0 0.028450834224835291 -0.1857139341266939 0 0.012624301280439039 -0.16680119825529191 0 0.0037036872983158189 -0.18532614146338761 0 0.019095958833860859 -0.1363705209309197 0 0.030881491201611471 -0.13142245338813499 0 0.02060793898948679 -0.1235698122374162 0 0.030881491201611471 -0.13142245338813499 0 0.02060793898948679 -0.1235698122374162 0 0.035299910831371482 -0.1204343837001987 0 0.03295360434457259 -0.14361215039299011 0 0.019095958833860859 -0.1363705209309197 0 0.030881491201611471 -0.13142245338813499 0 0.03295360434457259 -0.14361215039299011 0 0.019095958833860859 -0.1363705209309197 0 0.0046603684621628104 -0.1426266423866292 0 0.03295360434457259 -0.14361215039299011 0 0.0046603684621628104 -0.1426266423866292 0 0.03295360434457259 -0.14361215039299011 0 0.030431451662984998 -0.16356764601514581 0 0.01847811310324967 -0.15256111557992169 0 0.03295360434457259 -0.14361215039299011 0 0.01847811310324967 -0.15256111557992169 0 0.0046603684621628104 -0.1426266423866292 0 -0.001672999716826632 -0.15908307441973141 0 0.0038534333372737331 -0.1589623078312796 0 0.0046603684621628104 -0.1426266423866292 0 0.0038534333372737331 -0.1589623078312796 0 0.0088324042951283301 -0.1514005134141071 0 0.0046603684621628104 -0.1426266423866292 0 0.01847811310324967 -0.15256111557992169 0 0.0088324042951283301 -0.1514005134141071 0 0.0046603684621628104 -0.1426266423866292 0 0.0046603684621628104 -0.1426266423866292 0 0.0056030651199572906 -0.1221440163211721 0 0.02060793898948679 -0.1235698122374162 0 0.019095958833860859 -0.1363705209309197 0 0.0046603684621628104 -0.1426266423866292 0 0.02060793898948679 -0.1235698122374162 0 0.0046603684621628104 -0.1426266423866292 0 0.02060793898948679 -0.1235698122374162 0 -0.006850710005279358 -0.14222568930940019 0 0.0046603684621628104 -0.1426266423866292 0 0.0056030651199572906 -0.1221440163211721 0 0.0056030651199572906 -0.1221440163211721 0 0.018056840245196031 -0.1020623433329453 0 0.0033433695816099951 -0.1044055319074582 0 0.0056030651199572906 -0.1221440163211721 0 0.018056840245196031 -0.1020623433329453 0 -0.0085620011404608093 -0.1104453998028736 0 0.0056030651199572906 -0.1221440163211721 0 0.0033433695816099951 -0.1044055319074582 0 0.0056030651199572906 -0.1221440163211721 0 0.02060793898948679 -0.1235698122374162 0 0.018056840245196031 -0.1020623433329453 0 0.02060793898948679 -0.1235698122374162 0 0.035299910831371482 -0.1204343837001987 0 0.036555509516807527 -0.1045129820882006 0 0.02060793898948679 -0.1235698122374162 0 0.036555509516807527 -0.1045129820882006 0 0.02060793898948679 -0.1235698122374162 0 0.018056840245196031 -0.1020623433329453 0 0.036555509516807527 -0.1045129820882006 0 0.018056840245196031 -0.1020623433329453 0 0.038075612491783102 -0.09108577904418913 0 0.036555509516807527 -0.1045129820882006 0 0.018056840245196031 -0.1020623433329453 0 0.0033433695816099951 -0.1044055319074582 0 0.0067789116749813619 -0.088875342084001996 0 -0.0051599679916239016 -0.098500557996298033 0 0.0033433695816099951 -0.1044055319074582 0 0.0067789116749813619 -0.088875342084001996 0 -0.0019047174400742891 -0.072071791944647356 0 0.013345290293737129 -0.073265792880389841 0 0.0063456604897870542 -0.056665138065186929 0 -0.0019047174400742891 -0.072071791944647356 0 0.0067789116749813619 -0.088875342084001996 0 0.013345290293737129 -0.073265792880389841 0 0.013345290293737129 -0.073265792880389841 0 0.023665314480786039 -0.063064517143019153 0 0.0063456604897870542 -0.056665138065186929 0 0.013345290293737129 -0.073265792880389841 0 0.023665314480786039 -0.063064517143019153 0 0.030510615370434809 -0.08198067034471844 0 0.018056840245196031 -0.1020623433329453 0 0.0067789116749813619 -0.088875342084001996 0 0.030510615370434809 -0.08198067034471844 0 0.0067789116749813619 -0.088875342084001996 0 0.013345290293737129 -0.073265792880389841 0 0.030510615370434809 -0.08198067034471844 0 0.018056840245196031 -0.1020623433329453 0 0.030510615370434809 -0.08198067034471844 0 0.018056840245196031 -0.1020623433329453 0 0.030510615370434809 -0.08198067034471844 0 0.038075612491783102 -0.09108577904418913 0 0.038075612491783102 -0.09108577904418913 0 0.052503080044128313 -0.085456151938984926 0 0.036555509516807527 -0.1045129820882006 0 0.030510615370434809 -0.08198067034471844 0 0.038075612491783102 -0.09108577904418913 0 0.043712633685447033 -0.078271112790297262 0 0.038075612491783102 -0.09108577904418913 0 0.043712633685447033 -0.078271112790297262 0 0.052503080044128313 -0.085456151938984926 0 0.023665314480786039 -0.063064517143019153 0 0.030510615370434809 -0.08198067034471844 0 0.04296439049567366 -0.061898997356491479 0 0.030510615370434809 -0.08198067034471844 0 0.04296439049567366 -0.061898997356491479 0 0.030510615370434809 -0.08198067034471844 0 0.043712633685447033 -0.078271112790297262 0 0.04296439049567366 -0.061898997356491479 0 0.043712633685447033 -0.078271112790297262 0 0.054509470025215279 -0.07093396526710237 0 0.04296439049567366 -0.061898997356491479 0 0.052503080044128313 -0.085456151938984926 0 0.068450650571449154 -0.066399321789769192 0 0.054509470025215279 -0.07093396526710237 0 0.052503080044128313 -0.085456151938984926 0 0.068450650571449154 -0.066399321789769192 0 0.052503080044128313 -0.085456151938984926 0 0.061198050207558877 -0.089876514785025202 0 0.052598060881869947 -0.1010981772200166 0 0.052503080044128313 -0.085456151938984926 0 0.061198050207558877 -0.089876514785025202 0 0.068450650571449154 -0.066399321789769192 0 0.043712633685447033 -0.078271112790297262 0 0.054509470025215279 -0.07093396526710237 0 0.052503080044128313 -0.085456151938984926 0 0.061198050207558877 -0.089876514785025202 0 0.052598060881869947 -0.1010981772200166 0 0.062964556426150342 -0.10327110704599619 0 0.052503080044128313 -0.085456151938984926 0 0.052598060881869947 -0.1010981772200166 0 0.036555509516807527 -0.1045129820882006 0 0.052598060881869947 -0.1010981772200166 0 0.057732533819412298 -0.11210464935177129 0 0.062964556426150342 -0.10327110704599619 0 0.061882904551070282 -0.1264255339603941 0 0.057732533819412298 -0.11210464935177129 0 0.04872371585495143 -0.1161819578950597 0 0.052598060881869947 -0.1010981772200166 0 0.057732533819412298 -0.11210464935177129 0 0.04872371585495143 -0.1161819578950597 0 0.048273375529177077 -0.13251602104977719 0 0.04872371585495143 -0.1161819578950597 0 0.035299910831371482 -0.1204343837001987 0 0.04872371585495143 -0.1161819578950597 0 0.035299910831371482 -0.1204343837001987 0 0.036555509516807527 -0.1045129820882006 0 0.052598060881869947 -0.1010981772200166 0 0.04872371585495143 -0.1161819578950597 0 0.036555509516807527 -0.1045129820882006 0 0.052503080044128313 -0.085456151938984926 0 0.036555509516807527 -0.1045129820882006 0 0.01390017229619854 0.0035466824707463158 0 0.0083878754145421119 -0.02018330378721013 0 0.02502350143566328 -0.02138204156051696 0 0.01390017229619854 0.0035466824707463158 0 0.02502350143566328 -0.02138204156051696 0 0.035320714275878941 -0.0049685962559337217 0 0.01390017229619854 0.0035466824707463158 0 0.035320714275878941 -0.0049685962559337217 0 -0.0040637010000482386 -0.0059727926133312454 0 0.01390017229619854 0.0035466824707463158 0 0.0083878754145421119 -0.02018330378721013 0 0.02502350143566328 -0.02138204156051696 0 0.025923149963681211 -0.040737258210538807 0 0.031902922795735311 -0.030230520576513081 0 0.0083878754145421119 -0.02018330378721013 0 0.02502350143566328 -0.02138204156051696 0 0.025923149963681211 -0.040737258210538807 0 -0.003314385603862581 -0.037434641495532432 0 0.0083878754145421119 -0.02018330378721013 0 0.025923149963681211 -0.040737258210538807 0 -0.003314385603862581 -0.037434641495532432 0 0.025923149963681211 -0.040737258210538807 0 0.0063456604897870542 -0.056665138065186929 0 -0.003314385603862581 -0.037434641495532432 0 0.025923149963681211 -0.040737258210538807 0 0.023665314480786039 -0.063064517143019153 0 0.025923149963681211 -0.040737258210538807 0 0.0063456604897870542 -0.056665138065186929 0 0.023665314480786039 -0.063064517143019153 0 0.025923149963681211 -0.040737258210538807 0 0.04296439049567366 -0.061898997356491479 0 0.025923149963681211 -0.040737258210538807 0 0.04296439049567366 -0.061898997356491479 0 0.055160685531224989 -0.044039874925545189 0 0.054509470025215279 -0.07093396526710237 0 0.055160685531224989 -0.044039874925545189 0 0.068450650571449154 -0.066399321789769192 0 0.054509470025215279 -0.07093396526710237 0 0.04296439049567366 -0.061898997356491479 0 0.055160685531224989 -0.044039874925545189 0 0.055160685531224989 -0.044039874925545189 0 0.046308595818617931 -0.03736206271791967 0 0.073755840861695676 -0.032311642659389489 0 0.046308595818617931 -0.03736206271791967 0 0.062411980815140912 -0.027882352784564839 0 0.073755840861695676 -0.032311642659389489 0 0.046308595818617931 -0.03736206271791967 0 0.073755840861695676 -0.032311642659389489 0 0.046308595818617931 -0.03736206271791967 0 0.038161831408769782 -0.03562346229585861 0 0.053869498396704407 -0.027104989330563461 0 0.025923149963681211 -0.040737258210538807 0 0.046308595818617931 -0.03736206271791967 0 0.038161831408769782 -0.03562346229585861 0 0.025923149963681211 -0.040737258210538807 0 0.055160685531224989 -0.044039874925545189 0 0.046308595818617931 -0.03736206271791967 0 0.038161831408769782 -0.03562346229585861 0 0.053869498396704407 -0.027104989330563461 0 0.025923149963681211 -0.040737258210538807 0 0.055160685531224989 -0.044039874925545189 0 0.025923149963681211 -0.040737258210538807 0 0.038161831408769782 -0.03562346229585861 0 0.031902922795735311 -0.030230520576513081 0 0.038161831408769782 -0.03562346229585861 0 0.038503208374827 -0.023179320239137938 0 0.053869498396704407 -0.027104989330563461 0 0.02502350143566328 -0.02138204156051696 0 0.038503208374827 -0.023179320239137938 0 0.035320714275878941 -0.0049685962559337217 0 0.038161831408769782 -0.03562346229585861 0 0.031902922795735311 -0.030230520576513081 0 0.038503208374827 -0.023179320239137938 0 0.02502350143566328 -0.02138204156051696 0 0.031902922795735311 -0.030230520576513081 0 0.038503208374827 -0.023179320239137938 0 0.053869498396704407 -0.027104989330563461 0 0.062411980815140912 -0.027882352784564839 0 0.069577165384639428 -0.01858651636526908 0 0.053869498396704407 -0.027104989330563461 0 0.069577165384639428 -0.01858651636526908 0 0.046308595818617931 -0.03736206271791967 0 0.053869498396704407 -0.027104989330563461 0 0.062411980815140912 -0.027882352784564839 0 0.053869498396704407 -0.027104989330563461 0 0.060131443852034103 -0.01935298095576115 0 0.069577165384639428 -0.01858651636526908 0 0.060131443852034103 -0.01935298095576115 0 0.056741256255559307 -0.01348387498261387 0 0.069577165384639428 -0.01858651636526908 0 0.053869498396704407 -0.027104989330563461 0 0.060131443852034103 -0.01935298095576115 0 0.055839364136009699 -0.01920942181742331 0 0.060131443852034103 -0.01935298095576115 0 0.055839364136009699 -0.01920942181742331 0 0.056741256255559307 -0.01348387498261387 0 0.053869498396704407 -0.027104989330563461 0 0.055839364136009699 -0.01920942181742331 0 0.049633913943345667 -0.017269514415901441 0 0.038503208374827 -0.023179320239137938 0 0.053869498396704407 -0.027104989330563461 0 0.049633913943345667 -0.017269514415901441 0 0.055839364136009699 -0.01920942181742331 0 0.049633913943345667 -0.017269514415901441 0 0.056741256255559307 -0.01348387498261387 0 0.042273270358040613 0.0064879609404319399 0 0.059262053668840409 0.0035845234533785839 0 0.056741256255559307 -0.01348387498261387 0 0.059262053668840409 0.0035845234533785839 0 0.056741256255559307 -0.01348387498261387 0 0.067433032629086107 -0.0052842170610784504 0 0.042273270358040613 0.0064879609404319399 0 0.056741256255559307 -0.01348387498261387 0 0.049633913943345667 -0.017269514415901441 0 0.056741256255559307 -0.01348387498261387 0 0.035320714275878941 -0.0049685962559337217 0 0.042273270358040613 0.0064879609404319399 0 0.056741256255559307 -0.01348387498261387 0 0.035320714275878941 -0.0049685962559337217 0 0.038503208374827 -0.023179320239137938 0 0.049633913943345667 -0.017269514415901441 0 0.035320714275878941 -0.0049685962559337217 0 0.056741256255559307 -0.01348387498261387 0 0.035320714275878941 -0.0049685962559337217 0 0.069577165384639428 -0.01858651636526908 0 0.095599149367132194 -0.0044744545785956966 0 0.090900209464364279 -0.015251182034048891 0 0.079906677844619689 -0.017980550353148508 0 0.095599149367132194 -0.0044744545785956966 0 0.069577165384639428 -0.01858651636526908 0 0.079906677844619689 -0.017980550353148508 0 0.095599149367132194 -0.0044744545785956966 0 0.076278950778147128 -0.008375781321669204 0 0.069577165384639428 -0.01858651636526908 0 0.095599149367132194 -0.0044744545785956966 0 0.078697083033740872 -0.00049660012687540833 0 0.076278950778147128 -0.008375781321669204 0 0.095599149367132194 -0.0044744545785956966 0 0.078697083033740872 -0.00049660012687540833 0 0.067433032629086107 -0.0052842170610784504 0 0.076278950778147128 -0.008375781321669204 0 0.056741256255559307 -0.01348387498261387 0 0.064534597547764735 -0.01257535248102837 0 0.069577165384639428 -0.01858651636526908 0 0.056741256255559307 -0.01348387498261387 0 0.067433032629086107 -0.0052842170610784504 0 0.064534597547764735 -0.01257535248102837 0 0.067433032629086107 -0.0052842170610784504 0 0.064534597547764735 -0.01257535248102837 0 0.069455936584909339 -0.011205466807261279 0 0.064534597547764735 -0.01257535248102837 0 0.069455936584909339 -0.011205466807261279 0 0.069577165384639428 -0.01858651636526908 0 0.069455936584909339 -0.011205466807261279 0 0.076278950778147128 -0.008375781321669204 0 0.069577165384639428 -0.01858651636526908 0 0.067433032629086107 -0.0052842170610784504 0 0.069455936584909339 -0.011205466807261279 0 0.076278950778147128 -0.008375781321669204 0 0.071549756823346855 -0.019370677939258261 0 0.069577165384639428 -0.01858651636526908 0 0.079906677844619689 -0.017980550353148508 0 0.071549756823346855 -0.019370677939258261 0 0.0761237081414122 -0.023477747196428821 0 0.079906677844619689 -0.017980550353148508 0 0.071549756823346855 -0.019370677939258261 0 0.069081606401306742 -0.024215386610333279 0 0.0761237081414122 -0.023477747196428821 0 0.071549756823346855 -0.019370677939258261 0 0.069577165384639428 -0.01858651636526908 0 0.056741256255559307 -0.01348387498261387 0 0.069577165384639428 -0.01858651636526908 0 0.071549756823346855 -0.019370677939258261 0 0.069577165384639428 -0.01858651636526908 0 0.069081606401306742 -0.024215386610333279 0 0.062411980815140912 -0.027882352784564839 0 0.069081606401306742 -0.024215386610333279 0 0.073755840861695676 -0.032311642659389489 0 0.062411980815140912 -0.027882352784564839 0 0.069577165384639428 -0.01858651636526908 0 0.069081606401306742 -0.024215386610333279 0 0.069081606401306742 -0.024215386610333279 0 0.0761237081414122 -0.023477747196428821 0 0.073755840861695676 -0.032311642659389489 0 0.073755840861695676 -0.032311642659389489 0 0.101203085904774 -0.027261222600861439 0 0.0761237081414122 -0.023477747196428821 0 0.086324658776091995 -0.023510478420014549 0 0.073755840861695676 -0.032311642659389489 0 0.086324658776091995 -0.023510478420014549 0 0.073755840861695676 -0.032311642659389489 0 0.101203085904774 -0.027261222600861439 0 0.090900209464364279 -0.015251182034048891 0 0.079906677844619689 -0.017980550353148508 0 0.086324658776091995 -0.023510478420014549 0 0.0761237081414122 -0.023477747196428821 0 0.079906677844619689 -0.017980550353148508 0 0.086324658776091995 -0.023510478420014549 0 0.090900209464364279 -0.015251182034048891 0 0.086324658776091995 -0.023510478420014549 0 0.1002307264126559 -0.01559520253508158 0 0.073755840861695676 -0.032311642659389489 0 0.084398221098768683 -0.047342491640552473 0 0.101203085904774 -0.027261222600861439 0 0.084398221098768683 -0.047342491640552473 0 0.101203085904774 -0.027261222600861439 0 0.055160685531224989 -0.044039874925545189 0 0.084398221098768683 -0.047342491640552473 0 0.055160685531224989 -0.044039874925545189 0 0.073755840861695676 -0.032311642659389489 0 0.084398221098768683 -0.047342491640552473 0 0.084398221098768683 -0.047342491640552473 0 0.068450650571449154 -0.066399321789769192 0 0.055160685531224989 -0.044039874925545189 0 0.084398221098768683 -0.047342491640552473 0 0.068450650571449154 -0.066399321789769192 0 0.084398221098768683 -0.047342491640552473 0 0.068450650571449154 -0.066399321789769192 0 0.095004073375363998 -0.067087017816563649 0 0.11244779522614951 -0.050510918478302323 0 0.095004073375363998 -0.067087017816563649 0 0.1162050627898097 -0.068427817987787853 0 0.084398221098768683 -0.047342491640552473 0 0.11244779522614951 -0.050510918478302323 0 0.084398221098768683 -0.047342491640552473 0 0.11244779522614951 -0.050510918478302323 0 0.095004073375363998 -0.067087017816563649 0 0.11244779522614951 -0.050510918478302323 0 0.1162050627898097 -0.068427817987787853 0 0.14070525833088449 -0.05756413883550883 0 0.11244779522614951 -0.050510918478302323 0 0.1238085752058041 -0.039299878797608309 0 0.101203085904774 -0.027261222600861439 0 0.084398221098768683 -0.047342491640552473 0 0.11244779522614951 -0.050510918478302323 0 0.101203085904774 -0.027261222600861439 0 0.086324658776091995 -0.023510478420014549 0 0.101203085904774 -0.027261222600861439 0 0.1002307264126559 -0.01559520253508158 0 0.101203085904774 -0.027261222600861439 0 0.1137009945662482 -0.01232662662750867 0 0.101203085904774 -0.027261222600861439 0 0.1137009945662482 -0.01232662662750867 0 0.1002307264126559 -0.01559520253508158 0 0.101203085904774 -0.027261222600861439 0 0.1199586828556034 -0.02381010599875542 0 0.1238085752058041 -0.039299878797608309 0 0.101203085904774 -0.027261222600861439 0 0.1199586828556034 -0.02381010599875542 0 0.101203085904774 -0.027261222600861439 0 0.1199586828556034 -0.02381010599875542 0 0.1137009945662482 -0.01232662662750867 0 0.1199586828556034 -0.02381010599875542 0 0.1137009945662482 -0.01232662662750867 0 0.12727891351365461 -0.01151347109978261 0 0.1216211333496255 0.009637607208076996 0 0.1137009945662482 -0.01232662662750867 0 0.095599149367132194 -0.0044744545785956966 0 0.1216211333496255 0.009637607208076996 0 0.1261989032277212 0.0026079693458452009 0 0.1137009945662482 -0.01232662662750867 0 0.1261989032277212 0.0026079693458452009 0 0.1137009945662482 -0.01232662662750867 0 0.12727891351365461 -0.01151347109978261 0 0.1261989032277212 0.0026079693458452009 0 0.1137009945662482 -0.01232662662750867 0 0.1137009945662482 -0.01232662662750867 0 0.1002307264126559 -0.01559520253508158 0 0.095599149367132194 -0.0044744545785956966 0 0.090900209464364279 -0.015251182034048891 0 0.1002307264126559 -0.01559520253508158 0 0.095599149367132194 -0.0044744545785956966 0 0.080329580795760233 -0.110005086827172 0 0.093698049703005437 -0.08622586494159229 0 0.1047849470853935 -0.09628042538124304 0 0.099461111383962242 -0.13013365886931819 0 0.087896553422643603 -0.13373213836533909 0 0.080329580795760233 -0.110005086827172 0 0.099461111383962242 -0.13013365886931819 0 0.080329580795760233 -0.110005086827172 0 0.087896553422643603 -0.13373213836533909 0 0.076273510722176141 -0.13032729858833181 0 0.080329580795760233 -0.110005086827172 0 0.076273510722176141 -0.13032729858833181 0 0.061882904551070282 -0.1264255339603941 0 0.080329580795760233 -0.110005086827172 0 0.061882904551070282 -0.1264255339603941 0 0.057732533819412298 -0.11210464935177129 0 0.080329580795760233 -0.110005086827172 0 0.061198050207558877 -0.089876514785025202 0 0.080329580795760233 -0.110005086827172 0 0.061198050207558877 -0.089876514785025202 0 0.080329580795760233 -0.110005086827172 0 0.077258717238625929 -0.08197915661401102 0 0.061198050207558877 -0.089876514785025202 0 0.080329580795760233 -0.110005086827172 0 0.062964556426150342 -0.10327110704599619 0 0.057732533819412298 -0.11210464935177129 0 0.080329580795760233 -0.110005086827172 0 0.062964556426150342 -0.10327110704599619 0 0.061198050207558877 -0.089876514785025202 0 0.077258717238625929 -0.08197915661401102 0 0.068450650571449154 -0.066399321789769192 0 0.077258717238625929 -0.08197915661401102 0 0.068450650571449154 -0.066399321789769192 0 0.095004073375363998 -0.067087017816563649 0 0.080329580795760233 -0.110005086827172 0 0.077258717238625929 -0.08197915661401102 0 0.093698049703005437 -0.08622586494159229 0 0.077258717238625929 -0.08197915661401102 0 0.093698049703005437 -0.08622586494159229 0 0.095004073375363998 -0.067087017816563649 0 0.093698049703005437 -0.08622586494159229 0 0.1088153756341434 -0.081523015486940548 0 0.095004073375363998 -0.067087017816563649 0 0.093698049703005437 -0.08622586494159229 0 0.1088153756341434 -0.081523015486940548 0 0.1047849470853935 -0.09628042538124304 0 0.1088153756341434 -0.081523015486940548 0 0.095004073375363998 -0.067087017816563649 0 0.1162050627898097 -0.068427817987787853 0 0.1162050627898097 -0.068427817987787853 0 0.1196077590821981 -0.078622597956278753 0 0.13294770016690599 -0.073747552477796324 0 0.1088153756341434 -0.081523015486940548 0 0.1162050627898097 -0.068427817987787853 0 0.1196077590821981 -0.078622597956278753 0 0.1196077590821981 -0.078622597956278753 0 0.1217855039059248 -0.092542921274970324 0 0.13294770016690599 -0.073747552477796324 0 0.1088153756341434 -0.081523015486940548 0 0.1217855039059248 -0.092542921274970324 0 0.1047849470853935 -0.09628042538124304 0 0.1088153756341434 -0.081523015486940548 0 0.1196077590821981 -0.078622597956278753 0 0.1217855039059248 -0.092542921274970324 0 0.1217855039059248 -0.092542921274970324 0 0.1047849470853935 -0.09628042538124304 0 0.1106233076449436 -0.1113382900721443 0 0.1217855039059248 -0.092542921274970324 0 0.1106233076449436 -0.1113382900721443 0 0.1217855039059248 -0.092542921274970324 0 0.1106233076449436 -0.1113382900721443 0 0.1308596215865637 -0.10877458396665619 0 0.080329580795760233 -0.110005086827172 0 0.1047849470853935 -0.09628042538124304 0 0.1106233076449436 -0.1113382900721443 0 0.099461111383962242 -0.13013365886931819 0 0.1106233076449436 -0.1113382900721443 0 0.099461111383962242 -0.13013365886931819 0 0.1170016071620527 -0.12792091724090421 0 0.1106233076449436 -0.1113382900721443 0 0.099461111383962242 -0.13013365886931819 0 0.080329580795760233 -0.110005086827172 0 0.1106233076449436 -0.1113382900721443 0 0.1170016071620527 -0.12792091724090421 0 0.1106233076449436 -0.1113382900721443 0 0.12649762265596601 -0.1206141667289754 0 0.1106233076449436 -0.1113382900721443 0 0.12649762265596601 -0.1206141667289754 0 0.1308596215865637 -0.10877458396665619 0 0.12649762265596601 -0.1206141667289754 0 0.1308596215865637 -0.10877458396665619 0 0.1366185565040583 -0.12594926818623639 0 0.14708755077157629 -0.1102561983338088 0 0.1308596215865637 -0.10877458396665619 0 0.1366185565040583 -0.12594926818623639 0 0.14708755077157629 -0.1102561983338088 0 0.14954583971598739 -0.1209555525708393 0 0.1366185565040583 -0.12594926818623639 0 0.14708755077157629 -0.1102561983338088 0 0.14954583971598739 -0.1209555525708393 0 0.16489551478955089 -0.116481043705464 0 0.14954583971598739 -0.1209555525708393 0 0.16489551478955089 -0.116481043705464 0 0.1539975317547195 -0.13043494150422261 0 0.1425451880369131 -0.09194665920380235 0 0.1573150978685218 -0.09038552391620773 0 0.158670161289581 -0.1032728689661305 0 0.14708755077157629 -0.1102561983338088 0 0.1425451880369131 -0.09194665920380235 0 0.158670161289581 -0.1032728689661305 0 0.14708755077157629 -0.1102561983338088 0 0.1308596215865637 -0.10877458396665619 0 0.1425451880369131 -0.09194665920380235 0 0.1217855039059248 -0.092542921274970324 0 0.1308596215865637 -0.10877458396665619 0 0.1425451880369131 -0.09194665920380235 0 0.1217855039059248 -0.092542921274970324 0 0.13294770016690599 -0.073747552477796324 0 0.1217855039059248 -0.092542921274970324 0 0.1361929766556404 -0.083666343026255016 0 0.1425451880369131 -0.09194665920380235 0 0.1361929766556404 -0.083666343026255016 0 0.1416252231838987 -0.074755399019655625 0 0.1425451880369131 -0.09194665920380235 0 0.1217855039059248 -0.092542921274970324 0 0.1361929766556404 -0.083666343026255016 0 0.13294770016690599 -0.073747552477796324 0 0.1162050627898097 -0.068427817987787853 0 0.13548488961683691 -0.0674944047300165 0 0.14070525833088449 -0.05756413883550883 0 0.1162050627898097 -0.068427817987787853 0 0.14070525833088449 -0.05756413883550883 0 0.1162050627898097 -0.068427817987787853 0 0.13294770016690599 -0.073747552477796324 0 0.13548488961683691 -0.0674944047300165 0 0.13548488961683691 -0.0674944047300165 0 0.1416252231838987 -0.074755399019655625 0 0.14070525833088449 -0.05756413883550883 0 0.13294770016690599 -0.073747552477796324 0 0.13548488961683691 -0.0674944047300165 0 0.1416252231838987 -0.074755399019655625 0 0.1361929766556404 -0.083666343026255016 0 0.13294770016690599 -0.073747552477796324 0 0.1416252231838987 -0.074755399019655625 0 0.1416252231838987 -0.074755399019655625 0 0.14070525833088449 -0.05756413883550883 0 0.14682599693175341 -0.062960452475862752 0 0.1416252231838987 -0.074755399019655625 0 0.14070525833088449 -0.05756413883550883 0 0.14682599693175341 -0.062960452475862752 0 0.1416252231838987 -0.074755399019655625 0 0.15071695942297469 -0.067703904313423199 0 0.1416252231838987 -0.074755399019655625 0 0.15071695942297469 -0.067703904313423199 0 0.15265767141071171 -0.07815978236918926 0 0.15071695942297469 -0.067703904313423199 0 0.15265767141071171 -0.07815978236918926 0 0.1603696946894152 -0.066113441288344024 0 0.15071695942297469 -0.067703904313423199 0 0.1603696946894152 -0.066113441288344024 0 0.1531030313839811 -0.061092952016003357 0 0.14682599693175341 -0.062960452475862752 0 0.15071695942297469 -0.067703904313423199 0 0.1531030313839811 -0.061092952016003357 0 0.1416252231838987 -0.074755399019655625 0 0.1425451880369131 -0.09194665920380235 0 0.15265767141071171 -0.07815978236918926 0 0.1416252231838987 -0.074755399019655625 0 0.1425451880369131 -0.09194665920380235 0 0.1425451880369131 -0.09194665920380235 0 0.15265767141071171 -0.07815978236918926 0 0.1573150978685218 -0.09038552391620773 0 0.1573150978685218 -0.09038552391620773 0 0.1641367207126988 -0.077192615154610511 0 0.17285668164115789 -0.09747824883415146 0 0.1641367207126988 -0.077192615154610511 0 0.17285668164115789 -0.09747824883415146 0 0.15265767141071171 -0.07815978236918926 0 0.1573150978685218 -0.09038552391620773 0 0.1641367207126988 -0.077192615154610511 0 0.15265767141071171 -0.07815978236918926 0 0.1603696946894152 -0.066113441288344024 0 0.1641367207126988 -0.077192615154610511 0 0.1603696946894152 -0.066113441288344024 0 0.1641367207126988 -0.077192615154610511 0 0.1724177722907185 -0.067013237638211987 0 0.1603696946894152 -0.066113441288344024 0 0.1724177722907185 -0.067013237638211987 0 0.16777377840966859 -0.057364242220369399 0 0.1724177722907185 -0.067013237638211987 0 0.17973398916175229 -0.082599494293392028 0 0.18895299373412161 -0.068459151195248036 0 0.1724177722907185 -0.067013237638211987 0 0.17958933286873019 -0.052077879057524493 0 0.18895299373412161 -0.068459151195248036 0 0.1641367207126988 -0.077192615154610511 0 0.1724177722907185 -0.067013237638211987 0 0.17973398916175229 -0.082599494293392028 0 0.1641367207126988 -0.077192615154610511 0 0.17973398916175229 -0.082599494293392028 0 0.17285668164115789 -0.09747824883415146 0 0.17973398916175229 -0.082599494293392028 0 0.18652453742661679 -0.102375556866128 0 0.1956974856241134 -0.085150163081038635 0 0.17973398916175229 -0.082599494293392028 0 0.18652453742661679 -0.102375556866128 0 0.17285668164115789 -0.09747824883415146 0 0.18652453742661679 -0.102375556866128 0 0.17285668164115789 -0.09747824883415146 0 0.18157664256961689 -0.11776388251369239 0 0.17285668164115789 -0.09747824883415146 0 0.18157664256961689 -0.11776388251369239 0 0.18157664256961689 -0.11776388251369239 0 0.16489551478955089 -0.116481043705464 0 0.17759605914381271 -0.12726527994934919 0 0.17285668164115789 -0.09747824883415146 0 0.18157664256961689 -0.11776388251369239 0 0.16489551478955089 -0.116481043705464 0 0.14708755077157629 -0.1102561983338088 0 0.16489551478955089 -0.116481043705464 0 0.158670161289581 -0.1032728689661305 0 0.16489551478955089 -0.116481043705464 0 0.17759605914381271 -0.12726527994934919 0 0.16489551478955089 -0.116481043705464 0 0.16599125378273469 -0.12824618074702129 0 0.17759605914381271 -0.12726527994934919 0 0.17285668164115789 -0.09747824883415146 0 0.16489551478955089 -0.116481043705464 0 0.158670161289581 -0.1032728689661305 0 0.1573150978685218 -0.09038552391620773 0 0.17285668164115789 -0.09747824883415146 0 0.158670161289581 -0.1032728689661305 0 0.1513951225051974 -0.0045333370058090999 0 0.13782170711226721 -0.003679602821842598 0 0.13871427980643281 -0.020358989396649419 0 0.1513951225051974 -0.0045333370058090999 0 0.13871427980643281 -0.020358989396649419 0 0.16269906043183549 -0.015945678808289711 0 0.13782170711226721 -0.003679602821842598 0 0.13871427980643281 -0.020358989396649419 0 0.13782170711226721 -0.003679602821842598 0 0.12727891351365461 -0.01151347109978261 0 0.13871427980643281 -0.020358989396649419 0 0.1261989032277212 0.0026079693458452009 0 0.13782170711226721 -0.003679602821842598 0 0.12727891351365461 -0.01151347109978261 0 0.13871427980643281 -0.020358989396649419 0 0.13960582457998119 -0.037019167356351482 0 0.1199586828556034 -0.02381010599875542 0 0.13871427980643281 -0.020358989396649419 0 0.1199586828556034 -0.02381010599875542 0 0.12727891351365461 -0.01151347109978261 0 0.13871427980643281 -0.020358989396649419 0 0.1199586828556034 -0.02381010599875542 0 0.13871427980643281 -0.020358989396649419 0 0.13960582457998119 -0.037019167356351482 0 0.13871427980643281 -0.020358989396649419 0 0.16269906043183549 -0.015945678808289711 0 0.13871427980643281 -0.020358989396649419 0 0.1551994608137672 -0.030917319946549181 0 0.13960582457998119 -0.037019167356351482 0 0.13871427980643281 -0.020358989396649419 0 0.1551994608137672 -0.030917319946549181 0 0.16269906043183549 -0.015945678808289711 0 0.15023128193343011 -0.043839995226354692 0 0.13960582457998119 -0.037019167356351482 0 0.14049736935352991 -0.053679345316053548 0 0.1551994608137672 -0.030917319946549181 0 0.15023128193343011 -0.043839995226354692 0 0.13960582457998119 -0.037019167356351482 0 0.1238085752058041 -0.039299878797608309 0 0.1199586828556034 -0.02381010599875542 0 0.13960582457998119 -0.037019167356351482 0 0.13960582457998119 -0.037019167356351482 0 0.14049736935352991 -0.053679345316053548 0 0.1238085752058041 -0.039299878797608309 0 0.13960582457998119 -0.037019167356351482 0 0.14049736935352991 -0.053679345316053548 0 0.11244779522614951 -0.050510918478302323 0 0.14049736935352991 -0.053679345316053548 0 0.14070525833088449 -0.05756413883550883 0 0.11244779522614951 -0.050510918478302323 0 0.1238085752058041 -0.039299878797608309 0 0.14049736935352991 -0.053679345316053548 0 0.11244779522614951 -0.050510918478302323 0 0.14049736935352991 -0.053679345316053548 0 0.14049736935352991 -0.053679345316053548 0 0.14070525833088449 -0.05756413883550883 0 0.14682599693175341 -0.062960452475862752 0 0.14070525833088449 -0.05756413883550883 0 0.14764544284960521 -0.054486778177610252 0 0.15023128193343011 -0.043839995226354692 0 0.14764544284960521 -0.054486778177610252 0 0.16720316814816799 -0.045814649327216683 0 0.14070525833088449 -0.05756413883550883 0 0.14764544284960521 -0.054486778177610252 0 0.14049736935352991 -0.053679345316053548 0 0.14070525833088449 -0.05756413883550883 0 0.14764544284960521 -0.054486778177610252 0 0.14049736935352991 -0.053679345316053548 0 0.14764544284960521 -0.054486778177610252 0 0.15023128193343011 -0.043839995226354692 0 0.14049736935352991 -0.053679345316053548 0 0.14764544284960521 -0.054486778177610252 0 0.14682599693175341 -0.062960452475862752 0 0.14764544284960521 -0.054486778177610252 0 0.1531030313839811 -0.061092952016003357 0 0.14764544284960521 -0.054486778177610252 0 0.1592889240513109 -0.05580200379054983 0 0.14764544284960521 -0.054486778177610252 0 0.1531030313839811 -0.061092952016003357 0 0.1592889240513109 -0.05580200379054983 0 0.14764544284960521 -0.054486778177610252 0 0.1592889240513109 -0.05580200379054983 0 0.16720316814816799 -0.045814649327216683 0 0.14764544284960521 -0.054486778177610252 0 0.16720316814816799 -0.045814649327216683 0 0.1603696946894152 -0.066113441288344024 0 0.1531030313839811 -0.061092952016003357 0 0.1592889240513109 -0.05580200379054983 0 0.1603696946894152 -0.066113441288344024 0 0.1592889240513109 -0.05580200379054983 0 0.16777377840966859 -0.057364242220369399 0 0.16777377840966859 -0.057364242220369399 0 0.17958933286873019 -0.052077879057524493 0 0.16720316814816799 -0.045814649327216683 0 0.1592889240513109 -0.05580200379054983 0 0.16777377840966859 -0.057364242220369399 0 0.16720316814816799 -0.045814649327216683 0 0.1724177722907185 -0.067013237638211987 0 0.17958933286873019 -0.052077879057524493 0 0.1724177722907185 -0.067013237638211987 0 0.16777377840966859 -0.057364242220369399 0 0.17958933286873019 -0.052077879057524493 0 0.18676089344673541 -0.037142520476833779 0 0.16720316814816799 -0.045814649327216683 0 0.1719229346562916 -0.030069112753372471 0 0.17958933286873019 -0.052077879057524493 0 0.18676089344673541 -0.037142520476833779 0 0.16720316814816799 -0.045814649327216683 0 0.18676089344673541 -0.037142520476833779 0 0.16720316814816799 -0.045814649327216683 0 0.17958933286873019 -0.052077879057524493 0 0.18676089344673541 -0.037142520476833779 0 0.19370562251298701 -0.043088488028326571 0 0.17958933286873019 -0.052077879057524493 0 0.18676089344673541 -0.037142520476833779 0 0.18676089344673541 -0.037142520476833779 0 0.1719229346562916 -0.030069112753372471 0 0.18200320207781709 -0.028023205855545321 0 0.1551994608137672 -0.030917319946549181 0 0.15023128193343011 -0.043839995226354692 0 0.16720316814816799 -0.045814649327216683 0 0.1551994608137672 -0.030917319946549181 0 0.16720316814816799 -0.045814649327216683 0 0.1719229346562916 -0.030069112753372471 0 0.1551994608137672 -0.030917319946549181 0 0.16269906043183549 -0.015945678808289711 0 0.1719229346562916 -0.030069112753372471 0 0.16269906043183549 -0.015945678808289711 0 0.1719229346562916 -0.030069112753372471 0 0.1828291438039126 -0.017770628297236551 0 0.1719229346562916 -0.030069112753372471 0 0.18200320207781709 -0.028023205855545321 0 0.1828291438039126 -0.017770628297236551 0 0.18676089344673541 -0.037142520476833779 0 0.18200320207781709 -0.028023205855545321 0 0.1880190891543625 -0.01966267832141139 0 0.1828291438039126 -0.017770628297236551 0 0.18668384105723779 -0.01153236821992791 0 0.1880190891543625 -0.01966267832141139 0 0.18200320207781709 -0.028023205855545321 0 0.1828291438039126 -0.017770628297236551 0 0.1880190891543625 -0.01966267832141139 0 0.17938535236777481 0.0027944006364079761 0 0.16269906043183549 -0.015945678808289711 0 0.18668384105723779 -0.01153236821992791 0 0.16269906043183549 -0.015945678808289711 0 0.18668384105723779 -0.01153236821992791 0 0.1956107411484494 0.0029145055015004332 0 0.17938535236777481 0.0027944006364079761 0 0.18668384105723779 -0.01153236821992791 0 0.16269906043183549 -0.015945678808289711 0 0.1828291438039126 -0.017770628297236551 0 0.18668384105723779 -0.01153236821992791 0 0.1828291438039126 -0.017770628297236551 0 0.18668384105723779 -0.01153236821992791 0 0.17938535236777481 0.0027944006364079761 0 0.16425275925440139 0.0057972351868864763 0 0.16269906043183549 -0.015945678808289711 0 0.16425275925440139 0.0057972351868864763 0 0.1513951225051974 -0.0045333370058090999 0 0.16269906043183549 -0.015945678808289711 0 0.20583623999187731 0.0025834412024074061 0 0.20757438549195981 -0.017196499619994251 0 0.20583623999187731 0.0025834412024074061 0 0.1962985667193097 -0.01727953963721483 0 0.20757438549195981 -0.017196499619994251 0 0.20583623999187731 0.0025834412024074061 0 0.21365954302142709 -0.0067425653957122666 0 0.20757438549195981 -0.017196499619994251 0 0.21365954302142709 -0.0067425653957122666 0 0.20757438549195981 -0.017196499619994251 0 0.2247516134704845 -0.01007136731745076 0 0.20583623999187731 0.0025834412024074061 0 0.21802032041234901 0.0037211667715176091 0 0.21365954302142709 -0.0067425653957122666 0 0.20583623999187731 0.0025834412024074061 0 0.1962985667193097 -0.01727953963721483 0 0.1956107411484494 0.0029145055015004332 0 0.18981678725084661 -0.01095589162733487 0 0.1962985667193097 -0.01727953963721483 0 0.20583623999187731 0.0025834412024074061 0 0.1956107411484494 0.0029145055015004332 0 0.1962985667193097 -0.01727953963721483 0 0.1956107411484494 0.0029145055015004332 0 0.18668384105723779 -0.01153236821992791 0 0.1956107411484494 0.0029145055015004332 0 0.18668384105723779 -0.01153236821992791 0 0.18981678725084661 -0.01095589162733487 0 0.18668384105723779 -0.01153236821992791 0 0.18981678725084661 -0.01095589162733487 0 0.1880190891543625 -0.01966267832141139 0 0.18668384105723779 -0.01153236821992791 0 0.18981678725084661 -0.01095589162733487 0 0.1962985667193097 -0.01727953963721483 0 0.20178676345487279 -0.026350533491949081 0 0.193961570616179 -0.033949654268191298 0 0.18676089344673541 -0.037142520476833779 0 0.1962985667193097 -0.01727953963721483 0 0.1880190891543625 -0.01966267832141139 0 0.18676089344673541 -0.037142520476833779 0 0.1962985667193097 -0.01727953963721483 0 0.193961570616179 -0.033949654268191298 0 0.18676089344673541 -0.037142520476833779 0 0.1962985667193097 -0.01727953963721483 0 0.1962985667193097 -0.01727953963721483 0 0.20178676345487279 -0.026350533491949081 0 0.20757438549195981 -0.017196499619994251 0 0.18981678725084661 -0.01095589162733487 0 0.1962985667193097 -0.01727953963721483 0 0.1880190891543625 -0.01966267832141139 0 0.20178676345487279 -0.026350533491949081 0 0.20757438549195981 -0.017196499619994251 0 0.20931253099204261 -0.036976440442395932 0 0.20757438549195981 -0.017196499619994251 0 0.2158354539990803 -0.026652054415280652 0 0.20931253099204261 -0.036976440442395932 0 0.20757438549195981 -0.017196499619994251 0 0.20931253099204261 -0.036976440442395932 0 0.20757438549195981 -0.017196499619994251 0 0.2158354539990803 -0.026652054415280652 0 0.2247516134704845 -0.01007136731745076 0 0.20931253099204261 -0.036976440442395932 0 0.21895741274989419 -0.057038183107145021 0 0.22459651201804251 -0.039976530430591677 0 0.2158354539990803 -0.026652054415280652 0 0.20931253099204261 -0.036976440442395932 0 0.22459651201804251 -0.039976530430591677 0 0.20931253099204261 -0.036976440442395932 0 0.19370562251298701 -0.043088488028326571 0 0.19958733813105611 -0.054187767745244433 0 0.20178676345487279 -0.026350533491949081 0 0.20931253099204261 -0.036976440442395932 0 0.193961570616179 -0.033949654268191298 0 0.20931253099204261 -0.036976440442395932 0 0.193961570616179 -0.033949654268191298 0 0.19370562251298701 -0.043088488028326571 0 0.18676089344673541 -0.037142520476833779 0 0.193961570616179 -0.033949654268191298 0 0.19370562251298701 -0.043088488028326571 0 0.18676089344673541 -0.037142520476833779 0 0.193961570616179 -0.033949654268191298 0 0.17958933286873019 -0.052077879057524493 0 0.19370562251298701 -0.043088488028326571 0 0.19958733813105611 -0.054187767745244433 0 0.17958933286873019 -0.052077879057524493 0 0.19958733813105611 -0.054187767745244433 0 0.18895299373412161 -0.068459151195248036 0 0.19958733813105611 -0.054187767745244433 0 0.21895741274989419 -0.057038183107145021 0 0.20753807140339589 -0.070437502673892122 0 0.20931253099204261 -0.036976440442395932 0 0.19958733813105611 -0.054187767745244433 0 0.21895741274989419 -0.057038183107145021 0 0.21895741274989419 -0.057038183107145021 0 0.2436501633852933 -0.051215294890519659 0 0.23353655382867949 -0.07711908776431857 0 0.21895741274989419 -0.057038183107145021 0 0.2436501633852933 -0.051215294890519659 0 0.22459651201804251 -0.039976530430591677 0 0.2436501633852933 -0.051215294890519659 0 0.23758219984233919 -0.032767858050925358 0 0.22459651201804251 -0.039976530430591677 0 0.25376377294190638 -0.02531150201672052 0 0.2436501633852933 -0.051215294890519659 0 0.23758219984233919 -0.032767858050925358 0 0.25376377294190638 -0.02531150201672052 0 0.2436501633852933 -0.051215294890519659 0 0.23758219984233919 -0.032767858050925358 0 0.22459651201804251 -0.039976530430591677 0 0.22716492334719909 -0.02803917508930041 0 0.2158354539990803 -0.026652054415280652 0 0.22459651201804251 -0.039976530430591677 0 0.22716492334719909 -0.02803917508930041 0 0.2158354539990803 -0.026652054415280652 0 0.22716492334719909 -0.02803917508930041 0 0.2247516134704845 -0.01007136731745076 0 0.22716492334719909 -0.02803917508930041 0 0.24078713260575191 -0.016309214249168251 0 0.2247516134704845 -0.01007136731745076 0 0.23758219984233919 -0.032767858050925358 0 0.22716492334719909 -0.02803917508930041 0 0.24078713260575191 -0.016309214249168251 0 0.25376377294190638 -0.02531150201672052 0 0.23758219984233919 -0.032767858050925358 0 0.24078713260575191 -0.016309214249168251 0 0.25376377294190638 -0.02531150201672052 0 0.25034063533258072 -0.014015239688903461 0 0.24078713260575191 -0.016309214249168251 0 0.25376377294190638 -0.02531150201672052 0 0.24078713260575191 -0.016309214249168251 0 0.25034063533258072 -0.014015239688903461 0 0.24078713260575191 -0.016309214249168251 0 0.2471597475602246 -0.0042098564474911636 0 0.24078713260575191 -0.016309214249168251 0 0.2471597475602246 -0.0042098564474911636 0 0.2361617531247045 -0.001793522683003997 0 0.24078713260575191 -0.016309214249168251 0 0.2361617531247045 -0.001793522683003997 0 0.2247516134704845 -0.01007136731745076 0 0.21802032041234901 0.0037211667715176091 0 0.21365954302142709 -0.0067425653957122666 0 0.2247516134704845 -0.01007136731745076 0 0.2131505593884829 -0.1078925585983237 0 0.19944996854257299 -0.098709299794260713 0 0.21198535347622119 -0.088319973663310888 0 0.2131505593884829 -0.1078925585983237 0 0.1990946155597319 -0.1166238684689884 0 0.19944996854257299 -0.098709299794260713 0 0.2131505593884829 -0.1078925585983237 0 0.21198535347622119 -0.088319973663310888 0 0.22533565187635959 -0.099599184984734968 0 0.2131505593884829 -0.1078925585983237 0 0.1990946155597319 -0.1166238684689884 0 0.21661063022803961 -0.12843209683037421 0 0.18157664256961689 -0.11776388251369239 0 0.1990946155597319 -0.1166238684689884 0 0.1935705653015822 -0.12632429102260739 0 0.18652453742661679 -0.102375556866128 0 0.18157664256961689 -0.11776388251369239 0 0.1990946155597319 -0.1166238684689884 0 0.18652453742661679 -0.102375556866128 0 0.19944996854257299 -0.098709299794260713 0 0.1956974856241134 -0.085150163081038635 0 0.18652453742661679 -0.102375556866128 0 0.1990946155597319 -0.1166238684689884 0 0.19944996854257299 -0.098709299794260713 0 0.19944996854257299 -0.098709299794260713 0 0.1956974856241134 -0.085150163081038635 0 0.21198535347622119 -0.088319973663310888 0 0.17973398916175229 -0.082599494293392028 0 0.1956974856241134 -0.085150163081038635 0 0.18895299373412161 -0.068459151195248036 0 0.19958733813105611 -0.054187767745244433 0 0.18895299373412161 -0.068459151195248036 0 0.20753807140339589 -0.070437502673892122 0 0.1956974856241134 -0.085150163081038635 0 0.18895299373412161 -0.068459151195248036 0 0.20753807140339589 -0.070437502673892122 0 0.1956974856241134 -0.085150163081038635 0 0.20753807140339589 -0.070437502673892122 0 0.21198535347622119 -0.088319973663310888 0 0.20753807140339589 -0.070437502673892122 0 0.21198535347622119 -0.088319973663310888 0 0.23353655382867949 -0.07711908776431857 0 0.23353655382867949 -0.07711908776431857 0 0.24325324569035511 -0.095765154759331339 0 0.22533565187635959 -0.099599184984734968 0 0.21198535347622119 -0.088319973663310888 0 0.23353655382867949 -0.07711908776431857 0 0.22533565187635959 -0.099599184984734968 0 0.21895741274989419 -0.057038183107145021 0 0.20753807140339589 -0.070437502673892122 0 0.23353655382867949 -0.07711908776431857 0 0.25548491960858971 -0.078406524054481799 0 0.2436501633852933 -0.051215294890519659 0 0.23353655382867949 -0.07711908776431857 0 0.2436501633852933 -0.051215294890519659 0 0.23353655382867949 -0.07711908776431857 0 0.25548491960858971 -0.078406524054481799 0 0.23353655382867949 -0.07711908776431857 0 0.24325324569035511 -0.095765154759331339 0 0.24325324569035511 -0.095765154759331339 0 0.22533565187635959 -0.099599184984734968 0 0.24379894379493161 -0.11250487873852059 0 0.26193908655172332 -0.099778616189599004 0 0.24325324569035511 -0.095765154759331339 0 0.24379894379493161 -0.11250487873852059 0 0.2131505593884829 -0.1078925585983237 0 0.22533565187635959 -0.099599184984734968 0 0.2270532921215703 -0.11656038034141079 0 0.22533565187635959 -0.099599184984734968 0 0.2270532921215703 -0.11656038034141079 0 0.24379894379493161 -0.11250487873852059 0 0.2131505593884829 -0.1078925585983237 0 0.2270532921215703 -0.11656038034141079 0 0.21661063022803961 -0.12843209683037421 0 0.25307832950956188 -0.12546723468404561 0 0.24379894379493161 -0.11250487873852059 0 0.23637067532003789 -0.13437318255510081 0 0.2270532921215703 -0.11656038034141079 0 0.24379894379493161 -0.11250487873852059 0 0.23637067532003789 -0.13437318255510081 0 0.25307832950956188 -0.12546723468404561 0 0.25430909082108533 -0.14212631279041679 0 0.23637067532003789 -0.13437318255510081 0 0.25430909082108533 -0.14212631279041679 0 0.23637067532003789 -0.13437318255510081 0 0.23895399883393831 -0.1464713621474725 0 0.25416550914145403 -0.16506446950883469 0 0.25430909082108533 -0.14212631279041679 0 0.2384597502014196 -0.16024027279430991 0 0.25430909082108533 -0.14212631279041679 0 0.23895399883393831 -0.1464713621474725 0 0.2384597502014196 -0.16024027279430991 0 0.25430909082108533 -0.14212631279041679 0 0.2384597502014196 -0.16024027279430991 0 0.23895399883393831 -0.1464713621474725 0 0.22667647899321031 -0.14914568045006241 0 0.2384597502014196 -0.16024027279430991 0 0.23637067532003789 -0.13437318255510081 0 0.23895399883393831 -0.1464713621474725 0 0.22667647899321031 -0.14914568045006241 0 0.23637067532003789 -0.13437318255510081 0 0.22667647899321031 -0.14914568045006241 0 0.21661063022803961 -0.12843209683037421 0 0.2270532921215703 -0.11656038034141079 0 0.23637067532003789 -0.13437318255510081 0 0.21661063022803961 -0.12843209683037421 0 0.1990946155597319 -0.1166238684689884 0 0.21661063022803961 -0.12843209683037421 0 0.2029296535411757 -0.1328379578329871 0 0.21661063022803961 -0.12843209683037421 0 0.20960938141439381 -0.1544483061793793 0 0.2029296535411757 -0.1328379578329871 0 0.21661063022803961 -0.12843209683037421 0 0.20960938141439381 -0.1544483061793793 0 0.22667647899321031 -0.14914568045006241 0 0.21661063022803961 -0.12843209683037421 0 0.20960938141439381 -0.1544483061793793 0 0.20960938141439381 -0.1544483061793793 0 0.1974342802380262 -0.15465421165661039 0 0.19029660349807509 -0.13804951619323369 0 0.20960938141439381 -0.1544483061793793 0 0.19029660349807509 -0.13804951619323369 0 0.20960938141439381 -0.1544483061793793 0 0.19029660349807509 -0.13804951619323369 0 0.2029296535411757 -0.1328379578329871 0 0.1974342802380262 -0.15465421165661039 0 0.19029660349807509 -0.13804951619323369 0 0.1974342802380262 -0.15465421165661039 0 0.19029660349807509 -0.13804951619323369 0 0.1859299250895961 -0.1489815116468664 0 0.1974342802380262 -0.15465421165661039 0 0.1859299250895961 -0.1489815116468664 0 0.1862890750383332 -0.15893798721293809 0 0.18157664256961689 -0.11776388251369239 0 0.19029660349807509 -0.13804951619323369 0 0.1935705653015822 -0.12632429102260739 0 0.1990946155597319 -0.1166238684689884 0 0.1935705653015822 -0.12632429102260739 0 0.2029296535411757 -0.1328379578329871 0 0.19029660349807509 -0.13804951619323369 0 0.1935705653015822 -0.12632429102260739 0 0.2029296535411757 -0.1328379578329871 0 0.19573588418582871 -0.1775086076029988 0 0.19834738607359911 -0.1731088623613721 0 0.20345696681674519 -0.17731029986575689 0 0.19573588418582871 -0.1775086076029988 0 0.19834738607359911 -0.1731088623613721 0 0.19328775578717591 -0.17273590330701871 0 0.19834738607359911 -0.1731088623613721 0 0.2050507861662208 -0.17138776533453989 0 0.20345696681674519 -0.17731029986575689 0 0.19573588418582871 -0.1775086076029988 0 0.1929695102276934 -0.1862504827809992 0 0.20345696681674519 -0.17731029986575689 0 0.19573588418582871 -0.1775086076029988 0 0.1929695102276934 -0.1862504827809992 0 0.18773834934278391 -0.1791416501892743 0 0.18773834934278391 -0.1791416501892743 0 0.19328775578717591 -0.17273590330701871 0 0.18656080095769029 -0.16925856996229471 0 0.19573588418582871 -0.1775086076029988 0 0.18773834934278391 -0.1791416501892743 0 0.19328775578717591 -0.17273590330701871 0 0.19468436660026969 -0.16673059391109871 0 0.1862890750383332 -0.15893798721293809 0 0.18656080095769029 -0.16925856996229471 0 0.1974342802380262 -0.15465421165661039 0 0.19468436660026969 -0.16673059391109871 0 0.2050507861662208 -0.17138776533453989 0 0.1974342802380262 -0.15465421165661039 0 0.2050507861662208 -0.17138776533453989 0 0.19328775578717591 -0.17273590330701871 0 0.19468436660026969 -0.16673059391109871 0 0.18656080095769029 -0.16925856996229471 0 0.1974342802380262 -0.15465421165661039 0 0.19468436660026969 -0.16673059391109871 0 0.1862890750383332 -0.15893798721293809 0 0.19834738607359911 -0.1731088623613721 0 0.19468436660026969 -0.16673059391109871 0 0.2050507861662208 -0.17138776533453989 0 0.19834738607359911 -0.1731088623613721 0 0.19328775578717591 -0.17273590330701871 0 0.19468436660026969 -0.16673059391109871 0 0.20960938141439381 -0.1544483061793793 0 0.2050507861662208 -0.17138776533453989 0 0.20960938141439381 -0.1544483061793793 0 0.1974342802380262 -0.15465421165661039 0 0.2050507861662208 -0.17138776533453989 0 0.20960938141439381 -0.1544483061793793 0 0.2050507861662208 -0.17138776533453989 0 0.212936807673237 -0.1696380100437016 0 0.20960938141439381 -0.1544483061793793 0 0.212936807673237 -0.1696380100437016 0 0.22410786852845399 -0.16675920450434001 0 0.20960938141439381 -0.1544483061793793 0 0.22410786852845399 -0.16675920450434001 0 0.212936807673237 -0.1696380100437016 0 0.21761363919252649 -0.17369672497357139 0 0.22410786852845399 -0.16675920450434001 0 0.21761363919252649 -0.17369672497357139 0 0.21151137319550309 -0.17737283995147859 0 0.21882335037935169 -0.18112008480230871 0 0.212936807673237 -0.1696380100437016 0 0.21761363919252649 -0.17369672497357139 0 0.21151137319550309 -0.17737283995147859 0 0.212936807673237 -0.1696380100437016 0 0.21151137319550309 -0.17737283995147859 0 0.20345696681674519 -0.17731029986575689 0 0.2050507861662208 -0.17138776533453989 0 0.212936807673237 -0.1696380100437016 0 0.20345696681674519 -0.17731029986575689 0 0.2050507861662208 -0.17138776533453989 0 0.20345696681674519 -0.17731029986575689 0 0.21151137319550309 -0.17737283995147859 0 0.20345696681674519 -0.17731029986575689 0 0.20856347574802311 -0.1906446935935586 0 0.21151137319550309 -0.17737283995147859 0 0.21882335037935169 -0.18112008480230871 0 0.20856347574802311 -0.1906446935935586 0 0.23148397855632991 -0.1755489620276918 0 0.2341312690772745 -0.18699426709989539 0 0.22169446324393641 -0.19625358447638169 0 0.21882335037935169 -0.18112008480230871 0 0.23148397855632991 -0.1755489620276918 0 0.22169446324393641 -0.19625358447638169 0 0.23148397855632991 -0.1755489620276918 0 0.22169446324393641 -0.19625358447638169 0 0.21761363919252649 -0.17369672497357139 0 0.21882335037935169 -0.18112008480230871 0 0.22274960772215671 -0.17420482646465019 0 0.22274960772215671 -0.17420482646465019 0 0.23148397855632991 -0.1755489620276918 0 0.22410786852845399 -0.16675920450434001 0 0.21882335037935169 -0.18112008480230871 0 0.22274960772215671 -0.17420482646465019 0 0.23148397855632991 -0.1755489620276918 0 0.22410786852845399 -0.16675920450434001 0 0.23860635564251501 -0.1790701028292998 0 0.23148397855632991 -0.1755489620276918 0 0.22410786852845399 -0.16675920450434001 0 0.23860635564251501 -0.1790701028292998 0 0.22667647899321031 -0.14914568045006241 0 0.22410786852845399 -0.16675920450434001 0 0.2384597502014196 -0.16024027279430991 0 0.22667647899321031 -0.14914568045006241 0 0.20960938141439381 -0.1544483061793793 0 0.22410786852845399 -0.16675920450434001 0 0.21761363919252649 -0.17369672497357139 0 0.22274960772215671 -0.17420482646465019 0 0.22410786852845399 -0.16675920450434001 0 0.22410786852845399 -0.16675920450434001 0 0.24273253273139089 -0.16962249146836 0 0.23860635564251501 -0.1790701028292998 0 0.22410786852845399 -0.16675920450434001 0 0.2384597502014196 -0.16024027279430991 0 0.24273253273139089 -0.16962249146836 0 0.25416550914145403 -0.16506446950883469 0 0.2384597502014196 -0.16024027279430991 0 0.24273253273139089 -0.16962249146836 0 0.25191964289289609 -0.17371596287125671 0 0.25416550914145403 -0.16506446950883469 0 0.24273253273139089 -0.16962249146836 0 0.23148397855632991 -0.1755489620276918 0 0.2341312690772745 -0.18699426709989539 0 0.23860635564251501 -0.1790701028292998 0 0.2341312690772745 -0.18699426709989539 0 0.23860635564251501 -0.1790701028292998 0 0.2422132520838183 -0.18939721442117441 0 0.24273253273139089 -0.16962249146836 0 0.23860635564251501 -0.1790701028292998 0 0.24608664359444801 -0.17937095996933211 0 0.25191964289289609 -0.17371596287125671 0 0.24273253273139089 -0.16962249146836 0 0.24608664359444801 -0.17937095996933211 0 0.23860635564251501 -0.1790701028292998 0 0.24608664359444801 -0.17937095996933211 0 0.2422132520838183 -0.18939721442117441 0 0.25541340096430232 -0.20421965002648601 0 0.2422132520838183 -0.18939721442117441 0 0.2368285911405518 -0.19733109218085881 0 0.25541340096430232 -0.20421965002648601 0 0.24608664359444801 -0.17937095996933211 0 0.2422132520838183 -0.18939721442117441 0 0.2341312690772745 -0.18699426709989539 0 0.2422132520838183 -0.18939721442117441 0 0.2368285911405518 -0.19733109218085881 0 0.25408186593628368 -0.21011597023667741 0 0.23365917444792239 -0.21058892847577851 0 0.24988521161435959 -0.22065093421590709 0 0.25541340096430232 -0.20421965002648601 0 0.2368285911405518 -0.19733109218085881 0 0.23365917444792239 -0.21058892847577851 0 0.25541340096430232 -0.20421965002648601 0 0.23365917444792239 -0.21058892847577851 0 0.25408186593628368 -0.21011597023667741 0 0.25541340096430232 -0.20421965002648601 0 0.23365917444792239 -0.21058892847577851 0 0.23365917444792239 -0.21058892847577851 0 0.22169446324393641 -0.19625358447638169 0 0.21190494793154269 -0.21695820692507131 0 0.23365917444792239 -0.21058892847577851 0 0.21190494793154269 -0.21695820692507131 0 0.2341312690772745 -0.18699426709989539 0 0.2368285911405518 -0.19733109218085881 0 0.22169446324393641 -0.19625358447638169 0 0.2368285911405518 -0.19733109218085881 0 0.23365917444792239 -0.21058892847577851 0 0.22169446324393641 -0.19625358447638169 0 0.25020103332250959 -0.25663574464360273 0 0.2390536538991816 -0.23952817952063241 0 0.22490999937336131 -0.24839662353886441 0 0.2532056918276841 -0.23460617000945991 0 0.25020103332250959 -0.25663574464360273 0 0.2390536538991816 -0.23952817952063241 0 0.23365917444792239 -0.21058892847577851 0 0.24132019564338039 -0.22751688930690561 0 0.24988521161435959 -0.22065093421590709 0 0.2390536538991816 -0.23952817952063241 0 0.24132019564338039 -0.22751688930690561 0 0.2256313493289725 -0.23048547010432929 0 0.2532056918276841 -0.23460617000945991 0 0.24132019564338039 -0.22751688930690561 0 0.24988521161435959 -0.22065093421590709 0 0.2532056918276841 -0.23460617000945991 0 0.2390536538991816 -0.23952817952063241 0 0.24132019564338039 -0.22751688930690561 0 0.23365917444792239 -0.21058892847577851 0 0.24132019564338039 -0.22751688930690561 0 0.2256313493289725 -0.23048547010432929 0 0.23365917444792239 -0.21058892847577851 0 0.2256313493289725 -0.23048547010432929 0 0.21190494793154269 -0.21695820692507131 0 0.2390536538991816 -0.23952817952063241 0 0.2256313493289725 -0.23048547010432929 0 0.22490999937336131 -0.24839662353886441 0 0.2256313493289725 -0.23048547010432929 0 0.22490999937336131 -0.24839662353886441 0 0.20112092782514659 -0.23976618644775011 0 0.19690392735331469 -0.2297233765729895 0 0.20112092782514659 -0.23976618644775011 0 0.21190494793154269 -0.21695820692507131 0 0.20112092782514659 -0.23976618644775011 0 0.21190494793154269 -0.21695820692507131 0 0.2256313493289725 -0.23048547010432929 0 0.20112092782514659 -0.23976618644775011 0 0.21190494793154269 -0.21695820692507131 0 0.19115213762144839 -0.2230342872385121 0 0.19690392735331469 -0.2297233765729895 0 0.21190494793154269 -0.21695820692507131 0 0.19115213762144839 -0.2230342872385121 0 0.21190494793154269 -0.21695820692507131 0 0.19115213762144839 -0.2230342872385121 0 0.1922896481456266 -0.22840239367273121 0 0.19690392735331469 -0.2297233765729895 0 0.19115213762144839 -0.2230342872385121 0 0.1922896481456266 -0.22840239367273121 0 0.18724538201342061 -0.2292294426925392 0 0.1922896481456266 -0.22840239367273121 0 0.19016980361628261 -0.2348310580822463 0 0.18724538201342061 -0.2292294426925392 0 0.1922896481456266 -0.22840239367273121 0 0.19690392735331469 -0.2297233765729895 0 0.19016980361628261 -0.2348310580822463 0 0.18687160578303541 -0.25310112125746681 0 0.20112092782514659 -0.23976618644775011 0 0.18511135489533589 -0.2423267725848805 0 0.20112092782514659 -0.23976618644775011 0 0.19016980361628261 -0.2348310580822463 0 0.18511135489533589 -0.2423267725848805 0 0.19690392735331469 -0.2297233765729895 0 0.20112092782514659 -0.23976618644775011 0 0.19016980361628261 -0.2348310580822463 0 0.20856347574802311 -0.1906446935935586 0 0.21190494793154269 -0.21695820692507131 0 0.19730455221909621 -0.20017229355213431 0 0.22169446324393641 -0.19625358447638169 0 0.20856347574802311 -0.1906446935935586 0 0.21190494793154269 -0.21695820692507131 0 0.21882335037935169 -0.18112008480230871 0 0.22169446324393641 -0.19625358447638169 0 0.20856347574802311 -0.1906446935935586 0 0.22169446324393641 -0.19625358447638169 0 0.21190494793154269 -0.21695820692507131 0 0.19115213762144839 -0.2230342872385121 0 0.21190494793154269 -0.21695820692507131 0 0.19730455221909621 -0.20017229355213431 0 0.19115213762144839 -0.2230342872385121 0 0.19730455221909621 -0.20017229355213431 0 0.18476131273850641 -0.2146816465264598 0 0.19115213762144839 -0.2230342872385121 0 0.19730455221909621 -0.20017229355213431 0 0.1929695102276934 -0.1862504827809992 0 0.20345696681674519 -0.17731029986575689 0 0.19730455221909621 -0.20017229355213431 0 0.20345696681674519 -0.17731029986575689 0 0.20856347574802311 -0.1906446935935586 0 0.19730455221909621 -0.20017229355213431 0 0.20345696681674519 -0.17731029986575689 0 0.19730455221909621 -0.20017229355213431 0 0.1929695102276934 -0.1862504827809992 0 0.19730455221909621 -0.20017229355213431 0 0.17919649923314779 -0.19026398779969381 0 0.17919649923314779 -0.19026398779969381 0 0.18040893765559099 -0.20598341726364611 0 0.16789554821378219 -0.2050778576277931 0 0.19730455221909621 -0.20017229355213431 0 0.17919649923314779 -0.19026398779969381 0 0.18040893765559099 -0.20598341726364611 0 0.19730455221909621 -0.20017229355213431 0 0.18040893765559099 -0.20598341726364611 0 0.18476131273850641 -0.2146816465264598 0 0.18040893765559099 -0.20598341726364611 0 0.18476131273850641 -0.2146816465264598 0 0.17452008402081831 -0.21753939822806981 0 0.18040893765559099 -0.20598341726364611 0 0.17452008402081831 -0.21753939822806981 0 0.16789554821378219 -0.2050778576277931 0 0.16789554821378219 -0.2050778576277931 0 0.16025652683707331 -0.22303439953869619 0 0.15350812107579151 -0.20671271004951541 0 0.17452008402081831 -0.21753939822806981 0 0.16789554821378219 -0.2050778576277931 0 0.16025652683707331 -0.22303439953869619 0 0.17919649923314779 -0.19026398779969381 0 0.16789554821378219 -0.2050778576277931 0 0.16189671916950529 -0.1924399989043058 0 0.16789554821378219 -0.2050778576277931 0 0.16189671916950529 -0.1924399989043058 0 0.15350812107579151 -0.20671271004951541 0 0.17517517398518781 -0.25177012561693107 0 0.18511135489533589 -0.2423267725848805 0 0.17549691960200811 -0.24053456276442431 0 0.17517517398518781 -0.25177012561693107 0 0.18687160578303541 -0.25310112125746681 0 0.18511135489533589 -0.2423267725848805 0 0.19016980361628261 -0.2348310580822463 0 0.18511135489533589 -0.2423267725848805 0 0.181833698560355 -0.23395758134046421 0 0.18511135489533589 -0.2423267725848805 0 0.17549691960200811 -0.24053456276442431 0 0.181833698560355 -0.23395758134046421 0 0.17549691960200811 -0.24053456276442431 0 0.17293972330680291 -0.2303317503160891 0 0.181833698560355 -0.23395758134046421 0 0.17293972330680291 -0.2303317503160891 0 0.181833698560355 -0.23395758134046421 0 0.1820213582882865 -0.22570762871485381 0 0.181833698560355 -0.23395758134046421 0 0.18724538201342061 -0.2292294426925392 0 0.1820213582882865 -0.22570762871485381 0 0.19016980361628261 -0.2348310580822463 0 0.181833698560355 -0.23395758134046421 0 0.18724538201342061 -0.2292294426925392 0 0.18476131273850641 -0.2146816465264598 0 0.17452008402081831 -0.21753939822806981 0 0.1820213582882865 -0.22570762871485381 0 0.19115213762144839 -0.2230342872385121 0 0.18724538201342061 -0.2292294426925392 0 0.1820213582882865 -0.22570762871485381 0 0.19115213762144839 -0.2230342872385121 0 0.18476131273850641 -0.2146816465264598 0 0.1820213582882865 -0.22570762871485381 0 0.19115213762144839 -0.2230342872385121 0 0.1820213582882865 -0.22570762871485381 0 0.17452008402081831 -0.21753939822806981 0 0.17293972330680291 -0.2303317503160891 0 0.1820213582882865 -0.22570762871485381 0 0.17293972330680291 -0.2303317503160891 0 0.16025652683707331 -0.22303439953869619 0 0.16456358482649891 -0.24169347422879001 0 0.16025652683707331 -0.22303439953869619 0 0.16456358482649891 -0.24169347422879001 0 0.1497377532537276 -0.23798813271309549 0 0.17452008402081831 -0.21753939822806981 0 0.17293972330680291 -0.2303317503160891 0 0.16025652683707331 -0.22303439953869619 0 0.17549691960200811 -0.24053456276442431 0 0.17293972330680291 -0.2303317503160891 0 0.16456358482649891 -0.24169347422879001 0 0.17517517398518781 -0.25177012561693107 0 0.17549691960200811 -0.24053456276442431 0 0.16456358482649891 -0.24169347422879001 0 0.16298920910054049 -0.25539579174330118 0 0.17517517398518781 -0.25177012561693107 0 0.16456358482649891 -0.24169347422879001 0 0.1500337050372389 -0.25472409195391782 0 0.16456358482649891 -0.24169347422879001 0 0.1497377532537276 -0.23798813271309549 0 0.1500337050372389 -0.25472409195391782 0 0.1497377532537276 -0.23798813271309549 0 0.1335561985377903 -0.24472646869262221 0 0.1497377532537276 -0.23798813271309549 0 0.1395550120458097 -0.2251498404431955 0 0.1335561985377903 -0.24472646869262221 0 0.16025652683707331 -0.22303439953869619 0 0.1497377532537276 -0.23798813271309549 0 0.1395550120458097 -0.2251498404431955 0 0.11563926977356601 -0.2271066975156624 0 0.1395550120458097 -0.2251498404431955 0 0.1357376281676487 -0.20776248780239509 0 0.11563926977356601 -0.2271066975156624 0 0.1395550120458097 -0.2251498404431955 0 0.1335561985377903 -0.24472646869262221 0 0.15350812107579151 -0.20671271004951541 0 0.1357376281676487 -0.20776248780239509 0 0.14298037499818439 -0.18510127261022 0 0.16189671916950529 -0.1924399989043058 0 0.15350812107579151 -0.20671271004951541 0 0.14298037499818439 -0.18510127261022 0 0.1395550120458097 -0.2251498404431955 0 0.15350812107579151 -0.20671271004951541 0 0.1357376281676487 -0.20776248780239509 0 0.16025652683707331 -0.22303439953869619 0 0.1395550120458097 -0.2251498404431955 0 0.15350812107579151 -0.20671271004951541 0 0.1200465015242379 -0.19935528873319 0 0.1357376281676487 -0.20776248780239509 0 0.14298037499818439 -0.18510127261022 0 0.1178015717316883 -0.17548725694934281 0 0.14298037499818439 -0.18510127261022 0 0.1312614331524497 -0.1635912572945705 0 0.1200465015242379 -0.19935528873319 0 0.1178015717316883 -0.17548725694934281 0 0.14298037499818439 -0.18510127261022 0 0.14298037499818439 -0.18510127261022 0 0.1508735809458788 -0.1640146074437657 0 0.16492539411184901 -0.1762501030308023 0 0.1508735809458788 -0.1640146074437657 0 0.1312614331524497 -0.1635912572945705 0 0.145980022687524 -0.15153777027940771 0 0.14298037499818439 -0.18510127261022 0 0.1508735809458788 -0.1640146074437657 0 0.1312614331524497 -0.1635912572945705 0 0.1312614331524497 -0.1635912572945705 0 0.12591033640807511 -0.14704369877296469 0 0.1347822664439263 -0.15110237480842781 0 0.12591033640807511 -0.14704369877296469 0 0.1347822664439263 -0.15110237480842781 0 0.12873445694653279 -0.1356233751993875 0 0.1347822664439263 -0.15110237480842781 0 0.12873445694653279 -0.1356233751993875 0 0.14315769516501159 -0.14047360901563061 0 0.1312614331524497 -0.1635912572945705 0 0.1347822664439263 -0.15110237480842781 0 0.145980022687524 -0.15153777027940771 0 0.12649762265596601 -0.1206141667289754 0 0.12873445694653279 -0.1356233751993875 0 0.1366185565040583 -0.12594926818623639 0 0.12873445694653279 -0.1356233751993875 0 0.1366185565040583 -0.12594926818623639 0 0.14315769516501159 -0.14047360901563061 0 0.1366185565040583 -0.12594926818623639 0 0.14315769516501159 -0.14047360901563061 0 0.1539975317547195 -0.13043494150422261 0 0.14315769516501159 -0.14047360901563061 0 0.1539975317547195 -0.13043494150422261 0 0.15643611279904049 -0.1475067042061424 0 0.14954583971598739 -0.1209555525708393 0 0.1366185565040583 -0.12594926818623639 0 0.1539975317547195 -0.13043494150422261 0 0.1508735809458788 -0.1640146074437657 0 0.145980022687524 -0.15153777027940771 0 0.15643611279904049 -0.1475067042061424 0 0.1347822664439263 -0.15110237480842781 0 0.14315769516501159 -0.14047360901563061 0 0.145980022687524 -0.15153777027940771 0 0.14315769516501159 -0.14047360901563061 0 0.145980022687524 -0.15153777027940771 0 0.15643611279904049 -0.1475067042061424 0 0.15643611279904049 -0.1475067042061424 0 0.16632898407639229 -0.14970381829804699 0 0.16419038823093529 -0.1596696262655497 0 0.15643611279904049 -0.1475067042061424 0 0.16632898407639229 -0.14970381829804699 0 0.16877457297959331 -0.13937430988341989 0 0.16632898407639229 -0.14970381829804699 0 0.16877457297959331 -0.13937430988341989 0 0.1759148622960002 -0.15226463283707611 0 0.16632898407639229 -0.14970381829804699 0 0.1759148622960002 -0.15226463283707611 0 0.16419038823093529 -0.1596696262655497 0 0.1539975317547195 -0.13043494150422261 0 0.15643611279904049 -0.1475067042061424 0 0.16877457297959331 -0.13937430988341989 0 0.1539975317547195 -0.13043494150422261 0 0.16877457297959331 -0.13937430988341989 0 0.16599125378273469 -0.12824618074702129 0 0.16489551478955089 -0.116481043705464 0 0.1539975317547195 -0.13043494150422261 0 0.16599125378273469 -0.12824618074702129 0 0.16877457297959331 -0.13937430988341989 0 0.16599125378273469 -0.12824618074702129 0 0.17759605914381271 -0.12726527994934919 0 0.18157664256961689 -0.11776388251369239 0 0.19029660349807509 -0.13804951619323369 0 0.17759605914381271 -0.12726527994934919 0 0.18157664256961689 -0.11776388251369239 0 0.19029660349807509 -0.13804951619323369 0 0.16877457297959331 -0.13937430988341989 0 0.17759605914381271 -0.12726527994934919 0 0.179714804377546 -0.14100121033447391 0 0.19029660349807509 -0.13804951619323369 0 0.17759605914381271 -0.12726527994934919 0 0.179714804377546 -0.14100121033447391 0 0.19029660349807509 -0.13804951619323369 0 0.17759605914381271 -0.12726527994934919 0 0.16877457297959331 -0.13937430988341989 0 0.1759148622960002 -0.15226463283707611 0 0.179714804377546 -0.14100121033447391 0 0.1759148622960002 -0.15226463283707611 0 0.179714804377546 -0.14100121033447391 0 0.1859299250895961 -0.1489815116468664 0 0.19029660349807509 -0.13804951619323369 0 0.179714804377546 -0.14100121033447391 0 0.1859299250895961 -0.1489815116468664 0 0.1759148622960002 -0.15226463283707611 0 0.1859299250895961 -0.1489815116468664 0 0.1862890750383332 -0.15893798721293809 0 0.1759148622960002 -0.15226463283707611 0 0.17609336104999579 -0.16586887816521689 0 0.16419038823093529 -0.1596696262655497 0 0.1759148622960002 -0.15226463283707611 0 0.1862890750383332 -0.15893798721293809 0 0.17609336104999579 -0.16586887816521689 0 0.1862890750383332 -0.15893798721293809 0 0.17609336104999579 -0.16586887816521689 0 0.18656080095769029 -0.16925856996229471 0 0.17609336104999579 -0.16586887816521689 0 0.18656080095769029 -0.16925856996229471 0 0.17879354121308871 -0.1774671905738732 0 0.18773834934278391 -0.1791416501892743 0 0.18656080095769029 -0.16925856996229471 0 0.17879354121308871 -0.1774671905738732 0 0.1929695102276934 -0.1862504827809992 0 0.18773834934278391 -0.1791416501892743 0 0.17919649923314779 -0.19026398779969381 0 0.18773834934278391 -0.1791416501892743 0 0.17919649923314779 -0.19026398779969381 0 0.17879354121308871 -0.1774671905738732 0 0.17919649923314779 -0.19026398779969381 0 0.17879354121308871 -0.1774671905738732 0 0.16492539411184901 -0.1762501030308023 0 0.17609336104999579 -0.16586887816521689 0 0.17879354121308871 -0.1774671905738732 0 0.16492539411184901 -0.1762501030308023 0 0.16189671916950529 -0.1924399989043058 0 0.14298037499818439 -0.18510127261022 0 0.16492539411184901 -0.1762501030308023 0 0.17919649923314779 -0.19026398779969381 0 0.16189671916950529 -0.1924399989043058 0 0.16492539411184901 -0.1762501030308023 0 0.1508735809458788 -0.1640146074437657 0 0.16492539411184901 -0.1762501030308023 0 0.16419038823093529 -0.1596696262655497 0 0.1508735809458788 -0.1640146074437657 0 0.15643611279904049 -0.1475067042061424 0 0.16419038823093529 -0.1596696262655497 0 0.17609336104999579 -0.16586887816521689 0 0.16492539411184901 -0.1762501030308023 0 0.16419038823093529 -0.1596696262655497 0 
</DataArray>
</Points>
<Cells>
<DataArray type="UInt32" Name="connectivity" format="ascii">
0 1 2 3 4 5 6 7 8 9 10 11 12 13 14 15 16 17 18 19 20 21 22 23 24 25 26 27 28 29 30 31 32 33 34 35 36 37 38 39 40 41 42 43 44 45 46 47 48 49 50 51 52 53 54 55 56 57 58 59 60 61 62 63 64 65 66 67 68 69 70 71 72 73 74 75 76 77 78 79 80 81 82 83 84 85 86 87 88 89 90 91 92 93 94 95 96 97 98 99 100 101 102 103 104 105 106 107 108 109 110 111 112 113 114 115 116 117 118 119 120 121 122 123 124 125 126 127 128 129 130 131 132 133 134 135 136 137 138 139 140 141 142 143 144 145 146 147 148 149 150 151 152 153 154 155 156 157 158 159 160 161 162 163 164 165 166 167 168 169 170 171 172 173 174 175 176 177 178 179 180 181 182 183 184 185 186 187 188 189 190 191 192 193 194 195 196 197 198 199 200 201 202 203 204 205 206 207 208 209 210 211 212 213 214 215 216 217 218 219 220 221 222 223 224 225 226 227 228 229 230 231 232 233 234 235 236 237 238 239 240 241 242 243 244 245 246 247 248 249 250 251 252 253 254 255 256 257 258 259 260 261 262 263 264 265 266 267 268 269 270 271 272 273 274 275 276 277 278 279 280 281 282 283 284 285 286 287 288 289 290 291 292 293 294 295 296 297 298 299 300 301 302 303 304 305 306 307 308 309 310 311 312 313 314 315 316 317 318 319 320 321 322 323 324 325 326 327 328 329 330 331 332 333 334 335 336 337 338 339 340 341 342 343 344 345 346 347 348 349 350 351 352 353 354 355 356 357 358 359 360 361 362 363 364 365 366 367 368 369 370 371 372 373 374 375 376 377 378 379 380 381 382 383 384 385 386 387 388 389 390 391 392 393 394 395 396 397 398 399 400 401 402 403 404 405 406 407 408 409 410 411 412 413 414 415 416 417 418 419 420 421 422 423 424 425 426 427 428 429 430 431 432 433 434 435 436 437 438 439 440 441 442 443 444 445 446 447 448 449 450 451 452 453 454 455 456 457 458 459 460 461 462 463 464 465 466 467 468 469 470 471 472 473 474 475 476 477 478 479 480 481 482 483 484 485 486 487 488 489 490 491 492 493 494 495 496 497 498 499 500 501 502 503 504 505 506 507 508 509 510 511 512 513 514 515 516 517 518 519 520 521 522 523 524 525 526 527 528 529 530 531 532 533 534 535 536 537 538 539 540 541 542 543 544 545 546 547 548 549 550 551 552 553 554 555 556 557 558 559 560 561 562 563 564 565 566 567 568 569 570 571 572 573 574 575 576 577 578 579 580 581 582 583 584 585 586 587 588 589 590 591 592 593 594 595 596 597 598 599 600 601 602 603 604 605 606 607 608 609 610 611 612 613 614 615 616 617 618 619 620 621 622 623 624 625 626 627 628 629 630 631 632 633 634 635 636 637 638 639 640 641 642 643 644 645 646 647 648 649 650 651 652 653 654 655 656 657 658 659 660 661 662 663 664 665 666 667 668 669 670 671 672 673 674 675 676 677 678 679 680 681 682 683 684 685 686 687 688 689 690 691 692 693 694 695 696 697 698 699 700 701 702 703 704 705 706 707 708 709 710 711 712 713 714 715 716 717 718 719 720 721 722 723 724 725 726 727 728 729 730 731 732 733 734 735 736 737 738 739 740 741 742 743 744 745 746 747 748 749 750 751 752 753 754 755 756 757 758 759 760 761 762 763 764 765 766 767 768 769 770 771 772 773 774 775 776 777 778 779 780 781 782 783 784 785 786 787 788 789 790 791 792 793 794 795 796 797 798 799 800 801 802 803 804 805 806 807 808 809 810 811 812 813 814 815 816 817 818 819 820 821 822 823 824 825 826 827 828 829 830 831 832 833 834 835 836 837 838 839 840 841 842 843 844 845 846 847 848 849 850 851 852 853 854 855 856 857 858 859 860 861 862 863 864 865 866 867 868 869 870 871 872 873 874 875 876 877 878 879 880 881 882 883 884 885 886 887 888 889 890 891 892 893 894 895 896 897 898 899 900 901 902 903 904 905 906 907 908 909 910 911 912 913 914 915 916 917 918 919 920 921 922 923 924 925 926 927 928 929 930 931 932 933 934 935 936 937 938 939 940 941 942 943 944 945 946 947 948 949 950 951 952 953 954 955 956 957 958 959 960 961 962 963 964 965 966 967 968 969 970 971 972 973 974 975 976 977 978 979 980 981 982 983 984 985 986 987 988 989 990 991 992 993 994 995 996 997 998 999 1000 1001 1002 1003 1004 1005 1006 1007 1008 1009 1010 1011 1012 1013 1014 1015 1016 1017 1018 1019 1020 1021 1022 1023 1024 1025 1026 1027 1028 1029 1030 1031 1032 1033 1034 1035 1036 1037 1038 1039 1040 1041 1042 1043 1044 1045 1046 1047 1048 1049 1050 1051 1052 1053 1054 1055 1056 1057 1058 1059 1060 1061 1062 1063 1064 1065 1066 1067 1068 1069 1070 1071 1072 1073 1074 1075 1076 1077 1078 1079 1080 1081 1082 1083 1084 1085 1086 1087 1088 1089 1090 1091 1092 1093 1094 1095 1096 1097 1098 1099 1100 1101 1102 1103 1104 1105 1106 1107 1108 1109 1110 1111 1112 1113 1114 1115 1116 1117 1118 1119 1120 1121 1122 1123 1124 1125 1126 1127 1128 1129 1130 1131 1132 1133 1134 1135 1136 1137 1138 1139 1140 1141 1142 1143 1144 1145 1146 1147 1148 1149 1150 1151 1152 1153 1154 1155 1156 1157 1158 1159 1160 1161 1162 1163 1164 1165 1166 1167 1168 1169 1170 1171 1172 1173 1174 1175 1176 1177 1178 1179 1180 1181 1182 1183 1184 1185 1186 1187 1188 1189 1190 1191 1192 1193 1194 1195 1196 1197 1198 1199 1200 1201 1202 1203 1204 1205 1206 1207 1208 1209 1210 1211 1212 1213 1214 1215 1216 1217 1218 1219 1220 1221 1222 1223 1224 1225 1226 1227 1228 1229 1230 1231 1232 1233 1234 1235 1236 1237 1238 1239 1240 1241 1242 1243 1244 1245 1246 1247 1248 1249 1250 1251 1252 1253 1254 1255 1256 1257 1258 1259 1260 1261 1262 1263 1264 1265 1266 1267 1268 1269 1270 1271 1272 1273 1274 1275 1276 1277 1278 1279 1280 1281 1282 1283 1284 1285 1286 1287 1288 1289 1290 1291 1292 1293 1294 1295 1296 1297 1298 1299 1300 1301 1302 1303 1304 1305 1306 1307 1308 1309 1310 1311 1312 1313 1314 1315 1316 1317 1318 1319 1320 1321 1322 1323 1324 1325 1326 1327 1328 1329 1330 1331 1332 1333 1334 1335 1336 1337 1338 1339 1340 1341 1342 1343 1344 1345 1346 1347 1348 1349 1350 1351 1352 1353 1354 1355 1356 1357 1358 1359 1360 1361 1362 1363 1364 1365 1366 1367 1368 1369 1370 1371 1372 1373 1374 1375 1376 1377 1378 1379 1380 1381 1382 1383 1384 1385 1386 1387 1388 1389 1390 1391 1392 1393 1394 1395 1396 1397 1398 1399 1400 1401 1402 1403 1404 1405 1406 1407 1408 1409 1410 1411 1412 1413 1414 1415 1416 1417 1418 1419 1420 1421 1422 1423 1424 1425 1426 1427 1428 1429 1430 1431 1432 1433 1434 1435 1436 1437 1438 1439 1440 1441 1442 1443 1444 1445 1446 1447 1448 1449 1450 1451 1452 1453 1454 1455 1456 1457 1458 1459 1460 1461 1462 1463 1464 1465 1466 1467 1468 1469 1470 1471 1472 1473 1474 1475 1476 1477 1478 1479 1480 1481 1482 1483 1484 1485 1486 1487 1488 1489 1490 1491 1492 1493 1494 1495 1496 1497 1498 1499 1500 1501 1502 1503 1504 1505 1506 1507 1508 1509 1510 1511 1512 1513 1514 1515 1516 1517 1518 1519 1520 1521 1522 1523 1524 1525 1526 1527 1528 1529 1530 1531 1532 1533 1534 1535 1536 1537 1538 1539 1540 1541 1542 1543 1544 1545 1546 1547 1548 1549 1550 1551 1552 1553 1554 1555 1556 1557 1558 1559 1560 1561 1562 1563 1564 1565 1566 1567 1568 1569 1570 1571 1572 1573 1574 1575 1576 1577 1578 1579 1580 1581 1582 1583 1584 1585 1586 1587 1588 1589 1590 1591 1592 1593 1594 1595 1596 1597 1598 1599 1600 1601 1602 1603 1604 1605 1606 1607 1608 1609 1610 1611 1612 1613 1614 1615 1616 1617 1618 1619 1620 1621 1622 1623 1624 1625 1626 1627 1628 1629 1630 1631 1632 1633 1634 1635 1636 1637 1638 1639 1640 1641 1642 1643 1644 1645 1646 1647 1648 1649 1650 1651 1652 1653 1654 1655 1656 1657 1658 1659 1660 1661 1662 1663 1664 1665 1666 1667 1668 1669 1670 1671 1672 1673 1674 1675 1676 1677 1678 1679 1680 1681 1682 1683 1684 1685 1686 1687 1688 1689 1690 1691 1692 1693 1694 1695 1696 1697 1698 1699 1700 1701 1702 1703 1704 1705 1706 1707 1708 1709 1710 1711 1712 1713 1714 1715 1716 1717 1718 1719 1720 1721 1722 1723 1724 1725 1726 1727 1728 1729 1730 1731 1732 1733 1734 1735 1736 1737 1738 1739 1740 1741 1742 1743 1744 1745 1746 1747 1748 1749 1750 1751 1752 1753 1754 1755 1756 1757 1758 1759 1760 1761 1762 1763 1764 1765 1766 1767 1768 1769 1770 1771 1772 1773 1774 1775 1776 1777 1778 1779 1780 1781 1782 1783 1784 1785 1786 1787 1788 1789 1790 1791 1792 1793 1794 1795 1796 1797 1798 1799 1800 1801 1802 1803 1804 1805 1806 1807 1808 1809 1810 1811 1812 1813 1814 1815 1816 1817 1818 1819 1820 1821 1822 1823 1824 1825 1826 1827 1828 1829 1830 1831 1832 1833 1834 1835 1836 1837 1838 1839 1840 1841 1842 1843 1844 1845 1846 1847 1848 1849 1850 1851 1852 1853 1854 1855 1856 1857 1858 1859 1860 1861 1862 1863 1864 1865 1866 1867 1868 1869 1870 1871 1872 1873 1874 1875 1876 1877 1878 1879 1880 1881 1882 1883 1884 1885 1886 1887 1888 1889 1890 1891 1892 1893 1894 1895 1896 1897 1898 1899 1900 1901 1902 1903 1904 1905 1906 1907 1908 1909 1910 1911 1912 1913 1914 1915 1916 1917 1918 1919 1920 1921 1922 1923 1924 1925 1926 1927 1928 1929 1930 1931 1932 1933 1934 1935 1936 1937 1938 1939 1940 1941 1942 1943 1944 1945 1946 1947 1948 1949 1950 1951 1952 1953 1954 1955 1956 1957 1958 1959 1960 1961 1962 1963 1964 1965 1966 1967 1968 1969 1970 1971 1972 1973 1974 1975 1976 1977 1978 1979 1980 1981 1982 1983 1984 1985 1986 1987 1988 1989 1990 1991 1992 1993 1994 1995 1996 1997 1998 1999 2000 2001 2002 2003 2004 2005 2006 2007 2008 2009 2010 2011 2012 2013 2014 2015 2016 2017 2018 2019 2020 2021 2022 2023 2024 2025 2026 2027 2028 2029 2030 2031 2032 2033 2034 2035 2036 2037 2038 2039 2040 2041 2042 2043 2044 2045 2046 2047 2048 2049 2050 2051 2052 2053 2054 2055 2056 2057 2058 2059 2060 2061 2062 2063 2064 2065 2066 2067 2068 2069 2070 2071 2072 2073 2074 2075 2076 2077 2078 2079 2080 2081 2082 2083 2084 2085 2086 2087 2088 2089 2090 2091 2092 2093 2094 2095 2096 2097 2098 2099 2100 2101 2102 2103 2104 2105 2106 2107 2108 2109 2110 2111 2112 2113 2114 2115 2116 2117 2118 2119 2120 2121 2122 2123 2124 2125 2126 2127 2128 2129 2130 2131 2132 2133 2134 2135 2136 2137 2138 2139 2140 2141 2142 2143 2144 2145 2146 2147 2148 2149 2150 2151 2152 2153 2154 2155 2156 2157 2158 2159 2160 2161 2162 2163 2164 2165 2166 2167 2168 2169 2170 2171 2172 2173 2174 2175 2176 2177 2178 2179 2180 2181 2182 2183 2184 2185 2186 2187 2188 2189 2190 2191 2192 2193 2194 2195 2196 2197 2198 2199 2200 2201 2202 2203 2204 2205 2206 2207 2208 2209 2210 2211 2212 2213 2214 2215 2216 2217 2218 2219 2220 2221 2222 2223 2224 2225 2226 2227 2228 2229 2230 2231 2232 2233 2234 2235 2236 2237 2238 2239 2240 2241 2242 2243 2244 2245 2246 2247 2248 2249 2250 2251 2252 2253 2254 2255 2256 2257 2258 2259 2260 2261 2262 2263 2264 2265 2266 2267 2268 2269 2270 2271 2272 2273 2274 2275 2276 2277 2278 2279 2280 2281 2282 2283 2284 2285 2286 2287 2288 2289 2290 2291 2292 2293 2294 2295 2296 2297 2298 2299 2300 2301 2302 2303 2304 2305 2306 2307 2308 2309 2310 2311 2312 2313 2314 2315 2316 2317 2318 2319 2320 2321 2322 2323 2324 2325 2326 2327 2328 2329 2330 2331 2332 2333 2334 2335 2336 2337 2338 2339 2340 2341 2342 2343 2344 2345 2346 2347 2348 2349 2350 2351 2352 2353 2354 2355 2356 2357 2358 2359 2360 2361 2362 2363 2364 2365 2366 2367 2368 2369 2370 2371 2372 2373 2374 2375 2376 2377 2378 2379 2380 2381 2382 2383 2384 2385 2386 2387 2388 2389 2390 2391 2392 2393 2394 2395 2396 2397 2398 2399 2400 2401 2402 2403 2404 2405 2406 2407 2408 2409 2410 2411 2412 2413 2414 2415 2416 2417 2418 2419 2420 2421 2422 2423 2424 2425 2426 2427 2428 2429 2430 2431 2432 2433 2434 2435 2436 2437 2438 2439 2440 2441 2442 2443 2444 2445 2446 2447 2448 2449 2450 2451 2452 2453 2454 2455 2456 2457 2458 2459 2460 2461 2462 2463 2464 2465 2466 2467 2468 2469 2470 2471 2472 2473 2474 2475 2476 2477 2478 2479 2480 2481 2482 2483 2484 2485 2486 2487 2488 2489 2490 2491 2492 2493 2494 2495 2496 2497 2498 2499 2500 2501 2502 2503 2504 2505 2506 2507 2508 2509 2510 2511 2512 2513 2514 2515 2516 2517 2518 2519 2520 2521 2522 2523 2524 2525 2526 2527 2528 2529 2530 2531 2532 2533 2534 2535 2536 2537 2538 2539 2540 2541 2542 2543 2544 2545 2546 2547 2548 2549 2550 2551 2552 2553 2554 2555 2556 2557 2558 2559 2560 2561 2562 2563 2564 2565 2566 2567 2568 2569 2570 2571 2572 2573 2574 2575 2576 2577 2578 2579 2580 2581 2582 2583 2584 2585 2586 2587 2588 2589 2590 2591 2592 2593 2594 2595 2596 2597 2598 2599 2600 2601 2602 2603 2604 2605 2606 2607 2608 2609 2610 2611 2612 2613 2614 2615 2616 2617 2618 2619 2620 2621 2622 2623 2624 2625 2626 2627 2628 2629 2630 2631 2632 2633 2634 2635 2636 2637 2638 2639 2640 2641 2642 2643 2644 2645 2646 2647 2648 2649 2650 2651 2652 2653 2654 2655 2656 2657 2658 2659 2660 2661 2662 2663 2664 2665 2666 2667 2668 2669 2670 2671 2672 2673 2674 2675 2676 2677 2678 2679 2680 2681 2682 2683 2684 2685 2686 2687 2688 2689 2690 2691 2692 2693 2694 2695 2696 2697 2698 2699 2700 2701 2702 2703 2704 2705 2706 2707 2708 2709 2710 2711 2712 2713 2714 2715 2716 2717 2718 2719 2720 2721 2722 2723 2724 2725 2726 2727 2728 2729 2730 2731 2732 2733 2734 2735 2736 2737 2738 2739 2740 2741 2742 2743 2744 2745 2746 2747 2748 2749 2750 2751 2752 2753 2754 2755 2756 2757 2758 2759 2760 2761 2762 2763 2764 2765 2766 2767 2768 2769 2770 2771 2772 2773 2774 2775 2776 2777 2778 2779 2780 2781 2782 2783 2784 2785 2786 2787 2788 2789 2790 2791 2792 2793 2794 2795 2796 2797 2798 2799 2800 2801 2802 2803 2804 2805 2806 2807 2808 2809 2810 2811 2812 2813 2814 2815 2816 2817 2818 2819 2820 2821 2822 2823 2824 2825 2826 2827 2828 2829 2830 2831 2832 2833 2834 2835 2836 2837 2838 2839 2840 2841 2842 2843 2844 2845 2846 2847 2848 2849 2850 2851 2852 2853 2854 2855 2856 2857 2858 2859 2860 2861 2862 2863 2864 2865 2866 2867 2868 2869 2870 2871 2872 2873 2874 2875 2876 2877 2878 2879 2880 2881 2882 2883 2884 2885 2886 2887 2888 2889 2890 2891 2892 2893 2894 2895 2896 2897 2898 2899 2900 2901 2902 2903 2904 2905 2906 2907 2908 2909 2910 2911 2912 2913 2914 2915 2916 2917 2918 2919 2920 2921 2922 2923 2924 2925 2926 2927 2928 2929 2930 2931 2932 2933 2934 2935 2936 2937 2938 2939 2940 2941 2942 2943 2944 2945 2946 2947 2948 2949 2950 2951 2952 2953 2954 2955 2956 2957 2958 2959 2960 2961 2962 2963 2964 2965 2966 2967 2968 2969 2970 2971 2972 2973 2974 2975 2976 2977 2978 2979 2980 2981 2982 2983 2984 2985 2986 2987 2988 2989 2990 2991 2992 2993 2994 2995 2996 2997 2998 2999 3000 3001 3002 3003 3004 3005 3006 3007 3008 3009 3010 3011 3012 3013 3014 3015 3016 3017 3018 3019 3020 3021 3022 3023 3024 3025 3026 3027 3028 3029 3030 3031 3032 3033 3034 3035 3036 3037 3038 3039 3040 3041 3042 3043 3044 3045 3046 3047 3048 3049 3050 3051 3052 3053 3054 3055 3056 3057 3058 3059 3060 3061 3062 3063 3064 3065 3066 3067 3068 3069 3070 3071 3072 3073 3074 3075 3076 3077 3078 3079 3080 3081 3082 3083 3084 3085 3086 3087 3088 3089 3090 3091 3092 3093 3094 3095 3096 3097 3098 3099 3100 3101 3102 3103 3104 3105 3106 3107 3108 3109 3110 3111 3112 3113 3114 3115 3116 3117 3118 3119 3120 3121 3122 3123 3124 3125 3126 3127 3128 3129 3130 3131 3132 3133 3134 3135 3136 3137 3138 3139 3140 3141 3142 3143 3144 3145 3146 3147 3148 3149 3150 3151 3152 3153 3154 3155 3156 3157 3158 3159 3160 3161 3162 3163 3164 3165 3166 3167 3168 3169 3170 3171 3172 3173 3174 3175 3176 3177 3178 3179 3180 3181 3182 3183 3184 3185 3186 3187 3188 3189 3190 3191 3192 3193 3194 3195 3196 3197 3198 3199 3200 3201 3202 3203 3204 3205 3206 3207 3208 3209 3210 3211 3212 3213 3214 3215 3216 3217 3218 3219 3220 3221 3222 3223 3224 3225 3226 3227 3228 3229 3230 3231 3232 3233 3234 3235 3236 3237 3238 3239 3240 3241 3242 3243 3244 3245 3246 3247 3248 3249 3250 3251 3252 3253 3254 3255 3256 3257 3258 3259 3260 3261 3262 3263 3264 3265 3266 3267 3268 3269 3270 3271 3272 3273 3274 3275 3276 3277 3278 3279 3280 3281 3282 3283 3284 3285 3286 3287 3288 3289 3290 3291 3292 3293 3294 3295 3296 3297 3298 3299 3300 3301 3302 3303 3304 3305 3306 3307 3308 3309 3310 3311 3312 3313 3314 3315 3316 3317 3318 3319 3320 3321 3322 3323 3324 3325 3326 3327 3328 3329 3330 3331 3332 3333 3334 3335 3336 3337 3338 3339 3340 3341 3342 3343 3344 3345 3346 3347 3348 3349 3350 3351 3352 3353 3354 3355 3356 3357 3358 3359 3360 3361 3362 3363 3364 3365 3366 3367 3368 3369 3370 3371 3372 3373 3374 3375 3376 3377 3378 3379 3380 3381 3382 3383 3384 3385 3386 3387 3388 3389 3390 3391 3392 3393 3394 3395 3396 3397 3398 3399 3400 3401 3402 3403 3404 3405 3406 3407 3408 3409 3410 3411 3412 3413 3414 3415 3416 3417 3418 3419 3420 3421 3422 3423 3424 3425 3426 3427 3428 3429 3430 3431 3432 3433 3434 3435 3436 3437 3438 3439 3440 3441 3442 3443 3444 3445 3446 3447 3448 3449 3450 3451 3452 3453 3454 3455 3456 3457 3458 3459 3460 3461 3462 3463 3464 3465 3466 3467 3468 3469 3470 3471 3472 3473 3474 3475 3476 3477 3478 3479 3480 3481 3482 3483 3484 3485 3486 3487 3488 3489 3490 3491 3492 3493 3494 3495 3496 3497 3498 3499 3500 3501 3502 3503 3504 3505 3506 3507 3508 3509 3510 3511 3512 3513 3514 3515 3516 3517 3518 3519 3520 3521 3522 3523 3524 3525 3526 3527 3528 3529 3530 3531 3532 3533 3534 3535 3536 3537 3538 3539 3540 3541 3542 3543 3544 3545 3546 3547 3548 3549 3550 3551 3552 3553 3554 3555 3556 3557 3558 3559 3560 3561 3562 3563 3564 3565 3566 3567 3568 3569 3570 3571 3572 3573 3574 3575 3576 3577 3578 3579 3580 3581 3582 3583 3584 3585 3586 3587 3588 3589 3590 3591 3592 3593 3594 3595 3596 3597 3598 3599 3600 3601 3602 3603 3604 3605 3606 3607 3608 3609 3610 3611 3612 3613 3614 3615 3616 3617 3618 3619 3620 3621 3622 3623 3624 3625 3626 3627 3628 3629 3630 3631 3632 3633 3634 3635 3636 3637 3638 3639 3640 3641 3642 3643 3644 3645 3646 3647 3648 3649 3650 3651 3652 3653 3654 3655 3656 3657 3658 3659 3660 3661 3662 3663 3664 3665 3666 3667 3668 3669 3670 3671 3672 3673 3674 3675 3676 3677 3678 3679 3680 3681 3682 3683 3684 3685 3686 3687 3688 3689 3690 3691 3692 3693 3694 3695 3696 3697 3698 3699 3700 3701 3702 3703 3704 3705 3706 3707 3708 3709 3710 3711 3712 3713 3714 3715 3716 3717 3718 3719 3720 3721 3722 3723 3724 3725 3726 3727 3728 3729 3730 3731 3732 3733 3734 3735 3736 3737 3738 3739 3740 3741 3742 3743 3744 3745 3746 3747 3748 3749 3750 3751 3752 3753 3754 3755 3756 3757 3758 3759 3760 3761 3762 3763 3764 3765 3766 3767 3768 3769 3770 3771 3772 3773 3774 3775 3776 3777 3778 3779 3780 3781 3782 3783 3784 3785 3786 3787 3788 3789 3790 3791 3792 3793 3794 3795 3796 3797 3798 3799 3800 3801 3802 3803 3804 3805 3806 3807 3808 3809 3810 3811 3812 3813 3814 3815 3816 3817 3818 3819 3820 3821 3822 3823 3824 3825 3826 3827 3828 3829 3830 3831 3832 3833 3834 3835 3836 3837 3838 3839 3840 3841 3842 3843 3844 3845 3846 3847 3848 3849 3850 3851 3852 3853 3854 3855 3856 3857 3858 3859 3860 3861 3862 3863 3864 3865 3866 3867 3868 3869 3870 3871 3872 3873 3874 3875 3876 3877 3878 3879 3880 3881 3882 3883 3884 3885 3886 3887 3888 3889 3890 3891 3892 3893 3894 3895 3896 3897 3898 3899 3900 3901 3902 3903 3904 3905 3906 3907 3908 3909 3910 3911 3912 3913 3914 3915 3916 3917 3918 3919 3920 3921 3922 3923 3924 3925 3926 3927 3928 3929 3930 3931 3932 3933 3934 3935 3936 3937 3938 3939 3940 3941 3942 3943 3944 3945 3946 3947 3948 3949 3950 3951 3952 3953 3954 3955 3956 3957 3958 3959 3960 3961 3962 3963 3964 3965 3966 3967 3968 3969 3970 3971 3972 3973 3974 3975 3976 3977 3978 3979 3980 3981 3982 3983 3984 3985 3986 3987 3988 3989 3990 3991 3992 3993 3994 3995 3996 3997 3998 3999 4000 4001 4002 4003 4004 4005 4006 4007 4008 4009 4010 4011 4012 4013 4014 4015 4016 4017 4018 4019 4020 4021 4022 4023 4024 4025 4026 4027 4028 4029 4030 4031 4032 4033 4034 4035 4036 4037 4038 4039 4040 4041 4042 4043 4044 4045 4046 4047 4048 4049 4050 4051 4052 4053 4054 4055 4056 4057 4058 4059 4060 4061 4062 4063 4064 4065 4066 4067 4068 4069 4070 4071 4072 4073 4074 4075 4076 4077 4078 4079 4080 4081 4082 4083 4084 4085 4086 4087 4088 4089 4090 4091 4092 4093 4094 4095 4096 4097 4098 4099 4100 4101 4102 4103 4104 4105 4106 4107 4108 4109 4110 4111 4112 4113 4114 4115 4116 4117 4118 4119 4120 4121 4122 4123 4124 4125 4126 4127 4128 4129 4130 4131 4132 4133 4134 4135 4136 4137 4138 4139 4140 4141 4142 4143 4144 4145 4146 4147 4148 4149 4150 4151 4152 4153 4154 4155 4156 4157 4158 4159 4160 4161 4162 4163 4164 4165 4166 4167 4168 4169 4170 4171 4172 4173 4174 4175 4176 4177 4178 4179 4180 4181 4182 4183 4184 4185 4186 4187 4188 4189 4190 4191 4192 4193 4194 4195 4196 4197 4198 4199 4200 4201 4202 4203 4204 4205 4206 4207 4208 4209 4210 4211 4212 4213 4214 4215 4216 4217 4218 4219 4220 4221 4222 4223 4224 4225 4226 4227 4228 4229 4230 4231 4232 4233 4234 4235 4236 4237 4238 4239 4240 4241 4242 4243 4244 4245 4246 4247 4248 4249 4250 4251 4252 4253 4254 4255 4256 4257 4258 4259 4260 4261 4262 4263 4264 4265 4266 4267 4268 4269 4270 4271 4272 4273 4274 4275 4276 4277 4278 4279 4280 4281 4282 4283 4284 4285 4286 4287 4288 4289 4290 4291 4292 4293 4294 4295 4296 4297 4298 4299 4300 4301 4302 4303 4304 4305 4306 4307 4308 4309 4310 4311 4312 4313 4314 4315 4316 4317 4318 4319 4320 4321 4322 4323 4324 4325 4326 4327 4328 4329 4330 4331 4332 4333 4334 4335 4336 4337 4338 4339 4340 4341 4342 4343 4344 4345 4346 4347 4348 4349 4350 4351 4352 4353 4354 4355 4356 4357 4358 4359 4360 4361 4362 4363 4364 4365 4366 4367 4368 4369 4370 4371 4372 4373 4374 4375 4376 4377 4378 4379 4380 4381 4382 4383 4384 4385 4386 4387 4388 4389 4390 4391 4392 4393 4394 4395 4396 4397 4398 4399 4400 4401 4402 4403 4404 4405 4406 4407 4408 4409 4410 4411 4412 4413 4414 4415 4416 4417 4418 4419 4420 4421 4422 4423 4424 4425 4426 4427 4428 4429 4430 4431 4432 4433 4434 4435 4436 4437 4438 4439 4440 4441 4442 4443 4444 4445 4446 4447 4448 4449 4450 4451 4452 4453 4454 4455 4456 4457 4458 4459 4460 4461 4462 4463 4464 4465 4466 4467 4468 4469 4470 4471 4472 4473 4474 4475 4476 4477 4478 4479 4480 4481 4482 4483 4484 4485 4486 4487 4488 4489 4490 4491 4492 4493 4494 4495 4496 4497 4498 4499 4500 4501 4502 4503 4504 4505 4506 4507 4508 4509 4510 4511 4512 4513 4514 4515 4516 4517 4518 4519 4520 4521 4522 4523 4524 4525 4526 4527 4528 4529 4530 4531 4532 4533 4534 4535 4536 4537 4538 4539 4540 4541 4542 4543 4544 4545 4546 4547 4548 4549 4550 4551 4552 4553 4554 4555 4556 4557 4558 4559 4560 4561 4562 4563 4564 4565 4566 4567 4568 4569 4570 4571 4572 4573 4574 4575 4576 4577 4578 4579 4580 4581 4582 4583 4584 4585 4586 4587 4588 4589 4590 4591 4592 4593 4594 4595 4596 4597 4598 4599 4600 4601 4602 4603 4604 4605 4606 4607 4608 4609 4610 4611 4612 4613 4614 4615 4616 4617 4618 4619 4620 4621 4622 4623 4624 4625 4626 4627 4628 4629 4630 4631 4632 4633 4634 4635 4636 4637 4638 4639 4640 4641 4642 4643 4644 4645 4646 4647 4648 4649 4650 4651 4652 4653 4654 4655 4656 4657 4658 4659 4660 4661 4662 4663 4664 4665 4666 4667 4668 4669 4670 4671 4672 4673 4674 4675 4676 4677 4678 4679 4680 4681 4682 4683 4684 4685 4686 4687 4688 4689 4690 4691 4692 4693 4694 4695 4696 4697 4698 4699 4700 4701 4702 4703 4704 4705 4706 4707 4708 4709 4710 4711 4712 4713 4714 4715 4716 4717 4718 4719 4720 4721 4722 4723 4724 4725 4726 4727 4728 4729 4730 4731 4732 4733 4734 4735 4736 4737 4738 4739 4740 4741 4742 4743 4744 4745 4746 4747 4748 4749 4750 4751 4752 4753 4754 4755 4756 4757 4758 4759 4760 4761 4762 4763 4764 4765 4766 4767 4768 4769 4770 4771 4772 4773 4774 4775 4776 4777 4778 4779 4780 4781 4782 4783 4784 4785 4786 4787 4788 4789 4790 4791 4792 4793 4794 4795 4796 4797 4798 4799 4800 4801 4802 4803 4804 4805 4806 4807 4808 4809 4810 4811 4812 4813 4814 4815 4816 4817 4818 4819 4820 4821 4822 4823 4824 4825 4826 4827 4828 4829 4830 4831 4832 4833 4834 4835 4836 4837 4838 4839 4840 4841 4842 4843 4844 4845 4846 4847 4848 4849 4850 4851 4852 4853 4854 4855 4856 4857 4858 4859 4860 4861 4862 4863 4864 4865 4866 4867 4868 4869 4870 4871 4872 4873 4874 4875 4876 4877 4878 4879 4880 4881 4882 4883 4884 4885 4886 4887 4888 4889 4890 4891 4892 4893 4894 4895 4896 4897 4898 4899 4900 4901 4902 4903 4904 4905 4906 4907 4908 4909 4910 4911 4912 4913 4914 4915 4916 4917 4918 4919 4920 4921 4922 4923 4924 4925 4926 4927 4928 4929 4930 4931 4932 4933 4934 4935 4936 4937 4938 4939 4940 4941 4942 4943 4944 4945 4946 4947 4948 4949 4950 4951 4952 4953 4954 4955 4956 4957 4958 4959 4960 4961 4962 4963 4964 4965 4966 4967 4968 4969 4970 4971 4972 4973 4974 4975 4976 4977 4978 4979 4980 4981 4982 4983 4984 4985 4986 4987 4988 4989 4990 4991 4992 4993 4994 4995 4996 4997 4998 4999 5000 5001 5002 5003 5004 5005 5006 5007 5008 5009 5010 5011 5012 5013 5014 5015 5016 5017 5018 5019 5020 5021 5022 5023 5024 5025 5026 5027 5028 5029 5030 5031 5032 5033 5034 5035 5036 5037 5038 5039 5040 5041 5042 5043 5044 5045 5046 5047 5048 5049 5050 5051 5052 5053 5054 5055 5056 5057 5058 5059 5060 5061 5062 5063 5064 5065 5066 5067 5068 5069 5070 5071 5072 5073 5074 5075 5076 5077 5078 5079 5080 5081 5082 5083 5084 5085 5086 5087 5088 5089 5090 5091 5092 5093 5094 5095 5096 5097 5098 5099 5100 5101 5102 5103 5104 5105 5106 5107 5108 5109 5110 5111 5112 5113 5114 5115 5116 5117 5118 5119 5120 5121 5122 5123 5124 5125 5126 5127 5128 5129 5130 5131 5132 5133 5134 5135 5136 5137 5138 5139 5140 5141 5142 5143 5144 5145 5146 5147 5148 5149 5150 5151 5152 5153 5154 5155 5156 5157 5158 5159 5160 5161 5162 5163 5164 5165 5166 5167 5168 5169 5170 5171 5172 5173 5174 5175 5176 5177 5178 5179 5180 5181 5182 5183 5184 5185 5186 5187 5188 5189 5190 5191 5192 5193 5194 5195 5196 5197 5198 5199 5200 5201 5202 5203 5204 5205 5206 5207 5208 5209 5210 5211 5212 5213 5214 5215 5216 5217 5218 5219 5220 5221 5222 5223 5224 5225 5226 5227 5228 5229 5230 5231 5232 5233 5234 5235 5236 5237 5238 5239 5240 5241 5242 5243 5244 5245 5246 5247 5248 5249 5250 5251 5252 5253 5254 5255 5256 5257 5258 5259 5260 5261 5262 5263 5264 5265 5266 5267 5268 5269 5270 5271 5272 5273 5274 5275 5276 5277 5278 5279 5280 5281 5282 5283 5284 5285 5286 5287 5288 5289 5290 5291 5292 5293 5294 5295 5296 5297 5298 5299 5300 5301 5302 5303 5304 5305 5306 5307 5308 5309 5310 5311 5312 5313 5314 5315 5316 5317 5318 5319 5320 5321 5322 5323 5324 5325 5326 5327 5328 5329 5330 5331 5332 5333 5334 5335 5336 5337 5338 5339 5340 5341 5342 5343 5344 5345 5346 5347 5348 5349 5350 5351 5352 5353 5354 5355 5356 5357 5358 5359 5360 5361 5362 5363 5364 5365 5366 5367 5368 5369 5370 5371 5372 5373 5374 5375 5376 5377 5378 5379 5380 5381 5382 5383 5384 5385 5386 5387 5388 5389 5390 5391 5392 5393 5394 5395 5396 5397 5398 5399 5400 5401 5402 5403 5404 5405 5406 5407 5408 5409 5410 5411 5412 5413 5414 5415 5416 5417 5418 5419 5420 5421 5422 5423 5424 5425 5426 5427 5428 5429 5430 5431 5432 5433 5434 5435 5436 5437 5438 5439 5440 5441 5442 5443 5444 5445 5446 5447 5448 5449 5450 5451 5452 5453 5454 5455 5456 5457 5458 5459 5460 5461 5462 5463 5464 5465 5466 5467 5468 5469 5470 5471 5472 5473 5474 5475 5476 5477 5478 5479 5480 5481 5482 5483 5484 5485 5486 5487 5488 5489 5490 5491 5492 5493 5494 5495 5496 5497 5498 5499 5500 5501 5502 5503 5504 5505 5506 5507 5508 5509 5510 5511 5512 5513 5514 5515 5516 5517 5518 5519 5520 5521 5522 5523 5524 5525 5526 5527 5528 5529 5530 5531 5532 5533 5534 5535 5536 5537 5538 5539 5540 5541 5542 5543 5544 5545 5546 5547 5548 5549 5550 5551 5552 5553 5554 5555 5556 5557 5558 5559 5560 5561 5562 5563 5564 5565 5566 5567 5568 5569 5570 5571 5572 5573 5574 5575 5576 5577 5578 5579 5580 5581 5582 5583 5584 5585 5586 5587 5588 5589 5590 5591 5592 5593 5594 5595 5596 5597 5598 5599 5600 5601 5602 5603 5604 5605 5606 5607 5608 5609 5610 5611 5612 5613 5614 5615 5616 5617 5618 5619 5620 5621 5622 5623 5624 5625 5626 5627 5628 5629 5630 5631 5632 5633 5634 5635 5636 5637 5638 5639 5640 5641 5642 5643 5644 5645 5646 5647 5648 5649 5650 5651 5652 5653 5654 5655 5656 5657 5658 5659 5660 5661 5662 5663 5664 5665 5666 5667 5668 5669 5670 5671 5672 5673 5674 5675 5676 5677 5678 5679 5680 5681 5682 5683 5684 5685 5686 5687 5688 5689 5690 5691 5692 5693 5694 5695 5696 5697 5698 5699 5700 5701 5702 5703 5704 5705 5706 5707 5708 5709 5710 5711 5712 5713 5714 5715 5716 5717 5718 5719 5720 5721 5722 5723 5724 5725 5726 5727 5728 5729 5730 5731 5732 5733 5734 5735 5736 5737 5738 5739 5740 5741 5742 5743 5744 5745 5746 5747 5748 5749 5750 5751 5752 5753 5754 5755 5756 5757 5758 5759 5760 5761 5762 5763 5764 5765 5766 5767 5768 5769 5770 5771 5772 5773 5774 5775 5776 5777 5778 5779 5780 5781 5782 5783 5784 5785 5786 5787 5788 5789 5790 5791 5792 5793 5794 5795 5796 5797 5798 5799 5800 5801 5802 5803 5804 5805 5806 5807 5808 5809 5810 5811 5812 5813 5814 5815 5816 5817 5818 5819 5820 5821 5822 5823 5824 5825 5826 5827 5828 5829 5830 5831 5832 5833 5834 5835 5836 5837 5838 5839 5840 5841 5842 5843 5844 5845 5846 5847 5848 5849 5850 5851 5852 5853 5854 5855 5856 5857 5858 5859 5860 5861 5862 5863 5864 5865 5866 5867 5868 5869 5870 5871 5872 5873 5874 5875 5876 5877 5878 5879 5880 5881 5882 5883 5884 5885 5886 5887 5888 5889 5890 5891 5892 5893 5894 5895 5896 5897 5898 5899 5900 5901 5902 5903 5904 5905 5906 5907 5908 5909 5910 5911 5912 5913 5914 5915 5916 5917 5918 5919 5920 5921 5922 5923 5924 5925 5926 5927 5928 5929 5930 5931 5932 5933 5934 5935 5936 5937 5938 5939 5940 5941 5942 5943 5944 5945 5946 5947 5948 5949 5950 5951 5952 5953 5954 5955 5956 5957 5958 5959 5960 5961 5962 5963 5964 5965 5966 5967 5968 5969 5970 5971 5972 5973 5974 5975 5976 5977 5978 5979 5980 5981 5982 5983 5984 5985 5986 5987 5988 5989 5990 5991 5992 5993 5994 5995 5996 5997 5998 5999 6000 6001 6002 6003 6004 6005 6006 6007 6008 6009 6010 6011 6012 6013 6014 6015 6016 6017 6018 6019 6020 6021 6022 6023 6024 6025 6026 6027 6028 6029 6030 6031 6032 6033 6034 6035 6036 6037 6038 6039 6040 6041 6042 6043 6044 6045 6046 6047 6048 6049 6050 6051 6052 6053 6054 6055 6056 6057 6058 6059 6060 6061 6062 6063 6064 6065 6066 6067 6068 6069 6070 6071 6072 6073 6074 6075 6076 6077 6078 6079 6080 6081 6082 6083 6084 6085 6086 6087 6088 6089 6090 6091 6092 6093 6094 6095 6096 6097 6098 6099 6100 6101 6102 6103 6104 6105 6106 6107 6108 6109 6110 6111 6112 6113 6114 6115 6116 6117 6118 6119 6120 6121 6122 6123 6124 6125 6126 6127 6128 6129 6130 6131 6132 6133 6134 6135 6136 6137 6138 6139 6140 6141 6142 6143 6144 6145 6146 6147 6148 6149 6150 6151 6152 6153 6154 6155 6156 6157 6158 6159 6160 6161 6162 6163 6164 6165 6166 6167 6168 6169 6170 6171 6172 6173 6174 6175 6176 6177 6178 6179 6180 6181 6182 6183 6184 6185 6186 6187 6188 6189 6190 6191 6192 6193 6194 6195 6196 6197 6198 6199 6200 6201 6202 6203 6204 6205 6206 6207 6208 6209 6210 6211 6212 6213 6214 6215 6216 6217 6218 6219 6220 6221 6222 6223 6224 6225 6226 6227 6228 6229 6230 6231 6232 6233 6234 6235 6236 6237 6238 6239 6240 6241 6242 6243 6244 6245 6246 6247 6248 6249 6250 6251 6252 6253 6254 6255 6256 6257 6258 6259 6260 6261 6262 6263 6264 6265 6266 6267 6268 6269 6270 6271 6272 6273 6274 6275 6276 6277 6278 6279 6280 6281 6282 6283 6284 6285 6286 6287 6288 6289 6290 6291 6292 6293 6294 6295 6296 6297 6298 6299 6300 6301 6302 6303 6304 6305 6306 6307 6308 6309 6310 6311 6312 6313 6314 6315 6316 6317 6318 6319 6320 6321 6322 6323 6324 6325 6326 6327 6328 6329 6330 6331 6332 6333 6334 6335 6336 6337 6338 6339 6340 6341 6342 6343 6344 6345 6346 6347 6348 6349 6350 6351 6352 6353 6354 6355 6356 6357 6358 6359 6360 6361 6362 6363 6364 6365 6366 6367 6368 6369 6370 6371 6372 6373 6374 6375 6376 6377 6378 6379 6380 6381 6382 6383 6384 6385 6386 6387 6388 6389 6390 6391 6392 6393 6394 6395 6396 6397 6398 6399 6400 6401 6402 6403 6404 6405 6406 6407 6408 6409 6410 6411 6412 6413 6414 6415 6416 6417 6418 6419 6420 6421 6422 6423 6424 6425 6426 6427 6428 6429 6430 6431 6432 6433 6434 6435 6436 6437 6438 6439 6440 6441 6442 6443 6444 6445 6446 6447 6448 6449 6450 6451 6452 6453 6454 6455 6456 6457 6458 6459 6460 6461 6462 6463 6464 6465 6466 6467 6468 6469 6470 6471 6472 6473 6474 6475 6476 6477 6478 6479 6480 6481 6482 6483 6484 6485 6486 6487 6488 6489 6490 6491 6492 6493 6494 6495 6496 6497 6498 6499 6500 6501 6502 6503 6504 6505 6506 6507 6508 6509 6510 6511 6512 6513 6514 6515 6516 6517 6518 6519 6520 6521 6522 6523 6524 6525 6526 6527 6528 6529 6530 6531 6532 6533 6534 6535 6536 6537 6538 6539 6540 6541 6542 6543 6544 6545 6546 6547 6548 6549 6550 6551 6552 6553 6554 6555 6556 6557 6558 6559 6560 6561 6562 6563 6564 6565 6566 6567 6568 6569 6570 6571 6572 6573 6574 6575 6576 6577 6578 6579 6580 6581 6582 6583 6584 6585 6586 6587 6588 6589 6590 6591 6592 6593 6594 6595 6596 6597 6598 6599 6600 6601 6602 6603 6604 6605 6606 6607 6608 6609 6610 6611 6612 6613 6614 6615 6616 6617 6618 6619 6620 6621 6622 6623 6624 6625 6626 6627 6628 6629 6630 6631 6632 6633 6634 6635 6636 6637 6638 6639 6640 6641 6642 6643 6644 6645 6646 6647 6648 6649 6650 6651 6652 6653 6654 6655 6656 6657 6658 6659 6660 6661 6662 6663 6664 6665 6666 6667 6668 6669 6670 6671 6672 6673 6674 6675 6676 6677 6678 6679 6680 6681 6682 6683 6684 6685 6686 6687 6688 6689 6690 6691 6692 6693 6694 6695 6696 6697 6698 6699 6700 6701 6702 6703 6704 6705 6706 6707 6708 6709 6710 6711 6712 6713 6714 6715 6716 6717 6718 6719 6720 6721 6722 6723 6724 6725 6726 6727 6728 6729 6730 6731 6732 6733 6734 6735 6736 6737 6738 6739 6740 6741 6742 6743 6744 6745 6746 6747 6748 6749 6750 6751 6752 6753 6754 6755 6756 6757 6758 6759 6760 6761 6762 6763 6764 6765 6766 6767 6768 6769 6770 6771 6772 6773 6774 6775 6776 6777 6778 6779 6780 6781 6782 6783 6784 6785 6786 6787 6788 6789 6790 6791 6792 6793 6794 6795 6796 6797 6798 6799 6800 6801 6802 6803 6804 6805 6806 6807 6808 6809 6810 6811 6812 6813 6814 6815 6816 6817 6818 6819 6820 6821 6822 6823 6824 6825 6826 6827 6828 6829 6830 6831 6832 6833 6834 6835 6836 6837 6838 6839 6840 6841 6842 6843 6844 6845 6846 6847 6848 6849 6850 6851 6852 6853 6854 6855 6856 6857 6858 6859 6860 6861 6862 6863 6864 6865 6866 6867 6868 6869 6870 6871 6872 6873 6874 6875 6876 6877 6878 6879 6880 6881 6882 6883 6884 6885 6886 6887 6888 6889 6890 6891 6892 6893 6894 6895 6896 6897 6898 6899 6900 6901 6902 6903 6904 6905 6906 6907 6908 6909 6910 6911 6912 6913 6914 6915 6916 6917 6918 6919 6920 6921 6922 6923 6924 6925 6926 6927 6928 6929 6930 6931 6932 6933 6934 6935 6936 6937 6938 6939 6940 6941 6942 6943 6944 6945 6946 6947 6948 6949 6950 6951 6952 6953 6954 6955 6956 6957 6958 6959 6960 6961 6962 6963 6964 6965 6966 6967 6968 6969 6970 6971 6972 6973 6974 6975 6976 6977 6978 6979 6980 6981 6982 6983 6984 6985 6986 6987 6988 6989 6990 6991 6992 6993 6994 6995 6996 6997 6998 6999 7000 7001 7002 7003 7004 7005 7006 7007 7008 7009 7010 7011 7012 7013 7014 7015 7016 7017 7018 7019 7020 7021 7022 7023 7024 7025 7026 7027 7028 7029 7030 7031 7032 7033 7034 7035 7036 7037 7038 7039 7040 7041 7042 7043 7044 7045 7046 7047 7048 7049 7050 7051 7052 7053 7054 7055 7056 7057 7058 7059 7060 7061 7062 7063 7064 7065 7066 7067 7068 7069 7070 7071 7072 7073 7074 7075 7076 7077 7078 7079 7080 7081 7082 7083 7084 7085 7086 7087 7088 7089 7090 7091 7092 7093 7094 7095 7096 7097 7098 7099 7100 7101 7102 7103 7104 7105 7106 7107 7108 7109 7110 7111 7112 7113 7114 7115 7116 7117 7118 7119 7120 7121 7122 7123 7124 7125 7126 7127 7128 7129 7130 7131 7132 7133 7134 7135 7136 7137 7138 7139 7140 7141 7142 7143 7144 7145 7146 7147 7148 7149 7150 7151 7152 7153 7154 7155 7156 7157 7158 7159 7160 7161 7162 7163 7164 7165 7166 7167 7168 7169 7170 7171 7172 7173 7174 7175 7176 7177 7178 7179 7180 7181 7182 7183 7184 7185 7186 7187 7188 7189 7190 7191 7192 7193 7194 7195 7196 7197 7198 7199 7200 7201 7202 7203 7204 7205 7206 7207 7208 7209 7210 7211 7212 7213 7214 7215 7216 7217 7218 7219 7220 7221 7222 7223 7224 7225 7226 7227 7228 7229 7230 7231 7232 7233 7234 7235 7236 7237 7238 7239 7240 7241 7242 7243 7244 7245 7246 7247 7248 7249 7250 7251 7252 7253 7254 7255 7256 7257 7258 7259 7260 7261 7262 7263 7264 7265 7266 7267 7268 7269 7270 7271 7272 7273 7274 7275 7276 7277 7278 7279 7280 7281 7282 7283 7284 7285 7286 7287 7288 7289 7290 7291 7292 7293 7294 7295 7296 7297 7298 7299 7300 7301 7302 7303 7304 7305 7306 7307 7308 7309 7310 7311 7312 7313 7314 7315 7316 7317 7318 7319 7320 7321 7322 7323 7324 7325 7326 7327 7328 7329 7330 7331 7332 7333 7334 7335 7336 7337 7338 7339 7340 7341 7342 7343 7344 7345 7346 7347 7348 7349 7350 7351 7352 7353 7354 7355 7356 7357 7358 7359 7360 7361 7362 7363 7364 7365 7366 7367 7368 7369 7370 7371 7372 7373 7374 7375 7376 7377 7378 7379 7380 7381 7382 7383 7384 7385 7386 7387 7388 7389 7390 7391 7392 7393 7394 7395 7396 7397 7398 7399 7400 7401 7402 7403 7404 7405 7406 7407 7408 7409 7410 7411 7412 7413 7414 7415 7416 7417 7418 7419 7420 7421 7422 7423 7424 7425 7426 7427 7428 7429 7430 7431 7432 7433 7434 7435 7436 7437 7438 7439 7440 7441 7442 7443 7444 7445 7446 7447 7448 7449 7450 7451 7452 7453 7454 7455 7456 7457 7458 7459 7460 7461 7462 7463 7464 7465 7466 7467 7468 7469 7470 7471 7472 7473 7474 7475 7476 7477 7478 7479 7480 7481 7482 7483 7484 7485 7486 7487 7488 7489 7490 7491 7492 7493 7494 7495 7496 7497 7498 7499 7500 7501 7502 7503 7504 7505 7506 7507 7508 7509 7510 7511 7512 7513 7514 7515 7516 7517 7518 7519 7520 7521 7522 7523 7524 7525 7526 7527 7528 7529 7530 7531 7532 7533 7534 7535 7536 7537 7538 7539 7540 7541 7542 7543 7544 7545 7546 7547 7548 7549 7550 7551 7552 7553 7554 7555 7556 7557 7558 7559 7560 7561 7562 7563 7564 7565 7566 7567 7568 7569 7570 7571 7572 7573 7574 7575 7576 7577 7578 7579 7580 7581 7582 7583 7584 7585 7586 7587 7588 7589 7590 7591 7592 7593 7594 7595 7596 7597 7598 7599 7600 7601 7602 7603 7604 7605 7606 7607 7608 7609 7610 7611 7612 7613 7614 7615 7616 7617 7618 7619 7620 7621 7622 7623 7624 7625 7626 7627 7628 7629 7630 7631 7632 7633 7634 7635 7636 7637 7638 7639 7640 7641 7642 7643 7644 7645 7646 7647 7648 7649 7650 7651 7652 7653 7654 7655 7656 7657 7658 7659 7660 7661 7662 7663 7664 7665 7666 7667 7668 7669 7670 7671 7672 7673 7674 7675 7676 7677 7678 7679 7680 7681 7682 7683 7684 7685 7686 7687 7688 7689 7690 7691 7692 7693 7694 7695 7696 7697 7698 7699 7700 7701 7702 7703 7704 7705 7706 7707 7708 7709 7710 7711 7712 7713 7714 7715 7716 7717 7718 7719 7720 7721 7722 7723 7724 7725 7726 7727 7728 7729 7730 7731 7732 7733 7734 7735 7736 7737 7738 7739 7740 7741 7742 7743 7744 7745 7746 7747 7748 7749 7750 7751 7752 7753 7754 7755 7756 7757 7758 7759 7760 7761 7762 7763 7764 7765 7766 7767 7768 7769 7770 7771 7772 7773 7774 7775 7776 7777 7778 7779 7780 7781 7782 7783 7784 7785 7786 7787 7788 7789 7790 7791 7792 7793 7794 7795 7796 7797 7798 7799 7800 7801 7802 7803 7804 7805 7806 7807 7808 7809 7810 7811 7812 7813 7814 7815 7816 7817 7818 7819 7820 7821 7822 7823 7824 7825 7826 7827 7828 7829 7830 7831 7832 7833 7834 7835 7836 7837 7838 7839 7840 7841 7842 7843 7844 7845 7846 7847 7848 7849 7850 7851 7852 7853 7854 7855 7856 7857 7858 7859 7860 7861 7862 7863 7864 7865 7866 7867 7868 7869 7870 7871 7872 7873 7874 7875 7876 7877 7878 7879 7880 7881 7882 7883 7884 7885 7886 7887 7888 7889 7890 7891 7892 7893 7894 7895 7896 7897 7898 7899 7900 7901 7902 7903 7904 7905 7906 7907 7908 7909 7910 7911 7912 7913 7914 7915 7916 7917 7918 7919 7920 7921 7922 7923 7924 7925 7926 7927 7928 7929 7930 7931 7932 7933 7934 7935 7936 7937 7938 7939 7940 7941 7942 7943 7944 7945 7946 7947 7948 7949 7950 7951 7952 7953 7954 7955 7956 7957 7958 7959 7960 7961 7962 7963 7964 7965 7966 7967 7968 7969 7970 7971 7972 7973 7974 7975 7976 7977 7978 7979 7980 7981 7982 7983 7984 7985 7986 7987 7988 7989 7990 7991 7992 7993 7994 7995 7996 7997 7998 7999 8000 8001 8002 8003 8004 8005 8006 8007 8008 8009 8010 8011 8012 8013 8014 8015 8016 8017 8018 8019 8020 8021 8022 8023 8024 8025 8026 8027 8028 8029 8030 8031 8032 8033 8034 8035 8036 8037 8038 8039 8040 8041 8042 8043 8044 8045 8046 8047 8048 8049 8050 8051 8052 8053 8054 8055 8056 8057 8058 8059 8060 8061 8062 8063 8064 8065 8066 8067 8068 8069 8070 8071 8072 8073 8074 8075 8076 8077 8078 8079 8080 8081 8082 8083 8084 8085 8086 8087 8088 8089 8090 8091 8092 8093 8094 8095 8096 8097 8098 8099 8100 8101 8102 8103 8104 8105 8106 8107 8108 8109 8110 8111 8112 8113 8114 8115 8116 8117 8118 8119 8120 8121 8122 8123 8124 8125 8126 8127 8128 8129 8130 8131 8132 8133 8134 8135 8136 8137 8138 8139 8140 8141 8142 8143 8144 8145 8146 8147 8148 8149 8150 8151 8152 8153 8154 8155 8156 8157 8158 8159 8160 8161 8162 8163 8164 8165 8166 8167 8168 8169 8170 8171 8172 8173 8174 8175 8176 8177 8178 8179 8180 8181 8182 8183 8184 8185 8186 8187 8188 8189 8190 8191 8192 8193 8194 8195 8196 8197 8198 8199 8200 8201 8202 8203 8204 8205 8206 8207 8208 8209 8210 8211 8212 8213 8214 8215 8216 8217 8218 8219 8220 8221 8222 8223 8224 8225 8226 8227 8228 8229 8230 8231 8232 8233 8234 8235 8236 8237 8238 8239 8240 8241 8242 8243 8244 8245 8246 8247 8248 8249 8250 8251 8252 8253 8254 8255 8256 8257 8258 8259 8260 8261 8262 8263 8264 8265 8266 8267 8268 8269 8270 8271 8272 8273 8274 8275 8276 8277 8278 8279 8280 8281 8282 8283 8284 8285 8286 8287 8288 8289 8290 8291 8292 8293 8294 8295 8296 8297 8298 8299 8300 8301 8302 8303 8304 8305 8306 8307 8308 8309 8310 8311 8312 8313 8314 8315 8316 8317 8318 8319 8320 8321 8322 8323 8324 8325 8326 8327 8328 8329 8330 8331 8332 8333 8334 8335 8336 8337 8338 8339 8340 8341 8342 8343 8344 8345 8346 8347 8348 8349 8350 8351 8352 8353 8354 8355 8356 8357 8358 8359 8360 8361 8362 8363 8364 8365 8366 8367 8368 8369 8370 8371 8372 8373 8374 8375 8376 8377 8378 8379 8380 8381 8382 8383 8384 8385 8386 8387 8388 8389 8390 8391 8392 8393 8394 8395 8396 8397 8398 8399 8400 8401 8402 8403 8404 8405 8406 8407 8408 8409 8410 8411 8412 8413 8414 8415 8416 8417 8418 8419 8420 8421 8422 8423 8424 8425 8426 8427 8428 8429 8430 8431 8432 8433 8434 8435 8436 8437 8438 8439 8440 8441 8442 8443 8444 8445 8446 8447 8448 8449 8450 8451 8452 8453 8454 8455 8456 8457 8458 8459 8460 8461 8462 8463 8464 8465 8466 8467 8468 8469 8470 8471 8472 8473 8474 8475 8476 8477 8478 8479 8480 8481 8482 8483 8484 8485 8486 8487 8488 8489 8490 8491 8492 8493 8494 8495 8496 8497 8498 8499 8500 8501 8502 8503 8504 8505 8506 8507 8508 8509 8510 8511 8512 8513 8514 8515 8516 8517 8518 8519 8520 8521 8522 8523 8524 8525 8526 8527 8528 8529 8530 8531 8532 8533 8534 8535 8536 8537 8538 8539 8540 8541 8542 8543 8544 8545 8546 8547 8548 8549 8550 8551 8552 8553 8554 8555 8556 8557 8558 8559 8560 8561 8562 8563 8564 8565 8566 8567 8568 8569 8570 8571 8572 8573 8574 8575 8576 8577 8578 8579 8580 8581 8582 8583 8584 8585 8586 8587 8588 8589 8590 8591 8592 8593 8594 8595 8596 8597 8598 8599 8600 8601 8602 8603 8604 8605 8606 8607 8608 8609 8610 8611 8612 8613 8614 8615 8616 8617 8618 8619 8620 8621 8622 8623 8624 8625 8626 8627 8628 8629 8630 8631 8632 8633 8634 8635 8636 8637 8638 8639 8640 8641 8642 8643 8644 8645 8646 8647 8648 8649 8650 8651 8652 8653 8654 8655 8656 8657 8658 8659 8660 8661 8662 8663 8664 8665 8666 8667 8668 8669 8670 8671 8672 8673 8674 8675 8676 8677 8678 8679 8680 8681 8682 8683 8684 8685 8686 8687 8688 8689 8690 8691 8692 8693 8694 8695 8696 8697 8698 8699 8700 8701 8702 8703 8704 8705 8706 8707 8708 8709 8710 8711 8712 8713 8714 8715 8716 8717 8718 8719 8720 8721 8722 8723 8724 8725 8726 8727 8728 8729 8730 8731 8732 8733 8734 8735 8736 8737 8738 8739 8740 8741 8742 8743 8744 8745 8746 8747 8748 8749 8750 8751 8752 8753 8754 8755 8756 8757 8758 8759 8760 8761 8762 8763 8764 8765 8766 8767 8768 8769 8770 8771 8772 8773 8774 8775 8776 8777 8778 8779 8780 8781 8782 8783 8784 8785 8786 8787 8788 8789 8790 8791 8792 8793 8794 8795 8796 8797 8798 8799 8800 8801 8802 8803 8804 8805 8806 8807 8808 8809 8810 8811 8812 8813 8814 8815 8816 8817 8818 8819 8820 8821 8822 8823 8824 8825 8826 8827 8828 8829 8830 8831 8832 8833 8834 8835 8836 8837 8838 8839 8840 8841 8842 8843 8844 8845 8846 8847 8848 8849 8850 8851 8852 8853 8854 8855 8856 8857 8858 8859 8860 8861 8862 8863 8864 8865 8866 8867 8868 8869 8870 8871 8872 8873 8874 8875 8876 8877 8878 8879 8880 8881 8882 8883 8884 8885 8886 8887 8888 8889 8890 8891 8892 8893 8894 8895 8896 8897 8898 8899 8900 8901 8902 8903 8904 8905 8906 8907 8908 8909 8910 8911 8912 8913 8914 8915 8916 8917 8918 8919 8920 8921 8922 8923 8924 8925 8926 8927 8928 8929 8930 8931 8932 8933 8934 8935 8936 8937 8938 8939 8940 8941 8942 8943 8944 8945 8946 8947 8948 8949 8950 8951 8952 8953 8954 8955 8956 8957 8958 8959 8960 8961 8962 8963 8964 8965 8966 8967 8968 8969 8970 8971 8972 8973 8974 8975 8976 8977 8978 8979 8980 8981 8982 8983 8984 8985 8986 8987 8988 8989 8990 8991 8992 8993 8994 8995 8996 8997 8998 8999 9000 9001 9002 9003 9004 9005 9006 9007 9008 9009 9010 9011 9012 9013 9014 9015 9016 9017 9018 9019 9020 9021 9022 9023 9024 9025 9026 9027 9028 9029 9030 9031 9032 9033 9034 9035 9036 9037 9038 9039 9040 9041 9042 9043 9044 9045 9046 9047 9048 9049 9050 9051 9052 9053 9054 9055 9056 9057 9058 9059 9060 9061 9062 9063 9064 9065 9066 9067 9068 9069 9070 9071 9072 9073 9074 9075 9076 9077 9078 9079 9080 9081 9082 9083 9084 9085 9086 9087 9088 9089 9090 9091 9092 9093 9094 9095 9096 9097 9098 9099 9100 9101 9102 9103 9104 9105 9106 9107 9108 9109 9110 9111 9112 9113 9114 9115 9116 9117 9118 9119 9120 9121 9122 9123 9124 9125 9126 9127 9128 9129 9130 9131 9132 9133 9134 9135 9136 9137 9138 9139 9140 9141 9142 9143 9144 9145 9146 9147 9148 9149 9150 9151 9152 9153 9154 9155 9156 9157 9158 9159 9160 9161 9162 9163 9164 9165 9166 9167 9168 9169 9170 9171 9172 9173 9174 9175 9176 9177 9178 9179 9180 9181 9182 9183 9184 9185 9186 9187 9188 9189 9190 9191 9192 9193 9194 9195 9196 9197 9198 9199 9200 9201 9202 9203 9204 9205 9206 9207 9208 9209 9210 9211 9212 9213 9214 9215 9216 9217 9218 9219 9220 9221 9222 9223 9224 9225 9226 9227 9228 9229 9230 9231 9232 9233 9234 9235 9236 9237 9238 9239 9240 9241 9242 9243 9244 9245 9246 9247 9248 9249 9250 9251 9252 9253 9254 9255 9256 9257 9258 9259 9260 9261 9262 9263 9264 9265 9266 9267 9268 9269 9270 9271 9272 9273 9274 9275 9276 9277 9278 9279 9280 9281 9282 9283 9284 9285 9286 9287 9288 9289 9290 9291 9292 9293 9294 9295 9296 9297 9298 9299 9300 9301 9302 9303 9304 9305 9306 9307 9308 9309 9310 9311 9312 9313 9314 9315 9316 9317 9318 9319 9320 9321 9322 9323 9324 9325 9326 9327 9328 9329 9330 9331 9332 9333 9334 9335 9336 9337 9338 9339 9340 9341 9342 9343 9344 9345 9346 9347 9348 9349 9350 9351 9352 9353 9354 9355 9356 9357 9358 9359 9360 9361 9362 9363 9364 9365 9366 9367 9368 9369 9370 9371 9372 9373 9374 9375 9376 9377 9378 9379 9380 9381 9382 9383 9384 9385 9386 9387 9388 9389 9390 9391 9392 9393 9394 9395 9396 9397 9398 9399 9400 9401 9402 9403 9404 9405 9406 9407 9408 9409 9410 9411 9412 9413 9414 9415 9416 9417 9418 9419 9420 9421 9422 9423 9424 9425 9426 9427 9428 9429 9430 9431 9432 9433 9434 9435 9436 9437 9438 9439 9440 9441 9442 9443 9444 9445 9446 9447 9448 9449 9450 9451 9452 9453 9454 9455 9456 9457 9458 9459 9460 9461 9462 9463 9464 9465 9466 9467 9468 9469 9470 9471 9472 9473 9474 9475 9476 9477 9478 9479 9480 9481 9482 9483 9484 9485 9486 9487 9488 9489 9490 9491 9492 9493 9494 9495 9496 9497 9498 9499 9500 9501 9502 9503 9504 9505 9506 9507 9508 9509 9510 9511 9512 9513 9514 9515 9516 9517 9518 9519 9520 9521 9522 9523 9524 9525 9526 9527 9528 9529 9530 9531 9532 9533 9534 9535 9536 9537 9538 9539 9540 9541 9542 9543 9544 9545 9546 9547 9548 9549 9550 9551 9552 9553 9554 9555 9556 9557 9558 9559 9560 9561 9562 9563 9564 9565 9566 9567 9568 9569 9570 9571 9572 9573 9574 9575 9576 9577 9578 9579 9580 9581 9582 9583 9584 9585 9586 9587 9588 9589 9590 9591 9592 9593 9594 9595 9596 9597 9598 9599 9600 9601 9602 9603 9604 9605 9606 9607 9608 9609 9610 9611 9612 9613 9614 9615 9616 9617 9618 9619 9620 9621 9622 9623 9624 9625 9626 9627 9628 9629 9630 9631 9632 9633 9634 9635 9636 9637 9638 9639 9640 9641 9642 9643 9644 9645 9646 9647 9648 9649 9650 9651 9652 9653 9654 9655 9656 9657 9658 9659 9660 9661 9662 9663 9664 9665 9666 9667 9668 9669 9670 9671 9672 9673 9674 9675 9676 9677 9678 9679 9680 9681 9682 9683 9684 9685 9686 9687 9688 9689 9690 9691 9692 9693 9694 9695 9696 9697 9698 9699 9700 9701 9702 9703 9704 9705 9706 9707 9708 9709 9710 9711 9712 9713 9714 9715 9716 9717 9718 9719 9720 9721 9722 9723 9724 9725 9726 9727 9728 9729 9730 9731 9732 9733 9734 9735 9736 9737 9738 9739 9740 9741 9742 9743 9744 9745 9746 9747 9748 9749 9750 9751 9752 9753 9754 9755 9756 9757 9758 9759 9760 9761 9762 9763 9764 9765 9766 9767 9768 9769 9770 9771 9772 9773 9774 9775 9776 9777 9778 9779 9780 9781 9782 9783 9784 9785 9786 9787 9788 9789 9790 9791 9792 9793 9794 9795 9796 9797 9798 9799 9800 9801 9802 9803 9804 9805 9806 9807 9808 9809 9810 9811 9812 9813 9814 9815 9816 9817 9818 9819 9820 9821 9822 9823 9824 9825 9826 9827 9828 9829 9830 9831 9832 9833 9834 9835 9836 9837 9838 9839 9840 9841 9842 9843 9844 9845 9846 9847 9848 9849 9850 9851 9852 9853 9854 9855 9856 9857 9858 9859 9860 9861 9862 9863 9864 9865 9866 9867 9868 9869 9870 9871 9872 9873 9874 9875 9876 9877 9878 9879 9880 9881 9882 9883 9884 9885 9886 9887 9888 9889 9890 9891 9892 9893 9894 9895 9896 9897 9898 9899 9900 9901 9902 9903 9904 9905 9906 9907 9908 9909 9910 9911 9912 9913 9914 9915 9916 9917 9918 9919 9920 9921 9922 9923 9924 9925 9926 9927 9928 9929 9930 9931 9932 9933 9934 9935 9936 9937 9938 9939 9940 9941 9942 9943 9944 9945 9946 9947 9948 9949 9950 9951 9952 9953 9954 9955 9956 9957 9958 9959 9960 9961 9962 9963 9964 9965 9966 9967 9968 9969 9970 9971 9972 9973 9974 9975 9976 9977 9978 9979 9980 9981 9982 9983 9984 9985 9986 9987 9988 9989 9990 9991 9992 9993 9994 9995 9996 9997 9998 9999 10000 10001 10002 10003 10004 10005 10006 10007 10008 10009 10010 10011 10012 10013 10014 10015 10016 10017 10018 10019 10020 10021 10022 10023 10024 10025 10026 10027 10028 10029 10030 10031 10032 10033 10034 10035 10036 10037 10038 10039 10040 10041 10042 10043 10044 10045 10046 10047 10048 10049 10050 10051 10052 10053 10054 10055 10056 10057 10058 10059 10060 10061 10062 10063 10064 10065 10066 10067 10068 10069 10070 10071 10072 10073 10074 10075 10076 10077 10078 10079 10080 10081 10082 10083 10084 10085 10086 10087 10088 10089 10090 10091 10092 10093 10094 10095 10096 10097 10098 10099 10100 10101 10102 10103 10104 10105 10106 10107 10108 10109 10110 10111 10112 10113 10114 10115 10116 10117 10118 10119 10120 10121 10122 10123 10124 10125 10126 10127 10128 10129 10130 10131 10132 10133 10134 10135 10136 10137 10138 10139 10140 10141 10142 10143 10144 10145 10146 10147 10148 10149 10150 10151 10152 10153 10154 10155 10156 10157 10158 10159 10160 10161 10162 10163 10164 10165 10166 10167 10168 10169 10170 10171 10172 10173 10174 10175 10176 10177 10178 10179 10180 10181 10182 10183 10184 10185 10186 10187 10188 10189 10190 10191 10192 10193 10194 10195 10196 10197 10198 10199 10200 10201 10202 10203 10204 10205 10206 10207 10208 10209 10210 10211 10212 10213 10214 10215 10216 10217 10218 10219 10220 10221 10222 10223 10224 10225 10226 10227 10228 10229 10230 10231 10232 10233 10234 10235 10236 10237 10238 10239 10240 10241 10242 10243 10244 10245 10246 10247 10248 10249 10250 10251 10252 10253 10254 10255 10256 10257 10258 10259 10260 10261 10262 10263 10264 10265 10266 10267 10268 10269 10270 10271 10272 10273 10274 10275 10276 10277 10278 10279 10280 10281 10282 10283 10284 10285 10286 10287 10288 10289 10290 10291 10292 10293 10294 10295 10296 10297 10298 10299 10300 10301 10302 10303 10304 10305 10306 10307 10308 10309 10310 10311 10312 10313 10314 10315 10316 10317 10318 10319 10320 10321 10322 10323 10324 10325 10326 10327 10328 10329 10330 10331 10332 10333 10334 10335 10336 10337 10338 10339 10340 10341 10342 10343 10344 10345 10346 10347 10348 10349 10350 10351 10352 10353 10354 10355 10356 10357 10358 10359 10360 10361 10362 10363 10364 10365 10366 10367 10368 10369 10370 10371 10372 10373 10374 10375 10376 10377 10378 10379 10380 10381 10382 10383 10384 10385 10386 10387 10388 10389 10390 10391 10392 10393 10394 10395 10396 10397 10398 10399 10400 10401 10402 10403 10404 10405 10406 10407 10408 10409 10410 10411 10412 10413 10414 10415 10416 10417 10418 10419 10420 10421 10422 10423 10424 10425 10426 10427 10428 10429 10430 10431 10432 10433 10434 10435 10436 10437 10438 10439 10440 10441 10442 10443 10444 10445 10446 10447 10448 10449 10450 10451 10452 10453 10454 10455 10456 10457 10458 10459 10460 10461 10462 10463 10464 10465 10466 10467 10468 10469 10470 10471 10472 10473 10474 10475 10476 10477 10478 10479 10480 10481 10482 10483 10484 10485 10486 10487 10488 10489 10490 10491 10492 10493 10494 10495 10496 10497 10498 10499 10500 10501 10502 10503 10504 10505 10506 10507 10508 10509 10510 10511 10512 10513 10514 10515 10516 10517 10518 10519 10520 10521 10522 10523 10524 10525 10526 10527 10528 10529 10530 10531 10532 10533 10534 10535 10536 10537 10538 10539 10540 10541 10542 10543 10544 10545 10546 10547 10548 10549 10550 10551 10552 10553 10554 10555 10556 10557 10558 10559 10560 10561 10562 10563 10564 10565 10566 10567 10568 10569 10570 10571 10572 10573 10574 10575 10576 10577 10578 10579 10580 10581 10582 10583 10584 10585 10586 10587 10588 10589 10590 10591 10592 10593 10594 10595 10596 10597 10598 10599 10600 10601 10602 10603 10604 10605 10606 10607 10608 10609 10610 10611 10612 10613 10614 10615 10616 10617 10618 10619 10620 10621 10622 10623 10624 10625 10626 10627 10628 10629 10630 10631 10632 10633 10634 10635 10636 10637 10638 10639 10640 10641 10642 10643 10644 10645 10646 10647 10648 10649 10650 10651 10652 10653 10654 10655 10656 10657 10658 10659 10660 10661 10662 10663 10664 10665 10666 10667 10668 10669 10670 10671 10672 10673 10674 10675 10676 10677 10678 10679 10680 10681 10682 10683 10684 10685 10686 10687 10688 10689 10690 10691 10692 10693 10694 10695 10696 10697 10698 10699 10700 10701 10702 10703 10704 10705 10706 10707 10708 10709 10710 10711 10712 10713 10714 10715 10716 10717 10718 10719 10720 10721 10722 10723 10724 10725 10726 10727 10728 10729 10730 10731 10732 10733 10734 10735 10736 10737 10738 10739 10740 10741 10742 10743 10744 10745 10746 10747 10748 10749 10750 10751 10752 10753 10754 10755 10756 10757 10758 10759 10760 10761 10762 10763 10764 10765 10766 10767 10768 10769 10770 10771 10772 10773 10774 10775 10776 10777 10778 10779 10780 10781 10782 10783 10784 10785 10786 10787 10788 10789 10790 10791 10792 10793 10794 10795 10796 10797 10798 10799 10800 10801 10802 10803 10804 10805 10806 10807 10808 10809 10810 10811 10812 10813 10814 10815 10816 10817 10818 10819 10820 10821 10822 10823 10824 10825 10826 10827 10828 10829 10830 10831 10832 10833 10834 10835 10836 10837 10838 10839 10840 10841 10842 10843 10844 10845 10846 10847 10848 10849 10850 10851 10852 10853 10854 10855 10856 10857 10858 10859 10860 10861 10862 10863 10864 10865 10866 10867 10868 10869 10870 10871 10872 10873 10874 10875 10876 10877 10878 10879 10880 10881 10882 10883 10884 10885 10886 10887 10888 10889 10890 10891 10892 10893 10894 10895 10896 10897 10898 10899 10900 10901 10902 10903 10904 10905 10906 10907 10908 10909 10910 10911 10912 10913 10914 10915 10916 10917 10918 10919 10920 10921 10922 10923 10924 10925 10926 10927 10928 10929 10930 10931 10932 10933 10934 10935 10936 10937 10938 10939 10940 10941 10942 10943 10944 10945 10946 10947 10948 10949 10950 10951 10952 10953 10954 10955 10956 10957 10958 10959 10960 10961 10962 10963 10964 10965 10966 10967 10968 10969 10970 10971 10972 10973 10974 10975 10976 10977 10978 10979 10980 10981 10982 10983 10984 10985 10986 10987 10988 10989 10990 10991 10992 10993 10994 10995 10996 10997 10998 10999 11000 11001 11002 11003 11004 11005 11006 11007 11008 11009 11010 11011 11012 11013 11014 11015 11016 11017 11018 11019 11020 11021 11022 11023 11024 11025 11026 11027 11028 11029 11030 11031 11032 11033 11034 11035 11036 11037 11038 11039 11040 11041 11042 11043 11044 11045 11046 11047 11048 11049 11050 11051 11052 11053 11054 11055 11056 11057 11058 11059 11060 11061 11062 11063 11064 11065 11066 11067 11068 11069 11070 11071 11072 11073 11074 11075 11076 11077 11078 11079 11080 11081 11082 11083 11084 11085 11086 11087 11088 11089 11090 11091 11092 11093 11094 11095 11096 11097 11098 11099 11100 11101 11102 11103 11104 11105 11106 11107 11108 11109 11110 11111 11112 11113 11114 11115 11116 11117 11118 11119 11120 11121 11122 11123 11124 11125 11126 11127 11128 11129 11130 11131 11132 11133 11134 11135 11136 11137 11138 11139 11140 11141 11142 11143 11144 11145 11146 11147 11148 11149 11150 11151 11152 11153 11154 11155 11156 11157 11158 11159 11160 11161 11162 11163 11164 11165 11166 11167 11168 11169 11170 11171 11172 11173 11174 11175 11176 11177 11178 11179 11180 11181 11182 11183 11184 11185 11186 11187 11188 11189 11190 11191 11192 11193 11194 11195 11196 11197 11198 11199 11200 11201 11202 11203 11204 11205 11206 11207 11208 11209 11210 11211 11212 11213 11214 11215 11216 11217 11218 11219 11220 11221 11222 11223 11224 11225 11226 11227 11228 11229 11230 11231 11232 11233 11234 11235 11236 11237 11238 11239 11240 11241 11242 11243 11244 11245 11246 11247 11248 11249 11250 11251 11252 11253 11254 11255 11256 11257 11258 11259 11260 11261 11262 11263 11264 11265 11266 11267 11268 11269 11270 11271 11272 11273 11274 11275 11276 11277 11278 11279 11280 11281 11282 11283 11284 11285 11286 11287 11288 11289 11290 11291 11292 11293 11294 11295 11296 11297 11298 11299 11300 11301 11302 11303 11304 11305 11306 11307 11308 11309 11310 11311 11312 11313 11314 11315 11316 11317 11318 11319 11320 11321 11322 11323 11324 11325 11326 11327 11328 11329 11330 11331 11332 11333 11334 11335 11336 11337 11338 11339 11340 11341 11342 11343 11344 11345 11346 11347 11348 11349 11350 11351 11352 11353 11354 11355 11356 11357 11358 11359 11360 11361 11362 11363 11364 11365 11366 11367 11368 11369 11370 11371 11372 11373 11374 11375 11376 11377 11378 11379 11380 11381 11382 11383 11384 11385 11386 11387 11388 11389 11390 11391 11392 11393 11394 11395 11396 11397 11398 11399 11400 11401 11402 11403 11404 11405 11406 11407 11408 11409 11410 11411 11412 11413 11414 11415 11416 11417 11418 11419 11420 11421 11422 11423 11424 11425 11426 11427 11428 11429 11430 11431 11432 11433 11434 11435 11436 11437 11438 11439 11440 11441 11442 11443 11444 11445 11446 11447 11448 11449 11450 11451 11452 11453 11454 11455 11456 11457 11458 11459 11460 11461 11462 11463 11464 11465 11466 11467 11468 11469 11470 11471 11472 11473 11474 11475 11476 11477 11478 11479 11480 11481 11482 11483 11484 11485 11486 11487 11488 11489 11490 11491 11492 11493 11494 11495 11496 11497 11498 11499 11500 11501 11502 11503 11504 11505 11506 11507 11508 11509 11510 11511 11512 11513 11514 11515 11516 11517 11518 11519 11520 11521 11522 11523 11524 11525 11526 11527 11528 11529 11530 11531 11532 11533 11534 11535 11536 11537 11538 11539 11540 11541 11542 11543 11544 11545 11546 11547 11548 11549 11550 11551 11552 11553 11554 11555 11556 11557 11558 11559 11560 11561 11562 11563 11564 11565 11566 11567 11568 11569 11570 11571 11572 11573 11574 11575 11576 11577 11578 11579 11580 11581 11582 11583 11584 11585 11586 11587 11588 11589 11590 11591 11592 11593 11594 11595 11596 11597 11598 11599 11600 11601 11602 11603 11604 11605 11606 11607 11608 11609 11610 11611 11612 11613 11614 11615 11616 11617 11618 11619 11620 11621 11622 11623 11624 11625 11626 11627 11628 11629 11630 11631 11632 11633 11634 11635 11636 11637 11638 11639 11640 11641 11642 11643 11644 11645 11646 11647 11648 11649 11650 11651 11652 11653 11654 11655 11656 11657 11658 11659 11660 11661 11662 11663 11664 11665 11666 11667 11668 11669 11670 11671 11672 11673 11674 11675 11676 11677 11678 11679 11680 11681 11682 11683 11684 11685 11686 11687 11688 11689 11690 11691 11692 11693 11694 11695 11696 11697 11698 11699 11700 11701 11702 11703 11704 11705 11706 11707 11708 11709 11710 11711 11712 11713 11714 11715 11716 11717 11718 11719 11720 11721 11722 11723 11724 11725 11726 11727 11728 11729 11730 11731 11732 11733 11734 11735 11736 11737 11738 11739 11740 11741 11742 11743 11744 11745 11746 11747 11748 11749 11750 11751 11752 11753 11754 11755 11756 11757 11758 11759 11760 11761 11762 11763 11764 11765 11766 11767 11768 11769 11770 11771 11772 11773 11774 11775 11776 11777 11778 11779 11780 11781 11782 11783 11784 11785 11786 11787 11788 11789 11790 11791 11792 11793 11794 11795 11796 11797 11798 11799 11800 11801 11802 11803 11804 11805 11806 11807 11808 11809 11810 11811 11812 11813 11814 11815 11816 11817 11818 11819 11820 11821 11822 11823 11824 11825 11826 11827 11828 11829 11830 11831 11832 11833 11834 11835 11836 11837 11838 11839 11840 11841 11842 11843 11844 11845 11846 11847 11848 11849 11850 11851 11852 11853 11854 11855 11856 11857 11858 11859 11860 11861 11862 11863 11864 11865 11866 11867 11868 11869 11870 11871 11872 11873 11874 11875 11876 11877 11878 11879 11880 11881 11882 11883 11884 11885 11886 11887 11888 11889 11890 11891 11892 11893 11894 11895 11896 11897 11898 11899 11900 11901 11902 11903 11904 11905 11906 11907 11908 11909 11910 11911 11912 11913 11914 11915 11916 11917 11918 11919 11920 11921 11922 11923 11924 11925 11926 11927 11928 11929 11930 11931 11932 11933 11934 11935 11936 11937 11938 11939 11940 11941 11942 11943 11944 11945 11946 11947 11948 11949 11950 11951 11952 11953 11954 11955 11956 11957 11958 11959 11960 11961 11962 11963 11964 11965 11966 11967 11968 11969 11970 11971 11972 11973 11974 11975 11976 11977 11978 11979 11980 11981 11982 11983 11984 11985 11986 11987 11988 11989 11990 11991 11992 11993 11994 11995 11996 11997 11998 11999 12000 12001 12002 12003 12004 12005 12006 12007 12008 12009 12010 12011 12012 12013 12014 12015 12016 12017 12018 12019 12020 12021 12022 12023 12024 12025 12026 12027 12028 12029 12030 12031 12032 12033 12034 12035 12036 12037 12038 12039 12040 12041 12042 12043 12044 12045 12046 12047 12048 12049 12050 12051 12052 12053 12054 12055 12056 12057 12058 12059 12060 12061 12062 12063 12064 12065 12066 12067 12068 12069 12070 12071 12072 12073 12074 12075 12076 12077 12078 12079 12080 12081 12082 12083 12084 12085 12086 12087 12088 12089 12090 12091 12092 12093 12094 12095 12096 12097 12098 12099 12100 12101 12102 12103 12104 12105 12106 12107 12108 12109 12110 12111 12112 12113 12114 12115 12116 12117 12118 12119 12120 12121 12122 12123 12124 12125 12126 12127 12128 12129 12130 12131 12132 12133 12134 12135 12136 12137 12138 12139 12140 12141 12142 12143 12144 12145 12146 12147 12148 12149 12150 12151 12152 12153 12154 12155 12156 12157 12158 12159 12160 12161 12162 12163 12164 12165 12166 12167 12168 12169 12170 12171 12172 12173 12174 12175 12176 12177 12178 12179 12180 12181 12182 12183 12184 12185 12186 12187 12188 12189 12190 12191 12192 12193 12194 12195 12196 12197 12198 12199 12200 12201 12202 12203 12204 12205 12206 12207 12208 12209 12210 12211 12212 12213 12214 12215 12216 12217 12218 12219 12220 12221 12222 12223 12224 12225 12226 12227 12228 12229 12230 12231 12232 12233 12234 12235 12236 12237 12238 12239 12240 12241 12242 12243 12244 12245 12246 12247 12248 12249 12250 12251 12252 12253 12254 12255 12256 12257 12258 12259 12260 12261 12262 12263 12264 12265 12266 12267 12268 12269 12270 12271 12272 12273 12274 12275 12276 12277 12278 12279 12280 12281 12282 12283 12284 12285 12286 12287 12288 12289 12290 12291 12292 12293 12294 12295 12296 12297 12298 12299 12300 12301 12302 12303 12304 12305 12306 12307 12308 12309 12310 12311 12312 12313 12314 12315 12316 12317 12318 12319 12320 12321 12322 12323 12324 12325 12326 12327 12328 12329 12330 12331 12332 12333 12334 12335 12336 12337 12338 12339 12340 12341 12342 12343 12344 12345 12346 12347 12348 12349 12350 12351 12352 12353 12354 12355 12356 12357 12358 12359 12360 12361 12362 12363 12364 12365 12366 12367 12368 12369 12370 12371 12372 12373 12374 12375 12376 12377 12378 12379 12380 12381 12382 12383 12384 12385 12386 12387 12388 12389 12390 12391 12392 12393 12394 12395 12396 12397 12398 12399 12400 12401 12402 12403 12404 12405 12406 12407 12408 12409 12410 12411 12412 12413 12414 12415 12416 12417 12418 12419 12420 12421 12422 12423 12424 12425 12426 12427 12428 12429 12430 12431 12432 12433 12434 12435 12436 12437 12438 12439 12440 12441 12442 12443 12444 12445 12446 12447 12448 12449 12450 12451 12452 12453 12454 12455 12456 12457 12458 12459 12460 12461 12462 12463 12464 12465 12466 12467 12468 12469 12470 12471 12472 12473 12474 12475 12476 12477 12478 12479 12480 12481 12482 12483 12484 12485 12486 12487 12488 12489 12490 12491 12492 12493 12494 12495 12496 12497 12498 12499 12500 12501 12502 12503 12504 12505 12506 12507 12508 12509 12510 12511 12512 12513 12514 12515 12516 12517 12518 12519 12520 12521 12522 12523 12524 12525 12526 12527 12528 12529 12530 12531 12532 12533 12534 12535 12536 12537 12538 12539 12540 12541 12542 12543 12544 12545 12546 12547 12548 12549 12550 12551 12552 12553 12554 12555 12556 12557 12558 12559 12560 12561 12562 12563 12564 12565 12566 12567 12568 12569 12570 12571 12572 12573 12574 12575 12576 12577 12578 12579 12580 12581 12582 12583 12584 12585 12586 12587 12588 12589 12590 12591 12592 12593 12594 12595 12596 12597 12598 12599 12600 12601 12602 12603 12604 12605 12606 12607 12608 12609 12610 12611 12612 12613 12614 12615 12616 12617 12618 12619 12620 12621 12622 12623 12624 12625 12626 12627 12628 12629 12630 12631 12632 12633 12634 12635 12636 12637 12638 12639 12640 12641 12642 12643 12644 12645 12646 12647 12648 12649 12650 12651 12652 12653 12654 12655 12656 12657 12658 12659 12660 12661 12662 12663 12664 12665 12666 12667 12668 12669 12670 12671 12672 12673 12674 12675 12676 12677 12678 12679 12680 12681 12682 12683 12684 12685 12686 12687 12688 12689 12690 12691 12692 12693 12694 12695 12696 12697 12698 12699 12700 12701 12702 12703 12704 12705 12706 12707 12708 12709 12710 12711 12712 12713 12714 12715 12716 12717 12718 12719 12720 12721 12722 12723 12724 12725 12726 12727 12728 12729 12730 12731 12732 12733 12734 12735 12736 12737 12738 12739 12740 12741 12742 12743 12744 12745 12746 12747 12748 12749 12750 12751 12752 12753 12754 12755 12756 12757 12758 12759 12760 12761 12762 12763 12764 12765 12766 12767 12768 12769 12770 12771 12772 12773 12774 12775 12776 12777 12778 12779 12780 12781 12782 12783 12784 12785 12786 12787 12788 12789 12790 12791 12792 12793 12794 12795 12796 12797 12798 12799 12800 12801 12802 12803 12804 12805 12806 12807 12808 12809 12810 12811 12812 12813 12814 12815 12816 12817 12818 12819 12820 12821 12822 12823 12824 12825 12826 12827 12828 12829 12830 12831 12832 12833 12834 12835 12836 12837 12838 12839 12840 12841 12842 12843 12844 12845 12846 12847 12848 12849 12850 12851 12852 12853 12854 12855 12856 12857 12858 12859 12860 12861 12862 12863 12864 12865 12866 12867 12868 12869 12870 12871 12872 12873 12874 12875 12876 12877 12878 12879 12880 12881 12882 12883 12884 12885 12886 12887 12888 12889 12890 12891 12892 12893 12894 12895 12896 12897 12898 12899 12900 12901 12902 12903 12904 12905 12906 12907 12908 12909 12910 12911 12912 12913 12914 12915 12916 12917 12918 12919 12920 12921 12922 12923 12924 12925 12926 12927 12928 12929 12930 12931 12932 12933 12934 12935 12936 12937 12938 12939 12940 12941 12942 12943 12944 12945 12946 12947 12948 12949 12950 12951 12952 12953 12954 12955 12956 12957 12958 12959 12960 12961 12962 12963 12964 12965 12966 12967 12968 12969 12970 12971 12972 12973 12974 12975 12976 12977 12978 12979 12980 12981 12982 12983 12984 12985 12986 12987 12988 12989 12990 12991 12992 12993 12994 12995 12996 12997 12998 12999 13000 13001 13002 13003 13004 13005 13006 13007 13008 13009 13010 13011 13012 13013 13014 13015 13016 13017 13018 13019 13020 13021 13022 13023 13024 13025 13026 13027 13028 13029 13030 13031 13032 13033 13034 13035 13036 13037 13038 13039 13040 13041 13042 13043 13044 13045 13046 13047 13048 13049 13050 13051 13052 13053 13054 13055 13056 13057 13058 13059 13060 13061 13062 13063 13064 13065 13066 13067 13068 13069 13070 13071 13072 13073 13074 13075 13076 13077 13078 13079 13080 13081 13082 13083 13084 13085 13086 13087 13088 13089 13090 13091 13092 13093 13094 13095 13096 13097 13098 13099 13100 13101 13102 13103 13104 13105 13106 13107 13108 13109 13110 13111 13112 13113 13114 13115 13116 13117 13118 13119 13120 13121 13122 13123 13124 13125 13126 13127 13128 13129 13130 13131 13132 13133 13134 13135 13136 13137 13138 13139 13140 13141 13142 13143 13144 13145 13146 13147 13148 13149 13150 13151 13152 13153 13154 13155 13156 13157 13158 13159 13160 13161 13162 13163 13164 13165 13166 13167 13168 13169 13170 13171 13172 13173 13174 13175 13176 13177 13178 13179 13180 13181 13182 13183 13184 13185 13186 13187 13188 13189 13190 13191 13192 13193 13194 13195 13196 13197 13198 13199 13200 13201 13202 13203 13204 13205 13206 13207 13208 13209 13210 13211 13212 13213 13214 13215 13216 13217 13218 13219 13220 13221 13222 13223 13224 13225 13226 13227 13228 13229 13230 13231 13232 13233 13234 13235 13236 13237 13238 13239 13240 13241 13242 13243 13244 13245 13246 13247 13248 13249 13250 13251 13252 13253 13254 13255 13256 13257 13258 13259 13260 13261 13262 13263 13264 13265 13266 13267 13268 13269 13270 13271 13272 13273 13274 13275 13276 13277 13278 13279 13280 13281 13282 13283 13284 13285 13286 13287 13288 13289 13290 13291 13292 13293 13294 13295 13296 13297 13298 13299 13300 13301 13302 13303 13304 13305 13306 13307 13308 13309 13310 13311 13312 13313 13314 13315 13316 13317 13318 13319 13320 13321 13322 13323 13324 13325 13326 13327 13328 13329 13330 13331 13332 13333 13334 13335 13336 13337 13338 13339 13340 13341 13342 13343 13344 13345 13346 13347 13348 13349 13350 13351 13352 13353 13354 13355 13356 13357 13358 13359 13360 13361 13362 13363 13364 13365 13366 13367 13368 13369 13370 13371 13372 13373 13374 13375 13376 13377 13378 13379 13380 13381 13382 13383 13384 13385 13386 13387 13388 13389 13390 13391 13392 13393 13394 13395 13396 13397 13398 13399 13400 13401 13402 13403 13404 13405 13406 13407 13408 13409 13410 13411 13412 13413 13414 13415 13416 13417 13418 13419 13420 13421 13422 13423 13424 13425 13426 13427 13428 13429 13430 13431 13432 13433 13434 13435 13436 13437 13438 13439 13440 13441 13442 13443 13444 13445 13446 13447 13448 13449 13450 13451 13452 13453 13454 13455 13456 13457 13458 13459 13460 13461 13462 13463 13464 13465 13466 13467 13468 13469 13470 13471 13472 13473 13474 13475 13476 13477 13478 13479 13480 13481 13482 13483 13484 13485 13486 13487 13488 13489 13490 13491 13492 13493 13494 13495 13496 13497 13498 13499 13500 13501 13502 13503 13504 13505 13506 13507 13508 13509 13510 13511 13512 13513 13514 13515 13516 13517 13518 13519 13520 13521 13522 13523 13524 13525 13526 13527 13528 13529 13530 13531 13532 13533 13534 13535 13536 13537 13538 13539 13540 13541 13542 13543 13544 13545 13546 13547 13548 13549 13550 13551 13552 13553 13554 13555 13556 13557 13558 13559 13560 13561 13562 13563 13564 13565 13566 13567 13568 13569 13570 13571 13572 13573 13574 13575 13576 13577 13578 13579 13580 13581 13582 13583 13584 13585 13586 13587 13588 13589 13590 13591 13592 13593 13594 13595 13596 13597 13598 13599 13600 13601 13602 13603 13604 13605 13606 13607 13608 13609 13610 13611 13612 13613 13614 13615 13616 13617 13618 13619 13620 13621 13622 13623 13624 13625 13626 13627 13628 13629 13630 13631 13632 13633 13634 13635 13636 13637 13638 13639 13640 13641 13642 13643 13644 13645 13646 13647 13648 13649 13650 13651 13652 13653 13654 13655 13656 13657 13658 13659 13660 13661 13662 13663 13664 13665 13666 13667 13668 13669 13670 13671 13672 13673 13674 13675 13676 13677 13678 13679 13680 13681 13682 13683 13684 13685 13686 13687 13688 13689 13690 13691 13692 13693 13694 13695 13696 13697 13698 13699 13700 13701 13702 13703 13704 13705 13706 13707 13708 13709 13710 13711 13712 13713 13714 13715 13716 13717 13718 13719 13720 13721 13722 13723 13724 13725 13726 13727 13728 13729 13730 13731 13732 13733 13734 13735 13736 13737 13738 13739 13740 13741 13742 13743 13744 13745 13746 13747 13748 13749 13750 13751 13752 13753 13754 13755 13756 13757 13758 13759 13760 13761 13762 13763 13764 13765 13766 13767 13768 13769 13770 13771 13772 13773 13774 13775 13776 13777 13778 13779 13780 13781 13782 13783 13784 13785 13786 13787 13788 13789 13790 13791 13792 13793 13794 13795 13796 13797 13798 13799 13800 13801 13802 13803 13804 13805 13806 13807 13808 13809 13810 13811 13812 13813 13814 13815 13816 13817 13818 13819 13820 13821 13822 13823 13824 13825 13826 13827 13828 13829 13830 13831 13832 13833 13834 13835 13836 13837 13838 13839 13840 13841 13842 13843 13844 13845 13846 13847 13848 13849 13850 13851 13852 13853 13854 13855 13856 13857 13858 13859 13860 13861 13862 13863 13864 13865 13866 13867 13868 13869 13870 13871 13872 13873 13874 13875 13876 13877 13878 13879 13880 13881 13882 13883 13884 13885 13886 13887 13888 13889 13890 13891 13892 13893 13894 13895 13896 13897 13898 13899 13900 13901 13902 13903 13904 13905 13906 13907 13908 13909 13910 13911 13912 13913 13914 13915 13916 13917 13918 13919 13920 13921 13922 13923 13924 13925 13926 13927 13928 13929 13930 13931 13932 13933 13934 13935 13936 13937 13938 13939 13940 13941 13942 13943 13944 13945 13946 13947 13948 13949 13950 13951 13952 13953 13954 13955 13956 13957 13958 13959 13960 13961 13962 13963 13964 13965 13966 13967 13968 13969 13970 13971 13972 13973 13974 13975 13976 13977 13978 13979 13980 13981 13982 13983 13984 13985 13986 13987 13988 13989 13990 13991 13992 13993 13994 13995 13996 13997 13998 13999 14000 14001 14002 14003 14004 14005 14006 14007 14008 14009 14010 14011 14012 14013 14014 14015 14016 14017 14018 14019 14020 14021 14022 14023 14024 14025 14026 14027 14028 14029 14030 14031 14032 14033 14034 14035 14036 14037 14038 14039 14040 14041 14042 14043 14044 14045 14046 14047 14048 14049 14050 14051 14052 14053 14054 14055 14056 14057 14058 14059 14060 14061 14062 14063 14064 14065 14066 14067 14068 14069 14070 14071 14072 14073 14074 14075 14076 14077 14078 14079 14080 14081 14082 14083 14084 14085 14086 14087 14088 14089 14090 14091 14092 14093 14094 14095 14096 14097 14098 14099 14100 14101 14102 14103 14104 14105 14106 14107 14108 14109 14110 14111 14112 14113 14114 14115 14116 14117 14118 14119 14120 14121 14122 14123 14124 14125 14126 14127 14128 14129 14130 14131 14132 14133 14134 14135 14136 14137 14138 14139 14140 14141 14142 14143 14144 14145 14146 14147 14148 14149 14150 14151 14152 14153 14154 14155 14156 14157 14158 14159 14160 14161 14162 14163 14164 14165 14166 14167 14168 14169 14170 14171 14172 14173 14174 14175 14176 14177 14178 14179 14180 14181 14182 14183 14184 14185 14186 14187 14188 14189 14190 14191 14192 14193 14194 14195 14196 14197 14198 14199 14200 14201 14202 14203 14204 14205 14206 14207 14208 14209 14210 14211 14212 14213 14214 14215 14216 14217 14218 14219 14220 14221 14222 14223 14224 14225 14226 14227 14228 14229 14230 14231 14232 14233 14234 14235 14236 14237 14238 14239 14240 14241 14242 14243 14244 14245 14246 14247 14248 14249 14250 14251 14252 14253 14254 14255 14256 14257 14258 14259 14260 14261 14262 14263 14264 14265 14266 14267 14268 14269 14270 14271 14272 14273 14274 14275 14276 14277 14278 14279 14280 14281 14282 14283 14284 14285 14286 14287 14288 14289 14290 14291 14292 14293 14294 14295 14296 14297 14298 14299 14300 14301 14302 14303 14304 14305 14306 14307 14308 14309 14310 14311 14312 14313 14314 14315 14316 14317 14318 14319 14320 14321 14322 14323 14324 14325 14326 14327 14328 14329 14330 14331 14332 14333 14334 14335 14336 14337 14338 14339 14340 14341 14342 14343 14344 14345 14346 14347 14348 14349 14350 14351 14352 14353 14354 14355 14356 14357 14358 14359 14360 14361 14362 14363 14364 14365 14366 14367 14368 14369 14370 14371 14372 14373 14374 14375 14376 14377 14378 14379 14380 14381 14382 14383 14384 14385 14386 14387 14388 14389 14390 14391 14392 14393 14394 14395 14396 14397 14398 14399 14400 14401 14402 14403 14404 14405 14406 14407 14408 14409 14410 14411 14412 14413 14414 14415 14416 14417 14418 14419 14420 14421 14422 14423 14424 14425 14426 14427 14428 14429 14430 14431 14432 14433 14434 14435 14436 14437 14438 14439 14440 14441 14442 14443 14444 14445 14446 14447 14448 14449 14450 14451 14452 14453 14454 14455 14456 14457 14458 14459 14460 14461 14462 14463 14464 14465 14466 14467 14468 14469 14470 14471 14472 14473 14474 14475 14476 14477 14478 14479 14480 14481 14482 14483 14484 14485 14486 14487 14488 14489 14490 14491 14492 14493 14494 14495 14496 14497 14498 14499 14500 14501 14502 14503 14504 14505 14506 14507 14508 14509 14510 14511 14512 14513 14514 14515 14516 14517 14518 14519 14520 14521 14522 14523 14524 14525 14526 14527 14528 14529 14530 14531 14532 14533 14534 14535 14536 14537 14538 14539 14540 14541 14542 14543 14544 14545 14546 14547 14548 14549 14550 14551 14552 14553 14554 14555 14556 14557 14558 14559 14560 14561 14562 14563 14564 14565 14566 14567 14568 14569 14570 14571 14572 14573 14574 14575 14576 14577 14578 14579 14580 14581 14582 14583 14584 14585 14586 14587 14588 14589 14590 14591 14592 14593 14594 14595 14596 14597 14598 14599 14600 14601 14602 14603 14604 14605 14606 14607 14608 14609 14610 14611 14612 14613 14614 14615 14616 14617 14618 14619 14620 14621 14622 14623 14624 14625 14626 14627 14628 14629 14630 14631 14632 14633 14634 14635 14636 14637 14638 14639 14640 14641 14642 14643 14644 14645 14646 14647 14648 14649 14650 14651 14652 14653 14654 14655 14656 14657 14658 14659 14660 14661 14662 14663 14664 14665 14666 14667 14668 14669 14670 14671 14672 14673 14674 14675 14676 14677 14678 14679 14680 14681 14682 14683 14684 14685 14686 14687 14688 14689 14690 14691 14692 14693 14694 14695 14696 14697 14698 14699 14700 14701 14702 14703 14704 14705 14706 14707 14708 14709 14710 14711 14712 14713 14714 14715 14716 14717 14718 14719 14720 14721 14722 14723 14724 14725 14726 14727 14728 14729 14730 14731 14732 14733 14734 14735 14736 14737 14738 14739 14740 14741 14742 14743 14744 14745 14746 14747 14748 14749 14750 14751 14752 14753 14754 14755 14756 14757 14758 14759 14760 14761 14762 14763 14764 14765 14766 14767 14768 14769 14770 14771 14772 14773 14774 14775 14776 14777 14778 14779 14780 14781 14782 14783 14784 14785 14786 14787 14788 14789 14790 14791 14792 14793 14794 14795 14796 14797 14798 14799 14800 14801 14802 14803 14804 14805 14806 14807 14808 14809 14810 14811 14812 14813 14814 14815 14816 14817 14818 14819 14820 14821 14822 14823 14824 14825 14826 14827 14828 14829 14830 14831 14832 14833 14834 14835 14836 14837 14838 14839 14840 14841 14842 14843 14844 14845 14846 14847 14848 14849 14850 14851 14852 14853 14854 14855 14856 14857 14858 14859 14860 14861 14862 14863 14864 14865 14866 14867 14868 14869 14870 14871 14872 14873 14874 14875 14876 14877 14878 14879 14880 14881 14882 14883 14884 14885 14886 14887 14888 14889 14890 14891 14892 14893 14894 14895 14896 14897 14898 14899 14900 14901 14902 14903 14904 14905 14906 14907 14908 14909 14910 14911 14912 14913 14914 14915 14916 14917 14918 14919 14920 14921 14922 14923 14924 14925 14926 14927 14928 14929 14930 14931 14932 14933 14934 14935 14936 14937 14938 14939 14940 14941 14942 14943 14944 14945 14946 14947 14948 14949 14950 14951 14952 14953 14954 14955 14956 14957 14958 14959 14960 14961 14962 14963 14964 14965 14966 14967 14968 14969 14970 14971 14972 14973 14974 14975 14976 14977 14978 14979 14980 14981 14982 14983 14984 14985 14986 14987 14988 14989 14990 14991 14992 14993 14994 14995 14996 14997 14998 14999 15000 15001 15002 15003 15004 15005 15006 15007 15008 15009 15010 15011 15012 15013 15014 15015 15016 15017 15018 15019 15020 15021 15022 15023 15024 15025 15026 15027 15028 15029 15030 15031 15032 15033 15034 15035 15036 15037 15038 15039 15040 15041 15042 15043 15044 15045 15046 15047 15048 15049 15050 15051 15052 15053 15054 15055 15056 15057 15058 15059 15060 15061 15062 15063 15064 15065 15066 15067 15068 15069 15070 15071 15072 15073 15074 15075 15076 15077 15078 15079 15080 15081 15082 15083 15084 15085 15086 15087 15088 15089 15090 15091 15092 15093 15094 15095 15096 15097 15098 15099 15100 15101 15102 15103 15104 15105 15106 15107 15108 15109 15110 15111 15112 15113 15114 15115 15116 15117 15118 15119 15120 15121 15122 15123 15124 15125 15126 15127 15128 15129 15130 15131 15132 15133 15134 15135 15136 15137 15138 15139 15140 15141 15142 15143 15144 15145 15146 15147 15148 15149 15150 15151 15152 15153 15154 15155 15156 15157 15158 15159 15160 15161 15162 15163 15164 15165 15166 15167 15168 15169 15170 15171 15172 15173 15174 15175 15176 15177 15178 15179 15180 15181 15182 15183 15184 15185 15186 15187 15188 15189 15190 15191 15192 15193 15194 15195 15196 15197 15198 15199 15200 15201 15202 15203 15204 15205 15206 15207 15208 15209 15210 15211 15212 15213 15214 15215 15216 15217 15218 15219 15220 15221 15222 15223 15224 15225 15226 15227 15228 15229 15230 15231 15232 15233 15234 15235 15236 15237 15238 15239 15240 15241 15242 15243 15244 15245 15246 15247 15248 15249 15250 15251 15252 15253 15254 15255 15256 15257 15258 15259 15260 15261 15262 15263 15264 15265 15266 15267 15268 15269 15270 15271 15272 15273 15274 15275 15276 15277 15278 15279 15280 15281 15282 15283 15284 15285 15286 15287 15288 15289 15290 15291 15292 15293 15294 15295 15296 15297 15298 15299 15300 15301 15302 15303 15304 15305 15306 15307 15308 15309 15310 15311 15312 15313 15314 15315 15316 15317 15318 15319 15320 15321 15322 15323 15324 15325 15326 15327 15328 15329 15330 15331 15332 15333 15334 15335 15336 15337 15338 15339 15340 15341 15342 15343 15344 15345 15346 15347 15348 15349 15350 15351 15352 15353 15354 15355 15356 15357 15358 15359 15360 15361 15362 15363 15364 15365 15366 15367 15368 15369 15370 15371 15372 15373 15374 15375 15376 15377 15378 15379 15380 15381 15382 15383 15384 15385 15386 15387 15388 15389 15390 15391 15392 15393 15394 15395 15396 15397 15398 15399 15400 15401 15402 15403 15404 15405 15406 15407 15408 15409 15410 15411 15412 15413 15414 15415 15416 15417 15418 15419 15420 15421 15422 15423 15424 15425 15426 15427 15428 15429 15430 15431 15432 15433 15434 15435 15436 15437 15438 15439 15440 15441 15442 15443 15444 15445 15446 15447 15448 15449 15450 15451 15452 15453 15454 15455 15456 15457 15458 15459 15460 15461 15462 15463 15464 15465 15466 15467 15468 15469 15470 15471 15472 15473 15474 15475 15476 15477 15478 15479 15480 15481 15482 15483 15484 15485 15486 15487 15488 15489 15490 15491 15492 15493 15494 15495 15496 15497 15498 15499 15500 15501 15502 15503 15504 15505 15506 15507 15508 15509 15510 15511 15512 15513 15514 15515 15516 15517 15518 15519 15520 15521 15522 15523 15524 15525 15526 15527 15528 15529 15530 15531 15532 15533 15534 15535 15536 15537 15538 15539 15540 15541 15542 15543 15544 15545 15546 15547 15548 15549 15550 15551 15552 15553 15554 15555 15556 15557 15558 15559 15560 15561 15562 15563 15564 15565 15566 15567 15568 15569 15570 15571 15572 15573 15574 15575 15576 15577 15578 15579 15580 15581 15582 15583 15584 15585 15586 15587 15588 15589 15590 15591 15592 15593 15594 15595 15596 15597 15598 15599 15600 15601 15602 15603 15604 15605 15606 15607 15608 15609 15610 15611 15612 15613 15614 15615 15616 15617 15618 15619 15620 15621 15622 15623 15624 15625 15626 15627 15628 15629 15630 15631 15632 15633 15634 15635 15636 15637 15638 15639 15640 15641 15642 15643 15644 15645 15646 15647 15648 15649 15650 15651 15652 15653 15654 15655 15656 15657 15658 15659 15660 15661 15662 15663 15664 15665 15666 15667 15668 15669 15670 15671 15672 15673 15674 15675 15676 15677 15678 15679 15680 15681 15682 15683 15684 15685 15686 15687 15688 15689 15690 15691 15692 15693 15694 15695 15696 15697 15698 15699 15700 15701 15702 15703 15704 15705 15706 15707 15708 15709 15710 15711 15712 15713 15714 15715 15716 15717 15718 15719 15720 15721 15722 15723 15724 15725 15726 15727 15728 15729 15730 15731 15732 15733 15734 15735 15736 15737 15738 15739 15740 15741 15742 15743 15744 15745 15746 15747 15748 15749 15750 15751 15752 15753 15754 15755 15756 15757 15758 15759 15760 15761 15762 15763 15764 15765 15766 15767 15768 15769 15770 15771 15772 15773 15774 15775 15776 15777 15778 15779 15780 15781 15782 15783 15784 15785 15786 15787 15788 15789 15790 15791 15792 15793 15794 15795 15796 15797 15798 15799 15800 15801 15802 15803 15804 15805 15806 15807 15808 15809 15810 15811 15812 15813 15814 15815 15816 15817 15818 15819 15820 15821 15822 15823 15824 15825 15826 15827 15828 15829 15830 15831 15832 15833 15834 15835 15836 15837 15838 15839 15840 15841 15842 15843 15844 15845 15846 15847 15848 15849 15850 15851 15852 15853 15854 15855 15856 15857 15858 15859 15860 15861 15862 15863 15864 15865 15866 15867 15868 15869 15870 15871 15872 15873 15874 15875 15876 15877 15878 15879 15880 15881 15882 15883 15884 15885 15886 15887 15888 15889 15890 15891 15892 15893 15894 15895 15896 15897 15898 15899 15900 15901 15902 15903 15904 15905 15906 15907 15908 15909 15910 15911 15912 15913 15914 15915 15916 15917 15918 15919 15920 15921 15922 15923 15924 15925 15926 15927 15928 15929 15930 15931 15932 15933 15934 15935 15936 15937 15938 15939 15940 15941 15942 15943 15944 15945 15946 15947 15948 15949 15950 15951 15952 15953 15954 15955 15956 15957 15958 15959 15960 15961 15962 15963 15964 15965 15966 15967 15968 15969 15970 15971 15972 15973 15974 15975 15976 15977 15978 15979 15980 15981 15982 15983 15984 15985 15986 15987 15988 15989 15990 15991 15992 15993 15994 15995 15996 15997 15998 15999 16000 16001 16002 16003 16004 16005 16006 16007 16008 16009 16010 16011 16012 16013 16014 16015 16016 16017 16018 16019 16020 16021 16022 16023 16024 16025 16026 16027 16028 16029 16030 16031 16032 16033 16034 16035 16036 16037 16038 16039 16040 16041 16042 16043 16044 16045 16046 16047 16048 16049 16050 16051 16052 16053 16054 16055 16056 16057 16058 16059 16060 16061 16062 16063 16064 16065 16066 16067 16068 16069 16070 16071 16072 16073 16074 16075 16076 16077 16078 16079 16080 16081 16082 16083 16084 16085 16086 16087 16088 16089 16090 16091 16092 16093 16094 16095 16096 16097 16098 16099 16100 16101 16102 16103 16104 16105 16106 16107 16108 16109 16110 16111 16112 16113 16114 16115 16116 16117 16118 16119 16120 16121 16122 16123 16124 16125 16126 16127 16128 16129 16130 16131 16132 16133 16134 16135 16136 16137 16138 16139 16140 16141 16142 16143 16144 16145 16146 16147 16148 16149 16150 16151 16152 16153 16154 16155 16156 16157 16158 16159 16160 16161 16162 16163 16164 16165 16166 16167 16168 16169 16170 16171 16172 16173 16174 16175 16176 16177 16178 16179 16180 16181 16182 16183 16184 16185 16186 16187 16188 16189 16190 16191 16192 16193 16194 16195 16196 16197 16198 16199 16200 16201 16202 16203 16204 16205 16206 16207 16208 16209 16210 16211 16212 16213 16214 16215 16216 16217 16218 16219 16220 16221 16222 16223 16224 16225 16226 16227 16228 16229 16230 16231 16232 16233 16234 16235 16236 16237 16238 16239 16240 16241 16242 16243 16244 16245 16246 16247 16248 16249 16250 16251 16252 16253 16254 16255 16256 16257 16258 16259 16260 16261 16262 16263 16264 16265 16266 16267 16268 16269 16270 16271 16272 16273 16274 16275 16276 16277 16278 16279 16280 16281 16282 16283 16284 16285 16286 16287 16288 16289 16290 16291 16292 16293 16294 16295 16296 16297 16298 16299 16300 16301 16302 16303 16304 16305 16306 16307 16308 16309 16310 16311 16312 16313 16314 16315 16316 16317 16318 16319 16320 16321 16322 16323 16324 16325 16326 16327 16328 16329 16330 16331 16332 16333 16334 16335 16336 16337 16338 16339 16340 16341 16342 16343 16344 16345 16346 16347 16348 16349 16350 16351 16352 16353 16354 16355 16356 16357 16358 16359 16360 16361 16362 16363 16364 16365 16366 16367 16368 16369 16370 16371 16372 16373 16374 16375 16376 16377 16378 16379 16380 16381 16382 16383 16384 16385 16386 16387 16388 16389 16390 16391 16392 16393 16394 16395 16396 16397 16398 16399 16400 16401 16402 16403 16404 16405 16406 16407 16408 16409 16410 16411 16412 16413 16414 16415 16416 16417 16418 16419 16420 16421 16422 16423 16424 16425 16426 16427 16428 16429 16430 16431 16432 16433 16434 16435 16436 16437 16438 16439 16440 16441 16442 16443 16444 16445 16446 16447 16448 16449 16450 16451 16452 16453 16454 16455 16456 16457 16458 16459 16460 16461 16462 16463 16464 16465 16466 16467 16468 16469 16470 16471 16472 16473 16474 16475 16476 16477 16478 16479 16480 16481 16482 16483 16484 16485 16486 16487 16488 16489 16490 16491 16492 16493 16494 16495 16496 16497 16498 16499 16500 16501 16502 16503 16504 16505 16506 16507 16508 16509 16510 16511 16512 16513 16514 16515 16516 16517 16518 16519 16520 16521 16522 16523 16524 16525 16526 16527 16528 16529 16530 16531 16532 16533 16534 16535 16536 16537 16538 16539 16540 16541 16542 16543 16544 16545 16546 16547 16548 16549 16550 16551 16552 16553 16554 16555 16556 16557 16558 16559 16560 16561 16562 16563 16564 16565 16566 16567 16568 16569 16570 16571 16572 16573 16574 16575 16576 16577 16578 16579 16580 16581 16582 16583 16584 16585 16586 16587 16588 16589 16590 16591 16592 16593 16594 16595 16596 16597 16598 16599 16600 16601 16602 16603 16604 16605 16606 16607 16608 16609 16610 16611 16612 16613 16614 16615 16616 16617 16618 16619 16620 16621 16622 16623 16624 16625 16626 16627 16628 16629 16630 16631 16632 16633 16634 16635 16636 16637 16638 16639 16640 16641 16642 16643 16644 16645 16646 16647 16648 16649 16650 16651 16652 16653 16654 16655 16656 16657 16658 16659 16660 16661 16662 16663 16664 16665 16666 16667 16668 16669 16670 16671 16672 16673 16674 16675 16676 16677 16678 16679 16680 16681 16682 16683 16684 16685 16686 16687 16688 16689 16690 16691 16692 16693 16694 16695 16696 16697 16698 16699 16700 16701 16702 16703 16704 16705 16706 16707 16708 16709 16710 16711 16712 16713 16714 16715 16716 16717 16718 16719 16720 16721 16722 16723 16724 16725 16726 16727 16728 16729 16730 16731 16732 16733 16734 16735 16736 16737 16738 16739 16740 16741 16742 16743 16744 16745 16746 16747 16748 16749 16750 16751 16752 16753 16754 16755 16756 16757 16758 16759 16760 16761 16762 16763 16764 16765 16766 16767 16768 16769 16770 16771 16772 16773 16774 16775 16776 16777 16778 16779 16780 16781 16782 16783 16784 16785 16786 16787 16788 16789 16790 16791 16792 16793 16794 16795 16796 16797 16798 16799 16800 16801 16802 16803 16804 16805 16806 16807 16808 16809 16810 16811 16812 16813 16814 16815 16816 16817 16818 16819 16820 16821 16822 16823 16824 16825 16826 16827 16828 16829 16830 16831 16832 16833 16834 16835 16836 16837 16838 16839 16840 16841 16842 16843 16844 16845 16846 16847 16848 16849 16850 16851 16852 16853 16854 16855 16856 16857 16858 16859 16860 16861 16862 16863 16864 16865 16866 16867 16868 16869 16870 16871 16872 16873 16874 16875 16876 16877 16878 16879 16880 16881 16882 16883 16884 16885 16886 16887 16888 16889 16890 16891 16892 16893 16894 16895 16896 16897 16898 16899 16900 16901 16902 16903 16904 16905 16906 16907 16908 16909 16910 16911 16912 16913 16914 16915 16916 16917 16918 16919 16920 16921 16922 16923 16924 16925 16926 16927 16928 16929 16930 16931 16932 16933 16934 16935 16936 16937 16938 16939 16940 16941 16942 16943 16944 16945 16946 16947 16948 16949 16950 16951 16952 16953 16954 16955 16956 16957 16958 16959 16960 16961 16962 16963 16964 16965 16966 16967 16968 16969 16970 16971 16972 16973 16974 16975 16976 16977 16978 16979 16980 16981 16982 16983 16984 16985 16986 16987 16988 16989 16990 16991 16992 16993 16994 16995 16996 16997 16998 16999 17000 17001 17002 17003 17004 17005 17006 17007 17008 17009 17010 17011 17012 17013 17014 17015 17016 17017 17018 17019 17020 17021 17022 17023 17024 17025 17026 17027 17028 17029 17030 17031 17032 17033 17034 17035 17036 17037 17038 17039 17040 17041 17042 17043 17044 17045 17046 17047 17048 17049 17050 17051 17052 17053 17054 17055 17056 17057 17058 17059 17060 17061 17062 17063 17064 17065 17066 17067 17068 17069 17070 17071 17072 17073 17074 17075 17076 17077 17078 17079 17080 17081 17082 17083 17084 17085 17086 17087 17088 17089 17090 17091 17092 17093 17094 17095 17096 17097 17098 17099 17100 17101 17102 17103 17104 17105 17106 17107 17108 17109 17110 17111 17112 17113 17114 17115 17116 17117 17118 17119 17120 17121 17122 17123 17124 17125 17126 17127 17128 17129 17130 17131 17132 17133 17134 17135 17136 17137 17138 17139 17140 17141 17142 17143 17144 17145 17146 17147 17148 17149 17150 17151 17152 17153 17154 17155 17156 17157 17158 17159 17160 17161 17162 17163 17164 17165 17166 17167 17168 17169 17170 17171 17172 17173 17174 17175 17176 17177 17178 17179 17180 17181 17182 17183 17184 17185 17186 17187 17188 17189 17190 17191 17192 17193 17194 17195 17196 17197 17198 17199 17200 17201 17202 17203 17204 17205 17206 17207 17208 17209 17210 17211 17212 17213 17214 17215 17216 17217 17218 17219 17220 17221 17222 17223 17224 17225 17226 17227 17228 17229 17230 17231 17232 17233 17234 17235 17236 17237 17238 17239 17240 17241 17242 17243 17244 17245 17246 17247 17248 17249 17250 17251 17252 17253 17254 17255 17256 17257 17258 17259 17260 17261 17262 17263 17264 17265 17266 17267 17268 17269 17270 17271 17272 17273 17274 17275 17276 17277 17278 17279 17280 17281 17282 17283 17284 17285 17286 17287 17288 17289 17290 17291 17292 17293 17294 17295 17296 17297 17298 17299 17300 17301 17302 17303 17304 17305 17306 17307 17308 17309 17310 17311 17312 17313 17314 17315 17316 17317 17318 17319 17320 17321 17322 17323 17324 17325 17326 17327 17328 17329 17330 17331 17332 17333 17334 17335 17336 17337 17338 17339 17340 17341 17342 17343 17344 17345 17346 17347 17348 17349 17350 17351 17352 17353 17354 17355 17356 17357 17358 17359 17360 17361 17362 17363 17364 17365 17366 17367 17368 17369 17370 17371 17372 17373 17374 17375 17376 17377 17378 17379 17380 17381 17382 17383 17384 17385 17386 17387 17388 17389 17390 17391 17392 17393 17394 17395 17396 17397 17398 17399 17400 17401 17402 17403 17404 17405 17406 17407 17408 17409 17410 17411 17412 17413 17414 17415 17416 17417 17418 17419 17420 17421 17422 17423 17424 17425 17426 17427 17428 17429 17430 17431 17432 17433 17434 17435 17436 17437 17438 17439 17440 17441 17442 17443 17444 17445 17446 17447 17448 17449 17450 17451 17452 17453 17454 17455 17456 17457 17458 17459 17460 17461 17462 17463 17464 17465 17466 17467 17468 17469 17470 17471 17472 17473 17474 17475 17476 17477 17478 17479 17480 17481 17482 17483 17484 17485 17486 17487 17488 17489 17490 17491 17492 17493 17494 17495 17496 17497 17498 17499 17500 17501 17502 17503 17504 17505 17506 17507 17508 17509 17510 17511 17512 17513 17514 17515 17516 17517 17518 17519 17520 17521 17522 17523 17524 17525 17526 17527 17528 17529 17530 17531 17532 17533 17534 17535 17536 17537 17538 17539 17540 17541 17542 17543 17544 17545 17546 17547 17548 17549 17550 17551 17552 17553 17554 17555 17556 17557 17558 17559 17560 17561 17562 17563 17564 17565 17566 17567 17568 17569 17570 17571 17572 17573 17574 17575 17576 17577 17578 17579 17580 17581 17582 17583 17584 17585 17586 17587 17588 17589 17590 17591 17592 17593 17594 17595 17596 17597 17598 17599 17600 17601 17602 17603 17604 17605 17606 17607 17608 17609 17610 17611 17612 17613 17614 17615 17616 17617 17618 17619 17620 17621 17622 17623 17624 17625 17626 17627 17628 17629 17630 17631 17632 17633 17634 17635 17636 17637 17638 17639 17640 17641 17642 17643 17644 17645 17646 17647 17648 17649 17650 17651 17652 17653 17654 17655 17656 17657 17658 17659 17660 17661 17662 17663 17664 17665 17666 17667 17668 17669 17670 17671 17672 17673 17674 17675 17676 17677 17678 17679 17680 17681 17682 17683 17684 17685 17686 17687 17688 17689 17690 17691 17692 17693 17694 17695 17696 17697 17698 17699 17700 17701 17702 17703 17704 17705 17706 17707 17708 17709 17710 17711 17712 17713 17714 17715 17716 17717 17718 17719 17720 17721 17722 17723 17724 17725 17726 17727 17728 17729 17730 17731 17732 17733 17734 17735 17736 17737 17738 17739 17740 17741 17742 17743 17744 17745 17746 17747 17748 17749 17750 17751 17752 17753 17754 17755 17756 17757 17758 17759 17760 17761 17762 17763 17764 17765 17766 17767 17768 17769 17770 17771 17772 17773 17774 17775 17776 17777 17778 17779 17780 17781 17782 17783 17784 17785 17786 17787 17788 17789 17790 17791 17792 17793 17794 17795 17796 17797 17798 17799 17800 17801 17802 17803 17804 17805 17806 17807 17808 17809 17810 17811 17812 17813 17814 17815 17816 17817 17818 17819 17820 17821 17822 17823 17824 17825 17826 17827 17828 17829 17830 17831 17832 17833 17834 17835 17836 17837 17838 17839 17840 17841 17842 17843 17844 17845 17846 17847 17848 17849 17850 17851 17852 17853 17854 17855 17856 17857 17858 17859 17860 17861 17862 17863 17864 17865 17866 17867 17868 17869 17870 17871 17872 17873 17874 17875 17876 17877 17878 17879 17880 17881 17882 17883 17884 17885 17886 17887 17888 17889 17890 17891 17892 17893 17894 17895 17896 17897 17898 17899 17900 17901 17902 17903 17904 17905 17906 17907 17908 17909 17910 17911 17912 17913 17914 17915 17916 17917 17918 17919 17920 17921 17922 17923 17924 17925 17926 17927 17928 17929 17930 17931 17932 17933 17934 17935 17936 17937 17938 17939 17940 17941 17942 17943 17944 17945 17946 17947 17948 17949 17950 17951 17952 17953 17954 17955 17956 17957 17958 17959 17960 17961 17962 17963 17964 17965 17966 17967 17968 17969 17970 17971 17972 17973 17974 17975 17976 17977 17978 17979 17980 17981 17982 17983 17984 17985 17986 17987 17988 17989 17990 17991 17992 17993 17994 17995 17996 17997 17998 17999 18000 18001 18002 18003 18004 18005 18006 18007 18008 18009 18010 18011 18012 18013 18014 18015 18016 18017 18018 18019 18020 18021 18022 18023 18024 18025 18026 18027 18028 18029 18030 18031 18032 18033 18034 18035 18036 18037 18038 18039 18040 18041 18042 18043 18044 18045 18046 18047 18048 18049 18050 18051 18052 18053 18054 18055 18056 18057 18058 18059 18060 18061 18062 18063 18064 18065 18066 18067 18068 18069 18070 18071 18072 18073 18074 18075 18076 18077 18078 18079 18080 18081 18082 18083 18084 18085 18086 18087 18088 18089 18090 18091 18092 18093 18094 18095 18096 18097 18098 18099 18100 18101 18102 18103 18104 18105 18106 18107 18108 18109 18110 18111 18112 18113 18114 18115 18116 18117 18118 18119 18120 18121 18122 18123 18124 18125 18126 18127 18128 18129 18130 18131 18132 18133 18134 18135 18136 18137 18138 18139 18140 18141 18142 18143 18144 18145 18146 18147 18148 18149 18150 18151 18152 18153 18154 18155 18156 18157 18158 18159 18160 18161 18162 18163 18164 18165 18166 18167 18168 18169 18170 18171 18172 18173 18174 18175 18176 18177 18178 18179 18180 18181 18182 18183 18184 18185 18186 18187 18188 18189 18190 18191 18192 18193 18194 18195 18196 18197 18198 18199 18200 18201 18202 18203 18204 18205 18206 18207 18208 18209 18210 18211 18212 18213 18214 18215 18216 18217 18218 18219 18220 18221 18222 18223 18224 18225 18226 18227 18228 18229 18230 18231 18232 18233 18234 18235 18236 18237 18238 18239 18240 18241 18242 18243 18244 18245 18246 18247 18248 18249 18250 18251 18252 18253 18254 18255 18256 18257 18258 18259 18260 18261 18262 18263 18264 18265 18266 18267 18268 18269 18270 18271 18272 18273 18274 18275 18276 18277 18278 18279 18280 18281 18282 18283 18284 18285 18286 18287 18288 18289 18290 18291 18292 18293 18294 18295 18296 18297 18298 18299 18300 18301 18302 18303 18304 18305 18306 18307 18308 18309 18310 18311 18312 18313 18314 18315 18316 18317 18318 18319 18320 18321 18322 18323 18324 18325 18326 18327 18328 18329 18330 18331 18332 18333 18334 18335 18336 18337 18338 18339 18340 18341 18342 18343 18344 18345 18346 18347 18348 18349 18350 18351 18352 18353 18354 18355 18356 18357 18358 18359 18360 18361 18362 18363 18364 18365 18366 18367 18368 18369 18370 18371 18372 18373 18374 18375 18376 18377 18378 18379 18380 18381 18382 18383 18384 18385 18386 18387 18388 18389 18390 18391 18392 18393 18394 18395 18396 18397 18398 18399 18400 18401 18402 18403 18404 18405 18406 18407 18408 18409 18410 18411 18412 18413 18414 18415 18416 18417 18418 18419 18420 18421 18422 18423 18424 18425 18426 18427 18428 18429 18430 18431 18432 18433 18434 18435 18436 18437 18438 18439 18440 18441 18442 18443 18444 18445 18446 18447 18448 18449 18450 18451 18452 18453 18454 18455 18456 18457 18458 18459 18460 18461 18462 18463 18464 18465 18466 18467 18468 18469 18470 18471 18472 18473 18474 18475 18476 18477 18478 18479 18480 18481 18482 18483 18484 18485 18486 18487 18488 18489 18490 18491 18492 18493 18494 18495 18496 18497 18498 18499 18500 18501 18502 18503 18504 18505 18506 18507 18508 18509 18510 18511 18512 18513 18514 18515 18516 18517 18518 18519 18520 18521 18522 18523 18524 18525 18526 18527 18528 18529 18530 18531 18532 18533 18534 18535 18536 18537 18538 18539 18540 18541 18542 18543 18544 18545 18546 18547 18548 18549 18550 18551 18552 18553 18554 18555 18556 18557 18558 18559 18560 18561 18562 18563 18564 18565 18566 18567 18568 18569 18570 18571 18572 18573 18574 18575 18576 18577 18578 18579 18580 18581 18582 18583 18584 18585 18586 18587 18588 18589 18590 18591 18592 18593 18594 18595 18596 18597 18598 18599 18600 18601 18602 18603 18604 18605 18606 18607 18608 18609 18610 18611 18612 18613 18614 18615 18616 18617 18618 18619 18620 18621 18622 18623 18624 18625 18626 18627 18628 18629 18630 18631 18632 18633 18634 18635 18636 18637 18638 18639 18640 18641 18642 18643 18644 18645 18646 18647 18648 18649 18650 18651 18652 18653 18654 18655 18656 18657 18658 18659 18660 18661 18662 18663 18664 18665 18666 18667 18668 18669 18670 18671 18672 18673 18674 18675 18676 18677 18678 18679 18680 18681 18682 18683 18684 18685 18686 18687 18688 18689 18690 18691 18692 18693 18694 18695 18696 18697 18698 18699 18700 18701 18702 18703 18704 18705 18706 18707 18708 18709 18710 18711 18712 18713 18714 18715 18716 18717 18718 18719 18720 18721 18722 18723 18724 18725 18726 18727 18728 18729 18730 18731 18732 18733 18734 18735 18736 18737 18738 18739 18740 18741 18742 18743 18744 18745 18746 18747 18748 18749 18750 18751 18752 18753 18754 18755 18756 18757 18758 18759 18760 18761 18762 18763 18764 18765 18766 18767 18768 18769 18770 18771 18772 18773 18774 18775 18776 18777 18778 18779 18780 18781 18782 18783 18784 18785 18786 18787 18788 18789 18790 18791 18792 18793 18794 18795 18796 18797 18798 18799 18800 18801 18802 18803 18804 18805 18806 18807 18808 18809 18810 18811 18812 18813 18814 18815 18816 18817 18818 18819 18820 18821 18822 18823 18824 18825 18826 18827 18828 18829 18830 18831 18832 18833 18834 18835 18836 18837 18838 18839 18840 18841 18842 18843 18844 18845 18846 18847 18848 18849 18850 18851 18852 18853 18854 18855 18856 18857 18858 18859 18860 18861 18862 18863 18864 18865 18866 18867 18868 18869 18870 18871 18872 18873 18874 18875 18876 18877 18878 18879 18880 18881 18882 18883 18884 18885 18886 18887 18888 18889 18890 18891 18892 18893 18894 18895 18896 18897 18898 18899 18900 18901 18902 18903 18904 18905 18906 18907 18908 18909 18910 18911 18912 18913 18914 18915 18916 18917 18918 18919 18920 18921 18922 18923 18924 18925 18926 18927 18928 18929 18930 18931 18932 18933 18934 18935 18936 18937 18938 18939 18940 18941 18942 18943 18944 18945 18946 18947 18948 18949 18950 18951 18952 18953 18954 18955 18956 18957 18958 18959 18960 18961 18962 18963 18964 18965 18966 18967 18968 18969 18970 18971 18972 18973 18974 18975 18976 18977 18978 18979 18980 18981 18982 18983 18984 18985 18986 18987 18988 18989 18990 18991 18992 18993 18994 18995 18996 18997 18998 18999 19000 19001 19002 19003 19004 19005 19006 19007 19008 19009 19010 19011 19012 19013 19014 19015 19016 19017 19018 19019 19020 19021 19022 19023 19024 19025 19026 19027 19028 19029 19030 19031 19032 19033 19034 19035 19036 19037 19038 19039 19040 19041 19042 19043 19044 19045 19046 19047 19048 19049 19050 19051 19052 19053 19054 19055 19056 19057 19058 19059 19060 19061 19062 19063 19064 19065 19066 19067 19068 19069 19070 19071 19072 19073 19074 19075 19076 19077 19078 19079 19080 19081 19082 19083 19084 19085 19086 19087 19088 19089 19090 19091 19092 19093 19094 19095 19096 19097 19098 19099 19100 19101 19102 19103 19104 19105 19106 19107 19108 19109 19110 19111 19112 19113 19114 19115 19116 19117 19118 19119 19120 19121 19122 19123 19124 19125 19126 19127 19128 19129 19130 19131 19132 19133 19134 19135 19136 19137 19138 19139 19140 19141 19142 19143 19144 19145 19146 19147 19148 19149 19150 19151 19152 19153 19154 19155 19156 19157 19158 19159 19160 19161 19162 19163 19164 19165 19166 19167 19168 19169 19170 19171 19172 19173 19174 19175 19176 19177 19178 19179 19180 19181 19182 19183 19184 19185 19186 19187 19188 19189 19190 19191 19192 19193 19194 19195 19196 19197 19198 19199 19200 19201 19202 19203 19204 19205 19206 19207 19208 19209 19210 19211 19212 19213 19214 19215 19216 19217 19218 19219 19220 19221 19222 19223 19224 19225 19226 19227 19228 19229 19230 19231 19232 19233 19234 19235 19236 19237 19238 19239 19240 19241 19242 19243 19244 19245 19246 19247 19248 19249 19250 19251 19252 19253 19254 19255 19256 19257 19258 19259 19260 19261 19262 19263 19264 19265 19266 19267 19268 19269 19270 19271 19272 19273 19274 19275 19276 19277 19278 19279 19280 19281 19282 19283 19284 19285 19286 19287 19288 19289 19290 19291 19292 19293 19294 19295 19296 19297 19298 19299 19300 19301 19302 19303 19304 19305 19306 19307 19308 19309 19310 19311 19312 19313 19314 19315 19316 19317 19318 19319 19320 19321 19322 19323 19324 19325 19326 19327 19328 19329 19330 19331 19332 19333 19334 19335 19336 19337 19338 19339 19340 19341 19342 19343 19344 19345 19346 19347 19348 19349 19350 19351 19352 19353 19354 19355 19356 19357 19358 19359 19360 19361 19362 19363 19364 19365 19366 19367 19368 19369 19370 19371 19372 19373 19374 19375 19376 19377 19378 19379 19380 19381 19382 19383 19384 19385 19386 19387 19388 19389 19390 19391 19392 19393 19394 19395 19396 19397 19398 19399 19400 19401 19402 19403 19404 19405 19406 19407 19408 19409 19410 19411 19412 19413 19414 19415 19416 19417 19418 19419 19420 19421 19422 19423 19424 19425 19426 19427 19428 19429 19430 19431 19432 19433 19434 19435 19436 19437 19438 19439 19440 19441 19442 19443 19444 19445 19446 19447 19448 19449 19450 19451 19452 19453 19454 19455 19456 19457 19458 19459 19460 19461 19462 19463 19464 19465 19466 19467 19468 19469 19470 19471 19472 19473 19474 19475 19476 19477 19478 19479 19480 19481 19482 19483 19484 19485 19486 19487 19488 19489 19490 19491 19492 19493 19494 19495 19496 19497 19498 19499 19500 19501 19502 19503 19504 19505 19506 19507 19508 19509 19510 19511 19512 19513 19514 19515 19516 19517 19518 19519 19520 19521 19522 19523 19524 19525 19526 19527 19528 19529 19530 19531 19532 19533 19534 19535 19536 19537 19538 19539 19540 19541 19542 19543 19544 19545 19546 19547 19548 19549 19550 19551 19552 19553 19554 19555 19556 19557 19558 19559 19560 19561 19562 19563 19564 19565 19566 19567 19568 19569 19570 19571 19572 19573 19574 19575 19576 19577 19578 19579 19580 19581 19582 19583 19584 19585 19586 19587 19588 19589 19590 19591 19592 19593 19594 19595 19596 19597 19598 19599 19600 19601 19602 19603 19604 19605 19606 19607 19608 19609 19610 19611 19612 19613 19614 19615 19616 19617 19618 19619 19620 19621 19622 19623 19624 19625 19626 19627 19628 19629 19630 19631 19632 19633 19634 19635 19636 19637 19638 19639 19640 19641 19642 19643 19644 19645 19646 19647 19648 19649 19650 19651 19652 19653 19654 19655 19656 19657 19658 19659 19660 19661 19662 19663 19664 19665 19666 19667 19668 19669 19670 19671 19672 19673 19674 19675 19676 19677 19678 19679 19680 19681 19682 19683 19684 19685 19686 19687 19688 19689 19690 19691 19692 19693 19694 19695 19696 19697 19698 19699 19700 19701 19702 19703 19704 19705 19706 19707 19708 19709 19710 19711 19712 19713 19714 19715 19716 19717 19718 19719 19720 19721 19722 19723 19724 19725 19726 19727 19728 19729 19730 19731 19732 19733 19734 19735 19736 19737 19738 19739 19740 19741 19742 19743 19744 19745 19746 19747 19748 19749 19750 19751 19752 19753 19754 19755 19756 19757 19758 19759 19760 19761 19762 19763 19764 19765 19766 19767 19768 19769 19770 19771 19772 19773 19774 19775 19776 19777 19778 19779 19780 19781 19782 19783 19784 19785 19786 19787 19788 19789 19790 19791 19792 19793 19794 19795 19796 19797 19798 19799 19800 19801 19802 19803 19804 19805 19806 19807 19808 19809 19810 19811 19812 19813 19814 19815 19816 19817 19818 19819 19820 19821 19822 19823 19824 19825 19826 19827 19828 19829 19830 19831 19832 19833 19834 19835 19836 19837 19838 19839 19840 19841 19842 19843 19844 19845 19846 19847 19848 19849 19850 19851 19852 19853 19854 19855 19856 19857 19858 19859 19860 19861 19862 19863 19864 19865 19866 19867 19868 19869 19870 19871 19872 19873 19874 19875 19876 19877 19878 19879 19880 19881 19882 19883 19884 19885 19886 19887 19888 19889 19890 19891 19892 19893 19894 19895 19896 19897 19898 19899 19900 19901 19902 19903 19904 19905 19906 19907 19908 19909 19910 19911 19912 19913 19914 19915 19916 19917 19918 19919 19920 19921 19922 19923 19924 19925 19926 19927 19928 19929 19930 19931 19932 19933 19934 19935 19936 19937 19938 19939 19940 19941 19942 19943 19944 19945 19946 19947 19948 19949 19950 19951 19952 19953 19954 19955 19956 19957 19958 19959 19960 19961 19962 19963 19964 19965 19966 19967 19968 19969 19970 19971 19972 19973 19974 19975 19976 19977 19978 19979 19980 19981 19982 19983 19984 19985 19986 19987 19988 19989 19990 19991 19992 19993 19994 19995 19996 19997 19998 19999 20000 20001 20002 20003 20004 20005 20006 20007 20008 20009 20010 20011 20012 20013 20014 20015 20016 20017 20018 20019 20020 20021 20022 20023 20024 20025 20026 20027 20028 20029 20030 20031 20032 20033 20034 20035 20036 20037 20038 20039 20040 20041 20042 20043 20044 20045 20046 20047 20048 20049 20050 20051 20052 20053 20054 20055 20056 20057 20058 20059 20060 20061 20062 20063 20064 20065 20066 20067 20068 20069 20070 20071 20072 20073 20074 20075 20076 20077 20078 20079 20080 20081 20082 20083 20084 20085 20086 20087 20088 20089 20090 20091 20092 20093 20094 20095 20096 20097 20098 20099 20100 20101 20102 20103 20104 20105 20106 20107 20108 20109 20110 20111 20112 20113 20114 20115 20116 20117 20118 20119 20120 20121 20122 20123 20124 20125 20126 20127 20128 20129 20130 20131 20132 20133 20134 20135 20136 20137 20138 20139 20140 20141 20142 20143 20144 20145 20146 20147 20148 20149 20150 20151 20152 20153 20154 20155 20156 20157 20158 20159 20160 20161 20162 20163 20164 20165 20166 20167 20168 20169 20170 20171 20172 20173 20174 20175 20176 20177 20178 20179 20180 20181 20182 20183 20184 20185 20186 20187 20188 20189 20190 20191 20192 20193 20194 20195 20196 20197 20198 20199 20200 20201 20202 20203 20204 20205 20206 20207 20208 20209 20210 20211 20212 20213 20214 20215 20216 20217 20218 20219 20220 20221 20222 20223 20224 20225 20226 20227 20228 20229 20230 20231 20232 20233 20234 20235 20236 20237 20238 20239 20240 20241 20242 20243 20244 20245 20246 20247 20248 20249 20250 20251 20252 20253 20254 20255 20256 20257 20258 20259 20260 20261 20262 20263 20264 20265 20266 20267 20268 20269 20270 20271 20272 20273 20274 20275 20276 20277 20278 20279 20280 20281 20282 20283 20284 20285 20286 20287 20288 20289 20290 20291 20292 20293 20294 20295 20296 20297 20298 20299 20300 20301 20302 20303 20304 20305 20306 20307 20308 20309 20310 20311 20312 20313 20314 20315 20316 20317 20318 20319 20320 20321 20322 20323 20324 20325 20326 20327 20328 20329 20330 20331 20332 20333 20334 20335 20336 20337 20338 20339 20340 20341 20342 20343 20344 20345 20346 20347 20348 20349 20350 20351 20352 20353 20354 20355 20356 20357 20358 20359 20360 20361 20362 20363 20364 20365 20366 20367 20368 20369 20370 20371 20372 20373 20374 20375 20376 20377 20378 20379 20380 20381 20382 20383 20384 20385 20386 20387 20388 20389 20390 20391 20392 20393 20394 20395 20396 20397 20398 20399 20400 20401 20402 20403 20404 20405 20406 20407 20408 20409 20410 20411 20412 20413 20414 20415 20416 20417 20418 20419 20420 20421 20422 20423 20424 20425 20426 20427 20428 20429 20430 20431 20432 20433 20434 20435 20436 20437 20438 20439 20440 20441 20442 20443 20444 20445 20446 20447 20448 20449 20450 20451 20452 20453 20454 20455 20456 20457 20458 20459 20460 20461 20462 20463 20464 20465 20466 20467 20468 20469 20470 20471 20472 20473 20474 20475 20476 20477 20478 20479 20480 20481 20482 20483 20484 20485 20486 20487 20488 20489 20490 20491 20492 20493 20494 20495 20496 20497 20498 20499 20500 20501 20502 20503 20504 20505 20506 20507 20508 20509 20510 20511 20512 20513 20514 20515 20516 20517 20518 20519 20520 20521 20522 20523 20524 20525 20526 20527 20528 20529 20530 20531 20532 20533 20534 20535 20536 20537 20538 20539 20540 20541 20542 20543 20544 20545 20546 20547 20548 20549 20550 20551 20552 20553 20554 20555 20556 20557 20558 20559 20560 20561 20562 20563 20564 20565 20566 20567 20568 20569 20570 20571 20572 20573 20574 20575 20576 20577 20578 20579 20580 20581 20582 20583 20584 20585 20586 20587 20588 20589 20590 20591 20592 20593 20594 20595 20596 20597 20598 20599 20600 20601 20602 20603 20604 20605 20606 20607 20608 20609 20610 20611 20612 20613 20614 20615 20616 20617 20618 20619 20620 20621 20622 20623 20624 20625 20626 20627 20628 20629 20630 20631 20632 20633 20634 20635 20636 20637 20638 20639 20640 20641 20642 20643 20644 20645 20646 20647 20648 20649 20650 20651 20652 20653 20654 20655 20656 20657 20658 20659 20660 20661 20662 20663 20664 20665 20666 20667 20668 20669 20670 20671 20672 20673 20674 20675 20676 20677 20678 20679 20680 20681 20682 20683 20684 20685 20686 20687 20688 20689 20690 20691 20692 20693 20694 20695 20696 20697 20698 20699 20700 20701 20702 20703 20704 20705 20706 20707 20708 20709 20710 20711 20712 20713 20714 20715 20716 20717 20718 20719 20720 20721 20722 20723 20724 20725 20726 20727 20728 20729 20730 20731 20732 20733 20734 20735 20736 20737 20738 20739 20740 20741 20742 20743 20744 20745 20746 20747 20748 20749 20750 20751 20752 20753 20754 20755 20756 20757 20758 20759 20760 20761 20762 20763 20764 20765 20766 20767 20768 20769 20770 20771 20772 20773 20774 20775 20776 20777 20778 20779 20780 20781 20782 20783 20784 20785 20786 20787 20788 20789 20790 20791 20792 20793 20794 20795 20796 20797 20798 20799 20800 20801 20802 20803 20804 20805 20806 20807 20808 20809 20810 20811 20812 20813 20814 20815 20816 20817 20818 20819 20820 20821 20822 20823 20824 20825 20826 20827 20828 20829 20830 20831 20832 20833 20834 20835 20836 20837 20838 20839 20840 20841 20842 20843 20844 20845 20846 20847 20848 20849 20850 20851 20852 20853 20854 20855 20856 20857 20858 20859 20860 20861 20862 20863 20864 20865 20866 20867 20868 20869 20870 20871 20872 20873 20874 20875 20876 20877 20878 20879 20880 20881 20882 20883 20884 20885 20886 20887 20888 20889 20890 20891 20892 20893 20894 20895 20896 20897 20898 20899 20900 20901 20902 20903 20904 20905 20906 20907 20908 20909 20910 20911 20912 20913 20914 20915 20916 20917 20918 20919 20920 20921 20922 20923 20924 20925 20926 20927 20928 20929 20930 20931 20932 20933 20934 20935 20936 20937 20938 20939 20940 20941 20942 20943 20944 20945 20946 20947 20948 20949 20950 20951 20952 20953 20954 20955 20956 20957 20958 20959 20960 20961 20962 20963 20964 20965 20966 20967 20968 20969 20970 20971 20972 20973 20974 20975 20976 20977 20978 20979 20980 20981 20982 20983 20984 20985 20986 20987 20988 20989 20990 20991 20992 20993 20994 20995 20996 20997 20998 20999 21000 21001 21002 21003 21004 21005 21006 21007 21008 21009 21010 21011 21012 21013 21014 21015 21016 21017 21018 21019 21020 21021 21022 21023 21024 21025 21026 21027 21028 21029 21030 21031 21032 21033 21034 21035 21036 21037 21038 21039 21040 21041 21042 21043 21044 21045 21046 21047 21048 21049 21050 21051 21052 21053 21054 21055 21056 21057 21058 21059 21060 21061 21062 21063 21064 21065 21066 21067 21068 21069 21070 21071 21072 21073 21074 21075 21076 21077 21078 21079 21080 21081 21082 21083 21084 21085 21086 21087 21088 21089 21090 21091 21092 21093 21094 21095 21096 21097 21098 21099 21100 21101 21102 21103 21104 21105 21106 21107 21108 21109 21110 21111 21112 21113 21114 21115 21116 21117 21118 21119 21120 21121 21122 21123 21124 21125 21126 21127 21128 21129 21130 21131 21132 21133 21134 21135 21136 21137 21138 21139 21140 21141 21142 21143 21144 21145 21146 21147 21148 21149 21150 21151 21152 21153 21154 21155 21156 21157 21158 21159 21160 21161 21162 21163 21164 21165 21166 21167 21168 21169 21170 21171 21172 21173 21174 21175 21176 21177 21178 21179 21180 21181 21182 21183 21184 21185 21186 21187 21188 21189 21190 21191 21192 21193 21194 21195 21196 21197 21198 21199 21200 21201 21202 21203 21204 21205 21206 21207 21208 21209 21210 21211 21212 21213 21214 21215 21216 21217 21218 21219 21220 21221 21222 21223 21224 21225 21226 21227 21228 21229 21230 21231 21232 21233 21234 21235 21236 21237 21238 21239 21240 21241 21242 21243 21244 21245 21246 21247 21248 21249 21250 21251 21252 21253 21254 21255 21256 21257 21258 21259 21260 21261 21262 21263 21264 21265 21266 21267 21268 21269 21270 21271 21272 21273 21274 21275 21276 21277 21278 21279 21280 21281 21282 21283 21284 21285 21286 21287 21288 21289 21290 21291 21292 21293 21294 21295 21296 21297 21298 21299 21300 21301 21302 21303 21304 21305 21306 21307 21308 21309 21310 21311 21312 21313 21314 21315 21316 21317 21318 21319 21320 21321 21322 21323 21324 21325 21326 21327 21328 21329 21330 21331 21332 21333 21334 21335 21336 21337 21338 21339 21340 21341 21342 21343 21344 21345 21346 21347 21348 21349 21350 21351 21352 21353 21354 21355 21356 21357 21358 21359 21360 21361 21362 21363 21364 21365 21366 21367 21368 21369 21370 21371 21372 21373 21374 21375 21376 21377 21378 21379 21380 21381 21382 21383 21384 21385 21386 21387 21388 21389 21390 21391 21392 21393 21394 21395 21396 21397 21398 21399 21400 21401 21402 21403 21404 21405 21406 21407 21408 21409 21410 21411 21412 21413 21414 21415 21416 21417 21418 21419 21420 21421 21422 21423 21424 21425 21426 21427 21428 21429 21430 21431 21432 21433 21434 21435 21436 21437 21438 21439 21440 21441 21442 21443 21444 21445 21446 21447 21448 21449 21450 21451 21452 21453 21454 21455 21456 21457 21458 21459 21460 21461 21462 21463 21464 21465 21466 21467 21468 21469 21470 21471 21472 21473 21474 21475 21476 21477 21478 21479 21480 21481 21482 21483 21484 21485 21486 21487 21488 21489 21490 21491 21492 21493 21494 21495 21496 21497 21498 21499 21500 21501 21502 21503 21504 21505 21506 21507 21508 21509 21510 21511 21512 21513 21514 21515 21516 21517 21518 21519 21520 21521 21522 21523 21524 21525 21526 21527 21528 21529 21530 21531 21532 21533 21534 21535 21536 21537 21538 21539 21540 21541 21542 21543 21544 21545 21546 21547 21548 21549 21550 21551 21552 21553 21554 21555 21556 21557 21558 21559 21560 21561 21562 21563 21564 21565 21566 21567 21568 21569 21570 21571 21572 21573 21574 21575 21576 21577 21578 21579 21580 21581 21582 21583 21584 21585 21586 21587 21588 21589 21590 21591 21592 21593 21594 21595 21596 21597 21598 21599 21600 21601 21602 21603 21604 21605 21606 21607 21608 21609 21610 21611 21612 21613 21614 21615 21616 21617 21618 21619 21620 21621 21622 21623 21624 21625 21626 21627 21628 21629 21630 21631 21632 21633 21634 21635 21636 21637 21638 21639 21640 21641 21642 21643 21644 21645 21646 21647 21648 21649 21650 21651 21652 21653 21654 21655 21656 21657 21658 21659 21660 21661 21662 21663 21664 21665 21666 21667 21668 21669 21670 21671 21672 21673 21674 21675 21676 21677 21678 21679 21680 21681 21682 21683 21684 21685 21686 21687 21688 21689 21690 21691 21692 21693 21694 21695 21696 21697 21698 21699 21700 21701 21702 21703 21704 21705 21706 21707 21708 21709 21710 21711 21712 21713 21714 21715 21716 21717 21718 21719 21720 21721 21722 21723 21724 21725 21726 21727 21728 21729 21730 21731 21732 21733 21734 21735 21736 21737 21738 21739 21740 21741 21742 21743 21744 21745 21746 21747 21748 21749 21750 21751 21752 21753 21754 21755 21756 21757 21758 21759 21760 21761 21762 21763 21764 21765 21766 21767 21768 21769 21770 21771 21772 21773 21774 21775 21776 21777 21778 21779 21780 21781 21782 21783 21784 21785 21786 21787 21788 21789 21790 21791 21792 21793 21794 21795 21796 21797 21798 21799 21800 21801 21802 21803 21804 21805 21806 21807 21808 21809 21810 21811 21812 21813 21814 21815 21816 21817 21818 21819 21820 21821 21822 21823 21824 21825 21826 21827 21828 21829 21830 21831 21832 21833 21834 21835 21836 21837 21838 21839 21840 21841 21842 21843 21844 21845 21846 21847 21848 21849 21850 21851 21852 21853 21854 21855 21856 21857 21858 21859 21860 21861 21862 21863 21864 21865 21866 21867 21868 21869 21870 21871 21872 21873 21874 21875 21876 21877 21878 21879 21880 21881 21882 21883 21884 21885 21886 21887 21888 21889 21890 21891 21892 21893 21894 21895 21896 21897 21898 21899 21900 21901 21902 21903 21904 21905 21906 21907 21908 21909 21910 21911 21912 21913 21914 21915 21916 21917 21918 21919 21920 21921 21922 21923 21924 21925 21926 21927 21928 21929 21930 21931 21932 21933 21934 21935 21936 21937 21938 21939 21940 21941 21942 21943 21944 21945 21946 21947 21948 21949 21950 21951 21952 21953 21954 21955 21956 21957 21958 21959 21960 21961 21962 21963 21964 21965 21966 21967 21968 21969 21970 21971 21972 21973 21974 21975 21976 21977 21978 21979 21980 21981 21982 21983 21984 21985 21986 21987 21988 21989 21990 21991 21992 21993 21994 21995 21996 21997 21998 21999 22000 22001 22002 22003 22004 22005 22006 22007 22008 22009 22010 22011 22012 22013 22014 22015 22016 22017 22018 22019 22020 22021 22022 22023 22024 22025 22026 22027 22028 22029 22030 22031 22032 22033 22034 22035 22036 22037 22038 22039 22040 22041 22042 22043 22044 22045 22046 22047 22048 22049 22050 22051 22052 22053 22054 22055 22056 22057 22058 22059 22060 22061 22062 22063 22064 22065 22066 22067 22068 22069 22070 22071 22072 22073 22074 22075 22076 22077 22078 22079 22080 22081 22082 22083 22084 22085 22086 22087 22088 22089 22090 22091 22092 22093 22094 22095 22096 22097 22098 22099 22100 22101 22102 22103 22104 22105 22106 22107 22108 22109 22110 22111 22112 22113 22114 22115 22116 22117 22118 22119 22120 22121 22122 22123 22124 22125 22126 22127 22128 22129 22130 22131 22132 22133 22134 22135 22136 22137 22138 22139 22140 22141 22142 22143 22144 22145 22146 22147 22148 22149 22150 22151 22152 22153 22154 22155 22156 22157 22158 22159 22160 22161 22162 22163 22164 22165 22166 22167 22168 22169 22170 22171 22172 22173 22174 22175 22176 22177 22178 22179 22180 22181 22182 22183 22184 22185 22186 22187 22188 22189 22190 22191 22192 22193 22194 22195 22196 22197 22198 22199 22200 22201 22202 22203 22204 22205 22206 22207 22208 22209 22210 22211 22212 22213 22214 22215 22216 22217 22218 22219 22220 22221 22222 22223 22224 22225 22226 22227 22228 22229 22230 22231 22232 22233 22234 22235 22236 22237 22238 22239 22240 22241 22242 22243 22244 22245 22246 22247 22248 22249 22250 22251 22252 22253 22254 22255 22256 22257 22258 22259 22260 22261 22262 22263 22264 22265 22266 22267 22268 22269 22270 22271 22272 22273 22274 22275 22276 22277 22278 22279 22280 22281 22282 22283 22284 22285 22286 22287 22288 22289 22290 22291 22292 22293 22294 22295 22296 22297 22298 22299 22300 22301 22302 22303 22304 22305 22306 22307 22308 22309 22310 22311 22312 22313 22314 22315 22316 22317 22318 22319 22320 22321 22322 22323 22324 22325 22326 22327 22328 22329 22330 22331 22332 22333 22334 22335 22336 22337 22338 22339 22340 22341 22342 22343 22344 22345 22346 22347 22348 22349 22350 22351 22352 22353 22354 22355 22356 22357 22358 22359 22360 22361 22362 22363 22364 22365 22366 22367 22368 22369 22370 22371 22372 22373 22374 22375 22376 22377 22378 22379 22380 22381 22382 22383 22384 22385 22386 22387 22388 22389 22390 22391 22392 22393 22394 22395 22396 22397 22398 22399 22400 22401 22402 22403 22404 22405 22406 22407 22408 22409 22410 22411 22412 22413 22414 22415 22416 22417 22418 22419 22420 22421 22422 22423 22424 22425 22426 22427 22428 22429 22430 22431 22432 22433 22434 22435 22436 22437 22438 22439 22440 22441 22442 22443 22444 22445 22446 22447 22448 22449 22450 22451 22452 22453 22454 22455 22456 22457 22458 22459 22460 22461 22462 22463 22464 22465 22466 22467 22468 22469 22470 22471 22472 22473 22474 22475 22476 22477 22478 22479 22480 22481 22482 22483 22484 22485 22486 22487 22488 22489 22490 22491 22492 22493 22494 22495 22496 22497 22498 22499 22500 22501 22502 22503 22504 22505 22506 22507 22508 22509 22510 22511 22512 22513 22514 22515 22516 22517 22518 22519 22520 22521 22522 22523 22524 22525 22526 22527 22528 22529 22530 22531 22532 22533 22534 22535 22536 22537 22538 22539 22540 22541 22542 22543 22544 22545 22546 22547 22548 22549 22550 22551 22552 22553 22554 22555 22556 22557 22558 22559 22560 22561 22562 22563 22564 22565 22566 22567 22568 22569 22570 22571 22572 22573 22574 22575 22576 22577 22578 22579 22580 22581 22582 22583 22584 22585 22586 22587 22588 22589 22590 22591 22592 22593 22594 22595 22596 22597 22598 22599 22600 22601 22602 22603 22604 22605 22606 22607 22608 22609 22610 22611 22612 22613 22614 22615 22616 22617 22618 22619 22620 22621 22622 22623 22624 22625 22626 22627 22628 22629 22630 22631 22632 22633 22634 22635 22636 22637 22638 22639 22640 22641 22642 22643 22644 22645 22646 22647 22648 22649 22650 22651 22652 22653 22654 22655 22656 22657 22658 22659 22660 22661 22662 22663 22664 22665 22666 22667 22668 22669 22670 22671 22672 22673 22674 22675 22676 22677 22678 22679 22680 22681 22682 22683 22684 22685 22686 22687 22688 22689 22690 22691 22692 22693 22694 22695 22696 22697 22698 22699 22700 22701 22702 22703 22704 22705 22706 22707 22708 22709 22710 22711 22712 22713 22714 22715 22716 22717 22718 22719 22720 22721 22722 22723 22724 22725 22726 22727 22728 22729 22730 22731 22732 22733 22734 22735 22736 22737 22738 22739 22740 22741 22742 22743 22744 22745 22746 22747 22748 22749 22750 22751 22752 22753 22754 22755 22756 22757 22758 22759 22760 22761 22762 22763 22764 22765 22766 22767 22768 22769 22770 22771 22772 22773 22774 22775 22776 22777 22778 22779 22780 22781 22782 22783 22784 22785 22786 22787 22788 22789 22790 22791 22792 22793 22794 22795 22796 22797 22798 22799 22800 22801 22802 22803 22804 22805 22806 22807 22808 22809 22810 22811 22812 22813 22814 22815 22816 22817 22818 22819 22820 22821 22822 22823 22824 22825 22826 22827 22828 22829 22830 22831 22832 22833 22834 22835 22836 22837 22838 22839 22840 22841 22842 22843 22844 22845 22846 22847 22848 22849 22850 22851 22852 22853 22854 22855 22856 22857 22858 22859 22860 22861 22862 22863 22864 22865 22866 22867 22868 22869 22870 22871 22872 22873 22874 22875 22876 22877 22878 22879 22880 22881 22882 22883 22884 22885 22886 22887 22888 22889 22890 22891 22892 22893 22894 22895 22896 22897 22898 22899 22900 22901 22902 22903 22904 22905 22906 22907 22908 22909 22910 22911 22912 22913 22914 22915 22916 22917 22918 22919 22920 22921 22922 22923 22924 22925 22926 22927 22928 22929 22930 22931 22932 22933 22934 22935 22936 22937 22938 22939 22940 22941 22942 22943 22944 22945 22946 22947 22948 22949 22950 22951 22952 22953 22954 22955 22956 22957 22958 22959 22960 22961 22962 22963 22964 22965 22966 22967 22968 22969 22970 22971 22972 22973 22974 22975 22976 22977 22978 22979 22980 22981 22982 22983 22984 22985 22986 22987 22988 22989 22990 22991 22992 22993 22994 22995 22996 22997 22998 22999 23000 23001 23002 23003 23004 23005 23006 23007 23008 23009 23010 23011 23012 23013 23014 23015 23016 23017 23018 23019 23020 23021 23022 23023 23024 23025 23026 23027 23028 23029 23030 23031 23032 23033 23034 23035 23036 23037 23038 23039 23040 23041 23042 23043 23044 23045 23046 23047 23048 23049 23050 23051 23052 23053 23054 23055 23056 23057 23058 23059 23060 23061 23062 23063 23064 23065 23066 23067 23068 23069 23070 23071 23072 23073 23074 23075 23076 23077 23078 23079 23080 23081 23082 23083 23084 23085 23086 23087 23088 23089 23090 23091 23092 23093 23094 23095 23096 23097 23098 23099 23100 23101 23102 23103 23104 23105 23106 23107 23108 23109 23110 23111 23112 23113 23114 23115 23116 23117 23118 23119 23120 23121 23122 23123 23124 23125 23126 23127 23128 23129 23130 23131 23132 23133 23134 23135 23136 23137 23138 23139 23140 23141 23142 23143 23144 23145 23146 23147 23148 23149 23150 23151 23152 23153 23154 23155 23156 23157 23158 23159 23160 23161 23162 23163 23164 23165 23166 23167 23168 23169 23170 23171 23172 23173 23174 23175 23176 23177 23178 23179 23180 23181 23182 23183 23184 23185 23186 23187 23188 23189 23190 23191 23192 23193 23194 23195 23196 23197 23198 23199 23200 23201 23202 23203 23204 23205 23206 23207 23208 23209 23210 23211 23212 23213 23214 23215 23216 23217 23218 23219 23220 23221 23222 23223 23224 23225 23226 23227 23228 23229 23230 23231 23232 23233 23234 23235 23236 23237 23238 23239 23240 23241 23242 23243 23244 23245 23246 23247 23248 23249 23250 23251 23252 23253 23254 23255 23256 23257 23258 23259 23260 23261 23262 23263 23264 23265 23266 23267 23268 23269 23270 23271 23272 23273 23274 23275 23276 23277 23278 23279 23280 23281 23282 23283 23284 23285 23286 23287 23288 23289 23290 23291 23292 23293 23294 23295 23296 23297 23298 23299 23300 23301 23302 23303 23304 23305 23306 23307 23308 23309 23310 23311 23312 23313 23314 23315 23316 23317 23318 23319 23320 23321 23322 23323 23324 23325 23326 23327 23328 23329 23330 23331 23332 23333 23334 23335 23336 23337 23338 23339 23340 23341 23342 23343 23344 23345 23346 23347 23348 23349 23350 23351 23352 23353 23354 23355 23356 23357 23358 23359 23360 23361 23362 23363 23364 23365 23366 23367 23368 23369 23370 23371 23372 23373 23374 23375 23376 23377 23378 23379 23380 23381 23382 23383 23384 23385 23386 23387 23388 23389 23390 23391 23392 23393 23394 23395 23396 23397 23398 23399 23400 23401 23402 23403 23404 23405 23406 23407 23408 23409 23410 23411 23412 23413 23414 23415 23416 23417 23418 23419 23420 23421 23422 23423 23424 23425 23426 23427 23428 23429 23430 23431 23432 23433 23434 23435 23436 23437 23438 23439 23440 23441 23442 23443 23444 23445 23446 23447 23448 23449 23450 23451 23452 23453 23454 23455 23456 23457 23458 23459 23460 23461 23462 23463 23464 23465 23466 23467 23468 23469 23470 23471 23472 23473 23474 23475 23476 23477 23478 23479 23480 23481 23482 23483 23484 23485 23486 23487 23488 23489 23490 23491 23492 23493 23494 23495 23496 23497 23498 23499 23500 23501 23502 23503 23504 23505 23506 23507 23508 23509 23510 23511 23512 23513 23514 23515 23516 23517 23518 23519 23520 23521 23522 23523 23524 23525 23526 23527 23528 23529 23530 23531 23532 23533 23534 23535 23536 23537 23538 23539 23540 23541 23542 23543 23544 23545 23546 23547 23548 23549 23550 23551 23552 23553 23554 23555 23556 23557 23558 23559 23560 23561 23562 23563 23564 23565 23566 23567 23568 23569 23570 23571 23572 23573 23574 23575 23576 23577 23578 23579 23580 23581 23582 23583 23584 23585 23586 23587 23588 23589 23590 23591 23592 23593 23594 23595 23596 23597 23598 23599 23600 23601 23602 23603 23604 23605 23606 23607 23608 23609 23610 23611 23612 23613 23614 23615 23616 23617 23618 23619 23620 23621 23622 23623 23624 23625 23626 23627 23628 23629 23630 23631 23632 23633 23634 23635 23636 23637 23638 23639 23640 23641 23642 23643 23644 23645 23646 23647 23648 23649 23650 23651 23652 23653 23654 23655 23656 23657 23658 23659 23660 23661 23662 23663 23664 23665 23666 23667 23668 23669 23670 23671 23672 23673 23674 23675 23676 23677 23678 23679 23680 23681 23682 23683 23684 23685 23686 23687 23688 23689 23690 23691 23692 23693 23694 23695 23696 23697 23698 23699 23700 23701 23702 23703 23704 23705 23706 23707 23708 23709 23710 23711 23712 23713 23714 23715 23716 23717 23718 23719 23720 23721 23722 23723 23724 23725 23726 23727 23728 23729 23730 23731 23732 23733 23734 23735 23736 23737 23738 23739 23740 23741 23742 23743 23744 23745 23746 23747 23748 23749 23750 23751 23752 23753 23754 23755 23756 23757 23758 23759 23760 23761 23762 23763 23764 23765 23766 23767 23768 23769 23770 23771 23772 23773 23774 23775 23776 23777 23778 23779 23780 23781 23782 23783 23784 23785 23786 23787 23788 23789 23790 23791 23792 23793 23794 23795 23796 23797 23798 23799 23800 23801 23802 23803 23804 23805 23806 23807 23808 23809 23810 23811 23812 23813 23814 23815 23816 23817 23818 23819 23820 23821 23822 23823 23824 23825 23826 23827 23828 23829 23830 23831 23832 23833 23834 23835 23836 23837 23838 23839 23840 23841 23842 23843 23844 23845 23846 23847 23848 23849 23850 23851 23852 23853 23854 23855 23856 23857 23858 23859 23860 23861 23862 23863 23864 23865 23866 23867 23868 23869 23870 23871 23872 23873 23874 23875 23876 23877 23878 23879 23880 23881 23882 23883 23884 23885 23886 23887 23888 23889 23890 23891 23892 23893 23894 23895 23896 23897 23898 23899 23900 23901 23902 23903 23904 23905 23906 23907 23908 23909 23910 23911 23912 23913 23914 23915 23916 23917 23918 23919 23920 23921 23922 23923 23924 23925 23926 23927 23928 23929 23930 23931 23932 23933 23934 23935 23936 23937 23938 23939 23940 23941 23942 23943 23944 23945 23946 23947 23948 23949 23950 23951 23952 23953 23954 23955 23956 23957 23958 23959 23960 23961 23962 23963 23964 23965 23966 23967 23968 23969 23970 23971 23972 23973 23974 23975 23976 23977 23978 23979 23980 23981 23982 23983 23984 23985 23986 23987 23988 23989 23990 23991 23992 23993 23994 23995 23996 23997 23998 23999 24000 24001 24002 24003 24004 24005 24006 24007 24008 24009 24010 24011 24012 24013 24014 24015 24016 24017 24018 24019 24020 24021 24022 24023 24024 24025 24026 24027 24028 24029 24030 24031 24032 24033 24034 24035 24036 24037 24038 24039 24040 24041 24042 24043 24044 24045 24046 24047 24048 24049 24050 24051 24052 24053 24054 24055 24056 24057 24058 24059 24060 24061 24062 24063 24064 24065 24066 24067 24068 24069 24070 24071 24072 24073 24074 24075 24076 24077 24078 24079 24080 24081 24082 24083 24084 24085 24086 24087 24088 24089 24090 24091 24092 24093 24094 24095 24096 24097 24098 24099 24100 24101 24102 24103 24104 24105 24106 24107 24108 24109 24110 24111 24112 24113 24114 24115 24116 24117 24118 24119 24120 24121 24122 24123 24124 24125 24126 24127 24128 24129 24130 24131 24132 24133 24134 24135 24136 24137 24138 24139 24140 24141 24142 24143 24144 24145 24146 24147 24148 24149 24150 24151 24152 24153 24154 24155 24156 24157 24158 24159 24160 24161 24162 24163 24164 24165 24166 24167 24168 24169 24170 24171 24172 24173 24174 24175 24176 24177 24178 24179 24180 24181 24182 24183 24184 24185 24186 24187 24188 24189 24190 24191 24192 24193 24194 24195 24196 24197 24198 24199 24200 24201 24202 24203 24204 24205 24206 24207 24208 24209 24210 24211 24212 24213 24214 24215 24216 24217 24218 24219 24220 24221 24222 24223 24224 24225 24226 24227 24228 24229 24230 24231 24232 24233 24234 24235 24236 24237 24238 24239 24240 24241 24242 24243 24244 24245 24246 24247 24248 24249 24250 24251 24252 24253 24254 24255 24256 24257 24258 24259 24260 24261 24262 24263 24264 24265 24266 24267 24268 24269 24270 24271 24272 24273 24274 24275 24276 24277 24278 24279 24280 24281 24282 24283 24284 24285 24286 24287 24288 24289 24290 24291 24292 24293 24294 24295 24296 24297 24298 24299 24300 24301 24302 24303 24304 24305 24306 24307 24308 24309 24310 24311 24312 24313 24314 24315 24316 24317 24318 24319 24320 24321 24322 24323 24324 24325 24326 24327 24328 24329 24330 24331 24332 24333 24334 24335 24336 24337 24338 24339 24340 24341 24342 24343 24344 24345 24346 24347 24348 24349 24350 24351 24352 24353 24354 24355 24356 24357 24358 24359 24360 24361 24362 24363 24364 24365 24366 24367 24368 24369 24370 24371 24372 24373 24374 24375 24376 24377 24378 24379 24380 24381 24382 24383 24384 24385 24386 24387 24388 24389 24390 24391 24392 24393 24394 24395 24396 24397 24398 24399 24400 24401 24402 24403 24404 24405 24406 24407 24408 24409 24410 24411 24412 24413 24414 24415 24416 24417 24418 24419 24420 24421 24422 24423 24424 24425 24426 24427 24428 24429 24430 24431 24432 24433 24434 24435 24436 24437 24438 24439 24440 24441 24442 24443 24444 24445 24446 24447 24448 24449 24450 24451 24452 24453 24454 24455 24456 24457 24458 24459 24460 24461 24462 24463 24464 24465 24466 24467 24468 24469 24470 24471 24472 24473 24474 24475 24476 24477 24478 24479 24480 24481 24482 24483 24484 24485 24486 24487 24488 24489 24490 24491 24492 24493 24494 24495 24496 24497 24498 24499 24500 24501 24502 24503 24504 24505 24506 24507 24508 24509 24510 24511 24512 24513 24514 24515 24516 24517 24518 24519 24520 24521 24522 24523 24524 24525 24526 24527 24528 24529 24530 24531 24532 24533 24534 24535 24536 24537 24538 24539 24540 24541 24542 24543 24544 24545 24546 24547 24548 24549 24550 24551 24552 24553 24554 24555 24556 24557 24558 24559 24560 24561 24562 24563 24564 24565 24566 24567 24568 24569 24570 24571 24572 24573 24574 24575 24576 24577 24578 24579 24580 24581 24582 24583 24584 24585 24586 24587 24588 24589 24590 24591 24592 24593 24594 24595 24596 24597 24598 24599 24600 24601 24602 24603 24604 24605 24606 24607 24608 24609 24610 24611 24612 24613 24614 24615 24616 24617 24618 24619 24620 24621 24622 24623 24624 24625 24626 24627 24628 24629 24630 24631 24632 24633 24634 24635 24636 24637 24638 24639 24640 24641 24642 24643 24644 24645 24646 24647 24648 24649 24650 24651 24652 24653 24654 24655 24656 24657 24658 24659 24660 24661 24662 24663 24664 24665 24666 24667 24668 24669 24670 24671 24672 24673 24674 24675 24676 24677 24678 24679 24680 24681 24682 24683 24684 24685 24686 24687 24688 24689 24690 24691 24692 24693 24694 24695 24696 24697 24698 24699 24700 24701 24702 24703 24704 24705 24706 24707 24708 24709 24710 24711 24712 24713 24714 24715 24716 24717 24718 24719 24720 24721 24722 24723 24724 24725 24726 24727 24728 24729 24730 24731 24732 24733 24734 24735 24736 24737 24738 24739 24740 24741 24742 24743 24744 24745 24746 24747 24748 24749 24750 24751 24752 24753 24754 24755 24756 24757 24758 24759 24760 24761 24762 24763 24764 24765 24766 24767 24768 24769 24770 24771 24772 24773 24774 24775 24776 24777 24778 24779 24780 24781 24782 24783 24784 24785 24786 24787 24788 24789 24790 24791 24792 24793 24794 24795 24796 24797 24798 24799 24800 24801 24802 24803 24804 24805 24806 24807 24808 24809 24810 24811 24812 24813 24814 24815 24816 24817 24818 24819 24820 24821 24822 24823 24824 24825 24826 24827 24828 24829 24830 24831 24832 24833 24834 24835 24836 24837 24838 24839 24840 24841 24842 24843 24844 24845 24846 24847 24848 24849 24850 24851 24852 24853 24854 24855 24856 24857 24858 24859 24860 24861 24862 24863 24864 24865 24866 24867 24868 24869 24870 24871 24872 24873 24874 24875 24876 24877 24878 24879 24880 24881 24882 24883 24884 24885 24886 24887 24888 24889 24890 24891 24892 24893 24894 24895 24896 24897 24898 24899 24900 24901 24902 24903 24904 24905 24906 24907 24908 24909 24910 24911 24912 24913 24914 24915 24916 24917 24918 24919 24920 24921 24922 24923 24924 24925 24926 24927 24928 24929 24930 24931 24932 24933 24934 24935 24936 24937 24938 24939 24940 24941 24942 24943 24944 24945 24946 24947 24948 24949 24950 24951 24952 24953 24954 24955 24956 24957 24958 24959 24960 24961 24962 24963 24964 24965 24966 24967 24968 24969 24970 24971 24972 24973 24974 24975 24976 24977 24978 24979 24980 24981 24982 24983 24984 24985 24986 24987 24988 24989 24990 24991 24992 24993 24994 24995 24996 24997 24998 24999 25000 25001 25002 25003 25004 25005 25006 25007 25008 25009 25010 25011 25012 25013 25014 25015 25016 25017 25018 25019 25020 25021 25022 25023 25024 25025 25026 25027 25028 25029 25030 25031 25032 25033 25034 25035 25036 25037 25038 25039 25040 25041 25042 25043 25044 25045 25046 25047 25048 25049 25050 25051 25052 25053 25054 25055 25056 25057 25058 25059 25060 25061 25062 25063 25064 25065 25066 25067 25068 25069 25070 25071 25072 25073 25074 25075 25076 25077 25078 25079 25080 25081 25082 25083 25084 25085 25086 25087 25088 25089 25090 25091 25092 25093 25094 25095 25096 25097 25098 25099 25100 25101 25102 25103 25104 25105 25106 25107 25108 25109 25110 25111 25112 25113 25114 25115 25116 25117 25118 25119 25120 25121 25122 25123 25124 25125 25126 25127 25128 25129 25130 25131 25132 25133 25134 25135 25136 25137 25138 25139 25140 25141 25142 25143 25144 25145 25146 25147 25148 25149 25150 25151 25152 25153 25154 25155 25156 25157 25158 25159 25160 25161 25162 25163 25164 25165 25166 25167 25168 25169 25170 25171 25172 25173 25174 25175 25176 25177 25178 25179 25180 25181 25182 25183 25184 25185 25186 25187 25188 25189 25190 25191 25192 25193 25194 25195 25196 25197 25198 25199 25200 25201 25202 25203 25204 25205 25206 25207 25208 25209 25210 25211 25212 25213 25214 25215 25216 25217 25218 25219 25220 25221 25222 25223 25224 25225 25226 25227 25228 25229 25230 25231 25232 25233 25234 25235 25236 25237 25238 25239 25240 25241 25242 25243 25244 25245 25246 25247 25248 25249 25250 25251 25252 25253 25254 25255 25256 25257 25258 25259 25260 25261 25262 25263 25264 25265 25266 25267 25268 25269 25270 25271 25272 25273 25274 25275 25276 25277 25278 25279 25280 25281 25282 25283 25284 25285 25286 25287 25288 25289 25290 25291 25292 25293 25294 25295 25296 25297 25298 25299 25300 25301 25302 25303 25304 25305 25306 25307 25308 25309 25310 25311 25312 25313 25314 25315 25316 25317 25318 25319 25320 25321 25322 25323 25324 25325 25326 25327 25328 25329 25330 25331 25332 25333 25334 25335 25336 25337 25338 25339 25340 25341 25342 25343 25344 25345 25346 25347 25348 25349 25350 25351 25352 25353 25354 25355 25356 25357 25358 25359 25360 25361 25362 25363 25364 25365 25366 25367 25368 25369 25370 25371 25372 25373 25374 25375 25376 25377 25378 25379 25380 25381 25382 25383 25384 25385 25386 25387 25388 25389 25390 25391 25392 25393 25394 25395 25396 25397 25398 25399 25400 25401 25402 25403 25404 25405 25406 25407 25408 25409 25410 25411 25412 25413 25414 25415 25416 25417 25418 25419 25420 25421 25422 25423 25424 25425 25426 25427 25428 25429 25430 25431 25432 25433 25434 25435 25436 25437 25438 25439 25440 25441 25442 25443 25444 25445 25446 25447 25448 25449 25450 25451 25452 25453 25454 25455 25456 25457 25458 25459 25460 25461 25462 25463 25464 25465 25466 25467 25468 25469 25470 25471 25472 25473 25474 25475 25476 25477 25478 25479 25480 25481 25482 25483 25484 25485 25486 25487 25488 25489 25490 25491 25492 25493 25494 25495 25496 25497 25498 25499 25500 25501 25502 25503 25504 25505 25506 25507 25508 25509 25510 25511 25512 25513 25514 25515 25516 25517 25518 25519 25520 25521 25522 25523 25524 25525 25526 25527 25528 25529 25530 25531 25532 25533 25534 25535 25536 25537 25538 25539 25540 25541 25542 25543 25544 25545 25546 25547 25548 25549 25550 25551 25552 25553 25554 25555 25556 25557 25558 25559 25560 25561 25562 25563 25564 25565 25566 25567 25568 25569 25570 25571 25572 25573 25574 25575 25576 25577 25578 25579 25580 25581 25582 25583 25584 25585 25586 25587 25588 25589 25590 25591 25592 25593 25594 25595 25596 25597 25598 25599 25600 25601 25602 25603 25604 25605 25606 25607 25608 25609 25610 25611 25612 25613 25614 25615 25616 25617 25618 25619 25620 25621 25622 25623 25624 25625 25626 25627 25628 25629 25630 25631 25632 25633 25634 25635 25636 25637 25638 25639 25640 25641 25642 25643 25644 25645 25646 25647 25648 25649 25650 25651 25652 25653 25654 25655 25656 25657 25658 25659 25660 25661 25662 25663 25664 25665 25666 25667 25668 25669 25670 25671 25672 25673 25674 25675 25676 25677 25678 25679 25680 25681 25682 25683 25684 25685 25686 25687 25688 25689 25690 25691 25692 25693 25694 25695 25696 25697 25698 25699 25700 25701 25702 25703 25704 25705 25706 25707 25708 25709 25710 25711 25712 25713 25714 25715 25716 25717 25718 25719 25720 25721 25722 25723 25724 25725 25726 25727 25728 25729 25730 25731 25732 25733 25734 25735 25736 25737 25738 25739 25740 25741 25742 25743 25744 25745 25746 25747 25748 25749 25750 25751 25752 25753 25754 25755 25756 25757 25758 25759 25760 25761 25762 25763 25764 25765 25766 25767 25768 25769 25770 25771 25772 25773 25774 25775 25776 25777 25778 25779 25780 25781 25782 25783 25784 25785 25786 25787 25788 25789 25790 25791 25792 25793 25794 25795 25796 25797 25798 25799 25800 25801 25802 25803 25804 25805 25806 25807 25808 25809 25810 25811 25812 25813 25814 25815 25816 25817 25818 25819 25820 25821 25822 25823 25824 25825 25826 25827 25828 25829 25830 25831 25832 25833 25834 25835 25836 25837 25838 25839 25840 25841 25842 25843 25844 25845 25846 25847 25848 25849 25850 25851 25852 25853 25854 25855 25856 25857 25858 25859 25860 25861 25862 25863 25864 25865 25866 25867 25868 25869 25870 25871 25872 25873 25874 25875 25876 25877 25878 25879 25880 25881 25882 25883 25884 25885 25886 25887 25888 25889 25890 25891 25892 25893 25894 25895 25896 25897 25898 25899 25900 25901 25902 25903 25904 25905 25906 25907 25908 25909 25910 25911 25912 25913 25914 25915 25916 25917 25918 25919 25920 25921 25922 25923 25924 25925 25926 25927 25928 25929 25930 25931 25932 25933 25934 25935 25936 25937 25938 25939 25940 25941 25942 25943 25944 25945 25946 25947 25948 25949 25950 25951 25952 25953 25954 25955 25956 25957 25958 25959 25960 25961 25962 25963 25964 25965 25966 25967 25968 25969 25970 25971 25972 25973 25974 25975 25976 25977 25978 25979 25980 25981 25982 25983 25984 25985 25986 25987 25988 25989 25990 25991 25992 25993 25994 25995 25996 25997 25998 25999 26000 26001 26002 26003 26004 26005 26006 26007 26008 26009 26010 26011 26012 26013 26014 26015 26016 26017 26018 26019 26020 26021 26022 26023 26024 26025 26026 26027 26028 26029 26030 26031 26032 26033 26034 26035 26036 26037 26038 26039 26040 26041 26042 26043 26044 26045 26046 26047 26048 26049 26050 26051 26052 26053 26054 26055 26056 26057 26058 26059 26060 26061 26062 26063 26064 26065 26066 26067 26068 26069 26070 26071 26072 26073 26074 26075 26076 26077 26078 26079 26080 26081 26082 26083 26084 26085 26086 26087 26088 26089 26090 26091 26092 26093 26094 26095 26096 26097 26098 26099 26100 26101 26102 26103 26104 26105 26106 26107 26108 26109 26110 26111 26112 26113 26114 26115 26116 26117 26118 26119 26120 26121 26122 26123 26124 26125 26126 26127 26128 26129 26130 26131 26132 26133 26134 26135 26136 26137 26138 26139 26140 26141 26142 26143 26144 26145 26146 26147 26148 26149 26150 26151 26152 26153 26154 26155 26156 26157 26158 26159 26160 26161 26162 26163 26164 26165 26166 26167 26168 26169 26170 26171 26172 26173 26174 26175 26176 26177 26178 26179 26180 26181 26182 26183 26184 26185 26186 26187 26188 26189 26190 26191 26192 26193 26194 26195 26196 26197 26198 26199 26200 26201 26202 26203 26204 26205 26206 26207 26208 26209 26210 26211 26212 26213 26214 26215 26216 26217 26218 26219 26220 26221 26222 26223 26224 26225 26226 26227 26228 26229 26230 26231 26232 26233 26234 26235 26236 26237 26238 26239 26240 26241 26242 26243 26244 26245 26246 26247 26248 26249 26250 26251 26252 26253 26254 26255 26256 26257 26258 26259 26260 26261 26262 26263 26264 26265 26266 26267 26268 26269 26270 26271 26272 26273 26274 26275 26276 26277 26278 26279 26280 26281 26282 26283 26284 26285 26286 26287 26288 26289 26290 26291 26292 26293 26294 26295 26296 26297 26298 26299 26300 26301 26302 26303 26304 26305 26306 26307 26308 26309 26310 26311 26312 26313 26314 26315 26316 26317 26318 26319 26320 26321 26322 26323 26324 26325 26326 26327 26328 26329 26330 26331 26332 26333 26334 26335 26336 26337 26338 26339 26340 26341 26342 26343 26344 26345 26346 26347 26348 26349 26350 26351 26352 26353 26354 26355 26356 26357 26358 26359 26360 26361 26362 26363 26364 26365 26366 26367 26368 26369 26370 26371 26372 26373 26374 26375 26376 26377 26378 26379 26380 26381 26382 26383 26384 26385 26386 26387 26388 26389 26390 26391 26392 26393 26394 26395 26396 26397 26398 26399 26400 26401 26402 26403 26404 26405 26406 26407 26408 26409 26410 26411 26412 26413 26414 26415 26416 26417 26418 26419 26420 26421 26422 26423 26424 26425 26426 26427 26428 26429 26430 26431 26432 26433 26434 26435 26436 26437 26438 26439 26440 26441 26442 26443 26444 26445 26446 26447 26448 26449 26450 26451 26452 26453 26454 26455 26456 26457 26458 26459 26460 26461 26462 26463 26464 26465 26466 26467 26468 26469 26470 26471 26472 26473 26474 26475 26476 26477 26478 26479 26480 26481 26482 26483 26484 26485 26486 26487 26488 26489 26490 26491 26492 26493 26494 26495 26496 26497 26498 26499 26500 26501 26502 26503 26504 26505 26506 26507 26508 26509 26510 26511 26512 26513 26514 26515 26516 26517 26518 26519 26520 26521 26522 26523 26524 26525 26526 26527 26528 26529 26530 26531 26532 26533 26534 26535 26536 26537 26538 26539 26540 26541 26542 26543 26544 26545 26546 26547 26548 26549 26550 26551 26552 26553 26554 26555 26556 26557 26558 26559 26560 26561 26562 26563 26564 26565 26566 26567 26568 26569 26570 26571 26572 26573 26574 26575 26576 26577 26578 26579 26580 26581 26582 26583 26584 26585 26586 26587 26588 26589 26590 26591 26592 26593 26594 26595 26596 26597 26598 26599 26600 26601 26602 26603 26604 26605 26606 26607 26608 26609 26610 26611 26612 26613 26614 26615 26616 26617 26618 26619 26620 26621 26622 26623 26624 26625 26626 26627 26628 26629 26630 26631 26632 26633 26634 26635 26636 26637 26638 26639 26640 26641 26642 26643 26644 26645 26646 26647 26648 26649 26650 26651 26652 26653 26654 26655 26656 26657 26658 26659 26660 26661 26662 26663 26664 26665 26666 26667 26668 26669 26670 26671 26672 26673 26674 26675 26676 26677 26678 26679 26680 26681 26682 26683 26684 26685 26686 26687 26688 26689 26690 26691 26692 26693 26694 26695 26696 26697 26698 26699 26700 26701 26702 26703 26704 26705 26706 26707 26708 26709 26710 26711 26712 26713 26714 26715 26716 26717 26718 26719 26720 26721 26722 26723 26724 26725 26726 26727 26728 26729 26730 26731 26732 26733 26734 26735 26736 26737 26738 26739 26740 26741 26742 26743 26744 26745 26746 26747 26748 26749 26750 26751 26752 26753 26754 26755 26756 26757 26758 26759 26760 26761 26762 26763 26764 26765 26766 26767 26768 26769 26770 26771 26772 26773 26774 26775 26776 26777 26778 26779 26780 26781 26782 26783 26784 26785 26786 26787 26788 26789 26790 26791 26792 26793 26794 26795 26796 26797 26798 26799 26800 26801 26802 26803 26804 26805 26806 26807 26808 26809 26810 26811 26812 26813 26814 26815 26816 26817 26818 26819 26820 26821 26822 26823 26824 26825 26826 26827 26828 26829 26830 26831 26832 26833 26834 26835 26836 26837 26838 26839 26840 26841 26842 26843 26844 26845 26846 26847 26848 26849 26850 26851 26852 26853 26854 26855 26856 26857 26858 26859 26860 26861 26862 26863 26864 26865 26866 26867 26868 26869 26870 26871 26872 26873 26874 26875 26876 26877 26878 26879 26880 26881 26882 26883 26884 26885 26886 26887 26888 26889 26890 26891 26892 26893 26894 26895 26896 26897 26898 26899 26900 26901 26902 26903 26904 26905 26906 26907 26908 26909 26910 26911 26912 26913 26914 26915 26916 26917 26918 26919 26920 26921 26922 26923 26924 26925 26926 26927 26928 26929 26930 26931 26932 26933 26934 26935 26936 26937 26938 26939 26940 26941 26942 26943 26944 26945 26946 26947 26948 26949 26950 26951 26952 26953 26954 26955 26956 26957 26958 26959 26960 26961 26962 26963 26964 26965 26966 26967 26968 26969 26970 26971 26972 26973 26974 26975 26976 26977 26978 26979 26980 26981 26982 26983 26984 26985 26986 26987 26988 26989 26990 26991 26992 26993 26994 26995 26996 26997 26998 26999 27000 27001 27002 27003 27004 27005 27006 27007 27008 27009 27010 27011 27012 27013 27014 27015 27016 27017 27018 27019 27020 27021 27022 27023 27024 27025 27026 27027 27028 27029 27030 27031 27032 27033 27034 27035 27036 27037 27038 27039 27040 27041 27042 27043 27044 27045 27046 27047 27048 27049 27050 27051 27052 27053 27054 27055 27056 27057 27058 27059 27060 27061 27062 27063 27064 27065 27066 27067 27068 27069 27070 27071 27072 27073 27074 27075 27076 27077 27078 27079 27080 27081 27082 27083 27084 27085 27086 27087 27088 27089 27090 27091 27092 27093 27094 27095 27096 27097 27098 27099 27100 27101 27102 27103 27104 27105 27106 27107 27108 27109 27110 27111 27112 27113 27114 27115 27116 27117 27118 27119 27120 27121 27122 27123 27124 27125 27126 27127 27128 27129 27130 27131 27132 27133 27134 27135 27136 27137 27138 27139 27140 27141 27142 27143 27144 27145 27146 27147 27148 27149 27150 27151 27152 27153 27154 27155 27156 27157 27158 27159 27160 27161 27162 27163 27164 27165 27166 27167 27168 27169 27170 27171 27172 27173 27174 27175 27176 27177 27178 27179 27180 27181 27182 27183 27184 27185 27186 27187 27188 27189 27190 27191 27192 27193 27194 27195 27196 27197 27198 27199 27200 27201 27202 27203 27204 27205 27206 27207 27208 27209 27210 27211 27212 27213 27214 27215 27216 27217 27218 27219 27220 27221 27222 27223 27224 27225 27226 27227 27228 27229 27230 27231 27232 27233 27234 27235 27236 27237 27238 27239 27240 27241 27242 27243 27244 27245 27246 27247 27248 27249 27250 27251 27252 27253 27254 27255 27256 27257 27258 27259 27260 27261 27262 27263 27264 27265 27266 27267 27268 27269 27270 27271 27272 27273 27274 27275 27276 27277 27278 27279 27280 27281 27282 27283 27284 27285 27286 27287 27288 27289 27290 27291 27292 27293 27294 27295 27296 27297 27298 27299 27300 27301 27302 27303 27304 27305 27306 27307 27308 27309 27310 27311 27312 27313 27314 27315 27316 27317 27318 27319 27320 27321 27322 27323 27324 27325 27326 27327 27328 27329 27330 27331 27332 27333 27334 27335 27336 27337 27338 27339 27340 27341 27342 27343 27344 27345 27346 27347 27348 27349 27350 27351 27352 27353 27354 27355 27356 27357 27358 27359 27360 27361 27362 27363 27364 27365 27366 27367 27368 27369 27370 27371 27372 27373 27374 27375 27376 27377 27378 27379 27380 27381 27382 27383 27384 27385 27386 27387 27388 27389 27390 27391 27392 27393 27394 27395 27396 27397 27398 27399 27400 27401 27402 27403 27404 27405 27406 27407 27408 27409 27410 27411 27412 27413 27414 27415 27416 27417 27418 27419 27420 27421 27422 27423 27424 27425 27426 27427 27428 27429 27430 27431 27432 27433 27434 27435 27436 27437 27438 27439 27440 27441 27442 27443 27444 27445 27446 27447 27448 27449 27450 27451 27452 27453 27454 27455 27456 27457 27458 27459 27460 27461 27462 27463 27464 27465 27466 27467 27468 27469 27470 27471 27472 27473 27474 27475 27476 27477 27478 27479 27480 27481 27482 27483 27484 27485 27486 27487 27488 27489 27490 27491 27492 27493 27494 27495 27496 27497 27498 27499 27500 27501 27502 27503 27504 27505 27506 27507 27508 27509 27510 27511 27512 27513 27514 27515 27516 27517 27518 27519 27520 27521 27522 27523 27524 27525 27526 27527 27528 27529 27530 27531 27532 27533 27534 27535 27536 27537 27538 27539 27540 27541 27542 27543 27544 27545 27546 27547 27548 27549 27550 27551 27552 27553 27554 27555 27556 27557 27558 27559 27560 27561 27562 27563 27564 27565 27566 27567 27568 27569 27570 27571 27572 27573 27574 27575 27576 27577 27578 27579 27580 27581 27582 27583 27584 27585 27586 27587 27588 27589 27590 27591 27592 27593 27594 27595 27596 27597 27598 27599 27600 27601 27602 27603 27604 27605 27606 27607 27608 27609 27610 27611 27612 27613 27614 27615 27616 27617 27618 27619 27620 27621 27622 27623 27624 27625 27626 27627 27628 27629 27630 27631 27632 27633 27634 27635 27636 27637 27638 27639 27640 27641 27642 27643 27644 27645 27646 27647 27648 27649 27650 27651 27652 27653 27654 27655 27656 27657 27658 27659 27660 27661 27662 27663 27664 27665 27666 27667 27668 27669 27670 27671 27672 27673 27674 27675 27676 27677 27678 27679 27680 27681 27682 27683 27684 27685 27686 27687 27688 27689 27690 27691 27692 27693 27694 27695 27696 27697 27698 27699 27700 27701 27702 27703 27704 27705 27706 27707 27708 27709 27710 27711 27712 27713 27714 27715 27716 27717 27718 27719 27720 27721 27722 27723 27724 27725 27726 27727 27728 27729 27730 27731 27732 27733 27734 27735 27736 27737 27738 27739 27740 27741 27742 27743 27744 27745 27746 27747 27748 27749 27750 27751 27752 27753 27754 27755 27756 27757 27758 27759 27760 27761 27762 27763 27764 27765 27766 27767 27768 27769 27770 27771 27772 27773 27774 27775 27776 27777 27778 27779 27780 27781 27782 27783 27784 27785 27786 27787 27788 27789 27790 27791 27792 27793 27794 27795 27796 27797 27798 27799 27800 27801 27802 27803 27804 27805 27806 27807 27808 27809 27810 27811 27812 27813 27814 27815 27816 27817 27818 27819 27820 27821 27822 27823 27824 27825 27826 27827 27828 27829 27830 27831 27832 27833 27834 27835 27836 27837 27838 27839 27840 27841 27842 27843 27844 27845 27846 27847 27848 27849 27850 27851 27852 27853 27854 27855 27856 27857 27858 27859 27860 27861 27862 27863 27864 27865 27866 27867 27868 27869 27870 27871 27872 27873 27874 27875 27876 27877 27878 27879 27880 27881 27882 27883 27884 27885 27886 27887 27888 27889 27890 27891 27892 27893 27894 27895 27896 27897 27898 27899 27900 27901 27902 27903 27904 27905 27906 27907 27908 27909 27910 27911 27912 27913 27914 27915 27916 27917 27918 27919 27920 27921 27922 27923 27924 27925 27926 27927 27928 27929 27930 27931 27932 27933 27934 27935 27936 27937 27938 27939 27940 27941 27942 27943 27944 27945 27946 27947 27948 27949 27950 27951 27952 27953 27954 27955 27956 27957 27958 27959 27960 27961 27962 27963 27964 27965 27966 27967 27968 27969 27970 27971 27972 27973 27974 27975 27976 27977 27978 27979 27980 27981 27982 27983 27984 27985 27986 27987 27988 27989 27990 27991 27992 27993 27994 27995 27996 27997 27998 27999 28000 28001 28002 28003 28004 28005 28006 28007 28008 28009 28010 28011 28012 28013 28014 28015 28016 28017 28018 28019 28020 28021 28022 28023 28024 28025 28026 28027 28028 28029 28030 28031 28032 28033 28034 28035 28036 28037 28038 28039 28040 28041 28042 28043 28044 28045 28046 28047 28048 28049 28050 28051 28052 28053 28054 28055 28056 28057 28058 28059 28060 28061 28062 28063 28064 28065 28066 28067 28068 28069 28070 28071 28072 28073 28074 28075 28076 28077 28078 28079 28080 28081 28082 28083 28084 28085 28086 28087 28088 28089 28090 28091 28092 28093 28094 28095 28096 28097 28098 28099 28100 28101 28102 28103 28104 28105 28106 28107 28108 28109 28110 28111 28112 28113 28114 28115 28116 28117 28118 28119 28120 28121 28122 28123 28124 28125 28126 28127 28128 28129 28130 28131 28132 28133 28134 28135 28136 28137 28138 28139 28140 28141 28142 28143 28144 28145 28146 28147 28148 28149 28150 28151 28152 28153 28154 28155 28156 28157 28158 28159 28160 28161 28162 28163 28164 28165 28166 28167 28168 28169 28170 28171 28172 28173 28174 28175 28176 28177 28178 28179 28180 28181 28182 28183 28184 28185 28186 28187 28188 28189 28190 28191 28192 28193 28194 28195 28196 28197 28198 28199 28200 28201 28202 28203 28204 28205 28206 28207 28208 28209 28210 28211 28212 28213 28214 28215 28216 28217 28218 28219 28220 28221 28222 28223 28224 28225 28226 28227 28228 28229 28230 28231 28232 28233 28234 28235 28236 28237 28238 28239 28240 28241 28242 28243 28244 28245 28246 28247 28248 28249 28250 28251 28252 28253 28254 28255 28256 28257 28258 28259 28260 28261 28262 28263 28264 28265 28266 28267 28268 28269 28270 28271 28272 28273 28274 28275 28276 28277 28278 28279 28280 28281 28282 28283 28284 28285 28286 28287 28288 28289 28290 28291 28292 28293 28294 28295 28296 28297 28298 28299 28300 28301 28302 28303 28304 28305 28306 28307 28308 28309 28310 28311 28312 28313 28314 28315 28316 28317 28318 28319 28320 28321 28322 28323 28324 28325 28326 28327 28328 28329 28330 28331 28332 28333 28334 28335 28336 28337 28338 28339 28340 28341 28342 28343 28344 28345 28346 28347 28348 28349 28350 28351 28352 28353 28354 28355 28356 28357 28358 28359 28360 28361 28362 28363 28364 28365 28366 28367 28368 28369 28370 28371 28372 28373 28374 28375 28376 28377 28378 28379 28380 28381 28382 28383 28384 28385 28386 28387 28388 28389 28390 28391 28392 28393 28394 28395 28396 28397 28398 28399 28400 28401 28402 28403 28404 28405 28406 28407 28408 28409 28410 28411 28412 28413 28414 28415 28416 28417 28418 28419 28420 28421 28422 28423 28424 28425 28426 28427 28428 28429 28430 28431 28432 28433 28434 28435 28436 28437 28438 28439 28440 28441 28442 28443 28444 28445 28446 28447 28448 28449 28450 28451 28452 28453 28454 28455 28456 28457 28458 28459 28460 28461 28462 28463 28464 28465 28466 28467 28468 28469 28470 28471 28472 28473 28474 28475 28476 28477 28478 28479 28480 28481 28482 28483 28484 28485 28486 28487 28488 28489 28490 28491 28492 28493 28494 28495 28496 28497 28498 28499 28500 28501 28502 28503 28504 28505 28506 28507 28508 28509 28510 28511 28512 28513 28514 28515 28516 28517 28518 28519 28520 28521 28522 28523 28524 28525 28526 28527 28528 28529 28530 28531 28532 28533 28534 28535 28536 28537 28538 28539 28540 28541 28542 28543 28544 28545 28546 28547 28548 28549 28550 28551 28552 28553 28554 28555 28556 28557 28558 28559 28560 28561 28562 28563 28564 28565 28566 28567 28568 28569 28570 28571 28572 28573 28574 28575 28576 28577 28578 28579 28580 28581 28582 28583 28584 28585 28586 28587 28588 28589 28590 28591 28592 28593 28594 28595 28596 28597 28598 28599 28600 28601 28602 28603 28604 28605 28606 28607 28608 28609 28610 28611 28612 28613 28614 28615 28616 28617 28618 28619 28620 28621 28622 28623 28624 28625 28626 28627 28628 28629 28630 28631 28632 28633 28634 28635 28636 28637 28638 28639 28640 28641 28642 28643 28644 28645 28646 28647 28648 28649 28650 28651 28652 28653 28654 28655 28656 28657 28658 28659 28660 28661 28662 28663 28664 28665 28666 28667 28668 28669 28670 28671 28672 28673 28674 28675 28676 28677 28678 28679 28680 28681 28682 28683 28684 28685 28686 28687 28688 28689 28690 28691 28692 28693 28694 28695 28696 28697 28698 28699 28700 28701 28702 28703 28704 28705 28706 28707 28708 28709 28710 28711 28712 28713 28714 28715 28716 28717 28718 28719 28720 28721 28722 28723 28724 28725 28726 28727 28728 28729 28730 28731 28732 28733 28734 28735 28736 28737 28738 28739 28740 28741 28742 28743 28744 28745 28746 28747 28748 28749 28750 28751 28752 28753 28754 28755 28756 28757 28758 28759 28760 28761 28762 28763 28764 28765 28766 28767 28768 28769 28770 28771 28772 28773 28774 28775 28776 28777 28778 28779 28780 28781 28782 28783 28784 28785 28786 28787 28788 28789 28790 28791 28792 28793 28794 28795 28796 28797 28798 28799 28800 28801 28802 28803 28804 28805 28806 28807 28808 28809 28810 28811 28812 28813 28814 28815 28816 28817 28818 28819 28820 28821 28822 28823 28824 28825 28826 28827 28828 28829 28830 28831 28832 28833 28834 28835 28836 28837 28838 28839 28840 28841 28842 28843 28844 28845 28846 28847 28848 28849 28850 28851 28852 28853 28854 28855 28856 28857 28858 28859 28860 28861 28862 28863 28864 28865 28866 28867 28868 28869 28870 28871 28872 28873 28874 28875 28876 28877 28878 28879 28880 28881 28882 28883 28884 28885 28886 28887 28888 28889 28890 28891 28892 28893 28894 28895 28896 28897 28898 28899 28900 28901 28902 28903 28904 28905 28906 28907 28908 28909 28910 28911 28912 28913 28914 28915 28916 28917 28918 28919 28920 28921 28922 28923 28924 28925 28926 28927 28928 28929 28930 28931 28932 28933 28934 28935 28936 28937 28938 28939 28940 28941 28942 28943 28944 28945 28946 28947 28948 28949 28950 28951 28952 28953 28954 28955 28956 28957 28958 28959 28960 28961 28962 28963 28964 28965 28966 28967 28968 28969 28970 28971 28972 28973 28974 28975 28976 28977 28978 28979 28980 28981 28982 28983 28984 28985 28986 28987 28988 28989 28990 28991 28992 28993 28994 28995 28996 28997 28998 28999 29000 29001 29002 29003 29004 29005 29006 29007 29008 29009 29010 29011 29012 29013 29014 29015 29016 29017 29018 29019 29020 29021 29022 29023 29024 29025 29026 29027 29028 29029 29030 29031 29032 29033 29034 29035 29036 29037 29038 29039 29040 29041 29042 29043 29044 29045 29046 29047 29048 29049 29050 29051 29052 29053 29054 29055 29056 29057 29058 29059 29060 29061 29062 29063 29064 29065 29066 29067 29068 29069 29070 29071 29072 29073 29074 29075 29076 29077 29078 29079 29080 29081 29082 29083 29084 29085 29086 29087 29088 29089 29090 29091 29092 29093 29094 29095 29096 29097 29098 29099 29100 29101 29102 29103 29104 29105 29106 29107 29108 29109 29110 29111 29112 29113 29114 29115 29116 29117 29118 29119 29120 29121 29122 29123 29124 29125 29126 29127 29128 29129 29130 29131 29132 29133 29134 29135 29136 29137 29138 29139 29140 29141 29142 29143 29144 29145 29146 29147 29148 29149 29150 29151 29152 29153 29154 29155 29156 29157 29158 29159 29160 29161 29162 29163 29164 29165 29166 29167 29168 29169 29170 29171 29172 29173 29174 29175 29176 29177 29178 29179 29180 29181 29182 29183 29184 29185 29186 29187 29188 29189 29190 29191 29192 29193 29194 29195 29196 29197 29198 29199 29200 29201 29202 29203 29204 29205 29206 29207 29208 29209 29210 29211 29212 29213 29214 29215 29216 29217 29218 29219 29220 29221 29222 29223 29224 29225 29226 29227 29228 29229 29230 29231 29232 29233 29234 29235 29236 29237 29238 29239 29240 29241 29242 29243 29244 29245 29246 29247 29248 29249 29250 29251 29252 29253 29254 29255 29256 29257 29258 29259 29260 29261 29262 29263 29264 29265 29266 29267 29268 29269 29270 29271 29272 29273 29274 29275 29276 29277 29278 29279 29280 29281 29282 29283 29284 29285 29286 29287 29288 29289 29290 29291 29292 29293 29294 29295 29296 29297 29298 29299 29300 29301 29302 29303 29304 29305 29306 29307 29308 29309 29310 29311 29312 29313 29314 29315 29316 29317 29318 29319 29320 29321 29322 29323 29324 29325 29326 29327 29328 29329 29330 29331 29332 29333 29334 29335 29336 29337 29338 29339 29340 29341 29342 29343 29344 29345 29346 29347 29348 29349 29350 29351 29352 29353 29354 29355 29356 29357 29358 29359 29360 29361 29362 29363 29364 29365 29366 29367 29368 29369 29370 29371 29372 29373 29374 29375 29376 29377 29378 29379 29380 29381 29382 29383 29384 29385 29386 29387 29388 29389 29390 29391 29392 29393 29394 29395 29396 29397 29398 29399 29400 29401 29402 29403 29404 29405 29406 29407 29408 29409 29410 29411 29412 29413 29414 29415 29416 29417 29418 29419 29420 29421 29422 29423 29424 29425 29426 29427 29428 29429 29430 29431 29432 29433 29434 29435 29436 29437 29438 29439 29440 29441 29442 29443 29444 29445 29446 29447 29448 29449 29450 29451 29452 29453 29454 29455 29456 29457 29458 29459 29460 29461 29462 29463 29464 29465 29466 29467 29468 29469 29470 29471 29472 29473 29474 29475 29476 29477 29478 29479 29480 29481 29482 29483 29484 29485 29486 29487 29488 29489 29490 29491 29492 29493 29494 29495 29496 29497 29498 29499 29500 29501 29502 29503 29504 29505 29506 29507 29508 29509 29510 29511 29512 29513 29514 29515 29516 29517 29518 29519 29520 29521 29522 29523 29524 29525 29526 29527 29528 29529 29530 29531 29532 29533 29534 29535 29536 29537 29538 29539 29540 29541 29542 29543 29544 29545 29546 29547 29548 29549 29550 29551 29552 29553 29554 29555 29556 29557 29558 29559 29560 29561 29562 29563 29564 29565 29566 29567 29568 29569 29570 29571 29572 29573 29574 29575 29576 29577 29578 29579 29580 29581 29582 29583 29584 29585 29586 29587 29588 29589 29590 29591 29592 29593 29594 29595 29596 29597 29598 29599 29600 29601 29602 29603 29604 29605 29606 29607 29608 29609 29610 29611 29612 29613 29614 29615 29616 29617 29618 29619 29620 29621 29622 29623 29624 29625 29626 29627 29628 29629 29630 29631 29632 29633 29634 29635 29636 29637 29638 29639 29640 29641 29642 29643 29644 29645 29646 29647 29648 29649 29650 29651 29652 29653 29654 29655 29656 29657 29658 29659 29660 29661 29662 29663 29664 29665 29666 29667 29668 29669 29670 29671 29672 29673 29674 29675 29676 29677 29678 29679 29680 29681 29682 29683 29684 29685 29686 29687 29688 29689 29690 29691 29692 29693 29694 29695 29696 29697 29698 29699 29700 29701 29702 29703 29704 29705 29706 29707 29708 29709 29710 29711 29712 29713 29714 29715 29716 29717 29718 29719 29720 29721 29722 29723 29724 29725 29726 29727 29728 29729 29730 29731 29732 29733 29734 29735 29736 29737 29738 29739 29740 29741 29742 29743 29744 29745 29746 29747 29748 29749 29750 29751 29752 29753 29754 29755 29756 29757 29758 29759 29760 29761 29762 29763 29764 29765 29766 29767 29768 29769 29770 29771 29772 29773 29774 29775 29776 29777 29778 29779 29780 29781 29782 29783 29784 29785 29786 29787 29788 29789 29790 29791 29792 29793 29794 29795 29796 29797 29798 29799 29800 29801 29802 29803 29804 29805 29806 29807 29808 29809 29810 29811 29812 29813 29814 29815 29816 29817 29818 29819 29820 29821 29822 29823 29824 29825 29826 29827 29828 29829 29830 29831 29832 29833 29834 29835 29836 29837 29838 29839 29840 29841 29842 29843 29844 29845 29846 29847 29848 29849 29850 29851 29852 29853 29854 29855 29856 29857 29858 29859 29860 29861 29862 29863 29864 29865 29866 29867 29868 29869 29870 29871 29872 29873 29874 29875 29876 29877 29878 29879 29880 29881 29882 29883 29884 29885 29886 29887 29888 29889 29890 29891 29892 29893 29894 29895 29896 29897 29898 29899 29900 29901 29902 29903 29904 29905 29906 29907 29908 29909 29910 29911 29912 29913 29914 29915 29916 29917 29918 29919 29920 29921 29922 29923 29924 29925 29926 29927 29928 29929 29930 29931 29932 29933 29934 29935 29936 29937 29938 29939 29940 29941 29942 29943 29944 29945 29946 29947 29948 29949 29950 29951 29952 29953 29954 29955 29956 29957 29958 29959 29960 29961 29962 29963 29964 29965 29966 29967 29968 29969 29970 29971 29972 29973 29974 29975 29976 29977 29978 29979 29980 29981 29982 29983 29984 29985 29986 29987 29988 29989 29990 29991 29992 29993 29994 29995 29996 29997 29998 29999 30000 30001 30002 30003 30004 30005 30006 30007 30008 30009 30010 30011 30012 30013 30014 30015 30016 30017 30018 30019 30020 30021 30022 30023 30024 30025 30026 30027 30028 30029 30030 30031 30032 30033 30034 30035 30036 30037 30038 30039 30040 30041 30042 30043 30044 30045 30046 30047 30048 30049 30050 30051 30052 30053 30054 30055 30056 30057 30058 30059 30060 30061 30062 30063 30064 30065 30066 30067 30068 30069 30070 30071 30072 30073 30074 30075 30076 30077 30078 30079 30080 30081 30082 30083 30084 30085 30086 30087 30088 30089 30090 30091 30092 30093 30094 30095 30096 30097 30098 30099 30100 30101 30102 30103 30104 30105 30106 30107 30108 30109 30110 30111 30112 30113 30114 30115 30116 30117 30118 30119 30120 30121 30122 30123 30124 30125 30126 30127 30128 30129 30130 30131 30132 30133 30134 30135 30136 30137 30138 30139 30140 30141 30142 30143 30144 30145 30146 30147 30148 30149 30150 30151 30152 30153 30154 30155 30156 30157 30158 30159 30160 30161 30162 30163 30164 30165 30166 30167 30168 30169 30170 30171 30172 30173 30174 30175 30176 30177 30178 30179 30180 30181 30182 30183 30184 30185 30186 30187 30188 30189 30190 30191 30192 30193 30194 30195 30196 30197 30198 30199 30200 30201 30202 30203 30204 30205 30206 30207 30208 30209 30210 30211 30212 30213 30214 30215 30216 30217 30218 30219 30220 30221 30222 30223 30224 30225 30226 30227 30228 30229 30230 30231 30232 30233 30234 30235 30236 30237 30238 30239 30240 30241 30242 30243 30244 30245 30246 30247 30248 30249 30250 30251 30252 30253 30254 30255 30256 30257 30258 30259 30260 30261 30262 30263 30264 30265 30266 30267 30268 30269 30270 30271 30272 30273 30274 30275 30276 30277 30278 30279 30280 30281 30282 30283 30284 30285 30286 30287 30288 30289 30290 30291 30292 30293 30294 30295 30296 30297 30298 30299 30300 30301 30302 30303 30304 30305 30306 30307 30308 30309 30310 30311 30312 30313 30314 30315 30316 30317 30318 30319 30320 30321 30322 30323 30324 30325 30326 30327 30328 30329 30330 30331 30332 30333 30334 30335 30336 30337 30338 30339 30340 30341 30342 30343 30344 30345 30346 30347 30348 30349 30350 30351 30352 30353 30354 30355 30356 30357 30358 30359 30360 30361 30362 30363 30364 30365 30366 30367 30368 30369 30370 30371 30372 30373 30374 30375 30376 30377 30378 30379 30380 30381 30382 30383 30384 30385 30386 30387 30388 30389 30390 30391 30392 30393 30394 30395 30396 30397 30398 30399 30400 30401 30402 30403 30404 30405 30406 30407 30408 30409 30410 30411 30412 30413 30414 30415 30416 30417 30418 30419 30420 30421 30422 30423 30424 30425 30426 30427 30428 30429 30430 30431 30432 30433 30434 30435 30436 30437 30438 30439 30440 30441 30442 30443 30444 30445 30446 30447 30448 30449 30450 30451 30452 30453 30454 30455 30456 30457 30458 30459 30460 30461 30462 30463 30464 30465 30466 30467 30468 30469 30470 30471 30472 30473 30474 30475 30476 30477 30478 30479 30480 30481 30482 30483 30484 30485 30486 30487 30488 30489 30490 30491 30492 30493 30494 30495 30496 30497 30498 30499 30500 30501 30502 30503 30504 30505 30506 30507 30508 30509 30510 30511 30512 30513 30514 30515 30516 30517 30518 30519 30520 30521 30522 30523 30524 30525 30526 30527 30528 30529 30530 30531 30532 30533 30534 30535 30536 30537 30538 30539 30540 30541 30542 30543 30544 30545 30546 30547 30548 30549 30550 30551 30552 30553 30554 30555 30556 30557 30558 30559 30560 30561 30562 30563 30564 30565 30566 30567 30568 30569 30570 30571 30572 30573 30574 30575 30576 30577 30578 30579 30580 30581 30582 30583 30584 30585 30586 30587 30588 30589 30590 30591 30592 30593 30594 30595 30596 30597 30598 30599 30600 30601 30602 30603 30604 30605 30606 30607 30608 30609 30610 30611 30612 30613 30614 30615 30616 30617 30618 30619 30620 30621 30622 30623 30624 30625 30626 30627 30628 30629 30630 30631 30632 30633 30634 30635 30636 30637 30638 30639 30640 30641 30642 30643 30644 30645 30646 30647 30648 30649 30650 30651 30652 30653 30654 30655 30656 30657 30658 30659 30660 30661 30662 30663 30664 30665 30666 30667 30668 30669 30670 30671 30672 30673 30674 30675 30676 30677 30678 30679 30680 30681 30682 30683 30684 30685 30686 30687 30688 30689 30690 30691 30692 30693 30694 30695 30696 30697 30698 30699 30700 30701 30702 30703 30704 30705 30706 30707 30708 30709 30710 30711 30712 30713 30714 30715 30716 30717 30718 30719 30720 30721 30722 30723 30724 30725 30726 30727 30728 30729 30730 30731 30732 30733 30734 30735 30736 30737 30738 30739 30740 30741 30742 30743 30744 30745 30746 30747 30748 30749 30750 30751 30752 30753 30754 30755 30756 30757 30758 30759 30760 30761 30762 30763 30764 30765 30766 30767 30768 30769 30770 30771 30772 30773 30774 30775 30776 30777 30778 30779 30780 30781 30782 30783 30784 30785 30786 30787 30788 30789 30790 30791 30792 30793 30794 30795 30796 30797 30798 30799 30800 30801 30802 30803 30804 30805 30806 30807 30808 30809 30810 30811 30812 30813 30814 30815 30816 30817 30818 30819 30820 30821 30822 30823 30824 30825 30826 30827 30828 30829 30830 30831 30832 30833 30834 30835 30836 30837 30838 30839 30840 30841 30842 30843 30844 30845 30846 30847 30848 30849 30850 30851 30852 30853 30854 30855 30856 30857 30858 30859 30860 30861 30862 30863 30864 30865 30866 30867 30868 30869 30870 30871 30872 30873 30874 30875 30876 30877 30878 30879 30880 30881 30882 30883 30884 30885 30886 30887 30888 30889 30890 30891 30892 30893 30894 30895 30896 30897 30898 30899 30900 30901 30902 30903 30904 30905 30906 30907 30908 30909 30910 30911 30912 30913 30914 30915 30916 30917 30918 30919 30920 30921 30922 30923 30924 30925 30926 30927 30928 30929 30930 30931 30932 30933 30934 30935 30936 30937 30938 30939 30940 30941 30942 30943 30944 30945 30946 30947 30948 30949 30950 30951 30952 30953 30954 30955 30956 30957 30958 30959 30960 30961 30962 30963 30964 30965 30966 30967 30968 30969 30970 30971 30972 30973 30974 30975 30976 30977 30978 30979 30980 30981 30982 30983 30984 30985 30986 30987 30988 30989 30990 30991 30992 30993 30994 30995 30996 30997 30998 30999 31000 31001 31002 31003 31004 31005 31006 31007 31008 31009 31010 31011 31012 31013 31014 31015 31016 31017 31018 31019 31020 31021 31022 31023 31024 31025 31026 31027 31028 31029 31030 31031 31032 31033 31034 31035 31036 31037 31038 31039 31040 31041 31042 31043 31044 31045 31046 31047 31048 31049 31050 31051 31052 31053 31054 31055 31056 31057 31058 31059 31060 31061 31062 31063 31064 31065 31066 31067 31068 31069 31070 31071 31072 31073 31074 31075 31076 31077 31078 31079 31080 31081 31082 31083 31084 31085 31086 31087 31088 31089 31090 31091 31092 31093 31094 31095 31096 31097 31098 31099 31100 31101 31102 31103 31104 31105 31106 31107 31108 31109 31110 31111 31112 31113 31114 31115 31116 31117 31118 31119 31120 31121 31122 31123 31124 31125 31126 31127 31128 31129 31130 31131 31132 31133 31134 31135 31136 31137 31138 31139 31140 31141 31142 31143 31144 31145 31146 31147 31148 31149 31150 31151 31152 31153 31154 31155 31156 31157 31158 31159 31160 31161 31162 31163 31164 31165 31166 31167 31168 31169 31170 31171 31172 31173 31174 31175 31176 31177 31178 31179 31180 31181 31182 31183 31184 31185 31186 31187 31188 31189 31190 31191 31192 31193 31194 31195 31196 31197 31198 31199 31200 31201 31202 31203 31204 31205 31206 31207 31208 31209 31210 31211 31212 31213 31214 31215 31216 31217 31218 31219 31220 31221 31222 31223 31224 31225 31226 31227 31228 31229 31230 31231 31232 31233 31234 31235 31236 31237 31238 31239 31240 31241 31242 31243 31244 31245 31246 31247 31248 31249 31250 31251 31252 31253 31254 31255 31256 31257 31258 31259 31260 31261 31262 31263 31264 31265 31266 31267 31268 31269 31270 31271 31272 31273 31274 31275 31276 31277 31278 31279 31280 31281 31282 31283 31284 31285 31286 31287 31288 31289 31290 31291 31292 31293 31294 31295 31296 31297 31298 31299 31300 31301 31302 31303 31304 31305 31306 31307 31308 31309 31310 31311 31312 31313 31314 31315 31316 31317 31318 31319 31320 31321 31322 31323 31324 31325 31326 31327 31328 31329 31330 31331 31332 31333 31334 31335 31336 31337 31338 31339 31340 31341 31342 31343 31344 31345 31346 31347 31348 31349 31350 31351 31352 31353 31354 31355 31356 31357 31358 31359 31360 31361 31362 31363 31364 31365 31366 31367 31368 31369 31370 31371 31372 31373 31374 31375 31376 31377 31378 31379 31380 31381 31382 31383 31384 31385 31386 31387 31388 31389 31390 31391 31392 31393 31394 31395 31396 31397 31398 31399 31400 31401 31402 31403 31404 31405 31406 31407 31408 31409 31410 31411 31412 31413 31414 31415 31416 31417 31418 31419 31420 31421 31422 31423 31424 31425 31426 31427 31428 31429 31430 31431 31432 31433 31434 31435 31436 31437 31438 31439 31440 31441 31442 31443 31444 31445 31446 31447 31448 31449 31450 31451 31452 31453 31454 31455 31456 31457 31458 31459 31460 31461 31462 31463 31464 31465 31466 31467 31468 31469 31470 31471 31472 31473 31474 31475 31476 31477 31478 31479 31480 31481 31482 31483 31484 31485 31486 31487 31488 31489 31490 31491 31492 31493 31494 31495 31496 31497 31498 31499 31500 31501 31502 31503 31504 31505 31506 31507 31508 31509 31510 31511 31512 31513 31514 31515 31516 31517 31518 31519 31520 31521 31522 31523 31524 31525 31526 31527 31528 31529 31530 31531 31532 31533 31534 31535 31536 31537 31538 31539 31540 31541 31542 31543 31544 31545 31546 31547 31548 31549 31550 31551 31552 31553 31554 31555 31556 31557 31558 31559 31560 31561 31562 31563 31564 31565 31566 31567 31568 31569 31570 31571 31572 31573 31574 31575 31576 31577 31578 31579 31580 31581 31582 31583 31584 31585 31586 31587 31588 31589 31590 31591 31592 31593 31594 31595 31596 31597 31598 31599 31600 31601 31602 31603 31604 31605 31606 31607 31608 31609 31610 31611 31612 31613 31614 31615 31616 31617 31618 31619 31620 31621 31622 31623 31624 31625 31626 31627 31628 31629 31630 31631 31632 31633 31634 31635 31636 31637 31638 31639 31640 31641 31642 31643 31644 31645 31646 31647 31648 31649 31650 31651 31652 31653 31654 31655 31656 31657 31658 31659 31660 31661 31662 31663 31664 31665 31666 31667 31668 31669 31670 31671 31672 31673 31674 31675 31676 31677 31678 31679 31680 31681 31682 31683 31684 31685 31686 31687 31688 31689 31690 31691 31692 31693 31694 31695 31696 31697 31698 31699 31700 31701 31702 31703 31704 31705 31706 31707 31708 31709 31710 31711 31712 31713 31714 31715 31716 31717 31718 31719 31720 31721 31722 31723 31724 31725 31726 31727 31728 31729 31730 31731 31732 31733 31734 31735 31736 31737 31738 31739 31740 31741 31742 31743 31744 31745 31746 31747 31748 31749 31750 31751 31752 31753 31754 31755 31756 31757 31758 31759 31760 31761 31762 31763 31764 31765 31766 31767 31768 31769 31770 31771 31772 31773 31774 31775 31776 31777 31778 31779 
</DataArray>
<DataArray type="UInt32" Name="offsets" format="ascii">
3 6 9 12 15 17 20 23 26 29 32 35 38 41 44 47 49 52 55 58 61 63 66 68 71 74 76 79 82 85 88 90 93 96 98 100 103 106 109 112 115 118 120 123 126 129 131 134 136 139 141 144 147 150 153 156 158 161 164 167 170 173 176 179 182 185 188 191 194 196 199 202 205 208 211 214 217 220 222 225 228 231 234 237 240 243 246 249 252 255 258 261 264 267 270 273 276 279 282 284 287 290 293 296 299 302 305 308 311 313 315 318 321 324 327 330 333 336 339 342 344 347 350 353 356 358 361 363 366 369 372 374 377 380 382 384 387 390 393 396 398 400 402 405 408 411 414 417 419 422 425 428 431 434 436 439 442 445 447 450 453 456 459 462 465 468 471 474 477 480 483 486 489 492 495 498 501 504 507 510 512 515 518 521 524 527 530 533 536 538 541 544 546 549 551 553 556 559 562 565 568 570 572 575 577 580 583 586 588 591 594 596 599 602 605 608 610 613 615 618 621 623 625 628 631 634 637 640 643 646 649 651 654 657 659 662 665 668 671 674 677 680 682 685 688 691 694 697 699 702 705 707 710 712 715 718 721 724 726 729 732 735 738 741 743 746 749 752 755 758 761 764 767 769 772 775 777 780 783 785 788 791 793 796 799 801 804 807 810 813 816 819 821 824 826 829 832 835 837 840 843 846 849 852 855 858 861 864 867 870 872 875 878 881 884 887 890 893 896 899 902 904 907 909 912 915 918 920 923 926 929 931 934 937 940 943 946 949 951 953 956 959 962 964 967 970 972 974 977 980 982 985 988 991 994 997 999 1002 1005 1008 1011 1013 1016 1019 1021 1024 1027 1030 1032 1034 1037 1040 1043 1045 1048 1051 1054 1057 1060 1062 1065 1067 1070 1073 1076 1079 1082 1085 1088 1091 1094 1097 1100 1102 1104 1107 1110 1113 1116 1119 1122 1125 1128 1131 1134 1137 1140 1143 1145 1148 1151 1154 1157 1160 1163 1166 1169 1171 1174 1177 1179 1182 1185 1188 1191 1194 1196 1199 1202 1204 1207 1210 1213 1216 1219 1221 1224 1226 1229 1232 1235 1238 1241 1244 1247 1250 1253 1256 1259 1262 1265 1268 1271 1273 1276 1279 1282 1285 1287 1290 1293 1296 1299 1301 1304 1307 1309 1311 1314 1317 1320 1323 1326 1328 1331 1333 1336 1339 1342 1344 1346 1349 1352 1355 1358 1360 1363 1366 1369 1372 1375 1378 1381 1384 1387 1390 1392 1395 1398 1401 1404 1407 1410 1413 1415 1417 1420 1423 1426 1429 1432 1435 1438 1441 1444 1447 1450 1452 1455 1458 1461 1464 1467 1470 1473 1476 1479 1482 1485 1488 1491 1494 1497 1500 1503 1506 1509 1512 1515 1518 1521 1523 1526 1529 1532 1534 1537 1540 1542 1545 1548 1551 1554 1557 1560 1563 1566 1569 1571 1574 1577 1580 1583 1586 1588 1591 1594 1596 1599 1602 1604 1607 1610 1612 1615 1618 1621 1624 1627 1630 1633 1636 1639 1642 1645 1648 1651 1654 1657 1660 1663 1666 1669 1672 1675 1678 1681 1684 1687 1689 1692 1695 1698 1701 1704 1706 1709 1712 1715 1718 1721 1723 1726 1728 1731 1734 1737 1740 1743 1746 1749 1752 1755 1758 1761 1764 1767 1770 1773 1776 1779 1782 1785 1788 1791 1794 1797 1800 1803 1806 1809 1812 1815 1818 1821 1824 1827 1830 1833 1836 1839 1842 1845 1848 1851 1854 1857 1860 1863 1866 1869 1872 1875 1878 1881 1884 1887 1890 1893 1896 1899 1902 1905 1908 1911 1914 1917 1920 1923 1926 1929 1932 1935 1938 1941 1944 1947 1950 1953 1956 1959 1962 1965 1968 1971 1974 1976 1979 1982 1985 1988 1991 1994 1997 2000 2003 2006 2009 2012 2015 2018 2021 2023 2026 2029 2031 2034 2037 2040 2043 2046 2049 2051 2054 2057 2059 2062 2065 2068 2071 2074 2077 2080 2083 2086 2089 2091 2094 2097 2099 2102 2105 2107 2110 2112 2115 2118 2121 2124 2127 2130 2133 2136 2139 2142 2145 2147 2150 2153 2156 2159 2162 2165 2168 2171 2173 2176 2178 2181 2184 2187 2190 2193 2196 2199 2202 2205 2208 2211 2214 2217 2220 2223 2226 2229 2232 2235 2238 2241 2244 2247 2250 2253 2255 2258 2261 2264 2267 2269 2272 2275 2278 2281 2283 2285 2288 2291 2294 2297 2299 2302 2305 2307 2310 2312 2315 2318 2321 2324 2326 2328 2331 2333 2335 2338 2341 2343 2346 2349 2351 2354 2357 2360 2363 2366 2369 2372 2375 2378 2380 2383 2385 2388 2391 2394 2397 2399 2401 2404 2407 2410 2413 2415 2418 2421 2423 2425 2428 2431 2433 2436 2439 2442 2445 2448 2451 2454 2457 2460 2463 2466 2469 2472 2475 2478 2481 2484 2487 2490 2493 2495 2498 2501 2504 2507 2510 2513 2516 2519 2522 2525 2528 2531 2534 2537 2539 2542 2545 2548 2551 2554 2557 2560 2562 2565 2568 2571 2573 2576 2579 2582 2585 2587 2590 2593 2596 2599 2602 2605 2607 2610 2613 2615 2617 2620 2622 2625 2628 2631 2633 2636 2639 2642 2644 2646 2649 2652 2655 2658 2661 2664 2667 2670 2672 2675 2678 2681 2684 2687 2690 2693 2696 2699 2702 2705 2708 2711 2714 2717 2720 2723 2725 2728 2731 2734 2736 2739 2742 2745 2748 2751 2754 2757 2760 2762 2765 2768 2771 2774 2777 2780 2783 2786 2789 2792 2795 2798 2801 2804 2807 2810 2813 2816 2818 2821 2824 2827 2830 2833 2836 2839 2842 2845 2848 2851 2854 2857 2860 2863 2866 2869 2872 2875 2878 2881 2884 2887 2889 2892 2894 2897 2900 2903 2906 2908 2910 2913 2916 2919 2922 2925 2928 2931 2934 2937 2940 2943 2946 2949 2952 2955 2958 2961 2963 2966 2969 2971 2974 2977 2980 2983 2986 2989 2992 2995 2998 3001 3004 3007 3010 3012 3014 3017 3019 3022 3025 3028 3031 3034 3037 3040 3043 3045 3048 3051 3054 3056 3059 3062 3065 3067 3070 3073 3076 3079 3082 3085 3088 3091 3094 3096 3099 3102 3105 3108 3111 3114 3117 3120 3123 3126 3128 3131 3134 3137 3140 3143 3146 3149 3152 3155 3158 3161 3163 3166 3168 3171 3173 3176 3179 3182 3184 3187 3189 3192 3195 3198 3200 3203 3206 3209 3212 3215 3218 3221 3224 3227 3230 3233 3236 3239 3242 3245 3247 3250 3253 3256 3259 3262 3265 3268 3271 3273 3276 3278 3281 3283 3286 3288 3290 3292 3295 3298 3301 3304 3307 3310 3313 3316 3319 3322 3325 3327 3330 3333 3336 3339 3342 3345 3348 3351 3354 3357 3360 3363 3366 3369 3372 3375 3378 3381 3384 3387 3390 3393 3396 3399 3402 3404 3407 3410 3413 3416 3419 3421 3424 3427 3430 3433 3436 3439 3442 3445 3448 3451 3454 3457 3460 3463 3465 3468 3471 3474 3477 3479 3482 3485 3488 3491 3494 3497 3500 3503 3506 3509 3512 3515 3517 3520 3523 3526 3529 3532 3535 3537 3540 3543 3546 3549 3552 3555 3558 3561 3564 3567 3570 3572 3574 3577 3580 3583 3585 3587 3590 3593 3596 3599 3602 3605 3608 3611 3614 3617 3620 3623 3626 3629 3632 3635 3638 3641 3644 3647 3650 3653 3656 3659 3662 3665 3668 3671 3674 3677 3680 3683 3686 3689 3692 3695 3698 3701 3704 3707 3710 3713 3716 3719 3722 3725 3728 3731 3734 3737 3739 3742 3745 3747 3750 3753 3755 3757 3760 3762 3765 3768 3771 3774 3777 3780 3782 3785 3788 3791 3794 3797 3800 3803 3806 3809 3812 3814 3817 3820 3823 3826 3829 3832 3835 3838 3841 3844 3847 3850 3852 3855 3858 3861 3864 3867 3870 3873 3876 3879 3881 3884 3887 3890 3893 3896 3899 3902 3905 3908 3911 3914 3917 3919 3922 3925 3927 3930 3932 3935 3938 3941 3944 3947 3949 3951 3954 3956 3959 3962 3965 3968 3971 3974 3977 3980 3983 3986 3989 3992 3994 3997 4000 4003 4006 4009 4012 4014 4017 4020 4023 4026 4029 4032 4035 4038 4041 4044 4047 4050 4052 4055 4058 4060 4063 4065 4067 4070 4073 4076 4079 4082 4085 4088 4090 4093 4095 4098 4101 4104 4107 4110 4113 4116 4119 4122 4125 4128 4131 4134 4137 4140 4143 4146 4149 4152 4155 4158 4161 4164 4167 4170 4173 4176 4179 4182 4185 4188 4191 4194 4197 4200 4203 4206 4209 4212 4215 4218 4221 4224 4227 4230 4233 4236 4238 4241 4244 4247 4250 4253 4256 4259 4262 4265 4267 4270 4273 4275 4278 4280 4283 4285 4288 4291 4294 4297 4300 4303 4305 4308 4311 4314 4317 4320 4323 4326 4329 4332 4335 4338 4341 4344 4347 4350 4353 4356 4358 4361 4364 4367 4370 4373 4376 4378 4381 4384 4387 4390 4393 4396 4399 4402 4405 4408 4411 4414 4416 4419 4422 4425 4428 4431 4434 4437 4440 4443 4446 4449 4452 4455 4458 4461 4464 4467 4470 4473 4476 4479 4482 4485 4488 4491 4494 4497 4500 4503 4506 4509 4512 4515 4518 4521 4523 4526 4529 4532 4535 4537 4540 4543 4546 4549 4552 4554 4557 4560 4563 4565 4568 4571 4574 4577 4579 4582 4585 4588 4591 4594 4597 4600 4603 4606 4609 4612 4614 4617 4620 4622 4625 4628 4630 4632 4635 4638 4640 4643 4646 4649 4652 4655 4658 4661 4664 4666 4669 4671 4674 4677 4680 4683 4686 4689 4691 4694 4697 4700 4703 4705 4708 4711 4714 4717 4720 4723 4726 4729 4732 4735 4738 4741 4744 4747 4750 4753 4755 4758 4761 4764 4766 4769 4772 4775 4778 4781 4784 4787 4790 4793 4796 4798 4801 4804 4807 4809 4812 4815 4818 4820 4823 4825 4828 4831 4834 4837 4840 4843 4846 4849 4852 4855 4858 4861 4864 4867 4870 4873 4876 4879 4882 4885 4888 4891 4894 4897 4900 4903 4906 4909 4911 4914 4917 4920 4923 4926 4929 4932 4935 4938 4941 4944 4946 4949 4952 4955 4957 4960 4963 4966 4969 4972 4975 4978 4981 4984 4986 4988 4991 4993 4996 4998 5001 5003 5006 5009 5012 5015 5017 5020 5023 5025 5028 5031 5034 5037 5040 5043 5045 5048 5051 5054 5057 5059 5062 5065 5068 5071 5074 5077 5080 5083 5086 5089 5092 5095 5098 5101 5104 5106 5109 5112 5115 5118 5121 5124 5127 5130 5133 5136 5139 5142 5144 5147 5150 5153 5156 5159 5162 5164 5167 5170 5173 5176 5179 5181 5184 5186 5189 5192 5195 5198 5201 5204 5207 5210 5212 5215 5217 5219 5222 5225 5228 5230 5233 5236 5238 5241 5244 5246 5249 5252 5254 5257 5259 5261 5264 5267 5270 5273 5276 5279 5282 5285 5288 5291 5294 5297 5300 5303 5306 5309 5312 5315 5318 5321 5324 5327 5330 5333 5336 5339 5342 5345 5347 5350 5353 5356 5359 5362 5365 5368 5371 5373 5376 5379 5382 5385 5388 5391 5394 5396 5399 5402 5405 5407 5410 5413 5415 5418 5421 5424 5427 5430 5433 5436 5439 5442 5445 5448 5451 5453 5456 5459 5462 5465 5467 5470 5473 5476 5479 5482 5485 5488 5491 5493 5496 5499 5502 5504 5507 5510 5513 5516 5519 5522 5525 5528 5531 5534 5537 5539 5542 5545 5548 5551 5553 5556 5559 5562 5564 5566 5569 5572 5575 5578 5581 5583 5586 5588 5591 5594 5596 5599 5601 5604 5607 5610 5613 5616 5619 5622 5625 5628 5631 5634 5637 5640 5643 5646 5649 5651 5654 5657 5659 5662 5665 5668 5670 5673 5675 5677 5680 5683 5686 5688 5691 5694 5696 5699 5701 5704 5707 5710 5713 5716 5719 5722 5725 5728 5731 5734 5736 5739 5741 5744 5747 5750 5753 5756 5759 5762 5765 5768 5770 5773 5776 5779 5782 5785 5788 5791 5794 5797 5799 5802 5805 5808 5811 5814 5817 5820 5823 5825 5828 5831 5833 5836 5839 5842 5845 5847 5850 5853 5856 5859 5861 5864 5867 5870 5873 5876 5879 5882 5885 5888 5891 5894 5897 5900 5903 5906 5908 5911 5914 5917 5920 5922 5925 5928 5930 5933 5936 5939 5942 5945 5948 5951 5954 5957 5960 5963 5966 5969 5972 5975 5978 5981 5983 5986 5989 5992 5995 5998 6001 6004 6006 6009 6012 6015 6017 6020 6023 6025 6028 6031 6034 6037 6040 6043 6046 6049 6052 6054 6057 6060 6062 6065 6068 6071 6074 6077 6080 6083 6085 6088 6091 6094 6096 6099 6101 6104 6107 6110 6113 6116 6119 6122 6125 6128 6131 6133 6136 6139 6142 6145 6147 6149 6152 6155 6158 6161 6164 6167 6170 6173 6176 6179 6182 6185 6187 6190 6193 6195 6198 6201 6204 6206 6209 6212 6214 6217 6220 6223 6225 6228 6231 6234 6237 6239 6242 6245 6248 6251 6254 6257 6260 6263 6266 6269 6272 6275 6278 6281 6284 6286 6289 6292 6295 6298 6300 6303 6306 6309 6312 6315 6318 6321 6324 6327 6330 6333 6336 6338 6341 6344 6347 6350 6353 6356 6358 6361 6364 6367 6370 6373 6376 6378 6381 6384 6387 6390 6393 6396 6399 6402 6405 6408 6411 6414 6417 6419 6422 6424 6427 6430 6433 6436 6438 6441 6444 6447 6449 6451 6454 6457 6459 6462 6465 6468 6471 6474 6477 6480 6483 6486 6489 6492 6495 6498 6501 6504 6507 6509 6511 6514 6517 6519 6522 6525 6528 6531 6534 6537 6540 6543 6546 6549 6552 6555 6558 6561 6564 6566 6569 6572 6575 6578 6581 6584 6587 6589 6592 6595 6598 6601 6604 6607 6610 6613 6616 6618 6621 6624 6626 6629 6632 6635 6638 6641 6644 6647 6649 6652 6655 6658 6661 6664 6667 6669 6672 6674 6677 6680 6683 6686 6689 6691 6694 6697 6699 6702 6704 6707 6709 6711 6714 6717 6720 6723 6726 6729 6732 6735 6738 6741 6744 6747 6749 6752 6755 6758 6761 6764 6767 6769 6772 6775 6778 6781 6784 6787 6790 6792 6795 6798 6801 6804 6807 6809 6811 6814 6817 6819 6822 6825 6828 6831 6833 6835 6838 6841 6844 6847 6849 6851 6854 6857 6860 6862 6865 6868 6871 6874 6877 6880 6883 6886 6888 6890 6893 6896 6898 6901 6904 6906 6908 6911 6913 6915 6918 6921 6924 6927 6930 6933 6936 6939 6942 6945 6948 6951 6954 6957 6960 6963 6966 6969 6971 6974 6977 6980 6982 6985 6987 6990 6993 6996 6998 7000 7003 7006 7009 7011 7014 7017 7019 7021 7024 7026 7029 7032 7034 7037 7039 7042 7045 7048 7051 7054 7057 7060 7063 7066 7068 7071 7073 7076 7079 7082 7085 7088 7091 7094 7097 7100 7102 7105 7108 7111 7114 7117 7119 7122 7125 7128 7130 7133 7136 7139 7142 7144 7147 7149 7151 7154 7156 7159 7162 7164 7166 7168 7171 7174 7177 7179 7182 7184 7186 7189 7192 7195 7198 7200 7203 7206 7209 7211 7213 7216 7219 7222 7225 7228 7231 7234 7236 7239 7242 7245 7248 7251 7254 7257 7260 7263 7266 7269 7271 7274 7277 7280 7283 7286 7289 7292 7295 7298 7301 7304 7307 7310 7313 7316 7319 7321 7323 7326 7329 7331 7334 7337 7340 7343 7346 7349 7352 7355 7358 7360 7363 7366 7369 7371 7374 7377 7380 7383 7386 7389 7392 7395 7397 7399 7402 7405 7408 7411 7414 7417 7420 7422 7425 7428 7431 7434 7437 7440 7443 7446 7448 7451 7454 7457 7460 7463 7466 7469 7472 7475 7478 7481 7484 7487 7490 7493 7496 7499 7502 7505 7508 7511 7514 7517 7520 7523 7526 7529 7532 7535 7538 7540 7542 7545 7548 7551 7554 7557 7560 7562 7564 7567 7570 7573 7576 7579 7582 7585 7588 7590 7593 7596 7599 7602 7605 7607 7610 7613 7616 7619 7622 7625 7627 7630 7633 7636 7638 7641 7644 7646 7649 7652 7655 7658 7661 7664 7667 7670 7673 7676 7678 7680 7683 7686 7689 7692 7695 7698 7700 7703 7706 7709 7712 7714 7717 7720 7723 7726 7729 7732 7735 7738 7741 7744 7747 7749 7752 7755 7757 7759 7762 7765 7767 7770 7772 7774 7777 7780 7783 7786 7789 7792 7795 7798 7800 7803 7806 7809 7811 7814 7817 7820 7823 7826 7828 7831 7834 7837 7840 7842 7845 7847 7849 7852 7854 7857 7859 7861 7864 7866 7869 7871 7874 7877 7880 7883 7886 7888 7891 7894 7897 7900 7902 7905 7908 7911 7914 7917 7920 7923 7925 7928 7931 7934 7937 7940 7942 7945 7948 7951 7954 7957 7959 7962 7964 7967 7969 7972 7975 7977 7980 7982 7984 7987 7990 7993 7996 7999 8002 8005 8008 8011 8014 8017 8020 8023 8026 8029 8032 8035 8038 8041 8044 8047 8050 8053 8056 8059 8061 8064 8067 8070 8073 8076 8079 8081 8084 8087 8090 8093 8096 8098 8101 8103 8106 8109 8111 8114 8117 8120 8122 8125 8127 8130 8133 8136 8139 8141 8144 8147 8150 8153 8156 8159 8162 8165 8168 8171 8174 8177 8179 8182 8185 8188 8190 8193 8196 8199 8202 8205 8208 8211 8214 8217 8220 8222 8225 8228 8230 8233 8236 8239 8242 8245 8248 8251 8254 8257 8260 8263 8266 8268 8271 8274 8277 8280 8282 8285 8288 8290 8293 8296 8299 8302 8305 8308 8311 8313 8316 8319 8321 8324 8327 8330 8333 8336 8339 8342 8345 8348 8351 8354 8357 8360 8363 8366 8369 8372 8375 8378 8381 8384 8386 8388 8391 8394 8397 8400 8403 8406 8408 8411 8414 8417 8420 8423 8426 8429 8432 8435 8438 8441 8444 8447 8449 8451 8454 8457 8460 8463 8466 8469 8472 8475 8477 8480 8483 8486 8489 8491 8494 8497 8500 8503 8506 8509 8512 8515 8518 8521 8524 8527 8530 8533 8536 8539 8542 8545 8548 8551 8554 8557 8560 8563 8566 8569 8572 8575 8578 8580 8583 8586 8589 8592 8595 8598 8601 8603 8606 8609 8611 8614 8617 8620 8623 8626 8629 8632 8635 8638 8641 8644 8647 8650 8653 8656 8659 8662 8665 8668 8671 8674 8677 8679 8682 8685 8688 8691 8694 8696 8699 8702 8705 8708 8711 8714 8717 8720 8722 8725 8728 8731 8734 8737 8740 8743 8746 8749 8752 8755 8758 8761 8764 8767 8770 8773 8776 8778 8781 8784 8787 8790 8793 8796 8799 8802 8805 8808 8811 8814 8816 8819 8821 8824 8826 8829 8831 8834 8837 8840 8843 8845 8848 8850 8853 8856 8859 8861 8864 8867 8870 8872 8875 8878 8881 8883 8886 8889 8892 8895 8898 8900 8903 8906 8908 8911 8913 8916 8918 8921 8923 8925 8928 8931 8934 8937 8940 8943 8946 8949 8952 8955 8957 8960 8963 8966 8969 8971 8974 8977 8980 8983 8986 8989 8992 8995 8998 9001 9004 9007 9010 9012 9015 9018 9021 9024 9026 9029 9032 9035 9038 9041 9044 9047 9050 9053 9056 9058 9061 9064 9067 9069 9072 9075 9077 9080 9082 9085 9088 9091 9094 9096 9099 9102 9105 9108 9111 9114 9117 9120 9123 9126 9129 9132 9135 9138 9141 9144 9147 9149 9152 9155 9158 9160 9163 9165 9168 9171 9173 9176 9179 9182 9185 9188 9190 9193 9196 9199 9202 9205 9208 9211 9214 9217 9220 9223 9226 9229 9232 9235 9237 9240 9243 9246 9248 9251 9254 9257 9260 9263 9266 9268 9271 9273 9276 9279 9282 9285 9288 9291 9294 9297 9300 9303 9306 9308 9311 9314 9317 9319 9322 9324 9327 9330 9333 9336 9339 9341 9344 9347 9349 9352 9355 9358 9360 9363 9366 9369 9372 9375 9378 9381 9383 9386 9389 9392 9395 9398 9401 9404 9407 9410 9413 9416 9419 9421 9423 9426 9429 9432 9435 9437 9440 9443 9445 9448 9450 9453 9456 9459 9462 9465 9468 9471 9474 9477 9479 9482 9485 9488 9491 9494 9496 9499 9502 9505 9508 9511 9514 9517 9520 9523 9526 9529 9532 9534 9537 9540 9543 9546 9549 9552 9555 9558 9561 9564 9567 9569 9572 9574 9577 9579 9582 9584 9587 9590 9593 9595 9598 9601 9604 9607 9610 9613 9615 9617 9619 9622 9625 9628 9631 9634 9637 9640 9643 9645 9648 9651 9654 9657 9660 9663 9666 9669 9672 9675 9678 9681 9684 9687 9690 9692 9695 9698 9701 9703 9706 9709 9712 9715 9718 9720 9723 9726 9729 9731 9734 9736 9738 9740 9743 9746 9748 9751 9753 9756 9759 9761 9764 9767 9769 9772 9775 9778 9781 9784 9786 9789 9792 9795 9798 9801 9804 9807 9810 9813 9816 9819 9822 9825 9828 9831 9833 9836 9839 9842 9845 9847 9850 9853 9855 9858 9861 9864 9867 9870 9873 9876 9879 9882 9885 9888 9891 9894 9897 9900 9903 9906 9909 9912 9914 9917 9920 9923 9926 9929 9932 9935 9938 9941 9943 9946 9949 9952 9955 9958 9961 9964 9966 9969 9971 9973 9976 9979 9982 9985 9988 9991 9994 9997 10000 10003 10006 10009 10012 10015 10018 10021 10023 10025 10028 10030 10033 10035 10038 10041 10043 10046 10048 10051 10054 10057 10059 10062 10064 10066 10069 10072 10075 10078 10081 10083 10086 10089 10091 10094 10097 10100 10103 10106 10109 10112 10115 10118 10121 10124 10127 10130 10132 10135 10138 10140 10143 10146 10149 10152 10155 10158 10161 10164 10167 10169 10172 10175 10178 10181 10184 10186 10189 10192 10194 10197 10200 10203 10206 10209 10212 10214 10217 10220 10222 10225 10227 10230 10233 10236 10239 10242 10245 10248 10251 10254 10256 10259 10262 10265 10268 10271 10274 10277 10280 10283 10285 10287 10290 10293 10296 10299 10301 10304 10307 10310 10313 10315 10318 10321 10323 10325 10328 10330 10332 10335 10337 10340 10342 10345 10348 10351 10354 10357 10360 10362 10365 10368 10371 10374 10377 10379 10382 10385 10388 10391 10394 10397 10400 10403 10406 10409 10412 10415 10418 10420 10422 10425 10428 10430 10433 10435 10437 10440 10443 10446 10449 10452 10455 10458 10460 10463 10465 10467 10470 10473 10476 10479 10482 10485 10488 10491 10494 10497 10500 10503 10506 10509 10512 10515 10517 10520 10523 10526 10528 10531 10534 10537 10540 10543 10546 10549 10551 10554 10557 10559 10562 10565 10567 10570 10573 10576 10579 10582 10585 10588 10591 10593 10596 10599 10602 10604 10607 10610 10613 10615 10618 10621 10623 10625 10628 10630 10633 10636 10639 10642 10645 10648 10651 10654 10657 10660 10663 10666 10669 10672 10675 10678 10681 10684 10687 10690 10693 10696 10699 10701 10704 10706 10708 10711 10714 10717 10720 10723 10726 10729 10732 10735 10737 10740 10743 10746 10749 10752 10755 10757 10760 10762 10765 10767 10770 10772 10774 10777 10780 10783 10786 10789 10791 10793 10795 10798 10801 10804 10806 10808 10811 10814 10816 10819 10822 10825 10828 10831 10834 10837 10840 10843 10846 10849 10851 10854 10857 10860 10862 10865 10868 10871 10873 10875 10878 10881 10884 10887 10889 10892 10894 10897 10900 10903 10906 10909 10912 10915 10918 10921 10924 10927 10930 10933 10936 10939 10942 10945 10947 10950 10953 10956 10959 10962 10965 10968 10971 10974 10976 10979 10982 10985 10988 10991 10993 10996 10999 11002 11005 11008 11011 11014 11017 11020 11023 11026 11029 11032 11035 11038 11041 11044 11047 11050 11053 11056 11059 11062 11065 11068 11071 11074 11077 11080 11083 11086 11089 11092 11095 11098 11101 11104 11107 11110 11113 11116 11119 11122 11125 11128 11131 11134 11137 11140 11143 11146 11149 11152 11155 11158 11161 11164 11167 11170 11173 11175 11178 11181 11183 11186 11189 11192 11195 11198 11201 11204 11207 11210 11213 11216 11218 11221 11224 11226 11229 11231 11234 11237 11240 11243 11246 11249 11252 11255 11257 11260 11263 11265 11268 11271 11274 11276 11279 11282 11285 11288 11290 11293 11295 11298 11300 11302 11304 11307 11310 11312 11314 11317 11320 11323 11326 11328 11331 11333 11336 11339 11342 11345 11347 11350 11353 11356 11359 11362 11365 11368 11371 11374 11377 11380 11383 11386 11389 11392 11395 11398 11401 11404 11407 11410 11413 11416 11419 11422 11425 11428 11431 11434 11437 11440 11443 11446 11449 11452 11455 11458 11460 11463 11465 11468 11471 11474 11477 11480 11483 11486 11488 11491 11493 11496 11499 11501 11504 11507 11510 11513 11516 11518 11521 11524 11527 11530 11533 11536 11539 11542 11545 11548 11551 11554 11557 11560 11562 11565 11567 11570 11573 11576 11579 11582 11584 11587 11590 11593 11596 11599 11602 11605 11608 11611 11614 11617 11620 11623 11626 11629 11632 11635 11638 11641 11644 11646 11648 11651 11654 11657 11659 11662 11665 11668 11671 11674 11677 11680 11683 11686 11689 11691 11694 11697 11700 11703 11706 11709 11712 11715 11718 11721 11724 11727 11730 11733 11735 11738 11741 11743 11746 11749 11752 11755 11758 11761 11764 11767 11770 11773 11775 11778 11781 11784 11787 11790 11793 11796 11799 11802 11805 11808 11811 11814 11817 11820 11822 11825 11827 11830 11833 11836 11839 11841 11844 11847 11850 11853 11856 11859 11861 11864 11867 11870 11873 11876 11879 11882 11885 11887 11890 11893 11895 11898 11901 11904 11907 11910 11913 11916 11919 11922 11925 11928 11931 11934 11937 11940 11943 11946 11949 11952 11955 11958 11961 11963 11966 11969 11972 11975 11978 11981 11984 11987 11990 11993 11996 11999 12002 12005 12008 12011 12014 12017 12020 12023 12026 12029 12032 12035 12038 12041 12044 12047 12050 12053 12056 12059 12062 12065 12068 12071 12074 12077 12079 12082 12085 12088 12091 12094 12096 12099 12102 12105 12108 12111 12114 12117 12120 12123 12126 12129 12132 12135 12138 12141 12144 12147 12150 12153 12156 12159 12162 12165 12168 12171 12174 12177 12180 12183 12186 12189 12192 12195 12198 12201 12204 12207 12210 12213 12216 12218 12221 12223 12226 12229 12232 12235 12238 12240 12243 12246 12249 12251 12254 12257 12260 12262 12265 12268 12270 12273 12275 12278 12281 12284 12287 12290 12293 12296 12299 12302 12305 12308 12311 12314 12317 12320 12323 12326 12329 12332 12335 12337 12340 12343 12346 12349 12352 12355 12358 12361 12364 12367 12370 12373 12376 12379 12382 12385 12388 12391 12394 12397 12400 12403 12406 12409 12412 12415 12418 12421 12424 12427 12430 12433 12436 12439 12442 12445 12448 12451 12454 12457 12460 12463 12466 12469 12472 12475 12478 12481 12484 12487 12490 12493 12496 12499 12502 12505 12508 12511 12514 12517 12520 12523 12526 12529 12532 12535 12538 12541 12544 12547 12550 12553 12556 12559 12562 12565 12568 12571 12574 12577 12580 12583 12586 12589 12592 12594 12596 12599 12601 12603 12606 12609 12612 12615 12618 12621 12624 12627 12630 12632 12634 12636 12639 12642 12645 12647 12650 12653 12656 12659 12662 12665 12668 12671 12674 12676 12679 12682 12685 12688 12691 12694 12697 12700 12703 12706 12709 12712 12715 12718 12721 12724 12727 12730 12733 12736 12739 12742 12745 12748 12751 12754 12757 12760 12763 12766 12769 12772 12775 12778 12781 12783 12786 12788 12791 12794 12797 12800 12803 12806 12809 12812 12815 12818 12821 12824 12827 12830 12833 12836 12839 12842 12845 12848 12851 12854 12857 12860 12863 12866 12869 12872 12875 12878 12881 12884 12887 12890 12893 12896 12899 12902 12905 12908 12911 12914 12917 12920 12923 12926 12929 12932 12935 12938 12941 12944 12947 12950 12953 12956 12959 12962 12965 12968 12971 12974 12977 12980 12983 12986 12989 12992 12995 12997 13000 13003 13006 13009 13012 13014 13017 13020 13023 13026 13029 13032 13035 13038 13041 13043 13046 13049 13051 13054 13056 13059 13062 13065 13067 13070 13073 13076 13079 13082 13084 13087 13090 13093 13096 13099 13102 13105 13108 13111 13114 13117 13120 13122 13125 13128 13131 13133 13136 13139 13142 13145 13148 13151 13154 13157 13160 13163 13166 13169 13172 13175 13178 13181 13184 13187 13190 13193 13196 13199 13202 13205 13208 13211 13214 13217 13219 13222 13225 13227 13230 13233 13236 13238 13241 13244 13247 13250 13253 13256 13259 13262 13264 13267 13270 13273 13276 13279 13282 13285 13288 13291 13294 13297 13300 13303 13306 13308 13311 13314 13316 13319 13322 13324 13327 13330 13333 13336 13339 13342 13345 13348 13351 13354 13357 13360 13363 13366 13369 13372 13375 13378 13380 13383 13386 13389 13392 13395 13397 13400 13402 13405 13408 13411 13414 13417 13419 13422 13425 13428 13431 13434 13437 13440 13443 13446 13449 13452 13455 13458 13461 13463 13466 13469 13472 13475 13478 13481 13483 13486 13489 13491 13494 13497 13500 13503 13506 13509 13512 13515 13518 13521 13524 13527 13530 13533 13536 13539 13542 13545 13548 13551 13553 13556 13559 13562 13565 13568 13570 13573 13575 13578 13581 13583 13586 13588 13590 13593 13596 13599 13602 13604 13607 13610 13613 13615 13618 13621 13623 13626 13629 13632 13635 13638 13641 13643 13646 13648 13651 13654 13656 13659 13662 13665 13668 13670 13673 13676 13678 13680 13683 13686 13689 13692 13695 13698 13701 13704 13707 13709 13712 13714 13717 13719 13721 13724 13727 13730 13733 13736 13739 13742 13744 13746 13749 13752 13754 13757 13760 13763 13765 13768 13771 13774 13776 13779 13782 13785 13788 13791 13794 13797 13800 13803 13806 13809 13812 13815 13818 13821 13824 13827 13830 13833 13836 13839 13842 13845 13848 13851 13854 13857 13860 13862 13865 13868 13871 13874 13877 13880 13883 13886 13889 13891 13893 13896 13899 13902 13904 13907 13910 13913 13915 13918 13921 13924 13927 13930 13933 13936 13938 13941 13944 13946 13949 13952 13954 13956 13959 13962 13964 13967 13970 13973 13975 13977 13979 13982 13985 13987 13990 13993 13996 13999 14002 14005 14008 14011 14014 14017 14020 14022 14025 14028 14030 14033 14036 14039 14041 14044 14047 14049 14052 14054 14057 14060 14063 14066 14068 14071 14074 14077 14080 14083 14086 14089 14092 14095 14098 14100 14103 14106 14108 14110 14113 14115 14118 14121 14124 14127 14130 14133 14136 14139 14141 14143 14146 14148 14151 14154 14157 14160 14163 14165 14167 14170 14173 14176 14179 14182 14185 14187 14190 14193 14196 14198 14201 14204 14207 14210 14213 14216 14218 14221 14223 14225 14228 14231 14234 14236 14239 14242 14245 14248 14251 14254 14256 14259 14262 14265 14268 14270 14273 14275 14277 14280 14283 14286 14289 14292 14294 14297 14299 14302 14305 14307 14310 14312 14315 14318 14321 14324 14327 14330 14333 14336 14339 14341 14344 14346 14349 14351 14353 14355 14358 14361 14364 14367 14370 14372 14375 14378 14380 14382 14385 14388 14390 14393 14396 14399 14402 14405 14408 14411 14414 14417 14420 14423 14426 14429 14432 14435 14438 14441 14444 14447 14450 14453 14456 14459 14462 14465 14468 14470 14473 14476 14479 14482 14484 14487 14490 14493 14496 14499 14502 14504 14507 14510 14513 14516 14519 14521 14523 14526 14529 14531 14534 14537 14540 14542 14545 14548 14550 14552 14555 14557 14560 14563 14566 14569 14572 14575 14578 14580 14582 14585 14587 14590 14593 14596 14599 14602 14604 14607 14610 14613 14616 14619 14622 14625 14628 14631 14634 14637 14640 14643 14646 14649 14652 14655 14658 14661 14664 14667 14669 14672 14675 14678 14681 14684 14687 14690 14693 14696 14699 14702 14704 14707 14710 14713 14715 14718 14721 14723 14726 14728 14731 14734 14737 14740 14742 14744 14747 14750 14753 14756 14759 14761 14763 14766 14769 14772 14775 14777 14780 14783 14786 14789 14792 14795 14798 14801 14804 14807 14810 14813 14816 14819 14822 14825 14828 14831 14834 14837 14840 14843 14846 14849 14852 14855 14858 14861 14864 14867 14870 14873 14875 14878 14881 14884 14886 14889 14892 14894 14897 14900 14902 14905 14908 14911 14914 14916 14919 14922 14925 14928 14931 14934 14937 14940 14942 14944 14947 14950 14953 14956 14959 14962 14964 14967 14970 14972 14975 14978 14981 14984 14986 14989 14992 14995 14997 15000 15003 15006 15009 15012 15015 15018 15021 15024 15027 15030 15033 15036 15039 15042 15045 15048 15051 15053 15056 15059 15061 15064 15067 15070 15073 15076 15079 15082 15085 15088 15091 15094 15097 15100 15102 15104 15107 15109 15112 15115 15118 15121 15124 15127 15129 15132 15134 15137 15140 15143 15146 15148 15151 15154 15157 15160 15163 15166 15169 15172 15175 15178 15181 15183 15186 15189 15192 15195 15198 15201 15204 15207 15209 15212 15215 15218 15221 15224 15227 15230 15233 15236 15239 15241 15244 15247 15250 15252 15254 15257 15260 15263 15266 15269 15272 15275 15278 15281 15284 15287 15290 15293 15296 15299 15302 15305 15308 15311 15314 15317 15320 15323 15326 15329 15332 15335 15338 15341 15344 15347 15350 15353 15356 15359 15362 15365 15368 15371 15374 15377 15379 15382 15385 15388 15391 15393 15395 15398 15400 15403 15405 15408 15411 15414 15417 15420 15423 15426 15429 15432 15434 15437 15440 15442 15445 15448 15451 15454 15457 15460 15463 15466 15469 15472 15475 15478 15481 15484 15487 15490 15493 15496 15499 15502 15505 15508 15511 15513 15516 15519 15522 15525 15528 15531 15533 15536 15539 15542 15545 15548 15551 15554 15557 15560 15563 15566 15568 15571 15574 15576 15579 15582 15584 15586 15589 15592 15595 15597 15600 15602 15605 15608 15610 15612 15615 15618 15621 15624 15627 15630 15632 15635 15638 15640 15642 15645 15647 15650 15653 15656 15659 15662 15665 15668 15671 15674 15677 15680 15683 15686 15688 15691 15694 15697 15700 15703 15706 15709 15712 15715 15718 15721 15724 15727 15730 15733 15736 15739 15742 15745 15748 15751 15754 15757 15760 15763 15766 15769 15772 15775 15778 15781 15784 15787 15790 15793 15796 15799 15802 15805 15808 15811 15814 15817 15820 15823 15826 15829 15832 15835 15838 15841 15844 15847 15850 15853 15855 15858 15861 15864 15867 15870 15873 15876 15879 15882 15885 15888 15891 15894 15897 15900 15903 15906 15909 15912 15915 15918 15921 15924 15927 15930 15933 15936 15939 15942 15945 15948 15951 15954 15957 15960 15963 15966 15969 15972 15975 15978 15981 15984 15987 15990 15993 15996 15999 16002 16005 16008 16010 16012 16015 16018 16021 16024 16027 16030 16033 16036 16039 16042 16045 16048 16051 16054 16056 16059 16062 16065 16068 16071 16074 16077 16080 16082 16085 16088 16091 16094 16097 16100 16103 16105 16108 16111 16114 16117 16119 16122 16125 16127 16130 16132 16135 16138 16140 16143 16146 16148 16151 16154 16157 16160 16163 16166 16169 16172 16175 16178 16180 16183 16186 16188 16191 16194 16197 16200 16203 16205 16208 16211 16214 16217 16220 16223 16226 16229 16231 16234 16236 16239 16242 16245 16247 16250 16253 16256 16259 16262 16265 16268 16270 16273 16276 16279 16281 16284 16287 16290 16293 16296 16299 16302 16304 16307 16310 16312 16315 16318 16321 16324 16326 16329 16332 16335 16338 16340 16343 16346 16349 16352 16354 16357 16360 16363 16365 16368 16371 16373 16376 16379 16382 16385 16388 16390 16393 16396 16399 16402 16404 16407 16410 16412 16415 16418 16420 16423 16425 16427 16430 16433 16436 16439 16442 16444 16447 16450 16453 16456 16459 16462 16464 16467 16470 16473 16475 16477 16480 16483 16485 16488 16491 16493 16496 16499 16502 16505 16507 16509 16512 16515 16517 16520 16523 16526 16529 16532 16535 16538 16541 16544 16547 16550 16553 16556 16559 16562 16565 16568 16571 16574 16577 16580 16583 16586 16589 16592 16595 16598 16601 16604 16607 16610 16613 16615 16618 16620 16623 16626 16629 16631 16634 16637 16640 16643 16646 16649 16652 16655 16658 16661 16664 16667 16670 16673 16676 16679 16682 16685 16688 16691 16694 16697 16700 16703 16705 16708 16711 16714 16717 16720 16723 16726 16729 16732 16735 16738 16741 16744 16747 16750 16752 16755 16758 16760 16763 16765 16768 16770 16773 16776 16778 16781 16784 16787 16789 16792 16795 16797 16800 16803 16805 16808 16811 16814 16817 16820 16822 16825 16828 16831 16834 16837 16840 16843 16846 16849 16852 16854 16856 16859 16862 16865 16868 16871 16874 16877 16880 16883 16885 16888 16891 16894 16897 16900 16903 16906 16909 16912 16915 16918 16921 16924 16927 16930 16933 16936 16939 16942 16945 16948 16951 16954 16957 16960 16963 16966 16969 16972 16975 16978 16981 16984 16987 16990 16993 16996 16999 17002 17004 17007 17010 17013 17015 17018 17021 17024 17026 17029 17031 17034 17036 17039 17042 17045 17047 17050 17052 17055 17058 17061 17064 17067 17070 17072 17075 17078 17080 17082 17084 17087 17090 17092 17095 17098 17101 17104 17107 17110 17113 17116 17119 17122 17125 17128 17131 17134 17137 17140 17142 17145 17148 17151 17153 17156 17159 17161 17163 17166 17169 17171 17173 17176 17179 17182 17185 17188 17190 17193 17196 17199 17202 17205 17208 17210 17213 17216 17219 17222 17225 17228 17231 17234 17237 17240 17243 17246 17249 17252 17255 17258 17261 17264 17267 17270 17273 17276 17279 17281 17284 17287 17290 17293 17296 17299 17302 17305 17307 17310 17313 17316 17319 17321 17324 17327 17330 17333 17336 17339 17342 17345 17348 17350 17353 17356 17359 17362 17365 17368 17371 17374 17377 17380 17383 17386 17389 17392 17395 17398 17401 17404 17407 17410 17413 17415 17418 17421 17423 17426 17429 17431 17433 17436 17439 17442 17445 17447 17450 17453 17456 17459 17462 17464 17467 17469 17472 17475 17478 17481 17484 17487 17490 17493 17496 17499 17502 17505 17508 17511 17514 17517 17520 17522 17525 17528 17531 17534 17537 17540 17543 17546 17549 17552 17555 17558 17561 17564 17566 17569 17572 17575 17578 17581 17584 17587 17590 17593 17596 17599 17602 17605 17607 17610 17613 17616 17619 17622 17625 17627 17630 17633 17636 17639 17641 17644 17647 17650 17653 17656 17659 17662 17665 17668 17671 17674 17677 17679 17682 17685 17687 17690 17692 17695 17697 17700 17703 17705 17708 17711 17713 17716 17719 17721 17724 17726 17729 17732 17735 17738 17741 17744 17746 17749 17752 17754 17756 17759 17762 17765 17767 17769 17771 17774 17777 17779 17782 17785 17788 17791 17794 17797 17800 17803 17805 17808 17811 17813 17816 17819 17822 17825 17828 17830 17833 17836 17838 17841 17843 17846 17849 17852 17855 17858 17861 17864 17867 17869 17872 17875 17878 17881 17883 17885 17888 17891 17894 17897 17900 17903 17906 17909 17911 17914 17917 17920 17923 17926 17929 17932 17934 17937 17940 17943 17946 17948 17951 17954 17957 17960 17963 17966 17969 17972 17975 17977 17980 17982 17985 17988 17990 17993 17996 17998 18001 18004 18007 18010 18013 18016 18018 18021 18024 18026 18029 18032 18035 18037 18040 18043 18046 18049 18052 18055 18058 18061 18064 18067 18070 18073 18076 18079 18082 18085 18087 18090 18093 18096 18099 18102 18105 18108 18111 18114 18117 18120 18123 18126 18129 18132 18135 18137 18140 18142 18145 18148 18151 18154 18157 18160 18163 18166 18169 18172 18175 18178 18181 18184 18187 18190 18193 18196 18199 18202 18205 18208 18211 18214 18217 18220 18223 18226 18228 18231 18234 18237 18240 18242 18245 18247 18250 18252 18255 18258 18260 18263 18266 18269 18272 18274 18276 18278 18280 18283 18286 18289 18292 18295 18297 18300 18302 18304 18306 18309 18312 18315 18318 18321 18324 18327 18330 18333 18336 18339 18342 18345 18348 18350 18353 18356 18359 18362 18365 18368 18371 18373 18376 18379 18382 18385 18388 18390 18393 18396 18398 18400 18403 18406 18409 18412 18415 18418 18421 18424 18426 18429 18432 18435 18438 18441 18443 18446 18449 18452 18455 18458 18461 18464 18467 18469 18472 18474 18477 18480 18482 18484 18487 18490 18493 18496 18498 18501 18504 18507 18510 18513 18516 18519 18521 18524 18527 18530 18533 18536 18539 18541 18544 18547 18550 18553 18556 18559 18561 18564 18566 18569 18571 18573 18576 18579 18581 18583 18586 18589 18592 18595 18598 18601 18604 18607 18610 18613 18615 18618 18621 18623 18626 18629 18632 18634 18637 18640 18643 18646 18648 18650 18653 18655 18658 18661 18664 18667 18670 18673 18676 18679 18682 18685 18688 18691 18694 18697 18700 18703 18706 18709 18712 18715 18718 18721 18724 18727 18730 18733 18736 18739 18742 18745 18748 18751 18754 18757 18760 18763 18766 18769 18772 18775 18778 18781 18784 18787 18790 18793 18796 18799 18802 18805 18808 18811 18814 18817 18820 18823 18826 18829 18832 18835 18838 18841 18844 18847 18850 18853 18856 18859 18862 18865 18868 18871 18874 18877 18880 18883 18886 18888 18891 18894 18897 18900 18903 18906 18909 18912 18915 18917 18920 18923 18926 18928 18931 18934 18936 18938 18941 18944 18947 18949 18952 18955 18957 18959 18962 18965 18968 18971 18974 18977 18979 18982 18985 18987 18990 18992 18995 18998 19001 19003 19006 19009 19012 19015 19018 19021 19024 19027 19030 19033 19036 19039 19042 19044 19047 19049 19052 19055 19057 19060 19062 19065 19068 19071 19074 19077 19080 19083 19086 19088 19091 19094 19097 19100 19103 19106 19109 19112 19115 19118 19121 19124 19126 19129 19131 19134 19137 19140 19143 19146 19149 19152 19155 19157 19160 19163 19166 19168 19171 19173 19176 19178 19181 19184 19187 19190 19193 19196 19199 19201 19203 19206 19209 19212 19215 19218 19221 19224 19227 19230 19233 19236 19239 19242 19245 19248 19251 19254 19257 19260 19263 19266 19269 19272 19275 19278 19281 19284 19287 19290 19293 19296 19298 19301 19304 19307 19310 19313 19315 19318 19320 19323 19325 19328 19331 19333 19336 19338 19341 19344 19347 19350 19353 19356 19359 19362 19365 19368 19371 19374 19376 19379 19382 19385 19388 19391 19394 19397 19400 19403 19406 19409 19412 19415 19418 19420 19423 19426 19429 19432 19435 19438 19441 19444 19447 19449 19452 19455 19458 19461 19463 19465 19468 19471 19473 19476 19479 19482 19485 19488 19491 19493 19496 19499 19502 19505 19508 19511 19514 19517 19520 19523 19526 19529 19532 19535 19538 19541 19544 19547 19550 19553 19556 19559 19562 19565 19568 19570 19573 19575 19578 19580 19583 19586 19588 19591 19594 19597 19600 19603 19606 19609 19612 19615 19618 19621 19624 19627 19630 19633 19636 19638 19641 19644 19647 19650 19652 19655 19658 19661 19663 19666 19669 19671 19674 19677 19680 19683 19686 19688 19691 19694 19696 19699 19702 19705 19707 19709 19712 19715 19718 19721 19723 19725 19728 19731 19734 19736 19739 19742 19745 19747 19750 19753 19756 19758 19761 19763 19766 19768 19771 19774 19777 19780 19783 19786 19788 19791 19794 19796 19798 19801 19803 19806 19809 19812 19815 19818 19820 19823 19826 19829 19832 19835 19838 19840 19842 19845 19848 19851 19854 19856 19859 19862 19865 19868 19871 19874 19877 19880 19883 19886 19889 19892 19895 19898 19901 19904 19907 19909 19912 19915 19918 19921 19923 19926 19929 19932 19934 19936 19939 19942 19945 19948 19950 19953 19955 19958 19961 19964 19966 19969 19971 19974 19977 19979 19982 19985 19988 19991 19994 19997 19999 20002 20004 20007 20010 20013 20015 20018 20021 20024 20027 20030 20032 20035 20038 20041 20044 20047 20050 20053 20055 20058 20061 20064 20067 20069 20072 20075 20078 20080 20083 20086 20089 20092 20095 20098 20101 20104 20106 20109 20112 20115 20117 20120 20123 20126 20129 20132 20134 20137 20140 20143 20146 20149 20152 20155 20158 20161 20164 20166 20169 20172 20175 20177 20180 20183 20186 20189 20192 20195 20197 20200 20203 20205 20208 20211 20213 20216 20218 20220 20223 20226 20228 20230 20233 20235 20238 20241 20243 20246 20249 20251 20254 20256 20259 20261 20264 20266 20269 20271 20274 20276 20279 20282 20284 20287 20289 20292 20295 20298 20301 20303 20306 20309 20312 20315 20318 20321 20324 20327 20330 20332 20335 20338 20341 20344 20347 20350 20353 20356 20359 20362 20365 20368 20371 20374 20377 20380 20383 20386 20389 20392 20395 20398 20401 20404 20407 20410 20413 20416 20418 20420 20423 20426 20429 20432 20435 20438 20441 20444 20447 20450 20453 20455 20458 20461 20463 20466 20469 20472 20474 20477 20480 20483 20486 20489 20492 20495 20498 20501 20504 20507 20510 20513 20516 20519 20522 20525 20528 20531 20533 20536 20539 20542 20545 20548 20551 20554 20557 20560 20562 20565 20568 20571 20573 20576 20578 20581 20584 20587 20590 20593 20596 20599 20602 20604 20606 20609 20612 20615 20618 20621 20623 20626 20629 20632 20635 20638 20641 20644 20647 20649 20652 20655 20658 20661 20663 20666 20669 20671 20673 20676 20678 20681 20684 20687 20690 20693 20696 20699 20701 20704 20707 20709 20712 20715 20717 20719 20722 20725 20728 20731 20734 20737 20740 20743 20746 20749 20752 20755 20758 20761 20764 20767 20770 20773 20776 20779 20782 20785 20788 20791 20794 20797 20800 20803 20806 20809 20812 20815 20818 20820 20823 20826 20829 20832 20835 20838 20841 20844 20847 20850 20853 20856 20859 20861 20863 20866 20869 20872 20875 20878 20881 20883 20886 20889 20892 20895 20898 20900 20903 20906 20909 20911 20914 20917 20919 20922 20924 20926 20929 20932 20935 20938 20940 20943 20946 20949 20952 20955 20958 20961 20964 20967 20970 20973 20976 20979 20982 20985 20988 20991 20994 20997 21000 21003 21006 21009 21012 21015 21018 21021 21023 21026 21029 21032 21035 21037 21040 21042 21045 21048 21050 21053 21056 21059 21062 21064 21067 21069 21072 21075 21078 21081 21084 21087 21090 21093 21095 21097 21100 21103 21106 21108 21111 21114 21117 21120 21123 21126 21129 21132 21135 21138 21141 21144 21147 21150 21153 21156 21158 21161 21164 21167 21170 21173 21176 21179 21182 21185 21187 21190 21193 21196 21199 21202 21205 21208 21211 21214 21217 21220 21223 21226 21229 21232 21235 21238 21241 21244 21246 21248 21251 21254 21257 21259 21261 21263 21266 21269 21272 21274 21277 21280 21283 21286 21288 21291 21294 21297 21300 21303 21306 21309 21312 21314 21317 21320 21323 21326 21329 21331 21334 21337 21340 21343 21346 21349 21352 21355 21358 21361 21364 21367 21370 21373 21376 21379 21382 21385 21388 21391 21393 21396 21399 21402 21404 21406 21409 21412 21415 21418 21421 21424 21427 21430 21433 21436 21439 21442 21445 21448 21451 21454 21457 21460 21463 21466 21469 21472 21474 21477 21480 21483 21486 21489 21492 21495 21498 21500 21502 21505 21508 21511 21514 21517 21520 21523 21526 21529 21532 21535 21538 21541 21544 21547 21550 21553 21556 21559 21562 21565 21568 21571 21574 21577 21580 21583 21586 21589 21592 21595 21598 21601 21604 21607 21610 21613 21616 21619 21621 21624 21627 21630 21633 21635 21638 21641 21644 21647 21650 21653 21656 21659 21662 21665 21668 21671 21674 21677 21680 21683 21686 21689 21692 21694 21697 21700 21703 21706 21708 21711 21714 21717 21720 21722 21725 21728 21731 21734 21737 21740 21743 21746 21749 21751 21754 21757 21759 21762 21765 21768 21771 21773 21776 21779 21782 21784 21787 21790 21793 21796 21799 21802 21805 21808 21811 21814 21817 21820 21823 21825 21828 21831 21834 21836 21839 21842 21845 21848 21851 21854 21857 21860 21863 21866 21868 21871 21874 21877 21880 21883 21886 21889 21892 21895 21898 21901 21904 21907 21910 21913 21916 21919 21922 21925 21928 21931 21934 21937 21940 21943 21945 21948 21951 21954 21957 21960 21963 21965 21968 21971 21973 21976 21979 21982 21985 21987 21990 21993 21996 21999 22002 22005 22008 22011 22014 22017 22019 22022 22024 22026 22028 22031 22034 22037 22040 22042 22045 22048 22051 22054 22057 22060 22063 22066 22069 22072 22075 22078 22081 22083 22086 22088 22091 22093 22096 22099 22102 22105 22107 22110 22112 22114 22117 22120 22123 22126 22129 22132 22135 22137 22140 22143 22145 22148 22150 22153 22156 22158 22161 22164 22166 22169 22172 22174 22177 22179 22182 22185 22187 22190 22192 22194 22197 22200 22202 22205 22207 22210 22213 22215 22218 22221 22224 22227 22230 22233 22236 22239 22242 22244 22247 22250 22253 22255 22258 22261 22264 22267 22270 22273 22276 22279 22282 22285 22288 22290 22293 22296 22299 22302 22305 22308 22310 22313 22315 22318 22321 22324 22326 22329 22332 22334 22336 22339 22341 22344 22347 22350 22353 22355 22358 22361 22363 22366 22369 22371 22374 22376 22379 22382 22384 22387 22390 22392 22394 22397 22400 22403 22406 22408 22411 22414 22416 22419 22422 22425 22428 22431 22433 22435 22437 22440 22442 22445 22448 22450 22453 22456 22459 22462 22465 22468 22471 22474 22476 22479 22482 22485 22488 22491 22494 22497 22499 22502 22505 22507 22510 22513 22516 22518 22521 22524 22527 22530 22532 22535 22538 22540 22543 22545 22548 22551 22554 22557 22560 22563 22566 22569 22572 22575 22578 22580 22583 22586 22589 22592 22595 22598 22601 22604 22607 22610 22612 22615 22618 22621 22623 22626 22629 22632 22635 22638 22641 22644 22647 22650 22653 22656 22658 22661 22664 22666 22669 22672 22675 22677 22680 22683 22685 22688 22691 22694 22696 22699 22702 22705 22708 22711 22714 22717 22720 22723 22726 22729 22732 22735 22738 22741 22744 22747 22750 22753 22756 22759 22762 22765 22768 22771 22774 22777 22780 22783 22786 22789 22792 22795 22797 22800 22803 22806 22809 22812 22815 22818 22821 22824 22827 22830 22833 22836 22839 22842 22845 22848 22851 22853 22856 22859 22862 22865 22868 22870 22873 22876 22879 22882 22885 22888 22891 22894 22897 22900 22903 22906 22909 22912 22915 22918 22921 22924 22927 22930 22933 22936 22939 22942 22945 22947 22950 22952 22955 22957 22960 22963 22965 22968 22971 22974 22977 22980 22983 22985 22988 22991 22994 22997 23000 23002 23005 23008 23011 23014 23016 23019 23022 23025 23028 23031 23034 23037 23040 23043 23046 23049 23052 23055 23058 23061 23064 23067 23070 23073 23076 23079 23082 23085 23088 23090 23093 23096 23099 23102 23105 23108 23111 23114 23117 23120 23123 23126 23129 23132 23135 23138 23141 23144 23147 23150 23153 23156 23159 23162 23165 23167 23170 23173 23175 23178 23181 23184 23187 23190 23193 23196 23199 23201 23204 23207 23209 23212 23215 23218 23221 23224 23226 23229 23232 23235 23238 23241 23244 23247 23250 23253 23256 23259 23261 23264 23267 23270 23273 23276 23279 23281 23284 23287 23290 23293 23296 23298 23301 23303 23306 23309 23312 23315 23318 23321 23324 23327 23330 23333 23336 23339 23342 23345 23348 23350 23353 23355 23358 23361 23363 23366 23369 23371 23373 23376 23379 23382 23385 23388 23391 23393 23396 23399 23402 23404 23407 23410 23413 23415 23417 23420 23423 23426 23428 23431 23433 23436 23438 23441 23444 23447 23449 23452 23455 23458 23461 23464 23467 23470 23473 23476 23479 23482 23485 23488 23491 23494 23497 23500 23503 23506 23509 23511 23514 23517 23520 23523 23525 23528 23531 23534 23537 23540 23543 23546 23549 23552 23555 23558 23561 23564 23567 23570 23573 23576 23579 23582 23585 23588 23591 23594 23597 23600 23603 23606 23609 23611 23614 23617 23620 23623 23626 23629 23631 23634 23637 23640 23643 23646 23649 23651 23654 23657 23659 23662 23664 23667 23670 23673 23676 23678 23681 23684 23687 23690 23693 23696 23699 23702 23705 23708 23711 23714 23717 23720 23723 23726 23729 23731 23734 23737 23740 23742 23745 23748 23750 23753 23755 23757 23760 23763 23766 23769 23771 23774 23776 23779 23782 23784 23787 23790 23793 23796 23799 23801 23804 23807 23810 23812 23815 23817 23820 23822 23824 23827 23830 23833 23836 23839 23842 23844 23846 23849 23852 23855 23857 23860 23863 23866 23869 23871 23874 23877 23880 23883 23886 23889 23891 23894 23897 23900 23903 23906 23909 23912 23915 23918 23921 23924 23927 23929 23932 23935 23938 23941 23944 23947 23950 23953 23956 23959 23962 23965 23968 23971 23974 23977 23980 23983 23986 23989 23992 23994 23996 23999 24002 24005 24008 24010 24013 24016 24018 24021 24023 24026 24029 24032 24035 24038 24041 24044 24047 24049 24052 24055 24058 24061 24064 24067 24070 24073 24076 24078 24081 24084 24087 24090 24093 24095 24098 24101 24104 24107 24110 24113 24116 24119 24122 24125 24128 24131 24133 24136 24139 24142 24145 24148 24151 24154 24157 24159 24162 24165 24168 24171 24174 24177 24180 24183 24186 24189 24192 24195 24198 24201 24204 24207 24210 24213 24216 24219 24222 24225 24228 24231 24234 24237 24240 24243 24246 24249 24252 24255 24258 24261 24264 24267 24269 24272 24275 24278 24280 24283 24285 24288 24291 24293 24296 24298 24301 24304 24306 24309 24312 24314 24317 24320 24322 24325 24327 24330 24333 24336 24338 24341 24343 24346 24349 24352 24355 24358 24361 24364 24367 24370 24372 24375 24378 24381 24383 24386 24389 24392 24395 24398 24401 24404 24407 24410 24413 24416 24419 24422 24424 24426 24428 24431 24433 24436 24439 24442 24445 24448 24451 24454 24457 24460 24463 24466 24469 24472 24474 24476 24479 24482 24484 24487 24490 24493 24496 24499 24502 24505 24508 24511 24514 24517 24520 24523 24525 24528 24531 24534 24537 24540 24543 24546 24549 24552 24555 24558 24560 24563 24566 24569 24572 24575 24578 24581 24584 24587 24590 24592 24595 24598 24601 24604 24607 24610 24613 24615 24618 24621 24624 24626 24629 24632 24635 24638 24640 24643 24646 24649 24652 24655 24658 24661 24664 24667 24670 24673 24676 24679 24682 24685 24688 24690 24693 24696 24699 24701 24704 24707 24709 24712 24714 24717 24720 24723 24726 24729 24732 24735 24738 24741 24744 24747 24750 24753 24756 24759 24762 24765 24768 24771 24774 24777 24780 24783 24785 24787 24790 24792 24795 24797 24800 24803 24806 24809 24811 24814 24817 24820 24823 24826 24829 24832 24835 24838 24841 24844 24846 24849 24851 24854 24857 24859 24862 24864 24867 24870 24873 24876 24879 24882 24885 24887 24890 24893 24896 24899 24902 24905 24907 24910 24913 24916 24919 24922 24924 24927 24930 24933 24936 24939 24942 24945 24948 24951 24954 24957 24960 24963 24965 24968 24971 24974 24976 24979 24982 24985 24988 24990 24993 24996 24999 25002 25005 25008 25011 25014 25017 25020 25023 25026 25029 25032 25035 25038 25041 25043 25045 25048 25051 25054 25057 25060 25063 25066 25069 25072 25075 25078 25081 25084 25087 25090 25093 25096 25099 25102 25105 25108 25111 25114 25117 25120 25123 25125 25128 25130 25132 25135 25138 25141 25144 25147 25149 25151 25154 25157 25159 25162 25165 25168 25171 25174 25177 25180 25183 25186 25189 25191 25193 25196 25199 25202 25205 25208 25211 25214 25216 25219 25222 25225 25228 25231 25233 25236 25239 25242 25245 25248 25250 25253 25256 25259 25262 25265 25268 25271 25274 25276 25279 25282 25285 25288 25291 25294 25297 25300 25303 25306 25309 25312 25315 25318 25321 25324 25327 25330 25332 25335 25338 25341 25344 25347 25350 25353 25355 25358 25361 25364 25367 25369 25372 25375 25378 25381 25384 25387 25390 25393 25396 25399 25402 25405 25408 25411 25413 25416 25419 25422 25425 25428 25431 25434 25437 25440 25442 25445 25447 25450 25453 25456 25459 25462 25465 25468 25471 25474 25477 25479 25482 25485 25488 25491 25494 25497 25500 25503 25506 25509 25512 25514 25517 25520 25523 25526 25529 25531 25534 25536 25539 25541 25544 25547 25549 25551 25554 25556 25559 25561 25564 25566 25569 25572 25575 25578 25581 25584 25587 25590 25593 25596 25598 25601 25604 25607 25610 25613 25615 25618 25621 25624 25627 25630 25632 25635 25638 25641 25644 25647 25650 25653 25656 25658 25661 25664 25667 25670 25673 25675 25678 25681 25684 25687 25690 25693 25696 25699 25702 25705 25708 25711 25714 25717 25720 25723 25726 25728 25730 25733 25736 25739 25742 25745 25747 25750 25753 25756 25759 25762 25765 25768 25771 25773 25776 25779 25782 25785 25788 25791 25794 25797 25800 25803 25806 25809 25812 25814 25816 25819 25822 25825 25828 25831 25834 25837 25840 25843 25846 25849 25852 25854 25857 25860 25863 25866 25869 25872 25875 25878 25881 25884 25887 25890 25892 25895 25898 25901 25903 25906 25909 25912 25914 25916 25919 25922 25925 25928 25931 25934 25936 25939 25942 25945 25948 25951 25954 25956 25959 25962 25965 25968 25971 25974 25977 25980 25983 25986 25989 25992 25995 25997 25999 26002 26004 26007 26009 26012 26015 26018 26021 26024 26027 26030 26033 26036 26039 26042 26045 26048 26051 26054 26057 26060 26063 26066 26069 26072 26075 26077 26080 26083 26086 26089 26092 26095 26098 26101 26104 26107 26110 26113 26116 26119 26121 26123 26126 26129 26132 26135 26138 26141 26144 26147 26150 26153 26156 26159 26162 26165 26168 26171 26174 26176 26179 26182 26184 26187 26190 26193 26196 26198 26201 26204 26207 26209 26212 26215 26218 26221 26224 26227 26230 26233 26236 26239 26242 26245 26248 26250 26253 26256 26259 26262 26265 26268 26271 26274 26277 26279 26282 26285 26288 26290 26293 26296 26299 26302 26304 26306 26309 26312 26315 26317 26320 26323 26326 26329 26332 26335 26338 26341 26344 26346 26349 26352 26355 26357 26360 26362 26365 26368 26371 26374 26377 26380 26383 26386 26389 26392 26395 26398 26401 26404 26407 26410 26412 26415 26418 26421 26424 26427 26429 26432 26435 26438 26441 26444 26447 26450 26453 26456 26459 26461 26464 26467 26469 26472 26475 26477 26480 26483 26486 26489 26492 26495 26498 26501 26504 26507 26509 26512 26515 26518 26520 26523 26525 26528 26531 26534 26536 26539 26541 26544 26546 26549 26552 26555 26558 26561 26563 26565 26568 26571 26574 26577 26580 26583 26586 26589 26592 26595 26598 26601 26603 26606 26609 26612 26615 26618 26621 26623 26626 26629 26632 26635 26638 26641 26644 26647 26650 26653 26656 26659 26662 26665 26667 26670 26673 26675 26678 26681 26684 26687 26690 26693 26696 26699 26702 26705 26708 26711 26714 26717 26720 26723 26726 26729 26732 26735 26738 26741 26744 26747 26750 26752 26755 26758 26761 26764 26766 26769 26772 26775 26777 26779 26782 26785 26788 26791 26794 26797 26800 26803 26806 26809 26812 26815 26818 26821 26824 26827 26830 26833 26836 26839 26842 26845 26848 26851 26854 26857 26860 26863 26866 26869 26872 26875 26878 26880 26883 26886 26889 26891 26894 26897 26899 26902 26905 26908 26911 26914 26916 26919 26922 26925 26928 26931 26933 26936 26939 26942 26945 26948 26951 26954 26956 26959 26962 26965 26968 26971 26974 26977 26979 26982 26985 26987 26990 26993 26996 26998 27001 27003 27006 27009 27012 27015 27018 27021 27024 27027 27029 27032 27035 27037 27040 27043 27046 27049 27052 27054 27057 27060 27063 27066 27069 27072 27075 27078 27081 27084 27087 27090 27092 27095 27097 27100 27103 27106 27109 27112 27115 27117 27120 27123 27126 27129 27132 27135 27138 27141 27143 27146 27149 27151 27154 27157 27160 27163 27165 27168 27171 27174 27177 27180 27183 27186 27189 27192 27195 27197 27200 27202 27205 27208 27211 27214 27217 27220 27223 27226 27229 27231 27234 27237 27240 27243 27245 27248 27251 27254 27257 27260 27263 27266 27269 27272 27275 27278 27281 27284 27287 27290 27293 27296 27298 27301 27304 27307 27310 27313 27316 27319 27322 27325 27328 27331 27334 27336 27339 27342 27345 27348 27351 27354 27357 27360 27363 27366 27369 27372 27375 27378 27381 27383 27386 27389 27392 27395 27398 27401 27404 27407 27410 27413 27416 27419 27422 27425 27428 27431 27434 27437 27440 27443 27446 27449 27452 27455 27457 27460 27463 27466 27469 27472 27475 27478 27481 27484 27487 27490 27493 27496 27498 27501 27504 27507 27510 27513 27516 27518 27521 27524 27527 27530 27533 27536 27539 27542 27544 27547 27550 27552 27555 27558 27561 27564 27567 27570 27572 27575 27578 27581 27584 27587 27590 27593 27596 27599 27602 27605 27608 27610 27613 27616 27619 27622 27625 27627 27630 27633 27636 27639 27642 27645 27647 27650 27653 27656 27659 27661 27664 27667 27670 27673 27676 27679 27682 27685 27687 27690 27693 27696 27698 27700 27703 27706 27709 27712 27715 27718 27721 27724 27727 27730 27733 27736 27739 27742 27745 27748 27751 27754 27757 27760 27763 27766 27769 27772 27775 27778 27781 27784 27787 27790 27793 27796 27799 27802 27805 27808 27811 27814 27817 27820 27823 27826 27829 27832 27834 27837 27840 27843 27846 27848 27851 27854 27857 27860 27863 27866 27868 27871 27874 27877 27880 27883 27886 27889 27892 27895 27898 27901 27904 27906 27909 27912 27915 27917 27920 27923 27925 27927 27930 27933 27936 27939 27942 27945 27948 27951 27954 27956 27959 27962 27964 27966 27969 27972 27974 27977 27979 27982 27984 27987 27990 27993 27996 27998 28001 28003 28006 28009 28012 28015 28018 28021 28024 28027 28030 28033 28036 28039 28042 28045 28048 28051 28054 28057 28060 28063 28066 28069 28072 28075 28078 28081 28084 28087 28089 28092 28095 28098 28101 28103 28106 28109 28112 28115 28118 28121 28123 28125 28128 28131 28134 28137 28140 28143 28146 28149 28152 28155 28158 28161 28164 28167 28170 28173 28176 28179 28182 28185 28188 28191 28194 28197 28200 28203 28206 28209 28212 28215 28217 28220 28223 28225 28228 28231 28234 28236 28238 28241 28244 28247 28250 28252 28255 28258 28261 28263 28266 28269 28272 28275 28277 28280 28282 28284 28286 28288 28291 28294 28297 28300 28303 28306 28309 28312 28314 28317 28320 28322 28325 28328 28331 28333 28335 28338 28341 28344 28347 28350 28352 28354 28356 28359 28362 28365 28368 28370 28373 28375 28378 28381 28384 28387 28390 28393 28396 28399 28402 28405 28408 28411 28413 28416 28419 28422 28425 28428 28431 28434 28436 28439 28442 28445 28448 28451 28454 28457 28460 28463 28466 28469 28472 28475 28478 28481 28483 28486 28489 28492 28495 28498 28501 28504 28507 28510 28513 28516 28519 28522 28525 28527 28530 28533 28536 28538 28541 28544 28547 28550 28552 28555 28558 28561 28563 28566 28569 28572 28574 28577 28580 28583 28586 28589 28591 28593 28596 28598 28601 28603 28606 28609 28612 28615 28618 28621 28624 28627 28630 28633 28636 28639 28642 28644 28646 28649 28652 28655 28658 28661 28664 28667 28670 28672 28675 28678 28681 28684 28687 28690 28692 28694 28696 28699 28702 28704 28707 28710 28713 28716 28718 28721 28724 28727 28729 28732 28734 28737 28740 28743 28746 28749 28752 28755 28758 28761 28764 28767 28770 28773 28776 28779 28782 28785 28788 28791 28794 28797 28800 28803 28806 28809 28812 28815 28817 28820 28823 28826 28829 28832 28835 28838 28840 28843 28846 28849 28852 28855 28858 28861 28864 28866 28869 28871 28873 28876 28879 28882 28885 28887 28890 28893 28895 28898 28901 28904 28907 28910 28913 28916 28919 28922 28925 28927 28930 28933 28936 28939 28942 28945 28948 28951 28954 28957 28959 28962 28965 28968 28970 28973 28976 28979 28982 28985 28988 28991 28993 28995 28998 29001 29004 29006 29009 29012 29014 29016 29019 29021 29024 29027 29030 29033 29036 29038 29041 29044 29046 29049 29052 29055 29058 29061 29064 29066 29068 29071 29074 29077 29080 29083 29086 29089 29091 29094 29097 29100 29102 29105 29108 29111 29114 29117 29120 29123 29126 29129 29132 29135 29138 29141 29144 29147 29150 29153 29156 29159 29162 29165 29168 29171 29173 29176 29179 29182 29184 29187 29190 29193 29196 29199 29202 29205 29207 29210 29213 29216 29219 29222 29225 29228 29230 29233 29236 29239 29242 29245 29248 29251 29254 29256 29259 29262 29265 29268 29271 29273 29276 29279 29282 29284 29287 29290 29293 29296 29299 29301 29304 29307 29310 29313 29316 29319 29322 29325 29328 29331 29334 29337 29340 29343 29346 29349 29352 29355 29358 29361 29364 29367 29370 29373 29376 29379 29382 29385 29388 29391 29394 29397 29400 29403 29406 29409 29412 29415 29418 29421 29424 29427 29429 29432 29434 29437 29440 29443 29446 29449 29451 29454 29457 29460 29462 29465 29468 29471 29474 29477 29480 29482 29485 29488 29491 29494 29497 29500 29503 29506 29508 29511 29514 29517 29519 29522 29525 29528 29531 29534 29537 29540 29543 29546 29549 29552 29555 29558 29560 29563 29565 29568 29571 29574 29577 29580 29583 29586 29589 29592 29595 29598 29601 29604 29606 29609 29612 29615 29618 29621 29624 29627 29630 29633 29636 29639 29642 29645 29648 29651 29653 29656 29659 29662 29665 29668 29670 29673 29676 29679 29682 29685 29687 29690 29693 29695 29698 29701 29704 29707 29710 29713 29716 29719 29722 29725 29728 29731 29733 29736 29739 29742 29744 29747 29750 29752 29755 29758 29761 29764 29767 29770 29772 29775 29778 29781 29784 29787 29789 29792 29794 29797 29800 29803 29805 29808 29811 29813 29816 29819 29822 29825 29828 29831 29833 29836 29839 29841 29844 29847 29850 29853 29856 29859 29861 29864 29866 29869 29872 29875 29877 29880 29883 29885 29888 29891 29894 29897 29900 29903 29906 29909 29912 29915 29918 29921 29924 29927 29929 29932 29935 29938 29941 29944 29947 29950 29953 29955 29958 29961 29964 29967 29970 29972 29974 29977 29980 29983 29986 29989 29992 29994 29997 30000 30003 30006 30009 30012 30015 30018 30021 30024 30027 30030 30033 30035 30038 30041 30044 30047 30050 30053 30056 30058 30060 30063 30066 30068 30071 30074 30077 30080 30083 30086 30089 30092 30095 30098 30101 30103 30106 30109 30111 30114 30117 30120 30122 30125 30127 30130 30133 30136 30139 30142 30145 30148 30151 30154 30157 30160 30163 30166 30169 30172 30175 30177 30180 30183 30186 30189 30192 30195 30198 30200 30203 30206 30208 30211 30214 30217 30219 30222 30225 30228 30231 30234 30237 30240 30243 30246 30249 30251 30254 30257 30260 30263 30266 30268 30271 30274 30276 30279 30282 30285 30288 30291 30294 30297 30300 30303 30306 30309 30312 30314 30317 30320 30322 30325 30328 30331 30334 30337 30339 30342 30345 30348 30351 30354 30357 30360 30362 30365 30368 30371 30373 30375 30378 30381 30384 30387 30390 30393 30395 30398 30401 30404 30407 30410 30413 30416 30419 30422 30425 30427 30430 30433 30436 30438 30440 30443 30446 30449 30452 30455 30458 30461 30464 30467 30470 30473 30476 30479 30482 30484 30486 30489 30492 30495 30498 30500 30503 30506 30509 30512 30515 30518 30520 30522 30525 30527 30530 30533 30536 30538 30541 30544 30547 30550 30553 30555 30558 30560 30563 30566 30569 30572 30575 30578 30580 30583 30586 30589 30592 30594 30597 30600 30603 30605 30608 30611 30614 30617 30620 30623 30626 30629 30632 30635 30638 30641 30644 30647 30650 30653 30655 30658 30661 30663 30666 30669 30672 30675 30678 30681 30684 30687 30690 30693 30696 30699 30702 30704 30707 30710 30713 30716 30718 30721 30724 30727 30730 30732 30735 30738 30741 30744 30747 30750 30753 30755 30758 30761 30763 30766 30769 30772 30775 30778 30781 30784 30787 30790 30793 30796 30798 30801 30804 30807 30809 30812 30815 30818 30821 30824 30826 30829 30832 30834 30836 30839 30842 30844 30847 30850 30853 30856 30859 30861 30864 30867 30870 30872 30874 30877 30880 30882 30885 30887 30890 30893 30895 30898 30901 30903 30906 30909 30912 30915 30917 30920 30923 30926 30928 30931 30933 30936 30939 30942 30945 30948 30951 30954 30957 30960 30963 30965 30968 30971 30973 30976 30979 30981 30984 30987 30990 30993 30995 30998 31001 31003 31006 31009 31011 31014 31017 31020 31022 31025 31028 31031 31034 31036 31039 31042 31045 31048 31051 31054 31057 31059 31062 31065 31068 31071 31074 31077 31080 31083 31085 31088 31091 31094 31097 31100 31103 31106 31108 31111 31114 31117 31120 31123 31126 31129 31132 31135 31138 31141 31144 31147 31150 31153 31156 31159 31162 31165 31168 31171 31174 31176 31179 31182 31185 31188 31191 31194 31197 31200 31203 31206 31209 31212 31214 31217 31220 31223 31226 31229 31232 31234 31237 31240 31242 31245 31247 31250 31253 31256 31259 31262 31265 31268 31271 31274 31277 31280 31283 31286 31289 31291 31294 31297 31300 31303 31305 31308 31311 31314 31316 31319 31322 31325 31328 31331 31333 31336 31339 31342 31345 31347 31350 31353 31356 31358 31361 31364 31367 31370 31373 31376 31379 31382 31385 31388 31391 31394 31397 31400 31403 31406 31409 31412 31414 31417 31420 31422 31425 31428 31431 31434 31437 31440 31443 31446 31449 31452 31455 31458 31461 31463 31466 31469 31471 31474 31477 31480 31483 31486 31489 31492 31495 31498 31501 31503 31506 31509 31511 31514 31517 31519 31522 31525 31528 31531 31534 31537 31540 31543 31546 31549 31552 31555 31558 31561 31564 31567 31570 31573 31576 31579 31582 31584 31587 31590 31593 31596 31599 31602 31605 31608 31611 31614 31617 31620 31623 31626 31629 31632 31635 31638 31641 31644 31647 31650 31653 31656 31659 31662 31665 31668 31671 31674 31677 31680 31683 31686 31689 31692 31695 31698 31701 31704 31707 31710 31713 31716 31718 31721 31724 31726 31729 31732 31735 31738 31741 31744 31747 31750 31753 31756 31759 31762 31765 31768 31771 31774 31777 31780 
</DataArray>
<DataArray type="UInt32" Name="types" format="ascii">
5 5 5 5 5 3 5 5 5 5 5 5 5 5 5 5 3 5 5 5 5 3 5 3 5 5 3 5 5 5 5 3 5 5 3 3 5 5 5 5 5 5 3 5 5 5 3 5 3 5 3 5 5 5 5 5 3 5 5 5 5 5 5 5 5 5 5 5 5 3 5 5 5 5 5 5 5 5 3 5 5 5 5 5 5 5 5 5 5 5 5 5 5 5 5 5 5 5 5 3 5 5 5 5 5 5 5 5 5 3 3 5 5 5 5 5 5 5 5 5 3 5 5 5 5 3 5 3 5 5 5 3 5 5 3 3 5 5 5 5 3 3 3 5 5 5 5 5 3 5 5 5 5 5 3 5 5 5 3 5 5 5 5 5 5 5 5 5 5 5 5 5 5 5 5 5 5 5 5 5 3 5 5 5 5 5 5 5 5 3 5 5 3 5 3 3 5 5 5 5 5 3 3 5 3 5 5 5 3 5 5 3 5 5 5 5 3 5 3 5 5 3 3 5 5 5 5 5 5 5 5 3 5 5 3 5 5 5 5 5 5 5 3 5 5 5 5 5 3 5 5 3 5 3 5 5 5 5 3 5 5 5 5 5 3 5 5 5 5 5 5 5 5 3 5 5 3 5 5 3 5 5 3 5 5 3 5 5 5 5 5 5 3 5 3 5 5 5 3 5 5 5 5 5 5 5 5 5 5 5 3 5 5 5 5 5 5 5 5 5 5 3 5 3 5 5 5 3 5 5 5 3 5 5 5 5 5 5 3 3 5 5 5 3 5 5 3 3 5 5 3 5 5 5 5 5 3 5 5 5 5 3 5 5 3 5 5 5 3 3 5 5 5 3 5 5 5 5 5 3 5 3 5 5 5 5 5 5 5 5 5 5 5 3 3 5 5 5 5 5 5 5 5 5 5 5 5 5 3 5 5 5 5 5 5 5 5 3 5 5 3 5 5 5 5 5 3 5 5 3 5 5 5 5 5 3 5 3 5 5 5 5 5 5 5 5 5 5 5 5 5 5 5 3 5 5 5 5 3 5 5 5 5 3 5 5 3 3 5 5 5 5 5 3 5 3 5 5 5 3 3 5 5 5 5 3 5 5 5 5 5 5 5 5 5 5 3 5 5 5 5 5 5 5 3 3 5 5 5 5 5 5 5 5 5 5 5 3 5 5 5 5 5 5 5 5 5 5 5 5 5 5 5 5 5 5 5 5 5 5 5 3 5 5 5 3 5 5 3 5 5 5 5 5 5 5 5 5 3 5 5 5 5 5 3 5 5 3 5 5 3 5 5 3 5 5 5 5 5 5 5 5 5 5 5 5 5 5 5 5 5 5 5 5 5 5 5 5 5 3 5 5 5 5 5 3 5 5 5 5 5 3 5 3 5 5 5 5 5 5 5 5 5 5 5 5 5 5 5 5 5 5 5 5 5 5 5 5 5 5 5 5 5 5 5 5 5 5 5 5 5 5 5 5 5 5 5 5 5 5 5 5 5 5 5 5 5 5 5 5 5 5 5 5 5 5 5 5 5 5 5 5 5 5 5 5 5 5 5 5 5 5 5 5 5 5 3 5 5 5 5 5 5 5 5 5 5 5 5 5 5 5 3 5 5 3 5 5 5 5 5 5 3 5 5 3 5 5 5 5 5 5 5 5 5 5 3 5 5 3 5 5 3 5 3 5 5 5 5 5 5 5 5 5 5 5 3 5 5 5 5 5 5 5 5 3 5 3 5 5 5 5 5 5 5 5 5 5 5 5 5 5 5 5 5 5 5 5 5 5 5 5 5 3 5 5 5 5 3 5 5 5 5 3 3 5 5 5 5 3 5 5 3 5 3 5 5 5 5 3 3 5 3 3 5 5 3 5 5 3 5 5 5 5 5 5 5 5 5 3 5 3 5 5 5 5 3 3 5 5 5 5 3 5 5 3 3 5 5 3 5 5 5 5 5 5 5 5 5 5 5 5 5 5 5 5 5 5 5 5 3 5 5 5 5 5 5 5 5 5 5 5 5 5 5 3 5 5 5 5 5 5 5 3 5 5 5 3 5 5 5 5 3 5 5 5 5 5 5 3 5 5 3 3 5 3 5 5 5 3 5 5 5 3 3 5 5 5 5 5 5 5 5 3 5 5 5 5 5 5 5 5 5 5 5 5 5 5 5 5 5 3 5 5 5 3 5 5 5 5 5 5 5 5 3 5 5 5 5 5 5 5 5 5 5 5 5 5 5 5 5 5 5 3 5 5 5 5 5 5 5 5 5 5 5 5 5 5 5 5 5 5 5 5 5 5 5 3 5 3 5 5 5 5 3 3 5 5 5 5 5 5 5 5 5 5 5 5 5 5 5 5 5 3 5 5 3 5 5 5 5 5 5 5 5 5 5 5 5 5 3 3 5 3 5 5 5 5 5 5 5 5 3 5 5 5 3 5 5 5 3 5 5 5 5 5 5 5 5 5 3 5 5 5 5 5 5 5 5 5 5 3 5 5 5 5 5 5 5 5 5 5 5 3 5 3 5 3 5 5 5 3 5 3 5 5 5 3 5 5 5 5 5 5 5 5 5 5 5 5 5 5 5 3 5 5 5 5 5 5 5 5 3 5 3 5 3 5 3 3 3 5 5 5 5 5 5 5 5 5 5 5 3 5 5 5 5 5 5 5 5 5 5 5 5 5 5 5 5 5 5 5 5 5 5 5 5 5 3 5 5 5 5 5 3 5 5 5 5 5 5 5 5 5 5 5 5 5 5 3 5 5 5 5 3 5 5 5 5 5 5 5 5 5 5 5 5 3 5 5 5 5 5 5 3 5 5 5 5 5 5 5 5 5 5 5 3 3 5 5 5 3 3 5 5 5 5 5 5 5 5 5 5 5 5 5 5 5 5 5 5 5 5 5 5 5 5 5 5 5 5 5 5 5 5 5 5 5 5 5 5 5 5 5 5 5 5 5 5 5 5 5 5 3 5 5 3 5 5 3 3 5 3 5 5 5 5 5 5 3 5 5 5 5 5 5 5 5 5 5 3 5 5 5 5 5 5 5 5 5 5 5 5 3 5 5 5 5 5 5 5 5 5 3 5 5 5 5 5 5 5 5 5 5 5 5 3 5 5 3 5 3 5 5 5 5 5 3 3 5 3 5 5 5 5 5 5 5 5 5 5 5 5 3 5 5 5 5 5 5 3 5 5 5 5 5 5 5 5 5 5 5 5 3 5 5 3 5 3 3 5 5 5 5 5 5 5 3 5 3 5 5 5 5 5 5 5 5 5 5 5 5 5 5 5 5 5 5 5 5 5 5 5 5 5 5 5 5 5 5 5 5 5 5 5 5 5 5 5 5 5 5 5 5 5 5 5 3 5 5 5 5 5 5 5 5 5 3 5 5 3 5 3 5 3 5 5 5 5 5 5 3 5 5 5 5 5 5 5 5 5 5 5 5 5 5 5 5 5 3 5 5 5 5 5 5 3 5 5 5 5 5 5 5 5 5 5 5 5 3 5 5 5 5 5 5 5 5 5 5 5 5 5 5 5 5 5 5 5 5 5 5 5 5 5 5 5 5 5 5 5 5 5 5 5 3 5 5 5 5 3 5 5 5 5 5 3 5 5 5 3 5 5 5 5 3 5 5 5 5 5 5 5 5 5 5 5 3 5 5 3 5 5 3 3 5 5 3 5 5 5 5 5 5 5 5 3 5 3 5 5 5 5 5 5 3 5 5 5 5 3 5 5 5 5 5 5 5 5 5 5 5 5 5 5 5 5 3 5 5 5 3 5 5 5 5 5 5 5 5 5 5 3 5 5 5 3 5 5 5 3 5 3 5 5 5 5 5 5 5 5 5 5 5 5 5 5 5 5 5 5 5 5 5 5 5 5 5 5 5 5 3 5 5 5 5 5 5 5 5 5 5 5 3 5 5 5 3 5 5 5 5 5 5 5 5 5 3 3 5 3 5 3 5 3 5 5 5 5 3 5 5 3 5 5 5 5 5 5 3 5 5 5 5 3 5 5 5 5 5 5 5 5 5 5 5 5 5 5 5 3 5 5 5 5 5 5 5 5 5 5 5 5 3 5 5 5 5 5 5 3 5 5 5 5 5 3 5 3 5 5 5 5 5 5 5 5 3 5 3 3 5 5 5 3 5 5 3 5 5 3 5 5 3 5 3 3 5 5 5 5 5 5 5 5 5 5 5 5 5 5 5 5 5 5 5 5 5 5 5 5 5 5 5 5 3 5 5 5 5 5 5 5 5 3 5 5 5 5 5 5 5 3 5 5 5 3 5 5 3 5 5 5 5 5 5 5 5 5 5 5 5 3 5 5 5 5 3 5 5 5 5 5 5 5 5 3 5 5 5 3 5 5 5 5 5 5 5 5 5 5 5 3 5 5 5 5 3 5 5 5 3 3 5 5 5 5 5 3 5 3 5 5 3 5 3 5 5 5 5 5 5 5 5 5 5 5 5 5 5 5 5 3 5 5 3 5 5 5 3 5 3 3 5 5 5 3 5 5 3 5 3 5 5 5 5 5 5 5 5 5 5 5 3 5 3 5 5 5 5 5 5 5 5 5 3 5 5 5 5 5 5 5 5 5 3 5 5 5 5 5 5 5 5 3 5 5 3 5 5 5 5 3 5 5 5 5 3 5 5 5 5 5 5 5 5 5 5 5 5 5 5 5 3 5 5 5 5 3 5 5 3 5 5 5 5 5 5 5 5 5 5 5 5 5 5 5 5 5 3 5 5 5 5 5 5 5 3 5 5 5 3 5 5 3 5 5 5 5 5 5 5 5 5 3 5 5 3 5 5 5 5 5 5 5 3 5 5 5 3 5 3 5 5 5 5 5 5 5 5 5 5 3 5 5 5 5 3 3 5 5 5 5 5 5 5 5 5 5 5 5 3 5 5 3 5 5 5 3 5 5 3 5 5 5 3 5 5 5 5 3 5 5 5 5 5 5 5 5 5 5 5 5 5 5 5 3 5 5 5 5 3 5 5 5 5 5 5 5 5 5 5 5 5 3 5 5 5 5 5 5 3 5 5 5 5 5 5 3 5 5 5 5 5 5 5 5 5 5 5 5 5 3 5 3 5 5 5 5 3 5 5 5 3 3 5 5 3 5 5 5 5 5 5 5 5 5 5 5 5 5 5 5 5 3 3 5 5 3 5 5 5 5 5 5 5 5 5 5 5 5 5 5 5 3 5 5 5 5 5 5 5 3 5 5 5 5 5 5 5 5 5 3 5 5 3 5 5 5 5 5 5 5 3 5 5 5 5 5 5 3 5 3 5 5 5 5 5 3 5 5 3 5 3 5 3 3 5 5 5 5 5 5 5 5 5 5 5 5 3 5 5 5 5 5 5 3 5 5 5 5 5 5 5 3 5 5 5 5 5 3 3 5 5 3 5 5 5 5 3 3 5 5 5 5 3 3 5 5 5 3 5 5 5 5 5 5 5 5 3 3 5 5 3 5 5 3 3 5 3 3 5 5 5 5 5 5 5 5 5 5 5 5 5 5 5 5 5 5 3 5 5 5 3 5 3 5 5 5 3 3 5 5 5 3 5 5 3 3 5 3 5 5 3 5 3 5 5 5 5 5 5 5 5 5 3 5 3 5 5 5 5 5 5 5 5 5 3 5 5 5 5 5 3 5 5 5 3 5 5 5 5 3 5 3 3 5 3 5 5 3 3 3 5 5 5 3 5 3 3 5 5 5 5 3 5 5 5 3 3 5 5 5 5 5 5 5 3 5 5 5 5 5 5 5 5 5 5 5 3 5 5 5 5 5 5 5 5 5 5 5 5 5 5 5 5 3 3 5 5 3 5 5 5 5 5 5 5 5 5 3 5 5 5 3 5 5 5 5 5 5 5 5 3 3 5 5 5 5 5 5 5 3 5 5 5 5 5 5 5 5 3 5 5 5 5 5 5 5 5 5 5 5 5 5 5 5 5 5 5 5 5 5 5 5 5 5 5 5 5 5 5 3 3 5 5 5 5 5 5 3 3 5 5 5 5 5 5 5 5 3 5 5 5 5 5 3 5 5 5 5 5 5 3 5 5 5 3 5 5 3 5 5 5 5 5 5 5 5 5 5 3 3 5 5 5 5 5 5 3 5 5 5 5 3 5 5 5 5 5 5 5 5 5 5 5 3 5 5 3 3 5 5 3 5 3 3 5 5 5 5 5 5 5 5 3 5 5 5 3 5 5 5 5 5 3 5 5 5 5 3 5 3 3 5 3 5 3 3 5 3 5 3 5 5 5 5 5 3 5 5 5 5 3 5 5 5 5 5 5 5 3 5 5 5 5 5 3 5 5 5 5 5 3 5 3 5 3 5 5 3 5 3 3 5 5 5 5 5 5 5 5 5 5 5 5 5 5 5 5 5 5 5 5 5 5 5 5 5 3 5 5 5 5 5 5 3 5 5 5 5 5 3 5 3 5 5 3 5 5 5 3 5 3 5 5 5 5 3 5 5 5 5 5 5 5 5 5 5 5 5 3 5 5 5 3 5 5 5 5 5 5 5 5 5 5 3 5 5 3 5 5 5 5 5 5 5 5 5 5 5 5 3 5 5 5 5 3 5 5 3 5 5 5 5 5 5 5 3 5 5 3 5 5 5 5 5 5 5 5 5 5 5 5 5 5 5 5 5 5 5 5 5 3 3 5 5 5 5 5 5 3 5 5 5 5 5 5 5 5 5 5 5 5 5 3 3 5 5 5 5 5 5 5 5 3 5 5 5 5 3 5 5 5 5 5 5 5 5 5 5 5 5 5 5 5 5 5 5 5 5 5 5 5 5 5 5 5 5 5 3 5 5 5 5 5 5 5 3 5 5 3 5 5 5 5 5 5 5 5 5 5 5 5 5 5 5 5 5 5 5 5 5 5 3 5 5 5 5 5 3 5 5 5 5 5 5 5 5 3 5 5 5 5 5 5 5 5 5 5 5 5 5 5 5 5 5 5 3 5 5 5 5 5 5 5 5 5 5 5 5 3 5 3 5 3 5 3 5 5 5 5 3 5 3 5 5 5 3 5 5 5 3 5 5 5 3 5 5 5 5 5 3 5 5 3 5 3 5 3 5 3 3 5 5 5 5 5 5 5 5 5 5 3 5 5 5 5 3 5 5 5 5 5 5 5 5 5 5 5 5 5 3 5 5 5 5 3 5 5 5 5 5 5 5 5 5 5 3 5 5 5 3 5 5 3 5 3 5 5 5 5 3 5 5 5 5 5 5 5 5 5 5 5 5 5 5 5 5 5 3 5 5 5 3 5 3 5 5 3 5 5 5 5 5 3 5 5 5 5 5 5 5 5 5 5 5 5 5 5 5 3 5 5 5 3 5 5 5 5 5 5 3 5 3 5 5 5 5 5 5 5 5 5 5 5 3 5 5 5 3 5 3 5 5 5 5 5 3 5 5 3 5 5 5 3 5 5 5 5 5 5 5 3 5 5 5 5 5 5 5 5 5 5 5 5 3 3 5 5 5 5 3 5 5 3 5 3 5 5 5 5 5 5 5 5 5 3 5 5 5 5 5 3 5 5 5 5 5 5 5 5 5 5 5 5 3 5 5 5 5 5 5 5 5 5 5 5 3 5 3 5 3 5 3 5 5 5 3 5 5 5 5 5 5 3 3 3 5 5 5 5 5 5 5 5 3 5 5 5 5 5 5 5 5 5 5 5 5 5 5 5 3 5 5 5 3 5 5 5 5 5 3 5 5 5 3 5 3 3 3 5 5 3 5 3 5 5 3 5 5 3 5 5 5 5 5 3 5 5 5 5 5 5 5 5 5 5 5 5 5 5 5 3 5 5 5 5 3 5 5 3 5 5 5 5 5 5 5 5 5 5 5 5 5 5 5 5 5 5 5 3 5 5 5 5 5 5 5 5 5 3 5 5 5 5 5 5 5 3 5 3 3 5 5 5 5 5 5 5 5 5 5 5 5 5 5 5 5 3 3 5 3 5 3 5 5 3 5 3 5 5 5 3 5 3 3 5 5 5 5 5 3 5 5 3 5 5 5 5 5 5 5 5 5 5 5 5 5 3 5 5 3 5 5 5 5 5 5 5 5 5 3 5 5 5 5 5 3 5 5 3 5 5 5 5 5 5 3 5 5 3 5 3 5 5 5 5 5 5 5 5 5 3 5 5 5 5 5 5 5 5 5 3 3 5 5 5 5 3 5 5 5 5 3 5 5 3 3 5 3 3 5 3 5 3 5 5 5 5 5 5 3 5 5 5 5 5 3 5 5 5 5 5 5 5 5 5 5 5 5 5 3 3 5 5 3 5 3 3 5 5 5 5 5 5 5 3 5 3 3 5 5 5 5 5 5 5 5 5 5 5 5 5 5 5 5 3 5 5 5 3 5 5 5 5 5 5 5 3 5 5 3 5 5 3 5 5 5 5 5 5 5 5 3 5 5 5 3 5 5 5 3 5 5 3 3 5 3 5 5 5 5 5 5 5 5 5 5 5 5 5 5 5 5 5 5 5 5 5 5 5 3 5 3 3 5 5 5 5 5 5 5 5 5 3 5 5 5 5 5 5 3 5 3 5 3 5 3 3 5 5 5 5 5 3 3 3 5 5 5 3 3 5 5 3 5 5 5 5 5 5 5 5 5 5 5 3 5 5 5 3 5 5 5 3 3 5 5 5 5 3 5 3 5 5 5 5 5 5 5 5 5 5 5 5 5 5 5 5 5 3 5 5 5 5 5 5 5 5 5 3 5 5 5 5 5 3 5 5 5 5 5 5 5 5 5 5 5 5 5 5 5 5 5 5 5 5 5 5 5 5 5 5 5 5 5 5 5 5 5 5 5 5 5 5 5 5 5 5 5 5 5 5 5 5 5 5 5 5 5 5 5 5 5 5 5 5 3 5 5 3 5 5 5 5 5 5 5 5 5 5 5 3 5 5 3 5 3 5 5 5 5 5 5 5 5 3 5 5 3 5 5 5 3 5 5 5 5 3 5 3 5 3 3 3 5 5 3 3 5 5 5 5 3 5 3 5 5 5 5 3 5 5 5 5 5 5 5 5 5 5 5 5 5 5 5 5 5 5 5 5 5 5 5 5 5 5 5 5 5 5 5 5 5 5 5 5 5 3 5 3 5 5 5 5 5 5 5 3 5 3 5 5 3 5 5 5 5 5 3 5 5 5 5 5 5 5 5 5 5 5 5 5 5 3 5 3 5 5 5 5 5 3 5 5 5 5 5 5 5 5 5 5 5 5 5 5 5 5 5 5 5 5 3 3 5 5 5 3 5 5 5 5 5 5 5 5 5 5 3 5 5 5 5 5 5 5 5 5 5 5 5 5 5 3 5 5 3 5 5 5 5 5 5 5 5 5 5 3 5 5 5 5 5 5 5 5 5 5 5 5 5 5 5 3 5 3 5 5 5 5 3 5 5 5 5 5 5 3 5 5 5 5 5 5 5 5 3 5 5 3 5 5 5 5 5 5 5 5 5 5 5 5 5 5 5 5 5 5 5 5 5 5 3 5 5 5 5 5 5 5 5 5 5 5 5 5 5 5 5 5 5 5 5 5 5 5 5 5 5 5 5 5 5 5 5 5 5 5 5 5 5 3 5 5 5 5 5 3 5 5 5 5 5 5 5 5 5 5 5 5 5 5 5 5 5 5 5 5 5 5 5 5 5 5 5 5 5 5 5 5 5 5 5 5 5 5 5 5 3 5 3 5 5 5 5 5 3 5 5 5 3 5 5 5 3 5 5 3 5 3 5 5 5 5 5 5 5 5 5 5 5 5 5 5 5 5 5 5 5 5 3 5 5 5 5 5 5 5 5 5 5 5 5 5 5 5 5 5 5 5 5 5 5 5 5 5 5 5 5 5 5 5 5 5 5 5 5 5 5 5 5 5 5 5 5 5 5 5 5 5 5 5 5 5 5 5 5 5 5 5 5 5 5 5 5 5 5 5 5 5 5 5 5 5 5 5 5 5 5 5 5 5 5 5 5 5 3 3 5 3 3 5 5 5 5 5 5 5 5 5 3 3 3 5 5 5 3 5 5 5 5 5 5 5 5 5 3 5 5 5 5 5 5 5 5 5 5 5 5 5 5 5 5 5 5 5 5 5 5 5 5 5 5 5 5 5 5 5 5 5 5 5 3 5 3 5 5 5 5 5 5 5 5 5 5 5 5 5 5 5 5 5 5 5 5 5 5 5 5 5 5 5 5 5 5 5 5 5 5 5 5 5 5 5 5 5 5 5 5 5 5 5 5 5 5 5 5 5 5 5 5 5 5 5 5 5 5 5 5 5 5 5 5 5 3 5 5 5 5 5 3 5 5 5 5 5 5 5 5 5 3 5 5 3 5 3 5 5 5 3 5 5 5 5 5 3 5 5 5 5 5 5 5 5 5 5 5 5 3 5 5 5 3 5 5 5 5 5 5 5 5 5 5 5 5 5 5 5 5 5 5 5 5 5 5 5 5 5 5 5 5 3 5 5 3 5 5 5 3 5 5 5 5 5 5 5 5 3 5 5 5 5 5 5 5 5 5 5 5 5 5 5 3 5 5 3 5 5 3 5 5 5 5 5 5 5 5 5 5 5 5 5 5 5 5 5 5 3 5 5 5 5 5 3 5 3 5 5 5 5 5 3 5 5 5 5 5 5 5 5 5 5 5 5 5 5 3 5 5 5 5 5 5 3 5 5 3 5 5 5 5 5 5 5 5 5 5 5 5 5 5 5 5 5 5 5 5 3 5 5 5 5 5 3 5 3 5 5 3 5 3 3 5 5 5 5 3 5 5 5 3 5 5 3 5 5 5 5 5 5 3 5 3 5 5 3 5 5 5 5 3 5 5 3 3 5 5 5 5 5 5 5 5 5 3 5 3 5 3 3 5 5 5 5 5 5 5 3 3 5 5 3 5 5 5 3 5 5 5 3 5 5 5 5 5 5 5 5 5 5 5 5 5 5 5 5 5 5 5 5 5 5 5 5 5 5 5 5 3 5 5 5 5 5 5 5 5 5 3 3 5 5 5 3 5 5 5 3 5 5 5 5 5 5 5 3 5 5 3 5 5 3 3 5 5 3 5 5 5 3 3 3 5 5 3 5 5 5 5 5 5 5 5 5 5 5 3 5 5 3 5 5 5 3 5 5 3 5 3 5 5 5 5 3 5 5 5 5 5 5 5 5 5 5 3 5 5 3 3 5 3 5 5 5 5 5 5 5 5 3 3 5 3 5 5 5 5 5 3 3 5 5 5 5 5 5 3 5 5 5 3 5 5 5 5 5 5 3 5 3 3 5 5 5 3 5 5 5 5 5 5 3 5 5 5 5 3 5 3 3 5 5 5 5 5 3 5 3 5 5 3 5 3 5 5 5 5 5 5 5 5 5 3 5 3 5 3 3 3 5 5 5 5 5 3 5 5 3 3 5 5 3 5 5 5 5 5 5 5 5 5 5 5 5 5 5 5 5 5 5 5 5 5 5 5 5 5 5 3 5 5 5 5 3 5 5 5 5 5 5 3 5 5 5 5 5 3 3 5 5 3 5 5 5 3 5 5 3 3 5 3 5 5 5 5 5 5 5 3 3 5 3 5 5 5 5 5 3 5 5 5 5 5 5 5 5 5 5 5 5 5 5 5 5 5 5 5 5 5 3 5 5 5 5 5 5 5 5 5 5 5 3 5 5 5 3 5 5 3 5 3 5 5 5 5 3 3 5 5 5 5 5 3 3 5 5 5 5 3 5 5 5 5 5 5 5 5 5 5 5 5 5 5 5 5 5 5 5 5 5 5 5 5 5 5 5 5 5 5 5 5 3 5 5 5 3 5 5 3 5 5 3 5 5 5 5 3 5 5 5 5 5 5 5 5 3 3 5 5 5 5 5 5 3 5 5 3 5 5 5 5 3 5 5 5 3 5 5 5 5 5 5 5 5 5 5 5 5 5 5 5 5 5 5 3 5 5 3 5 5 5 5 5 5 5 5 5 5 5 5 5 3 3 5 3 5 5 5 5 5 5 3 5 3 5 5 5 5 3 5 5 5 5 5 5 5 5 5 5 5 3 5 5 5 5 5 5 5 5 3 5 5 5 5 5 5 5 5 5 5 3 5 5 5 3 3 5 5 5 5 5 5 5 5 5 5 5 5 5 5 5 5 5 5 5 5 5 5 5 5 5 5 5 5 5 5 5 5 5 5 5 5 5 5 5 5 5 3 5 5 5 5 3 3 5 3 5 3 5 5 5 5 5 5 5 5 5 3 5 5 3 5 5 5 5 5 5 5 5 5 5 5 5 5 5 5 5 5 5 5 5 5 5 5 3 5 5 5 5 5 5 3 5 5 5 5 5 5 5 5 5 5 5 3 5 5 3 5 5 3 3 5 5 5 3 5 3 5 5 3 3 5 5 5 5 5 5 3 5 5 3 3 5 3 5 5 5 5 5 5 5 5 5 5 5 5 5 3 5 5 5 5 5 5 5 5 5 5 5 5 5 5 5 5 5 5 5 5 5 5 5 5 5 5 5 5 5 5 5 5 5 5 5 5 5 5 5 5 5 5 5 5 5 5 5 5 5 5 5 5 5 5 5 3 5 5 5 5 5 5 5 5 5 5 5 5 5 5 5 5 5 5 5 5 5 5 5 5 5 5 5 5 5 5 5 5 5 5 5 5 5 5 5 5 5 5 5 5 5 5 5 5 5 5 5 3 3 5 5 5 5 5 5 5 5 5 5 5 5 5 5 3 5 5 5 5 5 5 5 5 3 5 5 5 5 5 5 5 3 5 5 5 5 3 5 5 3 5 3 5 5 3 5 5 3 5 5 5 5 5 5 5 5 5 5 3 5 5 3 5 5 5 5 5 3 5 5 5 5 5 5 5 5 3 5 3 5 5 5 3 5 5 5 5 5 5 5 3 5 5 5 3 5 5 5 5 5 5 5 3 5 5 3 5 5 5 5 3 5 5 5 5 3 5 5 5 5 3 5 5 5 3 5 5 3 5 5 5 5 5 3 5 5 5 5 3 5 5 3 5 5 3 5 3 3 5 5 5 5 5 3 5 5 5 5 5 5 3 5 5 5 3 3 5 5 3 5 5 3 5 5 5 5 3 3 5 5 3 5 5 5 5 5 5 5 5 5 5 5 5 5 5 5 5 5 5 5 5 5 5 5 5 5 5 5 5 5 5 5 5 3 5 3 5 5 5 3 5 5 5 5 5 5 5 5 5 5 5 5 5 5 5 5 5 5 5 5 5 5 5 5 3 5 5 5 5 5 5 5 5 5 5 5 5 5 5 5 3 5 5 3 5 3 5 3 5 5 3 5 5 5 3 5 5 3 5 5 3 5 5 5 5 5 3 5 5 5 5 5 5 5 5 5 5 3 3 5 5 5 5 5 5 5 5 5 3 5 5 5 5 5 5 5 5 5 5 5 5 5 5 5 5 5 5 5 5 5 5 5 5 5 5 5 5 5 5 5 5 5 5 5 5 5 5 5 3 5 5 5 3 5 5 5 3 5 3 5 3 5 5 5 3 5 3 5 5 5 5 5 5 3 5 5 3 3 3 5 5 3 5 5 5 5 5 5 5 5 5 5 5 5 5 5 5 5 3 5 5 5 3 5 5 3 3 5 5 3 3 5 5 5 5 5 3 5 5 5 5 5 5 3 5 5 5 5 5 5 5 5 5 5 5 5 5 5 5 5 5 5 5 5 5 5 5 3 5 5 5 5 5 5 5 5 3 5 5 5 5 3 5 5 5 5 5 5 5 5 5 3 5 5 5 5 5 5 5 5 5 5 5 5 5 5 5 5 5 5 5 5 5 3 5 5 3 5 5 3 3 5 5 5 5 3 5 5 5 5 5 3 5 3 5 5 5 5 5 5 5 5 5 5 5 5 5 5 5 5 5 3 5 5 5 5 5 5 5 5 5 5 5 5 5 5 3 5 5 5 5 5 5 5 5 5 5 5 5 5 3 5 5 5 5 5 5 3 5 5 5 5 3 5 5 5 5 5 5 5 5 5 5 5 5 3 5 5 3 5 3 5 3 5 5 3 5 5 3 5 5 3 5 3 5 5 5 5 5 5 3 5 5 3 3 5 5 5 3 3 3 5 5 3 5 5 5 5 5 5 5 5 3 5 5 3 5 5 5 5 5 3 5 5 3 5 3 5 5 5 5 5 5 5 5 3 5 5 5 5 3 3 5 5 5 5 5 5 5 5 3 5 5 5 5 5 5 5 3 5 5 5 5 3 5 5 5 5 5 5 5 5 5 3 5 3 5 5 3 5 5 3 5 5 5 5 5 5 3 5 5 3 5 5 5 3 5 5 5 5 5 5 5 5 5 5 5 5 5 5 5 5 3 5 5 5 5 5 5 5 5 5 5 5 5 5 5 5 5 3 5 3 5 5 5 5 5 5 5 5 5 5 5 5 5 5 5 5 5 5 5 5 5 5 5 5 5 5 5 5 3 5 5 5 5 3 5 3 5 3 5 5 3 5 5 5 5 3 3 3 3 5 5 5 5 5 3 5 3 3 3 5 5 5 5 5 5 5 5 5 5 5 5 5 5 3 5 5 5 5 5 5 5 3 5 5 5 5 5 3 5 5 3 3 5 5 5 5 5 5 5 5 3 5 5 5 5 5 3 5 5 5 5 5 5 5 5 3 5 3 5 5 3 3 5 5 5 5 3 5 5 5 5 5 5 5 3 5 5 5 5 5 5 3 5 5 5 5 5 5 3 5 3 5 3 3 5 5 3 3 5 5 5 5 5 5 5 5 5 5 3 5 5 3 5 5 5 3 5 5 5 5 3 3 5 3 5 5 5 5 5 5 5 5 5 5 5 5 5 5 5 5 5 5 5 5 5 5 5 5 5 5 5 5 5 5 5 5 5 5 5 5 5 5 5 5 5 5 5 5 5 5 5 5 5 5 5 5 5 5 5 5 5 5 5 5 5 5 5 5 5 5 5 5 5 5 5 5 5 5 5 5 5 3 5 5 5 5 5 5 5 5 5 3 5 5 5 3 5 5 3 3 5 5 5 3 5 5 3 3 5 5 5 5 5 5 3 5 5 3 5 3 5 5 5 3 5 5 5 5 5 5 5 5 5 5 5 5 5 3 5 3 5 5 3 5 3 5 5 5 5 5 5 5 5 3 5 5 5 5 5 5 5 5 5 5 5 5 3 5 3 5 5 5 5 5 5 5 5 3 5 5 5 3 5 3 5 3 5 5 5 5 5 5 5 3 3 5 5 5 5 5 5 5 5 5 5 5 5 5 5 5 5 5 5 5 5 5 5 5 5 5 5 5 5 5 5 5 3 5 5 5 5 5 3 5 3 5 3 5 5 3 5 3 5 5 5 5 5 5 5 5 5 5 5 5 3 5 5 5 5 5 5 5 5 5 5 5 5 5 5 3 5 5 5 5 5 5 5 5 5 3 5 5 5 5 3 3 5 5 3 5 5 5 5 5 5 3 5 5 5 5 5 5 5 5 5 5 5 5 5 5 5 5 5 5 5 5 5 5 5 5 5 3 5 3 5 3 5 5 3 5 5 5 5 5 5 5 5 5 5 5 5 5 5 5 5 3 5 5 5 5 3 5 5 5 3 5 5 3 5 5 5 5 5 3 5 5 3 5 5 5 3 3 5 5 5 5 3 3 5 5 5 3 5 5 5 3 5 5 5 3 5 3 5 3 5 5 5 5 5 5 3 5 5 3 3 5 3 5 5 5 5 5 3 5 5 5 5 5 5 3 3 5 5 5 5 3 5 5 5 5 5 5 5 5 5 5 5 5 5 5 5 5 5 3 5 5 5 5 3 5 5 5 3 3 5 5 5 5 3 5 3 5 5 5 3 5 3 5 5 3 5 5 5 5 5 5 3 5 3 5 5 5 3 5 5 5 5 5 3 5 5 5 5 5 5 5 3 5 5 5 5 3 5 5 5 3 5 5 5 5 5 5 5 5 3 5 5 5 3 5 5 5 5 5 3 5 5 5 5 5 5 5 5 5 5 3 5 5 5 3 5 5 5 5 5 5 3 5 5 3 5 5 3 5 3 3 5 5 3 3 5 3 5 5 3 5 5 3 5 3 5 3 5 3 5 3 5 3 5 5 3 5 3 5 5 5 5 3 5 5 5 5 5 5 5 5 5 3 5 5 5 5 5 5 5 5 5 5 5 5 5 5 5 5 5 5 5 5 5 5 5 5 5 5 5 5 3 3 5 5 5 5 5 5 5 5 5 5 5 3 5 5 3 5 5 5 3 5 5 5 5 5 5 5 5 5 5 5 5 5 5 5 5 5 5 5 3 5 5 5 5 5 5 5 5 5 3 5 5 5 3 5 3 5 5 5 5 5 5 5 5 3 3 5 5 5 5 5 3 5 5 5 5 5 5 5 5 3 5 5 5 5 3 5 5 3 3 5 3 5 5 5 5 5 5 5 3 5 5 3 5 5 3 3 5 5 5 5 5 5 5 5 5 5 5 5 5 5 5 5 5 5 5 5 5 5 5 5 5 5 5 5 5 5 5 5 5 3 5 5 5 5 5 5 5 5 5 5 5 5 5 3 3 5 5 5 5 5 5 3 5 5 5 5 5 3 5 5 5 3 5 5 3 5 3 3 5 5 5 5 3 5 5 5 5 5 5 5 5 5 5 5 5 5 5 5 5 5 5 5 5 5 5 5 5 5 5 5 3 5 5 5 5 3 5 3 5 5 3 5 5 5 5 3 5 3 5 5 5 5 5 5 5 5 3 3 5 5 5 3 5 5 5 5 5 5 5 5 5 5 5 5 5 5 5 5 3 5 5 5 5 5 5 5 5 5 3 5 5 5 5 5 5 5 5 5 5 5 5 5 5 5 5 5 5 5 3 3 5 5 5 3 3 3 5 5 5 3 5 5 5 5 3 5 5 5 5 5 5 5 5 3 5 5 5 5 5 3 5 5 5 5 5 5 5 5 5 5 5 5 5 5 5 5 5 5 5 5 3 5 5 5 3 3 5 5 5 5 5 5 5 5 5 5 5 5 5 5 5 5 5 5 5 5 5 5 3 5 5 5 5 5 5 5 5 3 3 5 5 5 5 5 5 5 5 5 5 5 5 5 5 5 5 5 5 5 5 5 5 5 5 5 5 5 5 5 5 5 5 5 5 5 5 5 5 5 3 5 5 5 5 3 5 5 5 5 5 5 5 5 5 5 5 5 5 5 5 5 5 5 5 3 5 5 5 5 3 5 5 5 5 3 5 5 5 5 5 5 5 5 5 3 5 5 3 5 5 5 5 3 5 5 5 3 5 5 5 5 5 5 5 5 5 5 5 5 5 3 5 5 5 3 5 5 5 5 5 5 5 5 5 5 3 5 5 5 5 5 5 5 5 5 5 5 5 5 5 5 5 5 5 5 5 5 5 5 5 5 3 5 5 5 5 5 5 3 5 5 3 5 5 5 5 3 5 5 5 5 5 5 5 5 5 5 3 5 3 3 3 5 5 5 5 3 5 5 5 5 5 5 5 5 5 5 5 5 5 3 5 3 5 3 5 5 5 5 3 5 3 3 5 5 5 5 5 5 5 3 5 5 3 5 3 5 5 3 5 5 3 5 5 3 5 3 5 5 3 5 3 3 5 5 3 5 3 5 5 3 5 5 5 5 5 5 5 5 5 3 5 5 5 3 5 5 5 5 5 5 5 5 5 5 5 3 5 5 5 5 5 5 3 5 3 5 5 5 3 5 5 3 3 5 3 5 5 5 5 3 5 5 3 5 5 3 5 3 5 5 3 5 5 3 3 5 5 5 5 3 5 5 3 5 5 5 5 5 3 3 3 5 3 5 5 3 5 5 5 5 5 5 5 5 3 5 5 5 5 5 5 5 3 5 5 3 5 5 5 3 5 5 5 5 3 5 5 3 5 3 5 5 5 5 5 5 5 5 5 5 5 3 5 5 5 5 5 5 5 5 5 5 3 5 5 5 3 5 5 5 5 5 5 5 5 5 5 5 3 5 5 3 5 5 5 3 5 5 3 5 5 5 3 5 5 5 5 5 5 5 5 5 5 5 5 5 5 5 5 5 5 5 5 5 5 5 5 5 5 5 5 5 5 5 5 5 3 5 5 5 5 5 5 5 5 5 5 5 5 5 5 5 5 5 5 3 5 5 5 5 5 3 5 5 5 5 5 5 5 5 5 5 5 5 5 5 5 5 5 5 5 5 5 5 5 5 5 3 5 3 5 3 5 5 3 5 5 5 5 5 5 3 5 5 5 5 5 3 5 5 5 5 3 5 5 5 5 5 5 5 5 5 5 5 5 5 5 5 5 5 5 5 5 5 5 5 5 3 5 5 5 5 5 5 5 5 5 5 5 5 5 5 5 5 5 5 5 5 5 5 5 5 5 3 5 5 3 5 5 5 5 5 5 5 5 3 5 5 3 5 5 5 5 5 3 5 5 5 5 5 5 5 5 5 5 5 3 5 5 5 5 5 5 3 5 5 5 5 5 3 5 3 5 5 5 5 5 5 5 5 5 5 5 5 5 5 5 3 5 3 5 5 3 5 5 3 3 5 5 5 5 5 5 3 5 5 5 3 5 5 5 3 3 5 5 5 3 5 3 5 3 5 5 5 3 5 5 5 5 5 5 5 5 5 5 5 5 5 5 5 5 5 5 5 5 3 5 5 5 5 3 5 5 5 5 5 5 5 5 5 5 5 5 5 5 5 5 5 5 5 5 5 5 5 5 5 5 5 5 3 5 5 5 5 5 5 3 5 5 5 5 5 5 3 5 5 3 5 3 5 5 5 5 3 5 5 5 5 5 5 5 5 5 5 5 5 5 5 5 5 5 3 5 5 5 3 5 5 3 5 3 3 5 5 5 5 3 5 3 5 5 3 5 5 5 5 5 3 5 5 5 3 5 3 5 3 3 5 5 5 5 5 5 3 3 5 5 5 3 5 5 5 5 3 5 5 5 5 5 5 3 5 5 5 5 5 5 5 5 5 5 5 5 3 5 5 5 5 5 5 5 5 5 5 5 5 5 5 5 5 5 5 5 5 5 3 3 5 5 5 5 3 5 5 3 5 3 5 5 5 5 5 5 5 5 3 5 5 5 5 5 5 5 5 5 3 5 5 5 5 5 3 5 5 5 5 5 5 5 5 5 5 5 5 3 5 5 5 5 5 5 5 5 3 5 5 5 5 5 5 5 5 5 5 5 5 5 5 5 5 5 5 5 5 5 5 5 5 5 5 5 5 5 5 5 5 5 5 5 5 3 5 5 5 3 5 3 5 5 3 5 3 5 5 3 5 5 3 5 5 3 5 3 5 5 5 3 5 3 5 5 5 5 5 5 5 5 5 3 5 5 5 3 5 5 5 5 5 5 5 5 5 5 5 5 5 3 3 3 5 3 5 5 5 5 5 5 5 5 5 5 5 5 5 3 3 5 5 3 5 5 5 5 5 5 5 5 5 5 5 5 5 3 5 5 5 5 5 5 5 5 5 5 5 3 5 5 5 5 5 5 5 5 5 5 3 5 5 5 5 5 5 5 3 5 5 5 3 5 5 5 5 3 5 5 5 5 5 5 5 5 5 5 5 5 5 5 5 5 3 5 5 5 3 5 5 3 5 3 5 5 5 5 5 5 5 5 5 5 5 5 5 5 5 5 5 5 5 5 5 5 5 3 3 5 3 5 3 5 5 5 5 3 5 5 5 5 5 5 5 5 5 5 5 3 5 3 5 5 3 5 3 5 5 5 5 5 5 5 3 5 5 5 5 5 5 3 5 5 5 5 5 3 5 5 5 5 5 5 5 5 5 5 5 5 5 3 5 5 5 3 5 5 5 5 3 5 5 5 5 5 5 5 5 5 5 5 5 5 5 5 5 5 3 3 5 5 5 5 5 5 5 5 5 5 5 5 5 5 5 5 5 5 5 5 5 5 5 5 5 5 3 5 3 3 5 5 5 5 5 3 3 5 5 3 5 5 5 5 5 5 5 5 5 5 3 3 5 5 5 5 5 5 5 3 5 5 5 5 5 3 5 5 5 5 5 3 5 5 5 5 5 5 5 5 3 5 5 5 5 5 5 5 5 5 5 5 5 5 5 5 5 5 5 3 5 5 5 5 5 5 5 3 5 5 5 5 3 5 5 5 5 5 5 5 5 5 5 5 5 5 5 3 5 5 5 5 5 5 5 5 5 3 5 3 5 5 5 5 5 5 5 5 5 5 3 5 5 5 5 5 5 5 5 5 5 5 3 5 5 5 5 5 3 5 3 5 3 5 5 3 3 5 3 5 3 5 3 5 5 5 5 5 5 5 5 5 5 3 5 5 5 5 5 3 5 5 5 5 5 3 5 5 5 5 5 5 5 5 3 5 5 5 5 5 3 5 5 5 5 5 5 5 5 5 5 5 5 5 5 5 5 5 3 3 5 5 5 5 5 3 5 5 5 5 5 5 5 5 3 5 5 5 5 5 5 5 5 5 5 5 5 5 3 3 5 5 5 5 5 5 5 5 5 5 5 5 3 5 5 5 5 5 5 5 5 5 5 5 5 3 5 5 5 3 5 5 5 3 3 5 5 5 5 5 5 3 5 5 5 5 5 5 3 5 5 5 5 5 5 5 5 5 5 5 5 5 3 3 5 3 5 3 5 5 5 5 5 5 5 5 5 5 5 5 5 5 5 5 5 5 5 5 5 5 3 5 5 5 5 5 5 5 5 5 5 5 5 5 5 3 3 5 5 5 5 5 5 5 5 5 5 5 5 5 5 5 5 5 3 5 5 3 5 5 5 5 3 5 5 5 3 5 5 5 5 5 5 5 5 5 5 5 5 5 3 5 5 5 5 5 5 5 5 5 3 5 5 5 3 5 5 5 5 3 3 5 5 5 3 5 5 5 5 5 5 5 5 5 3 5 5 5 3 5 3 5 5 5 5 5 5 5 5 5 5 5 5 5 5 5 5 3 5 5 5 5 5 3 5 5 5 5 5 5 5 5 5 5 3 5 5 3 5 5 3 5 5 5 5 5 5 5 5 5 5 3 5 5 5 3 5 3 5 5 5 3 5 3 5 3 5 5 5 5 5 3 3 5 5 5 5 5 5 5 5 5 5 5 5 3 5 5 5 5 5 5 3 5 5 5 5 5 5 5 5 5 5 5 5 5 5 3 5 5 3 5 5 5 5 5 5 5 5 5 5 5 5 5 5 5 5 5 5 5 5 5 5 5 5 5 3 5 5 5 5 3 5 5 5 3 3 5 5 5 5 5 5 5 5 5 5 5 5 5 5 5 5 5 5 5 5 5 5 5 5 5 5 5 5 5 5 5 5 5 3 5 5 5 3 5 5 3 5 5 5 5 5 3 5 5 5 5 5 3 5 5 5 5 5 5 5 3 5 5 5 5 5 5 5 3 5 5 3 5 5 5 3 5 3 5 5 5 5 5 5 5 5 3 5 5 3 5 5 5 5 5 3 5 5 5 5 5 5 5 5 5 5 5 5 3 5 3 5 5 5 5 5 5 3 5 5 5 5 5 5 5 5 3 5 5 3 5 5 5 5 3 5 5 5 5 5 5 5 5 5 5 3 5 3 5 5 5 5 5 5 5 5 5 3 5 5 5 5 3 5 5 5 5 5 5 5 5 5 5 5 5 5 5 5 5 5 3 5 5 5 5 5 5 5 5 5 5 5 5 3 5 5 5 5 5 5 5 5 5 5 5 5 5 5 5 3 5 5 5 5 5 5 5 5 5 5 5 5 5 5 5 5 5 5 5 5 5 5 5 5 3 5 5 5 5 5 5 5 5 5 5 5 5 5 3 5 5 5 5 5 5 3 5 5 5 5 5 5 5 5 3 5 5 3 5 5 5 5 5 5 3 5 5 5 5 5 5 5 5 5 5 5 5 3 5 5 5 5 5 3 5 5 5 5 5 5 3 5 5 5 5 3 5 5 5 5 5 5 5 5 3 5 5 5 3 3 5 5 5 5 5 5 5 5 5 5 5 5 5 5 5 5 5 5 5 5 5 5 5 5 5 5 5 5 5 5 5 5 5 5 5 5 5 5 5 5 5 5 5 5 3 5 5 5 5 3 5 5 5 5 5 5 3 5 5 5 5 5 5 5 5 5 5 5 5 3 5 5 5 3 5 5 3 3 5 5 5 5 5 5 5 5 5 3 5 5 3 3 5 5 3 5 3 5 3 5 5 5 5 3 5 3 5 5 5 5 5 5 5 5 5 5 5 5 5 5 5 5 5 5 5 5 5 5 5 5 5 5 5 5 3 5 5 5 5 3 5 5 5 5 5 5 3 3 5 5 5 5 5 5 5 5 5 5 5 5 5 5 5 5 5 5 5 5 5 5 5 5 5 5 5 5 5 5 3 5 5 3 5 5 5 3 3 5 5 5 5 3 5 5 5 3 5 5 5 5 3 5 3 3 3 3 5 5 5 5 5 5 5 5 3 5 5 3 5 5 5 3 3 5 5 5 5 5 3 3 3 5 5 5 5 3 5 3 5 5 5 5 5 5 5 5 5 5 5 5 3 5 5 5 5 5 5 5 3 5 5 5 5 5 5 5 5 5 5 5 5 5 5 5 3 5 5 5 5 5 5 5 5 5 5 5 5 5 5 3 5 5 5 3 5 5 5 5 3 5 5 5 3 5 5 5 3 5 5 5 5 5 3 3 5 3 5 3 5 5 5 5 5 5 5 5 5 5 5 5 5 3 3 5 5 5 5 5 5 5 5 3 5 5 5 5 5 5 3 3 3 5 5 3 5 5 5 5 3 5 5 5 3 5 3 5 5 5 5 5 5 5 5 5 5 5 5 5 5 5 5 5 5 5 5 5 5 5 5 5 5 5 3 5 5 5 5 5 5 5 3 5 5 5 5 5 5 5 5 3 5 3 3 5 5 5 5 3 5 5 3 5 5 5 5 5 5 5 5 5 5 3 5 5 5 5 5 5 5 5 5 5 3 5 5 5 3 5 5 5 5 5 5 5 3 3 5 5 5 3 5 5 3 3 5 3 5 5 5 5 5 3 5 5 3 5 5 5 5 5 5 3 3 5 5 5 5 5 5 5 3 5 5 5 3 5 5 5 5 5 5 5 5 5 5 5 5 5 5 5 5 5 5 5 5 5 5 5 3 5 5 5 3 5 5 5 5 5 5 5 3 5 5 5 5 5 5 5 3 5 5 5 5 5 5 5 5 3 5 5 5 5 5 3 5 5 5 3 5 5 5 5 5 3 5 5 5 5 5 5 5 5 5 5 5 5 5 5 5 5 5 5 5 5 5 5 5 5 5 5 5 5 5 5 5 5 5 5 5 5 5 5 5 5 5 5 3 5 3 5 5 5 5 5 3 5 5 5 3 5 5 5 5 5 5 3 5 5 5 5 5 5 5 5 3 5 5 5 3 5 5 5 5 5 5 5 5 5 5 5 5 5 3 5 3 5 5 5 5 5 5 5 5 5 5 5 5 5 3 5 5 5 5 5 5 5 5 5 5 5 5 5 5 5 3 5 5 5 5 5 3 5 5 5 5 5 3 5 5 3 5 5 5 5 5 5 5 5 5 5 5 5 3 5 5 5 3 5 5 3 5 5 5 5 5 5 3 5 5 5 5 5 3 5 3 5 5 5 3 5 5 3 5 5 5 5 5 5 3 5 5 3 5 5 5 5 5 5 3 5 3 5 5 5 3 5 5 3 5 5 5 5 5 5 5 5 5 5 5 5 5 5 3 5 5 5 5 5 5 5 5 3 5 5 5 5 5 3 3 5 5 5 5 5 5 3 5 5 5 5 5 5 5 5 5 5 5 5 5 3 5 5 5 5 5 5 5 3 3 5 5 3 5 5 5 5 5 5 5 5 5 5 5 3 5 5 3 5 5 5 3 5 3 5 5 5 5 5 5 5 5 5 5 5 5 5 5 5 5 3 5 5 5 5 5 5 5 3 5 5 3 5 5 5 3 5 5 5 5 5 5 5 5 5 5 3 5 5 5 5 5 3 5 5 3 5 5 5 5 5 5 5 5 5 5 5 5 3 5 5 3 5 5 5 5 5 3 5 5 5 5 5 5 5 3 5 5 5 3 3 5 5 5 5 5 5 3 5 5 5 5 5 5 5 5 5 5 3 5 5 5 3 3 5 5 5 5 5 5 5 5 5 5 5 5 5 5 3 3 5 5 5 5 3 5 5 5 5 5 5 3 3 5 3 5 5 5 3 5 5 5 5 5 3 5 3 5 5 5 5 5 5 3 5 5 5 5 3 5 5 5 3 5 5 5 5 5 5 5 5 5 5 5 5 5 5 5 5 3 5 5 3 5 5 5 5 5 5 5 5 5 5 5 5 5 3 5 5 5 5 3 5 5 5 5 3 5 5 5 5 5 5 5 3 5 5 3 5 5 5 5 5 5 5 5 5 5 5 3 5 5 5 3 5 5 5 5 5 3 5 5 3 3 5 5 3 5 5 5 5 5 3 5 5 5 3 3 5 5 3 5 3 5 5 3 5 5 3 5 5 5 5 3 5 5 5 3 5 3 5 5 5 5 5 5 5 5 5 5 3 5 5 3 5 5 3 5 5 5 5 3 5 5 3 5 5 3 5 5 5 3 5 5 5 5 3 5 5 5 5 5 5 5 3 5 5 5 5 5 5 5 5 3 5 5 5 5 5 5 5 3 5 5 5 5 5 5 5 5 5 5 5 5 5 5 5 5 5 5 5 5 5 5 3 5 5 5 5 5 5 5 5 5 5 5 5 3 5 5 5 5 5 5 3 5 5 3 5 3 5 5 5 5 5 5 5 5 5 5 5 5 5 5 3 5 5 5 5 3 5 5 5 3 5 5 5 5 5 3 5 5 5 5 3 5 5 5 3 5 5 5 5 5 5 5 5 5 5 5 5 5 5 5 5 5 5 3 5 5 3 5 5 5 5 5 5 5 5 5 5 5 5 5 3 5 5 3 5 5 5 5 5 5 5 5 5 5 3 5 5 3 5 5 3 5 5 5 5 5 5 5 5 5 5 5 5 5 5 5 5 5 5 5 5 5 3 5 5 5 5 5 5 5 5 5 5 5 5 5 5 5 5 5 5 5 5 5 5 5 5 5 5 5 5 5 5 5 5 5 5 5 5 5 5 5 5 5 5 5 5 3 5 5 3 5 5 5 5 5 5 5 5 5 5 5 5 5 5 5 5 5 5 
</DataArray>
</Cells>
<PointData Scalars="" Vectors="displacement," Tensors="">
<DataArray type="Float64" Name="displacement" NumberOfComponents="3" format="ascii">
-0.034997303106187774 -7.6959840991343563e-07 0 -0.034874473914252399 1.284133932922615e-05 0 -0.035001056353165041 3.5658704701717314e-07 0 -0.033954038118314982 1.1799510116409771e-06 0 -0.034997303106187774 -7.6959840991343563e-07 0 -0.034874473914252399 1.284133932922615e-05 0 -0.032531078115089908 0.00013345397688441612 0 -0.032842443071533209 -0.00012683040659083601 0 -0.032521803370290814 -0.00014503904729803224 0 -0.032531078115089908 0.00013345397688441612 0 -0.032521803370290814 -0.00014503904729803224 0 -0.032486263557324466 -3.6551931831443492e-05 0 -0.0339473316596932 1.0698447837445058e-06 0 -0.032531078115089908 0.00013345397688441612 0 -0.032842443071533209 -0.00012683040659083601 0 -0.033949717340876005 4.1371038349025451e-08 0 -0.033617965470352215 6.3965496461324215e-05 0 -0.0339473316596932 1.0698447837445058e-06 0 -0.032842443071533209 -0.00012683040659083601 0 -0.032425350517263668 -1.1459625703989782e-06 0 -0.032425350517263668 -1.1459625703989782e-06 0 -0.03225551091573195 -0.00011578886573303308 0 -0.030902287745806032 1.2171400984438287e-06 0 -0.032842443071533209 -0.00012683040659083601 0 -0.03225551091573195 -0.00011578886573303308 0 -0.032521803370290814 -0.00014503904729803224 0 -0.032842443071533209 -0.00012683040659083601 0 -0.032425350517263668 -1.1459625703989782e-06 0 -0.03225551091573195 -0.00011578886573303308 0 -0.03225551091573195 -0.00011578886573303308 0 -0.032521803370290814 -0.00014503904729803224 0 -0.032298831405983906 -9.2147613549859129e-06 0 -0.032521803370290814 -0.00014503904729803224 0 -0.03251798930604221 -5.3430090096160562e-05 0 -0.032486263557324466 -3.6551931831443492e-05 0 -0.032521803370290814 -0.00014503904729803224 0 -0.032408041425005502 1.053998275712091e-06 0 -0.03251798930604221 -5.3430090096160562e-05 0 -0.032521803370290814 -0.00014503904729803224 0 -0.032408041425005502 1.053998275712091e-06 0 -0.032298831405983906 -9.2147613549859129e-06 0 -0.033900444547727795 9.3884242262812117e-05 0 -0.033650871500729734 9.6896895781082329e-05 0 -0.03384007187173195 0.000255187610933057 0 -0.032408041425005502 1.053998275712091e-06 0 -0.03251126840052055 6.2600107382768859e-05 0 -0.032204680632345627 0.00019660732556517287 0 -0.033266710626605786 7.9030227285554439e-05 0 -0.032012126940422547 -0.00011991537719523126 0 -0.032408041425005502 1.053998275712091e-06 0 -0.032204680632345627 0.00019660732556517287 0 -0.032188773211723636 0.00015425809610372356 0 -0.032408041425005502 1.053998275712091e-06 0 -0.032188773211723636 0.00015425809610372356 0 -0.032298831405983906 -9.2147613549859129e-06 0 -0.032408041425005502 1.053998275712091e-06 0 -0.03251126840052055 6.2600107382768859e-05 0 -0.03251798930604221 -5.3430090096160562e-05 0 -0.032203688256238372 0.00030903450444659156 0 -0.032188773211723636 0.00015425809610372356 0 -0.030902287745806032 1.2171400984438287e-06 0 -0.032012126940422547 -0.00011991537719523126 0 -0.032020932579877641 -8.1695030526673511e-05 0 -0.030118804076090164 1.5816360000831543e-05 0 -0.030897206049344303 -4.1747207110299135e-08 0 -0.030079041919958395 -0.00010654959003714214 0 -0.032012126940422547 -0.00011991537719523126 0 -0.030900106104288439 9.3514520060796511e-08 0 -0.03225551091573195 -0.00011578886573303308 0 -0.032188773211723636 0.00015425809610372356 0 -0.032298831405983906 -9.2147613549859129e-06 0 -0.03225551091573195 -0.00011578886573303308 0 -0.032188773211723636 0.00015425809610372356 0 -0.030902287745806032 1.2171400984438287e-06 0 -0.033727451031410248 0.00026656081572030353 0 -0.034423843693908468 0.00027080883811452547 0 -0.034096957137173818 0.00035586224142004951 0 -0.034235518353130358 0.00021057918356081159 0 -0.034384220972648774 0.00032532537559881258 0 -0.034126572858962728 0.00014945067543160694 0 -0.034299192777947768 0.00022311487647462512 0 -0.0341958612066008 0.00023858584578849049 0 -0.034124047916121558 0.00016972047226871046 0 -0.034126572858962728 0.00014945067543160694 0 -0.0341958612066008 0.00023858584578849049 0 -0.033900444547727795 9.3884242262812117e-05 0 -0.034124047916121558 0.00016972047226871046 0 -0.034079710219395043 0.00022059741494604516 0 -0.033266710626605786 7.9030227285554439e-05 0 -0.033727451031410248 0.00026656081572030353 0 -0.033900444547727795 9.3884242262812117e-05 0 -0.034124047916121558 0.00016972047226871046 0 -0.034123879334582323 0.00011708903285659111 0 -0.03251126840052055 6.2600107382768859e-05 0 -0.032570475460297121 8.2005601430492006e-06 0 -0.03251798930604221 -5.3430090096160562e-05 0 -0.033774149425750438 0.00022480940700675959 0 -0.033727451031410248 0.00026656081572030353 0 -0.033727451031410248 0.00026656081572030353 0 -0.033277338076394346 5.8328017710030038e-05 0 -0.032570475460297121 8.2005601430492006e-06 0 -0.03251798930604221 -5.3430090096160562e-05 0 -0.032503913203702994 -4.8357804397782797e-05 0 -0.03251798930604221 -5.3430090096160562e-05 0 -0.032503913203702994 -4.8357804397782797e-05 0 -0.032486263557324466 -3.6551931831443492e-05 0 -0.03409848798825147 0.00015180002345120666 0 -0.034235518353130358 0.00021057918356081159 0 -0.034232788604710344 8.9407650494809581e-05 0 -0.034096957137173818 0.00035586224142004951 0 -0.03409848798825147 0.00015180002345120666 0 -0.034235518353130358 0.00021057918356081159 0 -0.034235518353130358 0.00021057918356081159 0 -0.034232788604710344 8.9407650494809581e-05 0 -0.034356004624106651 0.00016606493664869936 0 -0.034232788604710344 8.9407650494809581e-05 0 -0.034100793237856045 -4.8000853734259165e-05 0 -0.034378694709522081 -3.2250089129103957e-05 0 -0.034160212607656559 -8.0474510979385448e-05 0 -0.034778716924009301 -1.3229776925891819e-05 0 -0.03409848798825147 0.00015180002345120666 0 -0.034232788604710344 8.9407650494809581e-05 0 -0.034100793237856045 -4.8000853734259165e-05 0 -0.034999842422300122 -9.2310144165781711e-06 0 -0.034999878141421213 -7.4164133246297888e-06 0 -0.034996650332258475 -2.1558496928355191e-05 0 -0.032503913203702994 -4.8357804397782797e-05 0 -0.032449073906629287 1.4915802018072984e-05 0 -0.032486263557324466 -3.6551931831443492e-05 0 -0.033617965470352215 6.3965496461324215e-05 0 -0.034160212607656559 -8.0474510979385448e-05 0 -0.032531078115089908 0.00013345397688441612 0 -0.032449073906629287 1.4915802018072984e-05 0 -0.032486263557324466 -3.6551931831443492e-05 0 -0.033277338076394346 5.8328017710030038e-05 0 -0.034160212607656559 -8.0474510979385448e-05 0 -0.034874473914252399 1.284133932922615e-05 0 -0.034977659376821089 4.7382944178882419e-05 0 -0.035001056353165041 3.5658704701717314e-07 0 -0.034160212607656559 -8.0474510979385448e-05 0 -0.035000062878274965 9.128549327509117e-08 0 -0.034999842422300122 -9.2310144165781711e-06 0 -0.035000029203191375 -3.6483037116729483e-08 0 -0.034999878141421213 -7.4164133246297888e-06 0 -0.035000029203191375 -3.6483037116729483e-08 0 -0.034999878141421213 -7.4164133246297888e-06 0 -0.034999954883945757 4.0758401204407101e-08 0 -0.034999878141421213 -7.4164133246297888e-06 0 -0.034999954883945757 4.0758401204407101e-08 0 -0.034996650332258475 -2.1558496928355191e-05 0 -0.034999954883945757 4.0758401204407101e-08 0 -0.034935903568468804 1.3107577575441714e-05 0 -0.034996650332258475 -2.1558496928355191e-05 0 -0.034999954883945757 4.0758401204407101e-08 0 -0.034935903568468804 1.3107577575441714e-05 0 -0.034999729083800585 1.5699306105565963e-08 0 -0.034778716924009301 -1.3229776925891819e-05 0 -0.034757593652991449 -1.5486006791463431e-07 0 -0.034935903568468804 1.3107577575441714e-05 0 -0.034996650332258475 -2.1558496928355191e-05 0 -0.034798984502596081 9.6777448564599793e-06 0 -0.034378694709522081 -3.2250089129103957e-05 0 -0.034798984502596081 9.6777448564599793e-06 0 -0.034516680846920861 0.00018388868775307278 0 -0.034232788604710344 8.9407650494809581e-05 0 -0.034378694709522081 -3.2250089129103957e-05 0 -0.034356004624106651 0.00016606493664869936 0 -0.034999729083800585 1.5699306105565963e-08 0 -0.034917955910705296 2.2198213481525822e-05 0 -0.03499998557702122 -6.3050898184860468e-08 0 -0.034935903568468804 1.3107577575441714e-05 0 -0.034999729083800585 1.5699306105565963e-08 0 -0.034798984502596081 9.6777448564599793e-06 0 -0.034999729083800585 1.5699306105565963e-08 0 -0.034798984502596081 9.6777448564599793e-06 0 -0.034917955910705296 2.2198213481525822e-05 0 -0.034798984502596081 9.6777448564599793e-06 0 -0.034917955910705296 2.2198213481525822e-05 0 -0.034821441745382459 0.00014870158869128021 0 -0.034821441745382459 0.00014870158869128021 0 -0.034666628935762771 0.00018008617024428006 0 -0.034658406777653125 0.00027808551291147877 0 -0.034798984502596081 9.6777448564599793e-06 0 -0.034821441745382459 0.00014870158869128021 0 -0.034666628935762771 0.00018008617024428006 0 -0.034522987682081493 0.00030042875525206384 0 -0.034380684140022301 0.00037326097312322413 0 -0.034466810586495991 0.00045846023238182087 0 -0.034522987682081493 0.00030042875525206384 0 -0.034658406777653125 0.00027808551291147877 0 -0.034466810586495991 0.00045846023238182087 0 -0.034666628935762771 0.00018008617024428006 0 -0.034522987682081493 0.00030042875525206384 0 -0.034658406777653125 0.00027808551291147877 0 -0.034398862232910582 0.00050475294748760391 0 -0.034677966714159229 0.00037851611586991156 0 -0.034658406777653125 0.00027808551291147877 0 -0.034466810586495991 0.00045846023238182087 0 -0.034939019063833641 0.00036168879218759079 0 -0.034821441745382459 0.00014870158869128021 0 -0.034658406777653125 0.00027808551291147877 0 -0.034939019063833641 0.00036168879218759079 0 -0.034235518353130358 0.00021057918356081159 0 -0.034356004624106651 0.00016606493664869936 0 -0.034384220972648774 0.00032532537559881258 0 -0.034356004624106651 0.00016606493664869936 0 -0.034516680846920861 0.00018388868775307278 0 -0.034384220972648774 0.00032532537559881258 0 -0.034378694709522081 -3.2250089129103957e-05 0 -0.034356004624106651 0.00016606493664869936 0 -0.034516680846920861 0.00018388868775307278 0 -0.034798984502596081 9.6777448564599793e-06 0 -0.034666628935762771 0.00018008617024428006 0 -0.034516680846920861 0.00018388868775307278 0 -0.034666628935762771 0.00018008617024428006 0 -0.034522987682081493 0.00030042875525206384 0 -0.034516680846920861 0.00018388868775307278 0 -0.034522987682081493 0.00030042875525206384 0 -0.034516680846920861 0.00018388868775307278 0 -0.034384220972648774 0.00032532537559881258 0 -0.03447075305335992 0.00029612823392257347 0 -0.034423843693908468 0.00027080883811452547 0 -0.034522987682081493 0.00030042875525206384 0 -0.034299192777947768 0.00022311487647462512 0 -0.034380684140022301 0.00037326097312322413 0 -0.03428075348360226 0.00031731503843395321 0 -0.034380684140022301 0.00037326097312322413 0 -0.034316516338979315 0.00034443227036918357 0 -0.034299192777947768 0.00022311487647462512 0 -0.03428075348360226 0.00031731503843395321 0 -0.0341958612066008 0.00023858584578849049 0 -0.034299192777947768 0.00022311487647462512 0 -0.03428075348360226 0.00031731503843395321 0 -0.034380684140022301 0.00037326097312322413 0 -0.034380684140022301 0.00037326097312322413 0 -0.034338341399275052 0.00035100643992745688 0 -0.034316516338979315 0.00034443227036918357 0 -0.034380684140022301 0.00037326097312322413 0 -0.034338341399275052 0.00035100643992745688 0 -0.034339889106296512 0.00041384183585081654 0 -0.034338341399275052 0.00035100643992745688 0 -0.034316516338979315 0.00034443227036918357 0 -0.034320014713781107 0.00031181599892290133 0 -0.034316516338979315 0.00034443227036918357 0 -0.034268279463641214 0.00033849590894661157 0 -0.034320014713781107 0.00031181599892290133 0 -0.03428075348360226 0.00031731503843395321 0 -0.034316516338979315 0.00034443227036918357 0 -0.034268279463641214 0.00033849590894661157 0 -0.034200198740831009 0.00046702475007205614 0 -0.034466810586495991 0.00045846023238182087 0 -0.034107112194443914 0.00063541232887074099 0 -0.034200198740831009 0.00046702475007205614 0 -0.034466810586495991 0.00045846023238182087 0 -0.034339889106296512 0.00041384183585081654 0 -0.034380684140022301 0.00037326097312322413 0 -0.034466810586495991 0.00045846023238182087 0 -0.034339889106296512 0.00041384183585081654 0 -0.034338341399275052 0.00035100643992745688 0 -0.034339889106296512 0.00041384183585081654 0 -0.034294200393254926 0.00029257138048416581 0 -0.034339889106296512 0.00041384183585081654 0 -0.034104229759279431 0.00045209375960776686 0 -0.034294200393254926 0.00029257138048416581 0 -0.034200198740831009 0.00046702475007205614 0 -0.034339889106296512 0.00041384183585081654 0 -0.034104229759279431 0.00045209375960776686 0 -0.034104229759279431 0.00045209375960776686 0 -0.034078847383102503 0.00018575334974695631 0 -0.034294200393254926 0.00029257138048416581 0 -0.034294200393254926 0.00029257138048416581 0 -0.034252575520734838 8.6198022395427449e-05 0 -0.034301381610910384 0.00024625384669126873 0 -0.034078847383102503 0.00018575334974695631 0 -0.034294200393254926 0.00029257138048416581 0 -0.034252575520734838 8.6198022395427449e-05 0 -0.034078847383102503 0.00018575334974695631 0 -0.034252575520734838 8.6198022395427449e-05 0 -0.033592414669178387 -0.00011859689045662513 0 -0.030385251792160371 0.00020241798657361242 0 -0.031403661025339827 1.6996647595524133e-05 0 -0.030673714029537388 0.00083627122069962609 0 -0.032369819030540641 0.00012451910566078957 0 -0.032463920282510779 -2.1235481702945441e-05 0 -0.034268279463641214 0.00033849590894661157 0 -0.034320014713781107 0.00031181599892290133 0 -0.034286848627305029 0.00031613536809892015 0 -0.034268279463641214 0.00033849590894661157 0 -0.034286848627305029 0.00031613536809892015 0 -0.034236017897489215 0.0003584921593346225 0 -0.034294200393254926 0.00029257138048416581 0 -0.034320014713781107 0.00031181599892290133 0 -0.034301381610910384 0.00024625384669126873 0 -0.034338341399275052 0.00035100643992745688 0 -0.034294200393254926 0.00029257138048416581 0 -0.034320014713781107 0.00031181599892290133 0 -0.034320014713781107 0.00031181599892290133 0 -0.034303356554514011 0.00026756455478491091 0 -0.034286848627305029 0.00031613536809892015 0 -0.034320014713781107 0.00031181599892290133 0 -0.034301381610910384 0.00024625384669126873 0 -0.034303356554514011 0.00026756455478491091 0 -0.034252575520734838 8.6198022395427449e-05 0 -0.034303356554514011 0.00026756455478491091 0 -0.034294426378155295 0.00028834699905206507 0 -0.034252575520734838 8.6198022395427449e-05 0 -0.034301381610910384 0.00024625384669126873 0 -0.034303356554514011 0.00026756455478491091 0 -0.030385251792160371 0.00020241798657361242 0 -0.029478208890372979 0.00043949853326046316 0 -0.029562288843093528 0.00048985464526481745 0 -0.032369819030540641 0.00012451910566078957 0 -0.03159614523003159 0.00045288908145820774 0 -0.031667976898486841 0.0003115787017853524 0 -0.03159614523003159 0.00045288908145820774 0 -0.034303356554514011 0.00026756455478491091 0 -0.034286848627305029 0.00031613536809892015 0 -0.034294426378155295 0.00028834699905206507 0 -0.029088180881922037 0.00029206520813346683 0 -0.029449968225727673 0.00046935512575580542 0 -0.029487109921875199 0.00045924653974581858 0 -0.029088180881922037 0.00029206520813346683 0 -0.029148400038034299 0.00048887683675197301 0 -0.029449968225727673 0.00046935512575580542 0 -0.034286848627305029 0.00031613536809892015 0 -0.034236017897489215 0.0003584921593346225 0 -0.034294426378155295 0.00028834699905206507 0 -0.028932537967844254 0.00048522766653827306 0 -0.029088180881922037 0.00029206520813346683 0 -0.029148400038034299 0.00048887683675197301 0 -0.028932537967844254 0.00048522766653827306 0 -0.029088180881922037 0.00029206520813346683 0 -0.028806112014708299 0.00033387195278828069 0 -0.034268279463641214 0.00033849590894661157 0 -0.034236017897489215 0.0003584921593346225 0 -0.034187642985685406 0.00034070663228022181 0 -0.034236017897489215 0.0003584921593346225 0 -0.034108911701205759 0.00038557713061261552 0 -0.034187642985685406 0.00034070663228022181 0 -0.028794417376614718 0.00014631657913369544 0 -0.028806112014708299 0.00033387195278828069 0 -0.028542105499080914 0.00030591173928401022 0 -0.031667976898486841 0.0003115787017853524 0 -0.031667575463914653 0.0003088296831894855 0 -0.028932537967844254 0.00048522766653827306 0 -0.028806112014708299 0.00033387195278828069 0 -0.028693392103083682 0.00047222380094076436 0 -0.029088180881922037 0.00029206520813346683 0 -0.028794417376614718 0.00014631657913369544 0 -0.028806112014708299 0.00033387195278828069 0 -0.028693392103083682 0.00047222380094076436 0 -0.028542105499080914 0.00030591173928401022 0 -0.02853854657570316 0.00066009864710388113 0 -0.028806112014708299 0.00033387195278828069 0 -0.028693392103083682 0.00047222380094076436 0 -0.028542105499080914 0.00030591173928401022 0 -0.028539711896731088 -4.2314028617694852e-05 0 -0.026679762890573933 0.00010756085203254885 0 -0.028447254151301251 -0.00025885036310416845 0 -0.028545787137110784 -0.00026470753230792087 0 -0.028467169726792058 -0.00046689470890621095 0 -0.027970373952795415 -0.00026712738492859419 0 -0.025451036594694429 0.00013168189775148004 0 -0.027309524531918157 -4.7204771304221751e-07 0 -0.026971497155290892 -5.0699411005601735e-05 0 -0.025438985369403665 4.7890560541708504e-07 0 -0.027309524531918157 -4.7204771304221751e-07 0 -0.026971497155290892 -5.0699411005601735e-05 0 -0.028661743370270127 -2.2827139079441279e-05 0 -0.028545787137110784 -0.00026470753230792087 0 -0.028543456585606163 -0.00012675534543609966 0 -0.028661743370270127 -2.2827139079441279e-05 0 -0.027970373952795415 -0.00026712738492859419 0 -0.028425467878569508 -8.8338732106291423e-05 0 -0.027309524531918157 -4.7204771304221751e-07 0 -0.028661743370270127 -2.2827139079441279e-05 0 -0.029182204157901178 4.8320741844228905e-07 0 -0.028447254151301251 -0.00025885036310416845 0 -0.028545787137110784 -0.00026470753230792087 0 -0.028543456585606163 -0.00012675534543609966 0 -0.031667575463914653 0.0003088296831894855 0 -0.029899780883641355 0.00033285019110958051 0 -0.028539711896731088 -4.2314028617694852e-05 0 -0.029899780883641355 0.00033285019110958051 0 -0.028794417376614718 0.00014631657913369544 0 -0.028542105499080914 0.00030591173928401022 0 -0.028539317143334256 -8.2719170299924873e-06 0 -0.028447254151301251 -0.00025885036310416845 0 -0.028543456585606163 -0.00012675534543609966 0 -0.028500612640879042 -4.3706790699681965e-06 0 -0.033931374497975647 0.00032710749094015434 0 -0.033920847607553609 0.0002666447931756672 0 -0.034080261336136265 0.00026746913954945397 0 -0.034108911701205759 0.00038557713061261552 0 -0.033931374497975647 0.00032710749094015434 0 -0.034080261336136265 0.00026746913954945397 0 -0.03132346697662166 0.0001368470678794004 0 -0.034422042428614068 0.00027361798083808028 0 -0.029899780883641355 0.00033285019110958051 0 -0.03132346697662166 0.0001368470678794004 0 -0.03132346697662166 0.0001368470678794004 0 -0.029181565988979981 3.2140542306346144e-07 0 -0.028236583703503827 0.00029281264320950388 0 -0.028574326820263347 5.5642163135044278e-05 0 -0.029182204157901178 4.8320741844228905e-07 0 -0.028543456585606163 -0.00012675534543609966 0 -0.028500612640879042 -4.3706790699681965e-06 0 -0.028568441131225482 -2.7434536412053883e-05 0 -0.028543456585606163 -0.00012675534543609966 0 -0.028661743370270127 -2.2827139079441279e-05 0 -0.028568441131225482 -2.7434536412053883e-05 0 -0.028661743370270127 -2.2827139079441279e-05 0 -0.028568441131225482 -2.7434536412053883e-05 0 -0.028574326820263347 5.5642163135044278e-05 0 -0.028500612640879042 -4.3706790699681965e-06 0 -0.028568441131225482 -2.7434536412053883e-05 0 -0.028574326820263347 5.5642163135044278e-05 0 -0.029899780883641355 0.00033285019110958051 0 -0.02872576885464476 -0.00016027078927001733 0 -0.028192641594897459 -0.00017065132354871006 0 -0.028236583703503827 0.00029281264320950388 0 -0.028574326820263347 5.5642163135044278e-05 0 -0.028661743370270127 -2.2827139079441279e-05 0 -0.028574326820263347 5.5642163135044278e-05 0 -0.029182204157901178 4.8320741844228905e-07 0 -0.030897206049344303 -4.1747207110299135e-08 0 -0.029186459453245016 4.0680682721024895e-08 0 -0.030079041919958395 -0.00010654959003714214 0 -0.030118804076090164 1.5816360000831543e-05 0 -0.03009143115692996 -1.389897030087678e-05 0 -0.030079041919958395 -0.00010654959003714214 0 -0.03009143115692996 -1.389897030087678e-05 0 -0.029186459453245016 4.0680682721024895e-08 0 -0.030079041919958395 -0.00010654959003714214 0 -0.032012126940422547 -0.00011991537719523126 0 -0.03132346697662166 0.0001368470678794004 0 -0.033650871500729734 9.6896895781082329e-05 0 -0.033685166458884717 0.00044334794394513708 0 -0.03384007187173195 0.000255187610933057 0 -0.033685166458884717 0.00044334794394513708 0 -0.03384007187173195 0.000255187610933057 0 -0.033950644229122084 0.00039905114329944787 0 -0.033900444547727795 9.3884242262812117e-05 0 -0.03384007187173195 0.000255187610933057 0 -0.033999901376024759 0.00024246844920070723 0 -0.034015829172856442 0.00033269434708824332 0 -0.034422042428614068 0.00027361798083808028 0 -0.033999901376024759 0.00024246844920070723 0 -0.034178166874032641 0.00031138311237738771 0 -0.033950644229122084 0.00039905114329944787 0 -0.033900444547727795 9.3884242262812117e-05 0 -0.033999901376024759 0.00024246844920070723 0 -0.034079710219395043 0.00022059741494604516 0 -0.03384007187173195 0.000255187610933057 0 -0.033999901376024759 0.00024246844920070723 0 -0.033950644229122084 0.00039905114329944787 0 -0.033999901376024759 0.00024246844920070723 0 -0.034147015407501757 0.00025040697358988851 0 -0.034178166874032641 0.00031138311237738771 0 -0.034124047916121558 0.00016972047226871046 0 -0.034079710219395043 0.00022059741494604516 0 -0.034147015407501757 0.00025040697358988851 0 -0.033999901376024759 0.00024246844920070723 0 -0.034079710219395043 0.00022059741494604516 0 -0.034147015407501757 0.00025040697358988851 0 -0.03428075348360226 0.00031731503843395321 0 -0.0341958612066008 0.00023858584578849049 0 -0.034178166874032641 0.00031138311237738771 0 -0.0341958612066008 0.00023858584578849049 0 -0.034147015407501757 0.00025040697358988851 0 -0.034178166874032641 0.00031138311237738771 0 -0.034124047916121558 0.00016972047226871046 0 -0.0341958612066008 0.00023858584578849049 0 -0.034147015407501757 0.00025040697358988851 0 -0.03428075348360226 0.00031731503843395321 0 -0.034268279463641214 0.00033849590894661157 0 -0.034178166874032641 0.00031138311237738771 0 -0.034268279463641214 0.00033849590894661157 0 -0.034178166874032641 0.00031138311237738771 0 -0.034187642985685406 0.00034070663228022181 0 -0.034178166874032641 0.00031138311237738771 0 -0.034187642985685406 0.00034070663228022181 0 -0.034080261336136265 0.00026746913954945397 0 -0.034108911701205759 0.00038557713061261552 0 -0.034187642985685406 0.00034070663228022181 0 -0.034080261336136265 0.00026746913954945397 0 -0.028375924944142691 0.0029903776589662763 0 -0.028302264791343644 0.0029718761306433716 0 -0.028399839857962749 0.0029922178499153826 0 -0.028375924944142691 0.0029903776589662763 0 -0.028392502199554019 0.0029901226304419122 0 -0.028381850599437996 0.0029679224538179359 0 -0.028393960891238933 0.0029852784770893182 0 -0.028392502199554019 0.0029901226304419122 0 -0.028399742816640716 0.0029744167960245147 0 -0.028393960891238933 0.0029852784770893182 0 -0.028375924944142691 0.0029903776589662763 0 -0.028392502199554019 0.0029901226304419122 0 -0.028393960891238933 0.0029852784770893182 0 -0.028375924944142691 0.0029903776589662763 0 -0.028399839857962749 0.0029922178499153826 0 -0.028444834883547772 0.0033723918811074485 0 -0.028995329058981834 0.0035273589441602274 0 -0.028915648317325415 0.0030350239919571796 0 -0.028444834883547772 0.0033723918811074485 0 -0.028915648317325415 0.0030350239919571796 0 -0.028581561793174413 0.0029746112434280813 0 -0.028444834883547772 0.0033723918811074485 0 -0.028696778305502685 0.0041232970809283566 0 -0.028995329058981834 0.0035273589441602274 0 -0.028306790998438698 0.0032922149760204202 0 -0.030549622159745535 0.0024892923679333606 0 -0.028392502199554019 0.0029901226304419122 0 -0.028400649257547383 0.0029651140097392242 0 -0.028399742816640716 0.0029744167960245147 0 -0.028400649257547383 0.0029651140097392242 0 -0.028399742816640716 0.0029744167960245147 0 -0.028408626777817837 0.002954311065037843 0 -0.031951935310008228 0.0024225683099867446 0 -0.031832089789113407 0.0021075109383825708 0 -0.031396590002028421 0.0025734693649951393 0 -0.028399742816640716 0.0029744167960245147 0 -0.028408412341141789 0.002969956481760475 0 -0.028408626777817837 0.002954311065037843 0 -0.028393960891238933 0.0029852784770893182 0 -0.028399742816640716 0.0029744167960245147 0 -0.028408412341141789 0.002969956481760475 0 -0.028393960891238933 0.0029852784770893182 0 -0.028408412341141789 0.002969956481760475 0 -0.028399839857962749 0.0029922178499153826 0 -0.032039475469504697 0.0012560454343598269 0 -0.032143772160284544 0.0010486652919446979 0 -0.032450849305275822 0.0011443391282212317 0 -0.032143772160284544 0.0010486652919446979 0 -0.032129487196604523 0.00067418155197989781 0 -0.031583810696259401 0.0012475477072533851 0 -0.030045143475132458 0.0021568338384410188 0 -0.031113960334008518 0.0016549741069437158 0 -0.028408412341141789 0.002969956481760475 0 -0.028408626777817837 0.002954311065037843 0 -0.028450581853901688 0.002936060506565267 0 -0.032143772160284544 0.0010486652919446979 0 -0.032129487196604523 0.00067418155197989781 0 -0.032456878747781873 0.0010645481495562663 0 -0.034074489542152149 0.00017300925013280432 0 -0.032789549622860584 0.00067029743460441792 0 -0.034997699808917135 5.1390571242156251e-07 0 -0.034999996167371657 7.4347478169221964e-10 0 -0.034999997079609761 -1.4021251698307299e-10 0 -0.034074489542152149 0.00017300925013280432 0 -0.034999527403061871 4.49894802541803e-07 0 -0.034074489542152149 0.00017300925013280432 0 -0.034999725472323495 -3.3268219564716732e-07 0 -0.034987226198991299 4.9440812146683357e-06 0 -0.034999940630949584 1.0328327417868383e-08 0 -0.035000029657469581 -2.3075261364456334e-09 0 -0.034999575626047517 7.1126624919949894e-06 0 -0.035000000777883677 1.124202780544256e-08 0 -0.034985421483120373 1.2839587460880887e-05 0 -0.035000000777883677 1.124202780544256e-08 0 -0.034985421483120373 1.2839587460880887e-05 0 -0.034999959040743364 7.9794779188784503e-09 0 -0.034999575626047517 7.1126624919949894e-06 0 -0.034976874396856421 3.0679558868479186e-05 0 -0.034985421483120373 1.2839587460880887e-05 0 -0.032039475469504697 0.0012560454343598269 0 -0.032143772160284544 0.0010486652919446979 0 -0.031583810696259401 0.0012475477072533851 0 -0.030549622159745535 0.0024892923679333606 0 -0.030045143475132458 0.0021568338384410188 0 -0.034074489542152149 0.00017300925013280432 0 -0.032892013804558973 0.0009382439729881195 0 -0.03162696278165799 0.0013678460153256319 0 -0.032039475469504697 0.0012560454343598269 0 -0.031583810696259401 0.0012475477072533851 0 -0.030549622159745535 0.0024892923679333606 0 -0.032892013804558973 0.0009382439729881195 0 -0.034973992420732104 3.4318601114147762e-05 0 -0.034975061236175893 3.2145913122213311e-05 0 -0.034956717155605249 5.017659768926033e-05 0 -0.034965108006321306 4.4615507204243888e-05 0 -0.034973992420732104 3.4318601114147762e-05 0 -0.034956717155605249 5.017659768926033e-05 0 -0.034973992420732104 3.4318601114147762e-05 0 -0.034985327561454005 2.4771119325844758e-05 0 -0.034987345788418819 1.702224415956665e-05 0 -0.032892013804558973 0.0009382439729881195 0 -0.034896178101868076 3.8939118453667557e-05 0 -0.034965108006321306 4.4615507204243888e-05 0 -0.034973992420732104 3.4318601114147762e-05 0 -0.034985327561454005 2.4771119325844758e-05 0 -0.034985327561454005 2.4771119325844758e-05 0 -0.034999979139236491 2.727852544313332e-08 0 -0.034987345788418819 1.702224415956665e-05 0 -0.034896178101868076 3.8939118453667557e-05 0 -0.034999980850899309 2.0742140157750261e-08 0 -0.034999979139236491 2.727852544313332e-08 0 -0.034987345788418819 1.702224415956665e-05 0 -0.034999970430303159 1.6098301828382075e-08 0 -0.034987345788418819 1.702224415956665e-05 0 -0.034975061236175893 3.2145913122213311e-05 0 -0.034999970430303159 1.6098301828382075e-08 0 -0.034973992420732104 3.4318601114147762e-05 0 -0.034987345788418819 1.702224415956665e-05 0 -0.034975061236175893 3.2145913122213311e-05 0 -0.034975061236175893 3.2145913122213311e-05 0 -0.034956717155605249 5.017659768926033e-05 0 -0.034960662218475935 4.7045754708855748e-05 0 -0.031193481744882179 0.0026946288732446824 0 -0.032720593000029621 0.0019764958378355544 0 -0.028989760607195922 0.0042313684127000574 0 -0.029769332038736978 0.0033742830261997659 0 -0.030321757755712102 0.0039343859433997085 0 -0.031193481744882179 0.0026946288732446824 0 -0.028881589697004554 0.0040981872103540689 0 -0.028982152153914247 0.0040613653000008305 0 -0.028995329058981834 0.0035273589441602274 0 -0.029769332038736978 0.0033742830261997659 0 -0.028696778305502685 0.0041232970809283566 0 -0.028982152153914247 0.0040613653000008305 0 -0.028995329058981834 0.0035273589441602274 0 -0.030549622159745535 0.0024892923679333606 0 -0.031193481744882179 0.0026946288732446824 0 -0.032892013804558973 0.0009382439729881195 0 -0.031193481744882179 0.0026946288732446824 0 -0.028995329058981834 0.0035273589441602274 0 -0.029330697507796807 0.0032117362026408908 0 -0.029769332038736978 0.0033742830261997659 0 -0.028995329058981834 0.0035273589441602274 0 -0.029330697507796807 0.0032117362026408908 0 -0.028915648317325415 0.0030350239919571796 0 -0.029330697507796807 0.0032117362026408908 0 -0.029769332038736978 0.0033742830261997659 0 -0.029677931262584122 0.0028591769520497504 0 -0.03009331897774796 0.0031601978839214504 0 -0.029769332038736978 0.0033742830261997659 0 -0.030321757755712102 0.0039343859433997085 0 -0.03009331897774796 0.0031601978839214504 0 -0.029769332038736978 0.0033742830261997659 0 -0.029677931262584122 0.0028591769520497504 0 -0.03009331897774796 0.0031601978839214504 0 -0.030938214021309331 0.0032900057179081682 0 -0.031418353156577511 0.0025140850659029833 0 -0.030938214021309331 0.0032900057179081682 0 -0.031946321930821087 0.003538577768324959 0 -0.030321757755712102 0.0039343859433997085 0 -0.03009331897774796 0.0031601978839214504 0 -0.030938214021309331 0.0032900057179081682 0 -0.030321757755712102 0.0039343859433997085 0 -0.033891775579706074 0.0012782849385129756 0 -0.032180715320484832 0.001720895311923648 0 -0.033873521453856276 0.0007205493343222369 0 -0.033934513210508971 0.00057426180162026383 0 -0.033765316388093915 0.00054181529085160426 0 -0.030938214021309331 0.0032900057179081682 0 -0.031946321930821087 0.003538577768324959 0 -0.031418353156577511 0.0025140850659029833 0 -0.033891775579706074 0.0012782849385129756 0 -0.032720593000029621 0.0019764958378355544 0 -0.034959727515649484 4.9676401089699563e-05 0 -0.034960662218475935 4.7045754708855748e-05 0 -0.034979919940019574 2.474656686390736e-05 0 -0.034959727515649484 4.9676401089699563e-05 0 -0.034979919940019574 2.474656686390736e-05 0 -0.034977804002477228 2.2260048427029026e-05 0 -0.034975061236175893 3.2145913122213311e-05 0 -0.034999970430303159 1.6098301828382075e-08 0 -0.034979919940019574 2.474656686390736e-05 0 -0.034975061236175893 3.2145913122213311e-05 0 -0.034960662218475935 4.7045754708855748e-05 0 -0.034979919940019574 2.474656686390736e-05 0 -0.034999970430303159 1.6098301828382075e-08 0 -0.034999976399451842 1.5652821262491832e-08 0 -0.034979919940019574 2.474656686390736e-05 0 -0.034999976399451842 1.5652821262491832e-08 0 -0.034979919940019574 2.474656686390736e-05 0 -0.034977804002477228 2.2260048427029026e-05 0 -0.034999976399451842 1.5652821262491832e-08 0 -0.034977804002477228 2.2260048427029026e-05 0 -0.034999978008805749 3.9177691876860894e-10 0 -0.035147613267750538 -0.00013164526897761617 0 -0.034999968700604588 2.1986890953025627e-07 0 -0.034917955910705296 2.2198213481525822e-05 0 -0.035039600666520551 7.1867796949819825e-05 0 -0.03499998557702122 -6.3050898184860468e-08 0 -0.034917955910705296 2.2198213481525822e-05 0 -0.034821441745382459 0.00014870158869128021 0 -0.035039600666520551 7.1867796949819825e-05 0 -0.034821441745382459 0.00014870158869128021 0 -0.03499774361359724 0.00021826723814822357 0 -0.034939019063833641 0.00036168879218759079 0 -0.034821441745382459 0.00014870158869128021 0 -0.035039600666520551 7.1867796949819825e-05 0 -0.03499774361359724 0.00021826723814822357 0 -0.035147310817763608 0.00029221823013490035 0 -0.035039600666520551 7.1867796949819825e-05 0 -0.03499774361359724 0.00021826723814822357 0 -0.033891775579706074 0.0012782849385129756 0 -0.035147613267750538 -0.00013164526897761617 0 -0.033873521453856276 0.0007205493343222369 0 -0.034107112194443914 0.00063541232887074099 0 -0.033934513210508971 0.00057426180162026383 0 -0.035147310817763608 0.00029221823013490035 0 -0.03499774361359724 0.00021826723814822357 0 -0.034939019063833641 0.00036168879218759079 0 -0.033891775579706074 0.0012782849385129756 0 -0.034677966714159229 0.00037851611586991156 0 -0.034200198740831009 0.00046702475007205614 0 -0.034107112194443914 0.00063541232887074099 0 -0.034026199379484506 0.0004356318508905939 0 -0.033871876135541081 0.00053002921153017066 0 -0.032180715320484832 0.001720895311923648 0 -0.034107112194443914 0.00063541232887074099 0 -0.033934513210508971 0.00057426180162026383 0 -0.034026199379484506 0.0004356318508905939 0 -0.033934513210508971 0.00057426180162026383 0 -0.034026199379484506 0.0004356318508905939 0 -0.033765316388093915 0.00054181529085160426 0 -0.03325386560591051 0.00093637083696904513 0 -0.033321834839390212 0.00035136925021561556 0 -0.032706026788984557 0.00058323788444819395 0 -0.03325386560591051 0.00093637083696904513 0 -0.032706026788984557 0.00058323788444819395 0 -0.032452659077768432 0.0012302979903220728 0 -0.033969884028799455 0.00052860323346468443 0 -0.033871876135541081 0.00053002921153017066 0 -0.034104229759279431 0.00045209375960776686 0 -0.03325386560591051 0.00093637083696904513 0 -0.033321834839390212 0.00035136925021561556 0 -0.034200198740831009 0.00046702475007205614 0 -0.034104229759279431 0.00045209375960776686 0 -0.034026199379484506 0.0004356318508905939 0 -0.034078847383102503 0.00018575334974695631 0 -0.033592414669178387 -0.00011859689045662513 0 -0.033321834839390212 0.00035136925021561556 0 -0.034104229759279431 0.00045209375960776686 0 -0.034078847383102503 0.00018575334974695631 0 -0.033321834839390212 0.00035136925021561556 0 -0.031403661025339827 1.6996647595524133e-05 0 -0.032006857159856732 0.00038088361803707377 0 -0.032413205494136225 5.9767161720910845e-05 0 -0.032463920282510779 -2.1235481702945441e-05 0 -0.032411852412759797 4.0108421552376092e-05 0 -0.033321834839390212 0.00035136925021561556 0 -0.032413205494136225 5.9767161720910845e-05 0 -0.032706026788984557 0.00058323788444819395 0 -0.033592414669178387 -0.00011859689045662513 0 -0.033321834839390212 0.00035136925021561556 0 -0.032413205494136225 5.9767161720910845e-05 0 -0.032413205494136225 5.9767161720910845e-05 0 -0.03229630760199835 0.00016088720638215279 0 -0.032189722803048874 0.00058396053584637325 0 -0.032413205494136225 5.9767161720910845e-05 0 -0.032189722803048874 0.00058396053584637325 0 -0.032706026788984557 0.00058323788444819395 0 -0.032413205494136225 5.9767161720910845e-05 0 -0.032277867388945954 0.00031457698741802696 0 -0.032361562175930773 0.0001975883575427915 0 -0.032006857159856732 0.00038088361803707377 0 -0.032413205494136225 5.9767161720910845e-05 0 -0.032277867388945954 0.00031457698741802696 0 -0.032413205494136225 5.9767161720910845e-05 0 -0.032361562175930773 0.0001975883575427915 0 -0.03229630760199835 0.00016088720638215279 0 -0.032277867388945954 0.00031457698741802696 0 -0.032361562175930773 0.0001975883575427915 0 -0.032424805659796566 0.00037634520280931122 0 -0.029732160250272185 0.001062161728778824 0 -0.029866553478632256 0.00028058128160747146 0 -0.032361562175930773 0.0001975883575427915 0 -0.032154841196268602 0.00018570903287921603 0 -0.032382626839833693 0.00017400183381009534 0 -0.027622420030510266 0.0011856637614314151 0 -0.027435696260326277 0.00085580619185418811 0 -0.027858299597113428 0.00079833230226734582 0 -0.030717558324698847 0.00026455093899256795 0 -0.029866553478632256 0.00028058128160747146 0 -0.032361562175930773 0.0001975883575427915 0 -0.032154841196268602 0.00018570903287921603 0 -0.03229630760199835 0.00016088720638215279 0 -0.030292514397333919 0.00085847099666447725 0 -0.030762372307347696 0.0017709826912057699 0 -0.029614662202736008 0.0018973149936556443 0 -0.029732160250272185 0.001062161728778824 0 -0.031578132518627226 0.0011953807870654189 0 -0.032154841196268602 0.00018570903287921603 0 -0.03229630760199835 0.00016088720638215279 0 -0.032189722803048874 0.00058396053584637325 0 -0.030762372307347696 0.0017709826912057699 0 -0.030315678243928116 0.0024244930453285302 0 -0.029614662202736008 0.0018973149936556443 0 -0.031578132518627226 0.0011953807870654189 0 -0.032180715320484832 0.001720895311923648 0 -0.032189722803048874 0.00058396053584637325 0 -0.032706026788984557 0.00058323788444819395 0 -0.032452659077768432 0.0012302979903220728 0 -0.030762372307347696 0.0017709826912057699 0 -0.031222653007508327 0.0026769380643720106 0 -0.030315678243928116 0.0024244930453285302 0 -0.029762736902672848 0.0034127525611095826 0 -0.032180715320484832 0.001720895311923648 0 -0.03009331897774796 0.0031601978839214504 0 -0.031222653007508327 0.0026769380643720106 0 -0.030315678243928116 0.0024244930453285302 0 -0.030315678243928116 0.0024244930453285302 0 -0.029677931262584122 0.0028591769520497504 0 -0.029614662202736008 0.0018973149936556443 0 -0.03009331897774796 0.0031601978839214504 0 -0.030315678243928116 0.0024244930453285302 0 -0.029677931262584122 0.0028591769520497504 0 -0.029330697507796807 0.0032117362026408908 0 -0.029677931262584122 0.0028591769520497504 0 -0.028915648317325415 0.0030350239919571796 0 -0.029677931262584122 0.0028591769520497504 0 -0.028915648317325415 0.0030350239919571796 0 -0.029614662202736008 0.0018973149936556443 0 -0.028915648317325415 0.0030350239919571796 0 -0.029149648748096557 0.0026186987405696616 0 -0.028530317632789341 0.0027531139668788784 0 -0.028940739528736516 0.002966032081426422 0 -0.029390133734285593 0.0023310946860490094 0 -0.029149648748096557 0.0026186987405696616 0 -0.028739387921441838 0.0022972850101397021 0 -0.028530317632789341 0.0027531139668788784 0 -0.029732160250272185 0.001062161728778824 0 -0.029390133734285593 0.0023310946860490094 0 -0.029549803867942901 0.0020106533093784346 0 -0.029149648748096557 0.0026186987405696616 0 -0.029010810013236028 0.0019694651236293651 0 -0.029318033275456103 0.0015456831179193106 0 -0.029010810013236028 0.0019694651236293651 0 -0.028835525231665587 0.0014580295319033653 0 -0.029549803867942901 0.0020106533093784346 0 -0.029318033275456103 0.0015456831179193106 0 -0.029010810013236028 0.0019694651236293651 0 -0.029732160250272185 0.001062161728778824 0 -0.028434359721328243 0.0012807169102204343 0 -0.029010810013236028 0.0019694651236293651 0 -0.028469601595525161 0.0016685414922920875 0 -0.028835525231665587 0.0014580295319033653 0 -0.029010810013236028 0.0019694651236293651 0 -0.028478804244882874 0.0020419831545068893 0 -0.028469601595525161 0.0016685414922920875 0 -0.029010810013236028 0.0019694651236293651 0 -0.028739387921441838 0.0022972850101397021 0 -0.028478804244882874 0.0020419831545068893 0 -0.029149648748096557 0.0026186987405696616 0 -0.029010810013236028 0.0019694651236293651 0 -0.028739387921441838 0.0022972850101397021 0 -0.028739387921441838 0.0022972850101397021 0 -0.028478804244882874 0.0020419831545068893 0 -0.02815337388795041 0.0022230439186520378 0 -0.028478804244882874 0.0020419831545068893 0 -0.028152078487467824 0.0018518451506023756 0 -0.02815337388795041 0.0022230439186520378 0 -0.028478804244882874 0.0020419831545068893 0 -0.028152078487467824 0.0018518451506023756 0 -0.028469601595525161 0.0016685414922920875 0 -0.028152078487467824 0.0018518451506023756 0 -0.028469601595525161 0.0016685414922920875 0 -0.028088024853917298 0.0016517837208384087 0 -0.028469601595525161 0.0016685414922920875 0 -0.028088024853917298 0.0016517837208384087 0 -0.02812256417967814 0.0014468281899263512 0 -0.028421495926797428 0.0025027111444193184 0 -0.028405132419629497 0.0025754072284569656 0 -0.028448394351308165 0.0027328809838803717 0 -0.028152078487467824 0.0018518451506023756 0 -0.027748511689481652 0.0016766560677455996 0 -0.02815337388795041 0.0022230439186520378 0 -0.026479979956682827 0.0027919526317959314 0 -0.028424750461088808 0.0024452892013695623 0 -0.027748511689481652 0.0016766560677455996 0 -0.028088024853917298 0.0016517837208384087 0 -0.02812256417967814 0.0014468281899263512 0 -0.028152078487467824 0.0018518451506023756 0 -0.027748511689481652 0.0016766560677455996 0 -0.028088024853917298 0.0016517837208384087 0 -0.028421495926797428 0.0025027111444193184 0 -0.028405132419629497 0.0025754072284569656 0 -0.02832670837847083 0.0025967848652969933 0 -0.028405132419629497 0.0025754072284569656 0 -0.028358451251717497 0.0026665427731423874 0 -0.02832670837847083 0.0025967848652969933 0 -0.028358451251717497 0.0026665427731423874 0 -0.028448394351308165 0.0027328809838803717 0 -0.028331883177054269 0.0027472662775187345 0 -0.028405132419629497 0.0025754072284569656 0 -0.028358451251717497 0.0026665427731423874 0 -0.028448394351308165 0.0027328809838803717 0 -0.028448394351308165 0.0027328809838803717 0 -0.028331883177054269 0.0027472662775187345 0 -0.02835241023422597 0.0027973619605899582 0 -0.02835241023422597 0.0027973619605899582 0 -0.028381850599437996 0.0029679224538179359 0 -0.028289507772419707 0.0029102436216111908 0 -0.02835241023422597 0.0027973619605899582 0 -0.028530317632789341 0.0027531139668788784 0 -0.028379828708821716 0.0028623386007391198 0 -0.028448394351308165 0.0027328809838803717 0 -0.02835241023422597 0.0027973619605899582 0 -0.028530317632789341 0.0027531139668788784 0 -0.028351037910529876 0.0028063860411449014 0 -0.028383267282978408 0.0029090078165129396 0 -0.028739387921441838 0.0022972850101397021 0 -0.02815337388795041 0.0022230439186520378 0 -0.028530317632789341 0.0027531139668788784 0 -0.028424750461088808 0.0024452892013695623 0 -0.028477821544851567 0.0027349872688241009 0 -0.028915648317325415 0.0030350239919571796 0 -0.028530317632789341 0.0027531139668788784 0 -0.028581561793174413 0.0029746112434280813 0 -0.028530317632789341 0.0027531139668788784 0 -0.028581561793174413 0.0029746112434280813 0 -0.028379828708821716 0.0028623386007391198 0 -0.028444834883547772 0.0033723918811074485 0 -0.028581561793174413 0.0029746112434280813 0 -0.028379828708821716 0.0028623386007391198 0 -0.028306790998438698 0.0032922149760204202 0 -0.028383267282978408 0.0029090078165129396 0 -0.028375924944142691 0.0029903776589662763 0 -0.028381850599437996 0.0029679224538179359 0 -0.028302264791343644 0.0029718761306433716 0 -0.028381850599437996 0.0029679224538179359 0 -0.028302264791343644 0.0029718761306433716 0 -0.028289507772419707 0.0029102436216111908 0 -0.018921864080678689 0.002279004544681329 0 -0.018833909009958454 0.0018033535954059901 0 -0.018629769104514068 0.0022378158085752122 0 -0.021048344997706345 0.0015797617349319485 0 -0.021185382815372713 0.0013604677877290495 0 -0.022786490719495223 0.00096052489837116124 0 -0.023319635710016572 0.0012142763882681991 0 -0.023212025467659887 0.0006813233791902898 0 -0.022786490719495223 0.00096052489837116124 0 -0.022801496203025018 0.0013698596813634689 0 -0.023319635710016572 0.0012142763882681991 0 -0.022786490719495223 0.00096052489837116124 0 -0.022801496203025018 0.0013698596813634689 0 -0.022310112405082138 0.0012898095437448686 0 -0.022801496203025018 0.0013698596813634689 0 -0.023057158892906885 0.0016995995222149811 0 -0.022513251488055046 0.0016972851078603214 0 -0.027748511689481652 0.0016766560677455996 0 -0.02812256417967814 0.0014468281899263512 0 -0.027445874423087113 0.0010057435320387021 0 -0.028298729679841008 0.001029914990109654 0 -0.02812256417967814 0.0014468281899263512 0 -0.027445874423087113 0.0010057435320387021 0 -0.026479979956682827 0.0027919526317959314 0 -0.022824132207148816 0.0016955904734863457 0 -0.026242297384772705 0.0013409874022182727 0 -0.022824132207148816 0.0016955904734863457 0 -0.028469601595525161 0.0016685414922920875 0 -0.028298729679841008 0.001029914990109654 0 -0.028835525231665587 0.0014580295319033653 0 -0.028469601595525161 0.0016685414922920875 0 -0.028298729679841008 0.001029914990109654 0 -0.02812256417967814 0.0014468281899263512 0 -0.022801496203025018 0.0013698596813634689 0 -0.023057158892906885 0.0016995995222149811 0 -0.023319635710016572 0.0012142763882681991 0 -0.025785561177446917 0.0013043013788496573 0 -0.022788412140381673 0.001180238440155049 0 -0.023057158892906885 0.0016995995222149811 0 -0.023620530553948534 0.0017104805647470743 0 -0.023319635710016572 0.0012142763882681991 0 -0.028298729679841008 0.001029914990109654 0 -0.028835525231665587 0.0014580295319033653 0 -0.029063751508069811 0.0010587147796174536 0 -0.026242297384772705 0.0013409874022182727 0 -0.025785561177446917 0.0013043013788496573 0 -0.028434359721328243 0.0012807169102204343 0 -0.025785561177446917 0.0013043013788496573 0 -0.027435696260326277 0.00085580619185418811 0 -0.027249796258310293 0.00052385008976315911 0 -0.027596403207296765 0.00067647766925751614 0 -0.029318033275456103 0.0015456831179193106 0 -0.028835525231665587 0.0014580295319033653 0 -0.029063751508069811 0.0010587147796174536 0 -0.025785561177446917 0.0013043013788496573 0 -0.025715258848365348 0.00058566821073530238 0 -0.023525619998507857 0.0015482034472381583 0 -0.023672138049502259 0.0012791291272795395 0 -0.023971473236913034 0.0015472500561061759 0 -0.023525619998507857 0.0015482034472381583 0 -0.023672138049502259 0.0012791291272795395 0 -0.023319635710016572 0.0012142763882681991 0 -0.023672138049502259 0.0012791291272795395 0 -0.023319635710016572 0.0012142763882681991 0 -0.023604426831234086 0.00093798069424057978 0 -0.023319635710016572 0.0012142763882681991 0 -0.023604426831234086 0.00093798069424057978 0 -0.023212025467659887 0.0006813233791902898 0 -0.023604426831234086 0.00093798069424057978 0 -0.023941302312717058 0.0011367930050982149 0 -0.023896998651986533 0.00071248912291445126 0 -0.023746630330206131 0.00053121062137846664 0 -0.023919553270661847 0.00042510700576754208 0 -0.023787534744285247 4.5917129450166902e-05 0 -0.02395698946234575 -8.0775503274437978e-05 0 -0.023904354367719025 0.00014087671955870004 0 -0.023787534744285247 4.5917129450166902e-05 0 -0.023863485685644788 -0.00014259620835721201 0 -0.02395698946234575 -8.0775503274437978e-05 0 -0.023672138049502259 0.0012791291272795395 0 -0.023604426831234086 0.00093798069424057978 0 -0.023941302312717058 0.0011367930050982149 0 -0.023672138049502259 0.0012791291272795395 0 -0.023941302312717058 0.0011367930050982149 0 -0.023971473236913034 0.0015472500561061759 0 -0.023746630330206131 0.00053121062137846664 0 -0.025715258848365348 0.00058566821073530238 0 -0.027249796258310293 0.00052385008976315911 0 -0.027841401689094995 0.00052756694236854099 0 -0.027596403207296765 0.00067647766925751614 0 -0.027435696260326277 0.00085580619185418811 0 -0.027858299597113428 0.00079833230226734582 0 -0.027596403207296765 0.00067647766925751614 0 -0.025715258848365348 0.00058566821073530238 0 -0.029866553478632256 0.00028058128160747146 0 -0.027841401689094995 0.00052756694236854099 0 -0.027858299597113428 0.00079833230226734582 0 -0.027596403207296765 0.00067647766925751614 0 -0.032006857159856732 0.00038088361803707377 0 -0.032277867388945954 0.00031457698741802696 0 -0.032263607788712609 0.00074353576585479021 0 -0.032277867388945954 0.00031457698741802696 0 -0.032424805659796566 0.00037634520280931122 0 -0.032263607788712609 0.00074353576585479021 0 -0.029866553478632256 0.00028058128160747146 0 -0.027564672442237238 4.3979379300342288e-05 0 -0.025715258848365348 0.00058566821073530238 0 -0.027564672442237238 4.3979379300342288e-05 0 -0.027988617651572019 0.00063246231864053223 0 -0.027987545839123839 6.6551933234541884e-05 0 -0.027614220489817452 0.00062578544938424066 0 -0.023863485685644788 -0.00014259620835721201 0 -0.023998431470781994 -0.00029979763578602883 0 -0.023894649747053295 -0.00026474582872630604 0 -0.023863485685644788 -0.00014259620835721201 0 -0.02395698946234575 -8.0775503274437978e-05 0 -0.023998431470781994 -0.00029979763578602883 0 -0.027564672442237238 4.3979379300342288e-05 0 -0.026157308382450669 0.00058273597074939127 0 -0.023998431470781994 -0.00029979763578602883 0 -0.023927081930044686 -0.00030326711144967709 0 -0.023894649747053295 -0.00026474582872630604 0 -0.023863485685644788 -0.00014259620835721201 0 -0.023894649747053295 -0.00026474582872630604 0 -0.023744411019342795 -0.00018184611050689459 0 -0.023894649747053295 -0.00026474582872630604 0 -0.023744411019342795 -0.00018184611050689459 0 -0.023712300461240152 -0.00031882068989028215 0 -0.023931072822285671 -0.00030591594224981818 0 -0.023894649747053295 -0.00026474582872630604 0 -0.023712300461240152 -0.00031882068989028215 0 -0.032006857159856732 0.00038088361803707377 0 -0.032263607788712609 0.00074353576585479021 0 -0.031550004153715124 0.00082937810066445548 0 -0.027564672442237238 4.3979379300342288e-05 0 -0.027740437372370211 0.00027144148701070046 0 -0.031403661025339827 1.6996647595524133e-05 0 -0.032006857159856732 0.00038088361803707377 0 -0.031550004153715124 0.00082937810066445548 0 -0.027740437372370211 0.00027144148701070046 0 -0.027058886292828689 0.00024493320676139714 0 -0.031403661025339827 1.6996647595524133e-05 0 -0.031550004153715124 0.00082937810066445548 0 -0.030673714029537388 0.00083627122069962609 0 -0.023712300461240152 -0.00031882068989028215 0 -0.023560772792653256 -0.00013628191903537458 0 -0.023492755278268128 -0.00033921079795319478 0 -0.023744411019342795 -0.00018184611050689459 0 -0.023712300461240152 -0.00031882068989028215 0 -0.023560772792653256 -0.00013628191903537458 0 -0.023560772792653256 -0.00013628191903537458 0 -0.023692278107601213 -4.8640193649910074e-05 0 -0.023559070472960294 0.00013883154250700098 0 -0.023744411019342795 -0.00018184611050689459 0 -0.023560772792653256 -0.00013628191903537458 0 -0.023692278107601213 -4.8640193649910074e-05 0 -0.023863485685644788 -0.00014259620835721201 0 -0.023744411019342795 -0.00018184611050689459 0 -0.023692278107601213 -4.8640193649910074e-05 0 -0.023787534744285247 4.5917129450166902e-05 0 -0.023863485685644788 -0.00014259620835721201 0 -0.023692278107601213 -4.8640193649910074e-05 0 -0.023787534744285247 4.5917129450166902e-05 0 -0.023692278107601213 -4.8640193649910074e-05 0 -0.023559070472960294 0.00013883154250700098 0 -0.023787534744285247 4.5917129450166902e-05 0 -0.023559070472960294 0.00013883154250700098 0 -0.023757987960514076 0.00025514218445834343 0 -0.023559070472960294 0.00013883154250700098 0 -0.023629624880634473 0.0003672308549987089 0 -0.023757987960514076 0.00025514218445834343 0 -0.023559070472960294 0.00013883154250700098 0 -0.023629624880634473 0.0003672308549987089 0 -0.02340482964678077 0.00035193945098470602 0 -0.01946206926056393 0.00035253775262955058 0 -0.019950860374583258 0.00041155384319582647 0 -0.01544864781875031 0.00028060867322243468 0 -0.015868669871588449 0.00026673342839626433 0 -0.015410096139549145 0.00028691684374108689 0 -0.015292726578610132 0.00037362261608531714 0 -0.016502371897299913 0.00047913900927425553 0 -0.015410096139549145 0.00028691684374108689 0 -0.015258940445987421 0.00038764037098300931 0 -0.015166261403654359 0.00035241723135724998 0 -0.015410096139549145 0.00028691684374108689 0 -0.015258940445987421 0.00038764037098300931 0 -0.01531956371785379 0.00040926117547159511 0 -0.015258940445987421 0.00038764037098300931 0 -0.01531956371785379 0.00040926117547159511 0 -0.015243217208212288 0.00045010727863893342 0 -0.015243217208212288 0.00045010727863893342 0 -0.015315341513544242 0.00047955266989396111 0 -0.01527785160580488 0.00051173661304480247 0 -0.01531956371785379 0.00040926117547159511 0 -0.015243217208212288 0.00045010727863893342 0 -0.015315341513544242 0.00047955266989396111 0 -0.015315341513544242 0.00047955266989396111 0 -0.015367783013568804 0.00040773810017418019 0 -0.015373624851053985 0.00063010801579836434 0 -0.01531956371785379 0.00040926117547159511 0 -0.015315341513544242 0.00047955266989396111 0 -0.015367783013568804 0.00040773810017418019 0 -0.015367783013568804 0.00040773810017418019 0 -0.015503923280254477 0.00043807771243943301 0 -0.015373624851053985 0.00063010801579836434 0 -0.015367783013568804 0.00040773810017418019 0 -0.015292726578610132 0.00037362261608531714 0 -0.015503923280254477 0.00043807771243943301 0 -0.015410096139549145 0.00028691684374108689 0 -0.01531956371785379 0.00040926117547159511 0 -0.015367783013568804 0.00040773810017418019 0 -0.015410096139549145 0.00028691684374108689 0 -0.015367783013568804 0.00040773810017418019 0 -0.015292726578610132 0.00037362261608531714 0 -0.023629624880634473 0.0003672308549987089 0 -0.02382595095700879 0.00033681800954034867 0 -0.023757987960514076 0.00025514218445834343 0 -0.01946206926056393 0.00035253775262955058 0 -0.019950853100495783 0.00035014496831005539 0 -0.015292726578610132 0.00037362261608531714 0 -0.015503923280254477 0.00043807771243943301 0 -0.015868464696077257 0.00022378876887743263 0 -0.015770487705379643 0.00058831298359160325 0 -0.015373624851053985 0.00063010801579836434 0 -0.016070008918465817 0.0011369140349307494 0 -0.015503923280254477 0.00043807771243943301 0 -0.015770487705379643 0.00058831298359160325 0 -0.015373624851053985 0.00063010801579836434 0 -0.015503923280254477 0.00043807771243943301 0 -0.015770487705379643 0.00058831298359160325 0 -0.015868464696077257 0.00022378876887743263 0 -0.016179734923751122 0.0005698637631202857 0 -0.016689053845231946 0.00093912422014862519 0 -0.016070008918465817 0.0011369140349307494 0 -0.015770487705379643 0.00058831298359160325 0 -0.016179734923751122 0.0005698637631202857 0 -0.016070008918465817 0.0011369140349307494 0 -0.015770487705379643 0.00058831298359160325 0 -0.016179734923751122 0.0005698637631202857 0 -0.015868464696077257 0.00022378876887743263 0 -0.016179734923751122 0.0005698637631202857 0 -0.015868464696077257 0.00022378876887743263 0 -0.016846868675727832 0.00039155221114651556 0 -0.023827500210077623 0.00035470244814869543 0 -0.023919553270661847 0.00042510700576754208 0 -0.02381702734894579 0.00035173744342556203 0 -0.023896998651986533 0.00071248912291445126 0 -0.023582591090899559 0.00042749459992871743 0 -0.02382595095700879 0.00033681800954034867 0 -0.02381702734894579 0.00035173744342556203 0 -0.023582591090899559 0.00042749459992871743 0 -0.019950853100495783 0.00035014496831005539 0 -0.022098948922017001 0.0010046094021099509 0 -0.02382595095700879 0.00033681800954034867 0 -0.02381702734894579 0.00035173744342556203 0 -0.023757987960514076 0.00025514218445834343 0 -0.02381702734894579 0.00035173744342556203 0 -0.023757987960514076 0.00025514218445834343 0 -0.023904354367719025 0.00014087671955870004 0 -0.023787534744285247 4.5917129450166902e-05 0 -0.023757987960514076 0.00025514218445834343 0 -0.023904354367719025 0.00014087671955870004 0 -0.023604426831234086 0.00093798069424057978 0 -0.023896998651986533 0.00071248912291445126 0 -0.023582591090899559 0.00042749459992871743 0 -0.023604426831234086 0.00093798069424057978 0 -0.023212025467659887 0.0006813233791902898 0 -0.023582591090899559 0.00042749459992871743 0 -0.021185382815372713 0.0013604677877290495 0 -0.022098948922017001 0.0010046094021099509 0 -0.019380550538660345 0.0019724828072017172 0 -0.019367495980210515 0.0015598737915060957 0 -0.019843239487608764 0.0016260123498770605 0 -0.019367495980210515 0.0015598737915060957 0 -0.019843239487608764 0.0016260123498770605 0 -0.019688964832434191 0.0012209726895462251 0 -0.019950853100495783 0.00035014496831005539 0 -0.017838274787847774 0.0008477097481198756 0 -0.020295905483976074 0.001270401813567888 0 -0.019843239487608764 0.0016260123498770605 0 -0.019688964832434191 0.0012209726895462251 0 -0.016179734923751122 0.0005698637631202857 0 -0.016846868675727832 0.00039155221114651556 0 -0.016689053845231946 0.00093912422014862519 0 -0.016846868675727832 0.00039155221114651556 0 -0.017723438760622053 0.000681895324564313 0 -0.017455259867150373 0.0011360765971214712 0 -0.016846868675727832 0.00039155221114651556 0 -0.016689053845231946 0.00093912422014862519 0 -0.017455259867150373 0.0011360765971214712 0 -0.019367495980210515 0.0015598737915060957 0 -0.019688964832434191 0.0012209726895462251 0 -0.019096483198759558 0.0011784539438242701 0 -0.017838274787847774 0.0008477097481198756 0 -0.018496000981299145 0.00093788426217178823 0 -0.017723438760622053 0.000681895324564313 0 -0.018027350275686957 0.0012128711336163885 0 -0.017455259867150373 0.0011360765971214712 0 -0.018496000981299145 0.00093788426217178823 0 -0.018353164663776143 0.0010907500230967655 0 -0.017723438760622053 0.000681895324564313 0 -0.018027350275686957 0.0012128711336163885 0 -0.018409846492246314 0.0011258112782535357 0 -0.019096483198759558 0.0011784539438242701 0 -0.018654088757272879 0.0014558819887495091 0 -0.018409846492246314 0.0011258112782535357 0 -0.019096483198759558 0.0011784539438242701 0 -0.018833909009958454 0.0018033535954059901 0 -0.018654088757272879 0.0014558819887495091 0 -0.019380550538660345 0.0019724828072017172 0 -0.019367495980210515 0.0015598737915060957 0 -0.018833909009958454 0.0018033535954059901 0 -0.019367495980210515 0.0015598737915060957 0 -0.019096483198759558 0.0011784539438242701 0 -0.018833909009958454 0.0018033535954059901 0 -0.018921864080678689 0.002279004544681329 0 -0.019380550538660345 0.0019724828072017172 0 -0.018833909009958454 0.0018033535954059901 0 -0.022786343494678108 -0.00020546658941218406 0 -0.022914667982658971 -9.5136318367285299e-05 0 -0.022938083695067345 -0.00022876036481444647 0 -0.022914667982658971 -9.5136318367285299e-05 0 -0.022617159548984665 -8.6190382323472834e-05 0 -0.022848248496794395 0.0001228408018778182 0 -0.022786343494678108 -0.00020546658941218406 0 -0.022914667982658971 -9.5136318367285299e-05 0 -0.022617159548984665 -8.6190382323472834e-05 0 -0.022786343494678108 -0.00020546658941218406 0 -0.022769020859922297 -0.00019731605502088092 0 -0.022617159548984665 -8.6190382323472834e-05 0 -0.022769020859922297 -0.00019731605502088092 0 -0.022617159548984665 -8.6190382323472834e-05 0 -0.02204864520972619 -0.00011743604248124455 0 -0.022086800069579204 -9.4271216553558906e-07 0 -0.022769020859922297 -0.00019731605502088092 0 -0.02204864520972619 -0.00011743604248124455 0 -0.022086800069579204 -9.4271216553558906e-07 0 -0.023762228080498063 -4.4267379254054749e-07 0 -0.022769020859922297 -0.00019731605502088092 0 -0.023762228080498063 -4.4267379254054749e-07 0 -0.022769020859922297 -0.00019731605502088092 0 -0.023716191741693888 -7.1972378052996848e-05 0 -0.022786343494678108 -0.00020546658941218406 0 -0.022769020859922297 -0.00019731605502088092 0 -0.022764210381385822 -0.0002382966515683746 0 -0.022922119989167235 -0.00026128775311560202 0 -0.023210709703608251 -0.00027274399263259492 0 -0.022764210381385822 -0.0002382966515683746 0 -0.022779971402380608 -0.00029628081900670306 0 -0.022803482516879484 -0.00030034960404387741 0 -0.022786343494678108 -0.00020546658941218406 0 -0.022764210381385822 -0.0002382966515683746 0 -0.022843048349765437 -0.00032203316235380862 0 -0.022764210381385822 -0.0002382966515683746 0 -0.022803482516879484 -0.00030034960404387741 0 -0.022843048349765437 -0.00032203316235380862 0 -0.023762228080498063 -4.4267379254054749e-07 0 -0.024338702191706082 -1.8999914933929358e-05 0 -0.025434633477533931 1.1827956102266964e-06 0 -0.023210709703608251 -0.00027274399263259492 0 -0.025451036594694429 0.00013168189775148004 0 -0.023716191741693888 -7.1972378052996848e-05 0 -0.024338702191706082 -1.8999914933929358e-05 0 -0.024218377680569909 0.0003525589623995865 0 -0.023762228080498063 -4.4267379254054749e-07 0 -0.023716191741693888 -7.1972378052996848e-05 0 -0.024338702191706082 -1.8999914933929358e-05 0 -0.026971497155290892 -5.0699411005601735e-05 0 -0.025438985369403665 4.7890560541708504e-07 0 -0.025959353478230626 8.8976162559591476e-05 0 -0.024338702191706082 -1.8999914933929358e-05 0 -0.025434633477533931 1.1827956102266964e-06 0 -0.024218377680569909 0.0003525589623995865 0 -0.025436503527469928 1.378530570537511e-07 0 -0.025451036594694429 0.00013168189775148004 0 -0.028693392103083682 0.00047222380094076436 0 -0.02853854657570316 0.00066009864710388113 0 -0.028773604334178041 0.00067575095618532951 0 -0.028447254151301251 -0.00025885036310416845 0 -0.028467169726792058 -0.00046689470890621095 0 -0.028388003083745582 -0.00046703994394908392 0 -0.026679762890573933 0.00010756085203254885 0 -0.025677109631442038 0.00017379926500658445 0 -0.025451036594694429 0.00013168189775148004 0 -0.026679762890573933 0.00010756085203254885 0 -0.028932537967844254 0.00048522766653827306 0 -0.028693392103083682 0.00047222380094076436 0 -0.028773604334178041 0.00067575095618532951 0 -0.022786343494678108 -0.00020546658941218406 0 -0.022843048349765437 -0.00032203316235380862 0 -0.022938083695067345 -0.00022876036481444647 0 -0.022843048349765437 -0.00032203316235380862 0 -0.022938083695067345 -0.00022876036481444647 0 -0.023027805897555289 -0.00036019276024105675 0 -0.028932537967844254 0.00048522766653827306 0 -0.028773604334178041 0.00067575095618532951 0 -0.029181102116078179 0.00072725599873118239 0 -0.028932537967844254 0.00048522766653827306 0 -0.029148400038034299 0.00048887683675197301 0 -0.029181102116078179 0.00072725599873118239 0 -0.025677109631442038 0.00017379926500658445 0 -0.026140556285172978 0.0001872412033011632 0 -0.029148400038034299 0.00048887683675197301 0 -0.029181102116078179 0.00072725599873118239 0 -0.029449968225727673 0.00046935512575580542 0 -0.026140556285172978 0.0001872412033011632 0 -0.026547041081585957 0.00022149081122888216 0 -0.029181102116078179 0.00072725599873118239 0 -0.029826722608782347 0.00080386586248498205 0 -0.029562288843093528 0.00048985464526481745 0 -0.029181102116078179 0.00072725599873118239 0 -0.029449968225727673 0.00046935512575580542 0 -0.029562288843093528 0.00048985464526481745 0 -0.029449968225727673 0.00046935512575580542 0 -0.029495799623691889 0.00045631810154564878 0 -0.029562288843093528 0.00048985464526481745 0 -0.031326838077036803 0.00049375768286493327 0 -0.03159614523003159 0.00045288908145820774 0 -0.03159614523003159 0.00045288908145820774 0 -0.031058626129363009 0.00024639872352959116 0 -0.030385251792160371 0.00020241798657361242 0 -0.029826722608782347 0.00080386586248498205 0 -0.029562288843093528 0.00048985464526481745 0 -0.023261796555784347 -0.00035809741592234234 0 -0.023351600960916492 -0.0002008248551803872 0 -0.023136063784623254 -0.00016882685481007514 0 -0.023027805897555289 -0.00036019276024105675 0 -0.023261796555784347 -0.00035809741592234234 0 -0.023136063784623254 -0.00016882685481007514 0 -0.022938083695067345 -0.00022876036481444647 0 -0.023027805897555289 -0.00036019276024105675 0 -0.023136063784623254 -0.00016882685481007514 0 -0.026547041081585957 0.00022149081122888216 0 -0.027058886292828689 0.00024493320676139714 0 -0.030385251792160371 0.00020241798657361242 0 -0.029826722608782347 0.00080386586248498205 0 -0.030673714029537388 0.00083627122069962609 0 -0.023261796555784347 -0.00035809741592234234 0 -0.023492755278268128 -0.00033921079795319478 0 -0.023351600960916492 -0.0002008248551803872 0 -0.023560772792653256 -0.00013628191903537458 0 -0.023492755278268128 -0.00033921079795319478 0 -0.023351600960916492 -0.0002008248551803872 0 -0.023560772792653256 -0.00013628191903537458 0 -0.023559070472960294 0.00013883154250700098 0 -0.02335287562626712 4.6780540431134461e-06 0 -0.023560772792653256 -0.00013628191903537458 0 -0.023351600960916492 -0.0002008248551803872 0 -0.02335287562626712 4.6780540431134461e-06 0 -0.023351600960916492 -0.0002008248551803872 0 -0.02335287562626712 4.6780540431134461e-06 0 -0.023136063784623254 -0.00016882685481007514 0 -0.022914667982658971 -9.5136318367285299e-05 0 -0.022938083695067345 -0.00022876036481444647 0 -0.023136063784623254 -0.00016882685481007514 0 -0.02335287562626712 4.6780540431134461e-06 0 -0.023136063784623254 -0.00016882685481007514 0 -0.023111778592589803 0.00010377974303281699 0 -0.022914667982658971 -9.5136318367285299e-05 0 -0.023136063784623254 -0.00016882685481007514 0 -0.023111778592589803 0.00010377974303281699 0 -0.023111778592589803 0.00010377974303281699 0 -0.023173870801523725 0.00034693933473605332 0 -0.023326167676101781 0.00020060435221385073 0 -0.020487839048734812 0.00038655281962693508 0 -0.02083133308988893 0.00036462240086858859 0 -0.023111778592589803 0.00010377974303281699 0 -0.023173870801523725 0.00034693933473605332 0 -0.02291618803147448 0.00036847852396751119 0 -0.023559070472960294 0.00013883154250700098 0 -0.02335287562626712 4.6780540431134461e-06 0 -0.023326167676101781 0.00020060435221385073 0 -0.02335287562626712 4.6780540431134461e-06 0 -0.023111778592589803 0.00010377974303281699 0 -0.023326167676101781 0.00020060435221385073 0 -0.023173870801523725 0.00034693933473605332 0 -0.023326167676101781 0.00020060435221385073 0 -0.02340482964678077 0.00035193945098470602 0 -0.023559070472960294 0.00013883154250700098 0 -0.023326167676101781 0.00020060435221385073 0 -0.02340482964678077 0.00035193945098470602 0 -0.015410096139549145 0.00028691684374108689 0 -0.016502371897299913 0.00047913900927425553 0 -0.016564689860361512 0.00017674926167922099 0 -0.015166261403654359 0.00035241723135724998 0 -0.015146481755070832 0.00039736211039832368 0 -0.015137272572126098 0.00043062242083107525 0 -0.015868669871588449 0.00026673342839626433 0 -0.01648369199116554 0.0002667193884884208 0 -0.020487839048734812 0.00038655281962693508 0 -0.019950860374583258 0.00041155384319582647 0 -0.01783053742293756 0.00042703085359468063 0 -0.016502371897299913 0.00047913900927425553 0 -0.01776242574121464 9.5239126611806448e-05 0 -0.016502371897299913 0.00047913900927425553 0 -0.016564689860361512 0.00017674926167922099 0 -0.01776242574121464 9.5239126611806448e-05 0 -0.015146481755070832 0.00039736211039832368 0 -0.015144133122599473 0.00039692223684600268 0 -0.015141803747793021 0.00041248902844140053 0 -0.015146481755070832 0.00039736211039832368 0 -0.015144133122599473 0.00039692223684600268 0 -0.015157997377824478 0.00040222141327726291 0 -0.015144133122599473 0.00039692223684600268 0 -0.015157997377824478 0.00040222141327726291 0 -0.015154934811735391 0.0003942335023571039 0 -0.015146481755070832 0.00039736211039832368 0 -0.015157997377824478 0.00040222141327726291 0 -0.015181602630840892 0.00040557042027023816 0 -0.015166261403654359 0.00035241723135724998 0 -0.015146481755070832 0.00039736211039832368 0 -0.015181602630840892 0.00040557042027023816 0 -0.015157997377824478 0.00040222141327726291 0 -0.015181602630840892 0.00040557042027023816 0 -0.015179023404208094 0.00042187965035789314 0 -0.015243217208212288 0.00045010727863893342 0 -0.015181602630840892 0.00040557042027023816 0 -0.015179023404208094 0.00042187965035789314 0 -0.015258940445987421 0.00038764037098300931 0 -0.015243217208212288 0.00045010727863893342 0 -0.015181602630840892 0.00040557042027023816 0 -0.015258940445987421 0.00038764037098300931 0 -0.015166261403654359 0.00035241723135724998 0 -0.015181602630840892 0.00040557042027023816 0 -0.01648369199116554 0.0002667193884884208 0 -0.01683210796706926 0.00035291430281975648 0 -0.015177651418290807 0.00047582405961859545 0 -0.015137272572126098 0.00043062242083107525 0 -0.015228415965733676 0.00059337278938786887 0 -0.01783053742293756 0.00042703085359468063 0 -0.018647302579097445 5.8524812775629688e-05 0 -0.018774280840870867 0.00034829807498570035 0 -0.015177651418290807 0.00047582405961859545 0 -0.015267010779060187 0.00049188405183805657 0 -0.015228415965733676 0.00059337278938786887 0 -0.01783053742293756 0.00042703085359468063 0 -0.01776242574121464 9.5239126611806448e-05 0 -0.018647302579097445 5.8524812775629688e-05 0 -0.015146481755070832 0.00039736211039832368 0 -0.015137272572126098 0.00043062242083107525 0 -0.015141803747793021 0.00041248902844140053 0 -0.015137272572126098 0.00043062242083107525 0 -0.015149519572457441 0.00042879937440720944 0 -0.015141803747793021 0.00041248902844140053 0 -0.015177651418290807 0.00047582405961859545 0 -0.015137272572126098 0.00043062242083107525 0 -0.015149519572457441 0.00042879937440720944 0 -0.015149519572457441 0.00042879937440720944 0 -0.01514675388304307 0.00039843585200930576 0 -0.015164655592814213 0.00041744305649718224 0 -0.015144133122599473 0.00039692223684600268 0 -0.015141803747793021 0.00041248902844140053 0 -0.01514675388304307 0.00039843585200930576 0 -0.015149519572457441 0.00042879937440720944 0 -0.015141803747793021 0.00041248902844140053 0 -0.01514675388304307 0.00039843585200930576 0 -0.015144133122599473 0.00039692223684600268 0 -0.01514675388304307 0.00039843585200930576 0 -0.015148913029608423 0.00035582925963743232 0 -0.01514675388304307 0.00039843585200930576 0 -0.015164002240644198 0.00036233338315635739 0 -0.015148913029608423 0.00035582925963743232 0 -0.01514675388304307 0.00039843585200930576 0 -0.015164002240644198 0.00036233338315635739 0 -0.015164655592814213 0.00041744305649718224 0 -0.015164002240644198 0.00036233338315635739 0 -0.015197381236431075 0.00041013476330301567 0 -0.015236615182632803 0.00027528947904030917 0 -0.015197381236431075 0.00041013476330301567 0 -0.015267010779060187 0.00049188405183805657 0 -0.015236615182632803 0.00027528947904030917 0 -0.015164002240644198 0.00036233338315635739 0 -0.015164655592814213 0.00041744305649718224 0 -0.015197381236431075 0.00041013476330301567 0 -0.015177651418290807 0.00047582405961859545 0 -0.015164655592814213 0.00041744305649718224 0 -0.015197381236431075 0.00041013476330301567 0 -0.015177651418290807 0.00047582405961859545 0 -0.015149519572457441 0.00042879937440720944 0 -0.015164655592814213 0.00041744305649718224 0 -0.015177651418290807 0.00047582405961859545 0 -0.015197381236431075 0.00041013476330301567 0 -0.015267010779060187 0.00049188405183805657 0 -0.015386879425160722 0.00036201358926617872 0 -0.015267010779060187 0.00049188405183805657 0 -0.015236615182632803 0.00027528947904030917 0 -0.015386879425160722 0.00036201358926617872 0 -0.015267010779060187 0.00049188405183805657 0 -0.015423880555665966 0.0005633077569523081 0 -0.015386879425160722 0.00036201358926617872 0 -0.015704322126147106 0.0004237704876104529 0 -0.015422666813693219 0.00013427492652521097 0 -0.015386879425160722 0.00036201358926617872 0 -0.015704322126147106 0.0004237704876104529 0 -0.015423880555665966 0.0005633077569523081 0 -0.018037281006119784 0.0002958847687321901 0 -0.019361494448200952 6.204497612957984e-05 0 -0.015704322126147106 0.0004237704876104529 0 -0.015660720885201072 0.00087157619886065753 0 -0.015423880555665966 0.0005633077569523081 0 -0.015660720885201072 0.00087157619886065753 0 -0.015423880555665966 0.0005633077569523081 0 -0.015228415965733676 0.00059337278938786887 0 -0.019300601682084955 8.7345181995021766e-05 0 -0.018647302579097445 5.8524812775629688e-05 0 -0.01889532264361107 0.00028475755292896104 0 -0.018037281006119784 0.0002958847687321901 0 -0.01683210796706926 0.00035291430281975648 0 -0.015267010779060187 0.00049188405183805657 0 -0.015423880555665966 0.0005633077569523081 0 -0.015228415965733676 0.00059337278938786887 0 -0.018647302579097445 5.8524812775629688e-05 0 -0.018774280840870867 0.00034829807498570035 0 -0.01889532264361107 0.00028475755292896104 0 -0.02083133308988893 0.00036462240086858859 0 -0.020973259281716696 0.00034407707255880925 0 -0.019352271158943547 -5.4400771422798173e-05 0 -0.01889532264361107 0.00028475755292896104 0 -0.01954132142808861 0.00024486102234303684 0 -0.02291618803147448 0.00036847852396751119 0 -0.022848248496794395 0.0001228408018778182 0 -0.022452856501399408 0.00049603786578797989 0 -0.018774280840870867 0.00034829807498570035 0 -0.01889532264361107 0.00028475755292896104 0 -0.01954132142808861 0.00024486102234303684 0 -0.022617159548984665 -8.6190382323472834e-05 0 -0.022848248496794395 0.0001228408018778182 0 -0.022452856501399408 0.00049603786578797989 0 -0.023111778592589803 0.00010377974303281699 0 -0.02291618803147448 0.00036847852396751119 0 -0.022848248496794395 0.0001228408018778182 0 -0.022914667982658971 -9.5136318367285299e-05 0 -0.023111778592589803 0.00010377974303281699 0 -0.022848248496794395 0.0001228408018778182 0 -0.022086800069579204 -9.4271216553558906e-07 0 -0.02204864520972619 -0.00011743604248124455 0 -0.020416128931509406 1.6661584905638711e-06 0 -0.022617159548984665 -8.6190382323472834e-05 0 -0.02204864520972619 -0.00011743604248124455 0 -0.022452856501399408 0.00049603786578797989 0 -0.01954132142808861 0.00024486102234303684 0 -0.019935762842779904 -5.1375289320355903e-05 0 -0.019906293252618369 -4.0706409550359798e-05 0 -0.020973259281716696 0.00034407707255880925 0 -0.020412820011247824 1.3565737456769047e-07 0 -0.02204864520972619 -0.00011743604248124455 0 -0.022452856501399408 0.00049603786578797989 0 -0.020416128931509406 1.6661584905638711e-06 0 -0.01954132142808861 0.00024486102234303684 0 -0.019935762842779904 -5.1375289320355903e-05 0 -0.020409361816089825 4.5877596294462829e-09 0 -0.019935762842779904 -5.1375289320355903e-05 0 -0.020409361816089825 4.5877596294462829e-09 0 -0.019421224249193007 9.9931908381282082e-08 0 -0.019935762842779904 -5.1375289320355903e-05 0 -0.019421224249193007 9.9931908381282082e-08 0 -0.019906293252618369 -4.0706409550359798e-05 0 -0.019414044996577048 5.3457822553123967e-08 0 -0.018781085402079171 0.00015532987349738478 0 -0.01876746958517431 -8.1643181622219384e-05 0 -0.019417707178979161 2.6855242007723828e-08 0 -0.019445211222494159 4.9050607442611686e-05 0 -0.019414044996577048 5.3457822553123967e-08 0 -0.01876746958517431 -8.1643181622219384e-05 0 -0.018099608793250375 -4.5682173346352722e-08 0 -0.019352271158943547 -5.4400771422798173e-05 0 -0.01954132142808861 0.00024486102234303684 0 -0.019906293252618369 -4.0706409550359798e-05 0 -0.018037281006119784 0.0002958847687321901 0 -0.017382107073788122 0.00041163638681392459 0 -0.018308717832559818 0.00013775413327959826 0 -0.018781085402079171 0.00015532987349738478 0 -0.01876746958517431 -8.1643181622219384e-05 0 -0.015704322126147106 0.0004237704876104529 0 -0.015660720885201072 0.00087157619886065753 0 -0.016338864342628497 0.00083892477211545264 0 -0.018037281006119784 0.0002958847687321901 0 -0.019445211222494159 4.9050607442611686e-05 0 -0.015704322126147106 0.0004237704876104529 0 -0.016338864342628497 0.00083892477211545264 0 -0.016503912145237221 4.9400509872633644e-05 0 -0.016338864342628497 0.00083892477211545264 0 -0.018092218852530456 2.0805997914562715e-06 0 -0.016503912145237221 4.9400509872633644e-05 0 -0.017382107073788122 0.00041163638681392459 0 -0.018095881496142854 2.2375389229334851e-08 0 -0.018092218852530456 2.0805997914562715e-06 0 -0.016503912145237221 4.9400509872633644e-05 0 -0.016407981520879883 -8.9129045318275936e-07 0 -0.016503912145237221 4.9400509872633644e-05 0 -0.016407981520879883 -8.9129045318275936e-07 0 -0.015849411049730887 -4.6037327833231393e-05 0 -0.015704322126147106 0.0004237704876104529 0 -0.016503912145237221 4.9400509872633644e-05 0 -0.015849411049730887 -4.6037327833231393e-05 0 -0.015849411049730887 -4.6037327833231393e-05 0 -0.015422881153058805 -0.00014960805436950694 0 -0.015341443222682131 -8.36170000483773e-05 0 -0.016407981520879883 -8.9129045318275936e-07 0 -0.015849411049730887 -4.6037327833231393e-05 0 -0.015422881153058805 -0.00014960805436950694 0 -0.016407981520879883 -8.9129045318275936e-07 0 -0.015422881153058805 -0.00014960805436950694 0 -0.014717404492958679 -6.0716850259545143e-07 0 -0.015386879425160722 0.00036201358926617872 0 -0.015236615182632803 0.00027528947904030917 0 -0.015422666813693219 0.00013427492652521097 0 -0.015236615182632803 0.00027528947904030917 0 -0.015422666813693219 0.00013427492652521097 0 -0.015247434195300646 0.00010331303193429793 0 -0.015704322126147106 0.0004237704876104529 0 -0.015849411049730887 -4.6037327833231393e-05 0 -0.015422666813693219 0.00013427492652521097 0 -0.015422666813693219 0.00013427492652521097 0 -0.015341443222682131 -8.36170000483773e-05 0 -0.015247434195300646 0.00010331303193429793 0 -0.015849411049730887 -4.6037327833231393e-05 0 -0.015422666813693219 0.00013427492652521097 0 -0.015341443222682131 -8.36170000483773e-05 0 -0.015341443222682131 -8.36170000483773e-05 0 -0.015247434195300646 0.00010331303193429793 0 -0.015183787845042365 2.8901217277557158e-06 0 -0.015236615182632803 0.00027528947904030917 0 -0.015247434195300646 0.00010331303193429793 0 -0.015191218672066378 0.00020203331103143846 0 -0.015247434195300646 0.00010331303193429793 0 -0.015187150274394292 0.00013474376109847238 0 -0.015191218672066378 0.00020203331103143846 0 -0.015187150274394292 0.00013474376109847238 0 -0.015183787845042365 2.8901217277557158e-06 0 -0.015147494049686837 0.0001768814579535431 0 -0.015247434195300646 0.00010331303193429793 0 -0.015187150274394292 0.00013474376109847238 0 -0.015183787845042365 2.8901217277557158e-06 0 -0.015341443222682131 -8.36170000483773e-05 0 -0.015183787845042365 2.8901217277557158e-06 0 -0.014891357233725875 -9.0262179780953007e-05 0 -0.015183787845042365 2.8901217277557158e-06 0 -0.015147494049686837 0.0001768814579535431 0 -0.014891357233725875 -9.0262179780953007e-05 0 -0.015147494049686837 0.0001768814579535431 0 -0.014891357233725875 -9.0262179780953007e-05 0 -0.01499365260172288 0.0003486337832259324 0 -0.015147494049686837 0.0001768814579535431 0 -0.01499365260172288 0.0003486337832259324 0 -0.01513434061392151 0.00032812424921582767 0 -0.015422881153058805 -0.00014960805436950694 0 -0.014717404492958679 -6.0716850259545143e-07 0 -0.014891357233725875 -9.0262179780953007e-05 0 -0.015422881153058805 -0.00014960805436950694 0 -0.015341443222682131 -8.36170000483773e-05 0 -0.014891357233725875 -9.0262179780953007e-05 0 -0.014717404492958679 -6.0716850259545143e-07 0 -0.014891357233725875 -9.0262179780953007e-05 0 -0.013035086521435604 1.2486590319374907e-06 0 -0.014891357233725875 -9.0262179780953007e-05 0 -0.014496289471196803 0.00071152955860131475 0 -0.01499365260172288 0.0003486337832259324 0 -0.014891357233725875 -9.0262179780953007e-05 0 -0.013035086521435604 1.2486590319374907e-06 0 -0.014496289471196803 0.00071152955860131475 0 -0.013029692249953749 -6.4927218683882748e-08 0 -0.012200025819990251 0.00042031440044068937 0 -0.013027721882758679 1.4837314801631916e-06 0 -0.011307179941601731 -2.0461459685642339e-07 0 -0.010008722979164261 0.00037761888793854146 0 -0.011307179941601731 -2.0461459685642339e-07 0 -0.010008722979164261 0.00037761888793854146 0 -0.0097649062399728162 -0.00015424919830220405 0 -0.01499365260172288 0.0003486337832259324 0 -0.015068774405254268 0.00045290581742091777 0 -0.014902862715892851 0.00067778322574655551 0 -0.014496289471196803 0.00071152955860131475 0 -0.01499365260172288 0.0003486337832259324 0 -0.014902862715892851 0.00067778322574655551 0 -0.01499365260172288 0.0003486337832259324 0 -0.015068774405254268 0.00045290581742091777 0 -0.01513434061392151 0.00032812424921582767 0 -0.012200025819990251 0.00042031440044068937 0 -0.011731307928043649 0.00021554065453306749 0 -0.010008722979164261 0.00037761888793854146 0 -0.0090408524649467914 -0.00013454026272029818 0 -0.0085055829316552332 -0.00025570473057751812 0 -0.0090408524649467914 -0.00013454026272029818 0 -0.0085055829316552332 -0.00025570473057751812 0 -0.0083587979161941703 -0.00070971494245657748 0 -0.014902862715892851 0.00067778322574655551 0 -0.015009753667602033 0.0005767351942112006 0 -0.015024634614901734 0.00057048855887804407 0 -0.015068774405254268 0.00045290581742091777 0 -0.014902862715892851 0.00067778322574655551 0 -0.015024634614901734 0.00057048855887804407 0 -0.0085055829316552332 -0.00025570473057751812 0 -0.0082803919867479661 -0.0006277341669187848 0 -0.0082112110808879434 -0.00065293615723949032 0 -0.011731307928043649 0.00021554065453306749 0 -0.011536221043094843 -5.6439148858943888e-05 0 -0.0085055829316552332 -0.00025570473057751812 0 -0.0082803919867479661 -0.0006277341669187848 0 -0.0083587979161941703 -0.00070971494245657748 0 -0.0089420607487219628 -0.0001457041192808335 0 -0.0085396257108733987 -0.00050620620691123493 0 -0.0087591697996232051 -0.00032915873417769918 0 -0.0095833312964830834 -5.8029948771403927e-07 0 -0.0097649062399728162 -0.00015424919830220405 0 -0.011307179941601731 -2.0461459685642339e-07 0 -0.0095833312964830834 -5.8029948771403927e-07 0 -0.0097649062399728162 -0.00015424919830220405 0 -0.0090408524649467914 -0.00013454026272029818 0 -0.0087591697996232051 -0.00032915873417769918 0 -0.0097649062399728162 -0.00015424919830220405 0 -0.010008722979164261 0.00037761888793854146 0 -0.0090408524649467914 -0.00013454026272029818 0 -0.0097649062399728162 -0.00015424919830220405 0 -0.015088172452021575 0.00051041655170851316 0 -0.015074783039686823 0.00052530540255577344 0 -0.015118354830995103 0.00047148110201365419 0 -0.015088172452021575 0.00051041655170851316 0 -0.015049296674562182 0.00053968840937372261 0 -0.015074783039686823 0.00052530540255577344 0 -0.015093428343427934 0.0005068253013315859 0 -0.015060509377160414 0.00052665053811533011 0 -0.015070394837055549 0.00052404155583511214 0 -0.015088172452021575 0.00051041655170851316 0 -0.015093428343427934 0.0005068253013315859 0 -0.015060509377160414 0.00052665053811533011 0 -0.015060509377160414 0.00052665053811533011 0 -0.015070394837055549 0.00052404155583511214 0 -0.015034271592925195 0.00053611934942465343 0 -0.015060509377160414 0.00052665053811533011 0 -0.015034271592925195 0.00053611934942465343 0 -0.015028570146674863 0.00053868886559750009 0 -0.015060509377160414 0.00052665053811533011 0 -0.015049296674562182 0.00053968840937372261 0 -0.015028570146674863 0.00053868886559750009 0 -0.015088172452021575 0.00051041655170851316 0 -0.015060509377160414 0.00052665053811533011 0 -0.015049296674562182 0.00053968840937372261 0 -0.015049296674562182 0.00053968840937372261 0 -0.015009753667602033 0.0005767351942112006 0 -0.015074783039686823 0.00052530540255577344 0 -0.015009753667602033 0.0005767351942112006 0 -0.015024634614901734 0.00057048855887804407 0 -0.015074783039686823 0.00052530540255577344 0 -0.015074783039686823 0.00052530540255577344 0 -0.015125509308318439 0.00042679292195347255 0 -0.015118354830995103 0.00047148110201365419 0 -0.015068774405254268 0.00045290581742091777 0 -0.015024634614901734 0.00057048855887804407 0 -0.015074783039686823 0.00052530540255577344 0 -0.015068774405254268 0.00045290581742091777 0 -0.015074783039686823 0.00052530540255577344 0 -0.015125509308318439 0.00042679292195347255 0 -0.015068774405254268 0.00045290581742091777 0 -0.01513434061392151 0.00032812424921582767 0 -0.015125509308318439 0.00042679292195347255 0 -0.01513434061392151 0.00032812424921582767 0 -0.015125509308318439 0.00042679292195347255 0 -0.01515522143683648 0.00035699451327122312 0 -0.015125509308318439 0.00042679292195347255 0 -0.015147333962374379 0.00042704883459409535 0 -0.01515522143683648 0.00035699451327122312 0 -0.015125509308318439 0.00042679292195347255 0 -0.015147333962374379 0.00042704883459409535 0 -0.015118354830995103 0.00047148110201365419 0 -0.015147333962374379 0.00042704883459409535 0 -0.015118354830995103 0.00047148110201365419 0 -0.015130523451614149 0.00047212399563454358 0 -0.015088172452021575 0.00051041655170851316 0 -0.015118354830995103 0.00047148110201365419 0 -0.015130523451614149 0.00047212399563454358 0 -0.015093428343427934 0.0005068253013315859 0 -0.015130523451614149 0.00047212399563454358 0 -0.01511217222484351 0.00049602287802882048 0 -0.015130523451614149 0.00047212399563454358 0 -0.01511217222484351 0.00049602287802882048 0 -0.015140875611393434 0.00047783551841479581 0 -0.015088172452021575 0.00051041655170851316 0 -0.015093428343427934 0.0005068253013315859 0 -0.015130523451614149 0.00047212399563454358 0 -0.015130523451614149 0.00047212399563454358 0 -0.015163162501583371 0.00044908465329026752 0 -0.015140875611393434 0.00047783551841479581 0 -0.015147333962374379 0.00042704883459409535 0 -0.015130523451614149 0.00047212399563454358 0 -0.015163162501583371 0.00044908465329026752 0 -0.015163162501583371 0.00044908465329026752 0 -0.015167600164216803 0.00038952581726617286 0 -0.015179155918752475 0.00043373511475680739 0 -0.015163162501583371 0.00044908465329026752 0 -0.015179155918752475 0.00043373511475680739 0 -0.015180255216434449 0.00046908939887840438 0 -0.015147333962374379 0.00042704883459409535 0 -0.015163162501583371 0.00044908465329026752 0 -0.015167600164216803 0.00038952581726617286 0 -0.015147333962374379 0.00042704883459409535 0 -0.015167600164216803 0.00038952581726617286 0 -0.01515522143683648 0.00035699451327122312 0 -0.015167600164216803 0.00038952581726617286 0 -0.015167185631253672 0.00035775111113784677 0 -0.015177115113817549 0.0004041449189429107 0 -0.015167600164216803 0.00038952581726617286 0 -0.015167185631253672 0.00035775111113784677 0 -0.015165107667992698 0.00031288699464748217 0 -0.015167185631253672 0.00035775111113784677 0 -0.015177115113817549 0.0004041449189429107 0 -0.015166187387984087 0.00037080624618301538 0 -0.015177115113817549 0.0004041449189429107 0 -0.015179155918752475 0.00043373511475680739 0 -0.015204290347563706 0.00045981449265913144 0 -0.015179155918752475 0.00043373511475680739 0 -0.015204290347563706 0.00045981449265913144 0 -0.015180255216434449 0.00046908939887840438 0 -0.015167600164216803 0.00038952581726617286 0 -0.015177115113817549 0.0004041449189429107 0 -0.015179155918752475 0.00043373511475680739 0 -0.015147494049686837 0.0001768814579535431 0 -0.01513434061392151 0.00032812424921582767 0 -0.015163900543581339 0.0002496567464491628 0 -0.01513434061392151 0.00032812424921582767 0 -0.015163900543581339 0.0002496567464491628 0 -0.01515522143683648 0.00035699451327122312 0 -0.015167600164216803 0.00038952581726617286 0 -0.01515522143683648 0.00035699451327122312 0 -0.015165107667992698 0.00031288699464748217 0 -0.015163900543581339 0.0002496567464491628 0 -0.01515522143683648 0.00035699451327122312 0 -0.015165107667992698 0.00031288699464748217 0 -0.015167185631253672 0.00035775111113784677 0 -0.015165107667992698 0.00031288699464748217 0 -0.015163062693481147 0.00031298875305373861 0 -0.015165107667992698 0.00031288699464748217 0 -0.015171998990765774 0.00023036881395050284 0 -0.015163062693481147 0.00031298875305373861 0 -0.015187150274394292 0.00013474376109847238 0 -0.015147494049686837 0.0001768814579535431 0 -0.015163900543581339 0.0002496567464491628 0 -0.015163900543581339 0.0002496567464491628 0 -0.015165107667992698 0.00031288699464748217 0 -0.015171998990765774 0.00023036881395050284 0 -0.015187150274394292 0.00013474376109847238 0 -0.015163900543581339 0.0002496567464491628 0 -0.015171998990765774 0.00023036881395050284 0 -0.015187150274394292 0.00013474376109847238 0 -0.015171998990765774 0.00023036881395050284 0 -0.015191218672066378 0.00020203331103143846 0 -0.015171998990765774 0.00023036881395050284 0 -0.015191218672066378 0.00020203331103143846 0 -0.015166391096683581 0.00027793135537368548 0 -0.015191218672066378 0.00020203331103143846 0 -0.015166391096683581 0.00027793135537368548 0 -0.015175303380671225 0.00029100927917565694 0 -0.015171998990765774 0.00023036881395050284 0 -0.015166391096683581 0.00027793135537368548 0 -0.015163062693481147 0.00031298875305373861 0 -0.015163062693481147 0.00031298875305373861 0 -0.015158708340560443 0.00033646241622214886 0 -0.015166187387984087 0.00037080624618301538 0 -0.015166391096683581 0.00027793135537368548 0 -0.015163062693481147 0.00031298875305373861 0 -0.015158708340560443 0.00033646241622214886 0 -0.015166391096683581 0.00027793135537368548 0 -0.015158708340560443 0.00033646241622214886 0 -0.015148913029608423 0.00035582925963743232 0 -0.015164002240644198 0.00036233338315635739 0 -0.015148913029608423 0.00035582925963743232 0 -0.015175303380671225 0.00029100927917565694 0 -0.015166391096683581 0.00027793135537368548 0 -0.015148913029608423 0.00035582925963743232 0 -0.015175303380671225 0.00029100927917565694 0 -0.015164002240644198 0.00036233338315635739 0 -0.015236615182632803 0.00027528947904030917 0 -0.015175303380671225 0.00029100927917565694 0 -0.015236615182632803 0.00027528947904030917 0 -0.015191218672066378 0.00020203331103143846 0 -0.015175303380671225 0.00029100927917565694 0 -0.015184353316829048 0.00042221850831463461 0 -0.015204290347563706 0.00045981449265913144 0 -0.015221885331146446 0.00046728212052354342 0 -0.015177115113817549 0.0004041449189429107 0 -0.015184353316829048 0.00042221850831463461 0 -0.015204290347563706 0.00045981449265913144 0 -0.015177115113817549 0.0004041449189429107 0 -0.015184353316829048 0.00042221850831463461 0 -0.015166187387984087 0.00037080624618301538 0 -0.015167185631253672 0.00035775111113784677 0 -0.015163062693481147 0.00031298875305373861 0 -0.015166187387984087 0.00037080624618301538 0 -0.015158708340560443 0.00033646241622214886 0 -0.015166187387984087 0.00037080624618301538 0 -0.015162879979985609 0.00038811425199889956 0 -0.015184353316829048 0.00042221850831463461 0 -0.015166187387984087 0.00037080624618301538 0 -0.015162879979985609 0.00038811425199889956 0 -0.015184353316829048 0.00042221850831463461 0 -0.015162879979985609 0.00038811425199889956 0 -0.015179023404208094 0.00042187965035789314 0 -0.015158708340560443 0.00033646241622214886 0 -0.015148913029608423 0.00035582925963743232 0 -0.015162879979985609 0.00038811425199889956 0 -0.015144133122599473 0.00039692223684600268 0 -0.015148913029608423 0.00035582925963743232 0 -0.015154934811735391 0.0003942335023571039 0 -0.015148913029608423 0.00035582925963743232 0 -0.015162879979985609 0.00038811425199889956 0 -0.015154934811735391 0.0003942335023571039 0 -0.015162879979985609 0.00038811425199889956 0 -0.015154934811735391 0.0003942335023571039 0 -0.015179023404208094 0.00042187965035789314 0 -0.015157997377824478 0.00040222141327726291 0 -0.015154934811735391 0.0003942335023571039 0 -0.015179023404208094 0.00042187965035789314 0 -0.015243217208212288 0.00045010727863893342 0 -0.015179023404208094 0.00042187965035789314 0 -0.015221885331146446 0.00046728212052354342 0 -0.015184353316829048 0.00042221850831463461 0 -0.015179023404208094 0.00042187965035789314 0 -0.015221885331146446 0.00046728212052354342 0 -0.015243217208212288 0.00045010727863893342 0 -0.01527785160580488 0.00051173661304480247 0 -0.015221885331146446 0.00046728212052354342 0 -0.01527785160580488 0.00051173661304480247 0 -0.015221885331146446 0.00046728212052354342 0 -0.015245296651301466 0.00050171419554247132 0 -0.015204290347563706 0.00045981449265913144 0 -0.015221885331146446 0.00046728212052354342 0 -0.015245296651301466 0.00050171419554247132 0 -0.015204290347563706 0.00045981449265913144 0 -0.015245296651301466 0.00050171419554247132 0 -0.015201382523292494 0.00049575731342790027 0 -0.015245296651301466 0.00050171419554247132 0 -0.015229007688640562 0.00053813773427216103 0 -0.015201382523292494 0.00049575731342790027 0 -0.015245296651301466 0.00050171419554247132 0 -0.015286244520955276 0.00054800858021064049 0 -0.015229007688640562 0.00053813773427216103 0 -0.015315341513544242 0.00047955266989396111 0 -0.015373624851053985 0.00063010801579836434 0 -0.01527785160580488 0.00051173661304480247 0 -0.015373624851053985 0.00063010801579836434 0 -0.015286244520955276 0.00054800858021064049 0 -0.015229007688640562 0.00053813773427216103 0 -0.015373624851053985 0.00063010801579836434 0 -0.01527785160580488 0.00051173661304480247 0 -0.015286244520955276 0.00054800858021064049 0 -0.01527785160580488 0.00051173661304480247 0 -0.015245296651301466 0.00050171419554247132 0 -0.015286244520955276 0.00054800858021064049 0 -0.015392441880131441 0.00067370385780585185 0 -0.01563417643526591 0.00086637836917656541 0 -0.015373624851053985 0.00063010801579836434 0 -0.015178700514783547 0.00062490247099670571 0 -0.015229007688640562 0.00053813773427216103 0 -0.015178700514783547 0.00062490247099670571 0 -0.01514041418529462 0.00058739682506482572 0 -0.015229007688640562 0.00053813773427216103 0 -0.01514041418529462 0.00058739682506482572 0 -0.015229007688640562 0.00053813773427216103 0 -0.01515149465085185 0.00055821532521022912 0 -0.015229007688640562 0.00053813773427216103 0 -0.01515149465085185 0.00055821532521022912 0 -0.015170230715387747 0.00052438018400576642 0 -0.01514041418529462 0.00058739682506482572 0 -0.01515149465085185 0.00055821532521022912 0 -0.015106419499592573 0.0005899448557398683 0 -0.01515149465085185 0.00055821532521022912 0 -0.015131972371634564 0.00055137942612108867 0 -0.015170230715387747 0.00052438018400576642 0 -0.01515149465085185 0.00055821532521022912 0 -0.015131972371634564 0.00055137942612108867 0 -0.015106419499592573 0.0005899448557398683 0 -0.015131972371634564 0.00055137942612108867 0 -0.015170230715387747 0.00052438018400576642 0 -0.015133790585867713 0.00052680408640947275 0 -0.015170230715387747 0.00052438018400576642 0 -0.015201382523292494 0.00049575731342790027 0 -0.015156533091817965 0.00049179147045308068 0 -0.015163162501583371 0.00044908465329026752 0 -0.015180255216434449 0.00046908939887840438 0 -0.015156533091817965 0.00049179147045308068 0 -0.015180255216434449 0.00046908939887840438 0 -0.015201382523292494 0.00049575731342790027 0 -0.015156533091817965 0.00049179147045308068 0 -0.015204290347563706 0.00045981449265913144 0 -0.015180255216434449 0.00046908939887840438 0 -0.015201382523292494 0.00049575731342790027 0 -0.015229007688640562 0.00053813773427216103 0 -0.015170230715387747 0.00052438018400576642 0 -0.015201382523292494 0.00049575731342790027 0 -0.018074526510965725 0.0017675400143043697 0 -0.01787773216698442 0.0014635398800720578 0 -0.018127996164865132 0.0014104346552641933 0 -0.015163859644410534 0.00064041752826642507 0 -0.015109181971044864 0.00061943749785749083 0 -0.01513635326538647 0.00064115273210765507 0 -0.016162262834163145 0.0025447429755122123 0 -0.016365021921620444 0.0010040967703417792 0 -0.018074526510965725 0.0017675400143043697 0 -0.01787773216698442 0.0014635398800720578 0 -0.017538282739362372 0.0016603383498812678 0 -0.015294434639647999 0.005048159317984845 0 -0.015268718697319307 0.0050374078591195305 0 -0.015245918669460505 0.0051329141646338965 0 -0.016138084615534912 0.0026053642948905397 0 -0.016162262834163145 0.0025447429755122123 0 -0.018027350275686957 0.0012128711336163885 0 -0.01787773216698442 0.0014635398800720578 0 -0.018127996164865132 0.0014104346552641933 0 -0.018027350275686957 0.0012128711336163885 0 -0.01787773216698442 0.0014635398800720578 0 -0.017455259867150373 0.0011360765971214712 0 -0.01787773216698442 0.0014635398800720578 0 -0.017455259867150373 0.0011360765971214712 0 -0.017538282739362372 0.0016603383498812678 0 -0.015109181971044864 0.00061943749785749083 0 -0.015089715743195524 0.00061834402891037946 0 -0.01511969221464363 0.00064007771930438902 0 -0.015109181971044864 0.00061943749785749083 0 -0.01511969221464363 0.00064007771930438902 0 -0.01513635326538647 0.00064115273210765507 0 -0.015109181971044864 0.00061943749785749083 0 -0.015115483868116028 0.00061713786028906299 0 -0.015089715743195524 0.00061834402891037946 0 -0.016365021921620444 0.0010040967703417792 0 -0.015976198990322703 0.0010478853343584454 0 -0.016689053845231946 0.00093912422014862519 0 -0.017455259867150373 0.0011360765971214712 0 -0.016844736538086748 0.0014588033878823491 0 -0.017455259867150373 0.0011360765971214712 0 -0.017538282739362372 0.0016603383498812678 0 -0.016844736538086748 0.0014588033878823491 0 -0.01563417643526591 0.00086637836917656541 0 -0.015976198990322703 0.0010478853343584454 0 -0.016689053845231946 0.00093912422014862519 0 -0.016070008918465817 0.0011369140349307494 0 -0.016844736538086748 0.0014588033878823491 0 -0.015178700514783547 0.00062490247099670571 0 -0.01514041418529462 0.00058739682506482572 0 -0.015115483868116028 0.00061713786028906299 0 -0.01514041418529462 0.00058739682506482572 0 -0.015115483868116028 0.00061713786028906299 0 -0.015089715743195524 0.00061834402891037946 0 -0.01514041418529462 0.00058739682506482572 0 -0.015106419499592573 0.0005899448557398683 0 -0.015089715743195524 0.00061834402891037946 0 -0.015131972371634564 0.00055137942612108867 0 -0.015106419499592573 0.0005899448557398683 0 -0.015096348711773526 0.00055747377076898093 0 -0.015106419499592573 0.0005899448557398683 0 -0.015056679817542662 0.00064191570960989413 0 -0.015096348711773526 0.00055747377076898093 0 -0.015106419499592573 0.0005899448557398683 0 -0.015056679817542662 0.00064191570960989413 0 -0.015089715743195524 0.00061834402891037946 0 -0.015056679817542662 0.00064191570960989413 0 -0.015089715743195524 0.00061834402891037946 0 -0.015121354832549901 0.00064412174473599119 0 -0.015089715743195524 0.00061834402891037946 0 -0.01511969221464363 0.00064007771930438902 0 -0.015121354832549901 0.00064412174473599119 0 -0.015056679817542662 0.00064191570960989413 0 -0.014917187634466122 0.00069100736958769269 0 -0.014895239027345117 0.0008527329445944113 0 -0.015195306013089663 0.00015039180114331325 0 -0.014971587498931892 0.0022330803851028122 0 -0.014917187634466122 0.00069100736958769269 0 -0.014803697447380124 0.00070579370937037442 0 -0.014895239027345117 0.0008527329445944113 0 -0.015320368100127164 0.005650892268607632 0 -0.015032932523647307 0.0052359262271530031 0 -0.015319088453247212 0.0053593834092736346 0 -0.015251342961305267 0.0033447186002585863 0 -0.014971587498931892 0.0022330803851028122 0 -0.015032932523647307 0.0052359262271530031 0 -0.015276898814488378 0.0052113700705531249 0 -0.015319088453247212 0.0053593834092736346 0 -0.015163859644410534 0.00064041752826642507 0 -0.015131234860080554 0.0006639313394039149 0 -0.01513635326538647 0.00064115273210765507 0 -0.01470529744166907 0.0012615465400184519 0 -0.014971587498931892 0.0022330803851028122 0 -0.01511969221464363 0.00064007771930438902 0 -0.015131234860080554 0.0006639313394039149 0 -0.01513635326538647 0.00064115273210765507 0 -0.016162262834163145 0.0025447429755122123 0 -0.014971587498931892 0.0022330803851028122 0 -0.015268718697319307 0.0050374078591195305 0 -0.015032932523647307 0.0052359262271530031 0 -0.015245918669460505 0.0051329141646338965 0 -0.015032932523647307 0.0052359262271530031 0 -0.015245918669460505 0.0051329141646338965 0 -0.015276898814488378 0.0052113700705531249 0 -0.015294434639647999 0.005048159317984845 0 -0.015245918669460505 0.0051329141646338965 0 -0.01534229397919344 0.0051393118461350593 0 -0.015245918669460505 0.0051329141646338965 0 -0.015276898814488378 0.0052113700705531249 0 -0.01534229397919344 0.0051393118461350593 0 -0.014855118572831604 0.00053955559019048898 0 -0.014873652094654412 0.00062661811671073787 0 -0.014709734537889253 0.0006059594538892659 0 -0.0086464007730787593 0.0029529907879780591 0 -0.0086872023336110292 0.0031074761301102581 0 -0.0092479421526167477 0.0032433638656261744 0 -0.014917187634466122 0.00069100736958769269 0 -0.014803697447380124 0.00070579370937037442 0 -0.014873652094654412 0.00062661811671073787 0 -0.014917187634466122 0.00069100736958769269 0 -0.014873652094654412 0.00062661811671073787 0 -0.014970192706828185 0.00058587735175273279 0 -0.015056679817542662 0.00064191570960989413 0 -0.014917187634466122 0.00069100736958769269 0 -0.014970192706828185 0.00058587735175273279 0 -0.014855118572831604 0.00053955559019048898 0 -0.014873652094654412 0.00062661811671073787 0 -0.014970192706828185 0.00058587735175273279 0 -0.014855118572831604 0.00053955559019048898 0 -0.014970192706828185 0.00058587735175273279 0 -0.014988349531386192 0.00051472008092269561 0 -0.011459481955181153 0.0016035111348003234 0 -0.011976487871837365 0.0017938603435789639 0 -0.0086464007730787593 0.0029529907879780591 0 -0.008844940332778042 0.0030775170832873242 0 -0.0086973562035250196 0.0030261361386344819 0 -0.014970192706828185 0.00058587735175273279 0 -0.015040422381292304 0.00055714576598040323 0 -0.014988349531386192 0.00051472008092269561 0 -0.015040422381292304 0.00055714576598040323 0 -0.015062159155192311 0.00051752338746817591 0 -0.014988349531386192 0.00051472008092269561 0 -0.015056679817542662 0.00064191570960989413 0 -0.014970192706828185 0.00058587735175273279 0 -0.015040422381292304 0.00055714576598040323 0 -0.015056679817542662 0.00064191570960989413 0 -0.015040422381292304 0.00055714576598040323 0 -0.015096348711773526 0.00055747377076898093 0 -0.015040422381292304 0.00055714576598040323 0 -0.015096348711773526 0.00055747377076898093 0 -0.015062159155192311 0.00051752338746817591 0 -0.0093600613732639469 0.0026284492673033749 0 -0.0089141234247432522 0.0027930875365526999 0 -0.0091791172322934905 0.0022922861809786537 0 -0.0092898693316646984 0.0029778728811517847 0 -0.0093600613732639469 0.0026284492673033749 0 -0.0089141234247432522 0.0027930875365526999 0 -0.0089369370046539741 0.0027507501418203282 0 -0.0090640581227142795 0.0024754028740415104 0 -0.0089141234247432522 0.0027930875365526999 0 -0.008771611910756167 0.0027284211220945228 0 -0.0090314543143318569 0.002604406048269461 0 -0.012177100847374535 0.0017457642541001924 0 -0.011976487871837365 0.0017938603435789639 0 -0.0092898693316646984 0.0029778728811517847 0 -0.0089141234247432522 0.0027930875365526999 0 -0.008844940332778042 0.0030775170832873242 0 -0.0089141234247432522 0.0027930875365526999 0 -0.008844940332778042 0.0030775170832873242 0 -0.0087440510911949501 0.0028906463418924048 0 -0.008844940332778042 0.0030775170832873242 0 -0.0086973562035250196 0.0030261361386344819 0 -0.0087440510911949501 0.0028906463418924048 0 -0.0086973562035250196 0.0030261361386344819 0 -0.0087440510911949501 0.0028906463418924048 0 -0.008643802153238022 0.0029548021867256504 0 -0.0089141234247432522 0.0027930875365526999 0 -0.008771611910756167 0.0027284211220945228 0 -0.0087440510911949501 0.0028906463418924048 0 -0.0087440510911949501 0.0028906463418924048 0 -0.0086158238372100442 0.0027429978184092267 0 -0.008643802153238022 0.0029548021867256504 0 -0.008771611910756167 0.0027284211220945228 0 -0.0087440510911949501 0.0028906463418924048 0 -0.0086158238372100442 0.0027429978184092267 0 -0.0084838295255692166 0.0029085654072482513 0 -0.0086158238372100442 0.0027429978184092267 0 -0.008643802153238022 0.0029548021867256504 0 -0.0084838295255692166 0.0029085654072482513 0 -0.0086158238372100442 0.0027429978184092267 0 -0.0084232113710898445 0.0026862425358278371 0 -0.0084838295255692166 0.0029085654072482513 0 -0.008643802153238022 0.0029548021867256504 0 -0.0086872023336110292 0.0031074761301102581 0 -0.0086973562035250196 0.0030261361386344819 0 -0.008643802153238022 0.0029548021867256504 0 -0.0086872023336110292 0.0031074761301102581 0 -0.0086464007730787593 0.0029529907879780591 0 -0.0086973562035250196 0.0030261361386344819 0 -0.0086872023336110292 0.0031074761301102581 0 -0.015121317595843616 0.00051477390535987003 0 -0.01511217222484351 0.00049602287802882048 0 -0.015156533091817965 0.00049179147045308068 0 -0.015121317595843616 0.00051477390535987003 0 -0.01511217222484351 0.00049602287802882048 0 -0.015082353790583676 0.00054470475350563226 0 -0.015163162501583371 0.00044908465329026752 0 -0.015140875611393434 0.00047783551841479581 0 -0.015156533091817965 0.00049179147045308068 0 -0.01511217222484351 0.00049602287802882048 0 -0.015140875611393434 0.00047783551841479581 0 -0.015156533091817965 0.00049179147045308068 0 -0.015170230715387747 0.00052438018400576642 0 -0.015156533091817965 0.00049179147045308068 0 -0.015133790585867713 0.00052680408640947275 0 -0.015121317595843616 0.00051477390535987003 0 -0.015156533091817965 0.00049179147045308068 0 -0.015133790585867713 0.00052680408640947275 0 -0.015131972371634564 0.00055137942612108867 0 -0.015096348711773526 0.00055747377076898093 0 -0.015133790585867713 0.00052680408640947275 0 -0.015096348711773526 0.00055747377076898093 0 -0.015133790585867713 0.00052680408640947275 0 -0.015108350062912767 0.00052905318608007065 0 -0.015096348711773526 0.00055747377076898093 0 -0.015062159155192311 0.00051752338746817591 0 -0.015108350062912767 0.00052905318608007065 0 -0.015121317595843616 0.00051477390535987003 0 -0.015133790585867713 0.00052680408640947275 0 -0.015108350062912767 0.00052905318608007065 0 -0.015121317595843616 0.00051477390535987003 0 -0.015108350062912767 0.00052905318608007065 0 -0.015100974040862723 0.00053496535313126293 0 -0.015108350062912767 0.00052905318608007065 0 -0.015100974040862723 0.00053496535313126293 0 -0.015091208848703954 0.00053472390927923846 0 -0.015100974040862723 0.00053496535313126293 0 -0.015091208848703954 0.00053472390927923846 0 -0.015077586921994547 0.00056009645546871802 0 -0.012177100847374535 0.0017457642541001924 0 -0.012381065009452467 0.0016591947732584351 0 -0.015062159155192311 0.00051752338746817591 0 -0.015108350062912767 0.00052905318608007065 0 -0.015091208848703954 0.00053472390927923846 0 -0.0093600613732639469 0.0026284492673033749 0 -0.009702711077067605 0.0024791307075359378 0 -0.0098124994410779143 0.0027967479637661398 0 -0.0092898693316646984 0.0029778728811517847 0 -0.0093600613732639469 0.0026284492673033749 0 -0.0098124994410779143 0.0027967479637661398 0 -0.0098124994410779143 0.0027967479637661398 0 -0.0099817654428304425 0.002551729263101662 0 -0.010334181439003148 0.0026134324778223895 0 -0.012381065009452467 0.0016591947732584351 0 -0.013076876632665662 0.0017582119511087861 0 -0.009702711077067605 0.0024791307075359378 0 -0.0098124994410779143 0.0027967479637661398 0 -0.0099817654428304425 0.002551729263101662 0 -0.0099817654428304425 0.002551729263101662 0 -0.010166568164387879 0.0024779782333899389 0 -0.010334181439003148 0.0026134324778223895 0 -0.01508389592720109 0.00065357818931236758 0 -0.015079450354306223 0.00062606981965816289 0 -0.015004041833668443 0.00060094073161980109 0 -0.010166568164387879 0.0024779782333899389 0 -0.010290620155162442 0.0025173131912898513 0 -0.010334181439003148 0.0026134324778223895 0 -0.011493522005757543 0.0011108973720734582 0 -0.013076876632665662 0.0017582119511087861 0 -0.013076876632665662 0.0017582119511087861 0 -0.014871232591849207 0.00052064235957003865 0 -0.015100974040862723 0.00053496535313126293 0 -0.015077586921994547 0.00056009645546871802 0 -0.015082353790583676 0.00054470475350563226 0 -0.015121317595843616 0.00051477390535987003 0 -0.015100974040862723 0.00053496535313126293 0 -0.015082353790583676 0.00054470475350563226 0 -0.015093428343427934 0.0005068253013315859 0 -0.01511217222484351 0.00049602287802882048 0 -0.015070394837055549 0.00052404155583511214 0 -0.01511217222484351 0.00049602287802882048 0 -0.015082353790583676 0.00054470475350563226 0 -0.015004041833668443 0.00060094073161980109 0 -0.014993063633300257 0.00048146558420150427 0 -0.015462967498454872 0.00061306636532136116 0 -0.015079450354306223 0.00062606981965816289 0 -0.015082353790583676 0.00054470475350563226 0 -0.015004041833668443 0.00060094073161980109 0 -0.0096149496717116683 0.00066611775575008516 0 -0.009618047564126991 0.00071817912586186888 0 -0.0093492010022302851 0.00085153283158823122 0 -0.015462967498454872 0.00061306636532136116 0 -0.011697336466069243 0.0004675467801230696 0 -0.01508389592720109 0.00065357818931236758 0 -0.015004041833668443 0.00060094073161980109 0 -0.014941249631588001 0.0007878660183248846 0 -0.011493522005757543 0.0011108973720734582 0 -0.011697336466069243 0.0004675467801230696 0 -0.015070394837055549 0.00052404155583511214 0 -0.015004005854468708 0.00054564381151807275 0 -0.015034271592925195 0.00053611934942465343 0 -0.0041408437446082717 0.00039638853796698358 0 -0.0042144768815136485 0.00033843325744307068 0 -0.0040803642732999768 0.00015813089738310013 0 -0.010236604833980725 0.00079470778169513231 0 -0.010237518427547084 0.00068343195469286889 0 -0.010039712130728172 0.00092924427036441854 0 -0.0041171832837394867 0.00048126457021155193 0 -0.0038865391979968069 0.0003241605267805855 0 -0.0040803642732999768 0.00015813089738310013 0 -0.011697336466069243 0.0004675467801230696 0 -0.0097784280194642692 0.00027836064546714589 0 -0.0077531539560101717 0.00068821288772097507 0 -0.0038460020382145763 8.5086716413826502e-05 0 -0.015004005854468708 0.00054564381151807275 0 -0.014984080340223745 0.00054799021382016583 0 -0.015008308859001585 0.00054260249307845761 0 -0.0077531539560101717 0.00068821288772097507 0 -0.0097784280194642692 0.00027836064546714589 0 -0.0077531539560101717 0.00068821288772097507 0 -0.011697336466069243 0.0004675467801230696 0 -0.0041171832837394867 0.00048126457021155193 0 -0.0038865391979968069 0.0003241605267805855 0 -0.0038010555267450857 0.00071420572132528605 0 -0.0038865391979968069 0.0003241605267805855 0 -0.0038010555267450857 0.00071420572132528605 0 -0.0036347482302212242 0.00036863468226822581 0 -0.0077531539560101717 0.00068821288772097507 0 -0.0072101402288865992 0.0011330571626449507 0 -0.0094130327301759683 0.00098824526863180258 0 -0.009618047564126991 0.00071817912586186888 0 -0.0093492010022302851 0.00085153283158823122 0 -0.010166568164387879 0.0024779782333899389 0 -0.010290620155162442 0.0025173131912898513 0 -0.010181105532148483 0.0022857505916917763 0 -0.011493522005757543 0.0011108973720734582 0 -0.0072101402288865992 0.0011330571626449507 0 -0.0099817654428304425 0.002551729263101662 0 -0.010166568164387879 0.0024779782333899389 0 -0.0099371817114454839 0.0022976207318237641 0 -0.010166568164387879 0.0024779782333899389 0 -0.010181105532148483 0.0022857505916917763 0 -0.0099371817114454839 0.0022976207318237641 0 -0.010181105532148483 0.0022857505916917763 0 -0.0099371817114454839 0.0022976207318237641 0 -0.0099663753203020518 0.0018170128490711942 0 -0.009702711077067605 0.0024791307075359378 0 -0.0099817654428304425 0.002551729263101662 0 -0.0099371817114454839 0.0022976207318237641 0 -0.009702711077067605 0.0024791307075359378 0 -0.0099371817114454839 0.0022976207318237641 0 -0.0096541879597608626 0.0021544966260193276 0 -0.009702711077067605 0.0024791307075359378 0 -0.0096541879597608626 0.0021544966260193276 0 -0.0091791172322934905 0.0022922861809786537 0 -0.0093600613732639469 0.0026284492673033749 0 -0.009702711077067605 0.0024791307075359378 0 -0.0091791172322934905 0.0022922861809786537 0 -0.0096541879597608626 0.0021544966260193276 0 -0.0094580484046234148 0.0018363121227474466 0 -0.0099663753203020518 0.0018170128490711942 0 -0.0096541879597608626 0.0021544966260193276 0 -0.0094580484046234148 0.0018363121227474466 0 -0.0091791172322934905 0.0022922861809786537 0 -0.0072101402288865992 0.0011330571626449507 0 -0.0068561759088131722 0.0011915535822564383 0 -0.0099371817114454839 0.0022976207318237641 0 -0.0096541879597608626 0.0021544966260193276 0 -0.0099663753203020518 0.0018170128490711942 0 -0.0068561759088131722 0.0011915535822564383 0 -0.0060065382544267215 0.00059687624175346196 0 -0.0094580484046234148 0.0018363121227474466 0 -0.0099663753203020518 0.0018170128490711942 0 -0.0097725452435368232 0.0014373701435360267 0 -0.0036347482302212242 0.00036863468226822581 0 -0.0034782867819334162 2.5309154436370306e-05 0 -0.0037764180388461335 7.9717490124559966e-05 0 -0.0099663753203020518 0.0018170128490711942 0 -0.0097725452435368232 0.0014373701435360267 0 -0.0097468055339692133 0.0013427155570124116 0 -0.0097725452435368232 0.0014373701435360267 0 -0.009712406399601135 0.0013897398660494501 0 -0.0097468055339692133 0.0013427155570124116 0 -0.0076143301774725209 0.0014507048489085419 0 -0.0070113458577664234 0.0010962954535928238 0 -0.0096114224988554566 0.002067433473445067 0 -0.0070113458577664234 0.0010962954535928238 0 -0.0091780712655979441 0.0023610180002198058 0 -0.0093178554559711999 0.0021131849500580931 0 -0.0091470906573463892 0.0021381142732306395 0 -0.0094580484046234148 0.0018363121227474466 0 -0.0097725452435368232 0.0014373701435360267 0 -0.0097204061822782663 0.0013917756180741852 0 -0.0035749998373792026 -0.00027234757613934949 0 -0.0035549749594898589 -0.00034636046982264968 0 -0.0034623807870246878 -0.00040578216020608482 0 -0.0093178554559711999 0.0021131849500580931 0 -0.0091470906573463892 0.0021381142732306395 0 -0.0091047512104832067 0.0019084778102669514 0 -0.0070113458577664234 0.0010962954535928238 0 -0.0061539121329080067 0.00067314168648401746 0 -0.0036527212682719344 -5.5165516379054111e-05 0 -0.0034782867819334162 2.5309154436370306e-05 0 -0.0037764180388461335 7.9717490124559966e-05 0 -0.0035749998373792026 -0.00027234757613934949 0 -0.0035549749594898589 -0.00034636046982264968 0 -0.0035863766498296064 -0.00028798098348135844 0 -0.0070113458577664234 0.0010962954535928238 0 -0.0060065382544267215 0.00059687624175346196 0 -0.0045956784498172787 -0.00063022384565005125 0 -0.0060065382544267215 0.00059687624175346196 0 -0.0035549749594898589 -0.00034636046982264968 0 -0.0035751779433986449 -0.00031163639967917746 0 -0.0035997257185961997 -0.00037746053471508968 0 -0.0036527212682719344 -5.5165516379054111e-05 0 -0.0034782867819334162 2.5309154436370306e-05 0 -0.0036006119545557995 -0.00020092164524502352 0 -0.0060065382544267215 0.00059687624175346196 0 -0.0035323393255167045 -0.00017085022727148403 0 -0.0036527212682719344 -5.5165516379054111e-05 0 -0.0037953752526525835 -0.00016052697670433319 0 -0.0036006119545557995 -0.00020092164524502352 0 -0.0036527212682719344 -5.5165516379054111e-05 0 -0.0037953752526525835 -0.00016052697670433319 0 -0.0037764180388461335 7.9717490124559966e-05 0 -0.0037953752526525835 -0.00016052697670433319 0 -0.0039680047389430107 -2.300229190141579e-05 0 -0.0037764180388461335 7.9717490124559966e-05 0 -0.0037953752526525835 -0.00016052697670433319 0 -0.0040558248456159778 -0.00018991862379558668 0 -0.0039680047389430107 -2.300229190141579e-05 0 -0.0040558248456159778 -0.00018991862379558668 0 -0.0041308428269707818 -5.8220760421972204e-06 0 -0.0042125870833490883 -0.00011162949544254856 0 -0.0041308428269707818 -5.8220760421972204e-06 0 -0.0039680047389430107 -2.300229190141579e-05 0 -0.0040803642732999768 0.00015813089738310013 0 -0.0040558248456159778 -0.00018991862379558668 0 -0.0041308428269707818 -5.8220760421972204e-06 0 -0.0039680047389430107 -2.300229190141579e-05 0 -0.0039680047389430107 -2.300229190141579e-05 0 -0.0040803642732999768 0.00015813089738310013 0 -0.0037764180388461335 7.9717490124559966e-05 0 -0.0040803642732999768 0.00015813089738310013 0 -0.0042279889092588186 0.00017723370899967619 0 -0.0042046820844892294 9.115500281377431e-05 0 -0.0041308428269707818 -5.8220760421972204e-06 0 -0.0040803642732999768 0.00015813089738310013 0 -0.0042046820844892294 9.115500281377431e-05 0 -0.0042144768815136485 0.00033843325744307068 0 -0.0040803642732999768 0.00015813089738310013 0 -0.0042279889092588186 0.00017723370899967619 0 -0.0038865391979968069 0.0003241605267805855 0 -0.0036347482302212242 0.00036863468226822581 0 -0.0037764180388461335 7.9717490124559966e-05 0 -0.0038865391979968069 0.0003241605267805855 0 -0.0040803642732999768 0.00015813089738310013 0 -0.0037764180388461335 7.9717490124559966e-05 0 -0.0086158238372100442 0.0027429978184092267 0 -0.0085380883212485201 0.0024893895749080568 0 -0.0084232113710898445 0.0026862425358278371 0 -0.0086158238372100442 0.0027429978184092267 0 -0.0085380883212485201 0.0024893895749080568 0 -0.0087667752870198845 0.0025340996427182377 0 -0.008771611910756167 0.0027284211220945228 0 -0.0086158238372100442 0.0027429978184092267 0 -0.0087667752870198845 0.0025340996427182377 0 -0.0085380883212485201 0.0024893895749080568 0 -0.0087667752870198845 0.0025340996427182377 0 -0.008676548314280089 0.0022106494028283625 0 -0.0087667752870198845 0.0025340996427182377 0 -0.0089462032379861046 0.0024013840753762295 0 -0.0090314543143318569 0.002604406048269461 0 -0.0087667752870198845 0.0025340996427182377 0 -0.0089462032379861046 0.0024013840753762295 0 -0.008676548314280089 0.0022106494028283625 0 -0.008771611910756167 0.0027284211220945228 0 -0.0087667752870198845 0.0025340996427182377 0 -0.0090314543143318569 0.002604406048269461 0 -0.0096114224988554566 0.002067433473445067 0 -0.0090640581227142795 0.0024754028740415104 0 -0.0091780712655979441 0.0023610180002198058 0 -0.0089462032379861046 0.0024013840753762295 0 -0.0090314543143318569 0.002604406048269461 0 -0.0091780712655979441 0.0023610180002198058 0 -0.0091470906573463892 0.0021381142732306395 0 -0.0089866264958461048 0.0021671694282410013 0 -0.0091780712655979441 0.0023610180002198058 0 -0.0089462032379861046 0.0024013840753762295 0 -0.0089866264958461048 0.0021671694282410013 0 -0.0091470906573463892 0.0021381142732306395 0 -0.0089866264958461048 0.0021671694282410013 0 -0.0091047512104832067 0.0019084778102669514 0 -0.0089866264958461048 0.0021671694282410013 0 -0.0088784844958174278 0.001967444764518855 0 -0.0091047512104832067 0.0019084778102669514 0 -0.0089866264958461048 0.0021671694282410013 0 -0.0088784844958174278 0.001967444764518855 0 -0.008676548314280089 0.0022106494028283625 0 -0.0089462032379861046 0.0024013840753762295 0 -0.0089866264958461048 0.0021671694282410013 0 -0.008676548314280089 0.0022106494028283625 0 -0.0088784844958174278 0.001967444764518855 0 -0.008676548314280089 0.0022106494028283625 0 -0.0086870958720451433 0.0018944352948085698 0 -0.008676548314280089 0.0022106494028283625 0 -0.0084873531790867242 0.0019563560661161423 0 -0.0086870958720451433 0.0018944352948085698 0 -0.008676548314280089 0.0022106494028283625 0 -0.0084873531790867242 0.0019563560661161423 0 -0.0083390738572375247 0.0021006961643104892 0 -0.0085380883212485201 0.0024893895749080568 0 -0.008676548314280089 0.0022106494028283625 0 -0.0083825548918655297 0.00233752042401184 0 -0.008676548314280089 0.0022106494028283625 0 -0.0083825548918655297 0.00233752042401184 0 -0.0083390738572375247 0.0021006961643104892 0 -0.0083961566955911612 0.0015359609823437331 0 -0.0084520833305343265 0.0017158680520046588 0 -0.0082189337768779538 0.0015834972426712736 0 -0.0083961566955911612 0.0015359609823437331 0 -0.0084520833305343265 0.0017158680520046588 0 -0.0085479136594510379 0.0014473916195314256 0 -0.0088514382006009522 0.0017204641513969361 0 -0.0060898763885699463 0.00066626787955577956 0 -0.0084873531790867242 0.0019563560661161423 0 -0.0084520833305343265 0.0017158680520046588 0 -0.0082160338459081571 0.0018430553423684076 0 -0.0084873531790867242 0.0019563560661161423 0 -0.0084520833305343265 0.0017158680520046588 0 -0.0086870958720451433 0.0018944352948085698 0 -0.0084520833305343265 0.0017158680520046588 0 -0.0086870958720451433 0.0018944352948085698 0 -0.0086399526065785142 0.0016418876707133404 0 -0.0084520833305343265 0.0017158680520046588 0 -0.0086399526065785142 0.0016418876707133404 0 -0.0085478896990957894 0.0014479612066923702 0 -0.0086399526065785142 0.0016418876707133404 0 -0.0086332336408644628 0.0014622659079685926 0 -0.0085478896990957894 0.0014479612066923702 0 -0.003484292716868025 -0.00043523796627511618 0 -0.0034521343088533894 -0.00049376843575978991 0 -0.0036033028285284148 -0.00041792352262485339 0 -0.0086399526065785142 0.0016418876707133404 0 -0.0088795194925910797 0.0016884881379006247 0 -0.0086332336408644628 0.0014622659079685926 0 -0.0063631594969201666 0.00068411228506954952 0 -0.0050585895205494513 0.0004754282667357032 0 -0.003484292716868025 -0.00043523796627511618 0 -0.0034521343088533894 -0.00049376843575978991 0 -0.0034194733909140985 -0.00050274953583988302 0 -0.0086870958720451433 0.0018944352948085698 0 -0.0086399526065785142 0.0016418876707133404 0 -0.0088795194925910797 0.0016884881379006247 0 -0.0088784844958174278 0.001967444764518855 0 -0.0086870958720451433 0.0018944352948085698 0 -0.0088795194925910797 0.0016884881379006247 0 -0.0063631594969201666 0.00068411228506954952 0 -0.0061539121329080067 0.00067314168648401746 0 -0.0034521343088533894 -0.00049376843575978991 0 -0.0034623807870246878 -0.00040578216020608482 0 -0.0034562115933324169 -0.00048106390456245516 0 -0.0088784844958174278 0.001967444764518855 0 -0.0088795194925910797 0.0016884881379006247 0 -0.0091047512104832067 0.0019084778102669514 0 -0.0034521343088533894 -0.00049376843575978991 0 -0.0034194733909140985 -0.00050274953583988302 0 -0.0034562115933324169 -0.00048106390456245516 0 -0.0034194733909140985 -0.00050274953583988302 0 -0.0034562115933324169 -0.00048106390456245516 0 -0.0034703999537507957 -0.00055692528805400946 0 -0.00312758325486962 -0.00050166969310022939 0 -0.0034950266679033143 -0.00047475220530031234 0 -0.0033701057359920047 -0.0005778440039808496 0 -0.0033852826319229175 -0.00066526266785577233 0 -0.0034703999537507957 -0.00055692528805400946 0 -0.0034194733909140985 -0.00050274953583988302 0 -0.0033701057359920047 -0.0005778440039808496 0 -0.0034703999537507957 -0.00055692528805400946 0 -0.0033701057359920047 -0.0005778440039808496 0 -0.0033852826319229175 -0.00066526266785577233 0 -0.0032691097455842351 -0.00060853260189609238 0 -0.0033025787372606831 -0.0005195491386742662 0 -0.0034194733909140985 -0.00050274953583988302 0 -0.0033701057359920047 -0.0005778440039808496 0 -0.0033852826319229175 -0.00066526266785577233 0 -0.0032396311977646117 -0.00069369499953783836 0 -0.0032691097455842351 -0.00060853260189609238 0 -0.0033025787372606831 -0.0005195491386742662 0 -0.0033701057359920047 -0.0005778440039808496 0 -0.0032691097455842351 -0.00060853260189609238 0 -0.00312758325486962 -0.00050166969310022939 0 -0.0050585895205494513 0.0004754282667357032 0 -0.0033025787372606831 -0.0005195491386742662 0 -0.0032691097455842351 -0.00060853260189609238 0 -0.0032181953639800185 -0.00053379017320754403 0 -0.0032691097455842351 -0.00060853260189609238 0 -0.0032181953639800185 -0.00053379017320754403 0 -0.0031885431816995025 -0.0005602832716022966 0 -0.0050585895205494513 0.0004754282667357032 0 -0.0060898763885699463 0.00066626787955577956 0 -0.0050585895205494513 0.0004754282667357032 0 -0.0036293657360448456 0.00012274527803414221 0 -0.0048189367662166945 0.0008485071540139358 0 -0.0045202779292717998 0.00079236964414058897 0 -0.0045930843820288373 0.0006415222325777246 0 -0.0060898763885699463 0.00066626787955577956 0 -0.0036293657360448456 0.00012274527803414221 0 -0.0004764114267235109 -0.00069849475772966734 0 -0.00044840552464023227 -0.00056558952167525044 0 -0.00034798010822836985 -0.00064691257202709391 0 -0.0004764114267235109 -0.00069849475772966734 0 -0.00034798010822836985 -0.00064691257202709391 0 -0.00035878114286583247 -0.00076739655683793627 0 -0.0032396311977646117 -0.00069369499953783836 0 -0.0032691097455842351 -0.00060853260189609238 0 -0.0031885431816995025 -0.0005602832716022966 0 -0.0016411073289317477 -0.00073869519278264286 0 -0.0036293657360448456 0.00012274527803414221 0 -0.0046612981112962677 0.00029281624191110822 0 -0.0046668825404805152 0.00027606919363653946 0 -0.0045624239705939641 0.00027487223131593739 0 -0.0083961566955911612 0.0015359609823437331 0 -0.0085479136594510379 0.0014473916195314256 0 -0.0082983553904579684 0.001400932053055119 0 -0.0046668825404805152 0.00027606919363653946 0 -0.0045822459139101979 0.00020596679279835778 0 -0.0045624239705939641 0.00027487223131593739 0 -0.0060898763885699463 0.00066626787955577956 0 -0.0065256959214837502 0.00084096597774503061 0 -0.0036293657360448456 0.00012274527803414221 0 -0.0023221561726839133 -0.00032916958194005211 0 -0.0040755240261171367 -0.00064199415566130471 0 -0.0036709360091320311 -0.00044095872386066697 0 -0.0034564368934023237 -0.00075339129129058167 0 -0.0036709360091320311 -0.00044095872386066697 0 -0.0035172995608726346 -0.00059525291664996199 0 -0.0034564368934023237 -0.00075339129129058167 0 -0.0040755240261171367 -0.00064199415566130471 0 -0.0039091474178161419 -0.00036039755430323231 0 -0.0036709360091320311 -0.00044095872386066697 0 -0.0040755240261171367 -0.00064199415566130471 0 -0.0039091474178161419 -0.00036039755430323231 0 -0.004106353435359927 -0.00038469390366495116 0 -0.0037953752526525835 -0.00016052697670433319 0 -0.0040558248456159778 -0.00018991862379558668 0 -0.0039091474178161419 -0.00036039755430323231 0 -0.0040558248456159778 -0.00018991862379558668 0 -0.0039091474178161419 -0.00036039755430323231 0 -0.004106353435359927 -0.00038469390366495116 0 -0.0037953752526525835 -0.00016052697670433319 0 -0.0036709360091320311 -0.00044095872386066697 0 -0.0036006119545557995 -0.00020092164524502352 0 -0.0037953752526525835 -0.00016052697670433319 0 -0.0039091474178161419 -0.00036039755430323231 0 -0.0036709360091320311 -0.00044095872386066697 0 -0.0036999647016880189 -0.00046418363693220453 0 -0.0035323393255167045 -0.00017085022727148403 0 -0.0035997257185961997 -0.00037746053471508968 0 -0.0035566136102283194 -0.00046421712913923794 0 -0.0035205698697560019 -0.00043170424478626194 0 -0.0035549749594898589 -0.00034636046982264968 0 -0.0035997257185961997 -0.00037746053471508968 0 -0.0035205698697560019 -0.00043170424478626194 0 -0.0035566136102283194 -0.00046421712913923794 0 -0.0035205698697560019 -0.00043170424478626194 0 -0.0035017152007498407 -0.00051341806830486683 0 -0.0036709360091320311 -0.00044095872386066697 0 -0.0035997257185961997 -0.00037746053471508968 0 -0.0035566136102283194 -0.00046421712913923794 0 -0.0035549749594898589 -0.00034636046982264968 0 -0.0034623807870246878 -0.00040578216020608482 0 -0.0035205698697560019 -0.00043170424478626194 0 -0.0034623807870246878 -0.00040578216020608482 0 -0.0035205698697560019 -0.00043170424478626194 0 -0.0034562115933324169 -0.00048106390456245516 0 -0.0035205698697560019 -0.00043170424478626194 0 -0.0034562115933324169 -0.00048106390456245516 0 -0.0035017152007498407 -0.00051341806830486683 0 -0.0035017152007498407 -0.00051341806830486683 0 -0.0035172995608726346 -0.00059525291664996199 0 -0.0034703999537507957 -0.00055692528805400946 0 -0.0034562115933324169 -0.00048106390456245516 0 -0.0035017152007498407 -0.00051341806830486683 0 -0.0034703999537507957 -0.00055692528805400946 0 -0.0036709360091320311 -0.00044095872386066697 0 -0.0035566136102283194 -0.00046421712913923794 0 -0.0035172995608726346 -0.00059525291664996199 0 -0.0035566136102283194 -0.00046421712913923794 0 -0.0035017152007498407 -0.00051341806830486683 0 -0.0035172995608726346 -0.00059525291664996199 0 -0.0035172995608726346 -0.00059525291664996199 0 -0.0035344309008717117 -0.0006361893119311761 0 -0.0034703999537507957 -0.00055692528805400946 0 -0.0035172995608726346 -0.00059525291664996199 0 -0.0035344309008717117 -0.0006361893119311761 0 -0.0034564368934023237 -0.00075339129129058167 0 -0.0033852826319229175 -0.00066526266785577233 0 -0.0035344309008717117 -0.0006361893119311761 0 -0.0034703999537507957 -0.00055692528805400946 0 -0.0033852826319229175 -0.00066526266785577233 0 -0.0035344309008717117 -0.0006361893119311761 0 -0.0034337373868521676 -0.00076099903780870609 0 -0.0035344309008717117 -0.0006361893119311761 0 -0.0034564368934023237 -0.00075339129129058167 0 -0.0034659968170552636 -0.00027851750123319318 0 -0.0035344309008717117 -0.0006361893119311761 0 -0.0035289145359055645 -0.00072644635478484446 0 -0.0034337373868521676 -0.00076099903780870609 0 -0.0034736131937552379 -0.00055913875275257581 0 -0.0037148264137804058 -0.00058979273841308893 0 -0.0030427028082983241 -0.00027484176993728039 0 -0.0034564368934023237 -0.00075339129129058167 0 -0.002788432796885214 -0.00065961447128713106 0 -0.0030427028082983241 -0.00027484176993728039 0 -0.0034564368934023237 -0.00075339129129058167 0 -0.0034659968170552636 -0.00027851750123319318 0 -0.0025661705350906055 -0.0012625256221193905 0 -0.0034564368934023237 -0.00075339129129058167 0 -0.002788432796885214 -0.00065961447128713106 0 -0.003349145665361463 -0.00092560580673258473 0 -0.0034539558131125038 -0.00077587606618201548 0 -0.0030427028082983241 -0.00027484176993728039 0 -0.002788432796885214 -0.00065961447128713106 0 -0.0025916121296775496 -0.00031312827295543709 0 -0.002788432796885214 -0.00065961447128713106 0 -0.0025916121296775496 -0.00031312827295543709 0 -0.0022798522688872972 -0.00079020067186648564 0 -0.0025916121296775496 -0.00031312827295543709 0 -0.0019343180453950406 -0.00036747533342475192 0 -0.0022798522688872972 -0.00079020067186648564 0 -0.0019343180453950406 -0.00036747533342475192 0 -0.0017861725119438666 -0.00089899619672265476 0 -0.0022798522688872972 -0.00079020067186648564 0 -0.0019343180453950406 -0.00036747533342475192 0 -0.0017861725119438666 -0.00089899619672265476 0 -0.0013931767445179942 -0.00063413061323652363 0 -0.0017861725119438666 -0.00089899619672265476 0 -0.0022798522688872972 -0.00079020067186648564 0 -0.0020144637160713378 -0.0011664864435296188 0 -0.0025661705350906055 -0.0012625256221193905 0 -0.0022798522688872972 -0.00079020067186648564 0 -0.0020144637160713378 -0.0011664864435296188 0 -0.0025661705350906055 -0.0012625256221193905 0 -0.002788432796885214 -0.00065961447128713106 0 -0.0022798522688872972 -0.00079020067186648564 0 -0.003349145665361463 -0.00092560580673258473 0 -0.0031114170475493082 -0.001033279673503413 0 -0.0025661705350906055 -0.0012625256221193905 0 -0.0020144637160713378 -0.0011664864435296188 0 -0.0018390339578858224 -0.0015787420523353732 0 -0.0040755240261171367 -0.00064199415566130471 0 -0.0045803964686841319 -0.00041485313021817421 0 -0.0043002732922379104 -0.00037775674323153055 0 -0.0040755240261171367 -0.00064199415566130471 0 -0.004106353435359927 -0.00038469390366495116 0 -0.0043002732922379104 -0.00037775674323153055 0 -0.0020144637160713378 -0.0011664864435296188 0 -0.0018390339578858224 -0.0015787420523353732 0 -0.001617271547829744 -0.001272714748788417 0 -0.0017861725119438666 -0.00089899619672265476 0 -0.0020144637160713378 -0.0011664864435296188 0 -0.001617271547829744 -0.001272714748788417 0 -0.0045803964686841319 -0.00041485313021817421 0 -0.0044487115567244575 -0.00025906368335652926 0 -0.0046140432594776789 -0.00015955621776288304 0 -0.0045803964686841319 -0.00041485313021817421 0 -0.0044487115567244575 -0.00025906368335652926 0 -0.0043002732922379104 -0.00037775674323153055 0 -0.0045803964686841319 -0.00041485313021817421 0 -0.0046140432594776789 -0.00015955621776288304 0 -0.0046833144549682914 -0.00014928737443138375 0 -0.0044487115567244575 -0.00025906368335652926 0 -0.0042434149823123461 -0.00024734631057982695 0 -0.0043002732922379104 -0.00037775674323153055 0 -0.0040558248456159778 -0.00018991862379558668 0 -0.004106353435359927 -0.00038469390366495116 0 -0.0042434149823123461 -0.00024734631057982695 0 -0.004106353435359927 -0.00038469390366495116 0 -0.0042434149823123461 -0.00024734631057982695 0 -0.0043002732922379104 -0.00037775674323153055 0 -0.0012243918447597841 -0.0015243513204352907 0 -0.0011293703162203927 -0.0016700163144437704 0 -0.0013279821170768403 -0.001659351602283937 0 -0.0012243918447597841 -0.0015243513204352907 0 -0.0010455792323991254 -0.0015122697672402968 0 -0.0011293703162203927 -0.0016700163144437704 0 -0.0010455792323991254 -0.0015122697672402968 0 -0.0011293703162203927 -0.0016700163144437704 0 -0.00090931846981343338 -0.0017273810362325166 0 -0.0011456509161766953 -0.0018252197347681815 0 -0.0011293703162203927 -0.0016700163144437704 0 -0.00090931846981343338 -0.0017273810362325166 0 -0.0011456509161766953 -0.0018252197347681815 0 -0.0011293703162203927 -0.0016700163144437704 0 -0.0013279821170768403 -0.001659351602283937 0 -0.0011456509161766953 -0.0018252197347681815 0 -0.0013279821170768403 -0.001659351602283937 0 -0.0012198152632170677 -0.0018764979052258456 0 -0.0018390339578858224 -0.0015787420523353732 0 -0.0013279821170768403 -0.001659351602283937 0 -0.0012198152632170677 -0.0018764979052258456 0 -0.0031114170475493082 -0.001033279673503413 0 -0.0035302983034752279 -0.00092865594029087491 0 -0.0018390339578858224 -0.0015787420523353732 0 -0.0013279821170768403 -0.001659351602283937 0 -0.0014284891317023929 -0.0014805274407302224 0 -0.0045803964686841319 -0.00041485313021817421 0 -0.0048575927415313936 -0.000166633290624712 0 -0.0049235925215187605 -0.00021527303612899575 0 -0.0012243918447597841 -0.0015243513204352907 0 -0.0013279821170768403 -0.001659351602283937 0 -0.0014284891317023929 -0.0014805274407302224 0 -0.0018390339578858224 -0.0015787420523353732 0 -0.0014284891317023929 -0.0014805274407302224 0 -0.001617271547829744 -0.001272714748788417 0 -0.001617271547829744 -0.001272714748788417 0 -0.0011922373307854653 -0.0012946101843308454 0 -0.0013896604952455193 -0.0010454763560080384 0 -0.0014284891317023929 -0.0014805274407302224 0 -0.001617271547829744 -0.001272714748788417 0 -0.0011922373307854653 -0.0012946101843308454 0 -0.0010455792323991254 -0.0015122697672402968 0 -0.0011922373307854653 -0.0012946101843308454 0 -0.00079715081657448419 -0.0013255365407297366 0 -0.0011922373307854653 -0.0012946101843308454 0 -0.00092579938337805461 -0.00087278421171643663 0 -0.00079715081657448419 -0.0013255365407297366 0 -0.0012243918447597841 -0.0015243513204352907 0 -0.0014284891317023929 -0.0014805274407302224 0 -0.0011922373307854653 -0.0012946101843308454 0 -0.0012243918447597841 -0.0015243513204352907 0 -0.0010455792323991254 -0.0015122697672402968 0 -0.0011922373307854653 -0.0012946101843308454 0 -0.00092579938337805461 -0.00087278421171643663 0 -0.0013896604952455193 -0.0010454763560080384 0 -0.0013931767445179942 -0.00063413061323652363 0 -0.0011922373307854653 -0.0012946101843308454 0 -0.00092579938337805461 -0.00087278421171643663 0 -0.0013896604952455193 -0.0010454763560080384 0 -0.0017861725119438666 -0.00089899619672265476 0 -0.0013896604952455193 -0.0010454763560080384 0 -0.0013931767445179942 -0.00063413061323652363 0 -0.0017861725119438666 -0.00089899619672265476 0 -0.001617271547829744 -0.001272714748788417 0 -0.0013896604952455193 -0.0010454763560080384 0 -0.0019343180453950406 -0.00036747533342475192 0 -0.0013931767445179942 -0.00063413061323652363 0 -0.0014123639673650032 -0.00014190758365692252 0 -0.0013931767445179942 -0.00063413061323652363 0 -0.0014123639673650032 -0.00014190758365692252 0 -0.00085822652258623765 -0.00025241736570997273 0 -0.00092579938337805461 -0.00087278421171643663 0 -0.0013931767445179942 -0.00063413061323652363 0 -0.00085822652258623765 -0.00025241736570997273 0 -0.00092579938337805461 -0.00087278421171643663 0 -0.00039289037420057408 -0.000502957278183641 0 -0.00085822652258623765 -0.00025241736570997273 0 -0.00039289037420057408 -0.000502957278183641 0 -0.00040132062050706363 -0.001030034081520374 0 7.2955954487799801e-05 -0.0007076592246303753 0 -0.00092579938337805461 -0.00087278421171643663 0 -0.00039289037420057408 -0.000502957278183641 0 -0.00040132062050706363 -0.001030034081520374 0 -0.00092579938337805461 -0.00087278421171643663 0 -0.00040132062050706363 -0.001030034081520374 0 -0.00079715081657448419 -0.0013255365407297366 0 -0.00041415890032977718 5.0389373086475763e-08 0 6.1455690391501767e-05 -2.9664536478275933e-05 0 -0.00084693766845221488 -2.6515056960524042e-05 0 6.1455690391501767e-05 -2.9664536478275933e-05 0 -0.00084693766845221488 -2.6515056960524042e-05 0 -0.00067035138037159904 -2.2124022345799724e-05 0 -0.0016335028999975843 -0.0009878121673639155 0 -0.00033849700709339786 -0.00057452121343950569 0 -0.00039289037420057408 -0.000502957278183641 0 7.2955954487799801e-05 -0.0007076592246303753 0 0.00012825082929853916 -0.00010701964145787189 0 -0.0013231750142636012 -0.0012156049626958921 0 -0.00033849700709339786 -0.00057452121343950569 0 6.1455690391501767e-05 -2.9664536478275933e-05 0 -0.00067035138037159904 -2.2124022345799724e-05 0 0.00080372651882530178 -3.0826942023729312e-05 0 -0.0025369730329967708 -0.0016601265733925663 0 -0.002508825968220042 -0.0016457332957192073 0 -0.0024072629243503101 -0.0017324011145540808 0 -0.0025369730329967708 -0.0016601265733925663 0 -0.002508825968220042 -0.0016457332957192073 0 -0.0027536877271928132 -0.0011383210801130456 0 -0.00040132062050706363 -0.001030034081520374 0 7.2955954487799801e-05 -0.0007076592246303753 0 1.7305950792768185e-05 -0.0012884410476163861 0 -0.0016335028999975843 -0.0009878121673639155 0 -0.002441479581910517 -0.0006102330984530162 0 -0.0013231750142636012 -0.0012156049626958921 0 -0.0009594333296913287 -0.0012703404154684854 0 -0.00067035138037159904 -2.2124022345799724e-05 0 -0.0014501444995688208 -3.7497868686682161e-05 0 -0.0021760002261429798 -6.2401929882516529e-05 0 -0.0014501444995688208 -3.7497868686682161e-05 0 -0.0017922777820436222 -4.1604575978670483e-05 0 -0.0021760002261429798 -6.2401929882516529e-05 0 -0.00067035138037159904 -2.2124022345799724e-05 0 -0.0014501444995688208 -3.7497868686682161e-05 0 -0.0010515983340405096 -3.0251549588962602e-05 0 -0.00041415890032977718 5.0389373086475763e-08 0 -0.00084693766845221488 -2.6515056960524042e-05 0 -0.0024147543293403235 -5.8760466726677481e-07 0 -0.00084693766845221488 -2.6515056960524042e-05 0 -0.0015687457992247646 -3.1047535947204249e-05 0 -0.0024147543293403235 -5.8760466726677481e-07 0 -0.00084693766845221488 -2.6515056960524042e-05 0 -0.0010515983340405096 -3.0251549588962602e-05 0 -0.0015687457992247646 -3.1047535947204249e-05 0 -0.00084693766845221488 -2.6515056960524042e-05 0 -0.00067035138037159904 -2.2124022345799724e-05 0 -0.0010515983340405096 -3.0251549588962602e-05 0 -0.0014501444995688208 -3.7497868686682161e-05 0 -0.0017922777820436222 -4.1604575978670483e-05 0 -0.0015687457992247646 -3.1047535947204249e-05 0 -0.0014501444995688208 -3.7497868686682161e-05 0 -0.0010515983340405096 -3.0251549588962602e-05 0 -0.0015687457992247646 -3.1047535947204249e-05 0 -0.0017922777820436222 -4.1604575978670483e-05 0 -0.0015687457992247646 -3.1047535947204249e-05 0 -0.0020815629641182574 -3.6020880459241516e-05 0 -0.0024147543293403235 -5.8760466726677481e-07 0 -0.0026174225822000385 -5.2790300419407912e-05 0 -0.0031112210589747153 -2.6826216921083879e-05 0 -0.0024147543293403235 -5.8760466726677481e-07 0 -0.0020815629641182574 -3.6020880459241516e-05 0 -0.0026174225822000385 -5.2790300419407912e-05 0 -0.0015687457992247646 -3.1047535947204249e-05 0 -0.0024147543293403235 -5.8760466726677481e-07 0 -0.0020815629641182574 -3.6020880459241516e-05 0 -0.0020815629641182574 -3.6020880459241516e-05 0 -0.0026174225822000385 -5.2790300419407912e-05 0 -0.0021760002261429798 -6.2401929882516529e-05 0 -0.0017922777820436222 -4.1604575978670483e-05 0 -0.0020815629641182574 -3.6020880459241516e-05 0 -0.0021760002261429798 -6.2401929882516529e-05 0 -0.002508825968220042 -0.0016457332957192073 0 -0.0025523677836678943 -0.0010402801053985477 0 -0.0027536877271928132 -0.0011383210801130456 0 -0.0025523677836678943 -0.0010402801053985477 0 -0.0027536877271928132 -0.0011383210801130456 0 -0.0031345668053419716 0.00015749755373633918 0 -0.0009594333296913287 -0.0012703404154684854 0 -0.0042658597589175081 -5.3371181230750108e-05 0 -0.0025523677836678943 -0.0010402801053985477 0 -0.0031345668053419716 0.00015749755373633918 0 -0.0025440692319515599 0.00049916630690860411 0 1.7305950792768185e-05 -0.0012884410476163861 0 -0.00041405442647598004 -0.0014802162664544606 0 -2.5773337338581174e-05 -0.001842197791273679 0 -0.002441479581910517 -0.0006102330984530162 0 -0.0030026220486130267 7.0575028574440619e-05 0 -0.0026174225822000385 -5.2790300419407912e-05 0 -0.0031345668053419716 0.00015749755373633918 0 -0.0031112210589747153 -2.6826216921083879e-05 0 -0.0026174225822000385 -5.2790300419407912e-05 0 -0.0021760002261429798 -6.2401929882516529e-05 0 -0.0031345668053419716 0.00015749755373633918 0 -0.0024147543293403235 -5.8760466726677481e-07 0 -0.0031112210589747153 -2.6826216921083879e-05 0 -0.0044120153041624453 1.3632664148182034e-06 0 -0.0031345668053419716 0.00015749755373633918 0 -0.0031112210589747153 -2.6826216921083879e-05 0 -0.0044120153041624453 1.3632664148182034e-06 0 -0.00040132062050706363 -0.001030034081520374 0 -0.00079715081657448419 -0.0013255365407297366 0 -0.00041405442647598004 -0.0014802162664544606 0 -0.00040132062050706363 -0.001030034081520374 0 1.7305950792768185e-05 -0.0012884410476163861 0 -0.00041405442647598004 -0.0014802162664544606 0 -0.00041405442647598004 -0.0014802162664544606 0 -0.00055271387247727882 -0.0018931808762950181 0 -2.5773337338581174e-05 -0.001842197791273679 0 -0.00041405442647598004 -0.0014802162664544606 0 -0.00090931846981343338 -0.0017273810362325166 0 -0.00055271387247727882 -0.0018931808762950181 0 -0.00079715081657448419 -0.0013255365407297366 0 -0.00041405442647598004 -0.0014802162664544606 0 -0.00090931846981343338 -0.0017273810362325166 0 -0.0010455792323991254 -0.0015122697672402968 0 -0.00079715081657448419 -0.0013255365407297366 0 -0.00090931846981343338 -0.0017273810362325166 0 -0.00090931846981343338 -0.0017273810362325166 0 -0.00055271387247727882 -0.0018931808762950181 0 -0.0011109870297255318 -0.0019449726466150665 0 -0.0080217722270608284 -0.00014534317791356711 0 -0.0082868126491777282 -5.6637513167199374e-05 0 -0.0082385152551328143 -0.00022929184682074833 0 -0.0079282994210039971 0.00018457689933642924 0 -0.0080217722270608284 -0.00014534317791356711 0 -0.0084057918083590491 0.00010912158107357318 0 -0.0039196498816147013 -0.00094019821466603728 0 -0.0057419376404704361 -0.00043741685847347459 0 -0.0089696051410226279 0.00022806102466713986 0 -0.0057419376404704361 -0.00043741685847347459 0 -0.0079282994210039971 0.00018457689933642924 0 -0.0076051221365071612 -2.7104996417011828e-06 0 -0.0072480198499179811 0.00032820188743834896 0 -0.0039196498816147013 -0.00094019821466603728 0 -0.0042658597589175081 -5.3371181230750108e-05 0 -0.0079282994210039971 0.00018457689933642924 0 -0.0078403373377715427 -0.00020272196014326055 0 -0.0080217722270608284 -0.00014534317791356711 0 -0.0079282994210039971 0.00018457689933642924 0 -0.0076051221365071612 -2.7104996417011828e-06 0 -0.0078403373377715427 -0.00020272196014326055 0 -0.0078403373377715427 -0.00020272196014326055 0 -0.0078832616952618784 -0.00049289455755348874 0 -0.0081430667515556884 -0.00041743280825177678 0 -0.0076051221365071612 -2.7104996417011828e-06 0 -0.0078403373377715427 -0.00020272196014326055 0 -0.0075973031649188569 -0.00034578396109666439 0 -0.0078403373377715427 -0.00020272196014326055 0 -0.0078832616952618784 -0.00049289455755348874 0 -0.0075973031649188569 -0.00034578396109666439 0 -0.0081430667515556884 -0.00041743280825177678 0 -0.0080217722270608284 -0.00014534317791356711 0 -0.0082385152551328143 -0.00022929184682074833 0 -0.0078403373377715427 -0.00020272196014326055 0 -0.0081430667515556884 -0.00041743280825177678 0 -0.0080217722270608284 -0.00014534317791356711 0 -0.0044180493976642135 2.1038906098844629e-06 0 -0.0067365163091429167 0.00067065714982642661 0 -0.0064354446365919148 5.1928623962587512e-05 0 -0.0044154095898435095 4.3826480037004228e-07 0 -0.0042658597589175081 -5.3371181230750108e-05 0 -0.0031345668053419716 0.00015749755373633918 0 -0.0044120153041624453 1.3632664148182034e-06 0 -0.0025440692319515599 0.00049916630690860411 0 -0.0044180493976642135 2.1038906098844629e-06 0 -0.0064354446365919148 5.1928623962587512e-05 0 -0.0061376521559859615 -7.9074827137836293e-07 0 -0.0067365163091429167 0.00067065714982642661 0 -0.0064354446365919148 5.1928623962587512e-05 0 -0.0071349793137522322 -0.00029457579990928122 0 -0.0042658597589175081 -5.3371181230750108e-05 0 -0.0073965936377256422 -5.0599655906042839e-05 0 -0.0076051221365071612 -2.7104996417011828e-06 0 -0.0072480198499179811 0.00032820188743834896 0 -0.0071349793137522322 -0.00029457579990928122 0 -0.0064354446365919148 5.1928623962587512e-05 0 -0.0069048687001670803 -4.7866068841262191e-05 0 -0.007595457863592235 -7.4606494527010877e-05 0 -0.0064354446365919148 5.1928623962587512e-05 0 -0.0071349793137522322 -0.00029457579990928122 0 -0.0076381549662300598 -0.0007247051388554152 0 -0.006641674286110592 5.3557007981387221e-05 0 -0.0075824455952995147 -0.00040811871182624835 0 -0.0078832616952618784 -0.00049289455755348874 0 -0.0075973031649188569 -0.00034578396109666439 0 -0.0076381549662300598 -0.0007247051388554152 0 -0.0076051221365071612 -2.7104996417011828e-06 0 -0.0075973031649188569 -0.00034578396109666439 0 -0.0071349793137522322 -0.00029457579990928122 0 -0.0075973031649188569 -0.00034578396109666439 0 -0.0071349793137522322 -0.00029457579990928122 0 -0.0076381549662300598 -0.0007247051388554152 0 -0.0064354446365919148 5.1928623962587512e-05 0 -0.0069048687001670803 -4.7866068841262191e-05 0 -0.0061376521559859615 -7.9074827137836293e-07 0 -0.0069048687001670803 -4.7866068841262191e-05 0 -0.0061376521559859615 -7.9074827137836293e-07 0 -0.0073599132223938083 -7.7784056343647534e-05 0 -0.0061376521559859615 -7.9074827137836293e-07 0 -0.0073599132223938083 -7.7784056343647534e-05 0 -0.0078616791222186917 -1.7595276859514993e-07 0 -0.0069048687001670803 -4.7866068841262191e-05 0 -0.0073599132223938083 -7.7784056343647534e-05 0 -0.007595457863592235 -7.4606494527010877e-05 0 -0.0087591697996232051 -0.00032915873417769918 0 -0.0073599132223938083 -7.7784056343647534e-05 0 -0.007595457863592235 -7.4606494527010877e-05 0 -0.0083587979161941703 -0.00070971494245657748 0 -0.0076381549662300598 -0.0007247051388554152 0 -0.0080892898122535296 -0.00069995203045958385 0 -0.0085396257108733987 -0.00050620620691123493 0 -0.0075824455952995147 -0.00040811871182624835 0 -0.0087591697996232051 -0.00032915873417769918 0 -0.0073599132223938083 -7.7784056343647534e-05 0 -0.0078616791222186917 -1.7595276859514993e-07 0 -0.0087591697996232051 -0.00032915873417769918 0 -0.0095833312964830834 -5.8029948771403927e-07 0 -0.0078616791222186917 -1.7595276859514993e-07 0 -0.0081430667515556884 -0.00041743280825177678 0 -0.0081680914348069549 -0.00063378054056039204 0 -0.0082786384058183334 -0.00056917183819773858 0 -0.0078832616952618784 -0.00049289455755348874 0 -0.0081430667515556884 -0.00041743280825177678 0 -0.0081680914348069549 -0.00063378054056039204 0 -0.0078832616952618784 -0.00049289455755348874 0 -0.0076381549662300598 -0.0007247051388554152 0 -0.0080892898122535296 -0.00069995203045958385 0 -0.0078832616952618784 -0.00049289455755348874 0 -0.0081680914348069549 -0.00063378054056039204 0 -0.0080892898122535296 -0.00069995203045958385 0 -0.0082803919867479661 -0.0006277341669187848 0 -0.0081680914348069549 -0.00063378054056039204 0 -0.0080892898122535296 -0.00069995203045958385 0 -0.0082803919867479661 -0.0006277341669187848 0 -0.0083587979161941703 -0.00070971494245657748 0 -0.0080892898122535296 -0.00069995203045958385 0 -0.0082803919867479661 -0.0006277341669187848 0 -0.0082112110808879434 -0.00065293615723949032 0 -0.0081680914348069549 -0.00063378054056039204 0 -0.0082112110808879434 -0.00065293615723949032 0 -0.0081680914348069549 -0.00063378054056039204 0 -0.0082786384058183334 -0.00056917183819773858 0 -0.011536221043094843 -5.6439148858943888e-05 0 -0.012150919411282265 4.6064517971850637e-05 0 -0.0082112110808879434 -0.00065293615723949032 0 -0.0082786384058183334 -0.00056917183819773858 0 -0.0085145997146675173 -0.00056398935768496225 0 -0.0082786384058183334 -0.00056917183819773858 0 -0.0085145997146675173 -0.00056398935768496225 0 -0.0083494088443401421 -0.00035977651743404566 0 -0.0081430667515556884 -0.00041743280825177678 0 -0.0082786384058183334 -0.00056917183819773858 0 -0.0083494088443401421 -0.00035977651743404566 0 -0.015049296674562182 0.00053968840937372261 0 -0.015009753667602033 0.0005767351942112006 0 -0.015003282860659004 0.0005421202674378813 0 -0.015049296674562182 0.00053968840937372261 0 -0.015003282860659004 0.0005421202674378813 0 -0.015028570146674863 0.00053868886559750009 0 -0.015003282860659004 0.0005421202674378813 0 -0.015028570146674863 0.00053868886559750009 0 -0.014996807154863014 0.00054256317276881784 0 -0.015028570146674863 0.00053868886559750009 0 -0.015008308859001585 0.00054260249307845761 0 -0.014996807154863014 0.00054256317276881784 0 -0.015034271592925195 0.00053611934942465343 0 -0.015028570146674863 0.00053868886559750009 0 -0.015008308859001585 0.00054260249307845761 0 -0.015004005854468708 0.00054564381151807275 0 -0.015034271592925195 0.00053611934942465343 0 -0.015008308859001585 0.00054260249307845761 0 -0.014984080340223745 0.00054799021382016583 0 -0.014996807154863014 0.00054256317276881784 0 -0.014963563774353768 0.00053879556543731612 0 -0.014984080340223745 0.00054799021382016583 0 -0.015008308859001585 0.00054260249307845761 0 -0.014996807154863014 0.00054256317276881784 0 -0.0097784280194642692 0.00027836064546714589 0 -0.0097696477555882216 0.00035012136879024157 0 -0.015003282860659004 0.0005421202674378813 0 -0.014996807154863014 0.00054256317276881784 0 -0.014963563774353768 0.00053879556543731612 0 -0.012150919411282265 4.6064517971850637e-05 0 -0.0097696477555882216 0.00035012136879024157 0 -0.0085145997146675173 -0.00056398935768496225 0 -0.0085947918822993404 -0.00019252570871045488 0 -0.0088028193389604187 -0.00031796465782215022 0 -0.0063694382033523669 -1.8981344247049486e-05 0 -0.0097696477555882216 0.00035012136879024157 0 -0.0046860669710674444 -0.00015335283524369234 0 -0.0046675233842445049 -0.00014355446768990541 0 -0.0047367071677082402 -0.00017974098732541143 0 -0.0046860669710674444 -0.00015335283524369234 0 -0.0047367071677082402 -0.00017974098732541143 0 -0.0047577353747758197 -0.00015620807511206793 0 -0.0042144768815136485 0.00033843325744307068 0 -0.0042279889092588186 0.00017723370899967619 0 -0.0043489008518405193 0.0001576413513264194 0 -0.0097784280194642692 0.00027836064546714589 0 -0.00602394391226534 3.4850548600592071e-05 0 -0.0091022541874732719 -0.00034261757784317482 0 -0.007858392636124277 0.00049817661409191135 0 -0.0081836184138465492 0.00078873440530999393 0 -0.0097696477555882216 0.00035012136879024157 0 -0.00602394391226534 3.4850548600592071e-05 0 -0.0043429035369910839 6.24352740409936e-05 0 -0.0043552478006926828 0.00017397143631085946 0 -0.0044161383720859428 -2.0374653187604975e-05 0 -0.0043429035369910839 6.24352740409936e-05 0 -0.0043073994235226527 0.00012370505914646544 0 -0.0042803486358677671 -4.0085848122369969e-06 0 -0.0043429035369910839 6.24352740409936e-05 0 -0.0043073994235226527 0.00012370505914646544 0 -0.0043552478006926828 0.00017397143631085946 0 -0.0055322860136857357 -0.00018287666295580988 0 -0.00602394391226534 3.4850548600592071e-05 0 -0.0042279889092588186 0.00017723370899967619 0 -0.0043073994235226527 0.00012370505914646544 0 -0.0043489008518405193 0.0001576413513264194 0 -0.0042279889092588186 0.00017723370899967619 0 -0.0043073994235226527 0.00012370505914646544 0 -0.0042046820844892294 9.115500281377431e-05 0 -0.0043073994235226527 0.00012370505914646544 0 -0.0042046820844892294 9.115500281377431e-05 0 -0.0042803486358677671 -4.0085848122369969e-06 0 -0.0041308428269707818 -5.8220760421972204e-06 0 -0.0042046820844892294 9.115500281377431e-05 0 -0.0042803486358677671 -4.0085848122369969e-06 0 -0.0041308428269707818 -5.8220760421972204e-06 0 -0.0042803486358677671 -4.0085848122369969e-06 0 -0.0042125870833490883 -0.00011162949544254856 0 -0.0042803486358677671 -4.0085848122369969e-06 0 -0.0043366175616407262 -0.00012743856861174448 0 -0.0042125870833490883 -0.00011162949544254856 0 -0.0042803486358677671 -4.0085848122369969e-06 0 -0.0044161383720859428 -2.0374653187604975e-05 0 -0.0043366175616407262 -0.00012743856861174448 0 -0.0043429035369910839 6.24352740409936e-05 0 -0.0042803486358677671 -4.0085848122369969e-06 0 -0.0044161383720859428 -2.0374653187604975e-05 0 -0.0044487115567244575 -0.00025906368335652926 0 -0.0042434149823123461 -0.00024734631057982695 0 -0.0043366175616407262 -0.00012743856861174448 0 -0.0044161383720859428 -2.0374653187604975e-05 0 -0.0043366175616407262 -0.00012743856861174448 0 -0.0044533310834449606 -0.00014226109323834345 0 -0.0044487115567244575 -0.00025906368335652926 0 -0.0043366175616407262 -0.00012743856861174448 0 -0.0044533310834449606 -0.00014226109323834345 0 -0.0042434149823123461 -0.00024734631057982695 0 -0.0043366175616407262 -0.00012743856861174448 0 -0.0042125870833490883 -0.00011162949544254856 0 -0.0040558248456159778 -0.00018991862379558668 0 -0.0042434149823123461 -0.00024734631057982695 0 -0.0042125870833490883 -0.00011162949544254856 0 -0.0043552478006926828 0.00017397143631085946 0 -0.0044161383720859428 -2.0374653187604975e-05 0 -0.0046140432594776789 -0.00015955621776288304 0 -0.0046860669710674444 -0.00015335283524369234 0 -0.0047577353747758197 -0.00015620807511206793 0 -0.0046140432594776789 -0.00015955621776288304 0 -0.00602394391226534 3.4850548600592071e-05 0 -0.0042294100653557107 2.2355480187018248e-06 0 -0.0046675233842445049 -0.00014355446768990541 0 -0.0046581702138231125 -0.00014654791879587084 0 -0.0046833144549682914 -0.00014928737443138375 0 -0.0046860669710674444 -0.00015335283524369234 0 -0.0046581702138231125 -0.00014654791879587084 0 -0.0046140432594776789 -0.00015955621776288304 0 -0.0046860669710674444 -0.00015335283524369234 0 -0.0046675233842445049 -0.00014355446768990541 0 -0.0046581702138231125 -0.00014654791879587084 0 -0.0044487115567244575 -0.00025906368335652926 0 -0.0044533310834449606 -0.00014226109323834345 0 -0.0046140432594776789 -0.00015955621776288304 0 -0.0044161383720859428 -2.0374653187604975e-05 0 -0.0044533310834449606 -0.00014226109323834345 0 -0.0046140432594776789 -0.00015955621776288304 0 -0.0046581702138231125 -0.00014654791879587084 0 -0.0046140432594776789 -0.00015955621776288304 0 -0.0046833144549682914 -0.00014928737443138375 0 -0.0085947918822993404 -0.00019252570871045488 0 -0.0084030633581334089 -6.8311244138974367e-05 0 -0.0083424967180315765 -0.00017932358133801636 0 -0.0045803964686841319 -0.00041485313021817421 0 -0.0046833144549682914 -0.00014928737443138375 0 -0.0048575927415313936 -0.000166633290624712 0 -0.0063694382033523669 -1.8981344247049486e-05 0 -0.0057345975500600775 -0.00061147825820817971 0 -0.0046675233842445049 -0.00014355446768990541 0 -0.0046833144549682914 -0.00014928737443138375 0 -0.0047295847744214543 -0.00014997949052452774 0 -0.0044669148958914858 -0.00020970639652956893 0 -0.0057345975500600775 -0.00061147825820817971 0 -0.005023680839196981 -0.00057264488420364745 0 -0.0049449987804422221 -0.00051720122025674612 0 -0.0048709674027895373 -0.00055694838724899484 0 -0.0057345975500600775 -0.00061147825820817971 0 -0.0057419376404704361 -0.00043741685847347459 0 -0.0011456509161766953 -0.0018252197347681815 0 -0.0012360157056509238 -0.0018787128227104235 0 -0.0011109870297255318 -0.0019449726466150665 0 -0.0035302983034752279 -0.00092865594029087491 0 -0.0057419376404704361 -0.00043741685847347459 0 -0.0028383561995938634 -0.00081650547791106199 0 -0.0035302983034752279 -0.00092865594029087491 0 -0.0057345975500600775 -0.00061147825820817971 0 -0.0035302983034752279 -0.00092865594029087491 0 -0.0011456509161766953 -0.0018252197347681815 0 -0.00090931846981343338 -0.0017273810362325166 0 -0.0011109870297255318 -0.0019449726466150665 0 -0.0082868126491777282 -5.6637513167199374e-05 0 -0.0083424967180315765 -0.00017932358133801636 0 -0.0082385152551328143 -0.00022929184682074833 0 -0.0084030633581334089 -6.8311244138974367e-05 0 -0.0082868126491777282 -5.6637513167199374e-05 0 -0.0083424967180315765 -0.00017932358133801636 0 -0.0081430667515556884 -0.00041743280825177678 0 -0.0082385152551328143 -0.00022929184682074833 0 -0.0083494088443401421 -0.00035977651743404566 0 -0.0083424967180315765 -0.00017932358133801636 0 -0.0082385152551328143 -0.00022929184682074833 0 -0.0083494088443401421 -0.00035977651743404566 0 -0.0085145997146675173 -0.00056398935768496225 0 -0.0085947918822993404 -0.00019252570871045488 0 -0.0083494088443401421 -0.00035977651743404566 0 -0.0085947918822993404 -0.00019252570871045488 0 -0.0083424967180315765 -0.00017932358133801636 0 -0.0083494088443401421 -0.00035977651743404566 0 -0.012927655243433865 0.00088738452822824789 0 -0.012977121864599548 0.00084858298557296229 0 -0.012989483418944644 0.00091490443478441075 0 -0.012927655243433865 0.00088738452822824789 0 -0.012871306041202664 0.0008881830714098976 0 -0.012905210489887175 0.00084471029389486822 0 -0.012927655243433865 0.00088738452822824789 0 -0.012977121864599548 0.00084858298557296229 0 -0.012905210489887175 0.00084471029389486822 0 -0.012977121864599548 0.00084858298557296229 0 -0.012989483418944644 0.00091490443478441075 0 -0.013068666175447125 0.00087832652493662858 0 -0.013281585561564028 0.0007983034230661587 0 -0.012760487794617293 0.0009516498646085853 0 -0.012989483418944644 0.00091490443478441075 0 -0.012951646147028919 0.00096686181335933275 0 -0.013020639553356557 0.00091054249795807991 0 -0.012989483418944644 0.00091490443478441075 0 -0.013068666175447125 0.00087832652493662858 0 -0.013020639553356557 0.00091054249795807991 0 -0.012501694629682673 0.00086311665818887345 0 -0.013020639553356557 0.00091054249795807991 0 -0.012834304259317891 0.0010386620548666868 0 -0.012951646147028919 0.00096686181335933275 0 -0.012894984423508999 0.00094526511689255936 0 -0.012852745308928128 0.00097357349169161758 0 -0.012989483418944644 0.00091490443478441075 0 -0.012951646147028919 0.00096686181335933275 0 -0.01293212424546413 0.00092601365070074822 0 -0.012927655243433865 0.00088738452822824789 0 -0.012989483418944644 0.00091490443478441075 0 -0.01293212424546413 0.00092601365070074822 0 -0.01293212424546413 0.00092601365070074822 0 -0.012894984423508999 0.00094526511689255936 0 -0.012886593536654381 0.00091559254608733498 0 -0.012927655243433865 0.00088738452822824789 0 -0.01293212424546413 0.00092601365070074822 0 -0.012886593536654381 0.00091559254608733498 0 -0.012951646147028919 0.00096686181335933275 0 -0.01293212424546413 0.00092601365070074822 0 -0.012894984423508999 0.00094526511689255936 0 -0.012894984423508999 0.00094526511689255936 0 -0.012852745308928128 0.00097357349169161758 0 -0.012849684003054201 0.00093900946636670142 0 -0.012810750247648602 0.00096909465693532568 0 -0.012814701715609824 0.00092333738720817946 0 -0.01278453731198871 0.0010001133318822924 0 -0.012810750247648602 0.00096909465693532568 0 -0.012824976811469491 0.00094294503418291696 0 -0.012814701715609824 0.00092333738720817946 0 -0.012852745308928128 0.00097357349169161758 0 -0.012832270991247953 0.00096114822046592101 0 -0.012849684003054201 0.00093900946636670142 0 -0.012852745308928128 0.00097357349169161758 0 -0.012832270991247953 0.00096114822046592101 0 -0.012821705640244208 0.00098547307788965084 0 -0.012832270991247953 0.00096114822046592101 0 -0.012810750247648602 0.00096909465693532568 0 -0.012821705640244208 0.00098547307788965084 0 -0.012832270991247953 0.00096114822046592101 0 -0.012810750247648602 0.00096909465693532568 0 -0.012824976811469491 0.00094294503418291696 0 -0.012832270991247953 0.00096114822046592101 0 -0.012824976811469491 0.00094294503418291696 0 -0.012849684003054201 0.00093900946636670142 0 -0.012849684003054201 0.00093900946636670142 0 -0.012828721982750591 0.0009242255255807331 0 -0.012844070015177145 0.00091219041190798223 0 -0.012824976811469491 0.00094294503418291696 0 -0.012849684003054201 0.00093900946636670142 0 -0.012828721982750591 0.0009242255255807331 0 -0.012828721982750591 0.0009242255255807331 0 -0.012825865640500029 0.00090798179085136322 0 -0.012814701715609824 0.00092333738720817946 0 -0.012824976811469491 0.00094294503418291696 0 -0.012828721982750591 0.0009242255255807331 0 -0.012814701715609824 0.00092333738720817946 0 -0.012828721982750591 0.0009242255255807331 0 -0.012825865640500029 0.00090798179085136322 0 -0.012844070015177145 0.00091219041190798223 0 -0.012894984423508999 0.00094526511689255936 0 -0.012849684003054201 0.00093900946636670142 0 -0.012886593536654381 0.00091559254608733498 0 -0.012849684003054201 0.00093900946636670142 0 -0.012844070015177145 0.00091219041190798223 0 -0.012886593536654381 0.00091559254608733498 0 -0.012814701715609824 0.00092333738720817946 0 -0.012817873965041394 0.0008580656017773225 0 -0.01278453731198871 0.0010001133318822924 0 -0.0099718272284903698 0.0016623385152198826 0 -0.0083765979737229577 0.0021990495254349735 0 -0.0067899197014996667 0.0024607987183135746 0 -0.0067775588567715915 0.0024292268554254458 0 -0.0068431095577155283 0.0024861675767776669 0 -0.012814701715609824 0.00092333738720817946 0 -0.012817873965041394 0.0008580656017773225 0 -0.012813832812799287 0.0008912227847224282 0 -0.012825865640500029 0.00090798179085136322 0 -0.012814701715609824 0.00092333738720817946 0 -0.012813832812799287 0.0008912227847224282 0 -0.0067899197014996667 0.0024607987183135746 0 -0.0067775588567715915 0.0024292268554254458 0 -0.0067684623184709469 0.0024416699747794391 0 -0.012817873965041394 0.0008580656017773225 0 -0.012798884275852193 0.00093335707474316739 0 -0.013082915344064245 0.0012775965304781332 0 -0.0099718272284903698 0.0016623385152198826 0 -0.009862736456236117 0.0017429258045374351 0 -0.0067775588567715915 0.0024292268554254458 0 -0.0067657369048390367 0.002438452416739359 0 -0.0067684623184709469 0.0024416699747794391 0 -0.012813832812799287 0.0008912227847224282 0 -0.012798884275852193 0.00093335707474316739 0 -0.012825703423470525 0.0009023593641386096 0 -0.012817873965041394 0.0008580656017773225 0 -0.012813832812799287 0.0008912227847224282 0 -0.012798884275852193 0.00093335707474316739 0 -0.012825865640500029 0.00090798179085136322 0 -0.012813832812799287 0.0008912227847224282 0 -0.012825703423470525 0.0009023593641386096 0 -0.012798884275852193 0.00093335707474316739 0 -0.012825703423470525 0.0009023593641386096 0 -0.012852824568326192 0.00086168162454201098 0 -0.012927655243433865 0.00088738452822824789 0 -0.012886593536654381 0.00091559254608733498 0 -0.012871306041202664 0.0008881830714098976 0 -0.012844070015177145 0.00091219041190798223 0 -0.012886593536654381 0.00091559254608733498 0 -0.012871306041202664 0.0008881830714098976 0 -0.012844070015177145 0.00091219041190798223 0 -0.012871306041202664 0.0008881830714098976 0 -0.012825703423470525 0.0009023593641386096 0 -0.012825865640500029 0.00090798179085136322 0 -0.012844070015177145 0.00091219041190798223 0 -0.012825703423470525 0.0009023593641386096 0 -0.012871306041202664 0.0008881830714098976 0 -0.012825703423470525 0.0009023593641386096 0 -0.012852824568326192 0.00086168162454201098 0 -0.012871306041202664 0.0008881830714098976 0 -0.012852824568326192 0.00086168162454201098 0 -0.012905210489887175 0.00084471029389486822 0 -0.012852824568326192 0.00086168162454201098 0 -0.012878514602150188 0.00078583864425363446 0 -0.01281677312576858 0.00077629099701592111 0 -0.012852824568326192 0.00086168162454201098 0 -0.012878514602150188 0.00078583864425363446 0 -0.012905210489887175 0.00084471029389486822 0 -0.012878514602150188 0.00078583864425363446 0 -0.012940497015401477 0.00079154238231932876 0 -0.012905210489887175 0.00084471029389486822 0 -0.012808111489802477 0.00096401116697606077 0 -0.012728970166778715 0.0010562625968946549 0 -0.012798884275852193 0.00093335707474316739 0 -0.012745723874591552 0.0014506335201043281 0 -0.013082915344064245 0.0012775965304781332 0 -0.012798884275852193 0.00093335707474316739 0 -0.012852824568326192 0.00086168162454201098 0 -0.01281677312576858 0.00077629099701592111 0 -0.012745723874591552 0.0014506335201043281 0 -0.012898132729948513 0.0017312765760960796 0 -0.012721021559159808 0.0019847255129172812 0 -0.012745723874591552 0.0014506335201043281 0 -0.013082915344064245 0.0012775965304781332 0 -0.013009825235999289 0.0015881828439597888 0 -0.012728970166778715 0.0010562625968946549 0 -0.013366514202044747 0.0016244272469829657 0 -0.012898132729948513 0.0017312765760960796 0 -0.013009825235999289 0.0015881828439597888 0 -0.013057359639768465 0.0018075550289127413 0 -0.012745723874591552 0.0014506335201043281 0 -0.012898132729948513 0.0017312765760960796 0 -0.013009825235999289 0.0015881828439597888 0 -0.01281677312576858 0.00077629099701592111 0 -0.012872001698394591 0.00073613922807614642 0 -0.012845428817780112 0.00068256361010501378 0 -0.012878514602150188 0.00078583864425363446 0 -0.01281677312576858 0.00077629099701592111 0 -0.012872001698394591 0.00073613922807614642 0 -0.012878514602150188 0.00078583864425363446 0 -0.012872001698394591 0.00073613922807614642 0 -0.012941934745573987 0.00072093773584338313 0 -0.012941934745573987 0.00072093773584338313 0 -0.012940497015401477 0.00079154238231932876 0 -0.013054888193652197 0.00074845459163045498 0 -0.012878514602150188 0.00078583864425363446 0 -0.012941934745573987 0.00072093773584338313 0 -0.012940497015401477 0.00079154238231932876 0 -0.012977121864599548 0.00084858298557296229 0 -0.012940497015401477 0.00079154238231932876 0 -0.012905210489887175 0.00084471029389486822 0 -0.012977121864599548 0.00084858298557296229 0 -0.012940497015401477 0.00079154238231932876 0 -0.013054888193652197 0.00074845459163045498 0 -0.012977121864599548 0.00084858298557296229 0 -0.013054888193652197 0.00074845459163045498 0 -0.013068666175447125 0.00087832652493662858 0 -0.014391392530924441 0.0013039522824228418 0 -0.013881405332759691 0.0010360372712316273 0 -0.014023251612151367 0.0013791283022258195 0 -0.013881405332759691 0.0010360372712316273 0 -0.013784414343698863 0.0013214913916221949 0 -0.014023251612151367 0.0013791283022258195 0 -0.013743439132823434 0.00096409089279216476 0 -0.01345495114360795 0.00090144691987888409 0 -0.013881405332759691 0.0010360372712316273 0 -0.013633377453158424 0.0011736970603992533 0 -0.013382738021521972 0.00091367165898422712 0 -0.013633377453158424 0.0011736970603992533 0 -0.013382738021521972 0.00091367165898422712 0 -0.013503230022688753 0.0013844899044200716 0 -0.013881405332759691 0.0010360372712316273 0 -0.013784414343698863 0.0013214913916221949 0 -0.013633377453158424 0.0011736970603992533 0 -0.013784414343698863 0.0013214913916221949 0 -0.013633377453158424 0.0011736970603992533 0 -0.013503230022688753 0.0013844899044200716 0 -0.013352615654031154 0.0010123126888105301 0 -0.013382738021521972 0.00091367165898422712 0 -0.01348367428559186 0.0011772409341634683 0 -0.013352615654031154 0.0010123126888105301 0 -0.013329742517509839 0.0011012274723498777 0 -0.01348367428559186 0.0011772409341634683 0 -0.013404403486766222 0.00094288366243447949 0 -0.013481627463203498 0.0012650782835820203 0 -0.013352615654031154 0.0010123126888105301 0 -0.013329742517509839 0.0011012274723498777 0 -0.013273812498540358 0.00093855102942641132 0 -0.013352615654031154 0.0010123126888105301 0 -0.013382738021521972 0.00091367165898422712 0 -0.01330800013747524 0.00092198762070788871 0 -0.013382738021521972 0.00091367165898422712 0 -0.01330800013747524 0.00092198762070788871 0 -0.013281246763033803 0.00083152308669792317 0 -0.013352615654031154 0.0010123126888105301 0 -0.01330800013747524 0.00092198762070788871 0 -0.013273812498540358 0.00093855102942641132 0 -0.01330800013747524 0.00092198762070788871 0 -0.013274057707566227 0.00087833737606172481 0 -0.013273812498540358 0.00093855102942641132 0 -0.013274057707566227 0.00087833737606172481 0 -0.013281246763033803 0.00083152308669792317 0 -0.013243211005136065 0.00086958931136504446 0 -0.013274057707566227 0.00087833737606172481 0 -0.013250521888158414 0.00088312316556991084 0 -0.013243211005136065 0.00086958931136504446 0 -0.01330800013747524 0.00092198762070788871 0 -0.013274057707566227 0.00087833737606172481 0 -0.013281246763033803 0.00083152308669792317 0 -0.013881405332759691 0.0010360372712316273 0 -0.013382738021521972 0.00091367165898422712 0 -0.013281246763033803 0.00083152308669792317 0 -0.013054888193652197 0.00074845459163045498 0 -0.013281246763033803 0.00083152308669792317 0 -0.013179313180231859 0.00086722923009422965 0 -0.013054888193652197 0.00074845459163045498 0 -0.013068666175447125 0.00087832652493662858 0 -0.013179313180231859 0.00086722923009422965 0 -0.01345495114360795 0.00090144691987888409 0 -0.013305752124429464 0.0008337682536786236 0 -0.013501003437693778 0.0012808247669486058 0 -0.013534670945074394 0.0011761479380706531 0 -0.01315268474524723 0.001007250867498003 0 -0.013181319256126525 0.0011584884658024826 0 -0.012990856697213787 0.0010783007602509279 0 -0.013223624872806723 0.00092619179699765498 0 -0.013221823155287429 0.00091441337719489705 0 -0.013224931696395598 0.00091093277671616972 0 -0.013223624872806723 0.00092619179699765498 0 -0.013224931696395598 0.00091093277671616972 0 -0.013226077677084327 0.00090892922595294965 0 -0.013144147320201548 0.00099049970542212408 0 -0.013534670945074394 0.0011761479380706531 0 -0.013144147320201548 0.00099049970542212408 0 -0.0132821129200113 0.00093289538153713478 0 -0.01315268474524723 0.001007250867498003 0 -0.013329742517509839 0.0011012274723498777 0 -0.013181319256126525 0.0011584884658024826 0 -0.01315268474524723 0.001007250867498003 0 -0.013329742517509839 0.0011012274723498777 0 -0.013273812498540358 0.00093855102942641132 0 -0.013273812498540358 0.00093855102942641132 0 -0.013250521888158414 0.00088312316556991084 0 -0.013232033181416638 0.00090726274235060367 0 -0.013274057707566227 0.00087833737606172481 0 -0.013273812498540358 0.00093855102942641132 0 -0.013250521888158414 0.00088312316556991084 0 -0.013250521888158414 0.00088312316556991084 0 -0.013232033181416638 0.00090726274235060367 0 -0.013233599875966779 0.0008944692688478079 0 -0.013223624872806723 0.00092619179699765498 0 -0.013273812498540358 0.00093855102942641132 0 -0.013232033181416638 0.00090726274235060367 0 -0.013223624872806723 0.00092619179699765498 0 -0.013221328139106033 0.0009115410415285848 0 -0.013221823155287429 0.00091441337719489705 0 -0.013223624872806723 0.00092619179699765498 0 -0.013232033181416638 0.00090726274235060367 0 -0.013221328139106033 0.0009115410415285848 0 -0.013232033181416638 0.00090726274235060367 0 -0.013221328139106033 0.0009115410415285848 0 -0.013220877594588983 0.00090611311847090556 0 -0.013221328139106033 0.0009115410415285848 0 -0.013218235841858128 0.00091307860110360071 0 -0.013220877594588983 0.00090611311847090556 0 -0.013221148059828918 0.00091381982772185185 0 -0.013218235841858128 0.00091307860110360071 0 -0.013221803256278369 0.00091862721006738643 0 -0.013221328139106033 0.0009115410415285848 0 -0.013221148059828918 0.00091381982772185185 0 -0.013218235841858128 0.00091307860110360071 0 -0.013221328139106033 0.0009115410415285848 0 -0.013221148059828918 0.00091381982772185185 0 -0.013221823155287429 0.00091441337719489705 0 -0.013221148059828918 0.00091381982772185185 0 -0.013221823155287429 0.00091441337719489705 0 -0.013225326516656595 0.00091128062631938458 0 -0.013221823155287429 0.00091441337719489705 0 -0.013225326516656595 0.00091128062631938458 0 -0.013224931696395598 0.00091093277671616972 0 -0.01321372005284026 0.00091601580348076072 0 -0.013213007785057336 0.00091295432026351189 0 -0.013199834493851812 0.00091909976321532768 0 -0.01321372005284026 0.00091601580348076072 0 -0.013218235841858128 0.00091307860110360071 0 -0.013220877594588983 0.00090611311847090556 0 -0.01321372005284026 0.00091601580348076072 0 -0.013218235841858128 0.00091307860110360071 0 -0.013221803256278369 0.00091862721006738643 0 -0.01321372005284026 0.00091601580348076072 0 -0.013220877594588983 0.00090611311847090556 0 -0.013213007785057336 0.00091295432026351189 0 -0.013220877594588983 0.00090611311847090556 0 -0.013213007785057336 0.00091295432026351189 0 -0.013225727138364217 0.00089970136165866724 0 -0.013213007785057336 0.00091295432026351189 0 -0.013225727138364217 0.00089970136165866724 0 -0.013214725238917891 0.00091277361479747559 0 -0.013220877594588983 0.00090611311847090556 0 -0.013225727138364217 0.00089970136165866724 0 -0.013233599875966779 0.0008944692688478079 0 -0.013232033181416638 0.00090726274235060367 0 -0.013220877594588983 0.00090611311847090556 0 -0.013233599875966779 0.0008944692688478079 0 -0.013225727138364217 0.00089970136165866724 0 -0.013233599875966779 0.0008944692688478079 0 -0.013231645157493839 0.00088722814484490018 0 -0.013250521888158414 0.00088312316556991084 0 -0.013233599875966779 0.0008944692688478079 0 -0.013231645157493839 0.00088722814484490018 0 -0.013225727138364217 0.00089970136165866724 0 -0.013231645157493839 0.00088722814484490018 0 -0.013213840247619731 0.00091844046932892942 0 -0.013213840247619731 0.00091844046932892942 0 -0.013205312461547129 0.00092065080126806651 0 -0.013201307100838869 0.00092811606704646852 0 -0.013225727138364217 0.00089970136165866724 0 -0.013213840247619731 0.00091844046932892942 0 -0.013214725238917891 0.00091277361479747559 0 -0.013213840247619731 0.00091844046932892942 0 -0.013205312461547129 0.00092065080126806651 0 -0.013214725238917891 0.00091277361479747559 0 -0.013205312461547129 0.00092065080126806651 0 -0.013214725238917891 0.00091277361479747559 0 -0.013202857256077319 0.00091800582879777125 0 -0.013213007785057336 0.00091295432026351189 0 -0.013214725238917891 0.00091277361479747559 0 -0.013202857256077319 0.00091800582879777125 0 -0.013205312461547129 0.00092065080126806651 0 -0.013202857256077319 0.00091800582879777125 0 -0.013179038632470993 0.00091645149932759943 0 -0.013202857256077319 0.00091800582879777125 0 -0.013199834493851812 0.00091909976321532768 0 -0.013179038632470993 0.00091645149932759943 0 -0.013213007785057336 0.00091295432026351189 0 -0.013202857256077319 0.00091800582879777125 0 -0.013199834493851812 0.00091909976321532768 0 -0.013068666175447125 0.00087832652493662858 0 -0.013179313180231859 0.00086722923009422965 0 -0.013170195088982569 0.00089833820419743093 0 -0.013179313180231859 0.00086722923009422965 0 -0.013243211005136065 0.00086958931136504446 0 -0.013170195088982569 0.00089833820419743093 0 -0.013281246763033803 0.00083152308669792317 0 -0.013179313180231859 0.00086722923009422965 0 -0.013243211005136065 0.00086958931136504446 0 -0.013250521888158414 0.00088312316556991084 0 -0.013231645157493839 0.00088722814484490018 0 -0.013243211005136065 0.00086958931136504446 0 -0.013231645157493839 0.00088722814484490018 0 -0.013243211005136065 0.00086958931136504446 0 -0.013170195088982569 0.00089833820419743093 0 -0.013231645157493839 0.00088722814484490018 0 -0.013213840247619731 0.00091844046932892942 0 -0.013170195088982569 0.00089833820419743093 0 -0.013213840247619731 0.00091844046932892942 0 -0.013170195088982569 0.00089833820419743093 0 -0.013136883982042095 0.00095522067566183649 0 -0.013213840247619731 0.00091844046932892942 0 -0.013136883982042095 0.00095522067566183649 0 -0.013211109772476349 0.00096726392027407829 0 -0.013068666175447125 0.00087832652493662858 0 -0.013170195088982569 0.00089833820419743093 0 -0.013020639553356557 0.00091054249795807991 0 -0.013170195088982569 0.00089833820419743093 0 -0.013136883982042095 0.00095522067566183649 0 -0.013020639553356557 0.00091054249795807991 0 -0.013136883982042095 0.00095522067566183649 0 -0.013020639553356557 0.00091054249795807991 0 -0.013026253533658459 0.0010247463759904239 0 -0.013020639553356557 0.00091054249795807991 0 -0.013026253533658459 0.0010247463759904239 0 -0.012834304259317891 0.0010386620548666868 0 -0.013026253533658459 0.0010247463759904239 0 -0.012982593601230457 0.0011667060295730625 0 -0.012834304259317891 0.0010386620548666868 0 -0.013026253533658459 0.0010247463759904239 0 -0.013105898658474417 0.0010530037529988758 0 -0.012982593601230457 0.0011667060295730625 0 -0.013136883982042095 0.00095522067566183649 0 -0.013026253533658459 0.0010247463759904239 0 -0.013105898658474417 0.0010530037529988758 0 -0.013136883982042095 0.00095522067566183649 0 -0.013211109772476349 0.00096726392027407829 0 -0.013105898658474417 0.0010530037529988758 0 -0.013309145079939726 0.00054993360553620913 0 -0.0082964899714990641 0.0017312967717232311 0 -0.0074522583616828683 0.00257298307779503 0 -0.0074439484426544666 0.0026269528356521635 0 -0.0070620336012640842 0.0024511761288838921 0 -0.013105898658474417 0.0010530037529988758 0 -0.013174303125156689 0.0011645889730317299 0 -0.012982593601230457 0.0011667060295730625 0 -0.0082964899714990641 0.0017312967717232311 0 -0.010475948082651882 0.0018966170404699201 0 -0.013211109772476349 0.00096726392027407829 0 -0.013105898658474417 0.0010530037529988758 0 -0.013174303125156689 0.0011645889730317299 0 -0.0013534312088001306 0.0011500216943198475 0 -0.0013484486814950292 0.0012649968760153059 0 -0.0014882422089970051 0.0012484638115924439 0 -0.0049583552639245699 0.0020248991905736416 0 -0.0033652631954636646 0.0020059957424763447 0 -0.0082964899714990641 0.0017312967717232311 0 -0.0049583552639245699 0.0020248991905736416 0 -0.0074439484426544666 0.0026269528356521635 0 -0.0070620336012640842 0.0024511761288838921 0 -0.0070105484159188498 0.0026810715270924913 0 -0.0049583552639245699 0.0020248991905736416 0 -0.0055595942775948206 0.0028976241073257669 0 -0.013179038632470993 0.00091645149932759943 0 -0.013164498022978307 0.00088608849061522547 0 -0.013118097903311894 0.00087541210290009491 0 -0.013179038632470993 0.00091645149932759943 0 -0.013164498022978307 0.00088608849061522547 0 -0.013201307100838869 0.00092811606704646852 0 -0.013205312461547129 0.00092065080126806651 0 -0.013179038632470993 0.00091645149932759943 0 -0.013201307100838869 0.00092811606704646852 0 -0.013213840247619731 0.00091844046932892942 0 -0.013211109772476349 0.00096726392027407829 0 -0.013201307100838869 0.00092811606704646852 0 -0.013164498022978307 0.00088608849061522547 0 -0.013201307100838869 0.00092811606704646852 0 -0.013185659182934909 0.00087216355022169591 0 -0.013211109772476349 0.00096726392027407829 0 -0.013201307100838869 0.00092811606704646852 0 -0.013185659182934909 0.00087216355022169591 0 -0.0082964899714990641 0.0017312967717232311 0 -0.0075011410094818791 0.00091721473549961365 0 -0.0013534312088001306 0.0011500216943198475 0 -0.0014882422089970051 0.0012484638115924439 0 -0.0023218691008764494 0.001371027967969486 0 -0.013211109772476349 0.00096726392027407829 0 -0.013220612186499517 0.00085142385900640477 0 -0.013185659182934909 0.00087216355022169591 0 -0.013220612186499517 0.00085142385900640477 0 -0.013185659182934909 0.00087216355022169591 0 -0.013157402222591642 0.00072983596642963377 0 -0.013141175652900019 0.00083535689947220406 0 -0.013157402222591642 0.00072983596642963377 0 -0.0129973461787307 0.00079820256801333713 0 -0.013185659182934909 0.00087216355022169591 0 -0.013141175652900019 0.00083535689947220406 0 -0.013157402222591642 0.00072983596642963377 0 -0.013164498022978307 0.00088608849061522547 0 -0.013185659182934909 0.00087216355022169591 0 -0.013141175652900019 0.00083535689947220406 0 -0.013164498022978307 0.00088608849061522547 0 -0.013141175652900019 0.00083535689947220406 0 -0.013118097903311894 0.00087541210290009491 0 -0.0026778270351785409 0.0020630182938132231 0 -0.0023218691008764494 0.001371027967969486 0 -0.0032017816455032701 0.0019761805689691662 0 -0.0026778270351785409 0.0020630182938132231 0 -0.0023218691008764494 0.001371027967969486 0 -0.0018645568701484601 0.0014783236491379748 0 -0.0020585771319712193 0.0017117805217667164 0 -0.0018645568701484601 0.0014783236491379748 0 -0.0019068016000367736 0.0017678183843134344 0 -0.0023568114103856334 0.0018642644821819064 0 -0.0019132404078163778 0.0015417060513579594 0 -0.0014882422089970051 0.0012484638115924439 0 -0.0023218691008764494 0.001371027967969486 0 -0.0018645568701484601 0.0014783236491379748 0 -0.0013720738937589678 0.0012594402230881748 0 -0.0014882422089970051 0.0012484638115924439 0 -0.0018645568701484601 0.0014783236491379748 0 -0.0013720738937589678 0.0012594402230881748 0 -0.0018645568701484601 0.0014783236491379748 0 -0.0012513122520030964 0.002016656822313554 0 -0.0017175798096782308 0.0019134975779655399 0 -0.0012513122520030964 0.002016656822313554 0 -0.0016254510522548764 0.0022653188927058343 0 -0.0018645568701484601 0.0014783236491379748 0 -0.0017175798096782308 0.0019134975779655399 0 -0.0019068016000367736 0.0017678183843134344 0 -0.0018645568701484601 0.0014783236491379748 0 -0.0017175798096782308 0.0019134975779655399 0 -0.0012513122520030964 0.002016656822313554 0 -0.0017175798096782308 0.0019134975779655399 0 -0.0019068016000367736 0.0017678183843134344 0 -0.0019833015049288286 0.0019746234558054077 0 -0.0017175798096782308 0.0019134975779655399 0 -0.0019833015049288286 0.0019746234558054077 0 -0.0016254510522548764 0.0022653188927058343 0 -0.0020585771319712193 0.0017117805217667164 0 -0.0019068016000367736 0.0017678183843134344 0 -0.0019833015049288286 0.0019746234558054077 0 -0.0039869845145574824 0.0029233914303304336 0 -0.0035190372356684197 0.0025933402603365054 0 -0.0038630932353151243 0.0022896823850972587 0 -0.0030790605965383467 0.0029819221062601696 0 -0.0039869845145574824 0.0029233914303304336 0 -0.0035190372356684197 0.0025933402603365054 0 -0.0030790605965383467 0.0029819221062601696 0 -0.0035190372356684197 0.0025933402603365054 0 -0.0031736648199455781 0.0019829196175103238 0 -0.0049583552639245699 0.0020248991905736416 0 -0.0018312150930937614 0.0020440746839236615 0 -0.0031736648199455781 0.0019829196175103238 0 -0.0038630932353151243 0.0022896823850972587 0 -0.0038012864794795117 0.0016531045682548506 0 -0.0038630932353151243 0.0022896823850972587 0 -0.0043575082061814135 0.0019391442880680649 0 -0.0038012864794795117 0.0016531045682548506 0 -0.0035190372356684197 0.0025933402603365054 0 -0.0031736648199455781 0.0019829196175103238 0 -0.0038630932353151243 0.0022896823850972587 0 -0.0043575082061814135 0.0019391442880680649 0 -0.0049260325476172132 0.0022423859429456061 0 -0.0044255991539290454 0.0024853706742092329 0 -0.0038630932353151243 0.0022896823850972587 0 -0.0043575082061814135 0.0019391442880680649 0 -0.0044255991539290454 0.0024853706742092329 0 -0.0049260325476172132 0.0022423859429456061 0 -0.0053865484971341764 0.0020441448557367583 0 -0.0049717730755974568 0.0016437283108053436 0 -0.0043575082061814135 0.0019391442880680649 0 -0.0049260325476172132 0.0022423859429456061 0 -0.0049717730755974568 0.0016437283108053436 0 -0.0049260325476172132 0.0022423859429456061 0 -0.0049752133918595613 0.002873933734327682 0 -0.0044255991539290454 0.0024853706742092329 0 -0.0049260325476172132 0.0022423859429456061 0 -0.0049752133918595613 0.002873933734327682 0 -0.005464529643107785 0.0023774771535317323 0 -0.0055595942775948206 0.0028976241073257669 0 -0.0057448818269850927 0.002768074834338535 0 -0.0039869845145574824 0.0029233914303304336 0 -0.0038630932353151243 0.0022896823850972587 0 -0.0044255991539290454 0.0024853706742092329 0 -0.0039869845145574824 0.0029233914303304336 0 -0.0049752133918595613 0.002873933734327682 0 -0.0044255991539290454 0.0024853706742092329 0 -0.0070105484159188498 0.0026810715270924913 0 -0.0065239629771293734 0.0027183890295434899 0 -0.0067539179515608882 0.0025412455132751695 0 -0.0070620336012640842 0.0024511761288838921 0 -0.0070105484159188498 0.0026810715270924913 0 -0.0067539179515608882 0.0025412455132751695 0 -0.0070620336012640842 0.0024511761288838921 0 -0.0067539179515608882 0.0025412455132751695 0 -0.0066287885441210911 0.0023253066414765187 0 -0.0065239629771293734 0.0027183890295434899 0 -0.0067539179515608882 0.0025412455132751695 0 -0.0065269230152706515 0.0025020585417853099 0 -0.0065239629771293734 0.0027183890295434899 0 -0.0065269230152706515 0.0025020585417853099 0 -0.0063430938415738464 0.0025750328735731185 0 -0.0067539179515608882 0.0025412455132751695 0 -0.0065269230152706515 0.0025020585417853099 0 -0.0066287885441210911 0.0023253066414765187 0 -0.012501694629682673 0.00086311665818887345 0 -0.012525898511316257 0.0011736753716336742 0 -0.012834304259317891 0.0010386620548666868 0 -0.012501694629682673 0.00086311665818887345 0 -0.012525898511316257 0.0011736753716336742 0 -0.011770718855491762 0.00099600047211612541 0 -0.0065269230152706515 0.0025020585417853099 0 -0.0066287885441210911 0.0023253066414765187 0 -0.0063976639793913923 0.0023629254249697474 0 -0.012982593601230457 0.0011667060295730625 0 -0.012525898511316257 0.0011736753716336742 0 -0.012834304259317891 0.0010386620548666868 0 -0.010475948082651882 0.0018966170404699201 0 -0.0093159182295856208 0.001692618932206695 0 -0.0062947871033245161 0.0026314562465443317 0 -0.0062877817877595244 0.002593530633492882 0 -0.0063885342868092972 0.0026589178566824743 0 -0.0067899197014996667 0.0024607987183135746 0 -0.0068431095577155283 0.0024861675767776669 0 -0.0067694508680855173 0.0025084656598262436 0 -0.0083765979737229577 0.0021990495254349735 0 -0.0062543141682946269 0.0026348803457769349 0 -0.0062877817877595244 0.002593530633492882 0 -0.0063885342868092972 0.0026589178566824743 0 -0.0064278097611047205 0.0025771835360921757 0 -0.0093159182295856208 0.001692618932206695 0 -0.009801287081678994 0.0016485663239135431 0 -0.0062426107712999493 0.0022208690005304037 0 -0.0062633717951704063 0.0022179260133327224 0 -0.0063976639793913923 0.0023629254249697474 0 -0.0066287885441210911 0.0023253066414765187 0 -0.0062633717951704063 0.0022179260133327224 0 -0.0063976639793913923 0.0023629254249697474 0 -0.012951646147028919 0.00096686181335933275 0 -0.012852745308928128 0.00097357349169161758 0 -0.012801046360573103 0.0010002260715413053 0 -0.0062426107712999493 0.0022208690005304037 0 -0.0063976639793913923 0.0023629254249697474 0 -0.0063430938415738464 0.0025750328735731185 0 -0.012810750247648602 0.00096909465693532568 0 -0.01278453731198871 0.0010001133318822924 0 -0.012801721067208194 0.00098864111007538149 0 -0.0083765979737229577 0.0021990495254349735 0 -0.0058510872816904657 0.0024940165172036713 0 -0.013281585561564028 0.0007983034230661587 0 -0.009801287081678994 0.0016485663239135431 0 -0.01278453731198871 0.0010001133318822924 0 -0.012801721067208194 0.00098864111007538149 0 -0.012801046360573103 0.0010002260715413053 0 -0.0083765979737229577 0.0021990495254349735 0 -0.009801287081678994 0.0016485663239135431 0 -0.012801721067208194 0.00098864111007538149 0 -0.012801046360573103 0.0010002260715413053 0 -0.012821705640244208 0.00098547307788965084 0 -0.012810750247648602 0.00096909465693532568 0 -0.012801721067208194 0.00098864111007538149 0 -0.012821705640244208 0.00098547307788965084 0 -0.012852745308928128 0.00097357349169161758 0 -0.012801046360573103 0.0010002260715413053 0 -0.012821705640244208 0.00098547307788965084 0 -0.0062947871033245161 0.0026314562465443317 0 -0.0063430938415738464 0.0025750328735731185 0 -0.0062877817877595244 0.002593530633492882 0 -0.0065269230152706515 0.0025020585417853099 0 -0.0063976639793913923 0.0023629254249697474 0 -0.0063430938415738464 0.0025750328735731185 0 -0.0063430938415738464 0.0025750328735731185 0 -0.0062877817877595244 0.002593530633492882 0 -0.0061337778084401421 0.0026298687195698629 0 -0.0062877817877595244 0.002593530633492882 0 -0.0063228856336455461 0.0025905179026842928 0 -0.0061337778084401421 0.0026298687195698629 0 -0.0062877817877595244 0.002593530633492882 0 -0.0063228856336455461 0.0025905179026842928 0 -0.0064278097611047205 0.0025771835360921757 0 -0.0063228856336455461 0.0025905179026842928 0 -0.0061337778084401421 0.0026298687195698629 0 -0.006406681716781445 0.0024995999313775588 0 -0.0061337778084401421 0.0026298687195698629 0 -0.0062386934062725538 0.0022715880303482419 0 -0.006406681716781445 0.0024995999313775588 0 -0.0049752133918595613 0.002873933734327682 0 -0.0061337778084401421 0.0026298687195698629 0 -0.005464529643107785 0.0023774771535317323 0 -0.0065239629771293734 0.0027183890295434899 0 -0.0063430938415738464 0.0025750328735731185 0 -0.0061337778084401421 0.0026298687195698629 0 -0.0057448818269850927 0.002768074834338535 0 -0.0061168568261251183 0.0026608860169631534 0 -0.0061337778084401421 0.0026298687195698629 0 -0.005464529643107785 0.0023774771535317323 0 -0.0058503954151438425 0.0021566695776401639 0 -0.0049260325476172132 0.0022423859429456061 0 -0.005464529643107785 0.0023774771535317323 0 -0.0053865484971341764 0.0020441448557367583 0 -0.005464529643107785 0.0023774771535317323 0 -0.0053865484971341764 0.0020441448557367583 0 -0.0058503954151438425 0.0021566695776401639 0 -0.0053865484971341764 0.0020441448557367583 0 -0.0058503954151438425 0.0021566695776401639 0 -0.0055872938129234474 0.0017646971210668141 0 -0.0061337778084401421 0.0026298687195698629 0 -0.0062386934062725538 0.0022715880303482419 0 -0.0058503954151438425 0.0021566695776401639 0 -0.0062386934062725538 0.0022715880303482419 0 -0.0058503954151438425 0.0021566695776401639 0 -0.0061964158066728069 0.0017344076144311213 0 -0.005187853674408811 0.0018055751257151011 0 -0.0048395688566169794 0.0011612634399863131 0 -0.0064224734530587994 0.0022571880118133058 0 -0.0066588247069372091 0.0021647509032718523 0 -0.0061964158066728069 0.0017344076144311213 0 -0.0062386934062725538 0.0022715880303482419 0 -0.0064224734530587994 0.0022571880118133058 0 -0.0061964158066728069 0.0017344076144311213 0 -0.0064224734530587994 0.0022571880118133058 0 -0.0065773603114446851 0.0024629816656154963 0 -0.0066588247069372091 0.0021647509032718523 0 -0.0062386934062725538 0.0022715880303482419 0 -0.0064224734530587994 0.0022571880118133058 0 -0.006406681716781445 0.0024995999313775588 0 -0.006406681716781445 0.0024995999313775588 0 -0.0065438979538475182 0.0025247304787474642 0 -0.0065773603114446851 0.0024629816656154963 0 -0.0064224734530587994 0.0022571880118133058 0 -0.006406681716781445 0.0024995999313775588 0 -0.0065773603114446851 0.0024629816656154963 0 -0.006406681716781445 0.0024995999313775588 0 -0.0065438979538475182 0.0025247304787474642 0 -0.0064580796427505171 0.002554870110973466 0 -0.0063228856336455461 0.0025905179026842928 0 -0.006406681716781445 0.0024995999313775588 0 -0.0064580796427505171 0.002554870110973466 0 -0.0065777231680782247 0.0025258519895126805 0 -0.0065730100250990893 0.002448896192237213 0 -0.0065681371238463368 0.002639025692377082 0 -0.0065777231680782247 0.0025258519895126805 0 -0.0065612745732686458 0.0025601543181113131 0 -0.0065739208147837956 0.0025272757562051899 0 -0.0065438979538475182 0.0025247304787474642 0 -0.0065777231680782247 0.0025258519895126805 0 -0.0065739208147837956 0.0025272757562051899 0 -0.0065438979538475182 0.0025247304787474642 0 -0.0065773603114446851 0.0024629816656154963 0 -0.0065777231680782247 0.0025258519895126805 0 -0.005187853674408811 0.0018055751257151011 0 -0.0059130861660058086 0.0024726058156819314 0 -0.0044608871362992759 0.0018258109118291983 0 -0.0051633303168416881 0.0020070162587472514 0 -0.004461014368001134 0.0014622896783191227 0 -0.0034644995278894724 0.0012431678430511854 0 -0.0036266369949244678 0.0015987223532609458 0 -0.0029365166422220396 0.0010710288448573014 0 -0.0047555667723793316 0.0016589985192041472 0 -0.0016616934078977498 0.00260805080747988 0 -0.0065773603114446851 0.0024629816656154963 0 -0.0065777231680782247 0.0025258519895126805 0 -0.0065730100250990893 0.002448896192237213 0 -0.0061443735169192937 0.0024738482981450007 0 -0.005187853674408811 0.0018055751257151011 0 -0.005187853674408811 0.0018055751257151011 0 -0.0016616934078977498 0.00260805080747988 0 -0.0034644995278894724 0.0012431678430511854 0 -0.0039874098804146187 0.0011867318405804539 0 -0.0034396360865464153 0.0010829878019420547 0 -0.0044608871362992759 0.0018258109118291983 0 -0.0051633303168416881 0.0020070162587472514 0 -0.0051501004685994868 0.002204195651344382 0 -0.0039874098804146187 0.0011867318405804539 0 -0.0036266369949244678 0.0015987223532609458 0 -0.0046816378352721507 0.0013801184535384712 0 -0.0034644995278894724 0.0012431678430511854 0 -0.0039874098804146187 0.0011867318405804539 0 -0.0036266369949244678 0.0015987223532609458 0 -0.0036266369949244678 0.0015987223532609458 0 -0.0046816378352721507 0.0013801184535384712 0 -0.0053323700246417855 0.0019203950450069286 0 -0.0039874098804146187 0.0011867318405804539 0 -0.0046816378352721507 0.0013801184535384712 0 -0.0043115932153283435 0.0011370663278477192 0 -0.0065681371238463368 0.002639025692377082 0 -0.006294788584565802 0.0025219153436408445 0 -0.0058398411961749956 0.0025057878445707959 0 -0.0047555667723793316 0.0016589985192041472 0 -0.0055336714510616112 0.0024550633201024762 0 -0.0057770284190444589 0.0024645820091333641 0 -0.0051501004685994868 0.002204195651344382 0 -0.0058398411961749956 0.0025057878445707959 0 -0.0059130861660058086 0.0024726058156819314 0 -0.0058000445095598352 0.0024584335856750257 0 -0.0036266369949244678 0.0015987223532609458 0 -0.0053323700246417855 0.0019203950450069286 0 -0.0057770284190444589 0.0024645820091333641 0 -0.0046816378352721507 0.0013801184535384712 0 -0.0053323700246417855 0.0019203950450069286 0 -0.0060325650646185485 0.0020887326085612312 0 -0.0053323700246417855 0.0019203950450069286 0 -0.0057770284190444589 0.0024645820091333641 0 -0.0057904955690270916 0.0022222866007998603 0 -0.0051633303168416881 0.0020070162587472514 0 -0.0057770284190444589 0.0024645820091333641 0 -0.0051501004685994868 0.002204195651344382 0 -0.0065777231680782247 0.0025258519895126805 0 -0.0065681371238463368 0.002639025692377082 0 -0.0065612745732686458 0.0025601543181113131 0 -0.0065681371238463368 0.002639025692377082 0 -0.006294788584565802 0.0025219153436408445 0 -0.0064882384081246421 0.0025502581858708137 0 -0.0064882384081246421 0.0025502581858708137 0 -0.006524284068648206 0.0025245197340919836 0 -0.0064089071506375616 0.0025081282911805095 0 -0.006294788584565802 0.0025219153436408445 0 -0.0064882384081246421 0.0025502581858708137 0 -0.0064089071506375616 0.0025081282911805095 0 -0.0064882384081246421 0.0025502581858708137 0 -0.006524284068648206 0.0025245197340919836 0 -0.0065612745732686458 0.0025601543181113131 0 -0.006524284068648206 0.0025245197340919836 0 -0.0065612745732686458 0.0025601543181113131 0 -0.0065739208147837956 0.0025272757562051899 0 -0.0065681371238463368 0.002639025692377082 0 -0.0064882384081246421 0.0025502581858708137 0 -0.0065612745732686458 0.0025601543181113131 0 -0.006524284068648206 0.0025245197340919836 0 -0.0065500838454486928 0.0024996108112149435 0 -0.0065739208147837956 0.0025272757562051899 0 -0.0065500838454486928 0.0024996108112149435 0 -0.0064599748226658801 0.0024765366640520873 0 -0.0065277581757116126 0.0024603825650272582 0 -0.006524284068648206 0.0025245197340919836 0 -0.0065500838454486928 0.0024996108112149435 0 -0.0064599748226658801 0.0024765366640520873 0 -0.006524284068648206 0.0025245197340919836 0 -0.0064089071506375616 0.0025081282911805095 0 -0.0064599748226658801 0.0024765366640520873 0 -0.0064089071506375616 0.0025081282911805095 0 -0.0064599748226658801 0.0024765366640520873 0 -0.0063030693099476037 0.0024694611043461689 0 -0.006294788584565802 0.0025219153436408445 0 -0.0064089071506375616 0.0025081282911805095 0 -0.0063030693099476037 0.0024694611043461689 0 -0.0064599748226658801 0.0024765366640520873 0 -0.0064124929754928277 0.002438838559994471 0 -0.0063030693099476037 0.0024694611043461689 0 -0.0064124929754928277 0.002438838559994471 0 -0.0065277581757116126 0.0024603825650272582 0 -0.0065556262701458234 0.0024273569201401124 0 -0.0064599748226658801 0.0024765366640520873 0 -0.0064124929754928277 0.002438838559994471 0 -0.0065277581757116126 0.0024603825650272582 0 -0.0065500838454486928 0.0024996108112149435 0 -0.0065277581757116126 0.0024603825650272582 0 -0.0065866737417406103 0.0025057008645167846 0 -0.0065277581757116126 0.0024603825650272582 0 -0.0065998089707235341 0.0024704708449957281 0 -0.0065866737417406103 0.0025057008645167846 0 -0.006068956818424693 0.0024620758757891632 0 -0.0060055165790517569 0.0024670134654252553 0 -0.0062247418735477903 0.0024560259400943332 0 -0.0057770284190444589 0.0024645820091333641 0 -0.0060055165790517569 0.0024670134654252553 0 -0.0058398411961749956 0.0025057878445707959 0 -0.006068956818424693 0.0024620758757891632 0 -0.0060055165790517569 0.0024670134654252553 0 -0.0058398411961749956 0.0025057878445707959 0 -0.006068956818424693 0.0024620758757891632 0 -0.0058398411961749956 0.0025057878445707959 0 -0.0060495119334975419 0.0024574507448943453 0 -0.0058398411961749956 0.0025057878445707959 0 -0.0060495119334975419 0.0024574507448943453 0 -0.0061138880166215076 0.0024768404343771329 0 -0.006068956818424693 0.0024620758757891632 0 -0.0061850619720994239 0.0024381783265153868 0 -0.0062247418735477903 0.0024560259400943332 0 -0.006068956818424693 0.0024620758757891632 0 -0.0060495119334975419 0.0024574507448943453 0 -0.0061850619720994239 0.0024381783265153868 0 -0.0064124929754928277 0.002438838559994471 0 -0.0061850619720994239 0.0024381783265153868 0 -0.0063030693099476037 0.0024694611043461689 0 -0.006294788584565802 0.0025219153436408445 0 -0.0058398411961749956 0.0025057878445707959 0 -0.0061138880166215076 0.0024768404343771329 0 -0.0061850619720994239 0.0024381783265153868 0 -0.0061138880166215076 0.0024768404343771329 0 -0.0063030693099476037 0.0024694611043461689 0 -0.0060495119334975419 0.0024574507448943453 0 -0.0061850619720994239 0.0024381783265153868 0 -0.0061138880166215076 0.0024768404343771329 0 -0.006294788584565802 0.0025219153436408445 0 -0.0061138880166215076 0.0024768404343771329 0 -0.0063030693099476037 0.0024694611043461689 0 -0.0064124929754928277 0.002438838559994471 0 -0.0061850619720994239 0.0024381783265153868 0 -0.0063939899102343194 0.0024318820325623242 0 -0.0061850619720994239 0.0024381783265153868 0 -0.0063939899102343194 0.0024318820325623242 0 -0.0062247418735477903 0.0024560259400943332 0 -0.0063939899102343194 0.0024318820325623242 0 -0.0062247418735477903 0.0024560259400943332 0 -0.0065930241327375912 0.0024502553592774265 0 -0.0064124929754928277 0.002438838559994471 0 -0.0063939899102343194 0.0024318820325623242 0 -0.0065556262701458234 0.0024273569201401124 0 -0.0063939899102343194 0.0024318820325623242 0 -0.0065930241327375912 0.0024502553592774265 0 -0.0065556262701458234 0.0024273569201401124 0 -0.0065930241327375912 0.0024502553592774265 0 -0.0065556262701458234 0.0024273569201401124 0 -0.0067548709119528228 0.0024100915027462913 0 -0.0065277581757116126 0.0024603825650272582 0 -0.0065998089707235341 0.0024704708449957281 0 -0.0065556262701458234 0.0024273569201401124 0 -0.0065556262701458234 0.0024273569201401124 0 -0.0066642670064280896 0.0024306517419620103 0 -0.0067548709119528228 0.0024100915027462913 0 -0.0065998089707235341 0.0024704708449957281 0 -0.0065556262701458234 0.0024273569201401124 0 -0.0066642670064280896 0.0024306517419620103 0 -0.0066642670064280896 0.0024306517419620103 0 -0.0066218754605301992 0.0025380486574644269 0 -0.0067001652715801214 0.0024438145562880958 0 -0.0065998089707235341 0.0024704708449957281 0 -0.0066642670064280896 0.0024306517419620103 0 -0.0066218754605301992 0.0025380486574644269 0 -0.0065998089707235341 0.0024704708449957281 0 -0.0066218754605301992 0.0025380486574644269 0 -0.0065866737417406103 0.0025057008645167846 0 -0.0066218754605301992 0.0025380486574644269 0 -0.0067694508680855173 0.0025084656598262436 0 -0.0067001652715801214 0.0024438145562880958 0 -0.0067210335291444222 0.0025315516127163598 0 -0.0062543141682946269 0.0026348803457769349 0 -0.0066218754605301992 0.0025380486574644269 0 -0.0063885342868092972 0.0026589178566824743 0 -0.0064278097611047205 0.0025771835360921757 0 -0.0066218754605301992 0.0025380486574644269 0 -0.0064278097611047205 0.0025771835360921757 0 -0.006551003313024475 0.0025359800323616613 0 -0.0063228856336455461 0.0025905179026842928 0 -0.0064278097611047205 0.0025771835360921757 0 -0.0064580796427505171 0.002554870110973466 0 -0.0065438979538475182 0.0025247304787474642 0 -0.0064580796427505171 0.002554870110973466 0 -0.006551003313024475 0.0025359800323616613 0 -0.0064278097611047205 0.0025771835360921757 0 -0.0064580796427505171 0.002554870110973466 0 -0.006551003313024475 0.0025359800323616613 0 -0.0065438979538475182 0.0025247304787474642 0 -0.006551003313024475 0.0025359800323616613 0 -0.0065739208147837956 0.0025272757562051899 0 -0.0065500838454486928 0.0024996108112149435 0 -0.0065739208147837956 0.0025272757562051899 0 -0.0065866737417406103 0.0025057008645167846 0 -0.006551003313024475 0.0025359800323616613 0 -0.0065739208147837956 0.0025272757562051899 0 -0.0065866737417406103 0.0025057008645167846 0 -0.0066218754605301992 0.0025380486574644269 0 -0.006551003313024475 0.0025359800323616613 0 -0.0065866737417406103 0.0025057008645167846 0 -0.0065256959214837502 0.00084096597774503061 0 -0.0062191338515864506 0.001188905352734648 0 -0.0082983553904579684 0.001400932053055119 0 -0.008029861639951336 0.001348832282482735 0 -0.0082189337768779538 0.0015834972426712736 0 -0.0045822459139101979 0.00020596679279835778 0 -0.0045624239705939641 0.00027487223131593739 0 -0.0044699975392296547 0.00026123886474246834 0 -0.0062191338515864506 0.001188905352734648 0 -0.0022208643652676867 -0.00014566119531950715 0 -0.0045822459139101979 0.00020596679279835778 0 -0.0044699975392296547 0.00026123886474246834 0 -0.0045005961199680467 0.00013984339067986659 0 -0.0023221561726839133 -0.00032916958194005211 0 -0.0022208643652676867 -0.00014566119531950715 0 -0.0046898831500225332 0.0011421691198109432 0 -0.0048031970344209612 0.0013609361689237251 0 -0.0049348951052621305 0.0010671273795463143 0 -0.0062191338515864506 0.001188905352734648 0 -0.0054534636490387806 0.0015704099207922127 0 -0.0066951966707152234 0.0021735591509271001 0 -0.0065410669322384096 0.0017254931360428051 0 -0.0060325650646185485 0.0020887326085612312 0 -0.0070963539864918315 0.0019697519080520949 0 -0.0066951966707152234 0.0021735591509271001 0 -0.0065410669322384096 0.0017254931360428051 0 -0.0046898831500225332 0.0011421691198109432 0 -0.0048031970344209612 0.0013609361689237251 0 -0.0045300520619521159 0.0013165744066369084 0 -0.0046898831500225332 0.0011421691198109432 0 -0.0045300520619521159 0.0013165744066369084 0 -0.0044497232481446828 0.0010009542800703522 0 -0.0046816378352721507 0.0013801184535384712 0 -0.0045300520619521159 0.0013165744066369084 0 -0.0043115932153283435 0.0011370663278477192 0 -0.0045300520619521159 0.0013165744066369084 0 -0.0044497232481446828 0.0010009542800703522 0 -0.0043115932153283435 0.0011370663278477192 0 -0.0047596553185897837 0.001378025495166572 0 -0.0054534636490387806 0.0015704099207922127 0 -0.0046816378352721507 0.0013801184535384712 0 -0.0065410669322384096 0.0017254931360428051 0 -0.0060325650646185485 0.0020887326085612312 0 -0.0053323700246417855 0.0019203950450069286 0 -0.0060325650646185485 0.0020887326085612312 0 -0.0057904955690270916 0.0022222866007998603 0 -0.0066951966707152234 0.0021735591509271001 0 -0.0060325650646185485 0.0020887326085612312 0 -0.0063596219983644061 0.0024157835335163838 0 -0.0060325650646185485 0.0020887326085612312 0 -0.0059995311888893588 0.0023509876499647657 0 -0.0063596219983644061 0.0024157835335163838 0 -0.0057770284190444589 0.0024645820091333641 0 -0.0059995311888893588 0.0023509876499647657 0 -0.0057904955690270916 0.0022222866007998603 0 -0.0060325650646185485 0.0020887326085612312 0 -0.0059995311888893588 0.0023509876499647657 0 -0.0057904955690270916 0.0022222866007998603 0 -0.0061568972805543191 0.0024508839134506034 0 -0.0063596219983644061 0.0024157835335163838 0 -0.0062864146293086891 0.0024621302912600251 0 -0.0059995311888893588 0.0023509876499647657 0 -0.0061568972805543191 0.0024508839134506034 0 -0.0063596219983644061 0.0024157835335163838 0 -0.0060055165790517569 0.0024670134654252553 0 -0.0062247418735477903 0.0024560259400943332 0 -0.0061568972805543191 0.0024508839134506034 0 -0.0060055165790517569 0.0024670134654252553 0 -0.0059995311888893588 0.0023509876499647657 0 -0.0061568972805543191 0.0024508839134506034 0 -0.0057770284190444589 0.0024645820091333641 0 -0.0060055165790517569 0.0024670134654252553 0 -0.0059995311888893588 0.0023509876499647657 0 -0.0063596219983644061 0.0024157835335163838 0 -0.0062864146293086891 0.0024621302912600251 0 -0.0064700111925677381 0.0024999245689210827 0 -0.0062247418735477903 0.0024560259400943332 0 -0.0062864146293086891 0.0024621302912600251 0 -0.0064700111925677381 0.0024999245689210827 0 -0.0062247418735477903 0.0024560259400943332 0 -0.0061568972805543191 0.0024508839134506034 0 -0.0062864146293086891 0.0024621302912600251 0 -0.0062247418735477903 0.0024560259400943332 0 -0.0065930241327375912 0.0024502553592774265 0 -0.0064700111925677381 0.0024999245689210827 0 -0.0065930241327375912 0.0024502553592774265 0 -0.0064700111925677381 0.0024999245689210827 0 -0.0066937700549413882 0.0024947580669458704 0 -0.0064700111925677381 0.0024999245689210827 0 -0.0067116839603494488 0.0024944243661201323 0 -0.0066937700549413882 0.0024947580669458704 0 -0.0074780088852056982 0.0021093817105989356 0 -0.0071968267188012667 0.0022701577390423565 0 -0.0066951966707152234 0.0021735591509271001 0 -0.0063596219983644061 0.0024157835335163838 0 -0.0067116839603494488 0.0024944243661201323 0 -0.0063596219983644061 0.0024157835335163838 0 -0.0064700111925677381 0.0024999245689210827 0 -0.0067116839603494488 0.0024944243661201323 0 -0.0078851228694838231 0.0016648782966800272 0 -0.0082160338459081571 0.0018430553423684076 0 -0.0081128144391437399 0.0021310114599297865 0 -0.0078851228694838231 0.0016648782966800272 0 -0.0082160338459081571 0.0018430553423684076 0 -0.0082189337768779538 0.0015834972426712736 0 -0.0070963539864918315 0.0019697519080520949 0 -0.0066951966707152234 0.0021735591509271001 0 -0.0067116839603494488 0.0024944243661201323 0 -0.008029861639951336 0.001348832282482735 0 -0.0078851228694838231 0.0016648782966800272 0 -0.0082189337768779538 0.0015834972426712736 0 -0.0062191338515864506 0.001188905352734648 0 -0.0074780088852056982 0.0021093817105989356 0 -0.0084520833305343265 0.0017158680520046588 0 -0.0082160338459081571 0.0018430553423684076 0 -0.0082189337768779538 0.0015834972426712736 0 -0.0083961566955911612 0.0015359609823437331 0 -0.0082983553904579684 0.001400932053055119 0 -0.0082189337768779538 0.0015834972426712736 0 -0.0083825548918655297 0.00233752042401184 0 -0.0081128144391437399 0.0021310114599297865 0 -0.008250780543548478 0.0025229252761265401 0 -0.0083825548918655297 0.00233752042401184 0 -0.0083390738572375247 0.0021006961643104892 0 -0.0081128144391437399 0.0021310114599297865 0 -0.0082160338459081571 0.0018430553423684076 0 -0.0083390738572375247 0.0021006961643104892 0 -0.0081128144391437399 0.0021310114599297865 0 -0.0084873531790867242 0.0019563560661161423 0 -0.0082160338459081571 0.0018430553423684076 0 -0.0083390738572375247 0.0021006961643104892 0 -0.0081128144391437399 0.0021310114599297865 0 -0.0079445121432530647 0.0024855983198738473 0 -0.008250780543548478 0.0025229252761265401 0 -0.0078851228694838231 0.0016648782966800272 0 -0.0081128144391437399 0.0021310114599297865 0 -0.007707655216851933 0.0019931359533494329 0 -0.007707655216851933 0.0019931359533494329 0 -0.0073904607023317203 0.0024467606482585303 0 -0.0079445121432530647 0.0024855983198738473 0 -0.0081128144391437399 0.0021310114599297865 0 -0.007707655216851933 0.0019931359533494329 0 -0.0079445121432530647 0.0024855983198738473 0 -0.0065930241327375912 0.0024502553592774265 0 -0.0066937700549413882 0.0024947580669458704 0 -0.0069296518367348812 0.0024220081325312028 0 -0.0066937700549413882 0.0024947580669458704 0 -0.0073904607023317203 0.0024467606482585303 0 -0.0069296518367348812 0.0024220081325312028 0 -0.0071968267188012667 0.0022701577390423565 0 -0.0073356840905627078 0.002453820892349 0 -0.0073904607023317203 0.0024467606482585303 0 -0.0077697007040175596 0.0027065491293024584 0 -0.0075244070004407285 0.0026280214687324881 0 -0.0079269157123803384 0.0029571769848144498 0 -0.0077697007040175596 0.0027065491293024584 0 -0.0075244070004407285 0.0026280214687324881 0 -0.0079269157123803384 0.0029571769848144498 0 -0.0077697007040175596 0.0027065491293024584 0 -0.0079984745185364171 0.0028447274828381523 0 -0.0077697007040175596 0.0027065491293024584 0 -0.0079984745185364171 0.0028447274828381523 0 -0.0079445121432530647 0.0024855983198738473 0 -0.0079984745185364171 0.0028447274828381523 0 -0.0079445121432530647 0.0024855983198738473 0 -0.0081207552157059638 0.0026661501093151615 0 -0.0073904607023317203 0.0024467606482585303 0 -0.0077697007040175596 0.0027065491293024584 0 -0.0079445121432530647 0.0024855983198738473 0 -0.0079445121432530647 0.0024855983198738473 0 -0.0081207552157059638 0.0026661501093151615 0 -0.008250780543548478 0.0025229252761265401 0 -0.0079984745185364171 0.0028447274828381523 0 -0.0081207552157059638 0.0026661501093151615 0 -0.0082312663829844576 0.0027918483537841829 0 -0.0081207552157059638 0.0026661501093151615 0 -0.0082312663829844576 0.0027918483537841829 0 -0.008250780543548478 0.0025229252761265401 0 -0.0082312663829844576 0.0027918483537841829 0 -0.0084232113710898445 0.0026862425358278371 0 -0.008250780543548478 0.0025229252761265401 0 -0.0085380883212485201 0.0024893895749080568 0 -0.0083825548918655297 0.00233752042401184 0 -0.008250780543548478 0.0025229252761265401 0 -0.0085380883212485201 0.0024893895749080568 0 -0.0084232113710898445 0.0026862425358278371 0 -0.008250780543548478 0.0025229252761265401 0 -0.0067520113922876403 0.0024342235449284701 0 -0.006784659557581476 0.00245949859712284 0 -0.0067660962372342705 0.0024544432862694402 0 -0.0067520113922876403 0.0024342235449284701 0 -0.006784659557581476 0.00245949859712284 0 -0.0067705535947942593 0.0024061379449693415 0 -0.0067775588567715915 0.0024292268554254458 0 -0.0067660962372342705 0.0024544432862694402 0 -0.0067680949922351548 0.0024968100363724653 0 -0.0067660962372342705 0.0024544432862694402 0 -0.0067657369048390367 0.002438452416739359 0 -0.0067536949656013976 0.0024359234908043581 0 -0.0067775588567715915 0.0024292268554254458 0 -0.0067660962372342705 0.0024544432862694402 0 -0.0067657369048390367 0.002438452416739359 0 -0.0067520113922876403 0.0024342235449284701 0 -0.0067660962372342705 0.0024544432862694402 0 -0.0067536949656013976 0.0024359234908043581 0 -0.0067694508680855173 0.0025084656598262436 0 -0.006758067873960512 0.0024547594545226287 0 -0.0067001652715801214 0.0024438145562880958 0 -0.0067520113922876403 0.0024342235449284701 0 -0.0067536949656013976 0.0024359234908043581 0 -0.0067001652715801214 0.0024438145562880958 0 -0.0067536949656013976 0.0024359234908043581 0 -0.0067684623184709469 0.0024416699747794391 0 -0.006758067873960512 0.0024547594545226287 0 -0.0067657369048390367 0.002438452416739359 0 -0.0067536949656013976 0.0024359234908043581 0 -0.0067684623184709469 0.0024416699747794391 0 -0.0067899197014996667 0.0024607987183135746 0 -0.0067694508680855173 0.0025084656598262436 0 -0.006758067873960512 0.0024547594545226287 0 -0.0067899197014996667 0.0024607987183135746 0 -0.0067684623184709469 0.0024416699747794391 0 -0.006758067873960512 0.0024547594545226287 0 -0.0067536949656013976 0.0024359234908043581 0 -0.006758067873960512 0.0024547594545226287 0 -0.0067001652715801214 0.0024438145562880958 0 -0.0066642670064280896 0.0024306517419620103 0 -0.0067001652715801214 0.0024438145562880958 0 -0.0067705535947942593 0.0024061379449693415 0 -0.0067520113922876403 0.0024342235449284701 0 -0.0067001652715801214 0.0024438145562880958 0 -0.0067705535947942593 0.0024061379449693415 0 -0.0067548709119528228 0.0024100915027462913 0 -0.0067705535947942593 0.0024061379449693415 0 -0.007004430374419281 0.0024141641459704886 0 -0.0066642670064280896 0.0024306517419620103 0 -0.0067548709119528228 0.0024100915027462913 0 -0.0067705535947942593 0.0024061379449693415 0 -0.0067548709119528228 0.0024100915027462913 0 -0.0069296518367348812 0.0024220081325312028 0 -0.007004430374419281 0.0024141641459704886 0 -0.0065930241327375912 0.0024502553592774265 0 -0.0067548709119528228 0.0024100915027462913 0 -0.0069296518367348812 0.0024220081325312028 0 -0.0073904607023317203 0.0024467606482585303 0 -0.0069296518367348812 0.0024220081325312028 0 -0.007004430374419281 0.0024141641459704886 0 -0.006784659557581476 0.00245949859712284 0 -0.0067705535947942593 0.0024061379449693415 0 -0.007004430374419281 0.0024141641459704886 0 -0.007004430374419281 0.0024141641459704886 0 -0.0075244070004407285 0.0026280214687324881 0 -0.0070711950885003483 0.0024691049445868074 0 -0.006784659557581476 0.00245949859712284 0 -0.007004430374419281 0.0024141641459704886 0 -0.0068391713180242153 0.0025342801760728493 0 -0.0071990947524092066 0.0022928131587237103 0 -0.0063717200318754354 0.0026858799324872549 0 -0.0073904607023317203 0.0024467606482585303 0 -0.007004430374419281 0.0024141641459704886 0 -0.0075244070004407285 0.0026280214687324881 0 -0.0075244070004407285 0.0026280214687324881 0 -0.007317952777580022 0.0030393375419516021 0 -0.007899727277728006 0.0029759296903511963 0 -0.0079269157123803384 0.0029571769848144498 0 -0.0075244070004407285 0.0026280214687324881 0 -0.007899727277728006 0.0029759296903511963 0 -0.0075244070004407285 0.0026280214687324881 0 -0.0070711950885003483 0.0024691049445868074 0 -0.007317952777580022 0.0030393375419516021 0 -0.0063717200318754354 0.0026858799324872549 0 -0.010194707369965318 0.0028926977541455325 0 -0.0070711950885003483 0.0024691049445868074 0 -0.0063144667803520464 0.0029282507299992185 0 -0.007317952777580022 0.0030393375419516021 0 -0.0068391713180242153 0.0025342801760728493 0 -0.0067680949922351548 0.0024968100363724653 0 -0.0068253650130088734 0.002578270100599217 0 -0.006784659557581476 0.00245949859712284 0 -0.0068391713180242153 0.0025342801760728493 0 -0.0067680949922351548 0.0024968100363724653 0 -0.006784659557581476 0.00245949859712284 0 -0.0067660962372342705 0.0024544432862694402 0 -0.0067680949922351548 0.0024968100363724653 0 -0.013082915344064245 0.0012775965304781332 0 -0.013009825235999289 0.0015881828439597888 0 -0.013320305824419528 0.0017884613617772664 0 -0.009862736456236117 0.0017429258045374351 0 -0.010194707369965318 0.0028926977541455325 0 -0.013009825235999289 0.0015881828439597888 0 -0.013057359639768465 0.0018075550289127413 0 -0.013320305824419528 0.0017884613617772664 0 -0.014436357972862581 0.0042518503085879301 0 -0.014384002745293568 0.0043778854217390462 0 -0.014541975840941969 0.0044377933130840463 0 -0.013057359639768465 0.0018075550289127413 0 -0.013320305824419528 0.0017884613617772664 0 -0.013091180068730087 0.0021096818836139702 0 -0.010194707369965318 0.0028926977541455325 0 -0.013928396089886561 0.0030299892423447826 0 -0.013057359639768465 0.0018075550289127413 0 -0.013091180068730087 0.0021096818836139702 0 -0.01292310017682014 0.0019582614814017537 0 -0.014384002745293568 0.0043778854217390462 0 -0.014541975840941969 0.0044377933130840463 0 -0.014457416172405098 0.0045361147591799411 0 -0.014384002745293568 0.0043778854217390462 0 -0.014457416172405098 0.0045361147591799411 0 -0.014328801621408064 0.0044990025726731912 0 -0.0063144667803520464 0.0029282507299992185 0 -0.0064017428084423393 0.0043297445506175879 0 -0.007317952777580022 0.0030393375419516021 0 -0.010194707369965318 0.0028926977541455325 0 -0.010509502096414469 0.004558123116076983 0 -0.007317952777580022 0.0030393375419516021 0 -0.007899727277728006 0.0029759296903511963 0 -0.0086090289552317525 0.0033071933591973055 0 -0.0079269157123803384 0.0029571769848144498 0 -0.007899727277728006 0.0029759296903511963 0 -0.0086090289552317525 0.0033071933591973055 0 -0.0086090289552317525 0.0033071933591973055 0 -0.0075715746282667877 0.004342151233155696 0 -0.0088326537476973183 0.0056889215553195026 0 -0.0086090289552317525 0.0033071933591973055 0 -0.0088326537476973183 0.0056889215553195026 0 -0.011378602219456394 0.0053056172296774744 0 -0.007317952777580022 0.0030393375419516021 0 -0.0086090289552317525 0.0033071933591973055 0 -0.0075715746282667877 0.004342151233155696 0 -0.0064017428084423393 0.0043297445506175879 0 -0.007317952777580022 0.0030393375419516021 0 -0.0075715746282667877 0.004342151233155696 0 -0.0064017428084423393 0.0043297445506175879 0 -0.0075715746282667877 0.004342151233155696 0 -0.0071356363880364969 0.0063164889745100823 0 -0.0064017428084423393 0.0043297445506175879 0 -0.0071356363880364969 0.0063164889745100823 0 -0.0069613132119508512 0.0073839640367095441 0 -0.0071356363880364969 0.0063164889745100823 0 -0.0083362670384758003 0.0072088580003947678 0 -0.0088326537476973183 0.0056889215553195026 0 -0.0075715746282667877 0.004342151233155696 0 -0.0071356363880364969 0.0063164889745100823 0 -0.0088326537476973183 0.0056889215553195026 0 -0.0071356363880364969 0.0063164889745100823 0 -0.0083362670384758003 0.0072088580003947678 0 -0.0070325844571844645 0.00780618460050027 0 -0.009110915772733744 0.0067499296044377498 0 -0.010984565357340144 0.0061403077185641737 0 -0.0088326537476973183 0.0056889215553195026 0 -0.010646405222993413 0.0079009320667204775 0 -0.011378602219456394 0.0053056172296774744 0 -0.0083362670384758003 0.0072088580003947678 0 -0.0088326537476973183 0.0056889215553195026 0 -0.010646405222993413 0.0079009320667204775 0 -0.013127836637056861 0.0070183540421515722 0 -0.01376700250787608 0.0068116429828459224 0 -0.016093893573795603 0.0059225662633784334 0 -0.01660265038535335 0.0057668868079899056 0 -0.016286397992547989 0.0056555492037163764 0 -0.0083362670384758003 0.0072088580003947678 0 -0.010646405222993413 0.0079009320667204775 0 -0.0077821193653239825 0.0094937133330258352 0 -0.010984565357340144 0.0061403077185641737 0 -0.016101215621569281 0.0058902511049816267 0 -0.010984565357340144 0.0061403077185641737 0 -0.01376700250787608 0.0068116429828459224 0 -0.0083362670384758003 0.0072088580003947678 0 -0.0070325844571844645 0.00780618460050027 0 -0.0077821193653239825 0.0094937133330258352 0 -0.013402345572318508 0.0060456785318345413 0 -0.013600995465110961 0.0064432844469192677 0 -0.013416330025854102 0.0065728368635338376 0 -0.01376700250787608 0.0068116429828459224 0 -0.016101215621569281 0.0058902511049816267 0 -0.014634561110337955 0.0046199009212172263 0 -0.014645574712715192 0.0047137598517961368 0 -0.014539525866881035 0.0046581135826707443 0 -0.014645574712715192 0.0047137598517961368 0 -0.014539525866881035 0.0046581135826707443 0 -0.01456337151086667 0.0047780417963388319 0 -0.014539525866881035 0.0046581135826707443 0 -0.01456337151086667 0.0047780417963388319 0 -0.014408198122054823 0.004686383049794551 0 -0.014539525866881035 0.0046581135826707443 0 -0.014457416172405098 0.0045361147591799411 0 -0.014408198122054823 0.004686383049794551 0 -0.014457416172405098 0.0045361147591799411 0 -0.014408198122054823 0.004686383049794551 0 -0.014328801621408064 0.0044990025726731912 0 -0.014539525866881035 0.0046581135826707443 0 -0.014457416172405098 0.0045361147591799411 0 -0.014542929473243501 0.004563960619378615 0 -0.014634561110337955 0.0046199009212172263 0 -0.014539525866881035 0.0046581135826707443 0 -0.014542929473243501 0.004563960619378615 0 -0.014541975840941969 0.0044377933130840463 0 -0.014457416172405098 0.0045361147591799411 0 -0.014542929473243501 0.004563960619378615 0 -0.010509502096414469 0.004558123116076983 0 -0.010984565357340144 0.0061403077185641737 0 -0.014541975840941969 0.0044377933130840463 0 -0.014634561110337955 0.0046199009212172263 0 -0.014542929473243501 0.004563960619378615 0 -0.0088607050271471074 0.0031494380192498956 0 -0.0083195958433527843 0.0030984744828693512 0 -0.0084838295255692166 0.0029085654072482513 0 -0.0086872023336110292 0.0031074761301102581 0 -0.008348327318355768 0.0031121205921685598 0 -0.0084838295255692166 0.0029085654072482513 0 -0.008348327318355768 0.0031121205921685598 0 -0.0082373426992615774 0.0029933218821732682 0 -0.0084838295255692166 0.0029085654072482513 0 -0.0082312663829844576 0.0027918483537841829 0 -0.0082373426992615774 0.0029933218821732682 0 -0.0084838295255692166 0.0029085654072482513 0 -0.0082312663829844576 0.0027918483537841829 0 -0.0084232113710898445 0.0026862425358278371 0 -0.0079984745185364171 0.0028447274828381523 0 -0.0082312663829844576 0.0027918483537841829 0 -0.0081137179578778095 0.0029458809747698348 0 -0.0082312663829844576 0.0027918483537841829 0 -0.0081137179578778095 0.0029458809747698348 0 -0.0082373426992615774 0.0029933218821732682 0 -0.0083195958433527843 0.0030984744828693512 0 -0.011582304770396446 0.0042288220690647575 0 -0.008348327318355768 0.0031121205921685598 0 -0.0082373426992615774 0.0029933218821732682 0 -0.0081169457338191291 0.0030645478822238048 0 -0.0081137179578778095 0.0029458809747698348 0 -0.0081169457338191291 0.0030645478822238048 0 -0.008074470845254535 0.0029906618054618859 0 -0.0081137179578778095 0.0029458809747698348 0 -0.0082373426992615774 0.0029933218821732682 0 -0.0081169457338191291 0.0030645478822238048 0 -0.016372715860048272 0.004751066239397291 0 -0.015947646309862517 0.005048983153798702 0 -0.015968208182471674 0.0054989199653021322 0 -0.011582304770396446 0.0042288220690647575 0 -0.011180016720009336 0.0033522488179494655 0 -0.0081169457338191291 0.0030645478822238048 0 -0.0080546376192963988 0.0029842362912254235 0 -0.0080486190030025009 0.0029445082467322399 0 -0.016372715860048272 0.004751066239397291 0 -0.015415663338307526 0.004878466961182327 0 -0.0142875358416763 0.003620759244454558 0 -0.016372715860048272 0.004751066239397291 0 -0.015947646309862517 0.005048983153798702 0 -0.015415663338307526 0.004878466961182327 0 -0.015947646309862517 0.005048983153798702 0 -0.015415663338307526 0.004878466961182327 0 -0.015571750270814137 0.0054323534806173298 0 -0.015415663338307526 0.004878466961182327 0 -0.0142875358416763 0.003620759244454558 0 -0.014841931125039487 0.0056811540890144268 0 -0.0080546376192963988 0.0029842362912254235 0 -0.0079957675481000696 0.0030104821168707007 0 -0.0080486190030025009 0.0029445082467322399 0 -0.0081169457338191291 0.0030645478822238048 0 -0.0080546376192963988 0.0029842362912254235 0 -0.008074470845254535 0.0029906618054618859 0 -0.0081137179578778095 0.0029458809747698348 0 -0.008074470845254535 0.0029906618054618859 0 -0.008041024700852566 0.0029696295898515609 0 -0.0080546376192963988 0.0029842362912254235 0 -0.008074470845254535 0.0029906618054618859 0 -0.008041024700852566 0.0029696295898515609 0 -0.0079984745185364171 0.0028447274828381523 0 -0.0081137179578778095 0.0029458809747698348 0 -0.008041024700852566 0.0029696295898515609 0 -0.0079984745185364171 0.0028447274828381523 0 -0.008041024700852566 0.0029696295898515609 0 -0.0079957675481000696 0.0030104821168707007 0 -0.0080546376192963988 0.0029842362912254235 0 -0.008041024700852566 0.0029696295898515609 0 -0.0079957675481000696 0.0030104821168707007 0 -0.0079269157123803384 0.0029571769848144498 0 -0.0079984745185364171 0.0028447274828381523 0 -0.0079957675481000696 0.0030104821168707007 0 -0.0079269157123803384 0.0029571769848144498 0 -0.0086090289552317525 0.0033071933591973055 0 -0.0079957675481000696 0.0030104821168707007 0 -0.0086090289552317525 0.0033071933591973055 0 -0.0142875358416763 0.003620759244454558 0 -0.011378602219456394 0.0053056172296774744 0 -0.0086090289552317525 0.0033071933591973055 0 -0.0079957675481000696 0.0030104821168707007 0 -0.0080486190030025009 0.0029445082467322399 0 -0.0087936730589495676 0.0032377084487673394 0 -0.011180016720009336 0.0033522488179494655 0 -0.0142875358416763 0.003620759244454558 0 -0.011378602219456394 0.0053056172296774744 0 -0.014841931125039487 0.0056811540890144268 0 -0.010646405222993413 0.0079009320667204775 0 -0.011378602219456394 0.0053056172296774744 0 -0.014841931125039487 0.0056811540890144268 0 -0.016093893573795603 0.0059225662633784334 0 -0.014841931125039487 0.0056811540890144268 0 -0.015711368194604246 0.005804986119431403 0 -0.013127836637056861 0.0070183540421515722 0 -0.014933048036252965 0.0056804856388118358 0 -0.015711368194604246 0.005804986119431403 0 -0.016114217050980505 0.0056282898321781604 0 -0.016286397992547989 0.0056555492037163764 0 -0.016093893573795603 0.0059225662633784334 0 -0.015711368194604246 0.005804986119431403 0 -0.016286397992547989 0.0056555492037163764 0 -0.015711368194604246 0.005804986119431403 0 -0.015593718716441935 0.0057553591248153046 0 -0.015846428151052083 0.0058785591856892272 0 -0.015711368194604246 0.005804986119431403 0 -0.015846428151052083 0.0058785591856892272 0 -0.015922014669477104 0.0056806336234444341 0 -0.014841931125039487 0.0056811540890144268 0 -0.015711368194604246 0.005804986119431403 0 -0.015593718716441935 0.0057553591248153046 0 -0.015593718716441935 0.0057553591248153046 0 -0.015968208182471674 0.0054989199653021322 0 -0.015846428151052083 0.0058785591856892272 0 -0.015415663338307526 0.004878466961182327 0 -0.014841931125039487 0.0056811540890144268 0 -0.015571750270814137 0.0054323534806173298 0 -0.014841931125039487 0.0056811540890144268 0 -0.015593718716441935 0.0057553591248153046 0 -0.015571750270814137 0.0054323534806173298 0 -0.015593718716441935 0.0057553591248153046 0 -0.015571750270814137 0.0054323534806173298 0 -0.015968208182471674 0.0054989199653021322 0 -0.015947646309862517 0.005048983153798702 0 -0.015571750270814137 0.0054323534806173298 0 -0.015968208182471674 0.0054989199653021322 0 -0.011582304770396446 0.0042288220690647575 0 -0.013885035107675279 0.0034801863226940084 0 -0.0092479421526167477 0.0032433638656261744 0 -0.0098433028902108564 0.0033345724111974078 0 -0.0093873221988749894 0.0026660369143438542 0 -0.016372715860048272 0.004751066239397291 0 -0.015968208182471674 0.0054989199653021322 0 -0.016628911910669626 0.0057760904618108346 0 -0.015968208182471674 0.0054989199653021322 0 -0.015846428151052083 0.0058785591856892272 0 -0.016628911910669626 0.0057760904618108346 0 -0.016400940610689613 0.0058912154985812032 0 -0.013885035107675279 0.0034801863226940084 0 -0.015846428151052083 0.0058785591856892272 0 -0.015566961876688701 0.0059726681797542093 0 -0.015679687573222176 0.0056880125036093045 0 -0.015846428151052083 0.0058785591856892272 0 -0.015679687573222176 0.0056880125036093045 0 -0.015922014669477104 0.0056806336234444341 0 -0.015320368100127164 0.005650892268607632 0 -0.015566961876688701 0.0059726681797542093 0 -0.015679687573222176 0.0056880125036093045 0 -0.015251342961305267 0.0033447186002585863 0 -0.013885035107675279 0.0034801863226940084 0 -0.014803697447380124 0.00070579370937037442 0 -0.014873652094654412 0.00062661811671073787 0 -0.014709734537889253 0.0006059594538892659 0 -0.011459481955181153 0.0016035111348003234 0 -0.013885035107675279 0.0034801863226940084 0 -0.0086464007730787593 0.0029529907879780591 0 -0.0092479421526167477 0.0032433638656261744 0 -0.0093873221988749894 0.0026660369143438542 0 -0.015294434639647999 0.005048159317984845 0 -0.01534229397919344 0.0051393118461350593 0 -0.015463683327124601 0.0050818072897844549 0 -0.015276898814488378 0.0052113700705531249 0 -0.015437143418924057 0.0052196470220696881 0 -0.01534229397919344 0.0051393118461350593 0 -0.015437143418924057 0.0052196470220696881 0 -0.01534229397919344 0.0051393118461350593 0 -0.015463683327124601 0.0050818072897844549 0 -0.015437143418924057 0.0052196470220696881 0 -0.015463683327124601 0.0050818072897844549 0 -0.015657446361759437 0.0051332116283613581 0 -0.015437143418924057 0.0052196470220696881 0 -0.015560138304041507 0.0054353714229522475 0 -0.015657446361759437 0.0051332116283613581 0 -0.015437143418924057 0.0052196470220696881 0 -0.015319088453247212 0.0053593834092736346 0 -0.015560138304041507 0.0054353714229522475 0 -0.015276898814488378 0.0052113700705531249 0 -0.015437143418924057 0.0052196470220696881 0 -0.015319088453247212 0.0053593834092736346 0 -0.015320368100127164 0.005650892268607632 0 -0.015319088453247212 0.0053593834092736346 0 -0.015560138304041507 0.0054353714229522475 0 -0.015320368100127164 0.005650892268607632 0 -0.015560138304041507 0.0054353714229522475 0 -0.015679687573222176 0.0056880125036093045 0 -0.015560138304041507 0.0054353714229522475 0 -0.015679687573222176 0.0056880125036093045 0 -0.01581119416562107 0.0054269541791934781 0 -0.015679687573222176 0.0056880125036093045 0 -0.01581119416562107 0.0054269541791934781 0 -0.015922014669477104 0.0056806336234444341 0 -0.015560138304041507 0.0054353714229522475 0 -0.01581119416562107 0.0054269541791934781 0 -0.015657446361759437 0.0051332116283613581 0 -0.01581119416562107 0.0054269541791934781 0 -0.015657446361759437 0.0051332116283613581 0 -0.016013500498574577 0.0051130854839652089 0 -0.016397399856944019 0.0051646115925794329 0 -0.016132898117936206 0.0054371922564859397 0 -0.016013500498574577 0.0051130854839652089 0 -0.01581119416562107 0.0054269541791934781 0 -0.016132898117936206 0.0054371922564859397 0 -0.016013500498574577 0.0051130854839652089 0 -0.015711368194604246 0.005804986119431403 0 -0.015922014669477104 0.0056806336234444341 0 -0.016114217050980505 0.0056282898321781604 0 -0.01581119416562107 0.0054269541791934781 0 -0.016132898117936206 0.0054371922564859397 0 -0.015922014669477104 0.0056806336234444341 0 -0.016132898117936206 0.0054371922564859397 0 -0.015922014669477104 0.0056806336234444341 0 -0.016114217050980505 0.0056282898321781604 0 -0.016132898117936206 0.0054371922564859397 0 -0.016114217050980505 0.0056282898321781604 0 -0.016543074570110144 0.0054567426894866992 0 -0.016114217050980505 0.0056282898321781604 0 -0.016543074570110144 0.0054567426894866992 0 -0.016286397992547989 0.0056555492037163764 0 -0.016543074570110144 0.0054567426894866992 0 -0.016863918534997552 0.0050001747991301835 0 -0.017069556390299997 0.0053194757554875247 0 -0.016397399856944019 0.0051646115925794329 0 -0.016543074570110144 0.0054567426894866992 0 -0.016863918534997552 0.0050001747991301835 0 -0.016397399856944019 0.0051646115925794329 0 -0.016132898117936206 0.0054371922564859397 0 -0.016543074570110144 0.0054567426894866992 0 -0.016397399856944019 0.0051646115925794329 0 -0.016863918534997552 0.0050001747991301835 0 -0.016475702775867889 0.0047257622605776832 0 -0.016863918534997552 0.0050001747991301835 0 -0.017048943699952888 0.0045239554118345305 0 -0.016475702775867889 0.0047257622605776832 0 -0.017048943699952888 0.0045239554118345305 0 -0.016798860100873444 0.0042001765169477493 0 -0.017605781260509695 0.0039290440478548802 0 -0.017048943699952888 0.0045239554118345305 0 -0.016798860100873444 0.0042001765169477493 0 -0.016475702775867889 0.0047257622605776832 0 -0.015978725893830925 0.0050468675467156884 0 -0.017153474228590947 0.0031228744922076317 0 -0.016475702775867889 0.0047257622605776832 0 -0.016034456049967397 0.0047125474667137615 0 -0.016196315421137267 0.0040905958127820082 0 -0.016798860100873444 0.0042001765169477493 0 -0.016475702775867889 0.0047257622605776832 0 -0.016196315421137267 0.0040905958127820082 0 -0.016475702775867889 0.0047257622605776832 0 -0.016013500498574577 0.0051130854839652089 0 -0.016034456049967397 0.0047125474667137615 0 -0.016397399856944019 0.0051646115925794329 0 -0.016475702775867889 0.0047257622605776832 0 -0.016013500498574577 0.0051130854839652089 0 -0.016013500498574577 0.0051130854839652089 0 -0.015804159179086123 0.0049139536480975882 0 -0.016034456049967397 0.0047125474667137615 0 -0.015657446361759437 0.0051332116283613581 0 -0.016013500498574577 0.0051130854839652089 0 -0.015804159179086123 0.0049139536480975882 0 -0.015657446361759437 0.0051332116283613581 0 -0.015804159179086123 0.0049139536480975882 0 -0.015537290283472255 0.0049466973402184792 0 -0.015804159179086123 0.0049139536480975882 0 -0.016034456049967397 0.0047125474667137615 0 -0.015635846576055441 0.0046574947003086434 0 -0.015804159179086123 0.0049139536480975882 0 -0.015635846576055441 0.0046574947003086434 0 -0.015537290283472255 0.0049466973402184792 0 -0.016034456049967397 0.0047125474667137615 0 -0.015635846576055441 0.0046574947003086434 0 -0.016132734384295095 0.0041990747673303543 0 -0.018354610825624632 0.0013937819410802872 0 -0.018338313715583223 0.0012266645336886618 0 -0.018311456115295076 0.0011951194810042877 0 -0.017047055150363057 0.0030562190546189324 0 -0.017153474228590947 0.0031228744922076317 0 -0.018354610825624632 0.0013937819410802872 0 -0.018338313715583223 0.0012266645336886618 0 -0.018127996164865132 0.0014104346552641933 0 -0.018027350275686957 0.0012128711336163885 0 -0.018338313715583223 0.0012266645336886618 0 -0.018127996164865132 0.0014104346552641933 0 -0.015261308845379434 0.0050374909626589677 0 -0.015635846576055441 0.0046574947003086434 0 -0.015537290283472255 0.0049466973402184792 0 -0.016162262834163145 0.0025447429755122123 0 -0.017047055150363057 0.0030562190546189324 0 -0.018074526510965725 0.0017675400143043697 0 -0.018354610825624632 0.0013937819410802872 0 -0.018127996164865132 0.0014104346552641933 0 -0.015463683327124601 0.0050818072897844549 0 -0.015657446361759437 0.0051332116283613581 0 -0.015537290283472255 0.0049466973402184792 0 -0.015294434639647999 0.005048159317984845 0 -0.015463683327124601 0.0050818072897844549 0 -0.015537290283472255 0.0049466973402184792 0 -0.015294434639647999 0.005048159317984845 0 -0.015261308845379434 0.0050374909626589677 0 -0.015537290283472255 0.0049466973402184792 0 -0.018935414657472182 0.0053072067158691913 0 -0.018895811918481876 0.0059584438932494153 0 -0.018391450062680358 0.0053638301262720484 0 -0.018935414657472182 0.0053072067158691913 0 -0.018391450062680358 0.0053638301262720484 0 -0.018747567613120866 0.0049417720025231714 0 -0.018935414657472182 0.0053072067158691913 0 -0.019435833679791667 0.0055889660317154349 0 -0.018895811918481876 0.0059584438932494153 0 -0.018935414657472182 0.0053072067158691913 0 -0.019435833679791667 0.0055889660317154349 0 -0.019227061840045641 0.0047007789753572352 0 -0.014489150102596077 0.0048461743989620248 0 -0.01456337151086667 0.0047780417963388319 0 -0.014408198122054823 0.004686383049794551 0 -0.018058688025901971 0.005112257383907544 0 -0.01665745628219056 0.0053991006291252783 0 -0.018058688025901971 0.005112257383907544 0 -0.017203521812593783 0.0053318653438620689 0 -0.018342328732867022 0.0063266296877060105 0 -0.018895811918481876 0.0059584438932494153 0 -0.018391450062680358 0.0053638301262720484 0 -0.016101215621569281 0.0058902511049816267 0 -0.01665745628219056 0.0053991006291252783 0 -0.017822911575166373 0.0069968503931467467 0 -0.0180748546890501 0.0068301049357790923 0 -0.017472357957901436 0.0061850851089881006 0 -0.016101215621569281 0.0058902511049816267 0 -0.0185672956990461 0.0055651447794137316 0 -0.0180748546890501 0.0068301049357790923 0 -0.017472357957901436 0.0061850851089881006 0 -0.018168066569430534 0.0054744480680766284 0 -0.01376700250787608 0.0068116429828459224 0 -0.017215392585549393 0.0059686007245003461 0 -0.01660265038535335 0.0057668868079899056 0 -0.016286397992547989 0.0056555492037163764 0 -0.016637149299114942 0.0055251629823131867 0 -0.016543074570110144 0.0054567426894866992 0 -0.016286397992547989 0.0056555492037163764 0 -0.016637149299114942 0.0055251629823131867 0 -0.017472357957901436 0.0061850851089881006 0 -0.017069556390299997 0.0053194757554875247 0 -0.018168066569430534 0.0054744480680766284 0 -0.016543074570110144 0.0054567426894866992 0 -0.016637149299114942 0.0055251629823131867 0 -0.017069556390299997 0.0053194757554875247 0 -0.017215392585549393 0.0059686007245003461 0 -0.016976530070662431 0.0052997072845967115 0 -0.018168066569430534 0.0054744480680766284 0 -0.017612928974895106 0.0046697244577366516 0 -0.018434845470917699 0.0043935805891862868 0 -0.018391450062680358 0.0053638301262720484 0 -0.018434845470917699 0.0043935805891862868 0 -0.018747567613120866 0.0049417720025231714 0 -0.0185672956990461 0.0055651447794137316 0 -0.018338664933121404 0.0043646616411164817 0 -0.017069556390299997 0.0053194757554875247 0 -0.018168066569430534 0.0054744480680766284 0 -0.017612928974895106 0.0046697244577366516 0 -0.016863918534997552 0.0050001747991301835 0 -0.017048943699952888 0.0045239554118345305 0 -0.017612928974895106 0.0046697244577366516 0 -0.016863918534997552 0.0050001747991301835 0 -0.017069556390299997 0.0053194757554875247 0 -0.017612928974895106 0.0046697244577366516 0 -0.017048943699952888 0.0045239554118345305 0 -0.017612928974895106 0.0046697244577366516 0 -0.017605781260509695 0.0039290440478548802 0 -0.017612928974895106 0.0046697244577366516 0 -0.017605781260509695 0.0039290440478548802 0 -0.018175769648542957 0.0039737340177119253 0 -0.017612928974895106 0.0046697244577366516 0 -0.018434845470917699 0.0043935805891862868 0 -0.018175769648542957 0.0039737340177119253 0 -0.019487111643766711 0.0047753946916234856 0 -0.019032117564214801 0.0038156690033689052 0 -0.018434845470917699 0.0043935805891862868 0 -0.019227061840045641 0.0047007789753572352 0 -0.019082156370751717 0.0038380557885236781 0 -0.018434845470917699 0.0043935805891862868 0 -0.018747567613120866 0.0049417720025231714 0 -0.019227061840045641 0.0047007789753572352 0 -0.018935414657472182 0.0053072067158691913 0 -0.018747567613120866 0.0049417720025231714 0 -0.019227061840045641 0.0047007789753572352 0 -0.019580871713154573 0.0053889901318926892 0 -0.019350604602160138 0.0046269479615133266 0 -0.020082998693485333 0.0050455107448157044 0 -0.018058688025901971 0.005112257383907544 0 -0.019487111643766711 0.0047753946916234856 0 -0.019350604602160138 0.0046269479615133266 0 -0.019082156370751717 0.0038380557885236781 0 -0.019651975475274763 0.0040391590697697348 0 -0.019350604602160138 0.0046269479615133266 0 -0.019930470500259256 0.0045410407863020214 0 -0.019651975475274763 0.0040391590697697348 0 -0.019930470500259256 0.0045410407863020214 0 -0.020124077749331597 0.0042851276110195619 0 -0.019651975475274763 0.0040391590697697348 0 -0.019930470500259256 0.0045410407863020214 0 -0.020124077749331597 0.0042851276110195619 0 -0.020325064966038434 0.0046764506938221555 0 -0.02067810559452277 0.0045037377634317829 0 -0.02064629842058599 0.0046921980647704996 0 -0.020858734443486671 0.0045035726478770991 0 -0.020124077749331597 0.0042851276110195619 0 -0.02067810559452277 0.0045037377634317829 0 -0.020325064966038434 0.0046764506938221555 0 -0.020325064966038434 0.0046764506938221555 0 -0.02064629842058599 0.0046921980647704996 0 -0.020328929724397333 0.0049030310269690975 0 -0.02064629842058599 0.0046921980647704996 0 -0.020328929724397333 0.0049030310269690975 0 -0.020277201307354518 0.0051304898504808552 0 -0.02067810559452277 0.0045037377634317829 0 -0.020325064966038434 0.0046764506938221555 0 -0.02064629842058599 0.0046921980647704996 0 -0.019350604602160138 0.0046269479615133266 0 -0.019930470500259256 0.0045410407863020214 0 -0.020082998693485333 0.0050455107448157044 0 -0.020325064966038434 0.0046764506938221555 0 -0.020328929724397333 0.0049030310269690975 0 -0.020082998693485333 0.0050455107448157044 0 -0.019930470500259256 0.0045410407863020214 0 -0.020325064966038434 0.0046764506938221555 0 -0.020082998693485333 0.0050455107448157044 0 -0.017761605683399594 0.0043902861709387815 0 -0.018253470694149711 0.0044431258542948267 0 -0.017816668389576081 0.0038777393814241057 0 -0.017761605683399594 0.0043902861709387815 0 -0.017816668389576081 0.0038777393814241057 0 -0.017207816036416728 0.0039298672452197361 0 -0.017761605683399594 0.0043902861709387815 0 -0.017283267666050123 0.004460719410378575 0 -0.017207816036416728 0.0039298672452197361 0 -0.019520540962869572 0.0044488231132542829 0 -0.019722403976869505 0.0041710790970652311 0 -0.018253470694149711 0.0044431258542948267 0 -0.018282517458814696 0.0034125402007630376 0 -0.017816668389576081 0.0038777393814241057 0 -0.02064629842058599 0.0046921980647704996 0 -0.020858734443486671 0.0045035726478770991 0 -0.020659654523374118 0.00474730250417055 0 -0.018282517458814696 0.0034125402007630376 0 -0.017816668389576081 0.0038777393814241057 0 -0.017846178431493474 0.0034490066856997141 0 -0.017816668389576081 0.0038777393814241057 0 -0.017496632142834225 0.0034811739970907782 0 -0.017207816036416728 0.0039298672452197361 0 -0.017846178431493474 0.0034490066856997141 0 -0.017496632142834225 0.0034811739970907782 0 -0.017698218137780004 0.003225625553960275 0 -0.017816668389576081 0.0038777393814241057 0 -0.017846178431493474 0.0034490066856997141 0 -0.017496632142834225 0.0034811739970907782 0 -0.017720404709115411 0.0028693355084906335 0 -0.017409528154424387 0.0027041433713193303 0 -0.017363656368618811 0.0030447856194615883 0 -0.017698218137780004 0.003225625553960275 0 -0.017720404709115411 0.0028693355084906335 0 -0.017363656368618811 0.0030447856194615883 0 -0.017496632142834225 0.0034811739970907782 0 -0.017698218137780004 0.003225625553960275 0 -0.017363656368618811 0.0030447856194615883 0 -0.017846178431493474 0.0034490066856997141 0 -0.017698218137780004 0.003225625553960275 0 -0.01793160669794943 0.0031480771291015641 0 -0.017698218137780004 0.003225625553960275 0 -0.017720404709115411 0.0028693355084906335 0 -0.01793160669794943 0.0031480771291015641 0 -0.017720404709115411 0.0028693355084906335 0 -0.01793160669794943 0.0031480771291015641 0 -0.018060209168014318 0.0027241649049641065 0 -0.019722403976869505 0.0041710790970652311 0 -0.017677834739529288 0.0031537765476266372 0 -0.018282517458814696 0.0034125402007630376 0 -0.01793160669794943 0.0031480771291015641 0 -0.018060209168014318 0.0027241649049641065 0 -0.020659654523374118 0.00474730250417055 0 -0.02055361362663136 0.0048328703236598805 0 -0.020546945221234344 0.0048097136663076048 0 -0.018282517458814696 0.0034125402007630376 0 -0.018299959620714186 0.0024064567573425155 0 -0.018060209168014318 0.0027241649049641065 0 -0.018282517458814696 0.0034125402007630376 0 -0.017846178431493474 0.0034490066856997141 0 -0.01793160669794943 0.0031480771291015641 0 -0.018281074151317203 0.0024227580334276015 0 -0.017671820792705295 0.0024099705973875583 0 -0.018287069535957864 0.0022465363225312434 0 -0.018281074151317203 0.0024227580334276015 0 -0.018060209168014318 0.0027241649049641065 0 -0.017671820792705295 0.0024099705973875583 0 -0.017677834739529288 0.0031537765476266372 0 -0.018210146012321255 0.0025121464662794168 0 -0.017671820792705295 0.0024099705973875583 0 -0.017409528154424387 0.0027041433713193303 0 -0.01701433065749126 0.0025814352745418961 0 -0.017720404709115411 0.0028693355084906335 0 -0.018060209168014318 0.0027241649049641065 0 -0.017671820792705295 0.0024099705973875583 0 -0.017720404709115411 0.0028693355084906335 0 -0.017671820792705295 0.0024099705973875583 0 -0.017409528154424387 0.0027041433713193303 0 -0.020082998693485333 0.0050455107448157044 0 -0.020277201307354518 0.0051304898504808552 0 -0.020080776958943967 0.0053922987338459651 0 -0.019772295610273265 0.0052649568199323645 0 -0.020082998693485333 0.0050455107448157044 0 -0.020080776958943967 0.0053922987338459651 0 -0.018058688025901971 0.005112257383907544 0 -0.020445284729223575 0.0048816031936342224 0 -0.02064629842058599 0.0046921980647704996 0 -0.020659654523374118 0.00474730250417055 0 -0.020546945221234344 0.0048097136663076048 0 -0.020505927702511705 0.0045975580613135617 0 -0.020889681752892911 0.0053774337265944756 0 -0.020328929724397333 0.0049030310269690975 0 -0.020082998693485333 0.0050455107448157044 0 -0.020277201307354518 0.0051304898504808552 0 -0.02064629842058599 0.0046921980647704996 0 -0.020277201307354518 0.0051304898504808552 0 -0.020344720037274517 0.0054218687563774917 0 -0.020277201307354518 0.0051304898504808552 0 -0.020344720037274517 0.0054218687563774917 0 -0.020080776958943967 0.0053922987338459651 0 -0.020344720037274517 0.0054218687563774917 0 -0.020122531051924363 0.0055903268586515184 0 -0.020080776958943967 0.0053922987338459651 0 -0.019772295610273265 0.0052649568199323645 0 -0.020080776958943967 0.0053922987338459651 0 -0.019907203105008604 0.0056921789254473576 0 -0.020122531051924363 0.0055903268586515184 0 -0.020080776958943967 0.0053922987338459651 0 -0.019907203105008604 0.0056921789254473576 0 -0.020122531051924363 0.0055903268586515184 0 -0.019907203105008604 0.0056921789254473576 0 -0.020155912513306933 0.0058309960736258552 0 -0.012902517896470227 0.0024115242590880201 0 -0.012753933298600905 0.0026878918825049575 0 -0.012739559265587107 0.0023484030794300934 0 -0.017203521812593783 0.0053318653438620689 0 -0.015961959581094465 0.0045178126457670843 0 -0.019907203105008604 0.0056921789254473576 0 -0.019966896181786264 0.0060131140076108234 0 -0.020155912513306933 0.0058309960736258552 0 -0.015961959581094465 0.0045178126457670843 0 -0.017191630408346245 0.0040317071807073664 0 -0.017191630408346245 0.0040317071807073664 0 -0.013759636616600252 0.0019777856659977298 0 -0.014796967293883058 0.002330771152477902 0 -0.014832287544629565 0.0019498597309575557 0 -0.014598915088961705 0.0019357063918995292 0 -0.014796967293883058 0.002330771152477902 0 -0.014494641704752438 0.0021416130605988143 0 -0.014598915088961705 0.0019357063918995292 0 -0.014796967293883058 0.002330771152477902 0 -0.014547349351285181 0.0023786390099244537 0 -0.014494641704752438 0.0021416130605988143 0 -0.017677834739529288 0.0031537765476266372 0 -0.017191630408346245 0.0040317071807073664 0 -0.014523244294039603 0.0027223077921090309 0 -0.014796967293883058 0.002330771152477902 0 -0.014573581268151408 0.0025910728798952134 0 -0.02055361362663136 0.0048328703236598805 0 -0.020546945221234344 0.0048097136663076048 0 -0.0204586920287184 0.0048752873528545779 0 -0.020889681752892911 0.0053774337265944756 0 -0.017191630408346245 0.0040317071807073664 0 -0.014796967293883058 0.002330771152477902 0 -0.014573581268151408 0.0025910728798952134 0 -0.014547349351285181 0.0023786390099244537 0 -0.020344720037274517 0.0054218687563774917 0 -0.020122531051924363 0.0055903268586515184 0 -0.020155912513306933 0.0058309960736258552 0 -0.017677834739529288 0.0031537765476266372 0 -0.016226473442974166 0.0029318705555513428 0 -0.014523244294039603 0.0027223077921090309 0 -0.014525844481462552 0.0026079269716652101 0 -0.014573581268151408 0.0025910728798952134 0 -0.014506840737758901 0.0026053811619186702 0 -0.014333014592802005 0.0025265978231920685 0 -0.01451343728777404 0.0024881368538060629 0 -0.015926757787120948 0.0025571773435501734 0 -0.016226473442974166 0.0029318705555513428 0 -0.014099173195412786 0.0027091517005492704 0 -0.014506840737758901 0.0026053811619186702 0 -0.014333014592802005 0.0025265978231920685 0 -0.016226473442974166 0.0029318705555513428 0 -0.015859316320083736 0.0029824452509033747 0 -0.016226473442974166 0.0029318705555513428 0 -0.01579355554269659 0.0027007086364632636 0 -0.014518070699105868 0.0026082202303835452 0 -0.014573581268151408 0.0025910728798952134 0 -0.01451343728777404 0.0024881368538060629 0 -0.014333014592802005 0.0025265978231920685 0 -0.014357503245390348 0.0023453993162327424 0 -0.014191777617578564 0.0024810611581383688 0 -0.014333014592802005 0.0025265978231920685 0 -0.014357503245390348 0.0023453993162327424 0 -0.01451343728777404 0.0024881368538060629 0 -0.014573581268151408 0.0025910728798952134 0 -0.014547349351285181 0.0023786390099244537 0 -0.01451343728777404 0.0024881368538060629 0 -0.014357503245390348 0.0023453993162327424 0 -0.014547349351285181 0.0023786390099244537 0 -0.01451343728777404 0.0024881368538060629 0 -0.014099173195412786 0.0027091517005492704 0 -0.013969786346592503 0.002484067592789936 0 -0.013840033744063713 0.0025687140193996071 0 -0.014099173195412786 0.0027091517005492704 0 -0.014333014592802005 0.0025265978231920685 0 -0.014191777617578564 0.0024810611581383688 0 -0.014099173195412786 0.0027091517005492704 0 -0.014191777617578564 0.0024810611581383688 0 -0.013969786346592503 0.002484067592789936 0 -0.014191777617578564 0.0024810611581383688 0 -0.013969786346592503 0.002484067592789936 0 -0.014070944649165867 0.0023177051480859252 0 -0.014357503245390348 0.0023453993162327424 0 -0.014191777617578564 0.0024810611581383688 0 -0.014070944649165867 0.0023177051480859252 0 -0.014070944649165867 0.0023177051480859252 0 -0.014242166148832671 0.0021409796207451045 0 -0.013884151589099423 0.0020560566245492449 0 -0.014242166148832671 0.0021409796207451045 0 -0.014175469209783706 0.0019175098021939267 0 -0.013884151589099423 0.0020560566245492449 0 -0.014357503245390348 0.0023453993162327424 0 -0.014070944649165867 0.0023177051480859252 0 -0.014242166148832671 0.0021409796207451045 0 -0.014357503245390348 0.0023453993162327424 0 -0.014547349351285181 0.0023786390099244537 0 -0.014494641704752438 0.0021416130605988143 0 -0.014357503245390348 0.0023453993162327424 0 -0.014242166148832671 0.0021409796207451045 0 -0.014494641704752438 0.0021416130605988143 0 -0.014242166148832671 0.0021409796207451045 0 -0.014494641704752438 0.0021416130605988143 0 -0.014395429853698554 0.0018818659595560374 0 -0.014494641704752438 0.0021416130605988143 0 -0.014395429853698554 0.0018818659595560374 0 -0.014598915088961705 0.0019357063918995292 0 -0.014242166148832671 0.0021409796207451045 0 -0.014395429853698554 0.0018818659595560374 0 -0.014175469209783706 0.0019175098021939267 0 -0.014395429853698554 0.0018818659595560374 0 -0.014175469209783706 0.0019175098021939267 0 -0.014202339026903391 0.0016508314923409919 0 -0.014395429853698554 0.0018818659595560374 0 -0.014535957535261159 0.0016799047934180429 0 -0.014202339026903391 0.0016508314923409919 0 -0.014395429853698554 0.0018818659595560374 0 -0.014535957535261159 0.0016799047934180429 0 -0.014598915088961705 0.0019357063918995292 0 -0.013960373042774176 0.0018265395687172262 0 -0.014202339026903391 0.0016508314923409919 0 -0.013854696790054627 0.0015722691267268459 0 -0.014175469209783706 0.0019175098021939267 0 -0.013960373042774176 0.0018265395687172262 0 -0.013884151589099423 0.0020560566245492449 0 -0.014175469209783706 0.0019175098021939267 0 -0.013960373042774176 0.0018265395687172262 0 -0.014202339026903391 0.0016508314923409919 0 -0.014023251612151367 0.0013791283022258195 0 -0.014202339026903391 0.0016508314923409919 0 -0.013854696790054627 0.0015722691267268459 0 -0.013784414343698863 0.0013214913916221949 0 -0.014023251612151367 0.0013791283022258195 0 -0.013854696790054627 0.0015722691267268459 0 -0.014391392530924441 0.0013039522824228418 0 -0.014535957535261159 0.0016799047934180429 0 -0.014202339026903391 0.0016508314923409919 0 -0.014391392530924441 0.0013039522824228418 0 -0.014023251612151367 0.0013791283022258195 0 -0.014202339026903391 0.0016508314923409919 0 -0.013743439132823434 0.00096409089279216476 0 -0.013366514202044747 0.0016244272469829657 0 -0.014391392530924441 0.0013039522824228418 0 -0.014535957535261159 0.0016799047934180429 0 -0.014876127468310019 0.0015674581733992395 0 -0.014535957535261159 0.0016799047934180429 0 -0.014876127468310019 0.0015674581733992395 0 -0.014710657658035808 0.0017834006724801762 0 -0.012872001698394591 0.00073613922807614642 0 -0.012941934745573987 0.00072093773584338313 0 -0.012845428817780112 0.00068256361010501378 0 -0.012898132729948513 0.0017312765760960796 0 -0.01292310017682014 0.0019582614814017537 0 -0.012721021559159808 0.0019847255129172812 0 -0.012898132729948513 0.0017312765760960796 0 -0.013057359639768465 0.0018075550289127413 0 -0.01292310017682014 0.0019582614814017537 0 -0.01292310017682014 0.0019582614814017537 0 -0.012798590826538224 0.0020249748595824462 0 -0.01292016042678662 0.0021242306572332881 0 -0.013091180068730087 0.0021096818836139702 0 -0.01292310017682014 0.0019582614814017537 0 -0.01292016042678662 0.0021242306572332881 0 -0.01292310017682014 0.0019582614814017537 0 -0.012721021559159808 0.0019847255129172812 0 -0.012798590826538224 0.0020249748595824462 0 -0.013366514202044747 0.0016244272469829657 0 -0.013203869987018989 0.0016298126337501656 0 -0.012798590826538224 0.0020249748595824462 0 -0.012826780363404294 0.002095251572703054 0 -0.01292016042678662 0.0021242306572332881 0 -0.012736485085891923 0.0019899852242423709 0 -0.012798590826538224 0.0020249748595824462 0 -0.012826780363404294 0.002095251572703054 0 -0.012736485085891923 0.0019899852242423709 0 -0.012826780363404294 0.002095251572703054 0 -0.012825759467163529 0.0022085945734540268 0 -0.012736485085891923 0.0019899852242423709 0 -0.012825759467163529 0.0022085945734540268 0 -0.012739559265587107 0.0023484030794300934 0 -0.012825759467163529 0.0022085945734540268 0 -0.01292016042678662 0.0021242306572332881 0 -0.012891188672494003 0.0023831583769329278 0 -0.012826780363404294 0.002095251572703054 0 -0.012825759467163529 0.0022085945734540268 0 -0.01292016042678662 0.0021242306572332881 0 -0.013091180068730087 0.0021096818836139702 0 -0.01292016042678662 0.0021242306572332881 0 -0.012891188672494003 0.0023831583769329278 0 -0.013928396089886561 0.0030299892423447826 0 -0.015961959581094465 0.0045178126457670843 0 -0.013091180068730087 0.0021096818836139702 0 -0.012901485507552121 0.0024131102872421467 0 -0.012891188672494003 0.0023831583769329278 0 -0.012902517896470227 0.0024115242590880201 0 -0.012891188672494003 0.0023831583769329278 0 -0.012739559265587107 0.0023484030794300934 0 -0.012825759467163529 0.0022085945734540268 0 -0.012891188672494003 0.0023831583769329278 0 -0.012739559265587107 0.0023484030794300934 0 -0.015961959581094465 0.0045178126457670843 0 -0.01583337018265361 0.0042739472651083469 0 -0.014832287544629565 0.0019498597309575557 0 -0.014598915088961705 0.0019357063918995292 0 -0.014710657658035808 0.0017834006724801762 0 -0.014876127468310019 0.0015674581733992395 0 -0.014832287544629565 0.0019498597309575557 0 -0.014710657658035808 0.0017834006724801762 0 -0.013366514202044747 0.0016244272469829657 0 -0.013759636616600252 0.0019777856659977298 0 -0.014535957535261159 0.0016799047934180429 0 -0.014598915088961705 0.0019357063918995292 0 -0.014710657658035808 0.0017834006724801762 0 -0.013725227853028772 0.0011772753990720811 0 -0.013558696302413029 0.0011103164072474787 0 -0.013660564238104099 0.0010118775165650685 0 -0.013725227853028772 0.0011772753990720811 0 -0.01379117196116263 0.0010448614436186765 0 -0.013660564238104099 0.0010118775165650685 0 -0.013725227853028772 0.0011772753990720811 0 -0.013469277364116053 0.0012246738936168141 0 -0.013558696302413029 0.0011103164072474787 0 -0.01379117196116263 0.0010448614436186765 0 -0.01395230088191487 0.0010191054770372378 0 -0.013965326859566725 0.001232798069055894 0 -0.013725227853028772 0.0011772753990720811 0 -0.01379117196116263 0.0010448614436186765 0 -0.013965326859566725 0.001232798069055894 0 -0.013725227853028772 0.0011772753990720811 0 -0.013939606477234854 0.0013460679273229249 0 -0.013798547433096886 0.0014150068044820002 0 -0.013939606477234854 0.0013460679273229249 0 -0.013798547433096886 0.0014150068044820002 0 -0.014114204487658646 0.0014766923282593708 0 -0.013725227853028772 0.0011772753990720811 0 -0.013965326859566725 0.001232798069055894 0 -0.013939606477234854 0.0013460679273229249 0 -0.014085626885820527 0.0013760697322658226 0 -0.013939606477234854 0.0013460679273229249 0 -0.014114204487658646 0.0014766923282593708 0 -0.013965326859566725 0.001232798069055894 0 -0.014085626885820527 0.0013760697322658226 0 -0.013939606477234854 0.0013460679273229249 0 -0.013725227853028772 0.0011772753990720811 0 -0.013798547433096886 0.0014150068044820002 0 -0.013469277364116053 0.0012246738936168141 0 -0.013501003437693778 0.0012808247669486058 0 -0.013465733151475593 0.0012396314512686669 0 -0.013329742517509839 0.0011012274723498777 0 -0.013181319256126525 0.0011584884658024826 0 -0.013469277364116053 0.0012246738936168141 0 -0.01348367428559186 0.0011772409341634683 0 -0.013469277364116053 0.0012246738936168141 0 -0.013465837801261069 0.0011161286173962564 0 -0.013329742517509839 0.0011012274723498777 0 -0.01348367428559186 0.0011772409341634683 0 -0.013469277364116053 0.0012246738936168141 0 -0.013784414343698863 0.0013214913916221949 0 -0.013503230022688753 0.0013844899044200716 0 -0.013854696790054627 0.0015722691267268459 0 -0.013481627463203498 0.0012650782835820203 0 -0.013539857326026179 0.001506028722046015 0 -0.013503230022688753 0.0013844899044200716 0 -0.013854696790054627 0.0015722691267268459 0 -0.013579347423605654 0.0018660789146063299 0 -0.013960373042774176 0.0018265395687172262 0 -0.013579347423605654 0.0018660789146063299 0 -0.013884151589099423 0.0020560566245492449 0 -0.013960373042774176 0.0018265395687172262 0 -0.013854696790054627 0.0015722691267268459 0 -0.013579347423605654 0.0018660789146063299 0 -0.013469277364116053 0.0012246738936168141 0 -0.013465837801261069 0.0011161286173962564 0 -0.013558696302413029 0.0011103164072474787 0 -0.013465837801261069 0.0011161286173962564 0 -0.013558696302413029 0.0011103164072474787 0 -0.013564197688240761 0.0010040691461743558 0 -0.013558696302413029 0.0011103164072474787 0 -0.013564197688240761 0.0010040691461743558 0 -0.013660564238104099 0.0010118775165650685 0 -0.013564197688240761 0.0010040691461743558 0 -0.013491566509809115 0.00091600050958066752 0 -0.013657935345223778 0.00090452714836653186 0 -0.013465837801261069 0.0011161286173962564 0 -0.013564197688240761 0.0010040691461743558 0 -0.013491566509809115 0.00091600050958066752 0 -0.013539857326026179 0.001506028722046015 0 -0.013420846388628907 0.0015598451196488557 0 -0.014070944649165867 0.0023177051480859252 0 -0.013884151589099423 0.0020560566245492449 0 -0.013648464481304662 0.0023436680965461592 0 -0.013579347423605654 0.0018660789146063299 0 -0.013884151589099423 0.0020560566245492449 0 -0.013648464481304662 0.0023436680965461592 0 -0.013648464481304662 0.0023436680965461592 0 -0.013840033744063713 0.0025687140193996071 0 -0.013712411517849781 0.0028131713753920869 0 -0.013420846388628907 0.0015598451196488557 0 -0.015261586842626986 0.0020551138865285905 0 -0.013969786346592503 0.002484067592789936 0 -0.014070944649165867 0.0023177051480859252 0 -0.013648464481304662 0.0023436680965461592 0 -0.013969786346592503 0.002484067592789936 0 -0.013648464481304662 0.0023436680965461592 0 -0.013840033744063713 0.0025687140193996071 0 -0.013491566509809115 0.00091600050958066752 0 -0.013616170041405667 0.000825309528410138 0 -0.013657935345223778 0.00090452714836653186 0 -0.013491566509809115 0.00091600050958066752 0 -0.013616170041405667 0.000825309528410138 0 -0.013516239867063719 0.00076911000145662772 0 -0.013616170041405667 0.000825309528410138 0 -0.013657935345223778 0.00090452714836653186 0 -0.01376117766822227 0.00085565644082685971 0 -0.013657935345223778 0.00090452714836653186 0 -0.013758096036506738 0.00096246324452958028 0 -0.013660564238104099 0.0010118775165650685 0 -0.013657935345223778 0.00090452714836653186 0 -0.013758096036506738 0.00096246324452958028 0 -0.01376117766822227 0.00085565644082685971 0 -0.01379117196116263 0.0010448614436186765 0 -0.013758096036506738 0.00096246324452958028 0 -0.013660564238104099 0.0010118775165650685 0 -0.013564197688240761 0.0010040691461743558 0 -0.013657935345223778 0.00090452714836653186 0 -0.013660564238104099 0.0010118775165650685 0 -0.01395230088191487 0.0010191054770372378 0 -0.013758096036506738 0.00096246324452958028 0 -0.01376117766822227 0.00085565644082685971 0 -0.014740168716978029 0.0016272377242796939 0 -0.014947977427145024 0.0019538741742605096 0 -0.015233899409319636 0.0022319553524791716 0 -0.014370749581966167 0.0013796377742656496 0 -0.014399095088924242 0.0014295607035951696 0 -0.014740168716978029 0.0016272377242796939 0 -0.014947977427145024 0.0019538741742605096 0 -0.014608698838346991 0.0018618870641874778 0 -0.01379117196116263 0.0010448614436186765 0 -0.01395230088191487 0.0010191054770372378 0 -0.013758096036506738 0.00096246324452958028 0 -0.014947977427145024 0.0019538741742605096 0 -0.015233899409319636 0.0022319553524791716 0 -0.014784141321671468 0.0022487454657581676 0 -0.015233899409319636 0.0022319553524791716 0 -0.01504880006633464 0.0025908053289243702 0 -0.014784141321671468 0.0022487454657581676 0 -0.014926710631535955 0.0019912512755554208 0 -0.014705766236787635 0.0022567506373655025 0 -0.01504880006633464 0.0025908053289243702 0 -0.015565711024699308 0.0028130824208415805 0 -0.015099144952823136 0.0029977630060076875 0 -0.013616170041405667 0.000825309528410138 0 -0.01376117766822227 0.00085565644082685971 0 -0.013682151877841617 0.00072533471537738819 0 -0.015233899409319636 0.0022319553524791716 0 -0.01504880006633464 0.0025908053289243702 0 -0.015565711024699308 0.0028130824208415805 0 -0.014399095088924242 0.0014295607035951696 0 -0.015182329202847586 0.002242610453883194 0 -0.015182329202847586 0.002242610453883194 0 -0.015352869425010855 0.0030396386507760757 0 -0.016052806307269733 0.0026908009556917403 0 -0.016528291394477125 0.003653482110439428 0 -0.015750238640564445 0.0034256992780158598 0 -0.016052806307269733 0.0026908009556917403 0 -0.015099144952823136 0.0029977630060076875 0 -0.015750238640564445 0.0034256992780158598 0 -0.01504880006633464 0.0025908053289243702 0 -0.015099144952823136 0.0029977630060076875 0 -0.014764824128760587 0.0029139675906419051 0 -0.015099144952823136 0.0029977630060076875 0 -0.015215243531338751 0.0036171419745483859 0 -0.014856682838027541 0.0033500399304878551 0 -0.014099173195412786 0.0027091517005492704 0 -0.013840033744063713 0.0025687140193996071 0 -0.013712411517849781 0.0028131713753920869 0 -0.015926757787120948 0.0025571773435501734 0 -0.015261586842626986 0.0020551138865285905 0 -0.017409528154424387 0.0027041433713193303 0 -0.01701433065749126 0.0025814352745418961 0 -0.017040652094838071 0.0028709125095470189 0 -0.015261586842626986 0.0020551138865285905 0 -0.016182304864912598 0.0028429435602986518 0 -0.013616170041405667 0.000825309528410138 0 -0.013682151877841617 0.00072533471537738819 0 -0.013516239867063719 0.00076911000145662772 0 -0.016110078420814827 0.0028198476121343717 0 -0.017007020610134246 0.0025617277692792308 0 -0.016746949989426781 0.0030571825516955528 0 -0.015182329202847586 0.002242610453883194 0 -0.015261586842626986 0.0020551138865285905 0 -0.016110078420814827 0.0028198476121343717 0 -0.016746949989426781 0.0030571825516955528 0 -0.016528291394477125 0.003653482110439428 0 -0.015182329202847586 0.002242610453883194 0 -0.016786504411221873 0.0038736037552596992 0 -0.016746949989426781 0.0030571825516955528 0 -0.01705099722880854 0.0033738154589799626 0 -0.016528291394477125 0.003653482110439428 0 -0.017007020610134246 0.0025617277692792308 0 -0.016746949989426781 0.0030571825516955528 0 -0.017040652094838071 0.0028709125095470189 0 -0.016746949989426781 0.0030571825516955528 0 -0.017040652094838071 0.0028709125095470189 0 -0.01705099722880854 0.0033738154589799626 0 -0.017040652094838071 0.0028709125095470189 0 -0.017363656368618811 0.0030447856194615883 0 -0.01705099722880854 0.0033738154589799626 0 -0.017496632142834225 0.0034811739970907782 0 -0.017363656368618811 0.0030447856194615883 0 -0.01705099722880854 0.0033738154589799626 0 -0.017409528154424387 0.0027041433713193303 0 -0.017040652094838071 0.0028709125095470189 0 -0.017363656368618811 0.0030447856194615883 0 -0.017496632142834225 0.0034811739970907782 0 -0.01705099722880854 0.0033738154589799626 0 -0.017207816036416728 0.0039298672452197361 0 -0.01705099722880854 0.0033738154589799626 0 -0.016528291394477125 0.003653482110439428 0 -0.017207816036416728 0.0039298672452197361 0 -0.016528291394477125 0.003653482110439428 0 -0.016638419146452435 0.0044639658089597667 0 -0.016107889286256002 0.0041413442295100047 0 -0.016528291394477125 0.003653482110439428 0 -0.016638419146452435 0.0044639658089597667 0 -0.017207816036416728 0.0039298672452197361 0 -0.016638419146452435 0.0044639658089597667 0 -0.017283267666050123 0.004460719410378575 0 -0.017207816036416728 0.0039298672452197361 0 -0.015215243531338751 0.0036171419745483859 0 -0.015584543977623218 0.0039275095277997232 0 -0.014905639744006079 0.0039991319206705749 0 -0.015099144952823136 0.0029977630060076875 0 -0.015215243531338751 0.0036171419745483859 0 -0.015750238640564445 0.0034256992780158598 0 -0.015215243531338751 0.0036171419745483859 0 -0.015750238640564445 0.0034256992780158598 0 -0.015584543977623218 0.0039275095277997232 0 -0.015750238640564445 0.0034256992780158598 0 -0.016107889286256002 0.0041413442295100047 0 -0.015584543977623218 0.0039275095277997232 0 -0.016528291394477125 0.003653482110439428 0 -0.015750238640564445 0.0034256992780158598 0 -0.016107889286256002 0.0041413442295100047 0 -0.01543224186613666 0.0037856688794851304 0 -0.01707141840327674 0.0049937803805540524 0 -0.016638419146452435 0.0044639658089597667 0 -0.016107889286256002 0.0041413442295100047 0 -0.015864022016997329 0.0046575188086459699 0 -0.016107889286256002 0.0041413442295100047 0 -0.015584543977623218 0.0039275095277997232 0 -0.015864022016997329 0.0046575188086459699 0 -0.01707141840327674 0.0049937803805540524 0 -0.016447450156300971 0.0040944142468402125 0 -0.018299976131716397 0.0048474585891252579 0 -0.01871540437769896 0.004845311984604069 0 -0.01804077137038777 0.0042681648054743318 0 -0.015584543977623218 0.0039275095277997232 0 -0.015836682637646132 0.0047232369501839884 0 -0.014905639744006079 0.0039991319206705749 0 -0.018299976131716397 0.0048474585891252579 0 -0.018296751068694127 0.0052739486324980761 0 -0.017979676306264548 0.0046688718034337204 0 -0.018359905270592031 0.0054201460783438911 0 -0.018014120258523076 0.0047231464171472309 0 -0.018299976131716397 0.0048474585891252579 0 -0.01871540437769896 0.004845311984604069 0 -0.018296751068694127 0.0052739486324980761 0 -0.01707141840327674 0.0049937803805540524 0 -0.018566719325392111 0.0057418706973496941 0 -0.01707141840327674 0.0049937803805540524 0 -0.017373566930292645 0.0055265710925664971 0 -0.01871540437769896 0.004845311984604069 0 -0.01887450953001258 0.00542126654071373 0 -0.018296751068694127 0.0052739486324980761 0 -0.017971051821716433 0.0057007177530026387 0 -0.018035112071651978 0.0058756732400768209 0 -0.018133440667484107 0.0058425651361065601 0 -0.01887450953001258 0.00542126654071373 0 -0.018296751068694127 0.0052739486324980761 0 -0.018589538967759823 0.0058205774117156281 0 -0.018359905270592031 0.0054201460783438911 0 -0.018674068720951949 0.0060542674992358526 0 -0.018454662159952437 0.0055963517990024331 0 -0.018723627242244224 0.0063197948421430152 0 -0.018209034727797481 0.0062024944713694489 0 -0.018723627242244224 0.0063197948421430152 0 -0.018443170263550326 0.0064488144853540579 0 -0.018209034727797481 0.0062024944713694489 0 -0.018566719325392111 0.0057418706973496941 0 -0.018568839751494381 0.0059435536293903028 0 -0.01887450953001258 0.00542126654071373 0 -0.018589538967759823 0.0058205774117156281 0 -0.019022406180121569 0.0059421331533740726 0 -0.018674068720951949 0.0060542674992358526 0 -0.018698086363275475 0.0065951194277108806 0 -0.018723627242244224 0.0063197948421430152 0 -0.01890990172767236 0.0067122705822367816 0 -0.018645299570390531 0.0066416358205925365 0 -0.018589538967759823 0.0058205774117156281 0 -0.01885701503212207 0.0063059449343394929 0 -0.019022406180121569 0.0059421331533740726 0 -0.018723627242244224 0.0063197948421430152 0 -0.018645299570390531 0.0066416358205925365 0 -0.018443170263550326 0.0064488144853540579 0 -0.018645299570390531 0.0066416358205925365 0 -0.018406559915309394 0.0066342544595809957 0 -0.018567371491824525 0.0068492551692836499 0 -0.018645299570390531 0.0066416358205925365 0 -0.018406559915309394 0.0066342544595809957 0 -0.018443170263550326 0.0064488144853540579 0 -0.018187216671862169 0.0059881821138145367 0 -0.018192624469613318 0.0060210053714873698 0 -0.018151069364184955 0.0060112739623560691 0 -0.018187216671862169 0.0059881821138145367 0 -0.018151069364184955 0.0060112739623560691 0 -0.018160055534241777 0.0059592576888655713 0 -0.018187216671862169 0.0059881821138145367 0 -0.018197742013077757 0.0060097680380659501 0 -0.01819615684542935 0.0059795430771214398 0 -0.018197742013077757 0.0060097680380659501 0 -0.018192624469613318 0.0060210053714873698 0 -0.018209264569330613 0.0060340533334754124 0 -0.018187216671862169 0.0059881821138145367 0 -0.018197742013077757 0.0060097680380659501 0 -0.018192624469613318 0.0060210053714873698 0 -0.018192624469613318 0.0060210053714873698 0 -0.018151069364184955 0.0060112739623560691 0 -0.018187917910167078 0.0060299699580632126 0 -0.018216205931769723 0.0059803136236564218 0 -0.01843103846032635 0.0062498395110616072 0 -0.01885701503212207 0.0063059449343394929 0 -0.019022406180121569 0.0059421331533740726 0 -0.019167029593743876 0.0064082856542485344 0 -0.018568839751494381 0.0059435536293903028 0 -0.01843103846032635 0.0062498395110616072 0 -0.018151069364184955 0.0060112739623560691 0 -0.018106358715495884 0.0059824456420496724 0 -0.018154247870812788 0.0060706305126991206 0 -0.018151069364184955 0.0060112739623560691 0 -0.018181160066761324 0.0060343683840872369 0 -0.018187917910167078 0.0060299699580632126 0 -0.018151069364184955 0.0060112739623560691 0 -0.018160055534241777 0.0059592576888655713 0 -0.018106358715495884 0.0059824456420496724 0 -0.018035112071651978 0.0058756732400768209 0 -0.018106358715495884 0.0059824456420496724 0 -0.018108796011519979 0.0059183026117414278 0 -0.018160055534241777 0.0059592576888655713 0 -0.018106358715495884 0.0059824456420496724 0 -0.018108796011519979 0.0059183026117414278 0 -0.018160055534241777 0.0059592576888655713 0 -0.018205359702229248 0.0059566293617954579 0 -0.018133440667484107 0.0058425651361065601 0 -0.018187216671862169 0.0059881821138145367 0 -0.018160055534241777 0.0059592576888655713 0 -0.018205359702229248 0.0059566293617954579 0 -0.018187216671862169 0.0059881821138145367 0 -0.018205359702229248 0.0059566293617954579 0 -0.01819615684542935 0.0059795430771214398 0 -0.01746258231657782 0.0056419305060542348 0 -0.016663616246363852 0.0051797612884119616 0 -0.017193557400685983 0.004933359933285344 0 -0.017834759653620632 0.0057851648628802141 0 -0.017373566930292645 0.0055265710925664971 0 -0.018160055534241777 0.0059592576888655713 0 -0.018108796011519979 0.0059183026117414278 0 -0.018133440667484107 0.0058425651361065601 0 -0.018035112071651978 0.0058756732400768209 0 -0.018108796011519979 0.0059183026117414278 0 -0.018133440667484107 0.0058425651361065601 0 -0.016638419146452435 0.0044639658089597667 0 -0.015864022016997329 0.0046575188086459699 0 -0.016663616246363852 0.0051797612884119616 0 -0.016638419146452435 0.0044639658089597667 0 -0.016663616246363852 0.0051797612884119616 0 -0.017193557400685983 0.004933359933285344 0 -0.017283267666050123 0.004460719410378575 0 -0.017193557400685983 0.004933359933285344 0 -0.017748354997264272 0.0049193533624556224 0 -0.016638419146452435 0.0044639658089597667 0 -0.017283267666050123 0.004460719410378575 0 -0.017193557400685983 0.004933359933285344 0 -0.017761605683399594 0.0043902861709387815 0 -0.017283267666050123 0.004460719410378575 0 -0.017748354997264272 0.0049193533624556224 0 -0.017761605683399594 0.0043902861709387815 0 -0.018253470694149711 0.0044431258542948267 0 -0.017748354997264272 0.0049193533624556224 0 -0.018253470694149711 0.0044431258542948267 0 -0.017748354997264272 0.0049193533624556224 0 -0.018200378041615946 0.0054346520687695524 0 -0.019520540962869572 0.0044488231132542829 0 -0.01972099657907923 0.0050061551961515655 0 -0.02067810559452277 0.0045037377634317829 0 -0.020858734443486671 0.0045035726478770991 0 -0.021039161686439385 0.0045703159456353237 0 -0.020858734443486671 0.0045035726478770991 0 -0.021168253611753757 0.0046181688002195093 0 -0.021039161686439385 0.0045703159456353237 0 -0.021168253611753757 0.0046181688002195093 0 -0.021039161686439385 0.0045703159456353237 0 -0.021278255380678027 0.004614735213230913 0 -0.01746258231657782 0.0056419305060542348 0 -0.017193557400685983 0.004933359933285344 0 -0.017748354997264272 0.0049193533624556224 0 -0.01746258231657782 0.0056419305060542348 0 -0.017748354997264272 0.0049193533624556224 0 -0.018200378041615946 0.0054346520687695524 0 -0.020124077749331597 0.0042851276110195619 0 -0.020071398810638297 0.0036211557354757355 0 -0.019651975475274763 0.0040391590697697348 0 -0.02067810559452277 0.0045037377634317829 0 -0.021039161686439385 0.0045703159456353237 0 -0.021124183016547247 0.0045867519296389743 0 -0.020124077749331597 0.0042851276110195619 0 -0.02067810559452277 0.0045037377634317829 0 -0.020071398810638297 0.0036211557354757355 0 -0.02069789548617048 0.0045035137810578293 0 -0.020592393805084916 0.0041323356148542153 0 -0.021039161686439385 0.0045703159456353237 0 -0.021124183016547247 0.0045867519296389743 0 -0.021278255380678027 0.004614735213230913 0 -0.020071398810638297 0.0036211557354757355 0 -0.01956822785885198 0.0030914931700776818 0 -0.019294148125018784 0.0033645563617255765 0 -0.020592393805084916 0.0041323356148542153 0 -0.020378664937354712 0.0038865173956845376 0 -0.021124183016547247 0.0045867519296389743 0 -0.021189665836320384 0.0046513007697514975 0 -0.021278255380678027 0.004614735213230913 0 -0.021278255380678027 0.004614735213230913 0 -0.021459682088536585 0.0044898475847306935 0 -0.021366450589449259 0.0044784600428074244 0 -0.021189665836320384 0.0046513007697514975 0 -0.021366450589449259 0.0044784600428074244 0 -0.020923097681971887 0.0045333018634747006 0 -0.021189665836320384 0.0046513007697514975 0 -0.021278255380678027 0.004614735213230913 0 -0.021366450589449259 0.0044784600428074244 0 -0.017834759653620632 0.0057851648628802141 0 -0.018150982863791115 0.0059388003136646231 0 -0.018205359702229248 0.0059566293617954579 0 -0.018187634488669092 0.0059398602512630632 0 -0.01819615684542935 0.0059795430771214398 0 -0.01746258231657782 0.0056419305060542348 0 -0.018200378041615946 0.0054346520687695524 0 -0.018187634488669092 0.0059398602512630632 0 -0.021168253611753757 0.0046181688002195093 0 -0.021278255380678027 0.004614735213230913 0 -0.021541130823371994 0.004507000661534746 0 -0.018200378041615946 0.0054346520687695524 0 -0.018187634488669092 0.0059398602512630632 0 -0.018229437454650652 0.0060888990119386671 0 -0.01972099657907923 0.0050061551961515655 0 -0.019698269118931709 0.0053006915793915926 0 -0.021278255380678027 0.004614735213230913 0 -0.021459682088536585 0.0044898475847306935 0 -0.021541130823371994 0.004507000661534746 0 -0.018229437454650652 0.0060888990119386671 0 -0.01820303516114756 0.0060351728207971187 0 -0.018224662965259916 0.0060576145034098106 0 -0.018187634488669092 0.0059398602512630632 0 -0.018229437454650652 0.0060888990119386671 0 -0.01820303516114756 0.0060351728207971187 0 -0.018196877887864341 0.0060123220528715236 0 -0.018208752440169455 0.0060338841095648405 0 -0.018224662965259916 0.0060576145034098106 0 -0.018196877887864341 0.0060123220528715236 0 -0.01820303516114756 0.0060351728207971187 0 -0.018224662965259916 0.0060576145034098106 0 -0.018187634488669092 0.0059398602512630632 0 -0.018196877887864341 0.0060123220528715236 0 -0.01819615684542935 0.0059795430771214398 0 -0.018187634488669092 0.0059398602512630632 0 -0.018196877887864341 0.0060123220528715236 0 -0.01820303516114756 0.0060351728207971187 0 -0.018197742013077757 0.0060097680380659501 0 -0.018196877887864341 0.0060123220528715236 0 -0.01819615684542935 0.0059795430771214398 0 -0.018197742013077757 0.0060097680380659501 0 -0.018196877887864341 0.0060123220528715236 0 -0.018208752440169455 0.0060338841095648405 0 -0.018197742013077757 0.0060097680380659501 0 -0.018208752440169455 0.0060338841095648405 0 -0.018209264569330613 0.0060340533334754124 0 -0.018208752440169455 0.0060338841095648405 0 -0.018227271110204672 0.0060451712372451847 0 -0.018209264569330613 0.0060340533334754124 0 -0.018227271110204672 0.0060451712372451847 0 -0.018224662965259916 0.0060576145034098106 0 -0.018242141214640857 0.0060264621460786741 0 -0.018227271110204672 0.0060451712372451847 0 -0.018219447968995616 0.00604191118289413 0 -0.018231596178295322 0.006043998432322506 0 -0.018227271110204672 0.0060451712372451847 0 -0.018209264569330613 0.0060340533334754124 0 -0.018219447968995616 0.00604191118289413 0 -0.018208752440169455 0.0060338841095648405 0 -0.018227271110204672 0.0060451712372451847 0 -0.018224662965259916 0.0060576145034098106 0 -0.019698269118931709 0.0053006915793915926 0 -0.021238583159766771 0.0050402728355597734 0 -0.021541130823371994 0.004507000661534746 0 -0.021752079477069031 0.0042035924390279597 0 -0.021600947361238305 0.0043419396918281542 0 -0.018229437454650652 0.0060888990119386671 0 -0.018224662965259916 0.0060576145034098106 0 -0.018242141214640857 0.0060264621460786741 0 -0.021459682088536585 0.0044898475847306935 0 -0.021541130823371994 0.004507000661534746 0 -0.021600947361238305 0.0043419396918281542 0 -0.022711467301858627 0.0041669783814482159 0 -0.021774348020684522 0.0040785983203731162 0 -0.022229518899518956 0.0036054254921333365 0 -0.021238583159766771 0.0050402728355597734 0 -0.022153567471084691 0.0040193701509976089 0 -0.021752079477069031 0.0042035924390279597 0 -0.021600947361238305 0.0043419396918281542 0 -0.021774348020684522 0.0040785983203731162 0 -0.018227271110204672 0.0060451712372451847 0 -0.018242141214640857 0.0060264621460786741 0 -0.018231596178295322 0.006043998432322506 0 -0.021238583159766771 0.0050402728355597734 0 -0.020666503113703102 0.0056691407598808549 0 -0.022742339598383378 0.0051698878629168072 0 -0.023279457961025676 0.0046910004161715676 0 -0.023452844747065629 0.0052400668609920093 0 -0.021366450589449259 0.0044784600428074244 0 -0.021256989640292257 0.0041365527537880545 0 -0.020923097681971887 0.0045333018634747006 0 -0.021366450589449259 0.0044784600428074244 0 -0.021600947361238305 0.0043419396918281542 0 -0.021774348020684522 0.0040785983203731162 0 -0.021459682088536585 0.0044898475847306935 0 -0.021366450589449259 0.0044784600428074244 0 -0.021600947361238305 0.0043419396918281542 0 -0.021366450589449259 0.0044784600428074244 0 -0.021774348020684522 0.0040785983203731162 0 -0.021256989640292257 0.0041365527537880545 0 -0.021774348020684522 0.0040785983203731162 0 -0.021256989640292257 0.0041365527537880545 0 -0.021747442917662351 0.0036117785991583279 0 -0.021256989640292257 0.0041365527537880545 0 -0.021279004145638953 0.0034741825101682381 0 -0.021747442917662351 0.0036117785991583279 0 -0.021279004145638953 0.0034741825101682381 0 -0.021747442917662351 0.0036117785991583279 0 -0.021778566707687422 0.0031245854302134621 0 -0.021774348020684522 0.0040785983203731162 0 -0.021747442917662351 0.0036117785991583279 0 -0.022229518899518956 0.0036054254921333365 0 -0.021747442917662351 0.0036117785991583279 0 -0.022229518899518956 0.0036054254921333365 0 -0.02223338613525979 0.0032243053062043377 0 -0.02223338613525979 0.0032243053062043377 0 -0.022590342898400367 0.0029923967887233154 0 -0.022177891880688371 0.0029244004849971203 0 -0.02223338613525979 0.0032243053062043377 0 -0.021778566707687422 0.0031245854302134621 0 -0.022177891880688371 0.0029244004849971203 0 -0.021747442917662351 0.0036117785991583279 0 -0.02223338613525979 0.0032243053062043377 0 -0.021778566707687422 0.0031245854302134621 0 -0.021778566707687422 0.0031245854302134621 0 -0.021710255996754337 0.0026825835840539802 0 -0.022177891880688371 0.0029244004849971203 0 -0.021778566707687422 0.0031245854302134621 0 -0.021389688075001471 0.0030839685457016014 0 -0.021710255996754337 0.0026825835840539802 0 -0.021279004145638953 0.0034741825101682381 0 -0.021778566707687422 0.0031245854302134621 0 -0.021389688075001471 0.0030839685457016014 0 -0.022742339598383378 0.0051698878629168072 0 -0.023279457961025676 0.0046910004161715676 0 -0.022819785363786621 0.0043134131553451555 0 -0.021238583159766771 0.0050402728355597734 0 -0.022969450723453778 0.0036974964375473913 0 -0.022711467301858627 0.0041669783814482159 0 -0.022229518899518956 0.0036054254921333365 0 -0.022762366123882164 0.0032443929496398247 0 -0.022229518899518956 0.0036054254921333365 0 -0.02223338613525979 0.0032243053062043377 0 -0.022762366123882164 0.0032443929496398247 0 -0.02223338613525979 0.0032243053062043377 0 -0.022762366123882164 0.0032443929496398247 0 -0.022590342898400367 0.0029923967887233154 0 -0.023279457961025676 0.0046910004161715676 0 -0.022819785363786621 0.0043134131553451555 0 -0.023577324920867889 0.0039340845332527198 0 -0.023803742396034545 0.0047954828039586421 0 -0.024265645267965281 0.0044860202528884362 0 -0.023577324920867889 0.0039340845332527198 0 -0.023279457961025676 0.0046910004161715676 0 -0.023803742396034545 0.0047954828039586421 0 -0.023452844747065629 0.0052400668609920093 0 -0.023279457961025676 0.0046910004161715676 0 -0.023803742396034545 0.0047954828039586421 0 -0.023577324920867889 0.0039340845332527198 0 -0.024653081326696431 0.0042226691473829896 0 -0.021380522376491448 0.0056894748682563478 0 -0.024386104495326154 0.0043593580921805885 0 -0.024579710114657954 0.0046156480403700805 0 -0.024353737201632551 0.0046951390778061652 0 -0.023803742396034545 0.0047954828039586421 0 -0.024265645267965281 0.0044860202528884362 0 -0.024153527826236636 0.0053101568920893398 0 -0.024265645267965281 0.0044860202528884362 0 -0.024376909936389426 0.0036751687649664699 0 -0.023577324920867889 0.0039340845332527198 0 -0.024653081326696431 0.0042226691473829896 0 -0.024301625465606203 0.0037980093981083312 0 -0.024386104495326154 0.0043593580921805885 0 -0.024822007523821358 0.0041017665709221218 0 -0.024743913320975891 0.0043874223629356401 0 -0.024386104495326154 0.0043593580921805885 0 -0.024822007523821358 0.0041017665709221218 0 -0.024376909936389426 0.0036751687649664699 0 -0.024856760586398959 0.0041300730270575313 0 -0.025475182369567129 0.0042189792916167866 0 -0.024822007523821358 0.0041017665709221218 0 -0.024899023588522536 0.0042909187394953021 0 -0.024981965824918975 0.0042064668493815216 0 -0.024822007523821358 0.0041017665709221218 0 -0.024899023588522536 0.0042909187394953021 0 -0.024743913320975891 0.0043874223629356401 0 -0.024899023588522536 0.0042909187394953021 0 -0.024918352682992716 0.0044616882056398612 0 -0.024743913320975891 0.0043874223629356401 0 -0.024918352682992716 0.0044616882056398612 0 -0.024743913320975891 0.0043874223629356401 0 -0.024773174709310702 0.0045599554246920871 0 -0.024918352682992716 0.0044616882056398612 0 -0.024894237308989736 0.0046013833317561231 0 -0.024773174709310702 0.0045599554246920871 0 -0.024386104495326154 0.0043593580921805885 0 -0.024743913320975891 0.0043874223629356401 0 -0.024579710114657954 0.0046156480403700805 0 -0.024743913320975891 0.0043874223629356401 0 -0.024579710114657954 0.0046156480403700805 0 -0.024773174709310702 0.0045599554246920871 0 -0.024579710114657954 0.0046156480403700805 0 -0.024729491327506917 0.0047327183609487816 0 -0.024376427968144002 0.0047435103675418601 0 -0.018693011102795903 0.0070709090254093771 0 -0.018817717102417232 0.0068991260591794081 0 -0.019136500701942939 0.0071084173529424996 0 -0.021830825427178267 0.0057828467233783758 0 -0.021200916110881766 0.0059521470718473159 0 -0.024579710114657954 0.0046156480403700805 0 -0.024773174709310702 0.0045599554246920871 0 -0.024729491327506917 0.0047327183609487816 0 -0.024894237308989736 0.0046013833317561231 0 -0.024773174709310702 0.0045599554246920871 0 -0.024729491327506917 0.0047327183609487816 0 -0.021830825427178267 0.0057828467233783758 0 -0.022265859345119494 0.0052117297029365935 0 -0.024894237308989736 0.0046013833317561231 0 -0.024729491327506917 0.0047327183609487816 0 -0.024865237868721479 0.0047124109688507741 0 -0.018485231149310968 0.0070437932117119817 0 -0.018567371491824525 0.0068492551692836499 0 -0.018350719426096059 0.0067901560530832525 0 -0.018693011102795903 0.0070709090254093771 0 -0.018567371491824525 0.0068492551692836499 0 -0.018817717102417232 0.0068991260591794081 0 -0.018693011102795903 0.0070709090254093771 0 -0.018485231149310968 0.0070437932117119817 0 -0.018567371491824525 0.0068492551692836499 0 -0.018645299570390531 0.0066416358205925365 0 -0.018567371491824525 0.0068492551692836499 0 -0.018817717102417232 0.0068991260591794081 0 -0.018406559915309394 0.0066342544595809957 0 -0.018567371491824525 0.0068492551692836499 0 -0.018350719426096059 0.0067901560530832525 0 -0.01890990172767236 0.0067122705822367816 0 -0.018817717102417232 0.0068991260591794081 0 -0.019136500701942939 0.0071084173529424996 0 -0.018698086363275475 0.0065951194277108806 0 -0.021200916110881766 0.0059521470718473159 0 -0.01890990172767236 0.0067122705822367816 0 -0.018645299570390531 0.0066416358205925365 0 -0.018817717102417232 0.0068991260591794081 0 -0.018239477828984472 0.0060642761451355212 0 -0.018231165779546431 0.0060407072208354005 0 -0.018224045116739904 0.0060437087219680254 0 -0.01885701503212207 0.0063059449343394929 0 -0.019167029593743876 0.0064082856542485344 0 -0.01910381615292087 0.0067497576179888765 0 -0.01843103846032635 0.0062498395110616072 0 -0.021380522376491448 0.0056894748682563478 0 -0.019167029593743876 0.0064082856542485344 0 -0.01910381615292087 0.0067497576179888765 0 -0.019151565252367119 0.0067536220703864787 0 -0.01843103846032635 0.0062498395110616072 0 -0.018217854933274932 0.005969760082864913 0 -0.018181160066761324 0.0060343683840872369 0 -0.018201903635009318 0.0060379894934306831 0 -0.018224045116739904 0.0060437087219680254 0 -0.018181160066761324 0.0060343683840872369 0 -0.018201903635009318 0.0060379894934306831 0 -0.018187917910167078 0.0060299699580632126 0 -0.018192624469613318 0.0060210053714873698 0 -0.018187917910167078 0.0060299699580632126 0 -0.018208550551844064 0.0060396261732279808 0 -0.018201903635009318 0.0060379894934306831 0 -0.018187917910167078 0.0060299699580632126 0 -0.018208550551844064 0.0060396261732279808 0 -0.018192624469613318 0.0060210053714873698 0 -0.018209264569330613 0.0060340533334754124 0 -0.018208550551844064 0.0060396261732279808 0 -0.018219447968995616 0.00604191118289413 0 -0.018208550551844064 0.0060396261732279808 0 -0.018231596178295322 0.006043998432322506 0 -0.018209264569330613 0.0060340533334754124 0 -0.018219447968995616 0.00604191118289413 0 -0.018208550551844064 0.0060396261732279808 0 -0.018201903635009318 0.0060379894934306831 0 -0.018208550551844064 0.0060396261732279808 0 -0.018224045116739904 0.0060437087219680254 0 -0.018208550551844064 0.0060396261732279808 0 -0.018231596178295322 0.006043998432322506 0 -0.018224045116739904 0.0060437087219680254 0 -0.023803742396034545 0.0047954828039586421 0 -0.023452844747065629 0.0052400668609920093 0 -0.024153527826236636 0.0053101568920893398 0 -0.020666503113703102 0.0056691407598808549 0 -0.021380522376491448 0.0056894748682563478 0 -0.024386104495326154 0.0043593580921805885 0 -0.024353737201632551 0.0046951390778061652 0 -0.024339441210642104 0.0047358724144558927 0 -0.018231596178295322 0.006043998432322506 0 -0.018231165779546431 0.0060407072208354005 0 -0.018224045116739904 0.0060437087219680254 0 -0.024579710114657954 0.0046156480403700805 0 -0.024353737201632551 0.0046951390778061652 0 -0.024376427968144002 0.0047435103675418601 0 -0.024353737201632551 0.0046951390778061652 0 -0.024366647458732967 0.0047391939026608411 0 -0.024339441210642104 0.0047358724144558927 0 -0.021537549605245787 0.0058757022803031201 0 -0.021200916110881766 0.0059521470718473159 0 -0.021200916110881766 0.0059521470718473159 0 -0.021380522376491448 0.0056894748682563478 0 -0.018833909009958454 0.0018033535954059901 0 -0.018399009284364679 0.0020239962919495159 0 -0.018629769104514068 0.0022378158085752122 0 -0.018399009284364679 0.0020239962919495159 0 -0.018384804981781588 0.0015808641322301576 0 -0.018045928400036923 0.0017956142022203748 0 -0.018833909009958454 0.0018033535954059901 0 -0.018399009284364679 0.0020239962919495159 0 -0.018384804981781588 0.0015808641322301576 0 -0.018833909009958454 0.0018033535954059901 0 -0.018384804981781588 0.0015808641322301576 0 -0.018654088757272879 0.0014558819887495091 0 -0.018384804981781588 0.0015808641322301576 0 -0.018654088757272879 0.0014558819887495091 0 -0.018409846492246314 0.0011258112782535357 0 -0.018027350275686957 0.0012128711336163885 0 -0.018338313715583223 0.0012266645336886618 0 -0.018409846492246314 0.0011258112782535357 0 -0.018338313715583223 0.0012266645336886618 0 -0.018305658452573721 0.0012170182385143294 0 -0.018311456115295076 0.0011951194810042877 0 -0.018338313715583223 0.0012266645336886618 0 -0.018409846492246314 0.0011258112782535357 0 -0.018305658452573721 0.0012170182385143294 0 -0.018384804981781588 0.0015808641322301576 0 -0.018305658452573721 0.0012170182385143294 0 -0.018131713667352542 0.0013522621426495266 0 -0.018384804981781588 0.0015808641322301576 0 -0.018409846492246314 0.0011258112782535357 0 -0.018305658452573721 0.0012170182385143294 0 -0.017654009362154697 0.0032519804086894341 0 -0.017739516805642178 0.00333994635562666 0 -0.01779001093196797 0.0031537663135843496 0 -0.018305658452573721 0.0012170182385143294 0 -0.018131713667352542 0.0013522621426495266 0 -0.018311456115295076 0.0011951194810042877 0 -0.017977216249685429 0.0021346907165148911 0 -0.017153474228590947 0.0031228744922076317 0 -0.017654009362154697 0.0032519804086894341 0 -0.017739516805642178 0.00333994635562666 0 -0.017622420131872363 0.0034333584336066394 0 -0.016798860100873444 0.0042001765169477493 0 -0.016851188330906649 0.0036455855980624284 0 -0.016196315421137267 0.0040905958127820082 0 -0.017224613119689779 0.0035794327038875745 0 -0.017153474228590947 0.0031228744922076317 0 -0.016798860100873444 0.0042001765169477493 0 -0.016851188330906649 0.0036455855980624284 0 -0.017605781260509695 0.0039290440478548802 0 -0.016851188330906649 0.0036455855980624284 0 -0.017786758092574399 0.0032876608364561777 0 -0.017605781260509695 0.0039290440478548802 0 -0.017739516805642178 0.00333994635562666 0 -0.017786758092574399 0.0032876608364561777 0 -0.01779001093196797 0.0031537663135843496 0 -0.017224613119689779 0.0035794327038875745 0 -0.017710929866679707 0.0032804918071418481 0 -0.017786758092574399 0.0032876608364561777 0 -0.01779001093196797 0.0031537663135843496 0 -0.018235788386465359 0.0028511625304116399 0 -0.01779001093196797 0.0031537663135843496 0 -0.017751006042000379 0.0029223409318403239 0 -0.018235788386465359 0.0028511625304116399 0 -0.017977216249685429 0.0021346907165148911 0 -0.017912385764461903 0.0024014678616784677 0 -0.018384804981781588 0.0015808641322301576 0 -0.018131713667352542 0.0013522621426495266 0 -0.018045928400036923 0.0017956142022203748 0 -0.017654009362154697 0.0032519804086894341 0 -0.01779001093196797 0.0031537663135843496 0 -0.017751006042000379 0.0029223409318403239 0 -0.018399009284364679 0.0020239962919495159 0 -0.018045928400036923 0.0017956142022203748 0 -0.018089007492517475 0.0023761658387140405 0 -0.017912385764461903 0.0024014678616784677 0 -0.018041699542115024 0.0023618863200437911 0 -0.017751006042000379 0.0029223409318403239 0 -0.018235788386465359 0.0028511625304116399 0 -0.018089007492517475 0.0023761658387140405 0 -0.018235788386465359 0.0028511625304116399 0 -0.018453485690252791 0.002479768513156449 0 -0.018089007492517475 0.0023761658387140405 0 -0.018235788386465359 0.0028511625304116399 0 -0.018851473158292418 0.0024610793385271205 0 -0.018453485690252791 0.002479768513156449 0 -0.018969680331448715 0.0030336230384781842 0 -0.018235788386465359 0.0028511625304116399 0 -0.018851473158292418 0.0024610793385271205 0 -0.019027881371468911 0.0030526615714450045 0 -0.019198453600592368 0.0029003694947665809 0 -0.018969680331448715 0.0030336230384781842 0 -0.018373347421525788 0.0031562937371279621 0 -0.018496908136549781 0.0034713280112540963 0 -0.018969680331448715 0.0030336230384781842 0 -0.018373347421525788 0.0031562937371279621 0 -0.018235788386465359 0.0028511625304116399 0 -0.017786758092574399 0.0032876608364561777 0 -0.018373347421525788 0.0031562937371279621 0 -0.018235788386465359 0.0028511625304116399 0 -0.017786758092574399 0.0032876608364561777 0 -0.017605781260509695 0.0039290440478548802 0 -0.018496908136549781 0.0034713280112540963 0 -0.017786758092574399 0.0032876608364561777 0 -0.018373347421525788 0.0031562937371279621 0 -0.018496908136549781 0.0034713280112540963 0 -0.017605781260509695 0.0039290440478548802 0 -0.018175769648542957 0.0039737340177119253 0 -0.018496908136549781 0.0034713280112540963 0 -0.018434845470917699 0.0043935805891862868 0 -0.018175769648542957 0.0039737340177119253 0 -0.019082156370751717 0.0038380557885236781 0 -0.018175769648542957 0.0039737340177119253 0 -0.018496908136549781 0.0034713280112540963 0 -0.019082156370751717 0.0038380557885236781 0 -0.018496908136549781 0.0034713280112540963 0 -0.019082156370751717 0.0038380557885236781 0 -0.019294148125018784 0.0033645563617255765 0 -0.018969680331448715 0.0030336230384781842 0 -0.018496908136549781 0.0034713280112540963 0 -0.019294148125018784 0.0033645563617255765 0 -0.020071398810638297 0.0036211557354757355 0 -0.019651975475274763 0.0040391590697697348 0 -0.019294148125018784 0.0033645563617255765 0 -0.019082156370751717 0.0038380557885236781 0 -0.019651975475274763 0.0040391590697697348 0 -0.019294148125018784 0.0033645563617255765 0 -0.01956822785885198 0.0030914931700776818 0 -0.019294148125018784 0.0033645563617255765 0 -0.019319170823336777 0.0030641252715374718 0 -0.018969680331448715 0.0030336230384781842 0 -0.019294148125018784 0.0033645563617255765 0 -0.019319170823336777 0.0030641252715374718 0 -0.018969680331448715 0.0030336230384781842 0 -0.019319170823336777 0.0030641252715374718 0 -0.019598172247704528 0.0032674862854107445 0 -0.020378664937354712 0.0038865173956845376 0 -0.020157643011358802 0.0038351769505369617 0 -0.01956822785885198 0.0030914931700776818 0 -0.019319170823336777 0.0030641252715374718 0 -0.019392942682648226 0.0031932299167834882 0 -0.019319170823336777 0.0030641252715374718 0 -0.019392942682648226 0.0031932299167834882 0 -0.019598172247704528 0.0032674862854107445 0 -0.019392942682648226 0.0031932299167834882 0 -0.020006503921883093 0.0036591111814791894 0 -0.019598172247704528 0.0032674862854107445 0 -0.020923097681971887 0.0045333018634747006 0 -0.02081426323405804 0.0038386264444897592 0 -0.020006503921883093 0.0036591111814791894 0 -0.020157643011358802 0.0038351769505369617 0 -0.019998826409616598 0.0036285086269037831 0 -0.021256989640292257 0.0041365527537880545 0 -0.020923097681971887 0.0045333018634747006 0 -0.02081426323405804 0.0038386264444897592 0 -0.02081426323405804 0.0038386264444897592 0 -0.020737373164447053 0.003041876317560695 0 -0.020006503921883093 0.0036591111814791894 0 -0.021279004145638953 0.0034741825101682381 0 -0.02081426323405804 0.0038386264444897592 0 -0.020737373164447053 0.003041876317560695 0 -0.021256989640292257 0.0041365527537880545 0 -0.021279004145638953 0.0034741825101682381 0 -0.02081426323405804 0.0038386264444897592 0 -0.021279004145638953 0.0034741825101682381 0 -0.021389688075001471 0.0030839685457016014 0 -0.020737373164447053 0.003041876317560695 0 -0.020737373164447053 0.003041876317560695 0 -0.019954062805490478 0.0023400542203278131 0 -0.021710255996754337 0.0026825835840539802 0 -0.021389688075001471 0.0030839685457016014 0 -0.020737373164447053 0.003041876317560695 0 -0.021710255996754337 0.0026825835840539802 0 -0.019898076584951491 0.0031214161242650918 0 -0.019300015671640774 0.0026494556353174091 0 -0.019954062805490478 0.0023400542203278131 0 -0.020737373164447053 0.003041876317560695 0 -0.019898076584951491 0.0031214161242650918 0 -0.019954062805490478 0.0023400542203278131 0 -0.019898076584951491 0.0031214161242650918 0 -0.020006503921883093 0.0036591111814791894 0 -0.019703148671365474 0.0035789540255524695 0 -0.020737373164447053 0.003041876317560695 0 -0.019898076584951491 0.0031214161242650918 0 -0.020006503921883093 0.0036591111814791894 0 -0.019898076584951491 0.0031214161242650918 0 -0.019703148671365474 0.0035789540255524695 0 -0.019300015671640774 0.0026494556353174091 0 -0.019262189160774063 0.0028794724096507041 0 -0.019283479156773697 0.0026257369850816981 0 -0.01881015597052357 0.0022474840420753438 0 -0.019061988309663342 0.0023739544027023694 0 -0.019300015671640774 0.0026494556353174091 0 -0.01881015597052357 0.0022474840420753438 0 -0.019061988309663342 0.0023739544027023694 0 -0.018760520178159386 0.0023292627440462525 0 -0.019061988309663342 0.0023739544027023694 0 -0.019447511893263721 0.0024716664065559282 0 -0.019947364976384014 0.0020835988316853238 0 -0.019061988309663342 0.0023739544027023694 0 -0.019300015671640774 0.0026494556353174091 0 -0.019447511893263721 0.0024716664065559282 0 -0.019447511893263721 0.0024716664065559282 0 -0.020244780503377476 0.0030274463035509535 0 -0.019231768199363758 0.0026874786967551788 0 -0.019300015671640774 0.0026494556353174091 0 -0.019447511893263721 0.0024716664065559282 0 -0.019231768199363758 0.0026874786967551788 0 -0.019027104868996413 0.0023280455200802392 0 -0.019337443398412962 0.002176880165305341 0 -0.018760520178159386 0.0023292627440462525 0 -0.018501468062921866 0.0023740406191493139 0 -0.018467567776253677 0.0022259659239736544 0 -0.019061988309663342 0.0023739544027023694 0 -0.018760520178159386 0.0023292627440462525 0 -0.018467567776253677 0.0022259659239736544 0 -0.018760520178159386 0.0023292627440462525 0 -0.018501468062921866 0.0023740406191493139 0 -0.018672778197731926 0.0023549473525748938 0 -0.01881015597052357 0.0022474840420753438 0 -0.018760520178159386 0.0023292627440462525 0 -0.018672778197731926 0.0023549473525748938 0 -0.01881015597052357 0.0022474840420753438 0 -0.018672778197731926 0.0023549473525748938 0 -0.018851473158292418 0.0024610793385271205 0 -0.020006503921883093 0.0036591111814791894 0 -0.019703148671365474 0.0035789540255524695 0 -0.019598172247704528 0.0032674862854107445 0 -0.019262189160774063 0.0028794724096507041 0 -0.019198453600592368 0.0029003694947665809 0 -0.018672778197731926 0.0023549473525748938 0 -0.018851473158292418 0.0024610793385271205 0 -0.018453485690252791 0.002479768513156449 0 -0.018501468062921866 0.0023740406191493139 0 -0.018672778197731926 0.0023549473525748938 0 -0.018453485690252791 0.002479768513156449 0 -0.018501468062921866 0.0023740406191493139 0 -0.018453485690252791 0.002479768513156449 0 -0.018089007492517475 0.0023761658387140405 0 -0.018089007492517475 0.0023761658387140405 0 -0.018295399993837377 0.0023674063698035943 0 -0.018390101659792747 0.0022897928566312179 0 -0.018089007492517475 0.0023761658387140405 0 -0.018295399993837377 0.0023674063698035943 0 -0.018344226868320646 0.002353077498056503 0 -0.018295399993837377 0.0023674063698035943 0 -0.018344226868320646 0.002353077498056503 0 -0.018349218750869499 0.0023539539159934449 0 -0.018501468062921866 0.0023740406191493139 0 -0.018089007492517475 0.0023761658387140405 0 -0.018344226868320646 0.002353077498056503 0 -0.018501468062921866 0.0023740406191493139 0 -0.018344226868320646 0.002353077498056503 0 -0.018467567776253677 0.0022259659239736544 0 -0.019447511893263721 0.0024716664065559282 0 -0.019947364976384014 0.0020835988316853238 0 -0.020244780503377476 0.0030274463035509535 0 -0.019947364976384014 0.0020835988316853238 0 -0.021292555570859642 0.0019834696149755205 0 -0.020244780503377476 0.0030274463035509535 0 -0.021292555570859642 0.0019834696149755205 0 -0.021734770314311751 0.0031421130612833172 0 -0.020244780503377476 0.0030274463035509535 0 -0.018344226868320646 0.002353077498056503 0 -0.018467567776253677 0.0022259659239736544 0 -0.018349218750869499 0.0023539539159934449 0 -0.018467567776253677 0.0022259659239736544 0 -0.018349218750869499 0.0023539539159934449 0 -0.018370629356938312 0.0023630492203345703 0 -0.019337443398412962 0.002176880165305341 0 -0.019377013819834473 0.0022221837301363324 0 -0.018349218750869499 0.0023539539159934449 0 -0.018408817273427754 0.0023556693638741759 0 -0.018370629356938312 0.0023630492203345703 0 -0.019377013819834473 0.0022221837301363324 0 -0.022824132207148816 0.0016955904734863457 0 -0.018408817273427754 0.0023556693638741759 0 -0.018370629356938312 0.0023630492203345703 0 -0.018550271178672785 0.0024214681043200508 0 -0.021292555570859642 0.0019834696149755205 0 -0.022525458745022132 0.0027765008391448195 0 -0.021734770314311751 0.0031421130612833172 0 -0.021292555570859642 0.0019834696149755205 0 -0.022525458745022132 0.0027765008391448195 0 -0.022836702062804928 0.0019587359872814507 0 -0.02332316476678651 0.003196379643356579 0 -0.022525458745022132 0.0027765008391448195 0 -0.022836702062804928 0.0019587359872814507 0 -0.022824132207148816 0.0016955904734863457 0 -0.019452360446554039 0.0017952744454130883 0 -0.018408817273427754 0.0023556693638741759 0 -0.018550271178672785 0.0024214681043200508 0 -0.018479619155171524 0.002303311472337088 0 -0.022801496203025018 0.0013698596813634689 0 -0.022513251488055046 0.0016972851078603214 0 -0.022310112405082138 0.0012898095437448686 0 -0.018467304761093449 0.0023972978368793593 0 -0.018506055026243872 0.0024727720399352979 0 -0.018629769104514068 0.0022378158085752122 0 -0.021048344997706345 0.0015797617349319485 0 -0.019452360446554039 0.0017952744454130883 0 -0.01924694742541376 0.0019929884336942565 0 -0.019452360446554039 0.0017952744454130883 0 -0.018408817273427754 0.0023556693638741759 0 -0.018458202415173024 0.0023952101879757201 0 -0.01839294222312278 0.0023802491226091924 0 -0.018467304761093449 0.0023972978368793593 0 -0.018458202415173024 0.0023952101879757201 0 -0.01839294222312278 0.0023802491226091924 0 -0.018338711225918923 0.002491267356062732 0 -0.019452360446554039 0.0017952744454130883 0 -0.018295399993837377 0.0023674063698035943 0 -0.018349218750869499 0.0023539539159934449 0 -0.01839294222312278 0.0023802491226091924 0 -0.018349218750869499 0.0023539539159934449 0 -0.018408817273427754 0.0023556693638741759 0 -0.01839294222312278 0.0023802491226091924 0 -0.018295399993837377 0.0023674063698035943 0 -0.01839294222312278 0.0023802491226091924 0 -0.018390101659792747 0.0022897928566312179 0 -0.018467304761093449 0.0023972978368793593 0 -0.01839294222312278 0.0023802491226091924 0 -0.018390101659792747 0.0022897928566312179 0 -0.018399009284364679 0.0020239962919495159 0 -0.018390101659792747 0.0022897928566312179 0 -0.018629769104514068 0.0022378158085752122 0 -0.018399009284364679 0.0020239962919495159 0 -0.018089007492517475 0.0023761658387140405 0 -0.018390101659792747 0.0022897928566312179 0 -0.018921864080678689 0.002279004544681329 0 -0.018506055026243872 0.0024727720399352979 0 -0.018629769104514068 0.0022378158085752122 0 -0.018467304761093449 0.0023972978368793593 0 -0.018390101659792747 0.0022897928566312179 0 -0.018629769104514068 0.0022378158085752122 0 -0.028276379053214111 0.0029501406410853163 0 -0.028276030212186352 0.0029527029560942213 0 -0.028220979130048351 0.0029320768465496438 0 -0.028276379053214111 0.0029501406410853163 0 -0.028302264791343644 0.0029718761306433716 0 -0.028220979130048351 0.0029320768465496438 0 -0.028302264791343644 0.0029718761306433716 0 -0.028220979130048351 0.0029320768465496438 0 -0.028289507772419707 0.0029102436216111908 0 -0.028302264791343644 0.0029718761306433716 0 -0.028300423145902323 0.0029348324161784056 0 -0.028328948279537268 0.0028930712054012577 0 -0.028276379053214111 0.0029501406410853163 0 -0.028302264791343644 0.0029718761306433716 0 -0.028300423145902323 0.0029348324161784056 0 -0.028276379053214111 0.0029501406410853163 0 -0.028300423145902323 0.0029348324161784056 0 -0.028276030212186352 0.0029527029560942213 0 -0.028300423145902323 0.0029348324161784056 0 -0.028276030212186352 0.0029527029560942213 0 -0.028296053295830147 0.0029417131083582741 0 -0.028094806906543562 0.0028208820527625186 0 -0.028126963542709639 0.0028592649421680721 0 -0.02810209836703138 0.0028975673482189604 0 -0.02893598697038844 0.0028936608636014084 0 -0.030312455574834897 0.0023955166955426242 0 -0.02893598697038844 0.0028936608636014084 0 -0.02801551646560211 0.002856380728770366 0 -0.028276030212186352 0.0029527029560942213 0 -0.02810209836703138 0.0028975673482189604 0 -0.028220979130048351 0.0029320768465496438 0 -0.029886858953468501 0.002560433493062004 0 -0.031328694985150556 0.0021031525137897781 0 -0.029807167152854443 0.0019010972597763563 0 -0.02893598697038844 0.0028936608636014084 0 -0.031697579255469101 0.0017542226147493328 0 -0.028094806906543562 0.0028208820527625186 0 -0.028126963542709639 0.0028592649421680721 0 -0.028151591623381857 0.0027914925359334656 0 -0.028112511303838295 0.0028903128911057533 0 -0.02810209836703138 0.0028975673482189604 0 -0.027973878744867921 0.0029042490675492941 0 -0.028126963542709639 0.0028592649421680721 0 -0.028112511303838295 0.0028903128911057533 0 -0.02810209836703138 0.0028975673482189604 0 -0.02810209836703138 0.0028975673482189604 0 -0.028199365817993271 0.0028584069867065112 0 -0.028220979130048351 0.0029320768465496438 0 -0.028199365817993271 0.0028584069867065112 0 -0.028220979130048351 0.0029320768465496438 0 -0.028289507772419707 0.0029102436216111908 0 -0.02835241023422597 0.0027973619605899582 0 -0.028199365817993271 0.0028584069867065112 0 -0.028289507772419707 0.0029102436216111908 0 -0.028331883177054269 0.0027472662775187345 0 -0.028199365817993271 0.0028584069867065112 0 -0.028234195331518819 0.0026979910005103642 0 -0.028331883177054269 0.0027472662775187345 0 -0.02835241023422597 0.0027973619605899582 0 -0.028199365817993271 0.0028584069867065112 0 -0.028199365817993271 0.0028584069867065112 0 -0.028234195331518819 0.0026979910005103642 0 -0.027973878744867921 0.0029042490675492941 0 -0.028234195331518819 0.0026979910005103642 0 -0.028046079899596482 0.0026141007663289728 0 -0.027973878744867921 0.0029042490675492941 0 -0.028358451251717497 0.0026665427731423874 0 -0.028234195331518819 0.0026979910005103642 0 -0.02832670837847083 0.0025967848652969933 0 -0.028358451251717497 0.0026665427731423874 0 -0.028331883177054269 0.0027472662775187345 0 -0.028234195331518819 0.0026979910005103642 0 -0.028234195331518819 0.0026979910005103642 0 -0.02832670837847083 0.0025967848652969933 0 -0.028191611098251208 0.0025479301809993868 0 -0.028421495926797428 0.0025027111444193184 0 -0.02832670837847083 0.0025967848652969933 0 -0.028191611098251208 0.0025479301809993868 0 -0.02332316476678651 0.003196379643356579 0 -0.022525458745022132 0.0027765008391448195 0 -0.021734770314311751 0.0031421130612833172 0 -0.026479979956682827 0.0027919526317959314 0 -0.024650266432729748 0.0027173164303639346 0 -0.028421495926797428 0.0025027111444193184 0 -0.028191611098251208 0.0025479301809993868 0 -0.027877652823224235 0.002280337251874319 0 -0.028234195331518819 0.0026979910005103642 0 -0.028191611098251208 0.0025479301809993868 0 -0.028046079899596482 0.0026141007663289728 0 -0.028191611098251208 0.0025479301809993868 0 -0.027877652823224235 0.002280337251874319 0 -0.028046079899596482 0.0026141007663289728 0 -0.027877652823224235 0.002280337251874319 0 -0.028046079899596482 0.0026141007663289728 0 -0.027440604752467759 0.0026849360030219097 0 -0.02810209836703138 0.0028975673482189604 0 -0.028199365817993271 0.0028584069867065112 0 -0.027973878744867921 0.0029042490675492941 0 -0.028112511303838295 0.0028903128911057533 0 -0.027973878744867921 0.0029042490675492941 0 -0.028153920752087388 0.0028987518646368064 0 -0.027440604752467759 0.0026849360030219097 0 -0.027973878744867921 0.0029042490675492941 0 -0.02723327910318073 0.0031439614008113991 0 -0.027928455690341435 0.0029852609196148214 0 -0.027571131317490293 0.0033341387076470889 0 -0.028046079899596482 0.0026141007663289728 0 -0.027440604752467759 0.0026849360030219097 0 -0.027973878744867921 0.0029042490675492941 0 -0.026866635548235328 0.0033517692130102068 0 -0.02723327910318073 0.0031439614008113991 0 -0.026910715103962493 0.0038780488883725394 0 -0.02653002817807 0.0034130525857723115 0 -0.025920085443776334 0.003643640898218795 0 -0.026910715103962493 0.0038780488883725394 0 -0.027973878744867921 0.0029042490675492941 0 -0.02723327910318073 0.0031439614008113991 0 -0.026910715103962493 0.0038780488883725394 0 -0.026866635548235328 0.0033517692130102068 0 -0.02653002817807 0.0034130525857723115 0 -0.026910715103962493 0.0038780488883725394 0 -0.026866635548235328 0.0033517692130102068 0 -0.02653002817807 0.0034130525857723115 0 -0.026796781509995201 0.0029969461591698937 0 -0.02653002817807 0.0034130525857723115 0 -0.026796781509995201 0.0029969461591698937 0 -0.026149437295735715 0.0031197758899120412 0 -0.027440604752467759 0.0026849360030219097 0 -0.026796781509995201 0.0029969461591698937 0 -0.02723327910318073 0.0031439614008113991 0 -0.026866635548235328 0.0033517692130102068 0 -0.026796781509995201 0.0029969461591698937 0 -0.02723327910318073 0.0031439614008113991 0 -0.024650266432729748 0.0027173164303639346 0 -0.023351618309363689 0.0025719457586069199 0 -0.027440604752467759 0.0026849360030219097 0 -0.026796781509995201 0.0029969461591698937 0 -0.026377829721856892 0.0021177756908112156 0 -0.027877652823224235 0.002280337251874319 0 -0.027440604752467759 0.0026849360030219097 0 -0.026377829721856892 0.0021177756908112156 0 -0.023351618309363689 0.0025719457586069199 0 -0.02199983656963277 0.0024254342837552786 0 -0.026377829721856892 0.0021177756908112156 0 -0.025500834882730236 0.0028689068071145697 0 -0.026149437295735715 0.0031197758899120412 0 -0.026796781509995201 0.0029969461591698937 0 -0.026377829721856892 0.0021177756908112156 0 -0.026149437295735715 0.0031197758899120412 0 -0.026377829721856892 0.0021177756908112156 0 -0.025500834882730236 0.0028689068071145697 0 -0.024689238922802531 0.0021688623244518058 0 -0.025500834882730236 0.0028689068071145697 0 -0.026149437295735715 0.0031197758899120412 0 -0.025920085443776334 0.003643640898218795 0 -0.02653002817807 0.0034130525857723115 0 -0.026149437295735715 0.0031197758899120412 0 -0.025920085443776334 0.003643640898218795 0 -0.025920085443776334 0.003643640898218795 0 -0.025766065722564634 0.0046376125088640049 0 -0.026910715103962493 0.0038780488883725394 0 -0.025920085443776334 0.003643640898218795 0 -0.025766065722564634 0.0046376125088640049 0 -0.025092662114688764 0.0042627812481491082 0 -0.026656837967141724 0.0039626298499487768 0 -0.027571131317490293 0.0033341387076470889 0 -0.028032333103400923 0.0029492223986674424 0 -0.028153920752087388 0.0028987518646368064 0 -0.028152404879532748 0.0029108933562296165 0 -0.028112511303838295 0.0028903128911057533 0 -0.028153920752087388 0.0028987518646368064 0 -0.028152404879532748 0.0029108933562296165 0 -0.028126963542709639 0.0028592649421680721 0 -0.028112511303838295 0.0028903128911057533 0 -0.028134648976950637 0.0028808063908611647 0 -0.028112511303838295 0.0028903128911057533 0 -0.028134648976950637 0.0028808063908611647 0 -0.028152404879532748 0.0029108933562296165 0 -0.028134648976950637 0.0028808063908611647 0 -0.028152404879532748 0.0029108933562296165 0 -0.028175687710879482 0.0028379053274665529 0 -0.028175687710879482 0.0028379053274665529 0 -0.028255133506778909 0.002795192160212635 0 -0.028151591623381857 0.0027914925359334656 0 -0.027815395945249875 0.0032036540300248387 0 -0.0294263700445914 0.0024350357492159739 0 -0.028152404879532748 0.0029108933562296165 0 -0.028175687710879482 0.0028379053274665529 0 -0.028255133506778909 0.002795192160212635 0 -0.0294263700445914 0.0024350357492159739 0 -0.031697579255469101 0.0017542226147493328 0 -0.028126963542709639 0.0028592649421680721 0 -0.028134648976950637 0.0028808063908611647 0 -0.028175687710879482 0.0028379053274665529 0 -0.028126963542709639 0.0028592649421680721 0 -0.028175687710879482 0.0028379053274665529 0 -0.028151591623381857 0.0027914925359334656 0 -0.028032333103400923 0.0029492223986674424 0 -0.028084260836378706 0.0030608616517678374 0 -0.027883356463427825 0.003042355593567408 0 -0.028032333103400923 0.0029492223986674424 0 -0.028152404879532748 0.0029108933562296165 0 -0.028084260836378706 0.0030608616517678374 0 -0.025766065722564634 0.0046376125088640049 0 -0.024671986034883551 0.0053305106598754495 0 -0.025092662114688764 0.0042627812481491082 0 -0.0294263700445914 0.0024350357492159739 0 -0.027431074479469676 0.0032930012838564629 0 -0.030232477225127296 0.0017976957451476699 0 -0.029864868129355179 0.0017493183818745456 0 -0.029976290141895505 0.0018961401936872049 0 -0.029864868129355179 0.0017493183818745456 0 -0.029729894106609683 0.00183708277699427 0 -0.029976290141895505 0.0018961401936872049 0 -0.026656837967141724 0.0039626298499487768 0 -0.027431074479469676 0.0032930012838564629 0 -0.024671986034883551 0.0053305106598754495 0 -0.023820212856923574 0.0052071711637959725 0 -0.024338820627475315 0.0043681464869909327 0 -0.027431074479469676 0.0032930012838564629 0 -0.029066700869595254 0.0020545664425418676 0 -0.027743736409065006 0.0030043696255901255 0 -0.027478742030091628 0.0029659375626665137 0 -0.027574943915703799 0.0031122754091818736 0 -0.027431074479469676 0.0032930012838564629 0 -0.026337773758253621 0.0031643203528700678 0 -0.026337773758253621 0.0031643203528700678 0 -0.029066700869595254 0.0020545664425418676 0 -0.028310480859867877 0.0019378937802150312 0 -0.028404601287661875 0.0018437223768975732 0 -0.028250777081871847 0.0018344366911038738 0 -0.023820212856923574 0.0052071711637959725 0 -0.024338820627475315 0.0043681464869909327 0 -0.02355778664959108 0.0037323531370467228 0 -0.024338820627475315 0.0043681464869909327 0 -0.024924265949326892 0.0035306002345360981 0 -0.024234292880482809 0.0036525556939751218 0 -0.024338820627475315 0.0043681464869909327 0 -0.024234292880482809 0.0036525556939751218 0 -0.02355778664959108 0.0037323531370467228 0 -0.024671986034883551 0.0053305106598754495 0 -0.024338820627475315 0.0043681464869909327 0 -0.025092662114688764 0.0042627812481491082 0 -0.025920085443776334 0.003643640898218795 0 -0.025092662114688764 0.0042627812481491082 0 -0.024924265949326892 0.0035306002345360981 0 -0.024338820627475315 0.0043681464869909327 0 -0.025092662114688764 0.0042627812481491082 0 -0.024924265949326892 0.0035306002345360981 0 -0.025500834882730236 0.0028689068071145697 0 -0.025920085443776334 0.003643640898218795 0 -0.024924265949326892 0.0035306002345360981 0 -0.024924265949326892 0.0035306002345360981 0 -0.024832639680245811 0.0028806864989978373 0 -0.024220716647955564 0.0029464587003084214 0 -0.025500834882730236 0.0028689068071145697 0 -0.024924265949326892 0.0035306002345360981 0 -0.024832639680245811 0.0028806864989978373 0 -0.025500834882730236 0.0028689068071145697 0 -0.024832639680245811 0.0028806864989978373 0 -0.024689238922802531 0.0021688623244518058 0 -0.024832639680245811 0.0028806864989978373 0 -0.024689238922802531 0.0021688623244518058 0 -0.024220716647955564 0.0029464587003084214 0 -0.02199983656963277 0.0024254342837552786 0 -0.021556400088758584 0.0023738550630108537 0 -0.024689238922802531 0.0021688623244518058 0 -0.024220716647955564 0.0029464587003084214 0 -0.023096423586851215 0.0023086815763225348 0 -0.023593033727839097 0.0031949439019766934 0 -0.024220716647955564 0.0029464587003084214 0 -0.023096423586851215 0.0023086815763225348 0 -0.019300015671640774 0.0026494556353174091 0 -0.019231768199363758 0.0026874786967551788 0 -0.019954062805490478 0.0023400542203278131 0 -0.023593033727839097 0.0031949439019766934 0 -0.024220716647955564 0.0029464587003084214 0 -0.024234292880482809 0.0036525556939751218 0 -0.024924265949326892 0.0035306002345360981 0 -0.024220716647955564 0.0029464587003084214 0 -0.024234292880482809 0.0036525556939751218 0 -0.023593033727839097 0.0031949439019766934 0 -0.024234292880482809 0.0036525556939751218 0 -0.02355778664959108 0.0037323531370467228 0 -0.023341109084882593 0.0038191573195046329 0 -0.023592926566620293 0.0037825165190421011 0 -0.023034917198815751 0.0031823609435410326 0 -0.02231795648392268 0.0029865543505003104 0 -0.022969252211802533 0.0039110290841456383 0 -0.02355778664959108 0.0037323531370467228 0 -0.023034917198815751 0.0031823609435410326 0 -0.022969252211802533 0.0039110290841456383 0 -0.023593033727839097 0.0031949439019766934 0 -0.02355778664959108 0.0037323531370467228 0 -0.023034917198815751 0.0031823609435410326 0 -0.023593033727839097 0.0031949439019766934 0 -0.023034917198815751 0.0031823609435410326 0 -0.023096423586851215 0.0023086815763225348 0 -0.023034917198815751 0.0031823609435410326 0 -0.023096423586851215 0.0023086815763225348 0 -0.02231795648392268 0.0029865543505003104 0 -0.023096423586851215 0.0023086815763225348 0 -0.022197486673331799 0.0027611205388665193 0 -0.021710255996754337 0.0026825835840539802 0 -0.023096423586851215 0.0023086815763225348 0 -0.02231795648392268 0.0029865543505003104 0 -0.022197486673331799 0.0027611205388665193 0 -0.021556400088758584 0.0023738550630108537 0 -0.021694084018306751 0.0026081329021719877 0 -0.022197486673331799 0.0027611205388665193 0 -0.02189322905010347 0.0029055387798720489 0 -0.021710255996754337 0.0026825835840539802 0 -0.02231795648392268 0.0029865543505003104 0 -0.022197486673331799 0.0027611205388665193 0 -0.02189322905010347 0.0029055387798720489 0 -0.02231795648392268 0.0029865543505003104 0 -0.022250900831758198 0.0033266916385849693 0 -0.022688018521971019 0.003548911540139906 0 -0.02231795648392268 0.0029865543505003104 0 -0.022250900831758198 0.0033266916385849693 0 -0.02189322905010347 0.0029055387798720489 0 -0.022250900831758198 0.0033266916385849693 0 -0.02189322905010347 0.0029055387798720489 0 -0.022045789853630086 0.0037390959878879264 0 -0.022201291686889568 0.0029314029641837442 0 -0.023592926566620293 0.0037825165190421011 0 -0.023592926566620293 0.0037825165190421011 0 -0.024328477428908424 0.0027924378548127558 0 -0.022250900831758198 0.0033266916385849693 0 -0.022688018521971019 0.003548911540139906 0 -0.022045789853630086 0.0037390959878879264 0 -0.025544342270325333 0.0030911049237689948 0 -0.025570920267072694 0.0030557701921977696 0 -0.025503759205779956 0.0030747757834893251 0 -0.027213256214156583 0.0021486608094910069 0 -0.024328477428908424 0.0027924378548127558 0 -0.025544342270325333 0.0030911049237689948 0 -0.025517378843837216 0.0031124759897618913 0 -0.025503759205779956 0.0030747757834893251 0 -0.025639232635657091 0.0031361046946867649 0 -0.025570920267072694 0.0030557701921977696 0 -0.025575058910521701 0.0031255292974544276 0 -0.023820212856923574 0.0052071711637959725 0 -0.02355778664959108 0.0037323531370467228 0 -0.022977605123138119 0.0039072642044279526 0 -0.025544342270325333 0.0030911049237689948 0 -0.025570920267072694 0.0030557701921977696 0 -0.025575058910521701 0.0031255292974544276 0 -0.026337773758253621 0.0031643203528700678 0 -0.023592926566620293 0.0037825165190421011 0 -0.026337773758253621 0.0031643203528700678 0 -0.027127500049653874 0.0025567981334368227 0 -0.028310480859867877 0.0019378937802150312 0 -0.028519760097956075 0.0019600127571021545 0 -0.028404601287661875 0.0018437223768975732 0 -0.028519760097956075 0.0019600127571021545 0 -0.02860066978510617 0.0018602991055716518 0 -0.028511838729577039 0.001821623293024676 0 -0.028519760097956075 0.0019600127571021545 0 -0.028404601287661875 0.0018437223768975732 0 -0.028511838729577039 0.001821623293024676 0 -0.028519760097956075 0.0019600127571021545 0 -0.02860066978510617 0.0018602991055716518 0 -0.028713614849844079 0.0019837312861853266 0 -0.027213256214156583 0.0021486608094910069 0 -0.028058235445218505 0.0018934107723847368 0 -0.027127500049653874 0.0025567981334368227 0 -0.027213256214156583 0.0021486608094910069 0 -0.02860066978510617 0.0018602991055716518 0 -0.028713614849844079 0.0019837312861853266 0 -0.028697508525727639 0.001775250080464647 0 -0.025544342270325333 0.0030911049237689948 0 -0.025575058910521701 0.0031255292974544276 0 -0.025517378843837216 0.0031124759897618913 0 -0.027455761723899026 0.002111019025503159 0 -0.027426239754528348 0.0020320813940926268 0 -0.027478331353402132 0.0020701506628557184 0 -0.028058235445218505 0.0018934107723847368 0 -0.030054652294555978 0.0015237350466901077 0 -0.028697508525727639 0.001775250080464647 0 -0.02856332822247851 0.001742856851345654 0 -0.028680235311514857 0.0015737150953898783 0 -0.027426239754528348 0.0020320813940926268 0 -0.027390649922193106 0.0019112890167121844 0 -0.027472397412899523 0.0019876906779399996 0 -0.02856332822247851 0.001742856851345654 0 -0.028483719774184166 0.0017019491141160045 0 -0.028680235311514857 0.0015737150953898783 0 -0.02860066978510617 0.0018602991055716518 0 -0.028697508525727639 0.001775250080464647 0 -0.02856332822247851 0.001742856851345654 0 -0.028511838729577039 0.001821623293024676 0 -0.02856332822247851 0.001742856851345654 0 -0.028466529320772406 0.0016948851434322074 0 -0.02860066978510617 0.0018602991055716518 0 -0.028511838729577039 0.001821623293024676 0 -0.02856332822247851 0.001742856851345654 0 -0.028404601287661875 0.0018437223768975732 0 -0.028466529320772406 0.0016948851434322074 0 -0.028250777081871847 0.0018344366911038738 0 -0.028404601287661875 0.0018437223768975732 0 -0.028511838729577039 0.001821623293024676 0 -0.028466529320772406 0.0016948851434322074 0 -0.030031308508256492 0.0014070838583922227 0 -0.032825641057137339 0.00091436685687306112 0 -0.028757409154358118 0.0013035600791742896 0 -0.030031308508256492 0.0014070838583922227 0 -0.031926110120383967 0.0010116012247383076 0 -0.031910876786902895 0.0012323714865771051 0 -0.031597399871114741 0.0012263459370181679 0 -0.031926110120383967 0.0010116012247383076 0 -0.031910876786902895 0.0012323714865771051 0 -0.032212577893821856 0.0011403566534496439 0 -0.03358655239473473 0.00057806662282280702 0 -0.032825641057137339 0.00091436685687306112 0 -0.031910876786902895 0.0012323714865771051 0 -0.031597399871114741 0.0012263459370181679 0 -0.031614353049065298 0.0013230217496496127 0 -0.034971879130857308 2.2964448078877854e-05 0 -0.034974206581870247 2.1164289265635746e-05 0 -0.034982033470171703 1.345770420508149e-05 0 -0.030031308508256492 0.0014070838583922227 0 -0.030054652294555978 0.0015237350466901077 0 -0.03358655239473473 0.00057806662282280702 0 -0.033069032805595228 0.00050018803927081169 0 -0.031444480397360024 0.00084810199345752867 0 -0.031433846384692599 0.00075473326498283423 0 -0.031730722556904047 0.00065805054178905782 0 -0.030054652294555978 0.0015237350466901077 0 -0.033069032805595228 0.00050018803927081169 0 -0.033069032805595228 0.00050018803927081169 0 -0.035366756630299402 -0.00013053579618774172 0 -0.034954699051992638 3.4522678540252861e-05 0 -0.034976431483542715 1.8210834538832106e-05 0 -0.034988963162127316 6.1645874608384992e-06 0 -0.034974206581870247 2.1164289265635746e-05 0 -0.034988963162127316 6.1645874608384992e-06 0 -0.034982033470171703 1.345770420508149e-05 0 -0.034976431483542715 1.8210834538832106e-05 0 -0.034988963162127316 6.1645874608384992e-06 0 -0.03498929536692582 7.1207499103718333e-06 0 -0.034988963162127316 6.1645874608384992e-06 0 -0.034999954064399062 8.2970740834448869e-09 0 -0.03498929536692582 7.1207499103718333e-06 0 -0.034988963162127316 6.1645874608384992e-06 0 -0.034999954064399062 8.2970740834448869e-09 0 -0.034991786414481175 5.8457156047188541e-06 0 -0.034999954064399062 8.2970740834448869e-09 0 -0.034991786414481175 5.8457156047188541e-06 0 -0.034999981161551501 6.6403751248664801e-09 0 -0.034991786414481175 5.8457156047188541e-06 0 -0.034983847258978532 1.1948097263505845e-05 0 -0.034999981161551501 6.6403751248664801e-09 0 -0.034988963162127316 6.1645874608384992e-06 0 -0.034991786414481175 5.8457156047188541e-06 0 -0.034982033470171703 1.345770420508149e-05 0 -0.034971879130857308 2.2964448078877854e-05 0 -0.034983847258978532 1.1948097263505845e-05 0 -0.034975475146407427 1.8554893725070667e-05 0 -0.034971879130857308 2.2964448078877854e-05 0 -0.034983847258978532 1.1948097263505845e-05 0 -0.034982033470171703 1.345770420508149e-05 0 -0.034991786414481175 5.8457156047188541e-06 0 -0.034983847258978532 1.1948097263505845e-05 0 -0.034982033470171703 1.345770420508149e-05 0 -0.034983847258978532 1.1948097263505845e-05 0 -0.034984234495535477 1.1305427610217774e-05 0 -0.034975475146407427 1.8554893725070667e-05 0 -0.034984234495535477 1.1305427610217774e-05 0 -0.034973975664746464 1.7454283862541216e-05 0 -0.034975475146407427 1.8554893725070667e-05 0 -0.034984234495535477 1.1305427610217774e-05 0 -0.034986291598972492 1.0689311126581638e-05 0 -0.034973975664746464 1.7454283862541216e-05 0 -0.034984234495535477 1.1305427610217774e-05 0 -0.034999981161551501 6.6403751248664801e-09 0 -0.034986291598972492 1.0689311126581638e-05 0 -0.034983847258978532 1.1948097263505845e-05 0 -0.034984234495535477 1.1305427610217774e-05 0 -0.034999981161551501 6.6403751248664801e-09 0 -0.034999989715404786 1.5387419767391871e-08 0 -0.034992926115605741 9.9909616829446673e-06 0 -0.034986291598972492 1.0689311126581638e-05 0 -0.034999981161551501 6.6403751248664801e-09 0 -0.034999989715404786 1.5387419767391871e-08 0 -0.034986291598972492 1.0689311126581638e-05 0 -0.035083533753489493 -0.00013764335112536396 0 -0.034488901334403486 0.00032673488119392823 0 -0.034992926115605741 9.9909616829446673e-06 0 -0.034986291598972492 1.0689311126581638e-05 0 -0.034990734450795972 1.5203506382470064e-05 0 -0.034986291598972492 1.0689311126581638e-05 0 -0.034990734450795972 1.5203506382470064e-05 0 -0.034989183757598658 1.5996116589918984e-05 0 -0.034986291598972492 1.0689311126581638e-05 0 -0.034973975664746464 1.7454283862541216e-05 0 -0.034959517255686329 2.2818770355321614e-05 0 -0.034723182244575164 0.00014054393788323744 0 -0.034488901334403486 0.00032673488119392823 0 -0.032876775074982538 0.00089026513255488916 0 -0.032875983273064208 0.00090381982188091666 0 -0.032861326598116351 0.00091003130315819066 0 -0.034035234787694629 0.00046073142338989923 0 -0.032825641057137339 0.00091436685687306112 0 -0.03309638423064229 0.00098176310464738003 0 -0.032507096528031652 0.00070996022333579673 0 -0.032851997928143174 0.00060125593903652733 0 -0.034973975664746464 1.7454283862541216e-05 0 -0.034961609919011975 2.3786087545452511e-05 0 -0.034965465990313263 2.7147599034819188e-05 0 -0.032875843461861037 0.00088919609287865125 0 -0.032876775074982538 0.00089026513255488916 0 -0.032861326598116351 0.00091003130315819066 0 -0.034488901334403486 0.00032673488119392823 0 -0.034035234787694629 0.00046073142338989923 0 -0.034035234787694629 0.00046073142338989923 0 -0.031357044428510158 0.0013244362426601773 0 -0.034973975664746464 1.7454283862541216e-05 0 -0.034959517255686329 2.2818770355321614e-05 0 -0.034961609919011975 2.3786087545452511e-05 0 -0.034973975664746464 1.7454283862541216e-05 0 -0.034975475146407427 1.8554893725070667e-05 0 -0.034965465990313263 2.7147599034819188e-05 0 -0.034971879130857308 2.2964448078877854e-05 0 -0.034975475146407427 1.8554893725070667e-05 0 -0.034965465990313263 2.7147599034819188e-05 0 -0.032825641057137339 0.00091436685687306112 0 -0.031357044428510158 0.0013244362426601773 0 -0.030744669358374131 0.0016018485496835466 0 -0.030764980889547273 0.0013721952779298056 0 -0.030890410372760503 0.0015565197240652189 0 -0.030547774304104946 0.0015126054595598602 0 -0.030744669358374131 0.0016018485496835466 0 -0.030764980889547273 0.0013721952779298056 0 -0.030031308508256492 0.0014070838583922227 0 -0.029066700869595254 0.0020545664425418676 0 -0.029066700869595254 0.0020545664425418676 0 -0.031357044428510158 0.0013244362426601773 0 -0.029976290141895505 0.0018961401936872049 0 -0.029869606064058991 0.0020362382176556692 0 -0.03015595434275577 0.0019476042564504506 0 -0.031357044428510158 0.0013244362426601773 0 -0.032692078315878066 0.0009927707892762286 0 -0.029729894106609683 0.00183708277699427 0 -0.029976290141895505 0.0018961401936872049 0 -0.029869606064058991 0.0020362382176556692 0 -0.030232477225127296 0.0017976957451476699 0 -0.029976290141895505 0.0018961401936872049 0 -0.03015595434275577 0.0019476042564504506 0 -0.0294263700445914 0.0024350357492159739 0 -0.032692078315878066 0.0009927707892762286 0 -0.031405150668978969 0.001777151295989746 0 -0.031468901263257867 0.0016613441032554699 0 -0.031205281943877453 0.0017538806989115209 0 -0.032692078315878066 0.0009927707892762286 0 -0.031697579255469101 0.0017542226147493328 0 -0.035122272441840977 0.00038137667115934403 0 -0.034846651136025295 0.00051623834753734604 0 -0.034974194693928276 0.00028329644863445841 0 -0.034846651136025295 0.00051623834753734604 0 -0.034974194693928276 0.00028329644863445841 0 -0.034838530925295937 0.0003286934409264269 0 -0.034974194693928276 0.00028329644863445841 0 -0.034922998757545697 0.00019555137211103507 0 -0.034838530925295937 0.0003286934409264269 0 -0.034974194693928276 0.00028329644863445841 0 -0.034922998757545697 0.00019555137211103507 0 -0.034975463175537569 0.00015559535657938127 0 -0.034922998757545697 0.00019555137211103507 0 -0.034975463175537569 0.00015559535657938127 0 -0.03492683801553171 0.000116929012926541 0 -0.034974194693928276 0.00028329644863445841 0 -0.034975463175537569 0.00015559535657938127 0 -0.035064576961148085 0.00022408894984281779 0 -0.034975463175537569 0.00015559535657938127 0 -0.035064576961148085 0.00022408894984281779 0 -0.03504245721360736 0.00011623482384456994 0 -0.035122272441840977 0.00038137667115934403 0 -0.034974194693928276 0.00028329644863445841 0 -0.035064576961148085 0.00022408894984281779 0 -0.035205512202286356 0.00019368284418267863 0 -0.035122272441840977 0.00038137667115934403 0 -0.035064576961148085 0.00022408894984281779 0 -0.034488901334403486 0.00032673488119392823 0 -0.032692078315878066 0.0009927707892762286 0 -0.035205512202286356 0.00019368284418267863 0 -0.035064576961148085 0.00022408894984281779 0 -0.03504245721360736 0.00011623482384456994 0 -0.034488901334403486 0.00032673488119392823 0 -0.035113053698088294 8.2072613527959905e-05 0 -0.034990734450795972 1.5203506382470064e-05 0 -0.034988456328566474 1.2993085721751333e-05 0 -0.034994295321659007 2.2204724321661527e-05 0 -0.034994295321659007 2.2204724321661527e-05 0 -0.034995183347294095 1.0973382770558811e-05 0 -0.034989115498715744 1.5721860002847674e-05 0 -0.034990734450795972 1.5203506382470064e-05 0 -0.034994295321659007 2.2204724321661527e-05 0 -0.034995183347294095 1.0973382770558811e-05 0 -0.034992926115605741 9.9909616829446673e-06 0 -0.034990734450795972 1.5203506382470064e-05 0 -0.034995183347294095 1.0973382770558811e-05 0 -0.034999989715404786 1.5387419767391871e-08 0 -0.034992926115605741 9.9909616829446673e-06 0 -0.034995183347294095 1.0973382770558811e-05 0 -0.034999989715404786 1.5387419767391871e-08 0 -0.034995183347294095 1.0973382770558811e-05 0 -0.034999984480619091 2.1466888081888695e-09 0 -0.034999984480619091 2.1466888081888695e-09 0 -0.034989115498715744 1.5721860002847674e-05 0 -0.03495295739418823 3.3045447571742017e-05 0 -0.034995183347294095 1.0973382770558811e-05 0 -0.034999984480619091 2.1466888081888695e-09 0 -0.034989115498715744 1.5721860002847674e-05 0 -0.034975463175537569 0.00015559535657938127 0 -0.03504245721360736 0.00011623482384456994 0 -0.03495295739418823 3.3045447571742017e-05 0 -0.035113053698088294 8.2072613527959905e-05 0 -0.034919883398138514 2.2732062167491426e-05 0 -0.034994295321659007 2.2204724321661527e-05 0 -0.034989115498715744 1.5721860002847674e-05 0 -0.03495295739418823 3.3045447571742017e-05 0 -0.034975463175537569 0.00015559535657938127 0 -0.03492683801553171 0.000116929012926541 0 -0.03495295739418823 3.3045447571742017e-05 0 -0.03492683801553171 0.000116929012926541 0 -0.034917990811728881 4.7364572760783845e-05 0 -0.034883819496674989 0.00016443982546837638 0 -0.034917990811728881 4.7364572760783845e-05 0 -0.03482042395543606 6.2102352714833234e-05 0 -0.034817848003744073 0.00014867141113562553 0 -0.034917990811728881 4.7364572760783845e-05 0 -0.034817848003744073 0.00014867141113562553 0 -0.034883819496674989 0.00016443982546837638 0 -0.034874794593857783 1.7728300000368138e-05 0 -0.03430892680673521 0.00013361084743621722 0 -0.03492683801553171 0.000116929012926541 0 -0.034917990811728881 4.7364572760783845e-05 0 -0.03495295739418823 3.3045447571742017e-05 0 -0.034917990811728881 4.7364572760783845e-05 0 -0.03495295739418823 3.3045447571742017e-05 0 -0.034999837976409175 3.2021622010293521e-08 0 -0.034999984480619091 2.1466888081888695e-09 0 -0.03495295739418823 3.3045447571742017e-05 0 -0.034999837976409175 3.2021622010293521e-08 0 -0.035000178167377834 -2.5800236515788979e-08 0 -0.03430892680673521 0.00013361084743621722 0 -0.034987226198991299 4.9440812146683357e-06 0 -0.035000029657469581 -2.3075261364456334e-09 0 -0.034976747824317631 1.8995664202026418e-05 0 -0.035000034092995055 -6.7826464844387856e-09 0 -0.034999941404796543 1.1670875242841748e-08 0 -0.034956769914810878 3.0672321576173141e-05 0 -0.034917990811728881 4.7364572760783845e-05 0 -0.034999837976409175 3.2021622010293521e-08 0 -0.034921290827014055 4.4680390969399324e-05 0 -0.035000034092995055 -6.7826464844387856e-09 0 -0.034956769914810878 3.0672321576173141e-05 0 -0.034966682298346582 3.1667167887722435e-05 0 -0.035000597070001568 -8.8080348313511068e-07 0 -0.032789549622860584 0.00067029743460441792 0 -0.032143772160284544 0.0010486652919446979 0 -0.032456878747781873 0.0010645481495562663 0 -0.032450849305275822 0.0011443391282212317 0 -0.032789549622860584 0.00067029743460441792 0 -0.032293142049964085 0.0008489548320654947 0 -0.032789549622860584 0.00067029743460441792 0 -0.031113960334008518 0.0016549741069437158 0 -0.034956769914810878 3.0672321576173141e-05 0 -0.034966682298346582 3.1667167887722435e-05 0 -0.034957417770385586 3.3587424860922067e-05 0 -0.03430892680673521 0.00013361084743621722 0 -0.032293142049964085 0.0008489548320654947 0 -0.033231086281753759 0.00077622373868510184 0 -0.033298708566787273 0.00075845539202190344 0 -0.033216176393453069 0.00066291797711003748 0 -0.028371874783130156 0.0024217908707245416 0 -0.02840834498544749 0.0024125522132056195 0 -0.028498767732153003 0.0025343521664540117 0 -0.03430892680673521 0.00013361084743621722 0 -0.033153876448501582 0.00066978229389010437 0 -0.032293142049964085 0.0008489548320654947 0 -0.033153876448501582 0.00066978229389010437 0 -0.031113960334008518 0.0016549741069437158 0 -0.032293142049964085 0.0008489548320654947 0 -0.032643610850390282 0.0011857661778208134 0 -0.032699070021630618 0.00010144873593445001 0 -0.031875808831829437 0.00032027679242864943 0 -0.028408412341141789 0.002969956481760475 0 -0.028450581853901688 0.002936060506565267 0 -0.028399839857962749 0.0029922178499153826 0 -0.028498767732153003 0.0025343521664540117 0 -0.02848046655313274 0.0029236061805841267 0 -0.028302167616226816 0.0027913475286251866 0 -0.031113960334008518 0.0016549741069437158 0 -0.028086942427300133 0.0031307195520751526 0 -0.028371874783130156 0.0024217908707245416 0 -0.028498767732153003 0.0025343521664540117 0 -0.028302167616226816 0.0027913475286251866 0 -0.033153876448501582 0.00066978229389010437 0 -0.030312455574834897 0.0023955166955426242 0 -0.033153876448501582 0.00066978229389010437 0 -0.035199446283237013 0.00028783131950854874 0 -0.034817848003744073 0.00014867141113562553 0 -0.034883819496674989 0.00016443982546837638 0 -0.034838530925295937 0.0003286934409264269 0 -0.034922998757545697 0.00019555137211103507 0 -0.034883819496674989 0.00016443982546837638 0 -0.034838530925295937 0.0003286934409264269 0 -0.034922998757545697 0.00019555137211103507 0 -0.03492683801553171 0.000116929012926541 0 -0.034883819496674989 0.00016443982546837638 0 -0.034481621862529233 -2.7935187207404156e-05 0 -0.034838530925295937 0.0003286934409264269 0 -0.034569773532008713 0.00052911142596641565 0 -0.031697579255469101 0.0017542226147493328 0 -0.030312455574834897 0.0023955166955426242 0 -0.034846651136025295 0.00051623834753734604 0 -0.034838530925295937 0.0003286934409264269 0 -0.034569773532008713 0.00052911142596641565 0 -0.028302264791343644 0.0029718761306433716 0 -0.028328948279537268 0.0028930712054012577 0 -0.028302167616226816 0.0027913475286251866 0 -0.02848046655313274 0.0029236061805841267 0 -0.028328948279537268 0.0028930712054012577 0 -0.028302167616226816 0.0027913475286251866 0 -0.030312455574834897 0.0023955166955426242 0 -0.028174316964918598 0.0025912645705811377 0 -0.02836435467755867 0.0028591353002157842 0 -0.028086942427300133 0.0031307195520751526 0 -0.028300423145902323 0.0029348324161784056 0 -0.028296053295830147 0.0029417131083582741 0 -0.028328948279537268 0.0028930712054012577 0 -0.023682358807967777 0.0028579465073040183 0 -0.023751245018268183 0.0024486788481162475 0 -0.024480546182939614 0.0025987809097798927 0 -0.023682358807967777 0.0028579465073040183 0 -0.023264281529143806 0.0029889472796652853 0 -0.023362529921507898 0.0025891894914132157 0 -0.023682358807967777 0.0028579465073040183 0 -0.023751245018268183 0.0024486788481162475 0 -0.023362529921507898 0.0025891894914132157 0 -0.023832827523536989 0.0020209672456543868 0 -0.023318591093328574 0.0021568796591114789 0 -0.0240121713208836 0.0013847545092469911 0 -0.023751245018268183 0.0024486788481162475 0 -0.023832827523536989 0.0020209672456543868 0 -0.023318591093328574 0.0021568796591114789 0 -0.023751245018268183 0.0024486788481162475 0 -0.023362529921507898 0.0025891894914132157 0 -0.023318591093328574 0.0021568796591114789 0 -0.023871540495177857 0.0020448244588571578 0 -0.024655934327499424 0.0026104136847499345 0 -0.023751245018268183 0.0024486788481162475 0 -0.023832827523536989 0.0020209672456543868 0 -0.024480546182939614 0.0025987809097798927 0 -0.024410193536702037 0.0018604959545021778 0 -0.024876239631635547 0.0019541201352555816 0 -0.024865560103838957 0.0026535517357443197 0 -0.023832827523536989 0.0020209672456543868 0 -0.024410193536702037 0.0018604959545021778 0 -0.024865560103838957 0.0026535517357443197 0 -0.024876239631635547 0.0019541201352555816 0 -0.025528253839137142 0.0023741663755188782 0 -0.025262541520124328 0.0016625769963412554 0 -0.024876239631635547 0.0019541201352555816 0 -0.025528253839137142 0.0023741663755188782 0 -0.024865560103838957 0.0026535517357443197 0 -0.025734188841930523 0.0018323473746166045 0 -0.025528253839137142 0.0023741663755188782 0 -0.025262541520124328 0.0016625769963412554 0 -0.025734188841930523 0.0018323473746166045 0 -0.026124577809995976 0.0018561438771685533 0 -0.026078812565905655 0.0023010504148383111 0 -0.025734188841930523 0.0018323473746166045 0 -0.025528253839137142 0.0023741663755188782 0 -0.026078812565905655 0.0023010504148383111 0 -0.025528253839137142 0.0023741663755188782 0 -0.026078812565905655 0.0023010504148383111 0 -0.026167799367219097 0.0028915757206916764 0 -0.025528253839137142 0.0023741663755188782 0 -0.025692747937902209 0.0032066962160932351 0 -0.026167799367219097 0.0028915757206916764 0 -0.025528253839137142 0.0023741663755188782 0 -0.024865560103838957 0.0026535517357443197 0 -0.025692747937902209 0.0032066962160932351 0 -0.024655934327499424 0.0026104136847499345 0 -0.025490964981425501 0.0031767763493281654 0 -0.024480546182939614 0.0025987809097798927 0 -0.024844109991961395 0.0034731736804490794 0 -0.024376909936389426 0.0036751687649664699 0 -0.024480546182939614 0.0025987809097798927 0 -0.025251011876519753 0.0031143264807422478 0 -0.024844109991961395 0.0034731736804490794 0 -0.024822007523821358 0.0041017665709221218 0 -0.025415039625953376 0.0037636277751392296 0 -0.024844109991961395 0.0034731736804490794 0 -0.024822007523821358 0.0041017665709221218 0 -0.025415039625953376 0.0037636277751392296 0 -0.025913174358957444 0.0042688279647025793 0 -0.025251011876519753 0.0031143264807422478 0 -0.025415039625953376 0.0037636277751392296 0 -0.024844109991961395 0.0034731736804490794 0 -0.024822007523821358 0.0041017665709221218 0 -0.024844109991961395 0.0034731736804490794 0 -0.024376909936389426 0.0036751687649664699 0 -0.024376909936389426 0.0036751687649664699 0 -0.023861098457310524 0.0033760282385980897 0 -0.023577324920867889 0.0039340845332527198 0 -0.023682358807967777 0.0028579465073040183 0 -0.024480546182939614 0.0025987809097798927 0 -0.023861098457310524 0.0033760282385980897 0 -0.024480546182939614 0.0025987809097798927 0 -0.024376909936389426 0.0036751687649664699 0 -0.023861098457310524 0.0033760282385980897 0 -0.023682358807967777 0.0028579465073040183 0 -0.023434576181466105 0.003367174841416843 0 -0.023264281529143806 0.0029889472796652853 0 -0.023682358807967777 0.0028579465073040183 0 -0.023861098457310524 0.0033760282385980897 0 -0.023434576181466105 0.003367174841416843 0 -0.023861098457310524 0.0033760282385980897 0 -0.023434576181466105 0.003367174841416843 0 -0.023577324920867889 0.0039340845332527198 0 -0.023434576181466105 0.003367174841416843 0 -0.023577324920867889 0.0039340845332527198 0 -0.02289902798761868 0.0034495000204014226 0 -0.022819785363786621 0.0043134131553451555 0 -0.023577324920867889 0.0039340845332527198 0 -0.02289902798761868 0.0034495000204014226 0 -0.022762366123882164 0.0032443929496398247 0 -0.022825182250336983 0.0029069294964651805 0 -0.022590342898400367 0.0029923967887233154 0 -0.022825182250336983 0.0029069294964651805 0 -0.022590342898400367 0.0029923967887233154 0 -0.022829277266442426 0.0029196065803360704 0 -0.022969450723453778 0.0036974964375473913 0 -0.022849742822393229 0.0031887018928518428 0 -0.023084450709860229 0.002907885605505782 0 -0.024211205658009969 0.0025486119523475139 0 -0.022829277266442426 0.0029196065803360704 0 -0.023412320345768848 0.0024264211564178377 0 -0.025562141389268416 0.0025722880410568643 0 -0.022825182250336983 0.0029069294964651805 0 -0.022829277266442426 0.0029196065803360704 0 -0.022858434123579009 0.0026848764794797299 0 -0.022849742822393229 0.0031887018928518428 0 -0.022987945153656819 0.002599272577810638 0 -0.023434576181466105 0.003367174841416843 0 -0.02289902798761868 0.0034495000204014226 0 -0.023264281529143806 0.0029889472796652853 0 -0.02289902798761868 0.0034495000204014226 0 -0.023264281529143806 0.0029889472796652853 0 -0.02300537841196508 0.0025810874320714196 0 -0.02189322905010347 0.0029055387798720489 0 -0.021710255996754337 0.0026825835840539802 0 -0.022177891880688371 0.0029244004849971203 0 -0.02189322905010347 0.0029055387798720489 0 -0.022177891880688371 0.0029244004849971203 0 -0.022297414265487845 0.0028493626251361033 0 -0.022590342898400367 0.0029923967887233154 0 -0.022177891880688371 0.0029244004849971203 0 -0.022829277266442426 0.0029196065803360704 0 -0.022177891880688371 0.0029244004849971203 0 -0.022829277266442426 0.0029196065803360704 0 -0.022297414265487845 0.0028493626251361033 0 -0.022829277266442426 0.0029196065803360704 0 -0.02239382108390954 0.0025636098654136128 0 -0.023412320345768848 0.0024264211564178377 0 -0.022829277266442426 0.0029196065803360704 0 -0.022297414265487845 0.0028493626251361033 0 -0.02239382108390954 0.0025636098654136128 0 -0.02189322905010347 0.0029055387798720489 0 -0.02239382108390954 0.0025636098654136128 0 -0.021804869570013395 0.0020149495300315853 0 -0.021297797447731446 0.0028806515640474512 0 -0.024328477428908424 0.0027924378548127558 0 -0.02189322905010347 0.0029055387798720489 0 -0.022297414265487845 0.0028493626251361033 0 -0.02239382108390954 0.0025636098654136128 0 -0.02239382108390954 0.0025636098654136128 0 -0.021804869570013395 0.0020149495300315853 0 -0.023414922043819706 0.0014773398077748555 0 -0.027422877259007421 0.0022222707062132386 0 -0.027662370793658495 0.0020517101672095045 0 -0.027483639112576081 0.0021088848813008445 0 -0.024328477428908424 0.0027924378548127558 0 -0.025628894682563134 0.0017309925267077917 0 -0.027408983533140478 0.0020986616174460599 0 -0.027422877259007421 0.0022222707062132386 0 -0.027483639112576081 0.0021088848813008445 0 -0.02239382108390954 0.0025636098654136128 0 -0.023414922043819706 0.0014773398077748555 0 -0.023412320345768848 0.0024264211564178377 0 -0.027662370793658495 0.0020517101672095045 0 -0.027501122706984012 0.0021395903296955831 0 -0.027586336763723643 0.0021265937552048136 0 -0.027662370793658495 0.0020517101672095045 0 -0.027561601585899518 0.0020773161158986952 0 -0.027586336763723643 0.0021265937552048136 0 -0.027662370793658495 0.0020517101672095045 0 -0.027561601585899518 0.0020773161158986952 0 -0.027483639112576081 0.0021088848813008445 0 -0.027561601585899518 0.0020773161158986952 0 -0.027478331353402132 0.0020701506628557184 0 -0.027483639112576081 0.0021088848813008445 0 -0.027561601585899518 0.0020773161158986952 0 -0.027478331353402132 0.0020701506628557184 0 -0.027532104757755999 0.002059772309786261 0 -0.027455761723899026 0.002111019025503159 0 -0.027478331353402132 0.0020701506628557184 0 -0.027483639112576081 0.0021088848813008445 0 -0.027213256214156583 0.0021486608094910069 0 -0.027413792378859721 0.0021500144248607039 0 -0.024211205658009969 0.0025486119523475139 0 -0.02536520262792424 0.0019646701032446827 0 -0.02300537841196508 0.0025810874320714196 0 -0.022858434123579009 0.0026848764794797299 0 -0.023318591093328574 0.0021568796591114789 0 -0.02300537841196508 0.0025810874320714196 0 -0.023362529921507898 0.0025891894914132157 0 -0.023318591093328574 0.0021568796591114789 0 -0.023264281529143806 0.0029889472796652853 0 -0.02300537841196508 0.0025810874320714196 0 -0.023362529921507898 0.0025891894914132157 0 -0.022825182250336983 0.0029069294964651805 0 -0.02300537841196508 0.0025810874320714196 0 -0.022858434123579009 0.0026848764794797299 0 -0.023414922043819706 0.0014773398077748555 0 -0.025562141389268416 0.0025722880410568643 0 -0.026987558856087935 0.0018451716964633211 0 -0.023414922043819706 0.0014773398077748555 0 -0.023412320345768848 0.0024264211564178377 0 -0.025562141389268416 0.0025722880410568643 0 -0.027662370793658495 0.0020517101672095045 0 -0.027501122706984012 0.0021395903296955831 0 -0.027085565667389771 0.0019441844091549743 0 -0.025628894682563134 0.0017309925267077917 0 -0.026742999366055054 0.0018291011893860475 0 -0.027662370793658495 0.0020517101672095045 0 -0.027085565667389771 0.0019441844091549743 0 -0.026987558856087935 0.0018451716964633211 0 -0.027501122706984012 0.0021395903296955831 0 -0.027439258709922962 0.0021547604826346522 0 -0.027085565667389771 0.0019441844091549743 0 -0.027085565667389771 0.0019441844091549743 0 -0.027953621676758671 0.0023129820290343564 0 -0.027589866316273491 0.0022097238101564088 0 -0.027085565667389771 0.0019441844091549743 0 -0.027403302743679529 0.0018584336480190974 0 -0.027655160706055129 0.0014000520160787828 0 -0.027439258709922962 0.0021547604826346522 0 -0.027085565667389771 0.0019441844091549743 0 -0.027589866316273491 0.0022097238101564088 0 -0.025562141389268416 0.0025722880410568643 0 -0.026987558856087935 0.0018451716964633211 0 -0.027403302743679529 0.0018584336480190974 0 -0.027085565667389771 0.0019441844091549743 0 -0.026987558856087935 0.0018451716964633211 0 -0.027403302743679529 0.0018584336480190974 0 -0.027085565667389771 0.0019441844091549743 0 -0.027953621676758671 0.0023129820290343564 0 -0.028398650263126279 0.0024770622185339985 0 -0.02720056682651173 0.0020278621884806409 0 -0.028713187726139081 0.001964436946996865 0 -0.027085565667389771 0.0019441844091549743 0 -0.028398650263126279 0.0024770622185339985 0 -0.029201050272646818 0.0028107102328345256 0 -0.027953621676758671 0.0023129820290343564 0 -0.028398650263126279 0.0024770622185339985 0 -0.028259019061506584 0.0023716986839510392 0 -0.027953621676758671 0.0023129820290343564 0 -0.028259019061506584 0.0023716986839510392 0 -0.027874945320855344 0.0022776211834370005 0 -0.028398650263126279 0.0024770622185339985 0 -0.028259019061506584 0.0023716986839510392 0 -0.028736940899755474 0.0024929162252459282 0 -0.028259019061506584 0.0023716986839510392 0 -0.028025463369609347 0.0022558385946679842 0 -0.028481301500225892 0.0022352777857507842 0 -0.028259019061506584 0.0023716986839510392 0 -0.028481301500225892 0.0022352777857507842 0 -0.028736940899755474 0.0024929162252459282 0 -0.028025463369609347 0.0022558385946679842 0 -0.02764264148014688 0.0022207037651062566 0 -0.027933533009757719 0.0020892971475043169 0 -0.028259019061506584 0.0023716986839510392 0 -0.028025463369609347 0.0022558385946679842 0 -0.027874945320855344 0.0022776211834370005 0 -0.028025463369609347 0.0022558385946679842 0 -0.027874945320855344 0.0022776211834370005 0 -0.02764264148014688 0.0022207037651062566 0 -0.027874945320855344 0.0022776211834370005 0 -0.027589866316273491 0.0022097238101564088 0 -0.02764264148014688 0.0022207037651062566 0 -0.027953621676758671 0.0023129820290343564 0 -0.027874945320855344 0.0022776211834370005 0 -0.027589866316273491 0.0022097238101564088 0 -0.027439258709922962 0.0021547604826346522 0 -0.027589866316273491 0.0022097238101564088 0 -0.02764264148014688 0.0022207037651062566 0 -0.02764264148014688 0.0022207037651062566 0 -0.027685472311523844 0.0020873258658345036 0 -0.027586336763723643 0.0021265937552048136 0 -0.027501122706984012 0.0021395903296955831 0 -0.02764264148014688 0.0022207037651062566 0 -0.027586336763723643 0.0021265937552048136 0 -0.027501122706984012 0.0021395903296955831 0 -0.027439258709922962 0.0021547604826346522 0 -0.02764264148014688 0.0022207037651062566 0 -0.02764264148014688 0.0022207037651062566 0 -0.027685472311523844 0.0020873258658345036 0 -0.027933533009757719 0.0020892971475043169 0 -0.027685472311523844 0.0020873258658345036 0 -0.027933533009757719 0.0020892971475043169 0 -0.027775300711882119 0.0018742536422078002 0 -0.027685472311523844 0.0020873258658345036 0 -0.027775300711882119 0.0018742536422078002 0 -0.027553871378452496 0.001970207168047685 0 -0.027933533009757719 0.0020892971475043169 0 -0.027775300711882119 0.0018742536422078002 0 -0.028181964531921073 0.0016659983801640714 0 -0.028481301500225892 0.0022352777857507842 0 -0.028181964531921073 0.0016659983801640714 0 -0.028993882739009269 0.0019236241520397569 0 -0.028025463369609347 0.0022558385946679842 0 -0.027933533009757719 0.0020892971475043169 0 -0.028481301500225892 0.0022352777857507842 0 -0.027933533009757719 0.0020892971475043169 0 -0.028481301500225892 0.0022352777857507842 0 -0.028181964531921073 0.0016659983801640714 0 -0.027426239754528348 0.0020320813940926268 0 -0.027478331353402132 0.0020701506628557184 0 -0.027472397412899523 0.0019876906779399996 0 -0.027478331353402132 0.0020701506628557184 0 -0.027472397412899523 0.0019876906779399996 0 -0.027532104757755999 0.002059772309786261 0 -0.027472397412899523 0.0019876906779399996 0 -0.027532104757755999 0.002059772309786261 0 -0.027553871378452496 0.001970207168047685 0 -0.027532104757755999 0.002059772309786261 0 -0.027586336763723643 0.0021265937552048136 0 -0.027553871378452496 0.001970207168047685 0 -0.027685472311523844 0.0020873258658345036 0 -0.027586336763723643 0.0021265937552048136 0 -0.027553871378452496 0.001970207168047685 0 -0.027561601585899518 0.0020773161158986952 0 -0.027532104757755999 0.002059772309786261 0 -0.027586336763723643 0.0021265937552048136 0 -0.027775300711882119 0.0018742536422078002 0 -0.027553871378452496 0.001970207168047685 0 -0.02766934307276394 0.0015305496133937477 0 -0.027553871378452496 0.001970207168047685 0 -0.027463252235641444 0.0017970234751690825 0 -0.02766934307276394 0.0015305496133937477 0 -0.033069032805595228 0.00050018803927081169 0 -0.031798768103599266 0.00087551015167713821 0 -0.030054652294555978 0.0015237350466901077 0 -0.031798768103599266 0.00087551015167713821 0 -0.027390649922193106 0.0019112890167121844 0 -0.027472397412899523 0.0019876906779399996 0 -0.027463252235641444 0.0017970234751690825 0 -0.027472397412899523 0.0019876906779399996 0 -0.027553871378452496 0.001970207168047685 0 -0.027463252235641444 0.0017970234751690825 0 -0.034974442370352229 2.8115501295265977e-05 0 -0.034994323813822323 5.3016824759165528e-06 0 -0.03498929536692582 7.1207499103718333e-06 0 -0.034976431483542715 1.8210834538832106e-05 0 -0.034974442370352229 2.8115501295265977e-05 0 -0.03498929536692582 7.1207499103718333e-06 0 -0.034954699051992638 3.4522678540252861e-05 0 -0.034976431483542715 1.8210834538832106e-05 0 -0.034974442370352229 2.8115501295265977e-05 0 -0.034974442370352229 2.8115501295265977e-05 0 -0.035001254334683582 5.8352308236313412e-06 0 -0.034994323813822323 5.3016824759165528e-06 0 -0.031798768103599266 0.00087551015167713821 0 -0.035081535172690637 -5.4502281259060761e-05 0 -0.031798768103599266 0.00087551015167713821 0 -0.030705016834374151 0.0011047039323849863 0 -0.033139767671562202 0.00090808236633673617 0 -0.034262260196196111 0.0002201685235379037 0 -0.034378164999458005 0.00050542379523197127 0 -0.035001254334683582 5.8352308236313412e-06 0 -0.035000236919065272 2.20476712991143e-06 0 -0.034994323813822323 5.3016824759165528e-06 0 -0.035000236919065272 2.20476712991143e-06 0 -0.035000044673833393 8.5507412611618703e-09 0 -0.034994323813822323 5.3016824759165528e-06 0 -0.035000044673833393 8.5507412611618703e-09 0 -0.034994323813822323 5.3016824759165528e-06 0 -0.03498929536692582 7.1207499103718333e-06 0 -0.034999954064399062 8.2970740834448869e-09 0 -0.035000044673833393 8.5507412611618703e-09 0 -0.03498929536692582 7.1207499103718333e-06 0 -0.028181964531921073 0.0016659983801640714 0 -0.028529049995915934 0.00092802805759916655 0 -0.028993882739009269 0.0019236241520397569 0 -0.027775300711882119 0.0018742536422078002 0 -0.028181964531921073 0.0016659983801640714 0 -0.02766934307276394 0.0015305496133937477 0 -0.034378164999458005 0.00050542379523197127 0 -0.034670071572132047 0.00020739893662760951 0 -0.035001817970101795 0.00013900073641766479 0 -0.030705016834374151 0.0011047039323849863 0 -0.031855568296029028 0.0005053907439060536 0 -0.028181964531921073 0.0016659983801640714 0 -0.02766934307276394 0.0015305496133937477 0 -0.028529049995915934 0.00092802805759916655 0 -0.034262260196196111 0.0002201685235379037 0 -0.034378164999458005 0.00050542379523197127 0 -0.034670071572132047 0.00020739893662760951 0 -0.034262260196196111 0.0002201685235379037 0 -0.034670071572132047 0.00020739893662760951 0 -0.034986741430450261 -3.7901350266839873e-06 0 -0.035000236919065272 2.20476712991143e-06 0 -0.035000044673833393 8.5507412611618703e-09 0 -0.034999814853751754 -2.2271929094927998e-08 0 -0.035001254334683582 5.8352308236313412e-06 0 -0.035000236919065272 2.20476712991143e-06 0 -0.034999814853751754 -2.2271929094927998e-08 0 -0.035081535172690637 -5.4502281259060761e-05 0 -0.034771323340278791 8.8123555343856265e-05 0 -0.035001254334683582 5.8352308236313412e-06 0 -0.034999814853751754 -2.2271929094927998e-08 0 -0.034986741430450261 -3.7901350266839873e-06 0 -0.034986741430450261 -3.7901350266839873e-06 0 -0.035001817970101795 0.00013900073641766479 0 -0.03500007458490504 4.6960956072769486e-08 0 -0.034999814853751754 -2.2271929094927998e-08 0 -0.034986741430450261 -3.7901350266839873e-06 0 -0.03500007458490504 4.6960956072769486e-08 0 -0.034670071572132047 0.00020739893662760951 0 -0.034986741430450261 -3.7901350266839873e-06 0 -0.035001817970101795 0.00013900073641766479 0 -0.035001817970101795 0.00013900073641766479 0 -0.03500007458490504 4.6960956072769486e-08 0 -0.03499850569518248 1.334100252615706e-05 0 -0.028529049995915934 0.00092802805759916655 0 -0.030694335198879708 1.8334374377943747e-05 0 -0.029606253596445146 0.0014429651422950571 0 -0.031855568296029028 0.0005053907439060536 0 -0.032834880445277721 0.00010221968996365159 0 -0.030694335198879708 1.8334374377943747e-05 0 -0.03282917150817246 0.00097773705589927003 0 -0.034996250473835665 -2.1458186410836221e-06 0 -0.03500007458490504 4.6960956072769486e-08 0 -0.03499850569518248 1.334100252615706e-05 0 -0.034999960310827291 -1.9554564059075607e-08 0 -0.030694335198879708 1.8334374377943747e-05 0 -0.03282917150817246 0.00097773705589927003 0 -0.030703344249158167 0.0017839919903060734 0 -0.032834880445277721 0.00010221968996365159 0 -0.034999254757671926 -7.0526089958314334e-08 0 -0.03282917150817246 0.00097773705589927003 0 -0.030703344249158167 0.0017839919903060734 0 -0.034502883684085141 0.0024629875145907223 0 -0.030703344249158167 0.0017839919903060734 0 -0.030921762518064711 0.002195061894309752 0 -0.031258593032709843 0.0018528585790050182 0 -0.031100963918415641 0.0019628892780532391 0 -0.03235711541936017 0.0015463478325814378 0 -0.030694335198879708 1.8334374377943747e-05 0 -0.030703344249158167 0.0017839919903060734 0 -0.029606253596445146 0.0014429651422950571 0 -0.030703344249158167 0.0017839919903060734 0 -0.029606253596445146 0.0014429651422950571 0 -0.029896306623046816 0.0022166497058476752 0 -0.028529049995915934 0.00092802805759916655 0 -0.029606253596445146 0.0014429651422950571 0 -0.028993882739009269 0.0019236241520397569 0 -0.028993882739009269 0.0019236241520397569 0 -0.029040564189535583 0.002328743771286093 0 -0.029896306623046816 0.0022166497058476752 0 -0.029606253596445146 0.0014429651422950571 0 -0.028993882739009269 0.0019236241520397569 0 -0.029896306623046816 0.0022166497058476752 0 -0.028481301500225892 0.0022352777857507842 0 -0.028993882739009269 0.0019236241520397569 0 -0.029040564189535583 0.002328743771286093 0 -0.028481301500225892 0.0022352777857507842 0 -0.029040564189535583 0.002328743771286093 0 -0.028736940899755474 0.0024929162252459282 0 -0.029040564189535583 0.002328743771286093 0 -0.029896306623046816 0.0022166497058476752 0 -0.029201050272646818 0.0028107102328345256 0 -0.029896306623046816 0.0022166497058476752 0 -0.030921762518064711 0.002195061894309752 0 -0.029201050272646818 0.0028107102328345256 0 -0.030703344249158167 0.0017839919903060734 0 -0.029896306623046816 0.0022166497058476752 0 -0.030921762518064711 0.002195061894309752 0 -0.028037816586349986 0.0014987334717496642 0 -0.025693292791541002 0.0013924939217917845 0 -0.028037816586349986 0.0014987334717496642 0 -0.028713187726139081 0.001964436946996865 0 -0.02476021806842181 0.00055896420932798855 0 -0.02474015261169973 0.0013832016152496786 0 -0.0240121713208836 0.0013847545092469911 0 -0.024410193536702037 0.0018604959545021778 0 -0.02474015261169973 0.0013832016152496786 0 -0.0240121713208836 0.0013847545092469911 0 -0.028096701863059438 0.0010904558756497577 0 -0.027655160706055129 0.0014000520160787828 0 -0.027773191140191247 0.0014083970556473114 0 -0.024410193536702037 0.0018604959545021778 0 -0.024876239631635547 0.0019541201352555816 0 -0.02474015261169973 0.0013832016152496786 0 -0.027403302743679529 0.0018584336480190974 0 -0.027655160706055129 0.0014000520160787828 0 -0.027773191140191247 0.0014083970556473114 0 -0.023832827523536989 0.0020209672456543868 0 -0.024410193536702037 0.0018604959545021778 0 -0.0240121713208836 0.0013847545092469911 0 -0.02536520262792424 0.0019646701032446827 0 -0.025693292791541002 0.0013924939217917845 0 -0.029040564189535583 0.002328743771286093 0 -0.028736940899755474 0.0024929162252459282 0 -0.029201050272646818 0.0028107102328345256 0 -0.028398650263126279 0.0024770622185339985 0 -0.028736940899755474 0.0024929162252459282 0 -0.029201050272646818 0.0028107102328345256 0 -0.026013743070769774 0.0015194781006960156 0 -0.025402094340222853 0.0011300178235997978 0 -0.026309136470060432 0.0013786236454438581 0 -0.025734188841930523 0.0018323473746166045 0 -0.026013743070769774 0.0015194781006960156 0 -0.025402094340222853 0.0011300178235997978 0 -0.025311686313026632 0.001160386252532437 0 -0.027127509568926785 0.0013720549570455376 0 -0.025734188841930523 0.0018323473746166045 0 -0.026013743070769774 0.0015194781006960156 0 -0.026124577809995976 0.0018561438771685533 0 -0.025734188841930523 0.0018323473746166045 0 -0.025262541520124328 0.0016625769963412554 0 -0.025402094340222853 0.0011300178235997978 0 -0.024876239631635547 0.0019541201352555816 0 -0.02474015261169973 0.0013832016152496786 0 -0.025262541520124328 0.0016625769963412554 0 -0.02474015261169973 0.0013832016152496786 0 -0.025262541520124328 0.0016625769963412554 0 -0.025402094340222853 0.0011300178235997978 0 -0.02476021806842181 0.00055896420932798855 0 -0.025402094340222853 0.0011300178235997978 0 -0.025601093434203692 0.00052185988468183642 0 -0.02476021806842181 0.00055896420932798855 0 -0.025601093434203692 0.00052185988468183642 0 -0.025679362684265013 -0.00022808049131903949 0 -0.02476021806842181 0.00055896420932798855 0 -0.02474015261169973 0.0013832016152496786 0 -0.025402094340222853 0.0011300178235997978 0 -0.02643657714611555 0.00068957382799909568 0 -0.025679362684265013 -0.00022808049131903949 0 -0.02686427714086595 0.00032222889128013295 0 -0.025402094340222853 0.0011300178235997978 0 -0.02643657714611555 0.00068957382799909568 0 -0.027220843395995245 0.0015115108658204097 0 -0.025601093434203692 0.00052185988468183642 0 -0.02643657714611555 0.00068957382799909568 0 -0.025679362684265013 -0.00022808049131903949 0 -0.025402094340222853 0.0011300178235997978 0 -0.025601093434203692 0.00052185988468183642 0 -0.02643657714611555 0.00068957382799909568 0 -0.029873359119766362 0.00087113506113913866 0 -0.030797704719706692 -2.6037505716892918e-05 0 -0.025679362684265013 -0.00022808049131903949 0 -0.027039176634258942 -0.00022715988295761501 0 -0.02686427714086595 0.00032222889128013295 0 -0.031025742156589504 0.000582688355520223 0 -0.031659930455730873 0.00011119871066025505 0 -0.03205663396967471 0.00060460759412051153 0 -0.03235711541936017 0.0015463478325814378 0 -0.035280184344065671 0.00095672382506808062 0 -0.029873359119766362 0.00087113506113913866 0 -0.034315949793293901 0.00040391160985129025 0 -0.034965349138972403 0.0020885535276440894 0 -0.036149490098811861 0.0011696464246440941 0 -0.035494418556476795 0.0011443451735747079 0 -0.034549693264260571 0.0020750528679265015 0 -0.034965349138972403 0.0020885535276440894 0 -0.035494418556476795 0.0011443451735747079 0 -0.028037816586349986 0.0014987334717496642 0 -0.029873359119766362 0.00087113506113913866 0 -0.028701707929232607 0.0020677276373127361 0 -0.030272436883856207 0.0004552047836582711 0 -0.030838699781870427 0.00047122551564093867 0 -0.028037816586349986 0.0014987334717496642 0 -0.03235711541936017 0.0015463478325814378 0 -0.03235711541936017 0.0015463478325814378 0 -0.029873359119766362 0.00087113506113913866 0 -0.034502883684085141 0.0024629875145907223 0 -0.034351053733564674 0.00093564619448041381 0 -0.035494418556476795 0.0011443451735747079 0 -0.03282917150817246 0.00097773705589927003 0 -0.034502883684085141 0.0024629875145907223 0 -0.034351053733564674 0.00093564619448041381 0 -0.03282917150817246 0.00097773705589927003 0 -0.034351053733564674 0.00093564619448041381 0 -0.034996250473835665 -2.1458186410836221e-06 0 -0.034351053733564674 0.00093564619448041381 0 -0.035494418556476795 0.0011443451735747079 0 -0.035034263683957408 0.00058427268088127318 0 -0.034351053733564674 0.00093564619448041381 0 -0.034996250473835665 -2.1458186410836221e-06 0 -0.035034263683957408 0.00058427268088127318 0 -0.034996250473835665 -2.1458186410836221e-06 0 -0.035034263683957408 0.00058427268088127318 0 -0.035002400690131177 1.1749567007498878e-06 0 -0.034997774279467923 -2.5748851594025763e-06 0 -0.035000015181095433 -3.7701004343487433e-09 0 -0.034999967450869467 7.3329294788084351e-09 0 -0.036149490098811861 0.0011696464246440941 0 -0.035494418556476795 0.0011443451735747079 0 -0.035034263683957408 0.00058427268088127318 0 -0.034315949793293901 0.00040391160985129025 0 -0.035000836682155513 8.3529239907427084e-07 0 -0.036149490098811861 0.0011696464246440941 0 -0.035034263683957408 0.00058427268088127318 0 -0.035002400690131177 1.1749567007498878e-06 0 -0.034997774279467923 -2.5748851594025763e-06 0 -0.034999967450869467 7.3329294788084351e-09 0 -0.034989377527260022 -9.8182293750873641e-07 0 -0.034999967450869467 7.3329294788084351e-09 0 -0.034989377527260022 -9.8182293750873641e-07 0 -0.034999990314193187 -1.4583252741432498e-08 0 -0.034315949793293901 0.00040391160985129025 0 -0.035171930303280315 -0.00014531884881432505 0 -0.034903064099322777 2.3756127551333632e-05 0 -0.034953487371405675 2.2558335836988468e-05 0 -0.034989377527260022 -9.8182293750873641e-07 0 -0.034953487371405675 2.2558335836988468e-05 0 -0.034981472471234273 1.2558236981643655e-05 0 -0.034989377527260022 -9.8182293750873641e-07 0 -0.034981472471234273 1.2558236981643655e-05 0 -0.034985216224037295 2.3767777461698398e-05 0 -0.03496817912823999 3.4295135610794325e-05 0 -0.034953487371405675 2.2558335836988468e-05 0 -0.034981472471234273 1.2558236981643655e-05 0 -0.03496817912823999 3.4295135610794325e-05 0 -0.034981472471234273 1.2558236981643655e-05 0 -0.034989377527260022 -9.8182293750873641e-07 0 -0.034999990314193187 -1.4583252741432498e-08 0 -0.035000033483640607 -3.8769119920281964e-08 0 -0.034404445679412088 -8.4600783699942191e-05 0 -0.034981472471234273 1.2558236981643655e-05 0 -0.034999990314193187 -1.4583252741432498e-08 0 -0.034985216224037295 2.3767777461698398e-05 0 -0.034999990314193187 -1.4583252741432498e-08 0 -0.034985216224037295 2.3767777461698398e-05 0 -0.034985214080465628 2.6444612031065794e-05 0 -0.034999972322955132 1.3796299947039693e-08 0 -0.034984265989408597 5.7424828408560904e-06 0 -0.034993336775704834 -1.5797196241818041e-07 0 -0.034999972322955132 1.3796299947039693e-08 0 -0.034984265989408597 5.7424828408560904e-06 0 -0.034999992389792352 1.5346834355298731e-09 0 -0.034429772105799394 -5.8346361372578454e-05 0 -0.034404445679412088 -8.4600783699942191e-05 0 -0.034984265989408597 5.7424828408560904e-06 0 -0.034993336775704834 -1.5797196241818041e-07 0 -0.034992635982305148 -8.6984127757019081e-06 0 -0.034404445679412088 -8.4600783699942191e-05 0 -0.033258599302916594 -0.00022727694388205281 0 -0.034404445679412088 -8.4600783699942191e-05 0 -0.034268508353185075 -0.00017910872220256043 0 -0.034047399178631733 -7.6211389061021199e-05 0 -0.033954460358395354 -0.00041106107841935006 0 -0.034132228279093679 -0.00040579747882282433 0 -0.034268508353185075 -0.00017910872220256043 0 -0.033258599302916594 -0.00022727694388205281 0 -0.031449832406604636 2.0548829770910003e-05 0 -0.031213216777861832 1.4647245788554007e-05 0 -0.031389650649748919 0.00023215067876572468 0 -0.033258599302916594 -0.00022727694388205281 0 -0.030797704719706692 -2.6037505716892918e-05 0 -0.033258599302916594 -0.00022727694388205281 0 -0.030402021987225459 9.1318744600428714e-05 0 -0.032475844708184036 -2.6502159243097205e-05 0 -0.032434548618313408 -2.7650244994877295e-05 0 -0.032405982916825386 6.0191838886809444e-05 0 -0.030797704719706692 -2.6037505716892918e-05 0 -0.030402021987225459 9.1318744600428714e-05 0 -0.027039176634258942 -0.00022715988295761501 0 -0.02686427714086595 0.00032222889128013295 0 -0.027527254915343011 0.0003627213358940471 0 -0.034315949793293901 0.00040391160985129025 0 -0.030797704719706692 -2.6037505716892918e-05 0 -0.034903064099322777 2.3756127551333632e-05 0 -0.034953487371405675 2.2558335836988468e-05 0 -0.03493120932091074 6.120153655219746e-05 0 -0.034953487371405675 2.2558335836988468e-05 0 -0.03493120932091074 6.120153655219746e-05 0 -0.03496817912823999 3.4295135610794325e-05 0 -0.034970874914234444 5.9467482386553152e-05 0 -0.03493120932091074 6.120153655219746e-05 0 -0.03496817912823999 3.4295135610794325e-05 0 -0.034985216224037295 2.3767777461698398e-05 0 -0.034985573300508374 3.1464913705445569e-05 0 -0.03496817912823999 3.4295135610794325e-05 0 -0.034985573300508374 3.1464913705445569e-05 0 -0.034970874914234444 5.9467482386553152e-05 0 -0.03496817912823999 3.4295135610794325e-05 0 -0.034999981535517553 8.7792211244217e-10 0 -0.034958177240695672 1.528477585906311e-05 0 -0.034999906531114802 2.3763652202314473e-08 0 -0.034974175317816603 8.3772374165840947e-06 0 -0.034940674755722941 3.0817502917114542e-05 0 -0.034999906531114802 2.3763652202314473e-08 0 -0.034974175317816603 8.3772374165840947e-06 0 -0.034999992389792352 1.5346834355298731e-09 0 -0.034984265989408597 5.7424828408560904e-06 0 -0.034974175317816603 8.3772374165840947e-06 0 -0.034999992389792352 1.5346834355298731e-09 0 -0.034984265989408597 5.7424828408560904e-06 0 -0.034992635982305148 -8.6984127757019081e-06 0 -0.034945010198312226 8.109708432515565e-06 0 -0.034268508353185075 -0.00017910872220256043 0 -0.035215670077904625 4.7080605865041991e-05 0 -0.034833038654447118 -1.1262772064688555e-05 0 -0.034945010198312226 8.109708432515565e-06 0 -0.034886424807464088 2.8481923231068927e-05 0 -0.034984265989408597 5.7424828408560904e-06 0 -0.034974175317816603 8.3772374165840947e-06 0 -0.034945010198312226 8.109708432515565e-06 0 -0.034945010198312226 8.109708432515565e-06 0 -0.034929215944873727 4.0466215360111202e-05 0 -0.034940674755722941 3.0817502917114542e-05 0 -0.034974175317816603 8.3772374165840947e-06 0 -0.034945010198312226 8.109708432515565e-06 0 -0.034940674755722941 3.0817502917114542e-05 0 -0.034945010198312226 8.109708432515565e-06 0 -0.034929215944873727 4.0466215360111202e-05 0 -0.034904089828861673 4.6305796740213902e-05 0 -0.034945010198312226 8.109708432515565e-06 0 -0.034904089828861673 4.6305796740213902e-05 0 -0.034886424807464088 2.8481923231068927e-05 0 -0.034904089828861673 4.6305796740213902e-05 0 -0.034886424807464088 2.8481923231068927e-05 0 -0.034860364065544797 6.4960195677480582e-05 0 -0.034023113940805358 2.8326428571398461e-06 0 -0.032534456500753768 0.00050904107123847769 0 -0.034904089828861673 4.6305796740213902e-05 0 -0.034917633438354481 5.5400731797447867e-05 0 -0.034869584632754302 7.1393144779268393e-05 0 -0.034904089828861673 4.6305796740213902e-05 0 -0.034860364065544797 6.4960195677480582e-05 0 -0.034869584632754302 7.1393144779268393e-05 0 -0.034929215944873727 4.0466215360111202e-05 0 -0.034904089828861673 4.6305796740213902e-05 0 -0.034917633438354481 5.5400731797447867e-05 0 -0.034929215944873727 4.0466215360111202e-05 0 -0.034917633438354481 5.5400731797447867e-05 0 -0.034908546424596183 5.41178421018203e-05 0 -0.029545175025307662 -0.00013754740324273734 0 -0.03042414381320015 0.00094246788675087683 0 -0.029237624319585435 0.00099441535683383723 0 -0.030402021987225459 9.1318744600428714e-05 0 -0.027127509568926785 0.0013720549570455376 0 -0.027011688720709123 0.00072026467773960183 0 -0.027527254915343011 0.0003627213358940471 0 -0.027220843395995245 0.0015115108658204097 0 -0.02643657714611555 0.00068957382799909568 0 -0.027011688720709123 0.00072026467773960183 0 -0.027220843395995245 0.0015115108658204097 0 -0.02643657714611555 0.00068957382799909568 0 -0.027011688720709123 0.00072026467773960183 0 -0.02686427714086595 0.00032222889128013295 0 -0.027011688720709123 0.00072026467773960183 0 -0.02686427714086595 0.00032222889128013295 0 -0.027527254915343011 0.0003627213358940471 0 -0.032475844708184036 -2.6502159243097205e-05 0 -0.032405982916825386 6.0191838886809444e-05 0 -0.032533499742680771 0.00022522763356497725 0 -0.030402021987225459 9.1318744600428714e-05 0 -0.03211628610107662 0.0004595316586643693 0 -0.034833038654447118 -1.1262772064688555e-05 0 -0.034886424807464088 2.8481923231068927e-05 0 -0.034860364065544797 6.4960195677480582e-05 0 -0.034268508353185075 -0.00017910872220256043 0 -0.03211628610107662 0.0004595316586643693 0 -0.03042414381320015 0.00094246788675087683 0 -0.030498863438800369 0.0012137574687745578 0 -0.029237624319585435 0.00099441535683383723 0 -0.030724765476685484 0.0003886352086667857 0 -0.027127509568926785 0.0013720549570455376 0 -0.027023119182255737 0.0014795331711906861 0 -0.026601873011563536 0.0015832171403167053 0 -0.026309136470060432 0.0013786236454438581 0 -0.032067543995519567 -8.537153991439777e-05 0 -0.032000614521864403 -9.6173647390617245e-05 0 -0.032158712028021071 0.00047301638616023713 0 -0.03211628610107662 0.0004595316586643693 0 -0.030724765476685484 0.0003886352086667857 0 -0.032119182407830932 0.00048518016613896862 0 -0.03159715271970287 -0.00018988008011871675 0 -0.031953322134216401 -0.0001254696929463928 0 -0.03211628610107662 0.0004595316586643693 0 -0.032534456500753768 0.00050904107123847769 0 -0.032534456500753768 0.00050904107123847769 0 -0.030724765476685484 0.0003886352086667857 0 -0.027023119182255737 0.0014795331711906861 0 -0.026929844139438379 0.0017382272355503921 0 -0.026806920590308186 0.0016599931717091079 0 -0.027023119182255737 0.0014795331711906861 0 -0.026601873011563536 0.0015832171403167053 0 -0.026806920590308186 0.0016599931717091079 0 -0.026929844139438379 0.0017382272355503921 0 -0.026806920590308186 0.0016599931717091079 0 -0.026675566717939976 0.0018348482039974461 0 -0.026601873011563536 0.0015832171403167053 0 -0.026806920590308186 0.0016599931717091079 0 -0.026675566717939976 0.0018348482039974461 0 -0.026601873011563536 0.0015832171403167053 0 -0.026491565939399962 0.0017083151703342675 0 -0.026675566717939976 0.0018348482039974461 0 -0.026601873011563536 0.0015832171403167053 0 -0.026426297470158986 0.0015498606034599657 0 -0.026309136470060432 0.0013786236454438581 0 -0.026491565939399962 0.0017083151703342675 0 -0.026335548618769387 0.0016784621287310032 0 -0.026426297470158986 0.0015498606034599657 0 -0.026491565939399962 0.0017083151703342675 0 -0.026335548618769387 0.0016784621287310032 0 -0.026420793280310426 0.0018968060887566401 0 -0.026335548618769387 0.0016784621287310032 0 -0.026426297470158986 0.0015498606034599657 0 -0.026324042912460564 0.0015399091758936661 0 -0.026601873011563536 0.0015832171403167053 0 -0.026491565939399962 0.0017083151703342675 0 -0.026426297470158986 0.0015498606034599657 0 -0.026426297470158986 0.0015498606034599657 0 -0.026324042912460564 0.0015399091758936661 0 -0.026309136470060432 0.0013786236454438581 0 -0.026013743070769774 0.0015194781006960156 0 -0.026309136470060432 0.0013786236454438581 0 -0.026208155670047122 0.0015650892553881887 0 -0.026335548618769387 0.0016784621287310032 0 -0.026208155670047122 0.0015650892553881887 0 -0.026124577809995976 0.0018561438771685533 0 -0.026013743070769774 0.0015194781006960156 0 -0.026208155670047122 0.0015650892553881887 0 -0.026124577809995976 0.0018561438771685533 0 -0.026324042912460564 0.0015399091758936661 0 -0.026309136470060432 0.0013786236454438581 0 -0.026208155670047122 0.0015650892553881887 0 -0.026335548618769387 0.0016784621287310032 0 -0.026324042912460564 0.0015399091758936661 0 -0.026208155670047122 0.0015650892553881887 0 -0.026335548618769387 0.0016784621287310032 0 -0.026124577809995976 0.0018561438771685533 0 -0.026420793280310426 0.0018968060887566401 0 -0.026124577809995976 0.0018561438771685533 0 -0.026420793280310426 0.0018968060887566401 0 -0.02644523624901482 0.0021891219858512965 0 -0.026420793280310426 0.0018968060887566401 0 -0.02644523624901482 0.0021891219858512965 0 -0.026675566717939976 0.0018348482039974461 0 -0.026491565939399962 0.0017083151703342675 0 -0.026420793280310426 0.0018968060887566401 0 -0.026675566717939976 0.0018348482039974461 0 -0.026124577809995976 0.0018561438771685533 0 -0.02644523624901482 0.0021891219858512965 0 -0.026078812565905655 0.0023010504148383111 0 -0.026078812565905655 0.0023010504148383111 0 -0.026167799367219097 0.0028915757206916764 0 -0.026535834987741619 0.0025681034594167529 0 -0.026167799367219097 0.0028915757206916764 0 -0.026535834987741619 0.0025681034594167529 0 -0.026769054422318049 0.0030698094535748892 0 -0.02644523624901482 0.0021891219858512965 0 -0.026078812565905655 0.0023010504148383111 0 -0.026535834987741619 0.0025681034594167529 0 -0.026535834987741619 0.0025681034594167529 0 -0.027186308446410984 0.0022780276840458245 0 -0.026769054422318049 0.0030698094535748892 0 -0.030724765476685484 0.0003886352086667857 0 -0.028850721713012197 0.0017022765354181789 0 -0.027023119182255737 0.0014795331711906861 0 -0.026929844139438379 0.0017382272355503921 0 -0.027301568747426633 0.002325760772255115 0 -0.026535834987741619 0.0025681034594167529 0 -0.026755426698991325 0.0021292903323378285 0 -0.027186308446410984 0.0022780276840458245 0 -0.02644523624901482 0.0021891219858512965 0 -0.026535834987741619 0.0025681034594167529 0 -0.026755426698991325 0.0021292903323378285 0 -0.026929844139438379 0.0017382272355503921 0 -0.026755426698991325 0.0021292903323378285 0 -0.026675566717939976 0.0018348482039974461 0 -0.02644523624901482 0.0021891219858512965 0 -0.026755426698991325 0.0021292903323378285 0 -0.026675566717939976 0.0018348482039974461 0 -0.026929844139438379 0.0017382272355503921 0 -0.026755426698991325 0.0021292903323378285 0 -0.027186308446410984 0.0022780276840458245 0 -0.026933635703258657 0.0017156593418571652 0 -0.028850721713012197 0.0017022765354181789 0 -0.032776596056724422 3.1826242573019847e-05 0 -0.032067543995519567 -8.537153991439777e-05 0 -0.032158712028021071 0.00047301638616023713 0 -0.032776596056724422 3.1826242573019847e-05 0 -0.03279447809899598 0.00058561414843592656 0 -0.033114233460252794 0.00036676665598008056 0 -0.032776596056724422 3.1826242573019847e-05 0 -0.032158712028021071 0.00047301638616023713 0 -0.03279447809899598 0.00058561414843592656 0 -0.03279447809899598 0.00058561414843592656 0 -0.032441745744343616 0.00095550259603956135 0 -0.032893472517826143 0.00096863067283039822 0 -0.029139228173991852 0.0016583799762691256 0 -0.029402187765394099 0.0021335680780190215 0 -0.02932877382862922 0.0023590749040607898 0 -0.028850721713012197 0.0017022765354181789 0 -0.031047293574476598 0.0015306690783322933 0 -0.027186308446410984 0.0022780276840458245 0 -0.027435827679152994 0.0032636482961062004 0 -0.026769054422318049 0.0030698094535748892 0 -0.028850721713012197 0.0017022765354181789 0 -0.028441893885224077 0.0028800701658816532 0 -0.032158712028021071 0.00047301638616023713 0 -0.03279447809899598 0.00058561414843592656 0 -0.032441745744343616 0.00095550259603956135 0 -0.029402187765394099 0.0021335680780190215 0 -0.02932877382862922 0.0023590749040607898 0 -0.029660340570171063 0.0026064132027265358 0 -0.031047293574476598 0.0015306690783322933 0 -0.03126173431320322 0.0020323240587030345 0 -0.032893472517826143 0.00096863067283039822 0 -0.03271931343059796 0.0014188201851277219 0 -0.033165058742861346 0.0011867665946443306 0 -0.032441745744343616 0.00095550259603956135 0 -0.032893472517826143 0.00096863067283039822 0 -0.03271931343059796 0.0014188201851277219 0 -0.03271931343059796 0.0014188201851277219 0 -0.033005014124330857 0.0016795645859154329 0 -0.032993921953478181 0.0019079036261033749 0 -0.03126173431320322 0.0020323240587030345 0 -0.030454232113962098 0.0026803815927919803 0 -0.02932877382862922 0.0023590749040607898 0 -0.029660340570171063 0.0026064132027265358 0 -0.029510317323842069 0.0030567763225542483 0 -0.028441893885224077 0.0028800701658816532 0 -0.027553108827385923 0.0036613582479291754 0 -0.027435827679152994 0.0032636482961062004 0 -0.027045234785702501 0.0037359353663475731 0 -0.027728825142963997 0.0043048137332658953 0 -0.027045234785702501 0.0037359353663475731 0 -0.026373307294676546 0.0038019714363374734 0 -0.02689492332186463 0.0042746681775455084 0 -0.027045234785702501 0.0037359353663475731 0 -0.026373307294676546 0.0038019714363374734 0 -0.026769054422318049 0.0030698094535748892 0 -0.025415039625953376 0.0037636277751392296 0 -0.026373307294676546 0.0038019714363374734 0 -0.025913174358957444 0.0042688279647025793 0 -0.025490964981425501 0.0031767763493281654 0 -0.026330661806386338 0.0037770894973382053 0 -0.025251011876519753 0.0031143264807422478 0 -0.025415039625953376 0.0037636277751392296 0 -0.026373307294676546 0.0038019714363374734 0 -0.025692747937902209 0.0032066962160932351 0 -0.026167799367219097 0.0028915757206916764 0 -0.026373307294676546 0.0038019714363374734 0 -0.026167799367219097 0.0028915757206916764 0 -0.026373307294676546 0.0038019714363374734 0 -0.026769054422318049 0.0030698094535748892 0 -0.027435827679152994 0.0032636482961062004 0 -0.027045234785702501 0.0037359353663475731 0 -0.026769054422318049 0.0030698094535748892 0 -0.034257744557233884 0.00090011155930573431 0 -0.034635191160031907 0.0010019639301602796 0 -0.034160121590210507 0.0014965708172651666 0 -0.034257744557233884 0.00090011155930573431 0 -0.034160121590210507 0.0014965708172651666 0 -0.033776065687192484 0.0012258905155194083 0 -0.034257744557233884 0.00090011155930573431 0 -0.034635191160031907 0.0010019639301602796 0 -0.03456728445730483 0.00053302084415949831 0 -0.034635191160031907 0.0010019639301602796 0 -0.034160121590210507 0.0014965708172651666 0 -0.034599949163029296 0.0016808227343057835 0 -0.034635191160031907 0.0010019639301602796 0 -0.035028827777042207 0.0010542467935494894 0 -0.034599949163029296 0.0016808227343057835 0 -0.034160121590210507 0.0014965708172651666 0 -0.033776065687192484 0.0012258905155194083 0 -0.033693558693594763 0.0017404062003221516 0 -0.033776065687192484 0.0012258905155194083 0 -0.033375023364787093 0.0015499651856895481 0 -0.033263169433202761 0.0010700287415136326 0 -0.033776065687192484 0.0012258905155194083 0 -0.033375023364787093 0.0015499651856895481 0 -0.033693558693594763 0.0017404062003221516 0 -0.03302426760914156 0.0016380628465437368 0 -0.033214485969974665 0.0011364647066281369 0 -0.03271931343059796 0.0014188201851277219 0 -0.033005014124330857 0.0016795645859154329 0 -0.033165058742861346 0.0011867665946443306 0 -0.033005014124330857 0.0016795645859154329 0 -0.033375023364787093 0.0015499651856895481 0 -0.033263169433202761 0.0010700287415136326 0 -0.033005014124330857 0.0016795645859154329 0 -0.033375023364787093 0.0015499651856895481 0 -0.033156361803562566 0.0017884611388837492 0 -0.033214485969974665 0.0011364647066281369 0 -0.033385089231511414 0.00061280276525238139 0 -0.032893472517826143 0.00096863067283039822 0 -0.033165058742861346 0.0011867665946443306 0 -0.033349089213953485 0.00068329498170346936 0 -0.033776065687192484 0.0012258905155194083 0 -0.033263169433202761 0.0010700287415136326 0 -0.033780847743835933 0.00082646247064914458 0 -0.033263169433202761 0.0010700287415136326 0 -0.033780847743835933 0.00082646247064914458 0 -0.03350554380421808 0.00050881636183123396 0 -0.034257744557233884 0.00090011155930573431 0 -0.033776065687192484 0.0012258905155194083 0 -0.033780847743835933 0.00082646247064914458 0 -0.033780847743835933 0.00082646247064914458 0 -0.03350554380421808 0.00050881636183123396 0 -0.034088472202457344 0.00042437367000969667 0 -0.03279447809899598 0.00058561414843592656 0 -0.033349089213953485 0.00068329498170346936 0 -0.033114233460252794 0.00036676665598008056 0 -0.03279447809899598 0.00058561414843592656 0 -0.032893472517826143 0.00096863067283039822 0 -0.033349089213953485 0.00068329498170346936 0 -0.032776596056724422 3.1826242573019847e-05 0 -0.033114233460252794 0.00036676665598008056 0 -0.03353682451947701 0.00016444052697761193 0 -0.033349089213953485 0.00068329498170346936 0 -0.033114233460252794 0.00036676665598008056 0 -0.03353682451947701 0.00016444052697761193 0 -0.03350554380421808 0.00050881636183123396 0 -0.033725047534104206 -0.00010709582450871201 0 -0.034088472202457344 0.00042437367000969667 0 -0.033385089231511414 0.00061280276525238139 0 -0.034218479982409226 5.8566309825717919e-05 0 -0.033725047534104206 -0.00010709582450871201 0 -0.034088472202457344 0.00042437367000969667 0 -0.03465353701909285 0.00012267163476865816 0 -0.034868408831049788 1.9775339432300412e-05 0 -0.034735746757659329 8.7401830782303383e-05 0 -0.03465353701909285 0.00012267163476865816 0 -0.034218479982409226 5.8566309825717919e-05 0 -0.034672595771804676 8.0373220728941578e-05 0 -0.034735746757659329 8.7401830782303383e-05 0 -0.03465353701909285 0.00012267163476865816 0 -0.034739621632795203 9.0075490731120393e-05 0 -0.034257744557233884 0.00090011155930573431 0 -0.033780847743835933 0.00082646247064914458 0 -0.034088472202457344 0.00042437367000969667 0 -0.034088472202457344 0.00042437367000969667 0 -0.03456728445730483 0.00053302084415949831 0 -0.03465353701909285 0.00012267163476865816 0 -0.034257744557233884 0.00090011155930573431 0 -0.034088472202457344 0.00042437367000969667 0 -0.03456728445730483 0.00053302084415949831 0 -0.03456728445730483 0.00053302084415949831 0 -0.034783208346235134 0.00020464467839651559 0 -0.03490306161156552 0.0005747900305073197 0 -0.034635191160031907 0.0010019639301602796 0 -0.03456728445730483 0.00053302084415949831 0 -0.03490306161156552 0.0005747900305073197 0 -0.034783208346235134 0.00020464467839651559 0 -0.03483210514422426 4.0693432588325538e-05 0 -0.034981326418277302 0.00020709764222227501 0 -0.034783208346235134 0.00020464467839651559 0 -0.03483210514422426 4.0693432588325538e-05 0 -0.034739621632795203 9.0075490731120393e-05 0 -0.03456728445730483 0.00053302084415949831 0 -0.034783208346235134 0.00020464467839651559 0 -0.03465353701909285 0.00012267163476865816 0 -0.034783208346235134 0.00020464467839651559 0 -0.03465353701909285 0.00012267163476865816 0 -0.034739621632795203 9.0075490731120393e-05 0 -0.03483210514422426 4.0693432588325538e-05 0 -0.034803775188437691 4.7354107770721025e-05 0 -0.034862166687511215 1.8891525851891869e-05 0 -0.03483210514422426 4.0693432588325538e-05 0 -0.034739621632795203 9.0075490731120393e-05 0 -0.034803775188437691 4.7354107770721025e-05 0 -0.034761970172255345 7.4812234211653206e-05 0 -0.034886262436831336 4.5464498626718715e-05 0 -0.034735746757659329 8.7401830782303383e-05 0 -0.034803775188437691 4.7354107770721025e-05 0 -0.034902008843173501 2.9241410778795276e-06 0 -0.034735746757659329 8.7401830782303383e-05 0 -0.034739621632795203 9.0075490731120393e-05 0 -0.034803775188437691 4.7354107770721025e-05 0 -0.034862166687511215 1.8891525851891869e-05 0 -0.034902008843173501 2.9241410778795276e-06 0 -0.034918209403109565 8.0932386730926644e-06 0 -0.034803775188437691 4.7354107770721025e-05 0 -0.034862166687511215 1.8891525851891869e-05 0 -0.034902008843173501 2.9241410778795276e-06 0 -0.0348933585097898 1.4421999223893946e-05 0 -0.034905443777712909 -2.0011811685445414e-05 0 -0.03483210514422426 4.0693432588325538e-05 0 -0.034862166687511215 1.8891525851891869e-05 0 -0.03493523133442486 -3.5039872117136315e-05 0 -0.034862166687511215 1.8891525851891869e-05 0 -0.034961693079531682 -1.4678062007576576e-05 0 -0.034986875134764575 3.8716284915210011e-06 0 -0.034023113940805358 2.8326428571398461e-06 0 -0.034218479982409226 5.8566309825717919e-05 0 -0.034917633438354481 5.5400731797447867e-05 0 -0.034881714565671518 3.0278565597209469e-05 0 -0.034908546424596183 5.41178421018203e-05 0 -0.034908546424596183 5.41178421018203e-05 0 -0.034890271263376349 6.3282094129503747e-05 0 -0.034913162891039434 5.5191951808273365e-05 0 -0.034868408831049788 1.9775339432300412e-05 0 -0.034735746757659329 8.7401830782303383e-05 0 -0.034853634516822149 7.1738571176731627e-05 0 -0.034735746757659329 8.7401830782303383e-05 0 -0.034853634516822149 7.1738571176731627e-05 0 -0.03488795120112937 7.4840349168396923e-05 0 -0.034890271263376349 6.3282094129503747e-05 0 -0.034853634516822149 7.1738571176731627e-05 0 -0.03488795120112937 7.4840349168396923e-05 0 -0.034881714565671518 3.0278565597209469e-05 0 -0.034908546424596183 5.41178421018203e-05 0 -0.034890271263376349 6.3282094129503747e-05 0 -0.034881714565671518 3.0278565597209469e-05 0 -0.034890271263376349 6.3282094129503747e-05 0 -0.034853634516822149 7.1738571176731627e-05 0 -0.034218479982409226 5.8566309825717919e-05 0 -0.034802983709356007 -2.1353212871923394e-05 0 -0.034890271263376349 6.3282094129503747e-05 0 -0.03488795120112937 7.4840349168396923e-05 0 -0.034913162891039434 5.5191951808273365e-05 0 -0.03488795120112937 7.4840349168396923e-05 0 -0.034913162891039434 5.5191951808273365e-05 0 -0.034940674755722941 3.0817502917114542e-05 0 -0.034886262436831336 4.5464498626718715e-05 0 -0.034958177240695672 1.528477585906311e-05 0 -0.034929215944873727 4.0466215360111202e-05 0 -0.034913162891039434 5.5191951808273365e-05 0 -0.034940674755722941 3.0817502917114542e-05 0 -0.034929215944873727 4.0466215360111202e-05 0 -0.034908546424596183 5.41178421018203e-05 0 -0.034913162891039434 5.5191951808273365e-05 0 -0.034979035845015681 2.1887981808811793e-06 0 -0.034918209403109565 8.0932386730926644e-06 0 -0.034961136330366765 6.2619025994185221e-07 0 -0.034902008843173501 2.9241410778795276e-06 0 -0.034979035845015681 2.1887981808811793e-06 0 -0.034918209403109565 8.0932386730926644e-06 0 -0.034979035845015681 2.1887981808811793e-06 0 -0.034999943090241292 1.5226011674534165e-08 0 -0.034961136330366765 6.2619025994185221e-07 0 -0.035000010574746131 -6.6849492600178962e-09 0 -0.034979035845015681 2.1887981808811793e-06 0 -0.034999943090241292 1.5226011674534165e-08 0 -0.034961693079531682 -1.4678062007576576e-05 0 -0.034918209403109565 8.0932386730926644e-06 0 -0.034961136330366765 6.2619025994185221e-07 0 -0.034862166687511215 1.8891525851891869e-05 0 -0.034961693079531682 -1.4678062007576576e-05 0 -0.034918209403109565 8.0932386730926644e-06 0 -0.034999943090241292 1.5226011674534165e-08 0 -0.034999932058746942 -7.4401014921716901e-09 0 -0.034961136330366765 6.2619025994185221e-07 0 -0.034961693079531682 -1.4678062007576576e-05 0 -0.034999932058746942 -7.4401014921716901e-09 0 -0.034961136330366765 6.2619025994185221e-07 0 -0.034961693079531682 -1.4678062007576576e-05 0 -0.034999932058746942 -7.4401014921716901e-09 0 -0.034999996744011115 -3.0217387894388282e-08 0 -0.034961693079531682 -1.4678062007576576e-05 0 -0.034999996744011115 -3.0217387894388282e-08 0 -0.035004875683755328 -2.4601169986608706e-05 0 -0.034961693079531682 -1.4678062007576576e-05 0 -0.035004875683755328 -2.4601169986608706e-05 0 -0.034986875134764575 3.8716284915210011e-06 0 -0.034999996744011115 -3.0217387894388282e-08 0 -0.035004875683755328 -2.4601169986608706e-05 0 -0.035000013673555999 -1.3180396882328445e-08 0 -0.035000013673555999 -1.3180396882328445e-08 0 -0.034999990720250659 -1.4497620292204776e-08 0 -0.034990114800822911 -3.1471971226627101e-05 0 -0.035003134872357441 -5.944339712042846e-05 0 -0.034990114800822911 -3.1471971226627101e-05 0 -0.034968104865176076 -0.00016013520458647609 0 -0.035000013673555999 -1.3180396882328445e-08 0 -0.035003134872357441 -5.944339712042846e-05 0 -0.034990114800822911 -3.1471971226627101e-05 0 -0.035004875683755328 -2.4601169986608706e-05 0 -0.035000013673555999 -1.3180396882328445e-08 0 -0.035003134872357441 -5.944339712042846e-05 0 -0.035004875683755328 -2.4601169986608706e-05 0 -0.035003134872357441 -5.944339712042846e-05 0 -0.03500995436116873 -4.7902594040886106e-05 0 -0.035003134872357441 -5.944339712042846e-05 0 -0.03498062509832562 -0.00011656939182366447 0 -0.03500995436116873 -4.7902594040886106e-05 0 -0.035003134872357441 -5.944339712042846e-05 0 -0.03498062509832562 -0.00011656939182366447 0 -0.034968104865176076 -0.00016013520458647609 0 -0.034219110633634087 -0.00021103058083963487 0 -0.03538919235207142 5.7443079194070432e-06 0 -0.034219110633634087 -0.00021103058083963487 0 -0.032999381904142054 -7.0508261168581441e-05 0 -0.031463834801243012 -0.0010947389849333834 0 -0.031794738044838525 -0.00059211828981944816 0 -0.030776994355494414 -0.00036579806847315653 0 -0.03529783352986042 -4.0581961866950971e-06 0 -0.035204665572983213 0.00018590496085672708 0 -0.035416757947866494 0.00025541962181855477 0 -0.035583939047440352 3.5815053099678892e-05 0 -0.03529783352986042 -4.0581961866950971e-06 0 -0.035416757947866494 0.00025541962181855477 0 -0.03529783352986042 -4.0581961866950971e-06 0 -0.03493523133442486 -3.5039872117136315e-05 0 -0.035204665572983213 0.00018590496085672708 0 -0.03483210514422426 4.0693432588325538e-05 0 -0.03493523133442486 -3.5039872117136315e-05 0 -0.034981326418277302 0.00020709764222227501 0 -0.03493523133442486 -3.5039872117136315e-05 0 -0.034981326418277302 0.00020709764222227501 0 -0.035204665572983213 0.00018590496085672708 0 -0.03538919235207142 5.7443079194070432e-06 0 -0.034905443777712909 -2.0011811685445414e-05 0 -0.035004875683755328 -2.4601169986608706e-05 0 -0.03500995436116873 -4.7902594040886106e-05 0 -0.034986875134764575 3.8716284915210011e-06 0 -0.034576753103992129 2.3660328006414812e-05 0 -0.034208653292825172 -0.00028651764817637674 0 -0.034059541100233709 -0.00013837248439003871 0 -0.034576753103992129 2.3660328006414812e-05 0 -0.03474013786794268 1.9697145612087181e-05 0 -0.034208653292825172 -0.00028651764817637674 0 -0.034576753103992129 2.3660328006414812e-05 0 -0.034999422942357757 -1.0654109281583719e-07 0 -0.03474013786794268 1.9697145612087181e-05 0 -0.034999422942357757 -1.0654109281583719e-07 0 -0.034999608438086076 1.1473518647580171e-07 0 -0.03474013786794268 1.9697145612087181e-05 0 -0.034999608438086076 1.1473518647580171e-07 0 -0.03474013786794268 1.9697145612087181e-05 0 -0.034865583322140958 -1.627673744851429e-05 0 -0.03474013786794268 1.9697145612087181e-05 0 -0.03453877968435351 -0.00015887262560638081 0 -0.034208653292825172 -0.00028651764817637674 0 -0.03474013786794268 1.9697145612087181e-05 0 -0.034865583322140958 -1.627673744851429e-05 0 -0.03453877968435351 -0.00015887262560638081 0 -0.034865583322140958 -1.627673744851429e-05 0 -0.034736166962797729 -0.00023195560767363707 0 -0.03453877968435351 -0.00015887262560638081 0 -0.034999608438086076 1.1473518647580171e-07 0 -0.034865583322140958 -1.627673744851429e-05 0 -0.034999990720250659 -1.4497620292204776e-08 0 -0.034865583322140958 -1.627673744851429e-05 0 -0.034999990720250659 -1.4497620292204776e-08 0 -0.034990114800822911 -3.1471971226627101e-05 0 -0.034865583322140958 -1.627673744851429e-05 0 -0.034990114800822911 -3.1471971226627101e-05 0 -0.034968104865176076 -0.00016013520458647609 0 -0.035245363790698855 -0.00047303751984166135 0 -0.034968104865176076 -0.00016013520458647609 0 -0.034732064060808081 -0.00057701512563398006 0 -0.034219110633634087 -0.00021103058083963487 0 -0.035118289068376905 -0.0003386341004220468 0 -0.034219110633634087 -0.00021103058083963487 0 -0.033388622205823101 -0.00082182418218218001 0 -0.031463834801243012 -0.0010947389849333834 0 -0.031794738044838525 -0.00059211828981944816 0 -0.032440929396280627 -0.0010002000847381426 0 -0.032440929396280627 -0.0010002000847381426 0 -0.033834452912119846 -0.0005867885615608025 0 -0.03245227442344871 -0.00015301878335815156 0 -0.034732064060808081 -0.00057701512563398006 0 -0.034736166962797729 -0.00023195560767363707 0 -0.033834452912119846 -0.0005867885615608025 0 -0.031794738044838525 -0.00059211828981944816 0 -0.032440929396280627 -0.0010002000847381426 0 -0.03245227442344871 -0.00015301878335815156 0 -0.034865583322140958 -1.627673744851429e-05 0 -0.034968104865176076 -0.00016013520458647609 0 -0.034736166962797729 -0.00023195560767363707 0 -0.034968104865176076 -0.00016013520458647609 0 -0.034732064060808081 -0.00057701512563398006 0 -0.034736166962797729 -0.00023195560767363707 0 -0.034736166962797729 -0.00023195560767363707 0 -0.03453877968435351 -0.00015887262560638081 0 -0.033834452912119846 -0.0005867885615608025 0 -0.03453877968435351 -0.00015887262560638081 0 -0.033834452912119846 -0.0005867885615608025 0 -0.034208653292825172 -0.00028651764817637674 0 -0.033388622205823101 -0.00082182418218218001 0 -0.03388482354739341 -0.0006193907342378663 0 -0.033834452912119846 -0.0005867885615608025 0 -0.033892211512434045 -0.00043458451198409641 0 -0.034208653292825172 -0.00028651764817637674 0 -0.033260133361648347 -2.3116747166297599e-05 0 -0.033216512559609383 0.00056898046311861612 0 -0.033482283994337482 0.00029826518655291524 0 -0.033834452912119846 -0.0005867885615608025 0 -0.033892211512434045 -0.00043458451198409641 0 -0.033260133361648347 -2.3116747166297599e-05 0 -0.033892211512434045 -0.00043458451198409641 0 -0.033260133361648347 -2.3116747166297599e-05 0 -0.033871089995526169 -0.0002229596087961358 0 -0.032818936466628632 -7.6629157804236232e-05 0 -0.034714788437498034 2.6239840569215226e-05 0 -0.033834452912119846 -0.0005867885615608025 0 -0.033260133361648347 -2.3116747166297599e-05 0 -0.03245227442344871 -0.00015301878335815156 0 -0.033260133361648347 -2.3116747166297599e-05 0 -0.032500220359899495 0.00054051143649573249 0 -0.03245227442344871 -0.00015301878335815156 0 -0.033260133361648347 -2.3116747166297599e-05 0 -0.032500220359899495 0.00054051143649573249 0 -0.033216512559609383 0.00056898046311861612 0 -0.032500220359899495 0.00054051143649573249 0 -0.03245227442344871 -0.00015301878335815156 0 -0.031878116695793365 0.00040586419552459519 0 -0.031794738044838525 -0.00059211828981944816 0 -0.03245227442344871 -0.00015301878335815156 0 -0.031602519078736881 -7.7299110296647364e-05 0 -0.03245227442344871 -0.00015301878335815156 0 -0.031602519078736881 -7.7299110296647364e-05 0 -0.031878116695793365 0.00040586419552459519 0 -0.031602519078736881 -7.7299110296647364e-05 0 -0.031878116695793365 0.00040586419552459519 0 -0.031099041312266734 0.00047761089579002956 0 -0.031878116695793365 0.00040586419552459519 0 -0.031747787788180437 0.00097373603931165864 0 -0.031099041312266734 0.00047761089579002956 0 -0.031747787788180437 0.00097373603931165864 0 -0.031061153641711456 0.0011480913353123664 0 -0.031406374457097916 0.0017155325792648263 0 -0.031747787788180437 0.00097373603931165864 0 -0.032061137443637443 0.0014227760419728325 0 -0.031406374457097916 0.0017155325792648263 0 -0.031747787788180437 0.00097373603931165864 0 -0.032061137443637443 0.0014227760419728325 0 -0.032270141912672877 0.00098833111002695939 0 -0.032500220359899495 0.00054051143649573249 0 -0.031878116695793365 0.00040586419552459519 0 -0.031747787788180437 0.00097373603931165864 0 -0.032500220359899495 0.00054051143649573249 0 -0.031747787788180437 0.00097373603931165864 0 -0.032270141912672877 0.00098833111002695939 0 -0.032500220359899495 0.00054051143649573249 0 -0.032761103446789321 0.0010236733551977635 0 -0.033216512559609383 0.00056898046311861612 0 -0.032500220359899495 0.00054051143649573249 0 -0.032270141912672877 0.00098833111002695939 0 -0.032761103446789321 0.0010236733551977635 0 -0.032061137443637443 0.0014227760419728325 0 -0.032761103446789321 0.0010236733551977635 0 -0.032521345709200268 0.0016291376755495134 0 -0.032761103446789321 0.0010236733551977635 0 -0.033069101838653969 0.0015162261988046041 0 -0.032521345709200268 0.0016291376755495134 0 -0.032061137443637443 0.0014227760419728325 0 -0.032270141912672877 0.00098833111002695939 0 -0.032761103446789321 0.0010236733551977635 0 -0.032761103446789321 0.0010236733551977635 0 -0.033232146806370107 0.0010700200821717966 0 -0.033069101838653969 0.0015162261988046041 0 -0.033232146806370107 0.0010700200821717966 0 -0.033069101838653969 0.0015162261988046041 0 -0.033272722688375875 0.0013368779885633529 0 -0.032761103446789321 0.0010236733551977635 0 -0.033232146806370107 0.0010700200821717966 0 -0.033216512559609383 0.00056898046311861612 0 -0.033232146806370107 0.0010700200821717966 0 -0.033216512559609383 0.00056898046311861612 0 -0.033480414084684218 0.00073737860470255605 0 -0.035266413666523479 0.00056322829326773641 0 -0.03490306161156552 0.0005747900305073197 0 -0.034981326418277302 0.00020709764222227501 0 -0.034783208346235134 0.00020464467839651559 0 -0.03490306161156552 0.0005747900305073197 0 -0.034981326418277302 0.00020709764222227501 0 -0.035266413666523479 0.00056322829326773641 0 -0.034981326418277302 0.00020709764222227501 0 -0.035204665572983213 0.00018590496085672708 0 -0.035266413666523479 0.00056322829326773641 0 -0.035204665572983213 0.00018590496085672708 0 -0.035416757947866494 0.00025541962181855477 0 -0.031794738044838525 -0.00059211828981944816 0 -0.031602519078736881 -7.7299110296647364e-05 0 -0.030776994355494414 -0.00036579806847315653 0 -0.031602519078736881 -7.7299110296647364e-05 0 -0.030776994355494414 -0.00036579806847315653 0 -0.031099041312266734 0.00047761089579002956 0 -0.030140878352556397 0.00023549733548216826 0 -0.030776994355494414 -0.00036579806847315653 0 -0.031099041312266734 0.00047761089579002956 0 -0.032709074664538332 0.00040850550308686381 0 -0.032999381904142054 -7.0508261168581441e-05 0 -0.030140878352556397 0.00023549733548216826 0 -0.031099041312266734 0.00047761089579002956 0 -0.030492388706254741 0.00085964898717656474 0 -0.031099041312266734 0.00047761089579002956 0 -0.030492388706254741 0.00085964898717656474 0 -0.031061153641711456 0.0011480913353123664 0 -0.031747787788180437 0.00097373603931165864 0 -0.031099041312266734 0.00047761089579002956 0 -0.031061153641711456 0.0011480913353123664 0 -0.030492388706254741 0.00085964898717656474 0 -0.031061153641711456 0.0011480913353123664 0 -0.030556972037943463 0.0015687164734701949 0 -0.030492388706254741 0.00085964898717656474 0 -0.029964912458085764 0.0011816587160739214 0 -0.030556972037943463 0.0015687164734701949 0 -0.030492388706254741 0.00085964898717656474 0 -0.029964912458085764 0.0011816587160739214 0 -0.029484259532137187 0.00078445419873032459 0 -0.030140878352556397 0.00023549733548216826 0 -0.030492388706254741 0.00085964898717656474 0 -0.029484259532137187 0.00078445419873032459 0 -0.032709074664538332 0.00040850550308686381 0 -0.032245543464398584 0.00092499410656641449 0 -0.035266413666523479 0.00056322829326773641 0 -0.03490306161156552 0.0005747900305073197 0 -0.035028827777042207 0.0010542467935494894 0 -0.034635191160031907 0.0010019639301602796 0 -0.03490306161156552 0.0005747900305073197 0 -0.035028827777042207 0.0010542467935494894 0 -0.032245543464398584 0.00092499410656641449 0 -0.031649103620452264 0.0015501296905971954 0 -0.029964912458085764 0.0011816587160739214 0 -0.029484259532137187 0.00078445419873032459 0 -0.029565803265716655 0.001661028721667814 0 -0.029484259532137187 0.00078445419873032459 0 -0.029565803265716655 0.001661028721667814 0 -0.028764684743396437 0.0013587441058642415 0 -0.029565803265716655 0.001661028721667814 0 -0.029125401542070245 0.0025375729738670223 0 -0.028748670632048407 0.0019943033715911136 0 -0.029565803265716655 0.001661028721667814 0 -0.030343490891607285 0.002323436819523129 0 -0.029125401542070245 0.0025375729738670223 0 -0.029964912458085764 0.0011816587160739214 0 -0.029565803265716655 0.001661028721667814 0 -0.030556972037943463 0.0015687164734701949 0 -0.029565803265716655 0.001661028721667814 0 -0.030556972037943463 0.0015687164734701949 0 -0.030343490891607285 0.002323436819523129 0 -0.031061153641711456 0.0011480913353123664 0 -0.030556972037943463 0.0015687164734701949 0 -0.031406374457097916 0.0017155325792648263 0 -0.030556972037943463 0.0015687164734701949 0 -0.031001972013432837 0.0020148883220780312 0 -0.031406374457097916 0.0017155325792648263 0 -0.031001972013432837 0.0020148883220780312 0 -0.030343490891607285 0.002323436819523129 0 -0.031324808545709404 0.0024091914473672342 0 -0.031001972013432837 0.0020148883220780312 0 -0.031324808545709404 0.0024091914473672342 0 -0.031460433738052816 0.0022039118250372215 0 -0.030556972037943463 0.0015687164734701949 0 -0.031001972013432837 0.0020148883220780312 0 -0.030343490891607285 0.002323436819523129 0 -0.030343490891607285 0.002323436819523129 0 -0.030767574488147556 0.003132655070222843 0 -0.029892146009036343 0.0030326099993550127 0 -0.030343490891607285 0.002323436819523129 0 -0.031324808545709404 0.0024091914473672342 0 -0.030767574488147556 0.003132655070222843 0 -0.031324808545709404 0.0024091914473672342 0 -0.030767574488147556 0.003132655070222843 0 -0.031720211663434916 0.0033851978265534385 0 -0.030767574488147556 0.003132655070222843 0 -0.031720211663434916 0.0033851978265534385 0 -0.031178946704498899 0.003988574529276547 0 -0.030767574488147556 0.003132655070222843 0 -0.029892146009036343 0.0030326099993550127 0 -0.030208123002369958 0.0037366508625506722 0 -0.029892146009036343 0.0030326099993550127 0 -0.029100193336529915 0.003437193266196513 0 -0.030208123002369958 0.0037366508625506722 0 -0.029100193336529915 0.003437193266196513 0 -0.029125401542070245 0.0025375729738670223 0 -0.028680891092771974 0.0030776253381265338 0 -0.029892146009036343 0.0030326099993550127 0 -0.029100193336529915 0.003437193266196513 0 -0.029125401542070245 0.0025375729738670223 0 -0.030343490891607285 0.002323436819523129 0 -0.029892146009036343 0.0030326099993550127 0 -0.029125401542070245 0.0025375729738670223 0 -0.030888129270267059 0.002725787434447222 0 -0.030429174123612679 0.0025368413958135748 0 -0.030212295996481002 0.0028995977796838464 0 -0.030888129270267059 0.002725787434447222 0 -0.030429174123612679 0.0025368413958135748 0 -0.030630932566997823 0.0022628159597574463 0 -0.031534407289775357 0.0024187515866290511 0 -0.033054985291247264 0.0022195347442216925 0 -0.030429174123612679 0.0025368413958135748 0 -0.030630932566997823 0.0022628159597574463 0 -0.030240358932013295 0.0023591409125402981 0 -0.032769288105616953 0.0020787785478331359 0 -0.033069101838653969 0.0015162261988046041 0 -0.032521345709200268 0.0016291376755495134 0 -0.032769288105616953 0.0020787785478331359 0 -0.033069101838653969 0.0015162261988046041 0 -0.033329552862625803 0.0016986634947048589 0 -0.032769288105616953 0.0020787785478331359 0 -0.032521345709200268 0.0016291376755495134 0 -0.031699838185466435 0.0023099714731799471 0 -0.030888129270267059 0.002725787434447222 0 -0.031699838185466435 0.0023099714731799471 0 -0.031172717889804337 0.0021847753263440376 0 -0.031534407289775357 0.0024187515866290511 0 -0.031802867967229156 0.0023243907697362742 0 -0.030888129270267059 0.002725787434447222 0 -0.031172717889804337 0.0021847753263440376 0 -0.030630932566997823 0.0022628159597574463 0 -0.031699838185466435 0.0023099714731799471 0 -0.031460433738052816 0.0022039118250372215 0 -0.031432650972064359 0.00216674733925417 0 -0.032061137443637443 0.0014227760419728325 0 -0.032521345709200268 0.0016291376755495134 0 -0.031699838185466435 0.0023099714731799471 0 -0.032061137443637443 0.0014227760419728325 0 -0.031699838185466435 0.0023099714731799471 0 -0.031406374457097916 0.0017155325792648263 0 -0.031699838185466435 0.0023099714731799471 0 -0.031406374457097916 0.0017155325792648263 0 -0.031460433738052816 0.0022039118250372215 0 -0.031001972013432837 0.0020148883220780312 0 -0.031406374457097916 0.0017155325792648263 0 -0.031460433738052816 0.0022039118250372215 0 -0.031324808545709404 0.0024091914473672342 0 -0.031566972226074817 0.00192669333798764 0 -0.031432650972064359 0.00216674733925417 0 -0.031324808545709404 0.0024091914473672342 0 -0.031460433738052816 0.0022039118250372215 0 -0.031432650972064359 0.00216674733925417 0 -0.031331911810643438 0.0023682238701058121 0 -0.03173330006913036 0.0026711668469593312 0 -0.031136594309047479 0.0017450257143447323 0 -0.031432650972064359 0.00216674733925417 0 -0.031358815026641555 0.0017294226281699223 0 -0.031566972226074817 0.00192669333798764 0 -0.031432650972064359 0.00216674733925417 0 -0.031358815026641555 0.0017294226281699223 0 -0.031136594309047479 0.0017450257143447323 0 -0.031432650972064359 0.00216674733925417 0 -0.031075245730311979 0.0019727042186376172 0 -0.031699838185466435 0.0023099714731799471 0 -0.031432650972064359 0.00216674733925417 0 -0.031172717889804337 0.0021847753263440376 0 -0.031432650972064359 0.00216674733925417 0 -0.031172717889804337 0.0021847753263440376 0 -0.031075245730311979 0.0019727042186376172 0 -0.031172717889804337 0.0021847753263440376 0 -0.031075245730311979 0.0019727042186376172 0 -0.03071348995907458 0.0019904280812159288 0 -0.031136594309047479 0.0017450257143447323 0 -0.031075245730311979 0.0019727042186376172 0 -0.030863418755993278 0.0017277115344906883 0 -0.031075245730311979 0.0019727042186376172 0 -0.030863418755993278 0.0017277115344906883 0 -0.03071348995907458 0.0019904280812159288 0 -0.030863418755993278 0.0017277115344906883 0 -0.030508696238144447 0.001657001935108671 0 -0.03071348995907458 0.0019904280812159288 0 -0.030508696238144447 0.001657001935108671 0 -0.030368504404470836 0.0019081280983865004 0 -0.030175379362890272 0.0017532304583717526 0 -0.030508696238144447 0.001657001935108671 0 -0.0302512941024227 0.0015157396804841969 0 -0.030175379362890272 0.0017532304583717526 0 -0.030508696238144447 0.001657001935108671 0 -0.030368504404470836 0.0019081280983865004 0 -0.03071348995907458 0.0019904280812159288 0 -0.030368504404470836 0.0019081280983865004 0 -0.03071348995907458 0.0019904280812159288 0 -0.030296302073232969 0.0021412999020175866 0 -0.031172717889804337 0.0021847753263440376 0 -0.03071348995907458 0.0019904280812159288 0 -0.030630932566997823 0.0022628159597574463 0 -0.03071348995907458 0.0019904280812159288 0 -0.030630932566997823 0.0022628159597574463 0 -0.030296302073232969 0.0021412999020175866 0 -0.030630932566997823 0.0022628159597574463 0 -0.030240358932013295 0.0023591409125402981 0 -0.030296302073232969 0.0021412999020175866 0 -0.03038514524066219 0.0012937799786804708 0 -0.029991338678028421 -1.762635417286027e-05 0 -0.029754818056695661 0.00010098202189622235 0 -0.03064219197976803 0.0010472006486083952 0 -0.03038514524066219 0.0012937799786804708 0 -0.030366316240748134 0.00063102501695524982 0 -0.031162122724212891 0.0009842751731191379 0 -0.027125637130288649 0.00097443160541100897 0 -0.030508696238144447 0.001657001935108671 0 -0.03038514524066219 0.0012937799786804708 0 -0.030825049791038752 0.0013963218285192387 0 -0.03064219197976803 0.0010472006486083952 0 -0.03038514524066219 0.0012937799786804708 0 -0.030825049791038752 0.0013963218285192387 0 -0.030508696238144447 0.001657001935108671 0 -0.03038514524066219 0.0012937799786804708 0 -0.0302512941024227 0.0015157396804841969 0 -0.030863418755993278 0.0017277115344906883 0 -0.030508696238144447 0.001657001935108671 0 -0.030825049791038752 0.0013963218285192387 0 -0.031136594309047479 0.0017450257143447323 0 -0.030863418755993278 0.0017277115344906883 0 -0.030825049791038752 0.0013963218285192387 0 -0.031136594309047479 0.0017450257143447323 0 -0.030825049791038752 0.0013963218285192387 0 -0.031116761069463695 0.0014074696843673485 0 -0.030825049791038752 0.0013963218285192387 0 -0.030862033139748498 0.0011510451908740384 0 -0.031116761069463695 0.0014074696843673485 0 -0.030862033139748498 0.0011510451908740384 0 -0.031080411032131387 0.0011120290526271661 0 -0.031116761069463695 0.0014074696843673485 0 -0.03064219197976803 0.0010472006486083952 0 -0.030825049791038752 0.0013963218285192387 0 -0.030862033139748498 0.0011510451908740384 0 -0.03064219197976803 0.0010472006486083952 0 -0.030862033139748498 0.0011510451908740384 0 -0.030820000332074018 0.00079874756133752956 0 -0.030862033139748498 0.0011510451908740384 0 -0.031080411032131387 0.0011120290526271661 0 -0.030820000332074018 0.00079874756133752956 0 -0.031266127469367654 0.0010048907278604293 0 -0.031080411032131387 0.0011120290526271661 0 -0.030820000332074018 0.00079874756133752956 0 -0.026554475325857568 0.0027545633604997379 0 -0.027031679171281568 0.0019652048733265221 0 -0.023236371842596554 0.0028329099593248437 0 -0.023176730408771776 0.002811949081779739 0 -0.023213740646012601 0.0026533816524234948 0 -0.026929831647842215 0.0036896149351075777 0 -0.026554475325857568 0.0027545633604997379 0 -0.031266127469367654 0.0010048907278604293 0 -0.031351440496882856 0.0012078603071629345 0 -0.031080411032131387 0.0011120290526271661 0 -0.026554475325857568 0.0027545633604997379 0 -0.03076518346518976 0.0028126363766315505 0 -0.029423298617131749 0.0038562145051743288 0 -0.029422806229555148 0.0038556945457927485 0 -0.029438627408368879 0.003837538606325454 0 -0.03076518346518976 0.0028126363766315505 0 -0.031054139766630712 0.0014917629971103823 0 -0.031435449893819037 0.0012621603402647008 0 -0.031080411032131387 0.0011120290526271661 0 -0.031116761069463695 0.0014074696843673485 0 -0.031435449893819037 0.0012621603402647008 0 -0.031116761069463695 0.0014074696843673485 0 -0.031358815026641555 0.0017294226281699223 0 -0.031136594309047479 0.0017450257143447323 0 -0.031116761069463695 0.0014074696843673485 0 -0.031358815026641555 0.0017294226281699223 0 -0.031566972226074817 0.00192669333798764 0 -0.031435449893819037 0.0012621603402647008 0 -0.031358815026641555 0.0017294226281699223 0 -0.03173330006913036 0.0026711668469593312 0 -0.03076518346518976 0.0028126363766315505 0 -0.031720211663434916 0.0033851978265534385 0 -0.032095043705705442 0.0042468916787591522 0 -0.031178946704498899 0.003988574529276547 0 -0.03076518346518976 0.0028126363766315505 0 -0.03028059433864088 0.0040137549518980574 0 -0.029438627408368879 0.003837538606325454 0 -0.029391626764983927 0.0038574260183702265 0 -0.02930631156747281 0.0037735423641190105 0 -0.029391626764983927 0.0038574260183702265 0 -0.029345706478511303 0.0040334729162546899 0 -0.029290687597699438 0.0038853676145361947 0 -0.029444282978668253 0.0038814641586843203 0 -0.029391626764983927 0.0038574260183702265 0 -0.029345706478511303 0.0040334729162546899 0 -0.026929831647842215 0.0036896149351075777 0 -0.029229514396970985 0.0042007429469460792 0 -0.029423298617131749 0.0038562145051743288 0 -0.029438627408368879 0.003837538606325454 0 -0.029391626764983927 0.0038574260183702265 0 -0.023236371842596554 0.0028329099593248437 0 -0.023390128383193702 0.0026432745687966818 0 -0.023213740646012601 0.0026533816524234948 0 -0.023390128383193702 0.0026432745687966818 0 -0.023250966730870015 0.002458719478865324 0 -0.023213740646012601 0.0026533816524234948 0 -0.026929831647842215 0.0036896149351075777 0 -0.026244875741965969 0.003376061862391146 0 -0.023250966730870015 0.002458719478865324 0 -0.023012699723858741 0.0025285526057656758 0 -0.023052500762795528 0.0023414742439153992 0 -0.023250966730870015 0.002458719478865324 0 -0.023213740646012601 0.0026533816524234948 0 -0.023012699723858741 0.0025285526057656758 0 -0.023176730408771776 0.002811949081779739 0 -0.023213740646012601 0.0026533816524234948 0 -0.023012699723858741 0.0025285526057656758 0 -0.026554475325857568 0.0027545633604997379 0 -0.022693825773377863 0.0025328521611430836 0 -0.023128009106875597 0.0030828761504465211 0 -0.022978580152575458 0.002796317651628558 0 -0.0232474637369347 0.0026845985065022016 0 -0.023589746909671278 0.0032517484157401125 0 -0.023128009106875597 0.0030828761504465211 0 -0.0232474637369347 0.0026845985065022016 0 -0.0232474637369347 0.0026845985065022016 0 -0.022897940521193972 0.0024770017785343381 0 -0.022887005593785644 0.0022562998158553978 0 -0.022978580152575458 0.002796317651628558 0 -0.0232474637369347 0.0026845985065022016 0 -0.022897940521193972 0.0024770017785343381 0 -0.022978580152575458 0.002796317651628558 0 -0.022897940521193972 0.0024770017785343381 0 -0.022731855811109355 0.002681840671584986 0 -0.022744550721821948 0.0025754255041216464 0 -0.022807780375993764 0.0020457487271411186 0 -0.022897940521193972 0.0024770017785343381 0 -0.022698898010492349 0.0026664115579074612 0 -0.022696681278664005 0.0023834654022331023 0 -0.019254619103327403 0.00056941151141598034 0 -0.019336565259033659 0.00062306269643935103 0 -0.019232106288380048 0.00075205341025036138 0 -0.022807780375993764 0.0020457487271411186 0 -0.020905723709286395 0.0015274506406447938 0 -0.019254619103327403 0.00056941151141598034 0 -0.019353353563745099 0.00047026212990099761 0 -0.019336565259033659 0.00062306269643935103 0 -0.022807780375993764 0.0020457487271411186 0 -0.024136930325342396 0.00013059606412016073 0 -0.029991338678028421 -1.762635417286027e-05 0 -0.029754818056695661 0.00010098202189622235 0 -0.029548401059644212 -0.00025874096787174838 0 -0.022807780375993764 0.0020457487271411186 0 -0.027125637130288649 0.00097443160541100897 0 -0.024468697003086789 0.0013262668257615481 0 -0.024478407766575977 0.00053168481055229167 0 -0.025041748140769746 0.00075060182007462934 0 -0.027031679171281568 0.0019652048733265221 0 -0.027125637130288649 0.00097443160541100897 0 -0.027125637130288649 0.00097443160541100897 0 -0.024136930325342396 0.00013059606412016073 0 -0.023128009106875597 0.0030828761504465211 0 -0.022978580152575458 0.002796317651628558 0 -0.022740637398942394 0.002907922344163697 0 -0.03064219197976803 0.0010472006486083952 0 -0.030820000332074018 0.00079874756133752956 0 -0.030366316240748134 0.00063102501695524982 0 -0.022978580152575458 0.002796317651628558 0 -0.022731855811109355 0.002681840671584986 0 -0.022740637398942394 0.002907922344163697 0 -0.028986126284363273 0.0037414665252718132 0 -0.029097900358185099 0.0038382087831907255 0 -0.028943803411289489 0.003983837506025727 0 -0.029097900358185099 0.0038382087831907255 0 -0.029056296707603627 0.0039727085776724951 0 -0.028943803411289489 0.003983837506025727 0 -0.028812657756651382 0.0039345164236088363 0 -0.028986126284363273 0.0037414665252718132 0 -0.028609620344941251 0.0038114296122516633 0 -0.028812657756651382 0.0039345164236088363 0 -0.028986126284363273 0.0037414665252718132 0 -0.028943803411289489 0.003983837506025727 0 -0.028812657756651382 0.0039345164236088363 0 -0.028639656241684304 0.004027221193790587 0 -0.028609620344941251 0.0038114296122516633 0 -0.028986126284363273 0.0037414665252718132 0 -0.028609620344941251 0.0038114296122516633 0 -0.028563625455954478 0.003520026026380252 0 -0.029100193336529915 0.003437193266196513 0 -0.028986126284363273 0.0037414665252718132 0 -0.028563625455954478 0.003520026026380252 0 -0.029128166923244058 0.0034663367378990765 0 -0.029650100152425914 0.0036675433734713768 0 -0.029100193336529915 0.003437193266196513 0 -0.028986126284363273 0.0037414665252718132 0 -0.029150125459834177 0.003658785383499558 0 -0.028986126284363273 0.0037414665252718132 0 -0.029150125459834177 0.003658785383499558 0 -0.029097900358185099 0.0038382087831907255 0 -0.030767574488147556 0.003132655070222843 0 -0.030208123002369958 0.0037366508625506722 0 -0.031178946704498899 0.003988574529276547 0 -0.029150125459834177 0.003658785383499558 0 -0.029097900358185099 0.0038382087831907255 0 -0.029207021293365901 0.0038227745249730959 0 -0.029650100152425914 0.0036675433734713768 0 -0.03028059433864088 0.0040137549518980574 0 -0.029150125459834177 0.003658785383499558 0 -0.02930631156747281 0.0037735423641190105 0 -0.029207021293365901 0.0038227745249730959 0 -0.029391626764983927 0.0038574260183702265 0 -0.02930631156747281 0.0037735423641190105 0 -0.029290687597699438 0.0038853676145361947 0 -0.02930631156747281 0.0037735423641190105 0 -0.029290687597699438 0.0038853676145361947 0 -0.029207021293365901 0.0038227745249730959 0 -0.029290687597699438 0.0038853676145361947 0 -0.029207021293365901 0.0038227745249730959 0 -0.029175136040896048 0.0039670890274497066 0 -0.029097900358185099 0.0038382087831907255 0 -0.029207021293365901 0.0038227745249730959 0 -0.029175136040896048 0.0039670890274497066 0 -0.029097900358185099 0.0038382087831907255 0 -0.029056296707603627 0.0039727085776724951 0 -0.029175136040896048 0.0039670890274497066 0 -0.029056296707603627 0.0039727085776724951 0 -0.029175136040896048 0.0039670890274497066 0 -0.029033681440815279 0.0041051294564167983 0 -0.029175136040896048 0.0039670890274497066 0 -0.029166428592273766 0.0041130272994248955 0 -0.029033681440815279 0.0041051294564167983 0 -0.029345706478511303 0.0040334729162546899 0 -0.029290687597699438 0.0038853676145361947 0 -0.029175136040896048 0.0039670890274497066 0 -0.029345706478511303 0.0040334729162546899 0 -0.029175136040896048 0.0039670890274497066 0 -0.029166428592273766 0.0041130272994248955 0 -0.029345706478511303 0.0040334729162546899 0 -0.029166428592273766 0.0041130272994248955 0 -0.029204382333621437 0.0042446919105333944 0 -0.023390128383193702 0.0026432745687966818 0 -0.023250966730870015 0.002458719478865324 0 -0.023542386633222098 0.0024643173245561555 0 -0.023250966730870015 0.002458719478865324 0 -0.023542386633222098 0.0024643173245561555 0 -0.023353560633618632 0.0023083339621058061 0 -0.026244875741965969 0.003376061862391146 0 -0.026767479567722456 0.0032195645770872585 0 -0.029204382333621437 0.0042446919105333944 0 -0.029028434790556543 0.0042436502628989056 0 -0.028906305695064458 0.0045551397407732619 0 -0.029166428592273766 0.0041130272994248955 0 -0.029033681440815279 0.0041051294564167983 0 -0.029028434790556543 0.0042436502628989056 0 -0.029166428592273766 0.0041130272994248955 0 -0.029204382333621437 0.0042446919105333944 0 -0.029028434790556543 0.0042436502628989056 0 -0.029028434790556543 0.0042436502628989056 0 -0.028898703728365647 0.0042154442832359638 0 -0.028878003691486923 0.0043775688535526601 0 -0.02976187204960937 0.0038091111369905378 0 -0.025378925464080646 0.0040245983720981031 0 -0.028898703728365647 0.0042154442832359638 0 -0.028709574059988873 0.0043233002922929888 0 -0.028878003691486923 0.0043775688535526601 0 -0.029033681440815279 0.0041051294564167983 0 -0.029028434790556543 0.0042436502628989056 0 -0.028898703728365647 0.0042154442832359638 0 -0.029033681440815279 0.0041051294564167983 0 -0.028898703728365647 0.0042154442832359638 0 -0.02893594750340495 0.0040875659842853577 0 -0.029056296707603627 0.0039727085776724951 0 -0.029033681440815279 0.0041051294564167983 0 -0.02893594750340495 0.0040875659842853577 0 -0.028898703728365647 0.0042154442832359638 0 -0.02893594750340495 0.0040875659842853577 0 -0.028790854727077115 0.0041203151102932635 0 -0.02893594750340495 0.0040875659842853577 0 -0.028943803411289489 0.003983837506025727 0 -0.028790854727077115 0.0041203151102932635 0 -0.029056296707603627 0.0039727085776724951 0 -0.02893594750340495 0.0040875659842853577 0 -0.028943803411289489 0.003983837506025727 0 -0.028639656241684304 0.004027221193790587 0 -0.028790854727077115 0.0041203151102932635 0 -0.028645885736103781 0.0041405852982558883 0 -0.028812657756651382 0.0039345164236088363 0 -0.028639656241684304 0.004027221193790587 0 -0.028790854727077115 0.0041203151102932635 0 -0.028812657756651382 0.0039345164236088363 0 -0.028943803411289489 0.003983837506025727 0 -0.028790854727077115 0.0041203151102932635 0 -0.025009910674298853 0.0038601016957718511 0 -0.02226955834624653 0.0040178314094184032 0 -0.028645885736103781 0.0041405852982558883 0 -0.028709574059988873 0.0043233002922929888 0 -0.028524835624461068 0.0042293353221368084 0 -0.028790854727077115 0.0041203151102932635 0 -0.028645885736103781 0.0041405852982558883 0 -0.028709574059988873 0.0043233002922929888 0 -0.028898703728365647 0.0042154442832359638 0 -0.028790854727077115 0.0041203151102932635 0 -0.028709574059988873 0.0043233002922929888 0 -0.025009910674298853 0.0038601016957718511 0 -0.025378925464080646 0.0040245983720981031 0 -0.020925080208841672 0.0031131833076704749 0 -0.020295951575306389 0.0030842391147414307 0 -0.019500025735037816 0.0023572608339984956 0 -0.020295951575306389 0.0030842391147414307 0 -0.019500025735037816 0.0023572608339984956 0 -0.019727909485580807 0.0040763900490453173 0 -0.02226955834624653 0.0040178314094184032 0 -0.016320982660397894 0.0045499382493532194 0 -0.028709574059988873 0.0043233002922929888 0 -0.028494144855816823 0.0042709217355261049 0 -0.028524835624461068 0.0042293353221368084 0 -0.02226955834624653 0.0040178314094184032 0 -0.023661274994635818 0.0032909542890890236 0 -0.014838182513599932 0.0048285899559131241 0 -0.015010146381117227 0.0047421515879467486 0 -0.014869585543811613 0.0046164758605331709 0 -0.014838182513599932 0.0048285899559131241 0 -0.015010146381117227 0.0047421515879467486 0 -0.01503881353411018 0.0049826157188055447 0 -0.028477655774193748 0.0043014220417751728 0 -0.028072477366972451 0.0041791608297433221 0 -0.02836551686191742 0.0040884001554383105 0 -0.028072477366972451 0.0041791608297433221 0 -0.02836551686191742 0.0040884001554383105 0 -0.028210375895879013 0.0038495186844274502 0 -0.02226955834624653 0.0040178314094184032 0 -0.021488234247131803 0.0045453721494479894 0 -0.028524835624461068 0.0042293353221368084 0 -0.02836551686191742 0.0040884001554383105 0 -0.028532605687055571 0.0041199580186827567 0 -0.028645885736103781 0.0041405852982558883 0 -0.028524835624461068 0.0042293353221368084 0 -0.028532605687055571 0.0041199580186827567 0 -0.028477655774193748 0.0043014220417751728 0 -0.028524835624461068 0.0042293353221368084 0 -0.02836551686191742 0.0040884001554383105 0 -0.028639656241684304 0.004027221193790587 0 -0.02836551686191742 0.0040884001554383105 0 -0.028532605687055571 0.0041199580186827567 0 -0.028639656241684304 0.004027221193790587 0 -0.028645885736103781 0.0041405852982558883 0 -0.028532605687055571 0.0041199580186827567 0 -0.02836551686191742 0.0040884001554383105 0 -0.028609620344941251 0.0038114296122516633 0 -0.028210375895879013 0.0038495186844274502 0 -0.028639656241684304 0.004027221193790587 0 -0.02836551686191742 0.0040884001554383105 0 -0.028609620344941251 0.0038114296122516633 0 -0.028210375895879013 0.0038495186844274502 0 -0.028563625455954478 0.003520026026380252 0 -0.027932022317518613 0.0035865867882806267 0 -0.028609620344941251 0.0038114296122516633 0 -0.028210375895879013 0.0038495186844274502 0 -0.028563625455954478 0.003520026026380252 0 -0.025651950209874482 0.0046897805676062651 0 -0.024704299160690054 0.0045469161333003541 0 -0.026135803469800285 0.0039251136079271869 0 -0.026236410258481266 0.0051262395799475851 0 -0.025651950209874482 0.0046897805676062651 0 -0.025006346833770478 0.0053360159595057105 0 -0.026236410258481266 0.0051262395799475851 0 -0.025651950209874482 0.0046897805676062651 0 -0.026486719446560388 0.0043795758069699025 0 -0.025651950209874482 0.0046897805676062651 0 -0.026486719446560388 0.0043795758069699025 0 -0.026135803469800285 0.0039251136079271869 0 -0.026486719446560388 0.0043795758069699025 0 -0.027460836839111182 0.0046327541536298434 0 -0.026970332825337593 0.003702992274787984 0 -0.026236410258481266 0.0051262395799475851 0 -0.026486719446560388 0.0043795758069699025 0 -0.027460836839111182 0.0046327541536298434 0 -0.028210375895879013 0.0038495186844274502 0 -0.027932022317518613 0.0035865867882806267 0 -0.027610855117756176 0.0039849046850441673 0 -0.026236410258481266 0.0051262395799475851 0 -0.027460836839111182 0.0046327541536298434 0 -0.026473286730398966 0.0061320594450186717 0 -0.028448846971283758 0.0037164785440074464 0 -0.021178271710963238 0.0052362683808583818 0 -0.028072477366972451 0.0041791608297433221 0 -0.028210375895879013 0.0038495186844274502 0 -0.027610855117756176 0.0039849046850441673 0 -0.026236410258481266 0.0051262395799475851 0 -0.026473286730398966 0.0061320594450186717 0 -0.025006346833770478 0.0053360159595057105 0 -0.014905957482927088 0.0062117985477066371 0 -0.01578178618263161 0.0059970631793089457 0 -0.015685625606837339 0.0066791557711694694 0 -0.021178271710963238 0.0052362683808583818 0 -0.020151826573553355 0.0060446241932183183 0 -0.015288443029252152 0.0051425964538656319 0 -0.015377528247364445 0.0049708440375281424 0 -0.015187804510595385 0.0048758656401950628 0 -0.021178271710963238 0.0052362683808583818 0 -0.014781792573510666 0.0057452654822889313 0 -0.014905957482927088 0.0062117985477066371 0 -0.015278969867997696 0.0055449088533874591 0 -0.01578178618263161 0.0059970631793089457 0 -0.01503881353411018 0.0049826157188055447 0 -0.015288443029252152 0.0051425964538656319 0 -0.015187804510595385 0.0048758656401950628 0 -0.021488234247131803 0.0045453721494479894 0 -0.021178271710963238 0.0052362683808583818 0 -0.015010146381117227 0.0047421515879467486 0 -0.01503881353411018 0.0049826157188055447 0 -0.015187804510595385 0.0048758656401950628 0 -0.015010146381117227 0.0047421515879467486 0 -0.015187804510595385 0.0048758656401950628 0 -0.015135848314643345 0.0046546967612465344 0 -0.015377528247364445 0.0049708440375281424 0 -0.015187804510595385 0.0048758656401950628 0 -0.015307323572608717 0.0047171051162327848 0 -0.015377528247364445 0.0049708440375281424 0 -0.015307323572608717 0.0047171051162327848 0 -0.015610371106292851 0.0048089046469661527 0 -0.015187804510595385 0.0048758656401950628 0 -0.015307323572608717 0.0047171051162327848 0 -0.015135848314643345 0.0046546967612465344 0 -0.014781792573510666 0.0057452654822889313 0 -0.01575252388532386 0.0046238817216943916 0 -0.015278969867997696 0.0055449088533874591 0 -0.015610371106292851 0.0048089046469661527 0 -0.015937165660452678 0.0053154750073118569 0 -0.015610371106292851 0.0048089046469661527 0 -0.015937165660452678 0.0053154750073118569 0 -0.016061633035548542 0.0047785632605768453 0 -0.015937165660452678 0.0053154750073118569 0 -0.016061633035548542 0.0047785632605768453 0 -0.016544643875745758 0.0049492388471538452 0 -0.015937165660452678 0.0053154750073118569 0 -0.016544643875745758 0.0049492388471538452 0 -0.016397550656117373 0.0057772280348872707 0 -0.016397550656117373 0.0057772280348872707 0 -0.01578178618263161 0.0059970631793089457 0 -0.016566276961799124 0.0064563691831526987 0 -0.016544643875745758 0.0049492388471538452 0 -0.016397550656117373 0.0057772280348872707 0 -0.01703500506091965 0.005636195225929938 0 -0.015937165660452678 0.0053154750073118569 0 -0.016397550656117373 0.0057772280348872707 0 -0.01578178618263161 0.0059970631793089457 0 -0.015278969867997696 0.0055449088533874591 0 -0.015937165660452678 0.0053154750073118569 0 -0.01578178618263161 0.0059970631793089457 0 -0.017496839745911593 0.0051281559364212146 0 -0.017914123917828172 0.0054869120628721051 0 -0.017979676306264548 0.0046688718034337204 0 -0.018454662159952437 0.0055963517990024331 0 -0.017914123917828172 0.0054869120628721051 0 -0.017979676306264548 0.0046688718034337204 0 -0.016544643875745758 0.0049492388471538452 0 -0.017384401936284564 0.0051546669542958711 0 -0.01703500506091965 0.005636195225929938 0 -0.016544643875745758 0.0049492388471538452 0 -0.017384401936284564 0.0051546669542958711 0 -0.017153350447532571 0.0043364085874745117 0 -0.017384401936284564 0.0051546669542958711 0 -0.01703500506091965 0.005636195225929938 0 -0.017685971167404512 0.0059704266284749327 0 -0.016397550656117373 0.0057772280348872707 0 -0.01703500506091965 0.005636195225929938 0 -0.01702861525530289 0.0061382491987170681 0 -0.01703500506091965 0.005636195225929938 0 -0.017685971167404512 0.0059704266284749327 0 -0.01702861525530289 0.0061382491987170681 0 -0.01744559133336316 0.0051512563491537362 0 -0.017656044908797974 0.0059097846125109373 0 -0.017914123917828172 0.0054869120628721051 0 -0.017685971167404512 0.0059704266284749327 0 -0.018209034727797481 0.0062024944713694489 0 -0.017496839745911593 0.0051281559364212146 0 -0.017914123917828172 0.0054869120628721051 0 -0.017685971167404512 0.0059704266284749327 0 -0.018454662159952437 0.0055963517990024331 0 -0.017914123917828172 0.0054869120628721051 0 -0.018209034727797481 0.0062024944713694489 0 -0.018441243204224911 0.0060935970369167545 0 -0.016977305096473373 0.0069289651787639408 0 -0.018209034727797481 0.0062024944713694489 0 -0.018051629693645949 0.0064523227591405784 0 -0.018247868993641433 0.0064703734467809835 0 -0.017685971167404512 0.0059704266284749327 0 -0.018209034727797481 0.0062024944713694489 0 -0.017293937949033368 0.0067338058467057253 0 -0.018443170263550326 0.0064488144853540579 0 -0.018209034727797481 0.0062024944713694489 0 -0.018247868993641433 0.0064703734467809835 0 -0.017293937949033368 0.0067338058467057253 0 -0.01702861525530289 0.0061382491987170681 0 -0.016566276961799124 0.0064563691831526987 0 -0.017685971167404512 0.0059704266284749327 0 -0.017293937949033368 0.0067338058467057253 0 -0.01702861525530289 0.0061382491987170681 0 -0.018047345666376672 0.0066191663410824541 0 -0.017850588314432671 0.0065974047536098831 0 -0.018104206665163481 0.006787135537868574 0 -0.020927573397572379 0.0057049229292180309 0 -0.021414102433168335 0.0059524803023915177 0 -0.018051629693645949 0.0064523227591405784 0 -0.018047345666376672 0.0066191663410824541 0 -0.017850588314432671 0.0065974047536098831 0 -0.016977305096473373 0.0069289651787639408 0 -0.020927573397572379 0.0057049229292180309 0 -0.018047345666376672 0.0066191663410824541 0 -0.018206570256448069 0.0066436885486977513 0 -0.018104206665163481 0.006787135537868574 0 -0.018051629693645949 0.0064523227591405784 0 -0.018047345666376672 0.0066191663410824541 0 -0.018206570256448069 0.0066436885486977513 0 -0.018051629693645949 0.0064523227591405784 0 -0.018206570256448069 0.0066436885486977513 0 -0.018247868993641433 0.0064703734467809835 0 -0.018406559915309394 0.0066342544595809957 0 -0.018206570256448069 0.0066436885486977513 0 -0.018350719426096059 0.0067901560530832525 0 -0.018406559915309394 0.0066342544595809957 0 -0.018206570256448069 0.0066436885486977513 0 -0.018247868993641433 0.0064703734467809835 0 -0.018406559915309394 0.0066342544595809957 0 -0.018443170263550326 0.0064488144853540579 0 -0.018247868993641433 0.0064703734467809835 0 -0.01578178618263161 0.0059970631793089457 0 -0.015685625606837339 0.0066791557711694694 0 -0.016566276961799124 0.0064563691831526987 0 -0.016397550656117373 0.0057772280348872707 0 -0.01702861525530289 0.0061382491987170681 0 -0.016566276961799124 0.0064563691831526987 0 -0.015685625606837339 0.0066791557711694694 0 -0.016566276961799124 0.0064563691831526987 0 -0.016522029833120566 0.0071623429043296575 0 -0.017293937949033368 0.0067338058467057253 0 -0.016566276961799124 0.0064563691831526987 0 -0.016522029833120566 0.0071623429043296575 0 -0.025006346833770478 0.0053360159595057105 0 -0.023404090647680939 0.0044892961217654695 0 -0.024704299160690054 0.0045469161333003541 0 -0.020151826573553355 0.0060446241932183183 0 -0.020927573397572379 0.0057049229292180309 0 -0.023404090647680939 0.0044892961217654695 0 -0.024704299160690054 0.0045469161333003541 0 -0.025305168877985586 0.0033770133527621978 0 -0.025651950209874482 0.0046897805676062651 0 -0.025006346833770478 0.0053360159595057105 0 -0.024704299160690054 0.0045469161333003541 0 -0.025283567841317935 0.005163786700245236 0 -0.025693114297371387 0.0048783534815059499 0 -0.025430995560772947 0.0047302465458675443 0 -0.020927573397572379 0.0057049229292180309 0 -0.02695242861077948 0.0041099375222842915 0 -0.024704299160690054 0.0045469161333003541 0 -0.025371634077409781 0.0036139658889922676 0 -0.025305168877985586 0.0033770133527621978 0 -0.026766145156696758 0.0038710049600483121 0 -0.02695242861077948 0.0041099375222842915 0 -0.025283567841317935 0.005163786700245236 0 -0.025430995560772947 0.0047302465458675443 0 -0.025163884001564486 0.0047389809267591402 0 -0.025430995560772947 0.0047302465458675443 0 -0.025278320964256393 0.0045552626811332384 0 -0.025556244601748993 0.0045028913735007886 0 -0.025430995560772947 0.0047302465458675443 0 -0.025278320964256393 0.0045552626811332384 0 -0.025163884001564486 0.0047389809267591402 0 -0.028373333803522385 0.0042932500703359864 0 -0.028243528313367884 0.0037749717428182425 0 -0.028561877366862578 0.0038787664683855036 0 -0.025693114297371387 0.0048783534815059499 0 -0.025430995560772947 0.0047302465458675443 0 -0.025556244601748993 0.0045028913735007886 0 -0.02695242861077948 0.0041099375222842915 0 -0.026837604857148239 0.0042350783565284073 0 -0.024059811515344212 0.0046077889569206797 0 -0.024778242862869983 0.004962065765159617 0 -0.024465857370150289 0.0046283130505350234 0 -0.018485231149310968 0.0070437932117119817 0 -0.018350719426096059 0.0067901560530832525 0 -0.018104206665163481 0.006787135537868574 0 -0.022265859345119494 0.0052117297029365935 0 -0.021414102433168335 0.0059524803023915177 0 -0.018206570256448069 0.0066436885486977513 0 -0.018350719426096059 0.0067901560530832525 0 -0.018104206665163481 0.006787135537868574 0 -0.025283567841317935 0.005163786700245236 0 -0.024778242862869983 0.004962065765159617 0 -0.025163884001564486 0.0047389809267591402 0 -0.024778242862869983 0.004962065765159617 0 -0.025163884001564486 0.0047389809267591402 0 -0.024465857370150289 0.0046283130505350234 0 -0.02507076251186088 0.0047051092924982477 0 -0.024881237306264362 0.0047912354158739677 0 -0.025163884001564486 0.0047389809267591402 0 -0.025109765835491564 0.0046111660656993295 0 -0.024997273552957687 0.004697790223376846 0 -0.025278320964256393 0.0045552626811332384 0 -0.025163884001564486 0.0047389809267591402 0 -0.025109765835491564 0.0046111660656993295 0 -0.025278320964256393 0.0045552626811332384 0 -0.025109765835491564 0.0046111660656993295 0 -0.025131519693644667 0.0044905120991616133 0 -0.025109765835491564 0.0046111660656993295 0 -0.025015829356000153 0.0045457083942032316 0 -0.025131519693644667 0.0044905120991616133 0 -0.025109765835491564 0.0046111660656993295 0 -0.024997273552957687 0.004697790223376846 0 -0.025015829356000153 0.0045457083942032316 0 -0.024918352682992716 0.0044616882056398612 0 -0.024894237308989736 0.0046013833317561231 0 -0.025015829356000153 0.0045457083942032316 0 -0.024894237308989736 0.0046013833317561231 0 -0.024997273552957687 0.004697790223376846 0 -0.025015829356000153 0.0045457083942032316 0 -0.022265859345119494 0.0052117297029365935 0 -0.024881237306264362 0.0047912354158739677 0 -0.024894237308989736 0.0046013833317561231 0 -0.024865237868721479 0.0047124109688507741 0 -0.024997273552957687 0.004697790223376846 0 -0.024899023588522536 0.0042909187394953021 0 -0.024918352682992716 0.0044616882056398612 0 -0.025046176708582578 0.0043514270274245303 0 -0.024918352682992716 0.0044616882056398612 0 -0.025015829356000153 0.0045457083942032316 0 -0.025046176708582578 0.0043514270274245303 0 -0.025015829356000153 0.0045457083942032316 0 -0.025046176708582578 0.0043514270274245303 0 -0.025131519693644667 0.0044905120991616133 0 -0.025046176708582578 0.0043514270274245303 0 -0.025131519693644667 0.0044905120991616133 0 -0.025170650886753555 0.0043555904752650091 0 -0.025278320964256393 0.0045552626811332384 0 -0.025131519693644667 0.0044905120991616133 0 -0.025311778399103483 0.0043712656581978713 0 -0.025131519693644667 0.0044905120991616133 0 -0.025170650886753555 0.0043555904752650091 0 -0.025311778399103483 0.0043712656581978713 0 -0.025170650886753555 0.0043555904752650091 0 -0.025200871250491211 0.0042163487405409992 0 -0.025311778399103483 0.0043712656581978713 0 -0.025046176708582578 0.0043514270274245303 0 -0.025170650886753555 0.0043555904752650091 0 -0.025200871250491211 0.0042163487405409992 0 -0.024899023588522536 0.0042909187394953021 0 -0.025046176708582578 0.0043514270274245303 0 -0.024981965824918975 0.0042064668493815216 0 -0.026373307294676546 0.0038019714363374734 0 -0.02689492332186463 0.0042746681775455084 0 -0.025913174358957444 0.0042688279647025793 0 -0.025046176708582578 0.0043514270274245303 0 -0.025200871250491211 0.0042163487405409992 0 -0.024981965824918975 0.0042064668493815216 0 -0.025857588773795376 0.0042819564502800962 0 -0.025475182369567129 0.0042189792916167866 0 -0.026837604857148239 0.0042350783565284073 0 -0.027553108827385923 0.0036613582479291754 0 -0.025556244601748993 0.0045028913735007886 0 -0.025311778399103483 0.0043712656581978713 0 -0.025467980814144083 0.0042134036404801768 0 -0.025278320964256393 0.0045552626811332384 0 -0.025556244601748993 0.0045028913735007886 0 -0.025311778399103483 0.0043712656581978713 0 -0.025200871250491211 0.0042163487405409992 0 -0.025311778399103483 0.0043712656581978713 0 -0.025467980814144083 0.0042134036404801768 0 -0.027045234785702501 0.0037359353663475731 0 -0.02689492332186463 0.0042746681775455084 0 -0.027728825142963997 0.0043048137332658953 0 -0.025857588773795376 0.0042819564502800962 0 -0.027553108827385923 0.0036613582479291754 0 -0.028243528313367884 0.0037749717428182425 0 -0.028108028585919841 0.0032584517935248655 0 -0.02845202767041357 0.0032768335306776592 0 -0.029660340570171063 0.0026064132027265358 0 -0.029510317323842069 0.0030567763225542483 0 -0.029920581716960763 0.0030786981803836194 0 -0.027553108827385923 0.0036613582479291754 0 -0.030454232113962098 0.0026803815927919803 0 -0.032993921953478181 0.0019079036261033749 0 -0.033295872155542701 0.0020565927350689023 0 -0.033241442026083881 0.0024045255773462262 0 -0.030454232113962098 0.0026803815927919803 0 -0.031034781693640174 0.003131142133934907 0 -0.033156361803562566 0.0017884611388837492 0 -0.032993921953478181 0.0019079036261033749 0 -0.033295872155542701 0.0020565927350689023 0 -0.033005014124330857 0.0016795645859154329 0 -0.033156361803562566 0.0017884611388837492 0 -0.032993921953478181 0.0019079036261033749 0 -0.033156361803562566 0.0017884611388837492 0 -0.033342852134077755 0.0017886662623222396 0 -0.033295872155542701 0.0020565927350689023 0 -0.033375023364787093 0.0015499651856895481 0 -0.033156361803562566 0.0017884611388837492 0 -0.033342852134077755 0.0017886662623222396 0 -0.028243528313367884 0.0037749717428182425 0 -0.028637757242404992 0.003617653120375867 0 -0.028561877366862578 0.0038787664683855036 0 -0.028243528313367884 0.0037749717428182425 0 -0.02845202767041357 0.0032768335306776592 0 -0.028637757242404992 0.003617653120375867 0 -0.033295872155542701 0.0020565927350689023 0 -0.033241442026083881 0.0024045255773462262 0 -0.033599755776738516 0.0022738523785357416 0 -0.033599755776738516 0.0022738523785357416 0 -0.034060898760498996 0.0023045901088224207 0 -0.033491293430397598 0.0029093798031415894 0 -0.033241442026083881 0.0024045255773462262 0 -0.033599755776738516 0.0022738523785357416 0 -0.033491293430397598 0.0029093798031415894 0 -0.031141792191009019 0.0020405090906524029 0 -0.02987199724486168 0.0032330511650229174 0 -0.033599755776738516 0.0022738523785357416 0 -0.033693558693594763 0.0017404062003221516 0 -0.034060898760498996 0.0023045901088224207 0 -0.033295872155542701 0.0020565927350689023 0 -0.033599755776738516 0.0022738523785357416 0 -0.033693558693594763 0.0017404062003221516 0 -0.033342852134077755 0.0017886662623222396 0 -0.033295872155542701 0.0020565927350689023 0 -0.033693558693594763 0.0017404062003221516 0 -0.033375023364787093 0.0015499651856895481 0 -0.033342852134077755 0.0017886662623222396 0 -0.033693558693594763 0.0017404062003221516 0 -0.034160121590210507 0.0014965708172651666 0 -0.034599949163029296 0.0016808227343057835 0 -0.034060898760498996 0.0023045901088224207 0 -0.031649103620452264 0.0015501296905971954 0 -0.031141792191009019 0.0020405090906524029 0 -0.034160121590210507 0.0014965708172651666 0 -0.033693558693594763 0.0017404062003221516 0 -0.034060898760498996 0.0023045901088224207 0 -0.028764684743396437 0.0013587441058642415 0 -0.028748670632048407 0.0019943033715911136 0 -0.028007562613588791 0.0019847166866654511 0 -0.029565803265716655 0.001661028721667814 0 -0.028764684743396437 0.0013587441058642415 0 -0.028748670632048407 0.0019943033715911136 0 -0.029125401542070245 0.0025375729738670223 0 -0.028748670632048407 0.0019943033715911136 0 -0.028415513294361556 0.0025295880285439282 0 -0.028007562613588791 0.0019847166866654511 0 -0.028415513294361556 0.0025295880285439282 0 -0.027716564789667816 0.0025134564328672037 0 -0.028748670632048407 0.0019943033715911136 0 -0.028007562613588791 0.0019847166866654511 0 -0.028415513294361556 0.0025295880285439282 0 -0.028415513294361556 0.0025295880285439282 0 -0.028204873322596666 0.0031949914491427363 0 -0.027716564789667816 0.0025134564328672037 0 -0.028204873322596666 0.0031949914491427363 0 -0.027571959100105788 0.0032485420946196828 0 -0.027716564789667816 0.0025134564328672037 0 -0.029125401542070245 0.0025375729738670223 0 -0.028415513294361556 0.0025295880285439282 0 -0.028680891092771974 0.0030776253381265338 0 -0.028415513294361556 0.0025295880285439282 0 -0.028680891092771974 0.0030776253381265338 0 -0.028204873322596666 0.0031949914491427363 0 -0.028563625455954478 0.003520026026380252 0 -0.028680891092771974 0.0030776253381265338 0 -0.028204873322596666 0.0031949914491427363 0 -0.029100193336529915 0.003437193266196513 0 -0.028563625455954478 0.003520026026380252 0 -0.028680891092771974 0.0030776253381265338 0 -0.028448846971283758 0.0037164785440074464 0 -0.027950132284454584 0.0034816725626986658 0 -0.027460836839111182 0.0046327541536298434 0 -0.028204873322596666 0.0031949914491427363 0 -0.027571959100105788 0.0032485420946196828 0 -0.028563625455954478 0.003520026026380252 0 -0.027932022317518613 0.0035865867882806267 0 -0.028204873322596666 0.0031949914491427363 0 -0.027460836839111182 0.0046327541536298434 0 -0.027571959100105788 0.0032485420946196828 0 -0.026970332825337593 0.003702992274787984 0 -0.027571959100105788 0.0032485420946196828 0 -0.027227709003568482 0.0031414672173688107 0 -0.026970332825337593 0.003702992274787984 0 -0.027227709003568482 0.0031414672173688107 0 -0.026792166951139149 0.0032430627721950441 0 -0.026970332825337593 0.003702992274787984 0 -0.026792166951139149 0.0032430627721950441 0 -0.026332959850311283 0.0029794487771490088 0 -0.027078646291751142 0.0028297388550085631 0 -0.027227709003568482 0.0031414672173688107 0 -0.026792166951139149 0.0032430627721950441 0 -0.027078646291751142 0.0028297388550085631 0 -0.026792166951139149 0.0032430627721950441 0 -0.026970332825337593 0.003702992274787984 0 -0.026135803469800285 0.0039251136079271869 0 -0.024704299160690054 0.0045469161333003541 0 -0.026135803469800285 0.0039251136079271869 0 -0.026332959850311283 0.0029794487771490088 0 -0.024704299160690054 0.0045469161333003541 0 -0.025371634077409781 0.0036139658889922676 0 -0.026406620463122515 0.0027538429353118343 0 -0.026486719446560388 0.0043795758069699025 0 -0.026970332825337593 0.003702992274787984 0 -0.026135803469800285 0.0039251136079271869 0 -0.024499479218026341 0.004353708837980615 0 -0.027274042298856136 0.0034282272828363297 0 -0.025371634077409781 0.0036139658889922676 0 -0.025309070199406404 0.0033774948031367593 0 -0.026406620463122515 0.0027538429353118343 0 -0.02695242861077948 0.0041099375222842915 0 -0.027274042298856136 0.0034282272828363297 0 -0.026792166951139149 0.0032430627721950441 0 -0.026135803469800285 0.0039251136079271869 0 -0.026332959850311283 0.0029794487771490088 0 -0.031034781693640174 0.003131142133934907 0 -0.02987199724486168 0.0032330511650229174 0 -0.028373333803522385 0.0042932500703359864 0 -0.028660420097510741 0.0041286201928416666 0 -0.028561877366862578 0.0038787664683855036 0 -0.027274042298856136 0.0034282272828363297 0 -0.02987199724486168 0.0032330511650229174 0 -0.028637757242404992 0.003617653120375867 0 -0.028561877366862578 0.0038787664683855036 0 -0.028822784725373828 0.0039570541519637495 0 -0.028660420097510741 0.0041286201928416666 0 -0.028561877366862578 0.0038787664683855036 0 -0.028822784725373828 0.0039570541519637495 0 -0.028007562613588791 0.0019847166866654511 0 -0.027716564789667816 0.0025134564328672037 0 -0.027307405748914364 0.0026163919898155685 0 -0.027514335428047855 0.0027616992429351107 0 -0.028260309388301853 0.0027130733697642516 0 -0.027227709003568482 0.0031414672173688107 0 -0.027716564789667816 0.0025134564328672037 0 -0.027078646291751142 0.0028297388550085631 0 -0.027571959100105788 0.0032485420946196828 0 -0.027227709003568482 0.0031414672173688107 0 -0.027716564789667816 0.0025134564328672037 0 -0.027716564789667816 0.0025134564328672037 0 -0.027078646291751142 0.0028297388550085631 0 -0.027025898597285485 0.0027308997639107014 0 -0.027716564789667816 0.0025134564328672037 0 -0.027307405748914364 0.0026163919898155685 0 -0.02736219642776724 0.002715109551116689 0 -0.027774509364925131 0.0038324032537557198 0 -0.028986625197706801 0.0025159731696411869 0 -0.029238890260635468 0.0029732857830295288 0 -0.026332959850311283 0.0029794487771490088 0 -0.027078646291751142 0.0028297388550085631 0 -0.02700737606654622 0.0026982317847885537 0 -0.027274042298856136 0.0034282272828363297 0 -0.028260309388301853 0.0027130733697642516 0 -0.028186265423009581 0.0026681492630908962 0 -0.028260309388301853 0.0027130733697642516 0 -0.02987199724486168 0.0032330511650229174 0 -0.028260309388301853 0.0027130733697642516 0 -0.0273357458839396 0.00033136067774717072 0 -0.02776727550390164 0.00023323207404565987 0 -0.028490002670395687 1.2781194258944316e-06 0 -0.0273357458839396 0.00033136067774717072 0 -0.027175097411040228 0.00057313921606574523 0 -0.02776727550390164 0.00023323207404565987 0 -0.0273357458839396 0.00033136067774717072 0 -0.026616383263464688 4.6173203431302601e-07 0 -0.028490002670395687 1.2781194258944316e-06 0 -0.0273357458839396 0.00033136067774717072 0 -0.026616383263464688 4.6173203431302601e-07 0 -0.026482525386135096 0.00029779161014939221 0 -0.0273357458839396 0.00033136067774717072 0 -0.027175097411040228 0.00057313921606574523 0 -0.026482525386135096 0.00029779161014939221 0 -0.027175097411040228 0.00057313921606574523 0 -0.026984824943200526 0.00031693227137220592 0 -0.026482525386135096 0.00029779161014939221 0 -0.027175097411040228 0.00057313921606574523 0 -0.026952753891228011 0.00086266325253322258 0 -0.026984824943200526 0.00031693227137220592 0 -0.022987763567786729 5.958690614747339e-05 0 -0.022627167896774311 -0.00037355098634650577 0 -0.022112889710049464 -0.00041505240983091 0 -0.024926489295706584 0.00036278690923631583 0 -0.024533755638269945 -3.3542415373984826e-05 0 -0.022987763567786729 5.958690614747339e-05 0 -0.023184222725116492 -0.0001346497469188514 0 -0.022627167896774311 -0.00037355098634650577 0 -0.026952753891228011 0.00086266325253322258 0 -0.027212418192579295 0.000517254568733735 0 -0.026855449729979192 0.00025242988514288811 0 -0.027175097411040228 0.00057313921606574523 0 -0.026952753891228011 0.00086266325253322258 0 -0.027212418192579295 0.000517254568733735 0 -0.027175097411040228 0.00057313921606574523 0 -0.027212418192579295 0.000517254568733735 0 -0.02776727550390164 0.00023323207404565987 0 -0.027212418192579295 0.000517254568733735 0 -0.027706023674259918 -8.9659725891624536e-05 0 -0.02776727550390164 0.00023323207404565987 0 -0.026855449729979192 0.00025242988514288811 0 -0.027172910067724251 -0.00059435845711863983 0 -0.025035632573236998 0.00016974125113592437 0 -0.027706023674259918 -8.9659725891624536e-05 0 -0.026855449729979192 0.00025242988514288811 0 -0.027172910067724251 -0.00059435845711863983 0 -0.027212418192579295 0.000517254568733735 0 -0.027706023674259918 -8.9659725891624536e-05 0 -0.026855449729979192 0.00025242988514288811 0 -0.026952753891228011 0.00086266325253322258 0 -0.026855449729979192 0.00025242988514288811 0 -0.025035632573236998 0.00016974125113592437 0 -0.027706023674259918 -8.9659725891624536e-05 0 -0.028721389711551221 -0.00014524987817414914 0 -0.028365613397802199 -0.00098495478835336275 0 -0.027706023674259918 -8.9659725891624536e-05 0 -0.027172910067724251 -0.00059435845711863983 0 -0.028365613397802199 -0.00098495478835336275 0 -0.027706023674259918 -8.9659725891624536e-05 0 -0.028721389711551221 -0.00014524987817414914 0 -0.02776727550390164 0.00023323207404565987 0 -0.028721389711551221 -0.00014524987817414914 0 -0.02776727550390164 0.00023323207404565987 0 -0.028490002670395687 1.2781194258944316e-06 0 -0.028721389711551221 -0.00014524987817414914 0 -0.028490002670395687 1.2781194258944316e-06 0 -0.030357345738403693 -2.3806315390039309e-06 0 -0.03036603977279604 -8.7596449275132395e-08 0 -0.032659288309433314 0.000112208938925738 0 -0.033287036593606087 -0.00018898691492814638 0 -0.030362258634052626 1.8960961495616863e-07 0 -0.030806673521456222 -0.000497855487031811 0 -0.03036603977279604 -8.7596449275132395e-08 0 -0.034997302850896715 -1.861410927608701e-07 0 -0.033287036593606087 -0.00018898691492814638 0 -0.028721389711551221 -0.00014524987817414914 0 -0.030357345738403693 -2.3806315390039309e-06 0 -0.029105046460086735 -0.0012316418378531954 0 -0.028721389711551221 -0.00014524987817414914 0 -0.029105046460086735 -0.0012316418378531954 0 -0.028365613397802199 -0.00098495478835336275 0 -0.030806673521456222 -0.000497855487031811 0 -0.030084175307035173 -0.0011347342861710377 0 -0.029105046460086735 -0.0012316418378531954 0 -0.029159874908145006 -0.0010602355383591854 0 -0.028365613397802199 -0.00098495478835336275 0 -0.029105046460086735 -0.0012316418378531954 0 -0.030071891626776846 -0.0010099601769290069 0 -0.029159874908145006 -0.0010602355383591854 0 -0.034997302850896715 -1.861410927608701e-07 0 -0.033287036593606087 -0.00018898691492814638 0 -0.034491246774749372 -5.0082005530949077e-05 0 -0.034997302850896715 -1.861410927608701e-07 0 -0.034999698402831597 1.3382208726932542e-07 0 -0.034491246774749372 -5.0082005530949077e-05 0 -0.033287036593606087 -0.00018898691492814638 0 -0.030071891626776846 -0.0010099601769290069 0 -0.03045748766963784 -0.0013305034240462703 0 -0.033198457148739896 -0.00023991813943933596 0 -0.032733595459794006 -0.00051977444072292699 0 -0.032659288309433314 0.000112208938925738 0 -0.033287036593606087 -0.00018898691492814638 0 -0.030071891626776846 -0.0010099601769290069 0 -0.027620412605762722 -0.0028969284195930999 0 -0.02780961147022401 -0.002773311687560405 0 -0.027634744628599245 -0.0023568793175343015 0 -0.027620412605762722 -0.0028969284195930999 0 -0.027634744628599245 -0.0023568793175343015 0 -0.027235270801945349 -0.0022974917989308521 0 -0.034997873144265411 1.784445484302564e-07 0 -0.032223943245289259 -0.00089024351752621121 0 -0.034999994172961076 4.6615599382135102e-09 0 -0.034997244201849902 -1.006093648099133e-06 0 -0.034999990956041616 -7.0075352572664075e-09 0 -0.032223943245289259 -0.00089024351752621121 0 -0.034012305369687766 -0.0005110417265730636 0 -0.031531700054303953 -0.0014565942766596258 0 -0.034012305369687766 -0.0005110417265730636 0 -0.032223943245289259 -0.00089024351752621121 0 -0.031531700054303953 -0.0014565942766596258 0 -0.032882403488916842 -0.00060492890600289057 0 -0.032537642006804472 -0.00082999835084077752 0 -0.032603326913278032 -0.000538673136038386 0 -0.034997244201849902 -1.006093648099133e-06 0 -0.034999990956041616 -7.0075352572664075e-09 0 -0.03499842038577413 -1.3765562469793553e-06 0 -0.034994999077461154 -8.4293808098113793e-07 0 -0.034012305369687766 -0.0005110417265730636 0 -0.029549572934551179 -0.0015273038443346996 0 -0.030071891626776846 -0.0010099601769290069 0 -0.03045748766963784 -0.0013305034240462703 0 -0.031531700054303953 -0.0014565942766596258 0 -0.032733595459794006 -0.00051977444072292699 0 -0.034999994811998864 -1.35147444106935e-09 0 -0.034999320970741765 -5.7621523637220606e-07 0 -0.035000000289293016 -8.8513058320835889e-10 0 -0.035036196006081079 -7.2558715305003237e-05 0 -0.034999698402831597 1.3382208726932542e-07 0 -0.034491246774749372 -5.0082005530949077e-05 0 -0.034012305369687766 -0.0005110417265730636 0 -0.034999690123434159 -7.3502091620520719e-07 0 -0.035036196006081079 -7.2558715305003237e-05 0 -0.035046652179481608 -2.851346389999545e-05 0 -0.034999698402831597 1.3382208726932542e-07 0 -0.030071891626776846 -0.0010099601769290069 0 -0.029665671609181821 -0.00094002918896801126 0 -0.029159874908145006 -0.0010602355383591854 0 -0.031531700054303953 -0.0014565942766596258 0 -0.02844612416869045 -0.0016328213645180492 0 -0.029549572934551179 -0.0015273038443346996 0 -0.030071891626776846 -0.0010099601769290069 0 -0.029665671609181821 -0.00094002918896801126 0 -0.02801886780241206 -0.0019548737960946969 0 -0.027634744628599245 -0.0023568793175343015 0 -0.027490584797174981 -0.0018249561511871622 0 -0.02780961147022401 -0.002773311687560405 0 -0.02801886780241206 -0.0019548737960946969 0 -0.027634744628599245 -0.0023568793175343015 0 -0.027634744628599245 -0.0023568793175343015 0 -0.027490584797174981 -0.0018249561511871622 0 -0.027235270801945349 -0.0022974917989308521 0 -0.027490584797174981 -0.0018249561511871622 0 -0.028365613397802199 -0.00098495478835336275 0 -0.027205170629003118 -0.0013285776931988575 0 -0.02844612416869045 -0.0016328213645180492 0 -0.028584322878395067 -0.00083949599606890628 0 -0.02801886780241206 -0.0019548737960946969 0 -0.027490584797174981 -0.0018249561511871622 0 -0.028365613397802199 -0.00098495478835336275 0 -0.029665671609181821 -0.00094002918896801126 0 -0.029159874908145006 -0.0010602355383591854 0 -0.028365613397802199 -0.00098495478835336275 0 -0.027172910067724251 -0.00059435845711863983 0 -0.028365613397802199 -0.00098495478835336275 0 -0.027205170629003118 -0.0013285776931988575 0 -0.027172910067724251 -0.00059435845711863983 0 -0.027205170629003118 -0.0013285776931988575 0 -0.026869895167314146 -0.00088391224028450555 0 -0.026869895167314146 -0.00088391224028450555 0 -0.026546411721658558 -0.0012037588447528903 0 -0.02646292419541324 -0.00063316774195014316 0 -0.027205170629003118 -0.0013285776931988575 0 -0.026869895167314146 -0.00088391224028450555 0 -0.026546411721658558 -0.0012037588447528903 0 -0.026546411721658558 -0.0012037588447528903 0 -0.025983572712935589 -0.00092386166170795405 0 -0.02646292419541324 -0.00063316774195014316 0 -0.026546411721658558 -0.0012037588447528903 0 -0.025924922967665975 -0.0016656821862627896 0 -0.025983572712935589 -0.00092386166170795405 0 -0.026546411721658558 -0.0012037588447528903 0 -0.026784843968714098 -0.001810092827535934 0 -0.025924922967665975 -0.0016656821862627896 0 -0.027490584797174981 -0.0018249561511871622 0 -0.027205170629003118 -0.0013285776931988575 0 -0.026784843968714098 -0.001810092827535934 0 -0.027205170629003118 -0.0013285776931988575 0 -0.026546411721658558 -0.0012037588447528903 0 -0.026784843968714098 -0.001810092827535934 0 -0.026784843968714098 -0.001810092827535934 0 -0.027235270801945349 -0.0022974917989308521 0 -0.026643090985174662 -0.0026389581396141387 0 -0.027490584797174981 -0.0018249561511871622 0 -0.026784843968714098 -0.001810092827535934 0 -0.027235270801945349 -0.0022974917989308521 0 -0.026784843968714098 -0.001810092827535934 0 -0.026643090985174662 -0.0026389581396141387 0 -0.025924922967665975 -0.0016656821862627896 0 -0.034999963730335461 6.0063279115504031e-09 0 -0.034985197321724538 -1.284566249276238e-06 0 -0.034973684226758547 4.03297065496758e-06 0 -0.032223943245289259 -0.00089024351752621121 0 -0.030609791198919534 -0.0013741135355331581 0 -0.027620412605762722 -0.0028969284195930999 0 -0.027235270801945349 -0.0022974917989308521 0 -0.026643090985174662 -0.0026389581396141387 0 -0.034999932375862616 -2.0645624240576592e-08 0 -0.034994728789015918 -2.434053966006724e-06 0 -0.034985197321724538 -1.284566249276238e-06 0 -0.034999932375862616 -2.0645624240576592e-08 0 -0.034999963730335461 6.0063279115504031e-09 0 -0.034985197321724538 -1.284566249276238e-06 0 -0.034999936615225408 -1.0003905742633843e-08 0 -0.034973684226758547 4.03297065496758e-06 0 -0.034975214572341456 3.2552917778285827e-05 0 -0.030609791198919534 -0.0013741135355331581 0 -0.030466596239198274 -0.0012052991569700864 0 -0.034999963730335461 6.0063279115504031e-09 0 -0.034999936615225408 -1.0003905742633843e-08 0 -0.034973684226758547 4.03297065496758e-06 0 -0.026643090985174662 -0.0026389581396141387 0 -0.025736213665255844 -0.0023850066005033132 0 -0.025924922967665975 -0.0016656821862627896 0 -0.030466596239198274 -0.0012052991569700864 0 -0.029604045428001647 -0.00096618614820250632 0 -0.025736213665255844 -0.0023850066005033132 0 -0.025314438934286348 -0.0016541964303492566 0 -0.024857928346915369 -0.0021482780996006749 0 -0.025736213665255844 -0.0023850066005033132 0 -0.025314438934286348 -0.0016541964303492566 0 -0.025924922967665975 -0.0016656821862627896 0 -0.025314438934286348 -0.0016541964303492566 0 -0.025924922967665975 -0.0016656821862627896 0 -0.025380497415803324 -0.0010818139962009581 0 -0.025924922967665975 -0.0016656821862627896 0 -0.025983572712935589 -0.00092386166170795405 0 -0.025380497415803324 -0.0010818139962009581 0 -0.025314438934286348 -0.0016541964303492566 0 -0.025380497415803324 -0.0010818139962009581 0 -0.024735301410259855 -0.0012149006877234354 0 -0.025576514919234676 -0.00055753495151587243 0 -0.025175310432238987 -0.00021575896685882228 0 -0.024848510857318349 -0.00060345642104015743 0 -0.025380497415803324 -0.0010818139962009581 0 -0.025576514919234676 -0.00055753495151587243 0 -0.024848510857318349 -0.00060345642104015743 0 -0.025576514919234676 -0.00055753495151587243 0 -0.025175310432238987 -0.00021575896685882228 0 -0.025635129527011514 -4.6398807949462967e-05 0 -0.025175310432238987 -0.00021575896685882228 0 -0.025635129527011514 -4.6398807949462967e-05 0 -0.025153581940036886 0.00018212069156888064 0 -0.025576514919234676 -0.00055753495151587243 0 -0.025635129527011514 -4.6398807949462967e-05 0 -0.025998860005827833 -0.00041632871778389736 0 -0.026032962208602704 -6.2827840137838787e-05 0 -0.025635129527011514 -4.6398807949462967e-05 0 -0.025998822097518071 0.00030511768847265989 0 -0.026032962208602704 -6.2827840137838787e-05 0 -0.025635129527011514 -4.6398807949462967e-05 0 -0.025998860005827833 -0.00041632871778389736 0 -0.025983572712935589 -0.00092386166170795405 0 -0.025380497415803324 -0.0010818139962009581 0 -0.025576514919234676 -0.00055753495151587243 0 -0.025983572712935589 -0.00092386166170795405 0 -0.025576514919234676 -0.00055753495151587243 0 -0.025998860005827833 -0.00041632871778389736 0 -0.025983572712935589 -0.00092386166170795405 0 -0.025998860005827833 -0.00041632871778389736 0 -0.02646292419541324 -0.00063316774195014316 0 -0.02646292419541324 -0.00063316774195014316 0 -0.026541912496465828 -0.0003941457581418138 0 -0.026306961937280004 -0.00034735437442862073 0 -0.02646292419541324 -0.00063316774195014316 0 -0.026541912496465828 -0.0003941457581418138 0 -0.026765805314229243 -0.00055199393281561563 0 -0.025998860005827833 -0.00041632871778389736 0 -0.02646292419541324 -0.00063316774195014316 0 -0.026306961937280004 -0.00034735437442862073 0 -0.027172910067724251 -0.00059435845711863983 0 -0.026869895167314146 -0.00088391224028450555 0 -0.026765805314229243 -0.00055199393281561563 0 -0.027033468003715116 -0.00059048285128510353 0 -0.025761160700047643 4.3982208443362865e-05 0 -0.027172910067724251 -0.00059435845711863983 0 -0.026765805314229243 -0.00055199393281561563 0 -0.026663320811893106 -0.00020146168657021537 0 -0.026869895167314146 -0.00088391224028450555 0 -0.02646292419541324 -0.00063316774195014316 0 -0.026765805314229243 -0.00055199393281561563 0 -0.027172910067724251 -0.00059435845711863983 0 -0.024860777839821525 0.00015699064825909514 0 -0.025035632573236998 0.00016974125113592437 0 -0.026541912496465828 -0.0003941457581418138 0 -0.026765805314229243 -0.00055199393281561563 0 -0.026663320811893106 -0.00020146168657021537 0 -0.025035632573236998 0.00016974125113592437 0 -0.024633959996251113 0.00013774746374591872 0 -0.024260376666155846 0.00011374420709411318 0 -0.024860777839821525 0.00015699064825909514 0 -0.024633959996251113 0.00013774746374591872 0 -0.024581910609645527 9.0523165233445809e-05 0 -0.024860777839821525 0.00015699064825909514 0 -0.025035632573236998 0.00016974125113592437 0 -0.024633959996251113 0.00013774746374591872 0 -0.026663320811893106 -0.00020146168657021537 0 -0.026309790442734279 -0.0001445264067100456 0 -0.025998822097518071 0.00030511768847265989 0 -0.024860777839821525 0.00015699064825909514 0 -0.024581910609645527 9.0523165233445809e-05 0 -0.024262610874732544 -1.2445046028105683e-05 0 -0.025761160700047643 4.3982208443362865e-05 0 -0.025125306217686629 -0.00021291787718079726 0 -0.026032962208602704 -6.2827840137838787e-05 0 -0.026306961937280004 -0.00034735437442862073 0 -0.026309790442734279 -0.0001445264067100456 0 -0.026032962208602704 -6.2827840137838787e-05 0 -0.025998860005827833 -0.00041632871778389736 0 -0.026306961937280004 -0.00034735437442862073 0 -0.026541912496465828 -0.0003941457581418138 0 -0.026306961937280004 -0.00034735437442862073 0 -0.026309790442734279 -0.0001445264067100456 0 -0.026541912496465828 -0.0003941457581418138 0 -0.026663320811893106 -0.00020146168657021537 0 -0.026309790442734279 -0.0001445264067100456 0 -0.026032962208602704 -6.2827840137838787e-05 0 -0.026309790442734279 -0.0001445264067100456 0 -0.025998822097518071 0.00030511768847265989 0 -0.024459948119371352 -3.0286380615016166e-05 0 -0.024408795793516867 -5.3952301894788615e-05 0 -0.024468033444497151 -9.1468789321761759e-06 0 -0.024581910609645527 9.0523165233445809e-05 0 -0.024459948119371352 -3.0286380615016166e-05 0 -0.024468033444497151 -9.1468789321761759e-06 0 -0.024329599020920068 0.00011030741789251715 0 -0.025125306217686629 -0.00021291787718079726 0 -0.024581910609645527 9.0523165233445809e-05 0 -0.024459948119371352 -3.0286380615016166e-05 0 -0.024456989114194895 2.5130984754696276e-05 0 -0.024130281723046376 0.00017548253378668851 0 -0.023815186942384096 -7.6847927103932393e-05 0 -0.024926489295706584 0.00036278690923631583 0 -0.024931313702810504 0.00010134453589562784 0 -0.024260376666155846 0.00011374420709411318 0 -0.024456989114194895 2.5130984754696276e-05 0 -0.024376956462313928 -0.00010141279002019936 0 -0.022987763567786729 5.958690614747339e-05 0 -0.025035632573236998 0.00016974125113592437 0 -0.024260376666155846 0.00011374420709411318 0 -0.022987763567786729 5.958690614747339e-05 0 -0.024260376666155846 0.00011374420709411318 0 -0.023184222725116492 -0.0001346497469188514 0 -0.024633959996251113 0.00013774746374591872 0 -0.024260376666155846 0.00011374420709411318 0 -0.024456989114194895 2.5130984754696276e-05 0 -0.024633959996251113 0.00013774746374591872 0 -0.024581910609645527 9.0523165233445809e-05 0 -0.024456989114194895 2.5130984754696276e-05 0 -0.024459948119371352 -3.0286380615016166e-05 0 -0.024456989114194895 2.5130984754696276e-05 0 -0.024376956462313928 -0.00010141279002019936 0 -0.024459948119371352 -3.0286380615016166e-05 0 -0.024376956462313928 -0.00010141279002019936 0 -0.024359559375837902 -0.0001012451508945703 0 -0.024459948119371352 -3.0286380615016166e-05 0 -0.024408795793516867 -5.3952301894788615e-05 0 -0.024359559375837902 -0.0001012451508945703 0 -0.024408795793516867 -5.3952301894788615e-05 0 -0.024359559375837902 -0.0001012451508945703 0 -0.024356394587315037 -8.841789895906595e-05 0 -0.024408795793516867 -5.3952301894788615e-05 0 -0.024383258418653131 -7.2232309329355488e-05 0 -0.024356394587315037 -8.841789895906595e-05 0 -0.024408795793516867 -5.3952301894788615e-05 0 -0.024417176571470075 -5.1067860223977456e-05 0 -0.024468033444497151 -9.1468789321761759e-06 0 -0.024417176571470075 -5.1067860223977456e-05 0 -0.024394770225526417 -5.8330566345834188e-05 0 -0.024468033444497151 -9.1468789321761759e-06 0 -0.024408795793516867 -5.3952301894788615e-05 0 -0.024383258418653131 -7.2232309329355488e-05 0 -0.024417176571470075 -5.1067860223977456e-05 0 -0.024383258418653131 -7.2232309329355488e-05 0 -0.024417176571470075 -5.1067860223977456e-05 0 -0.024414637270165365 -8.4068694209765894e-05 0 -0.024417176571470075 -5.1067860223977456e-05 0 -0.024394770225526417 -5.8330566345834188e-05 0 -0.024414637270165365 -8.4068694209765894e-05 0 -0.017617168916842663 -0.00075333791613440009 0 -0.016252063840055512 0.00022088635910443106 0 -0.019248171661334336 0.001094654556937347 0 -0.020443057904629875 0.00021485017368491507 0 -0.019468472896546837 -0.00010465086207638041 0 -0.020443057904629875 0.00021485017368491507 0 -0.013263157898636338 0.00071728763690432197 0 -0.021200409959188631 0.0017065439339032647 0 -0.022651939739247503 -0.00028655065995479692 0 -0.020164986991336436 0.00052867875734124775 0 -0.020443057904629875 0.00021485017368491507 0 -0.018471749386855675 0.00090337420506008705 0 -0.021200409959188631 0.0017065439339032647 0 -0.022651939739247503 -0.00028655065995479692 0 -0.025134372138595883 -0.0010994217940655359 0 -0.02469150318780754 -0.00015566185861007117 0 -0.018471749386855675 0.00090337420506008705 0 -0.025506575344805198 0.00046448394253729487 0 -0.025153581940036886 0.00018212069156888064 0 -0.024997471042397874 0.00061794825780599812 0 -0.025635129527011514 -4.6398807949462967e-05 0 -0.025506575344805198 0.00046448394253729487 0 -0.025153581940036886 0.00018212069156888064 0 -0.020443057904629875 0.00021485017368491507 0 -0.025125306217686629 -0.00021291787718079726 0 -0.025635129527011514 -4.6398807949462967e-05 0 -0.025506575344805198 0.00046448394253729487 0 -0.025998822097518071 0.00030511768847265989 0 -0.02469150318780754 -0.00015566185861007117 0 -0.025125306217686629 -0.00021291787718079726 0 -0.012260157904092715 0.0012415144198734999 0 -0.012438460309671341 0.0016040784307178543 0 -0.012041350164079393 0.0014998284186753166 0 -0.012260157904092715 0.0012415144198734999 0 -0.011823197941589899 0.0011161530348580541 0 -0.012041350164079393 0.0014998284186753166 0 -0.025153581940036886 0.00018212069156888064 0 -0.024997471042397874 0.00061794825780599812 0 -0.024508962446523376 1.4459634720951948e-05 0 -0.018471749386855675 0.00090337420506008705 0 -0.01824485735091701 0.00073916245148758595 0 -0.016555592013457066 -0.00062333749289953267 0 -0.015852230553722192 0.0020487702820757444 0 -0.011951734812779549 0.00089304962788660776 0 -0.018471749386855675 0.00090337420506008705 0 -0.011620525586204808 0.0010412981329962158 0 -0.013263157898636338 0.00071728763690432197 0 -0.011620525586204808 0.0010412981329962158 0 -0.017728065255951456 0.00071093166206760846 0 -0.016555592013457066 -0.00062333749289953267 0 -0.015852230553722192 0.0020487702820757444 0 -0.011107276944149088 0.00072112388591283295 0 -0.01171859641050637 0.00092554068395166254 0 -0.011503546992702809 0.0004211938893792065 0 -0.012260157904092715 0.0012415144198734999 0 -0.011823197941589899 0.0011161530348580541 0 -0.012206911285485346 0.0009532579673204748 0 -0.012260157904092715 0.0012415144198734999 0 -0.012206911285485346 0.0009532579673204748 0 -0.012442502803840664 0.00096393190631207163 0 -0.012159231375613344 0.00088400526646389857 0 -0.012431417226253905 0.00070453980689665335 0 -0.012442502803840664 0.00096393190631207163 0 -0.011620525586204808 0.0010412981329962158 0 -0.012521934802390333 0.0006816558641418839 0 -0.01171859641050637 0.00092554068395166254 0 -0.012431417226253905 0.00070453980689665335 0 -0.011950112295791904 0.0004931914335848871 0 -0.012431417226253905 0.00070453980689665335 0 -0.012442502803840664 0.00096393190631207163 0 -0.012672885009033508 0.00090286797427608951 0 -0.011620525586204808 0.0010412981329962158 0 -0.012542386747931402 0.0010327748909336985 0 -0.013059386245976764 0.0010114078898782225 0 -0.01313593491666647 0.00077807775884544195 0 -0.012733740438363556 0.00056815793899127462 0 -0.012672885009033508 0.00090286797427608951 0 -0.013059386245976764 0.0010114078898782225 0 -0.012733740438363556 0.00056815793899127462 0 -0.012431417226253905 0.00070453980689665335 0 -0.012672885009033508 0.00090286797427608951 0 -0.012733740438363556 0.00056815793899127462 0 -0.013059386245976764 0.0010114078898782225 0 -0.012722363470505808 0.0012634909866107037 0 -0.013485416642837587 0.0013897311265065357 0 -0.012672885009033508 0.00090286797427608951 0 -0.013059386245976764 0.0010114078898782225 0 -0.012722363470505808 0.0012634909866107037 0 -0.012260157904092715 0.0012415144198734999 0 -0.012722363470505808 0.0012634909866107037 0 -0.012438460309671341 0.0016040784307178543 0 -0.012260157904092715 0.0012415144198734999 0 -0.012442502803840664 0.00096393190631207163 0 -0.012722363470505808 0.0012634909866107037 0 -0.012442502803840664 0.00096393190631207163 0 -0.012672885009033508 0.00090286797427608951 0 -0.012722363470505808 0.0012634909866107037 0 -0.012722363470505808 0.0012634909866107037 0 -0.012438460309671341 0.0016040784307178543 0 -0.012900110336376999 0.0019329149730345336 0 -0.012438460309671341 0.0016040784307178543 0 -0.012900110336376999 0.0019329149730345336 0 -0.012382721726026984 0.0021685954854522463 0 -0.012722363470505808 0.0012634909866107037 0 -0.012900110336376999 0.0019329149730345336 0 -0.013485416642837587 0.0013897311265065357 0 -0.012900110336376999 0.0019329149730345336 0 -0.013500240947757808 0.0022914097436801733 0 -0.013485416642837587 0.0013897311265065357 0 -0.012900110336376999 0.0019329149730345336 0 -0.013500240947757808 0.0022914097436801733 0 -0.013024761253921978 0.0030248412069067763 0 -0.018355315075794479 0.00090996790182261064 0 -0.017565036807215446 0.00060605191490311467 0 -0.012900110336376999 0.0019329149730345336 0 -0.012382721726026984 0.0021685954854522463 0 -0.013024761253921978 0.0030248412069067763 0 -0.024038268276596587 -0.00056337583107124532 0 -0.024848510857318349 -0.00060345642104015743 0 -0.024735301410259855 -0.0012149006877234354 0 -0.018355315075794479 0.00090996790182261064 0 -0.01824485735091701 0.00073916245148758595 0 -0.024038268276596587 -0.00056337583107124532 0 -0.024508962446523376 1.4459634720951948e-05 0 -0.024848510857318349 -0.00060345642104015743 0 -0.012438460309671341 0.0016040784307178543 0 -0.012382721726026984 0.0021685954854522463 0 -0.012041350164079393 0.0014998284186753166 0 -0.025175310432238987 -0.00021575896685882228 0 -0.024508962446523376 1.4459634720951948e-05 0 -0.024848510857318349 -0.00060345642104015743 0 -0.025175310432238987 -0.00021575896685882228 0 -0.025153581940036886 0.00018212069156888064 0 -0.024508962446523376 1.4459634720951948e-05 0 -0.025380497415803324 -0.0010818139962009581 0 -0.024848510857318349 -0.00060345642104015743 0 -0.024735301410259855 -0.0012149006877234354 0 -0.024038268276596587 -0.00056337583107124532 0 -0.024735301410259855 -0.0012149006877234354 0 -0.024161665705528457 -0.0013680381126643687 0 -0.024161665705528457 -0.0013680381126643687 0 -0.024857928346915369 -0.0021482780996006749 0 -0.023984227675795871 -0.0019169719191607184 0 -0.024735301410259855 -0.0012149006877234354 0 -0.024161665705528457 -0.0013680381126643687 0 -0.024857928346915369 -0.0021482780996006749 0 -0.025314438934286348 -0.0016541964303492566 0 -0.024735301410259855 -0.0012149006877234354 0 -0.024857928346915369 -0.0021482780996006749 0 -0.029604045428001647 -0.00096618614820250632 0 -0.030778657153360936 -0.0013234211917515244 0 -0.034975214572341456 3.2552917778285827e-05 0 -0.03497306442482423 4.0379016941488069e-05 0 -0.034945994058826611 0.00014014765800917311 0 -0.034975214572341456 3.2552917778285827e-05 0 -0.035000064900941687 9.6574977418594893e-08 0 -0.03497306442482423 4.0379016941488069e-05 0 -0.034999936615225408 -1.0003905742633843e-08 0 -0.034975214572341456 3.2552917778285827e-05 0 -0.035000064900941687 9.6574977418594893e-08 0 -0.035012174144930137 4.6344448128954553e-05 0 -0.034923171939927181 6.0697920132511063e-05 0 -0.034744568124099512 8.6536077311523068e-05 0 -0.034954616503409579 -3.8393024025712175e-05 0 -0.034469687410715003 0.0011995538584509977 0 -0.03371280434539467 0.00011413291913593789 0 -0.034795679073897842 0.00040746840947817638 0 -0.035123659602444339 -0.00015242019547911267 0 -0.034999595381995416 -1.2093557468732926e-07 0 -0.034954616503409579 -3.8393024025712175e-05 0 -0.034994468658620062 -7.5011076377604752e-06 0 -0.034954616503409579 -3.8393024025712175e-05 0 -0.035012174144930137 4.6344448128954553e-05 0 -0.034469687410715003 0.0011995538584509977 0 -0.034806368848095189 -2.2319967294026603e-05 0 -0.034508919673548646 1.5443927953147666e-05 0 -0.034999595381995416 -1.2093557468732926e-07 0 -0.034954616503409579 -3.8393024025712175e-05 0 -0.035012174144930137 4.6344448128954553e-05 0 -0.035012174144930137 4.6344448128954553e-05 0 -0.03497306442482423 4.0379016941488069e-05 0 -0.034923171939927181 6.0697920132511063e-05 0 -0.035000064900941687 9.6574977418594893e-08 0 -0.034999595381995416 -1.2093557468732926e-07 0 -0.035012174144930137 4.6344448128954553e-05 0 -0.035000064900941687 9.6574977418594893e-08 0 -0.035012174144930137 4.6344448128954553e-05 0 -0.03497306442482423 4.0379016941488069e-05 0 -0.034923171939927181 6.0697920132511063e-05 0 -0.034945994058826611 0.00014014765800917311 0 -0.034744568124099512 8.6536077311523068e-05 0 -0.03497306442482423 4.0379016941488069e-05 0 -0.034923171939927181 6.0697920132511063e-05 0 -0.034945994058826611 0.00014014765800917311 0 -0.035123659602444339 -0.00015242019547911267 0 -0.023137070711035514 0.001563373693187957 0 -0.034945994058826611 0.00014014765800917311 0 -0.034744568124099512 8.6536077311523068e-05 0 -0.034533371277575393 0.00031565106325644426 0 -0.023984227675795871 -0.0019169719191607184 0 -0.023574623269133961 -0.0011236700031100283 0 -0.023098038095953812 -0.0016744757795610335 0 -0.030778657153360936 -0.0013234211917515244 0 -0.023137070711035514 0.001563373693187957 0 -0.013024761253921978 0.0030248412069067763 0 -0.013700218087463875 0.0032543606105855352 0 -0.013822585700562892 0.0038752117756988085 0 -0.017565036807215446 0.00060605191490311467 0 -0.023137070711035514 0.001563373693187957 0 -0.024161665705528457 -0.0013680381126643687 0 -0.023984227675795871 -0.0019169719191607184 0 -0.023574623269133961 -0.0011236700031100283 0 -0.024038268276596587 -0.00056337583107124532 0 -0.024161665705528457 -0.0013680381126643687 0 -0.023574623269133961 -0.0011236700031100283 0 -0.013500240947757808 0.0022914097436801733 0 -0.013024761253921978 0.0030248412069067763 0 -0.013689453443154954 0.0028712366528254223 0 -0.013024761253921978 0.0030248412069067763 0 -0.013689453443154954 0.0028712366528254223 0 -0.013700218087463875 0.0032543606105855352 0 -0.013689453443154954 0.0028712366528254223 0 -0.014170300262140391 0.0030858285051280406 0 -0.014018748330092715 0.002497328947470102 0 -0.015214315695979681 0.0026997477332082031 0 -0.015288013244578834 0.0027504296967347302 0 -0.015130235821585928 0.0025755131372855343 0 -0.015214315695979681 0.0026997477332082031 0 -0.015288013244578834 0.0027504296967347302 0 -0.015297946532603177 0.0028501539875326297 0 -0.013689453443154954 0.0028712366528254223 0 -0.014170300262140391 0.0030858285051280406 0 -0.013700218087463875 0.0032543606105855352 0 -0.015214315695979681 0.0026997477332082031 0 -0.015130235821585928 0.0025755131372855343 0 -0.014795866403141532 0.0021840435250432043 0 -0.024861177611625991 0.00087049295231287347 0 -0.02428193325607365 0.0013987076423326507 0 -0.015556988300162052 0.0025776533364185667 0 -0.015402416223167386 0.0027799231096035681 0 -0.015436374612522272 0.0028941689326740087 0 -0.015556988300162052 0.0025776533364185667 0 -0.015130235821585928 0.0025755131372855343 0 -0.015402416223167386 0.0027799231096035681 0 -0.015288013244578834 0.0027504296967347302 0 -0.015130235821585928 0.0025755131372855343 0 -0.015402416223167386 0.0027799231096035681 0 -0.015288013244578834 0.0027504296967347302 0 -0.015402416223167386 0.0027799231096035681 0 -0.015371568856843652 0.0028243480688992396 0 -0.015497601347218172 0.0029137629146222441 0 -0.015436374612522272 0.0028941689326740087 0 -0.01619219415263581 0.002803561215142416 0 -0.033679181251070271 -0.00032649379651616831 0 -0.0335510617074311 -0.00017340888116150008 0 -0.033774517353719495 -0.00019802108854505063 0 -0.015402416223167386 0.0027799231096035681 0 -0.015497601347218172 0.0029137629146222441 0 -0.015436374612522272 0.0028941689326740087 0 -0.015497601347218172 0.0029137629146222441 0 -0.015371568856843652 0.0028243480688992396 0 -0.015297946532603177 0.0028501539875326297 0 -0.015402416223167386 0.0027799231096035681 0 -0.015497601347218172 0.0029137629146222441 0 -0.015371568856843652 0.0028243480688992396 0 -0.013026698635489501 0.0035028638705383586 0 -0.023137070711035514 0.001563373693187957 0 -0.013845305299328817 0.0036749236273485846 0 -0.023137070711035514 0.001563373693187957 0 -0.015497601347218172 0.0029137629146222441 0 -0.015203728563206648 0.0029647471737673961 0 -0.015297946532603177 0.0028501539875326297 0 -0.014170300262140391 0.0030858285051280406 0 -0.013700218087463875 0.0032543606105855352 0 -0.013822585700562892 0.0038752117756988085 0 -0.015214315695979681 0.0026997477332082031 0 -0.015203728563206648 0.0029647471737673961 0 -0.015297946532603177 0.0028501539875326297 0 -0.015288013244578834 0.0027504296967347302 0 -0.015371568856843652 0.0028243480688992396 0 -0.015297946532603177 0.0028501539875326297 0 -0.023137070711035514 0.001563373693187957 0 -0.02728575320624561 0.0014103032051629861 0 -0.033761348685467311 0.0024212552643903115 0 -0.033455573551494977 0.0012239352564974641 0 -0.032454685576357785 0.00087408421391117286 0 -0.034469687410715003 0.0011995538584509977 0 -0.033761348685467311 0.0024212552643903115 0 -0.033455573551494977 0.0012239352564974641 0 -0.0335510617074311 -0.00017340888116150008 0 -0.033434532121705461 0.00017415975216527498 0 -0.033681310053655648 5.0838040707097764e-05 0 -0.015436374612522272 0.0028941689326740087 0 -0.01619219415263581 0.002803561215142416 0 -0.015676415187501107 0.0020999670456708364 0 -0.02428193325607365 0.0013987076423326507 0 -0.02728575320624561 0.0014103032051629861 0 -0.033434532121705461 0.00017415975216527498 0 -0.033524428821221509 0.000278216164165628 0 -0.033681310053655648 5.0838040707097764e-05 0 -0.033455573551494977 0.0012239352564974641 0 -0.032454685576357785 0.00087408421391117286 0 -0.032537755417879483 0.00034570731784408054 0 -0.02728575320624561 0.0014103032051629861 0 -0.032731019371561185 0.00022111398034774902 0 -0.02728575320624561 0.0014103032051629861 0 -0.033299223589433422 0.00076978610404537318 0 -0.030488576486469975 0.00076747182479072393 0 -0.030445407130674389 0.0011589621433117426 0 -0.030779300329467157 0.0010863309691226182 0 -0.032731019371561185 0.00022111398034774902 0 -0.033299223589433422 0.00076978610404537318 0 -0.033299223589433422 0.00076978610404537318 0 -0.034999707071190558 6.0332106824177908e-07 0 -0.034992797303798305 4.0830828518693697e-06 0 -0.034999987240274158 5.2679448485794176e-09 0 -0.034999992252611127 5.8835653812158296e-10 0 -0.032731019371561185 0.00022111398034774902 0 -0.034998023300347125 -2.4947274884302647e-07 0 -0.034993441152853286 3.7333282748220067e-06 0 -0.034992797303798305 4.0830828518693697e-06 0 -0.034999987240274158 5.2679448485794176e-09 0 -0.032731019371561185 0.00022111398034774902 0 -0.034508919673548646 1.5443927953147666e-05 0 -0.03499293389273031 -2.041825296234291e-06 0 -0.03500016202966931 3.9164279579025561e-08 0 -0.034994468658620062 -7.5011076377604752e-06 0 -0.034999595381995416 -1.2093557468732926e-07 0 -0.03500016202966931 3.9164279579025561e-08 0 -0.034994468658620062 -7.5011076377604752e-06 0 -0.034469687410715003 0.0011995538584509977 0 -0.033455573551494977 0.0012239352564974641 0 -0.03371280434539467 0.00011413291913593789 0 -0.033455573551494977 0.0012239352564974641 0 -0.032537755417879483 0.00034570731784408054 0 -0.03371280434539467 0.00011413291913593789 0 -0.034999422942357757 -1.0654109281583719e-07 0 -0.034981835869600172 2.9741263707644949e-05 0 -0.035000260555175876 9.2365101806543557e-08 0 -0.034576753103992129 2.3660328006414812e-05 0 -0.034999422942357757 -1.0654109281583719e-07 0 -0.034981835869600172 2.9741263707644949e-05 0 -0.033299223589433422 0.00076978610404537318 0 -0.034668347277219229 2.7198061523583851e-05 0 -0.035003009133351477 1.7872294927703801e-05 0 -0.034981835869600172 2.9741263707644949e-05 0 -0.035000260555175876 9.2365101806543557e-08 0 -0.033524428821221509 0.000278216164165628 0 -0.033920504861781449 0.00020158145549155563 0 -0.033681310053655648 5.0838040707097764e-05 0 -0.033920504861781449 0.00020158145549155563 0 -0.033681310053655648 5.0838040707097764e-05 0 -0.034059541100233709 -0.00013837248439003871 0 -0.033681310053655648 5.0838040707097764e-05 0 -0.034059541100233709 -0.00013837248439003871 0 -0.033774517353719495 -0.00019802108854505063 0 -0.034576753103992129 2.3660328006414812e-05 0 -0.033920504861781449 0.00020158145549155563 0 -0.034059541100233709 -0.00013837248439003871 0 -0.034487558091480117 6.4513235915996303e-05 0 -0.034668347277219229 2.7198061523583851e-05 0 -0.034208653292825172 -0.00028651764817637674 0 -0.034059541100233709 -0.00013837248439003871 0 -0.033887961426365319 -0.00032930740331153942 0 -0.034059541100233709 -0.00013837248439003871 0 -0.033774517353719495 -0.00019802108854505063 0 -0.033887961426365319 -0.00032930740331153942 0 -0.0335510617074311 -0.00017340888116150008 0 -0.033681310053655648 5.0838040707097764e-05 0 -0.033774517353719495 -0.00019802108854505063 0 -0.033679181251070271 -0.00032649379651616831 0 -0.033887961426365319 -0.00032930740331153942 0 -0.033826727273514941 -0.00033300051033015863 0 -0.033679181251070271 -0.00032649379651616831 0 -0.033774517353719495 -0.00019802108854505063 0 -0.033887961426365319 -0.00032930740331153942 0 -0.033892211512434045 -0.00043458451198409641 0 -0.034208653292825172 -0.00028651764817637674 0 -0.033887961426365319 -0.00032930740331153942 0 -0.033892211512434045 -0.00043458451198409641 0 -0.033887961426365319 -0.00032930740331153942 0 -0.033826727273514941 -0.00033300051033015863 0 -0.033892211512434045 -0.00043458451198409641 0 -0.033871089995526169 -0.0002229596087961358 0 -0.033826727273514941 -0.00033300051033015863 0 -0.033482283994337482 0.00029826518655291524 0 -0.033690359537215407 0.00056983456575425949 0 -0.033480414084684218 0.00073737860470255605 0 -0.033216512559609383 0.00056898046311861612 0 -0.033482283994337482 0.00029826518655291524 0 -0.033480414084684218 0.00073737860470255605 0 -0.033482283994337482 0.00029826518655291524 0 -0.033690359537215407 0.00056983456575425949 0 -0.033986384654145801 0.00044733714395831599 0 -0.033871089995526169 -0.0002229596087961358 0 -0.033746220448156027 -0.0003595903889340787 0 -0.033826727273514941 -0.00033300051033015863 0 -0.033746220448156027 -0.0003595903889340787 0 -0.033826727273514941 -0.00033300051033015863 0 -0.033728171803193867 -0.00034988724785117768 0 -0.034714788437498034 2.6239840569215226e-05 0 -0.028977357519428478 0.0011305072770791281 0 -0.028977357519428478 0.0011305072770791281 0 -0.02146212739068723 0.0015853612937627927 0 -0.033679181251070271 -0.00032649379651616831 0 -0.033826727273514941 -0.00033300051033015863 0 -0.033728171803193867 -0.00034988724785117768 0 -0.015556988300162052 0.0025776533364185667 0 -0.015130235821585928 0.0025755131372855343 0 -0.015866043879229831 0.0013890429381371605 0 -0.024861177611625991 0.00087049295231287347 0 -0.022074444758245462 0.0014675001151726909 0 -0.015130235821585928 0.0025755131372855343 0 -0.014795866403141532 0.0021840435250432043 0 -0.014939558755223752 0.0018980163833156804 0 -0.013442589930230215 0.0031780423700755811 0 -0.022074444758245462 0.0014675001151726909 0 -0.013845305299328817 0.0036749236273485846 0 -0.015074960444602452 0.0018563760439438339 0 -0.014795866403141532 0.0021840435250432043 0 -0.014939558755223752 0.0018980163833156804 0 -0.014319370678790265 0.0019644954105910162 0 -0.013500240947757808 0.0022914097436801733 0 -0.014018748330092715 0.002497328947470102 0 -0.014319370678790265 0.0019644954105910162 0 -0.014170300262140391 0.0030858285051280406 0 -0.014795866403141532 0.0021840435250432043 0 -0.014018748330092715 0.002497328947470102 0 -0.013500240947757808 0.0022914097436801733 0 -0.013689453443154954 0.0028712366528254223 0 -0.014018748330092715 0.002497328947470102 0 -0.014795866403141532 0.0021840435250432043 0 -0.014018748330092715 0.002497328947470102 0 -0.014319370678790265 0.0019644954105910162 0 -0.013500240947757808 0.0022914097436801733 0 -0.013485416642837587 0.0013897311265065357 0 -0.014319370678790265 0.0019644954105910162 0 -0.013485416642837587 0.0013897311265065357 0 -0.014319370678790265 0.0019644954105910162 0 -0.015011533930976291 0.0016086769441574665 0 -0.010638842083655703 0.0011096036034857065 0 -0.02146212739068723 0.0015853612937627927 0 -0.014939558755223752 0.0018980163833156804 0 -0.014319370678790265 0.0019644954105910162 0 -0.015011533930976291 0.0016086769441574665 0 -0.028977357519428478 0.0011305072770791281 0 -0.022074444758245462 0.0014675001151726909 0 -0.022074444758245462 0.0014675001151726909 0 -0.02146212739068723 0.0015853612937627927 0 -0.021650614021484112 0.0039775191595778645 0 -0.02359283923710306 0.00014007057458875606 0 -0.023045141451362102 0.0043062478694583968 0 -0.013485416642837587 0.0013897311265065357 0 -0.01394579901946226 0.0015500977080858736 0 -0.01374942136126543 0.0012618613240934396 0 -0.01394579901946226 0.0015500977080858736 0 -0.01374942136126543 0.0012618613240934396 0 -0.014062145325726787 0.001065775154427405 0 -0.01374942136126543 0.0012618613240934396 0 -0.013447690181971398 0.0010728853701036237 0 -0.013744052800571482 0.0010194627526992348 0 -0.01374942136126543 0.0012618613240934396 0 -0.013744052800571482 0.0010194627526992348 0 -0.014062145325726787 0.001065775154427405 0 -0.013485416642837587 0.0013897311265065357 0 -0.01374942136126543 0.0012618613240934396 0 -0.013447690181971398 0.0010728853701036237 0 -0.013059386245976764 0.0010114078898782225 0 -0.013485416642837587 0.0013897311265065357 0 -0.013447690181971398 0.0010728853701036237 0 -0.013059386245976764 0.0010114078898782225 0 -0.013447690181971398 0.0010728853701036237 0 -0.01313593491666647 0.00077807775884544195 0 -0.013447690181971398 0.0010728853701036237 0 -0.01313593491666647 0.00077807775884544195 0 -0.013526201932679865 0.00079026905176040143 0 -0.01313593491666647 0.00077807775884544195 0 -0.013526201932679865 0.00079026905176040143 0 -0.013159181438730403 0.00044024118022542835 0 -0.013526201932679865 0.00079026905176040143 0 -0.01400299001534026 0.00081916353213432481 0 -0.014216294233877307 0.00018731445470480731 0 -0.013744052800571482 0.0010194627526992348 0 -0.01400299001534026 0.00081916353213432481 0 -0.014062145325726787 0.001065775154427405 0 -0.013744052800571482 0.0010194627526992348 0 -0.013526201932679865 0.00079026905176040143 0 -0.01400299001534026 0.00081916353213432481 0 -0.013447690181971398 0.0010728853701036237 0 -0.013744052800571482 0.0010194627526992348 0 -0.013526201932679865 0.00079026905176040143 0 -0.01400299001534026 0.00081916353213432481 0 -0.014062145325726787 0.001065775154427405 0 -0.014377822123526323 0.00029940950639262211 0 -0.03253078106095926 0.002210744906869897 0 -0.032912887196862015 0.0018817082831462458 0 -0.032813477275927504 0.0014644589861252824 0 -0.023403228012156083 0.0018162524018325587 0 -0.024109706342968724 0.0006119801953546394 0 -0.032912887196862015 0.0018817082831462458 0 -0.032880455947682768 0.0023280660364017386 0 -0.033336560128048025 0.0016237649041059507 0 -0.03253078106095926 0.002210744906869897 0 -0.032912887196862015 0.0018817082831462458 0 -0.032880455947682768 0.0023280660364017386 0 -0.033470845196307372 0.0011237871521163963 0 -0.033800765774974505 0.00094843728398252792 0 -0.033336560128048025 0.0016237649041059507 0 -0.033793576113668074 0.0015284173179590692 0 -0.033232426853553286 0.0016930682301073625 0 -0.033272722688375875 0.0013368779885633529 0 -0.033470845196307372 0.0011237871521163963 0 -0.033336560128048025 0.0016237649041059507 0 -0.033069101838653969 0.0015162261988046041 0 -0.033272722688375875 0.0013368779885633529 0 -0.033336560128048025 0.0016237649041059507 0 -0.033232146806370107 0.0010700200821717966 0 -0.033272722688375875 0.0013368779885633529 0 -0.033470845196307372 0.0011237871521163963 0 -0.033470845196307372 0.0011237871521163963 0 -0.033480414084684218 0.00073737860470255605 0 -0.033800765774974505 0.00094843728398252792 0 -0.033232146806370107 0.0010700200821717966 0 -0.033470845196307372 0.0011237871521163963 0 -0.033480414084684218 0.00073737860470255605 0 -0.033690359537215407 0.00056983456575425949 0 -0.033480414084684218 0.00073737860470255605 0 -0.033800765774974505 0.00094843728398252792 0 -0.032361785147280983 0.0030277918816892339 0 -0.03253078106095926 0.002210744906869897 0 -0.032880455947682768 0.0023280660364017386 0 -0.02146212739068723 0.0015853612937627927 0 -0.023403228012156083 0.0018162524018325587 0 -0.032361785147280983 0.0030277918816892339 0 -0.032287224960260742 0.003010783938500509 0 -0.03253078106095926 0.002210744906869897 0 -0.033690359537215407 0.00056983456575425949 0 -0.033986384654145801 0.00044733714395831599 0 -0.033800765774974505 0.00094843728398252792 0 -0.028977357519428478 0.0011305072770791281 0 -0.033793576113668074 0.0015284173179590692 0 -0.013274581126669151 0.00030271291309061783 0 -0.013115934959765246 0.00016524286022867796 0 -0.013325754817208635 3.508068875578357e-05 0 -0.029581096999760435 0.0027625965089850242 0 -0.029965406932776863 0.0024465708931636389 0 -0.029894428617124404 0.0020151664710329076 0 -0.023469726281584835 0.0020418292639113769 0 -0.020531966209287204 0.001615463670897544 0 -0.029581096999760435 0.0027625965089850242 0 -0.029965406932776863 0.0024465708931636389 0 -0.029891752937916734 0.0027454552316028362 0 -0.029965406932776863 0.0024465708931636389 0 -0.030143672700347322 0.0025920426056080469 0 -0.029891752937916734 0.0027454552316028362 0 -0.029965406932776863 0.0024465708931636389 0 -0.030143672700347322 0.0025920426056080469 0 -0.030240358932013295 0.0023591409125402981 0 -0.030429174123612679 0.0025368413958135748 0 -0.030143672700347322 0.0025920426056080469 0 -0.030240358932013295 0.0023591409125402981 0 -0.030429174123612679 0.0025368413958135748 0 -0.030143672700347322 0.0025920426056080469 0 -0.030212295996481002 0.0028995977796838464 0 -0.030143672700347322 0.0025920426056080469 0 -0.029891752937916734 0.0027454552316028362 0 -0.030212295996481002 0.0028995977796838464 0 -0.033329552862625803 0.0016986634947048589 0 -0.033125881857374764 0.001611721071467332 0 -0.032813477275927504 0.0014644589861252824 0 -0.029891752937916734 0.0027454552316028362 0 -0.030212295996481002 0.0028995977796838464 0 -0.029530130517272612 0.0030076882196481206 0 -0.033054985291247264 0.0022195347442216925 0 -0.024109706342968724 0.0006119801953546394 0 -0.033069101838653969 0.0015162261988046041 0 -0.033329552862625803 0.0016986634947048589 0 -0.033336560128048025 0.0016237649041059507 0 -0.032912887196862015 0.0018817082831462458 0 -0.033125881857374764 0.001611721071467332 0 -0.033336560128048025 0.0016237649041059507 0 -0.033329552862625803 0.0016986634947048589 0 -0.033125881857374764 0.001611721071467332 0 -0.033336560128048025 0.0016237649041059507 0 -0.014183464303314278 0.00089164464313439711 0 -0.018663765387860649 0.0013121204115763931 0 -0.032912887196862015 0.0018817082831462458 0 -0.033125881857374764 0.001611721071467332 0 -0.032813477275927504 0.0014644589861252824 0 -0.01400299001534026 0.00081916353213432481 0 -0.014321464107518139 0.00030799031047829082 0 -0.014377822123526323 0.00029940950639262211 0 -0.029581096999760435 0.0027625965089850242 0 -0.029891752937916734 0.0027454552316028362 0 -0.029530130517272612 0.0030076882196481206 0 -0.023469726281584835 0.0020418292639113769 0 -0.024109706342968724 0.0006119801953546394 0 -0.013274581126669151 0.00030271291309061783 0 -0.013223738679998535 0.00036336560086573704 0 -0.013145488888437445 0.0003212100514935805 0 -0.021907796391303587 0.0025857206062597656 0 -0.022924967434663046 -0.00088512794850744716 0 -0.022329121529922967 -0.00076552318311672973 0 -0.023469726281584835 0.0020418292639113769 0 -0.018663765387860649 0.0013121204115763931 0 -0.018663765387860649 0.0013121204115763931 0 -0.024109706342968724 0.0006119801953546394 0 -0.013223738679998535 0.00036336560086573704 0 -0.013145488888437445 0.0003212100514935805 0 -0.013159181438730403 0.00044024118022542835 0 -0.018663765387860649 0.0013121204115763931 0 -0.01132784733584326 0.00047603194396431998 0 -0.013526201932679865 0.00079026905176040143 0 -0.014216294233877307 0.00018731445470480731 0 -0.013159181438730403 0.00044024118022542835 0 -0.013145488888437445 0.0003212100514935805 0 -0.013159181438730403 0.00044024118022542835 0 -0.013016973670913904 0.0002672740968684891 0 -0.013159181438730403 0.00044024118022542835 0 -0.012778790399755499 0.00024399228641127949 0 -0.012733740438363556 0.00056815793899127462 0 -0.01313593491666647 0.00077807775884544195 0 -0.013159181438730403 0.00044024118022542835 0 -0.012733740438363556 0.00056815793899127462 0 -0.013159181438730403 0.00044024118022542835 0 -0.012778790399755499 0.00024399228641127949 0 -0.013016973670913904 0.0002672740968684891 0 -0.012778790399755499 0.00024399228641127949 0 -0.012823491267056456 0.00011634895979806017 0 -0.012451276159411035 -4.2614093995109685e-05 0 -0.012778790399755499 0.00024399228641127949 0 -0.012823491267056456 0.00011634895979806017 0 -0.013016973670913904 0.0002672740968684891 0 -0.012823491267056456 0.00011634895979806017 0 -0.013016973670913904 0.0002672740968684891 0 -0.013115934959765246 0.00016524286022867796 0 -0.012823491267056456 0.00011634895979806017 0 -0.013115934959765246 0.00016524286022867796 0 -0.012853888458015376 -4.9969826971083797e-05 0 -0.013274581126669151 0.00030271291309061783 0 -0.013145488888437445 0.0003212100514935805 0 -0.013115934959765246 0.00016524286022867796 0 -0.013145488888437445 0.0003212100514935805 0 -0.013016973670913904 0.0002672740968684891 0 -0.013115934959765246 0.00016524286022867796 0 -0.013115934959765246 0.00016524286022867796 0 -0.012853888458015376 -4.9969826971083797e-05 0 -0.013325754817208635 3.508068875578357e-05 0 -0.012853888458015376 -4.9969826971083797e-05 0 -0.012921127234726796 -0.00030982238955581931 0 -0.013325754817208635 3.508068875578357e-05 0 -0.012853888458015376 -4.9969826971083797e-05 0 -0.012357371091888789 -0.00030136445893024139 0 -0.012921127234726796 -0.00030982238955581931 0 -0.012853888458015376 -4.9969826971083797e-05 0 -0.012451276159411035 -4.2614093995109685e-05 0 -0.012357371091888789 -0.00030136445893024139 0 -0.012823491267056456 0.00011634895979806017 0 -0.012853888458015376 -4.9969826971083797e-05 0 -0.012451276159411035 -4.2614093995109685e-05 0 -0.012357371091888789 -0.00030136445893024139 0 -0.012487181679693775 -0.0005167641231091693 0 -0.012921127234726796 -0.00030982238955581931 0 -0.012357371091888789 -0.00030136445893024139 0 -0.012487181679693775 -0.0005167641231091693 0 -0.012042316720603808 -0.00062568022858166129 0 -0.012357371091888789 -0.00030136445893024139 0 -0.012042316720603808 -0.00062568022858166129 0 -0.011874612145992813 -0.00052915730864367956 0 -0.012487181679693775 -0.0005167641231091693 0 -0.012921127234726796 -0.00030982238955581931 0 -0.012925068500260248 -0.0009029301534802278 0 -0.012921127234726796 -0.00030982238955581931 0 -0.013395146115081934 -0.00036360942868932073 0 -0.012925068500260248 -0.0009029301534802278 0 -0.028153220824604142 0.0024700883013392076 0 -0.028113207921354206 0.0024156520615006955 0 -0.027858121335148232 0.0030482566516430768 0 -0.012921127234726796 -0.00030982238955581931 0 -0.013395146115081934 -0.00036360942868932073 0 -0.013325754817208635 3.508068875578357e-05 0 -0.021527201277470279 0.0014727536791922882 0 -0.020897442887738978 0.00097655465239795199 0 -0.027585047599274916 0.0036464019735299663 0 -0.027858121335148232 0.0030482566516430768 0 -0.02818603037105899 0.0027264034066227039 0 -0.023469726281584835 0.0020418292639113769 0 -0.029754419803390161 0.0024887502489015362 0 -0.020897442887738978 0.00097655465239795199 0 -0.020531966209287204 0.001615463670897544 0 -0.028153220824604142 0.0024700883013392076 0 -0.027858121335148232 0.0030482566516430768 0 -0.02818603037105899 0.0027264034066227039 0 -0.029965406932776863 0.0024465708931636389 0 -0.029894428617124404 0.0020151664710329076 0 -0.030097838584610747 0.0021908837579358393 0 -0.030240358932013295 0.0023591409125402981 0 -0.030097838584610747 0.0021908837579358393 0 -0.030296302073232969 0.0021412999020175866 0 -0.029965406932776863 0.0024465708931636389 0 -0.030240358932013295 0.0023591409125402981 0 -0.030097838584610747 0.0021908837579358393 0 -0.029894428617124404 0.0020151664710329076 0 -0.030097838584610747 0.0021908837579358393 0 -0.030151675351842426 0.0020077855182711003 0 -0.030368504404470836 0.0019081280983865004 0 -0.030151675351842426 0.0020077855182711003 0 -0.030296302073232969 0.0021412999020175866 0 -0.030097838584610747 0.0021908837579358393 0 -0.030151675351842426 0.0020077855182711003 0 -0.030296302073232969 0.0021412999020175866 0 -0.028153220824604142 0.0024700883013392076 0 -0.02811348400671795 0.0024137395725230791 0 -0.028871785909466399 0.0016700833564235297 0 -0.028153220824604142 0.0024700883013392076 0 -0.02818603037105899 0.0027264034066227039 0 -0.028871785909466399 0.0016700833564235297 0 -0.029754419803390161 0.0024887502489015362 0 -0.02930555550846288 0.0014343023154410747 0 -0.029894428617124404 0.0020151664710329076 0 -0.030175379362890272 0.0017532304583717526 0 -0.02993860004633014 0.0013420725832974365 0 -0.030368504404470836 0.0019081280983865004 0 -0.030151675351842426 0.0020077855182711003 0 -0.030175379362890272 0.0017532304583717526 0 -0.029894428617124404 0.0020151664710329076 0 -0.030151675351842426 0.0020077855182711003 0 -0.030175379362890272 0.0017532304583717526 0 -0.02811348400671795 0.0024137395725230791 0 -0.028871785909466399 0.0016700833564235297 0 -0.028393426596642929 0.0016027108397110028 0 -0.0302512941024227 0.0015157396804841969 0 -0.030175379362890272 0.0017532304583717526 0 -0.02993860004633014 0.0013420725832974365 0 -0.03038514524066219 0.0012937799786804708 0 -0.0302512941024227 0.0015157396804841969 0 -0.02993860004633014 0.0013420725832974365 0 -0.020897442887738978 0.00097655465239795199 0 -0.013887972909963435 -0.00023422367652413509 0 -0.019591370957882957 0.0018674760344807705 0 -0.019793853335838378 0.00033220863864656284 0 -0.018356382443545278 0.00040825037258302425 0 -0.020897442887738978 0.00097655465239795199 0 -0.024422020259079177 0.0010457597879355864 0 -0.019793853335838378 0.00033220863864656284 0 -0.020006138974732714 -0.001201133220174047 0 -0.018356382443545278 0.00040825037258302425 0 -0.020852526582038546 -0.00021916662844124909 0 -0.013887972909963435 -0.00023422367652413509 0 -0.014699815279496561 -0.00018239247397333053 0 -0.014215906444154866 -0.00033746711638971822 0 -0.014021391952482446 0.00047345474674454001 0 -0.024422020259079177 0.0010457597879355864 0 -0.020852526582038546 -0.00021916662844124909 0 -0.029789037381367536 0.00013435893220293312 0 -0.02930555550846288 0.0014343023154410747 0 -0.028871785909466399 0.0016700833564235297 0 -0.028393426596642929 0.0016027108397110028 0 -0.028657718154476031 0.00046588467605382616 0 -0.029754818056695661 0.00010098202189622235 0 -0.028871785909466399 0.0016700833564235297 0 -0.028657718154476031 0.00046588467605382616 0 -0.03038514524066219 0.0012937799786804708 0 -0.029754818056695661 0.00010098202189622235 0 -0.02993860004633014 0.0013420725832974365 0 -0.029754818056695661 0.00010098202189622235 0 -0.029548401059644212 -0.00025874096787174838 0 -0.028657718154476031 0.00046588467605382616 0 -0.021098455605072904 -0.00018275515337793226 0 -0.020558655644856958 0.00034670071020710333 0 -0.020647659398589487 -0.00035459954504373322 0 -0.020852526582038546 -0.00021916662844124909 0 -0.017506874759563525 -0.00038741624779932784 0 -0.024136930325342396 0.00013059606412016073 0 -0.017506874759563525 -0.00038741624779932784 0 -0.024136930325342396 0.00013059606412016073 0 -0.020852526582038546 -0.00021916662844124909 0 -0.014215906444154866 -0.00033746711638971822 0 -0.014391202944993893 -0.00077353607382224716 0 -0.014749697282084639 -0.00065156888060747338 0 -0.014699815279496561 -0.00018239247397333053 0 -0.014215906444154866 -0.00033746711638971822 0 -0.014749697282084639 -0.00065156888060747338 0 -0.014215906444154866 -0.00033746711638971822 0 -0.014391202944993893 -0.00077353607382224716 0 -0.013959351712268484 -0.00067123460676942316 0 -0.011216574619304902 -0.0010812805009635985 0 -0.010083753159342094 -0.00042787591407156218 0 -0.014084510596458103 -0.0011241848339170505 0 -0.017506874759563525 -0.00038741624779932784 0 -0.014391202944993893 -0.00077353607382224716 0 -0.014694147551530758 -0.000657650604705981 0 -0.014424559008163557 -0.0010948546727218456 0 -0.014391202944993893 -0.00077353607382224716 0 -0.013959351712268484 -0.00067123460676942316 0 -0.014424559008163557 -0.0010948546727218456 0 -0.017506874759563525 -0.00038741624779932784 0 -0.015320233876447391 -0.00015127299789307875 0 -0.014694147551530758 -0.000657650604705981 0 -0.014767959188219425 -0.0013077657917503879 0 -0.014424559008163557 -0.0010948546727218456 0 -0.019336565259033659 0.00062306269643935103 0 -0.019453038539977419 0.00051106894625838496 0 -0.01939077535274453 0.0008169461031408042 0 -0.019353353563745099 0.00047026212990099761 0 -0.019336565259033659 0.00062306269643935103 0 -0.019453038539977419 0.00051106894625838496 0 -0.0086333545673162593 -0.00086763413588820081 0 -0.0083633778922159157 -0.0011074782614621903 0 -0.0086995451731778032 -0.0012279033563481303 0 -0.0090204762472489361 -0.00096383729161536309 0 -0.0086333545673162593 -0.00086763413588820081 0 -0.0086995451731778032 -0.0012279033563481303 0 -0.0090204762472489361 -0.00096383729161536309 0 -0.0088220914808075316 -0.0006433517774459799 0 -0.0092738169601402978 -0.00067614847762572749 0 -0.0088220914808075316 -0.0006433517774459799 0 -0.0086333545673162593 -0.00086763413588820081 0 -0.008481213158061069 -0.00063403270302957854 0 -0.0090204762472489361 -0.00096383729161536309 0 -0.0088220914808075316 -0.0006433517774459799 0 -0.0086333545673162593 -0.00086763413588820081 0 -0.0082380231393615923 -0.00073975098228602602 0 -0.0083633778922159157 -0.0011074782614621903 0 -0.0076284506521857171 -0.00058777781998353023 0 -0.0086333545673162593 -0.00086763413588820081 0 -0.008481213158061069 -0.00063403270302957854 0 -0.0082380231393615923 -0.00073975098228602602 0 -0.0081292752829342421 -0.0011674565411371755 0 -0.0083633778922159157 -0.0011074782614621903 0 -0.0076512216521601424 -0.00062136576870277572 0 -0.0074493429464693025 -0.00091970019360970939 0 -0.010083753159342094 -0.00042787591407156218 0 -0.0086333545673162593 -0.00086763413588820081 0 -0.0082380231393615923 -0.00073975098228602602 0 -0.0083633778922159157 -0.0011074782614621903 0 -0.0081292752829342421 -0.0011674565411371755 0 -0.0083633778922159157 -0.0011074782614621903 0 -0.0087817358204995127 -0.0020415063993214342 0 -0.014215906444154866 -0.00033746711638971822 0 -0.013959351712268484 -0.00067123460676942316 0 -0.013456493706375644 -0.00018438705301277355 0 -0.011216574619304902 -0.0010812805009635985 0 -0.011133612326477109 -0.00086221527006974039 0 -0.0083633778922159157 -0.0011074782614621903 0 -0.0087817358204995127 -0.0020415063993214342 0 -0.0086995451731778032 -0.0012279033563481303 0 -0.0090204762472489361 -0.00096383729161536309 0 -0.0087817358204995127 -0.0020415063993214342 0 -0.0086995451731778032 -0.0012279033563481303 0 -0.0090204762472489361 -0.00096383729161536309 0 -0.0087817358204995127 -0.0020415063993214342 0 -0.0098105142683660666 -0.00090319656104966505 0 -0.011133612326477109 -0.00086221527006974039 0 -0.0094501395049344621 -0.0012060935786901116 0 -0.011133612326477109 -0.00086221527006974039 0 -0.011477292647057689 -0.0010185755296217552 0 -0.010890063771331332 -0.0006512390128654489 0 -0.011382314005226954 -0.00089414072459604568 0 -0.010490341008466332 -0.00064221618581050699 0 -0.012108198515955215 -0.0015791134067054478 0 -0.012188118075498904 -0.00082793559439364121 0 -0.011382314005226954 -0.00089414072459604568 0 -0.012108198515955215 -0.0015791134067054478 0 -0.012779475628233519 -0.00075531155856957432 0 -0.012188118075498904 -0.00082793559439364121 0 -0.014215906444154866 -0.00033746711638971822 0 -0.013456493706375644 -0.00018438705301277355 0 -0.014021391952482446 0.00047345474674454001 0 -0.011133612326477109 -0.00086221527006974039 0 -0.013887972909963435 -0.00023422367652413509 0 -0.012487181679693775 -0.0005167641231091693 0 -0.012779475628233519 -0.00075531155856957432 0 -0.012188118075498904 -0.00082793559439364121 0 -0.012483051071868777 -0.00045888737094016162 0 -0.013887972909963435 -0.00023422367652413509 0 -0.012188118075498904 -0.00082793559439364121 0 -0.012042316720603808 -0.00062568022858166129 0 -0.011382314005226954 -0.00089414072459604568 0 -0.012487181679693775 -0.0005167641231091693 0 -0.012188118075498904 -0.00082793559439364121 0 -0.012042316720603808 -0.00062568022858166129 0 -0.011581958853957105 -0.00065803356300687737 0 -0.011382314005226954 -0.00089414072459604568 0 -0.011874612145992813 -0.00052915730864367956 0 -0.012042316720603808 -0.00062568022858166129 0 -0.011382314005226954 -0.00089414072459604568 0 -0.011874612145992813 -0.00052915730864367956 0 -0.011581958853957105 -0.00065803356300687737 0 -0.011330672538654918 -0.00079629964255309047 0 -0.011382314005226954 -0.00089414072459604568 0 -0.011581958853957105 -0.00065803356300687737 0 -0.011475774689445986 -0.00071703001609247535 0 -0.01157654654466456 -0.00059462921646809123 0 -0.011581958853957105 -0.00065803356300687737 0 -0.011330672538654918 -0.00079629964255309047 0 -0.011475774689445986 -0.00071703001609247535 0 -0.011330672538654918 -0.00079629964255309047 0 -0.011079919755700262 -0.00080264909222696858 0 -0.011245047669820199 -0.00073718782006560368 0 -0.011330672538654918 -0.00079629964255309047 0 -0.011245047669820199 -0.00073718782006560368 0 -0.011475774689445986 -0.00071703001609247535 0 -0.011245047669820199 -0.00073718782006560368 0 -0.011448026901813733 -0.00064301130818108425 0 -0.011475774689445986 -0.00071703001609247535 0 -0.011382314005226954 -0.00089414072459604568 0 -0.011079919755700262 -0.00080264909222696858 0 -0.010490341008466332 -0.00064221618581050699 0 -0.011330672538654918 -0.00079629964255309047 0 -0.011382314005226954 -0.00089414072459604568 0 -0.011079919755700262 -0.00080264909222696858 0 -0.010890063771331332 -0.0006512390128654489 0 -0.010490341008466332 -0.00064221618581050699 0 -0.0098105142683660666 -0.00090319656104966505 0 -0.011079919755700262 -0.00080264909222696858 0 -0.010490341008466332 -0.00064221618581050699 0 -0.011245047669820199 -0.00073718782006560368 0 -0.010490341008466332 -0.00064221618581050699 0 -0.0096452245588796708 -0.00082662931971907105 0 -0.0098105142683660666 -0.00090319656104966505 0 -0.010490341008466332 -0.00064221618581050699 0 -0.0096452245588796708 -0.00082662931971907105 0 -0.0092676526443523036 -0.00068534469707193864 0 -0.010490341008466332 -0.00064221618581050699 0 -0.011245047669820199 -0.00073718782006560368 0 -0.011540232552926095 -0.00047561091958130976 0 -0.010458206064401367 -0.00062973701958136117 0 -0.010405944636469997 -0.00061060865795636203 0 -0.011245047669820199 -0.00073718782006560368 0 -0.011540232552926095 -0.00047561091958130976 0 -0.011448026901813733 -0.00064301130818108425 0 -0.0094184038695428966 -0.00077382868049692276 0 -0.0093579989555811691 -0.00074687630963273042 0 -0.0092676526443523036 -0.00068534469707193864 0 -0.0096452245588796708 -0.00082662931971907105 0 -0.0094184038695428966 -0.00077382868049692276 0 -0.0092676526443523036 -0.00068534469707193864 0 -0.0096452245588796708 -0.00082662931971907105 0 -0.0094184038695428966 -0.00077382868049692276 0 -0.00938601165274776 -0.00073221857139555888 0 -0.0094184038695428966 -0.00077382868049692276 0 -0.00938601165274776 -0.00073221857139555888 0 -0.0093579989555811691 -0.00074687630963273042 0 -0.0096452245588796708 -0.00082662931971907105 0 -0.00938601165274776 -0.00073221857139555888 0 -0.009431192389094227 -0.00072090020085638709 0 -0.009431192389094227 -0.00072090020085638709 0 -0.0092738169601402978 -0.00067614847762572749 0 -0.0098105142683660666 -0.00090319656104966505 0 -0.0090204762472489361 -0.00096383729161536309 0 -0.0092738169601402978 -0.00067614847762572749 0 -0.0098105142683660666 -0.00090319656104966505 0 -0.0096452245588796708 -0.00082662931971907105 0 -0.009431192389094227 -0.00072090020085638709 0 -0.0098105142683660666 -0.00090319656104966505 0 -0.011481741797625263 -0.00058237548017356692 0 -0.011402567257627495 -0.00066535840670281987 0 -0.0095993697771297511 -0.00089198645610449022 0 -0.0095122513192513539 -0.0007480534805646955 0 -0.0094010825880714299 -0.00074422636249206464 0 -0.011366494558326929 -0.00071587155806235065 0 -0.011485137559849338 -0.00055728514149385583 0 -0.011318874199378333 -0.00068933537092049529 0 -0.0095993697771297511 -0.00089198645610449022 0 -0.0095990071866529445 -0.00078181238105245543 0 -0.0097110181698910163 -0.00076053186384912282 0 -0.0095993697771297511 -0.00089198645610449022 0 -0.0095990071866529445 -0.00078181238105245543 0 -0.0095122513192513539 -0.0007480534805646955 0 -0.0095122513192513539 -0.0007480534805646955 0 -0.0094010825880714299 -0.00074422636249206464 0 -0.0094156432209318852 -0.00063523735288680114 0 -0.010497400592690175 -0.00078796803056788742 0 -0.010405944636469997 -0.00061060865795636203 0 -0.0095993697771297511 -0.00089198645610449022 0 -0.0094010825880714299 -0.00074422636249206464 0 -0.0092676526443523036 -0.00068534469707193864 0 -0.011366494558326929 -0.00071587155806235065 0 -0.011485137559849338 -0.00055728514149385583 0 -0.011540232552926095 -0.00047561091958130976 0 -0.00938601165274776 -0.00073221857139555888 0 -0.0093579989555811691 -0.00074687630963273042 0 -0.0093437802880381986 -0.00066705545593005321 0 -0.0094010825880714299 -0.00074422636249206464 0 -0.0093579989555811691 -0.00074687630963273042 0 -0.0093437802880381986 -0.00066705545593005321 0 -0.0094010825880714299 -0.00074422636249206464 0 -0.0093579989555811691 -0.00074687630963273042 0 -0.0092676526443523036 -0.00068534469707193864 0 -0.011485137559849338 -0.00055728514149385583 0 -0.011506163961252249 -0.00057947925628220611 0 -0.011506225957772058 -0.00061475969083619846 0 -0.011485137559849338 -0.00055728514149385583 0 -0.011540232552926095 -0.00047561091958130976 0 -0.011506163961252249 -0.00057947925628220611 0 -0.011540232552926095 -0.00047561091958130976 0 -0.011506163961252249 -0.00057947925628220611 0 -0.011448026901813733 -0.00064301130818108425 0 -0.011506163961252249 -0.00057947925628220611 0 -0.011448026901813733 -0.00064301130818108425 0 -0.011495993176903021 -0.00064022146467709515 0 -0.011506163961252249 -0.00057947925628220611 0 -0.011506225957772058 -0.00061475969083619846 0 -0.011495993176903021 -0.00064022146467709515 0 -0.011485137559849338 -0.00055728514149385583 0 -0.011495551003455336 -0.00061888606607549655 0 -0.011483857199697644 -0.00065717195668237884 0 -0.011506225957772058 -0.00061475969083619846 0 -0.011494943446816253 -0.00062049593208300148 0 -0.011498643438105038 -0.00062016971558403371 0 -0.011506225957772058 -0.00061475969083619846 0 -0.011495551003455336 -0.00061888606607549655 0 -0.011494943446816253 -0.00062049593208300148 0 -0.011485137559849338 -0.00055728514149385583 0 -0.011506225957772058 -0.00061475969083619846 0 -0.011495551003455336 -0.00061888606607549655 0 -0.011494943446816253 -0.00062049593208300148 0 -0.011498643438105038 -0.00062016971558403371 0 -0.011473647041786179 -0.00062846428987893479 0 -0.011495551003455336 -0.00061888606607549655 0 -0.011494943446816253 -0.00062049593208300148 0 -0.011473647041786179 -0.00062846428987893479 0 -0.011506225957772058 -0.00061475969083619846 0 -0.011498643438105038 -0.00062016971558403371 0 -0.011512670980272975 -0.00063973636780810387 0 -0.011498643438105038 -0.00062016971558403371 0 -0.011493166726844455 -0.00059864076323723849 0 -0.011512670980272975 -0.00063973636780810387 0 -0.011493166726844455 -0.00059864076323723849 0 -0.011512670980272975 -0.00063973636780810387 0 -0.011529422937473046 -0.00060613439490083798 0 -0.011498643438105038 -0.00062016971558403371 0 -0.011493166726844455 -0.00059864076323723849 0 -0.011461014411931111 -0.00060750806268865254 0 -0.011448026901813733 -0.00064301130818108425 0 -0.011495993176903021 -0.00064022146467709515 0 -0.011475774689445986 -0.00071703001609247535 0 -0.011495993176903021 -0.00064022146467709515 0 -0.011512670980272975 -0.00063973636780810387 0 -0.011475774689445986 -0.00071703001609247535 0 -0.011506225957772058 -0.00061475969083619846 0 -0.011495993176903021 -0.00064022146467709515 0 -0.011512670980272975 -0.00063973636780810387 0 -0.011512670980272975 -0.00063973636780810387 0 -0.011475774689445986 -0.00071703001609247535 0 -0.011529422937473046 -0.00060613439490083798 0 -0.011529422937473046 -0.00060613439490083798 0 -0.01157654654466456 -0.00059462921646809123 0 -0.011594966005337602 -0.00044507959571681851 0 -0.011475774689445986 -0.00071703001609247535 0 -0.011529422937473046 -0.00060613439490083798 0 -0.01157654654466456 -0.00059462921646809123 0 -0.011529422937473046 -0.00060613439490083798 0 -0.011500004225394097 -0.00053207496671595121 0 -0.011594966005337602 -0.00044507959571681851 0 -0.011493166726844455 -0.00059864076323723849 0 -0.011500004225394097 -0.00053207496671595121 0 -0.0114562939229483 -0.00056156840398024718 0 -0.011493166726844455 -0.00059864076323723849 0 -0.011529422937473046 -0.00060613439490083798 0 -0.011500004225394097 -0.00053207496671595121 0 -0.011500004225394097 -0.00053207496671595121 0 -0.011505592916736668 -0.0004265696183368114 0 -0.011594966005337602 -0.00044507959571681851 0 -0.011505592916736668 -0.0004265696183368114 0 -0.011573485149701865 -0.00030027766267252715 0 -0.011594966005337602 -0.00044507959571681851 0 -0.011505592916736668 -0.0004265696183368114 0 -0.011573485149701865 -0.00030027766267252715 0 -0.011519486635260513 -0.00025573613822817148 0 -0.011573485149701865 -0.00030027766267252715 0 -0.011569270080361703 -0.0001335385835833904 0 -0.011519486635260513 -0.00025573613822817148 0 -0.011573485149701865 -0.00030027766267252715 0 -0.011674892411753991 -0.00021354338916061423 0 -0.011569270080361703 -0.0001335385835833904 0 -0.011674892411753991 -0.00021354338916061423 0 -0.011594966005337602 -0.00044507959571681851 0 -0.011770516863762199 -0.00027688055939153734 0 -0.011573485149701865 -0.00030027766267252715 0 -0.011674892411753991 -0.00021354338916061423 0 -0.011594966005337602 -0.00044507959571681851 0 -0.011674892411753991 -0.00021354338916061423 0 -0.011770516863762199 -0.00027688055939153734 0 -0.011793047271927173 -0.00010904562867094534 0 -0.011594966005337602 -0.00044507959571681851 0 -0.011747911572385018 -0.00043071291319569119 0 -0.011770516863762199 -0.00027688055939153734 0 -0.01157654654466456 -0.00059462921646809123 0 -0.011594966005337602 -0.00044507959571681851 0 -0.011747911572385018 -0.00043071291319569119 0 -0.011581958853957105 -0.00065803356300687737 0 -0.01157654654466456 -0.00059462921646809123 0 -0.011747911572385018 -0.00043071291319569119 0 -0.011581958853957105 -0.00065803356300687737 0 -0.011747911572385018 -0.00043071291319569119 0 -0.011874612145992813 -0.00052915730864367956 0 -0.011747911572385018 -0.00043071291319569119 0 -0.011874612145992813 -0.00052915730864367956 0 -0.012056581242209725 -0.00028894054536949632 0 -0.012357371091888789 -0.00030136445893024139 0 -0.011874612145992813 -0.00052915730864367956 0 -0.012056581242209725 -0.00028894054536949632 0 -0.012451276159411035 -4.2614093995109685e-05 0 -0.012357371091888789 -0.00030136445893024139 0 -0.012056581242209725 -0.00028894054536949632 0 -0.012451276159411035 -4.2614093995109685e-05 0 -0.012056581242209725 -0.00028894054536949632 0 -0.011991830066163695 -0.00013273800714102131 0 -0.011747911572385018 -0.00043071291319569119 0 -0.012056581242209725 -0.00028894054536949632 0 -0.011991830066163695 -0.00013273800714102131 0 -0.011747911572385018 -0.00043071291319569119 0 -0.011770516863762199 -0.00027688055939153734 0 -0.011991830066163695 -0.00013273800714102131 0 -0.011770516863762199 -0.00027688055939153734 0 -0.011991830066163695 -0.00013273800714102131 0 -0.011793047271927173 -0.00010904562867094534 0 -0.011991830066163695 -0.00013273800714102131 0 -0.012360080649294797 0.00016920605315792197 0 -0.011886648581903003 0.00011429071575974788 0 -0.011991830066163695 -0.00013273800714102131 0 -0.011793047271927173 -0.00010904562867094534 0 -0.011886648581903003 0.00011429071575974788 0 -0.012778790399755499 0.00024399228641127949 0 -0.012451276159411035 -4.2614093995109685e-05 0 -0.012360080649294797 0.00016920605315792197 0 -0.012451276159411035 -4.2614093995109685e-05 0 -0.011991830066163695 -0.00013273800714102131 0 -0.012360080649294797 0.00016920605315792197 0 -0.012360080649294797 0.00016920605315792197 0 -0.012733740438363556 0.00056815793899127462 0 -0.012260631188541213 0.00038198543463021089 0 -0.012778790399755499 0.00024399228641127949 0 -0.012360080649294797 0.00016920605315792197 0 -0.012733740438363556 0.00056815793899127462 0 -0.012431417226253905 0.00070453980689665335 0 -0.012733740438363556 0.00056815793899127462 0 -0.012260631188541213 0.00038198543463021089 0 -0.012360080649294797 0.00016920605315792197 0 -0.012260631188541213 0.00038198543463021089 0 -0.011886648581903003 0.00011429071575974788 0 -0.012260631188541213 0.00038198543463021089 0 -0.011950112295791904 0.0004931914335848871 0 -0.011886648581903003 0.00011429071575974788 0 -0.012431417226253905 0.00070453980689665335 0 -0.012260631188541213 0.00038198543463021089 0 -0.011950112295791904 0.0004931914335848871 0 -0.01171859641050637 0.00092554068395166254 0 -0.011950112295791904 0.0004931914335848871 0 -0.011503546992702809 0.0004211938893792065 0 -0.011950112295791904 0.0004931914335848871 0 -0.011503546992702809 0.0004211938893792065 0 -0.011886648581903003 0.00011429071575974788 0 -0.011455197761689852 0.0004065693301570134 0 -0.011910637743788 7.6660911208540982e-05 0 -0.011702184561894436 9.2143007326928481e-05 0 -0.011599131704006177 5.6700706969525281e-06 0 -0.011684113644723873 -2.8417295695033342e-05 0 -0.011633243488018509 9.9111755940862418e-05 0 -0.011702184561894436 9.2143007326928481e-05 0 -0.011599131704006177 5.6700706969525281e-06 0 -0.013263157898636338 0.00071728763690432197 0 -0.011455197761689852 0.0004065693301570134 0 -0.011674892411753991 -0.00021354338916061423 0 -0.011569270080361703 -0.0001335385835833904 0 -0.011684113644723873 -2.8417295695033342e-05 0 -0.011599131704006177 5.6700706969525281e-06 0 -0.011569270080361703 -0.0001335385835833904 0 -0.011684113644723873 -2.8417295695033342e-05 0 -0.011674892411753991 -0.00021354338916061423 0 -0.011793047271927173 -0.00010904562867094534 0 -0.011684113644723873 -2.8417295695033342e-05 0 -0.011793047271927173 -0.00010904562867094534 0 -0.011886648581903003 0.00011429071575974788 0 -0.011684113644723873 -2.8417295695033342e-05 0 -0.011702184561894436 9.2143007326928481e-05 0 -0.011886648581903003 0.00011429071575974788 0 -0.011684113644723873 -2.8417295695033342e-05 0 -0.011540188464584595 -9.3936904240451101e-05 0 -0.011501775388240626 -7.4827687083085326e-05 0 -0.011522841056393436 -6.3365209568436932e-05 0 -0.011540188464584595 -9.3936904240451101e-05 0 -0.011501775388240626 -7.4827687083085326e-05 0 -0.011641115153373245 5.3654711460526972e-05 0 -0.011501775388240626 -7.4827687083085326e-05 0 -0.011522841056393436 -6.3365209568436932e-05 0 -0.011498124832774657 -0.00016156569425058019 0 -0.011569270080361703 -0.0001335385835833904 0 -0.011522841056393436 -6.3365209568436932e-05 0 -0.011498124832774657 -0.00016156569425058019 0 -0.011599131704006177 5.6700706969525281e-06 0 -0.011569270080361703 -0.0001335385835833904 0 -0.011522841056393436 -6.3365209568436932e-05 0 -0.011599131704006177 5.6700706969525281e-06 0 -0.011522841056393436 -6.3365209568436932e-05 0 -0.011553182685682216 2.1418713834876362e-05 0 -0.013263157898636338 0.00071728763690432197 0 -0.019468472896546837 -0.00010465086207638041 0 -0.011633243488018509 9.9111755940862418e-05 0 -0.011599131704006177 5.6700706969525281e-06 0 -0.011553182685682216 2.1418713834876362e-05 0 -0.011540188464584595 -9.3936904240451101e-05 0 -0.011522841056393436 -6.3365209568436932e-05 0 -0.011553182685682216 2.1418713834876362e-05 0 -0.017778230635775695 -5.1623501956787129e-06 0 -0.019468472896546837 -0.00010465086207638041 0 -0.024383258418653131 -7.2232309329355488e-05 0 -0.024414637270165365 -8.4068694209765894e-05 0 -0.024279597338056451 -0.00012362439584671353 0 -0.019468472896546837 -0.00010465086207638041 0 -0.026002658386393096 0.00012972429866922328 0 -0.024053627222424514 4.1060773354846873e-05 0 -0.023622455311426309 -0.00035222403236498975 0 -0.024279597338056451 -0.00012362439584671353 0 -0.024383258418653131 -7.2232309329355488e-05 0 -0.024356394587315037 -8.841789895906595e-05 0 -0.024279597338056451 -0.00012362439584671353 0 -0.024359559375837902 -0.0001012451508945703 0 -0.024356394587315037 -8.841789895906595e-05 0 -0.024279597338056451 -0.00012362439584671353 0 -0.024359559375837902 -0.0001012451508945703 0 -0.024279597338056451 -0.00012362439584671353 0 -0.024358943748526696 -9.4411158725158344e-05 0 -0.024279597338056451 -0.00012362439584671353 0 -0.024358943748526696 -9.4411158725158344e-05 0 -0.024266039476774665 1.5046267340140461e-05 0 -0.024376956462313928 -0.00010141279002019936 0 -0.024359559375837902 -0.0001012451508945703 0 -0.024358943748526696 -9.4411158725158344e-05 0 -0.022823895427067177 -0.00047134069614307618 0 -0.022564194627253079 -0.00068792337925211865 0 -0.022627167896774311 -0.00037355098634650577 0 -0.023184222725116492 -0.0001346497469188514 0 -0.022823895427067177 -0.00047134069614307618 0 -0.022627167896774311 -0.00037355098634650577 0 -0.023815186942384096 -7.6847927103932393e-05 0 -0.023737678886639177 -0.00020863524876589421 0 -0.022823895427067177 -0.00047134069614307618 0 -0.022564194627253079 -0.00068792337925211865 0 -0.022819024563498966 -0.001065416718346928 0 -0.024358943748526696 -9.4411158725158344e-05 0 -0.024266039476774665 1.5046267340140461e-05 0 -0.024328248472978081 0.00010798554555958247 0 -0.023737678886639177 -0.00020863524876589421 0 -0.021416590130876059 -0.00088420696205095432 0 -0.024266039476774665 1.5046267340140461e-05 0 -0.024223916118724018 0.00016029938561224854 0 -0.024328248472978081 0.00010798554555958247 0 -0.011540188464584595 -9.3936904240451101e-05 0 -0.011641115153373245 5.3654711460526972e-05 0 -0.011873334348932205 0.00012144759943900559 0 -0.024053627222424514 4.1060773354846873e-05 0 -0.024266039476774665 1.5046267340140461e-05 0 -0.024223916118724018 0.00016029938561224854 0 -0.017778230635775695 -5.1623501956787129e-06 0 -0.016547946955188568 -0.00024750616327634517 0 -0.024053627222424514 4.1060773354846873e-05 0 -0.024279597338056451 -0.00012362439584671353 0 -0.024266039476774665 1.5046267340140461e-05 0 -0.011583398813730422 -0.0017510216282845981 0 -0.011596207962517192 -0.0020366675117820228 0 -0.011808390786331807 -0.0018560124365504119 0 -0.011641115153373245 5.3654711460526972e-05 0 -0.011873334348932205 0.00012144759943900559 0 -0.011577775560873039 0.00024945201882464632 0 -0.011583398813730422 -0.0017510216282845981 0 -0.011426656811241645 -0.0019311712457894092 0 -0.011596207962517192 -0.0020366675117820228 0 -0.016547946955188568 -0.00024750616327634517 0 -0.011293642331447607 -0.00053776663888006166 0 -0.021424560981615423 -0.00054609394821057461 0 -0.021397310935116508 -0.00030246397908180152 0 -0.021706625133692866 -0.00033999910041327097 0 -0.016547946955188568 -0.00024750616327634517 0 -0.021416590130876059 -0.00088420696205095432 0 -0.018052180928121674 -0.00081621058206695924 0 -0.017707264598655001 -0.00066493116665901179 0 -0.01770759661898114 -0.0012075174472815098 0 -0.016547946955188568 -0.00024750616327634517 0 -0.015461583195577881 -0.0018417485030088024 0 -0.021416590130876059 -0.00088420696205095432 0 -0.015461583195577881 -0.0018417485030088024 0 -0.015461583195577881 -0.0018417485030088024 0 -0.017074017191391455 -0.0017908683348820784 0 -0.011710244716687452 -0.0041240295638687776 0 -0.011617734733486602 -0.0034441530983917844 0 -0.012253103115254769 -0.0035440247565588813 0 -0.011426656811241645 -0.0019311712457894092 0 -0.011596207962517192 -0.0020366675117820228 0 -0.011426405210609322 -0.0023246202622717658 0 -0.015461583195577881 -0.0018417485030088024 0 -0.01117467626837294 -0.003108540081976982 0 -0.011293642331447607 -0.00053776663888006166 0 -0.011501842974268038 -0.0015129806814771591 0 -0.011596207962517192 -0.0020366675117820228 0 -0.011808390786331807 -0.0018560124365504119 0 -0.011638467773694079 -0.002271300788754069 0 -0.01138700026485066 -0.00048124998233781856 0 -0.011354037839594086 -0.00041390688923781041 0 -0.011334403213347081 -0.00052695867968171228 0 -0.01138700026485066 -0.00048124998233781856 0 -0.011354037839594086 -0.00041390688923781041 0 -0.011420799300113494 -0.00043485114203301739 0 -0.011415460955672339 -0.00020430929729171453 0 -0.011498124832774657 -0.00016156569425058019 0 -0.011468142360790025 -0.00027462092578007261 0 -0.011293642331447607 -0.00053776663888006166 0 -0.011451669633622898 -0.00036154406404028208 0 -0.011501775388240626 -7.4827687083085326e-05 0 -0.011415460955672339 -0.00020430929729171453 0 -0.011498124832774657 -0.00016156569425058019 0 -0.011546172969407435 0.00013195580956726314 0 -0.011293642331447607 -0.00053776663888006166 0 -0.011501775388240626 -7.4827687083085326e-05 0 -0.011641115153373245 5.3654711460526972e-05 0 -0.011577775560873039 0.00024945201882464632 0 -0.011569270080361703 -0.0001335385835833904 0 -0.011498124832774657 -0.00016156569425058019 0 -0.011519486635260513 -0.00025573613822817148 0 -0.011498124832774657 -0.00016156569425058019 0 -0.011519486635260513 -0.00025573613822817148 0 -0.011468142360790025 -0.00027462092578007261 0 -0.011505592916736668 -0.0004265696183368114 0 -0.011420799300113494 -0.00043485114203301739 0 -0.011437321773354497 -0.00049607554247060068 0 -0.011514256383210271 -0.00041524033709997639 0 -0.011451669633622898 -0.00036154406404028208 0 -0.011505592916736668 -0.0004265696183368114 0 -0.011519486635260513 -0.00025573613822817148 0 -0.011468142360790025 -0.00027462092578007261 0 -0.01138700026485066 -0.00048124998233781856 0 -0.011420799300113494 -0.00043485114203301739 0 -0.011437321773354497 -0.00049607554247060068 0 -0.011500004225394097 -0.00053207496671595121 0 -0.011505592916736668 -0.0004265696183368114 0 -0.011437321773354497 -0.00049607554247060068 0 -0.011500004225394097 -0.00053207496671595121 0 -0.011437321773354497 -0.00049607554247060068 0 -0.0114562939229483 -0.00056156840398024718 0 -0.011437321773354497 -0.00049607554247060068 0 -0.0114562939229483 -0.00056156840398024718 0 -0.0113951332109146 -0.00053634539601863458 0 -0.0114562939229483 -0.00056156840398024718 0 -0.0113951332109146 -0.00053634539601863458 0 -0.011413004293104947 -0.00058440305686017948 0 -0.01138700026485066 -0.00048124998233781856 0 -0.0113951332109146 -0.00053634539601863458 0 -0.011334403213347081 -0.00052695867968171228 0 -0.01138700026485066 -0.00048124998233781856 0 -0.011437321773354497 -0.00049607554247060068 0 -0.0113951332109146 -0.00053634539601863458 0 -0.0113951332109146 -0.00053634539601863458 0 -0.011413004293104947 -0.00058440305686017948 0 -0.011356825559900892 -0.00058185799350628719 0 -0.0113951332109146 -0.00053634539601863458 0 -0.011356825559900892 -0.00058185799350628719 0 -0.011334403213347081 -0.00052695867968171228 0 -0.011413004293104947 -0.00058440305686017948 0 -0.011386627782616779 -0.00061108378087709953 0 -0.011356825559900892 -0.00058185799350628719 0 -0.011420613508689458 -0.00061329287679766234 0 -0.011386627782616779 -0.00061108378087709953 0 -0.011410400143234535 -0.00063745041540279172 0 -0.011413004293104947 -0.00058440305686017948 0 -0.011420613508689458 -0.00061329287679766234 0 -0.011386627782616779 -0.00061108378087709953 0 -0.011386627782616779 -0.00061108378087709953 0 -0.011373442023415763 -0.00064218584031388096 0 -0.011356812334391163 -0.00062181999392731254 0 -0.011386627782616779 -0.00061108378087709953 0 -0.011356812334391163 -0.00062181999392731254 0 -0.011356825559900892 -0.00058185799350628719 0 -0.011493166726844455 -0.00059864076323723849 0 -0.0114562939229483 -0.00056156840398024718 0 -0.011461014411931111 -0.00060750806268865254 0 -0.0114562939229483 -0.00056156840398024718 0 -0.011413004293104947 -0.00058440305686017948 0 -0.011461014411931111 -0.00060750806268865254 0 -0.011413004293104947 -0.00058440305686017948 0 -0.011420613508689458 -0.00061329287679766234 0 -0.011461014411931111 -0.00060750806268865254 0 -0.011420613508689458 -0.00061329287679766234 0 -0.011461014411931111 -0.00060750806268865254 0 -0.011442400940072792 -0.00062824031221613301 0 -0.011498643438105038 -0.00062016971558403371 0 -0.011461014411931111 -0.00060750806268865254 0 -0.011473647041786179 -0.00062846428987893479 0 -0.011461014411931111 -0.00060750806268865254 0 -0.011473647041786179 -0.00062846428987893479 0 -0.011442400940072792 -0.00062824031221613301 0 -0.011495551003455336 -0.00061888606607549655 0 -0.011473647041786179 -0.00062846428987893479 0 -0.011483857199697644 -0.00065717195668237884 0 -0.011473647041786179 -0.00062846428987893479 0 -0.011437179529602159 -0.00064939527930372195 0 -0.011483857199697644 -0.00065717195668237884 0 -0.011437179529602159 -0.00064939527930372195 0 -0.011425552903456992 -0.00066930297215141415 0 -0.011483857199697644 -0.00065717195668237884 0 -0.011473647041786179 -0.00062846428987893479 0 -0.011437179529602159 -0.00064939527930372195 0 -0.011442400940072792 -0.00062824031221613301 0 -0.011437179529602159 -0.00064939527930372195 0 -0.011442400940072792 -0.00062824031221613301 0 -0.011410400143234535 -0.00063745041540279172 0 -0.011420613508689458 -0.00061329287679766234 0 -0.011442400940072792 -0.00062824031221613301 0 -0.011410400143234535 -0.00063745041540279172 0 -0.011410400143234535 -0.00063745041540279172 0 -0.011373442023415763 -0.00064218584031388096 0 -0.011391395353829544 -0.00066345988248482451 0 -0.011386627782616779 -0.00061108378087709953 0 -0.011410400143234535 -0.00063745041540279172 0 -0.011373442023415763 -0.00064218584031388096 0 -0.011391395353829544 -0.00066345988248482451 0 -0.01138772321892664 -0.00070497268011986375 0 -0.011360886512979822 -0.00068174294419745107 0 -0.011373442023415763 -0.00064218584031388096 0 -0.011391395353829544 -0.00066345988248482451 0 -0.011360886512979822 -0.00068174294419745107 0 -0.011437179529602159 -0.00064939527930372195 0 -0.011391395353829544 -0.00066345988248482451 0 -0.011425552903456992 -0.00066930297215141415 0 -0.011437179529602159 -0.00064939527930372195 0 -0.011410400143234535 -0.00063745041540279172 0 -0.011391395353829544 -0.00066345988248482451 0 -0.011391395353829544 -0.00066345988248482451 0 -0.011425552903456992 -0.00066930297215141415 0 -0.01138772321892664 -0.00070497268011986375 0 -0.011101173342324341 -0.0007301126883513619 0 -0.011109871671723585 -0.00081460524850301855 0 -0.011318874199378333 -0.00068933537092049529 0 -0.011101173342324341 -0.0007301126883513619 0 -0.011109871671723585 -0.00081460524850301855 0 -0.011002357133559008 -0.00078673581835303214 0 -0.011425552903456992 -0.00066930297215141415 0 -0.01138772321892664 -0.00070497268011986375 0 -0.011483857199697644 -0.00065717195668237884 0 -0.010497400592690175 -0.00078796803056788742 0 -0.010610452301968085 -0.00086001103549356126 0 -0.0095993697771297511 -0.00089198645610449022 0 -0.010170363900508642 -0.00092978352588561066 0 -0.0099089745623518796 -0.00077662008395117425 0 -0.011222456733721206 -0.00068072167053620655 0 -0.011402567257627495 -0.00066535840670281987 0 -0.011366494558326929 -0.00071587155806235065 0 -0.011109871671723585 -0.00081460524850301855 0 -0.011318874199378333 -0.00068933537092049529 0 -0.0095993697771297511 -0.00089198645610449022 0 -0.0097110181698910163 -0.00076053186384912282 0 -0.0099089745623518796 -0.00077662008395117425 0 -0.011327765172941718 -0.0016955013101808017 0 -0.01157483527939966 -0.0018310755092585795 0 -0.011614426451883849 -0.0015881317757032297 0 -0.011327765172941718 -0.0016955013101808017 0 -0.01157483527939966 -0.0018310755092585795 0 -0.011533920346464452 -0.0021097870339672627 0 -0.01157483527939966 -0.0018310755092585795 0 -0.011614426451883849 -0.0015881317757032297 0 -0.0118219484060919 -0.0019211531232764729 0 -0.011614426451883849 -0.0015881317757032297 0 -0.011898054133768855 -0.0015367088637112793 0 -0.0118219484060919 -0.0019211531232764729 0 -0.011648944375034552 -0.001383346328514765 0 -0.011614426451883849 -0.0015881317757032297 0 -0.011898054133768855 -0.0015367088637112793 0 -0.011231670929946171 -0.0011858095032318294 0 -0.011499386043239006 -0.0013552322115107656 0 -0.011407818587461073 -0.0015905560043828924 0 -0.011648944375034552 -0.001383346328514765 0 -0.011560708389888812 -0.001242627785363093 0 -0.011231670929946171 -0.0011858095032318294 0 -0.010996564091477883 -0.00099282620492567261 0 -0.011407818587461073 -0.0015905560043828924 0 -0.011648944375034552 -0.001383346328514765 0 -0.011614426451883849 -0.0015881317757032297 0 -0.010894501289601857 -0.00076416350628621716 0 -0.011002357133559008 -0.00078673581835303214 0 -0.010862680207561926 -0.00089030757011852207 0 -0.011222456733721206 -0.00068072167053620655 0 -0.011231670929946171 -0.0011858095032318294 0 -0.01138772321892664 -0.00070497268011986375 0 -0.01129292217747907 -0.00072374243564301091 0 -0.011360886512979822 -0.00068174294419745107 0 -0.01129292217747907 -0.00072374243564301091 0 -0.01133315616079212 -0.00067493861518941193 0 -0.011360886512979822 -0.00068174294419745107 0 -0.011109871671723585 -0.00081460524850301855 0 -0.011002357133559008 -0.00078673581835303214 0 -0.010862680207561926 -0.00089030757011852207 0 -0.011101173342324341 -0.0007301126883513619 0 -0.010894501289601857 -0.00076416350628621716 0 -0.011002357133559008 -0.00078673581835303214 0 -0.01129292217747907 -0.00072374243564301091 0 -0.01133315616079212 -0.00067493861518941193 0 -0.011319842003023696 -0.000624623833428669 0 -0.011231670929946171 -0.0011858095032318294 0 -0.011375131801840185 -0.0015178479194517518 0 -0.011373442023415763 -0.00064218584031388096 0 -0.011360886512979822 -0.00068174294419745107 0 -0.011347740249762249 -0.00064892684294076122 0 -0.01133315616079212 -0.00067493861518941193 0 -0.011360886512979822 -0.00068174294419745107 0 -0.011347740249762249 -0.00064892684294076122 0 -0.011347740249762249 -0.00064892684294076122 0 -0.011356812334391163 -0.00062181999392731254 0 -0.011319842003023696 -0.000624623833428669 0 -0.01133315616079212 -0.00067493861518941193 0 -0.011347740249762249 -0.00064892684294076122 0 -0.011319842003023696 -0.000624623833428669 0 -0.011373442023415763 -0.00064218584031388096 0 -0.011347740249762249 -0.00064892684294076122 0 -0.011356812334391163 -0.00062181999392731254 0 -0.011327765172941718 -0.0016955013101808017 0 -0.011533920346464452 -0.0021097870339672627 0 -0.011408022668283608 -0.0025110176647796553 0 -0.011533920346464452 -0.0021097870339672627 0 -0.011484259291774639 -0.0024971671090922428 0 -0.011408022668283608 -0.0025110176647796553 0 -0.01157483527939966 -0.0018310755092585795 0 -0.011533920346464452 -0.0021097870339672627 0 -0.0118219484060919 -0.0019211531232764729 0 -0.011533920346464452 -0.0021097870339672627 0 -0.011891882759141511 -0.0024291453860161042 0 -0.0118219484060919 -0.0019211531232764729 0 -0.011533920346464452 -0.0021097870339672627 0 -0.011484259291774639 -0.0024971671090922428 0 -0.011891882759141511 -0.0024291453860161042 0 -0.011824744995082383 -0.0027515471169070032 0 -0.011484259291774639 -0.0024971671090922428 0 -0.011891882759141511 -0.0024291453860161042 0 -0.011484259291774639 -0.0024971671090922428 0 -0.011408022668283608 -0.0025110176647796553 0 -0.011426405210609322 -0.0023246202622717658 0 -0.011484259291774639 -0.0024971671090922428 0 -0.011846713367461226 -0.0030918905991117961 0 -0.011617734733486602 -0.0034441530983917844 0 -0.011824744995082383 -0.0027515471169070032 0 -0.011484259291774639 -0.0024971671090922428 0 -0.011846713367461226 -0.0030918905991117961 0 -0.011550406075470544 -0.0024222789570623208 0 -0.01117467626837294 -0.003108540081976982 0 -0.011319842003023696 -0.000624623833428669 0 -0.011356825559900892 -0.00058185799350628719 0 -0.011334403213347081 -0.00052695867968171228 0 -0.011375131801840185 -0.0015178479194517518 0 -0.011501842974268038 -0.0015129806814771591 0 -0.011356812334391163 -0.00062181999392731254 0 -0.011319842003023696 -0.000624623833428669 0 -0.011356825559900892 -0.00058185799350628719 0 -0.011596207962517192 -0.0020366675117820228 0 -0.011638467773694079 -0.002271300788754069 0 -0.011426405210609322 -0.0023246202622717658 0 -0.011408022668283608 -0.0025110176647796553 0 -0.011638467773694079 -0.002271300788754069 0 -0.011426405210609322 -0.0023246202622717658 0 -0.011846713367461226 -0.0030918905991117961 0 -0.011617734733486602 -0.0034441530983917844 0 -0.012253103115254769 -0.0035440247565588813 0 -0.011846713367461226 -0.0030918905991117961 0 -0.012253103115254769 -0.0035440247565588813 0 -0.012106530989140446 -0.002943538643466634 0 -0.017074017191391455 -0.0017908683348820784 0 -0.0171480936240671 -0.0014976686024860313 0 -0.021551788854889089 -1.7482216553183154e-05 0 -0.021512264727544226 2.3887166582502201e-05 0 -0.021256410672944599 2.066693182764038e-05 0 -0.012253103115254769 -0.0035440247565588813 0 -0.013030298114663599 -0.0030554115565261503 0 -0.012106530989140446 -0.002943538643466634 0 -0.013030298114663599 -0.0030554115565261503 0 -0.012106530989140446 -0.002943538643466634 0 -0.012429191970512845 -0.0024948736986875066 0 -0.011824744995082383 -0.0027515471169070032 0 -0.011846713367461226 -0.0030918905991117961 0 -0.012106530989140446 -0.002943538643466634 0 -0.012106530989140446 -0.002943538643466634 0 -0.011891882759141511 -0.0024291453860161042 0 -0.012429191970512845 -0.0024948736986875066 0 -0.011824744995082383 -0.0027515471169070032 0 -0.012106530989140446 -0.002943538643466634 0 -0.011891882759141511 -0.0024291453860161042 0 -0.011891882759141511 -0.0024291453860161042 0 -0.012138042806127727 -0.0021970563217372347 0 -0.012429191970512845 -0.0024948736986875066 0 -0.011891882759141511 -0.0024291453860161042 0 -0.012138042806127727 -0.0021970563217372347 0 -0.0118219484060919 -0.0019211531232764729 0 -0.012138042806127727 -0.0021970563217372347 0 -0.0118219484060919 -0.0019211531232764729 0 -0.012333275116387077 -0.0018497737278432979 0 -0.012138042806127727 -0.0021970563217372347 0 -0.012429191970512845 -0.0024948736986875066 0 -0.012333275116387077 -0.0018497737278432979 0 -0.013030298114663599 -0.0030554115565261503 0 -0.012429191970512845 -0.0024948736986875066 0 -0.013109381491392656 -0.0017936794990263253 0 -0.012429191970512845 -0.0024948736986875066 0 -0.013109381491392656 -0.0017936794990263253 0 -0.012333275116387077 -0.0018497737278432979 0 -0.013109381491392656 -0.0017936794990263253 0 -0.012212715387746325 -0.0013831757627244994 0 -0.012333275116387077 -0.0018497737278432979 0 -0.013109381491392656 -0.0017936794990263253 0 -0.012212715387746325 -0.0013831757627244994 0 -0.0125001270973478 -0.0011050852034691194 0 -0.012212715387746325 -0.0013831757627244994 0 -0.011898054133768855 -0.0015367088637112793 0 -0.011823425914950685 -0.0012694118162665594 0 -0.011648944375034552 -0.001383346328514765 0 -0.011898054133768855 -0.0015367088637112793 0 -0.011823425914950685 -0.0012694118162665594 0 -0.011898054133768855 -0.0015367088637112793 0 -0.0118219484060919 -0.0019211531232764729 0 -0.012333275116387077 -0.0018497737278432979 0 -0.012212715387746325 -0.0013831757627244994 0 -0.011898054133768855 -0.0015367088637112793 0 -0.012333275116387077 -0.0018497737278432979 0 -0.019968913776045958 -0.00026472442199372857 0 -0.019126845891991692 5.2999355445486809e-08 0 -0.017255899714633989 -1.1309766133901171e-06 0 -0.014930862692567231 -0.0020311582115753765 0 -0.01457800589861105 -2.809736782419799e-06 0 -0.01725063181551691 -1.9382634173548491e-06 0 -0.017485451251581893 -0.00099536365529451503 0 -0.017254367141455174 -2.6014349864242433e-08 0 -0.013097977388725313 -0.0017653224042603298 0 -0.013521929396583896 -0.00068135257820186093 0 -0.013109381491392656 -0.0017936794990263253 0 -0.014930862692567231 -0.0020311582115753765 0 -0.01457800589861105 -2.809736782419799e-06 0 -0.013030298114663599 -0.0030554115565261503 0 -0.013109381491392656 -0.0017936794990263253 0 -0.014930862692567231 -0.0020311582115753765 0 -0.021256410672944599 2.066693182764038e-05 0 -0.019968913776045958 -0.00026472442199372857 0 -0.020552032561920643 7.5015885717098662e-05 0 -0.0171480936240671 -0.0014976686024860313 0 -0.017485451251581893 -0.00099536365529451503 0 -0.019968913776045958 -0.00026472442199372857 0 -0.019126845891991692 5.2999355445486809e-08 0 -0.020552032561920643 7.5015885717098662e-05 0 -0.019126845891991692 5.2999355445486809e-08 0 -0.020552032561920643 7.5015885717098662e-05 0 -0.020999235564366878 6.4938869614356039e-07 0 -0.021256410672944599 2.066693182764038e-05 0 -0.020552032561920643 7.5015885717098662e-05 0 -0.0215086849768166 0.00013574563869849732 0 -0.021512264727544226 2.3887166582502201e-05 0 -0.021256410672944599 2.066693182764038e-05 0 -0.0215086849768166 0.00013574563869849732 0 -0.0215086849768166 0.00013574563869849732 0 -0.020999235564366878 6.4938869614356039e-07 0 -0.022747783936368626 -8.3694731200667806e-05 0 -0.020552032561920643 7.5015885717098662e-05 0 -0.0215086849768166 0.00013574563869849732 0 -0.020999235564366878 6.4938869614356039e-07 0 -0.020999235564366878 6.4938869614356039e-07 0 -0.022871422882972482 -8.3179421529136695e-07 0 -0.022747783936368626 -8.3694731200667806e-05 0 -0.022747783936368626 -8.3694731200667806e-05 0 -0.024188493231334398 -0.00010394152637543808 0 -0.025643438970243106 -0.00017037531353093118 0 -0.022871422882972482 -8.3179421529136695e-07 0 -0.022747783936368626 -8.3694731200667806e-05 0 -0.024188493231334398 -0.00010394152637543808 0 -0.022871422882972482 -8.3179421529136695e-07 0 -0.024188493231334398 -0.00010394152637543808 0 -0.024744613208023954 2.1130747648881984e-07 0 -0.022985283242990137 -7.5517349402292312e-05 0 -0.023792075049962343 -0.00030048164986683467 0 -0.022747783936368626 -8.3694731200667806e-05 0 -0.021990119536538906 -0.00015563556362744666 0 -0.021956149321564929 -0.0006564483521419816 0 -0.021990119536538906 -0.00015563556362744666 0 -0.021752878904127731 -0.00016055401234294349 0 -0.021956149321564929 -0.0006564483521419816 0 -0.0215086849768166 0.00013574563869849732 0 -0.022747783936368626 -8.3694731200667806e-05 0 -0.021990119536538906 -0.00015563556362744666 0 -0.0215086849768166 0.00013574563869849732 0 -0.021990119536538906 -0.00015563556362744666 0 -0.021752878904127731 -0.00016055401234294349 0 -0.021512264727544226 2.3887166582502201e-05 0 -0.0215086849768166 0.00013574563869849732 0 -0.021752878904127731 -0.00016055401234294349 0 -0.021551788854889089 -1.7482216553183154e-05 0 -0.021512264727544226 2.3887166582502201e-05 0 -0.021752878904127731 -0.00016055401234294349 0 -0.021551788854889089 -1.7482216553183154e-05 0 -0.021752878904127731 -0.00016055401234294349 0 -0.021706625133692866 -0.00033999910041327097 0 -0.021397310935116508 -0.00030246397908180152 0 -0.021551788854889089 -1.7482216553183154e-05 0 -0.021706625133692866 -0.00033999910041327097 0 -0.021706625133692866 -0.00033999910041327097 0 -0.021880012419518126 -0.00048367980388675414 0 -0.022054730193414702 -0.00069659761763326742 0 -0.021424560981615423 -0.00054609394821057461 0 -0.021706625133692866 -0.00033999910041327097 0 -0.022054730193414702 -0.00069659761763326742 0 -0.021752878904127731 -0.00016055401234294349 0 -0.021706625133692866 -0.00033999910041327097 0 -0.021880012419518126 -0.00048367980388675414 0 -0.021752878904127731 -0.00016055401234294349 0 -0.021880012419518126 -0.00048367980388675414 0 -0.021956149321564929 -0.0006564483521419816 0 -0.021880012419518126 -0.00048367980388675414 0 -0.022054730193414702 -0.00069659761763326742 0 -0.021956149321564929 -0.0006564483521419816 0 -0.022054730193414702 -0.00069659761763326742 0 -0.022112889710049464 -0.00041505240983091 0 -0.021956149321564929 -0.0006564483521419816 0 -0.024533755638269945 -3.3542415373984826e-05 0 -0.023792075049962343 -0.00030048164986683467 0 -0.022564194627253079 -0.00068792337925211865 0 -0.022819024563498966 -0.001065416718346928 0 -0.022054730193414702 -0.00069659761763326742 0 -0.022564194627253079 -0.00068792337925211865 0 -0.022054730193414702 -0.00069659761763326742 0 -0.022627167896774311 -0.00037355098634650577 0 -0.021416590130876059 -0.00088420696205095432 0 -0.022286541684561338 -0.00076616212728744537 0 -0.022054730193414702 -0.00069659761763326742 0 -0.022627167896774311 -0.00037355098634650577 0 -0.022112889710049464 -0.00041505240983091 0 -0.026984824943200526 0.00031693227137220592 0 -0.026482525386135096 0.00029779161014939221 0 -0.025643438970243106 -0.00017037531353093118 0 -0.026616383263464688 4.6173203431302601e-07 0 -0.026482525386135096 0.00029779161014939221 0 -0.024744613208023954 2.1130747648881984e-07 0 -0.024188493231334398 -0.00010394152637543808 0 -0.024744613208023954 2.1130747648881984e-07 0 -0.025643438970243106 -0.00017037531353093118 0 -0.026482525386135096 0.00029779161014939221 0 -0.024744613208023954 2.1130747648881984e-07 0 -0.025643438970243106 -0.00017037531353093118 0 -0.01039898138664482 0.00017841086305697178 0 -0.0097485594079268004 0.00013593811095709009 0 -0.010486334009506288 0.00021536361877658435 0 -0.01039898138664482 0.00017841086305697178 0 -0.0094676046622573003 4.2214080232047761e-07 0 -0.0097485594079268004 0.00013593811095709009 0 -0.01039898138664482 0.00017841086305697178 0 -0.0094676046622573003 4.2214080232047761e-07 0 -0.01142835648835948 -8.4869556124039673e-08 0 -0.0094676046622573003 4.2214080232047761e-07 0 -0.0097485594079268004 0.00013593811095709009 0 -0.0082298124799363107 -8.9369906657630894e-05 0 -0.0097485594079268004 0.00013593811095709009 0 -0.010443706979599286 7.78255355531682e-05 0 -0.010156747719176252 -0.00026622939715372141 0 -0.0094040215741196548 -0.00026972921415048393 0 -0.0087684973066114065 -0.00023746173581484756 0 -0.010443706979599286 7.78255355531682e-05 0 -0.01066652527177385 -1.1951910374305589e-06 0 -0.010156747719176252 -0.00026622939715372141 0 -0.010443706979599286 7.78255355531682e-05 0 -0.010486334009506288 0.00021536361877658435 0 -0.010697266443412205 0.00020137148080636292 0 -0.010443706979599286 7.78255355531682e-05 0 -0.010697266443412205 0.00020137148080636292 0 -0.01066652527177385 -1.1951910374305589e-06 0 -0.0097485594079268004 0.00013593811095709009 0 -0.010443706979599286 7.78255355531682e-05 0 -0.010486334009506288 0.00021536361877658435 0 -0.01039898138664482 0.00017841086305697178 0 -0.010486334009506288 0.00021536361877658435 0 -0.010805565647405866 0.0001093127150402631 0 -0.010486334009506288 0.00021536361877658435 0 -0.010732504194652128 0.00019368318673485126 0 -0.010805565647405866 0.0001093127150402631 0 -0.010486334009506288 0.00021536361877658435 0 -0.010732504194652128 0.00019368318673485126 0 -0.010697266443412205 0.00020137148080636292 0 -0.010732504194652128 0.00019368318673485126 0 -0.010827965541859722 0.00018065191504316981 0 -0.010697266443412205 0.00020137148080636292 0 -0.010732504194652128 0.00019368318673485126 0 -0.011007952531675511 0.00012858902224053981 0 -0.010827965541859722 0.00018065191504316981 0 -0.011007952531675511 0.00012858902224053981 0 -0.010827965541859722 0.00018065191504316981 0 -0.010947703420037567 4.5003858900702096e-05 0 -0.010732504194652128 0.00019368318673485126 0 -0.011007952531675511 0.00012858902224053981 0 -0.010805565647405866 0.0001093127150402631 0 -0.011007952531675511 0.00012858902224053981 0 -0.010805565647405866 0.0001093127150402631 0 -0.011315102926018748 5.1468302705704045e-05 0 -0.012156931655745514 0.00019582346533994838 0 -0.012257800698643654 -5.0897930668222396e-05 0 -0.011998605397980708 -0.00010959660207878979 0 -0.010805565647405866 0.0001093127150402631 0 -0.010736512637845424 -6.1942168691897525e-05 0 -0.011315102926018748 5.1468302705704045e-05 0 -0.012156931655745514 0.00019582346533994838 0 -0.011998605397980708 -0.00010959660207878979 0 -0.011315102926018748 5.1468302705704045e-05 0 -0.01144628103616923 7.2555829646138789e-05 0 -0.0112885745299504 7.0660383519540044e-06 0 -0.01039898138664482 0.00017841086305697178 0 -0.010805565647405866 0.0001093127150402631 0 -0.010736512637845424 -6.1942168691897525e-05 0 -0.01144628103616923 7.2555829646138789e-05 0 -0.011431983625433741 1.2961594929733746e-07 0 -0.01039898138664482 0.00017841086305697178 0 -0.010736512637845424 -6.1942168691897525e-05 0 -0.01142835648835948 -8.4869556124039673e-08 0 -0.012156931655745514 0.00019582346533994838 0 -0.012586065038054184 3.5273393245472623e-07 0 -0.012257800698643654 -5.0897930668222396e-05 0 -0.012156931655745514 0.00019582346533994838 0 -0.011435574430534662 4.6496221255551901e-08 0 -0.012586065038054184 3.5273393245472623e-07 0 -0.012590836518944871 -2.674574325975442e-07 0 -0.01453605325572256 -5.18530913916839e-05 0 -0.01414498386061451 -1.6522324163911537e-07 0 -0.012590531754355297 2.2641177766976273e-07 0 -0.013407260145090078 -4.4617736551822419e-05 0 -0.012586065038054184 3.5273393245472623e-07 0 -0.012257800698643654 -5.0897930668222396e-05 0 -0.012261810160160629 -0.00026972265959863116 0 -0.012257800698643654 -5.0897930668222396e-05 0 -0.012261810160160629 -0.00026972265959863116 0 -0.011998605397980708 -0.00010959660207878979 0 -0.012261810160160629 -0.00026972265959863116 0 -0.011998605397980708 -0.00010959660207878979 0 -0.011889738429128978 -0.00033932259219436096 0 -0.011998605397980708 -0.00010959660207878979 0 -0.011889738429128978 -0.00033932259219436096 0 -0.011315102926018748 5.1468302705704045e-05 0 -0.011889738429128978 -0.00033932259219436096 0 -0.01222483378693574 -0.00065138624989718411 0 -0.011786043884894877 -0.00049483780842774102 0 -0.012261810160160629 -0.00026972265959863116 0 -0.011889738429128978 -0.00033932259219436096 0 -0.01222483378693574 -0.00065138624989718411 0 -0.013407260145090078 -4.4617736551822419e-05 0 -0.013800887963222317 -0.00015410233461103949 0 -0.01453605325572256 -5.18530913916839e-05 0 -0.015076276549750139 0.0001442342761594466 0 -0.01552745616827263 0.00036876103472852572 0 -0.01414498386061451 -1.6522324163911537e-07 0 -0.015076276549750139 0.0001442342761594466 0 -0.015699676361466627 1.4411842346253441e-06 0 -0.01453605325572256 -5.18530913916839e-05 0 -0.01414498386061451 -1.6522324163911537e-07 0 -0.015076276549750139 0.0001442342761594466 0 -0.015699676361466627 1.4411842346253441e-06 0 -0.01552745616827263 0.00036876103472852572 0 -0.015908653865480887 0.00023407054398564742 0 -0.015076276549750139 0.0001442342761594466 0 -0.015699676361466627 1.4411842346253441e-06 0 -0.01552745616827263 0.00036876103472852572 0 -0.01222483378693574 -0.00065138624989718411 0 -0.0125001270973478 -0.0011050852034691194 0 -0.012119558788224408 -0.00079924208574839875 0 -0.01552745616827263 0.00036876103472852572 0 -0.01457800589861105 -2.809736782419799e-06 0 -0.015908653865480887 0.00023407054398564742 0 -0.01222483378693574 -0.00065138624989718411 0 -0.012119558788224408 -0.00079924208574839875 0 -0.011786043884894877 -0.00049483780842774102 0 -0.013800887963222317 -0.00015410233461103949 0 -0.013521929396583896 -0.00068135257820186093 0 -0.015699676361466627 1.4411842346253441e-06 0 -0.015908653865480887 0.00023407054398564742 0 -0.01725063181551691 -1.9382634173548491e-06 0 -0.01457800589861105 -2.809736782419799e-06 0 -0.015908653865480887 0.00023407054398564742 0 -0.01725063181551691 -1.9382634173548491e-06 0 -0.011955799308219568 -0.0010193979318348773 0 -0.010996564091477883 -0.00099282620492567261 0 -0.011823425914950685 -0.0012694118162665594 0 -0.011920138933768528 -0.00096008301634422288 0 -0.011560708389888812 -0.001242627785363093 0 -0.011920138933768528 -0.00096008301634422288 0 -0.01125001996479608 -0.00075946721146946759 0 -0.010714042375763672 -0.0011602279977480907 0 -0.012212715387746325 -0.0013831757627244994 0 -0.011823425914950685 -0.0012694118162665594 0 -0.011920138933768528 -0.00096008301634422288 0 -0.0125001270973478 -0.0011050852034691194 0 -0.011920138933768528 -0.00096008301634422288 0 -0.012119558788224408 -0.00079924208574839875 0 -0.012212715387746325 -0.0013831757627244994 0 -0.0125001270973478 -0.0011050852034691194 0 -0.011920138933768528 -0.00096008301634422288 0 -0.011920138933768528 -0.00096008301634422288 0 -0.012119558788224408 -0.00079924208574839875 0 -0.011786043884894877 -0.00049483780842774102 0 -0.011920138933768528 -0.00096008301634422288 0 -0.011451156845817342 -0.00048944567443529659 0 -0.011786043884894877 -0.00049483780842774102 0 -0.011920138933768528 -0.00096008301634422288 0 -0.011451156845817342 -0.00048944567443529659 0 -0.01125001996479608 -0.00075946721146946759 0 -0.011451156845817342 -0.00048944567443529659 0 -0.01125001996479608 -0.00075946721146946759 0 -0.011080096944940054 -0.00048227507021909069 0 -0.011451156845817342 -0.00048944567443529659 0 -0.011101946258937822 -0.00019788539446062746 0 -0.011080096944940054 -0.00048227507021909069 0 -0.011451156845817342 -0.00048944567443529659 0 -0.011101946258937822 -0.00019788539446062746 0 -0.011339963899969736 -0.00015793767931323655 0 -0.011889738429128978 -0.00033932259219436096 0 -0.011786043884894877 -0.00049483780842774102 0 -0.011339963899969736 -0.00015793767931323655 0 -0.011451156845817342 -0.00048944567443529659 0 -0.011786043884894877 -0.00049483780842774102 0 -0.011339963899969736 -0.00015793767931323655 0 -0.011889738429128978 -0.00033932259219436096 0 -0.011339963899969736 -0.00015793767931323655 0 -0.011315102926018748 5.1468302705704045e-05 0 -0.011007952531675511 0.00012858902224053981 0 -0.011339963899969736 -0.00015793767931323655 0 -0.011315102926018748 5.1468302705704045e-05 0 -0.011007952531675511 0.00012858902224053981 0 -0.011339963899969736 -0.00015793767931323655 0 -0.010947703420037567 4.5003858900702096e-05 0 -0.011101946258937822 -0.00019788539446062746 0 -0.011339963899969736 -0.00015793767931323655 0 -0.010947703420037567 4.5003858900702096e-05 0 -0.010827965541859722 0.00018065191504316981 0 -0.010947703420037567 4.5003858900702096e-05 0 -0.010753955858987922 0.00010718897645977379 0 -0.010753955858987922 0.00010718897645977379 0 -0.010710259090378621 2.4641967004885037e-05 0 -0.010857450200025775 -4.9718059219866594e-05 0 -0.011101946258937822 -0.00019788539446062746 0 -0.010947703420037567 4.5003858900702096e-05 0 -0.010857450200025775 -4.9718059219866594e-05 0 -0.010947703420037567 4.5003858900702096e-05 0 -0.010753955858987922 0.00010718897645977379 0 -0.010857450200025775 -4.9718059219866594e-05 0 -0.010638501538323113 0.00014761439270829995 0 -0.010632952663120953 0.0001282141237316428 0 -0.010685003201359289 0.00016602171143024057 0 -0.0083766395227430849 0.00082536162678605973 0 -0.010328590344666915 -7.1856644335494517e-05 0 -0.010753955858987922 0.00010718897645977379 0 -0.010632952663120953 0.0001282141237316428 0 -0.010685003201359289 0.00016602171143024057 0 -0.010753955858987922 0.00010718897645977379 0 -0.010710259090378621 2.4641967004885037e-05 0 -0.010632952663120953 0.0001282141237316428 0 -0.010710259090378621 2.4641967004885037e-05 0 -0.010575995716014272 3.4798929778693058e-05 0 -0.010632952663120953 0.0001282141237316428 0 -0.010575995716014272 3.4798929778693058e-05 0 -0.010632952663120953 0.0001282141237316428 0 -0.01051250497595088 0.00017266310535130332 0 -0.010433461412976871 0.00034702509909751393 0 -0.010632952663120953 0.0001282141237316428 0 -0.01051250497595088 0.00017266310535130332 0 -0.010575995716014272 3.4798929778693058e-05 0 -0.01051250497595088 0.00017266310535130332 0 -0.010433836980859474 9.7870474919382341e-05 0 -0.010433461412976871 0.00034702509909751393 0 -0.010392477830593076 0.00019729750863438792 0 -0.010324974442203491 0.00027435708976489 0 -0.01051250497595088 0.00017266310535130332 0 -0.010433836980859474 9.7870474919382341e-05 0 -0.010392477830593076 0.00019729750863438792 0 -0.010433461412976871 0.00034702509909751393 0 -0.01051250497595088 0.00017266310535130332 0 -0.010392477830593076 0.00019729750863438792 0 -0.010396856238042717 -5.4720822536391698e-05 0 -0.010608092629400242 -0.00010664642834197617 0 -0.010482265158638218 -0.00025621582151660866 0 -0.010575995716014272 3.4798929778693058e-05 0 -0.010396856238042717 -5.4720822536391698e-05 0 -0.010608092629400242 -0.00010664642834197617 0 -0.010575995716014272 3.4798929778693058e-05 0 -0.010433836980859474 9.7870474919382341e-05 0 -0.010396856238042717 -5.4720822536391698e-05 0 -0.010710259090378621 2.4641967004885037e-05 0 -0.010575995716014272 3.4798929778693058e-05 0 -0.010608092629400242 -0.00010664642834197617 0 -0.010710259090378621 2.4641967004885037e-05 0 -0.010608092629400242 -0.00010664642834197617 0 -0.010753022373546322 -0.0001263417979289172 0 -0.010689044203096574 -0.00028016286779726079 0 -0.010482265158638218 -0.00025621582151660866 0 -0.010584996556566136 -0.00040119544304258669 0 -0.010608092629400242 -0.00010664642834197617 0 -0.010689044203096574 -0.00028016286779726079 0 -0.010482265158638218 -0.00025621582151660866 0 -0.010608092629400242 -0.00010664642834197617 0 -0.010689044203096574 -0.00028016286779726079 0 -0.010753022373546322 -0.0001263417979289172 0 -0.010396856238042717 -5.4720822536391698e-05 0 -0.010482265158638218 -0.00025621582151660866 0 -0.01022242398858661 -0.00028495550155988297 0 -0.011101946258937822 -0.00019788539446062746 0 -0.010857450200025775 -4.9718059219866594e-05 0 -0.010896463719667876 -0.00024974822294489702 0 -0.010857450200025775 -4.9718059219866594e-05 0 -0.010753022373546322 -0.0001263417979289172 0 -0.010896463719667876 -0.00024974822294489702 0 -0.010710259090378621 2.4641967004885037e-05 0 -0.010857450200025775 -4.9718059219866594e-05 0 -0.010753022373546322 -0.0001263417979289172 0 -0.010689044203096574 -0.00028016286779726079 0 -0.010753022373546322 -0.0001263417979289172 0 -0.010896463719667876 -0.00024974822294489702 0 -0.010689044203096574 -0.00028016286779726079 0 -0.010896463719667876 -0.00024974822294489702 0 -0.010783033907611374 -0.00046838919452187467 0 -0.011101946258937822 -0.00019788539446062746 0 -0.010896463719667876 -0.00024974822294489702 0 -0.011080096944940054 -0.00048227507021909069 0 -0.010896463719667876 -0.00024974822294489702 0 -0.011080096944940054 -0.00048227507021909069 0 -0.010783033907611374 -0.00046838919452187467 0 -0.01125001996479608 -0.00075946721146946759 0 -0.011080096944940054 -0.00048227507021909069 0 -0.010823204457646783 -0.00080444436236767739 0 -0.011080096944940054 -0.00048227507021909069 0 -0.010783033907611374 -0.00046838919452187467 0 -0.010823204457646783 -0.00080444436236767739 0 -0.010783033907611374 -0.00046838919452187467 0 -0.010606918404901017 -0.00057845591391512063 0 -0.010823204457646783 -0.00080444436236767739 0 -0.010584996556566136 -0.00040119544304258669 0 -0.010416546468847701 -0.00044716283314501633 0 -0.010606918404901017 -0.00057845591391512063 0 -0.010689044203096574 -0.00028016286779726079 0 -0.010783033907611374 -0.00046838919452187467 0 -0.010584996556566136 -0.00040119544304258669 0 -0.010783033907611374 -0.00046838919452187467 0 -0.010584996556566136 -0.00040119544304258669 0 -0.010606918404901017 -0.00057845591391512063 0 -0.010482265158638218 -0.00025621582151660866 0 -0.010584996556566136 -0.00040119544304258669 0 -0.010416546468847701 -0.00044716283314501633 0 -0.010482265158638218 -0.00025621582151660866 0 -0.010416546468847701 -0.00044716283314501633 0 -0.01022242398858661 -0.00028495550155988297 0 -0.010416546468847701 -0.00044716283314501633 0 -0.010428652442282747 -0.00062138787919911904 0 -0.010606918404901017 -0.00057845591391512063 0 -0.010416546468847701 -0.00044716283314501633 0 -0.010428652442282747 -0.00062138787919911904 0 -0.010231257990532048 -0.00052395517658724623 0 -0.010428652442282747 -0.00062138787919911904 0 -0.010606918404901017 -0.00057845591391512063 0 -0.010581228318020004 -0.00073914998574186696 0 -0.010606918404901017 -0.00057845591391512063 0 -0.010581228318020004 -0.00073914998574186696 0 -0.010823204457646783 -0.00080444436236767739 0 -0.010170363900508642 -0.00092978352588561066 0 -0.010335513221996873 -0.00074107218439426771 0 -0.010770772276791823 -0.00090488172829158097 0 -0.010610452301968085 -0.00086001103549356126 0 -0.010996564091477883 -0.00099282620492567261 0 -0.010581228318020004 -0.00073914998574186696 0 -0.010335513221996873 -0.00074107218439426771 0 -0.010770772276791823 -0.00090488172829158097 0 -0.010428652442282747 -0.00062138787919911904 0 -0.010581228318020004 -0.00073914998574186696 0 -0.010335513221996873 -0.00074107218439426771 0 -0.010428652442282747 -0.00062138787919911904 0 -0.010335513221996873 -0.00074107218439426771 0 -0.010231257990532048 -0.00052395517658724623 0 -0.011648944375034552 -0.001383346328514765 0 -0.011823425914950685 -0.0012694118162665594 0 -0.011560708389888812 -0.001242627785363093 0 -0.01125001996479608 -0.00075946721146946759 0 -0.010714042375763672 -0.0011602279977480907 0 -0.010823204457646783 -0.00080444436236767739 0 -0.010996564091477883 -0.00099282620492567261 0 -0.010901746285023875 -0.00090501651433648185 0 -0.010581228318020004 -0.00073914998574186696 0 -0.010770772276791823 -0.00090488172829158097 0 -0.010823204457646783 -0.00080444436236767739 0 -0.009831117874617188 -0.00060331822559017147 0 -0.0099089745623518796 -0.00077662008395117425 0 -0.010059510228185192 -0.00065262707944179561 0 -0.009831117874617188 -0.00060331822559017147 0 -0.0097110181698910163 -0.00076053186384912282 0 -0.0096505561441024325 -0.00058139591015213569 0 -0.009831117874617188 -0.00060331822559017147 0 -0.0097052548963177058 -0.00042471389499727601 0 -0.0096505561441024325 -0.00058139591015213569 0 -0.009831117874617188 -0.00060331822559017147 0 -0.0097110181698910163 -0.00076053186384912282 0 -0.0099089745623518796 -0.00077662008395117425 0 -0.0099089745623518796 -0.00077662008395117425 0 -0.010104421218394633 -0.00078595592932526926 0 -0.010059510228185192 -0.00065262707944179561 0 -0.010170363900508642 -0.00092978352588561066 0 -0.0099089745623518796 -0.00077662008395117425 0 -0.010104421218394633 -0.00078595592932526926 0 -0.010170363900508642 -0.00092978352588561066 0 -0.010335513221996873 -0.00074107218439426771 0 -0.010104421218394633 -0.00078595592932526926 0 -0.010335513221996873 -0.00074107218439426771 0 -0.010104421218394633 -0.00078595592932526926 0 -0.010059510228185192 -0.00065262707944179561 0 -0.010335513221996873 -0.00074107218439426771 0 -0.010059510228185192 -0.00065262707944179561 0 -0.010231257990532048 -0.00052395517658724623 0 -0.010059510228185192 -0.00065262707944179561 0 -0.010231257990532048 -0.00052395517658724623 0 -0.0099294883020654822 -0.0003868187838936448 0 -0.010416546468847701 -0.00044716283314501633 0 -0.010231257990532048 -0.00052395517658724623 0 -0.01022242398858661 -0.00028495550155988297 0 -0.010231257990532048 -0.00052395517658724623 0 -0.01022242398858661 -0.00028495550155988297 0 -0.0099294883020654822 -0.0003868187838936448 0 -0.01022242398858661 -0.00028495550155988297 0 -0.0099294883020654822 -0.0003868187838936448 0 -0.0098970896344385984 -0.00012228987970948777 0 -0.0099294883020654822 -0.0003868187838936448 0 -0.0096344396395051466 -0.00016655727651809007 0 -0.0098970896344385984 -0.00012228987970948777 0 -0.009831117874617188 -0.00060331822559017147 0 -0.010059510228185192 -0.00065262707944179561 0 -0.0099294883020654822 -0.0003868187838936448 0 -0.009831117874617188 -0.00060331822559017147 0 -0.0099294883020654822 -0.0003868187838936448 0 -0.0097052548963177058 -0.00042471389499727601 0 -0.0099294883020654822 -0.0003868187838936448 0 -0.0097052548963177058 -0.00042471389499727601 0 -0.0096344396395051466 -0.00016655727651809007 0 -0.0096344396395051466 -0.00016655727651809007 0 -0.0098970896344385984 -0.00012228987970948777 0 -0.0097290413157424226 9.5069673302039902e-05 0 -0.0098970896344385984 -0.00012228987970948777 0 -0.0097290413157424226 9.5069673302039902e-05 0 -0.0099646483070774481 0.00014389144209393055 0 -0.010396856238042717 -5.4720822536391698e-05 0 -0.01022242398858661 -0.00028495550155988297 0 -0.010134775906788752 -3.6386098231346336e-05 0 -0.01022242398858661 -0.00028495550155988297 0 -0.0098970896344385984 -0.00012228987970948777 0 -0.010134775906788752 -3.6386098231346336e-05 0 -0.0098970896344385984 -0.00012228987970948777 0 -0.010134775906788752 -3.6386098231346336e-05 0 -0.0099646483070774481 0.00014389144209393055 0 -0.010134775906788752 -3.6386098231346336e-05 0 -0.010264230272115279 0.00015675102128851474 0 -0.0099646483070774481 0.00014389144209393055 0 -0.010396856238042717 -5.4720822536391698e-05 0 -0.010134775906788752 -3.6386098231346336e-05 0 -0.010264230272115279 0.00015675102128851474 0 -0.010324974442203491 0.00027435708976489 0 -0.010264230272115279 0.00015675102128851474 0 -0.010095692544597423 0.00038019036003427505 0 -0.010392477830593076 0.00019729750863438792 0 -0.010324974442203491 0.00027435708976489 0 -0.010264230272115279 0.00015675102128851474 0 -0.010433836980859474 9.7870474919382341e-05 0 -0.010392477830593076 0.00019729750863438792 0 -0.010264230272115279 0.00015675102128851474 0 -0.010433836980859474 9.7870474919382341e-05 0 -0.010396856238042717 -5.4720822536391698e-05 0 -0.010264230272115279 0.00015675102128851474 0 -0.010264230272115279 0.00015675102128851474 0 -0.010095692544597423 0.00038019036003427505 0 -0.0099646483070774481 0.00014389144209393055 0 -0.010433461412976871 0.00034702509909751393 0 -0.010324974442203491 0.00027435708976489 0 -0.010095692544597423 0.00038019036003427505 0 -0.0097290413157424226 9.5069673302039902e-05 0 -0.009728332059417007 0.00042007012145460709 0 -0.0094230286677010836 0.00023494577346309996 0 -0.010095692544597423 0.00038019036003427505 0 -0.0099646483070774481 0.00014389144209393055 0 -0.009728332059417007 0.00042007012145460709 0 -0.0097290413157424226 9.5069673302039902e-05 0 -0.0099646483070774481 0.00014389144209393055 0 -0.009728332059417007 0.00042007012145460709 0 -0.0053097462390782084 0.0025650262190917909 0 -0.0052712766206594432 0.0023292719783420371 0 -0.0053279798718735864 0.00233397476061987 0 -0.010095692544597423 0.00038019036003427505 0 -0.009728332059417007 0.00042007012145460709 0 -0.0097831798405542507 0.00088975027987645515 0 -0.0053097462390782084 0.0025650262190917909 0 -0.0052186963149449166 0.0024685344488931194 0 -0.0052712766206594432 0.0023292719783420371 0 -0.009728332059417007 0.00042007012145460709 0 -0.0097831798405542507 0.00088975027987645515 0 -0.0092421542281914577 0.0007261173075659461 0 -0.0052721002171013248 0.0025373492713070662 0 -0.0053097462390782084 0.0025650262190917909 0 -0.0052186963149449166 0.0024685344488931194 0 -0.010433461412976871 0.00034702509909751393 0 -0.010095692544597423 0.00038019036003427505 0 -0.0097831798405542507 0.00088975027987645515 0 -0.0083766395227430849 0.00082536162678605973 0 -0.0074215419400960854 0.0018612707941415129 0 -0.010685003201359289 0.00016602171143024057 0 -0.010731414815191255 0.00019585684235210425 0 -0.010710911101585913 0.00021308358458698148 0 -0.0083766395227430849 0.00082536162678605973 0 -0.0080438928120785645 0.0014763271255255977 0 -0.010638501538323113 0.00014761439270829995 0 -0.010685003201359289 0.00016602171143024057 0 -0.010710911101585913 0.00021308358458698148 0 -0.010827965541859722 0.00018065191504316981 0 -0.010753955858987922 0.00010718897645977379 0 -0.010731414815191255 0.00019585684235210425 0 -0.010753955858987922 0.00010718897645977379 0 -0.010685003201359289 0.00016602171143024057 0 -0.010731414815191255 0.00019585684235210425 0 -0.010731414815191255 0.00019585684235210425 0 -0.010697266443412205 0.00020137148080636292 0 -0.010710911101585913 0.00021308358458698148 0 -0.010827965541859722 0.00018065191504316981 0 -0.010731414815191255 0.00019585684235210425 0 -0.010697266443412205 0.00020137148080636292 0 -0.0080438928120785645 0.0014763271255255977 0 -0.0069071116876541789 0.0010471472442733661 0 -0.010697266443412205 0.00020137148080636292 0 -0.010710911101585913 0.00021308358458698148 0 -0.010743732007648053 0.00011324303982810753 0 -0.010697266443412205 0.00020137148080636292 0 -0.01066652527177385 -1.1951910374305589e-06 0 -0.010743732007648053 0.00011324303982810753 0 -0.0073583825914239585 -0.00033840908230124521 0 -0.0071601686289561326 -0.00037849196113462101 0 -0.0072989908089554148 -0.00018974566201556618 0 -0.0094040215741196548 -0.00026972921415048393 0 -0.0069071116876541789 0.0010471472442733661 0 -0.0040145806143153983 0.0019057707479537549 0 -0.0044332903663376723 0.0015091289292885402 0 -0.0039869696387819622 0.0010867614811136484 0 -0.0040145806143153983 0.0019057707479537549 0 -0.0044332903663376723 0.0015091289292885402 0 -0.004569457585560161 0.0021229764713730057 0 -0.0044332903663376723 0.0015091289292885402 0 -0.004569457585560161 0.0021229764713730057 0 -0.0051593724926674266 0.0016396305373520144 0 -0.0046022176289125596 0.0021416799155990012 0 -0.0053907485025082866 0.0023636744743425761 0 -0.004569457585560161 0.0021229764713730057 0 -0.0053279798718735864 0.00233397476061987 0 -0.0051593724926674266 0.0016396305373520144 0 -0.0052186963149449166 0.0024685344488931194 0 -0.0052019896497212626 0.0022961423890187119 0 -0.0052712766206594432 0.0023292719783420371 0 -0.0069071116876541789 0.0010471472442733661 0 -0.0046022176289125596 0.0021416799155990012 0 -0.0058318454001080522 0.0019822107527303202 0 -0.0073240792305653063 0.0017767641563046764 0 -0.0057900846649197677 0.0026295522632648755 0 -0.0073519558222818974 0.0018134596388059223 0 -0.0074050765139419784 0.0019562007754325168 0 -0.0058318454001080522 0.0019822107527303202 0 -0.0053279798718735864 0.00233397476061987 0 -0.0051593724926674266 0.0016396305373520144 0 -0.0058318454001080522 0.0019822107527303202 0 -0.0053279798718735864 0.00233397476061987 0 -0.0057900846649197677 0.0026295522632648755 0 -0.0058318454001080522 0.0019822107527303202 0 -0.0051593724926674266 0.0016396305373520144 0 -0.0060391940699305287 0.0015086202906747709 0 -0.0058318454001080522 0.0019822107527303202 0 -0.0060391940699305287 0.0015086202906747709 0 -0.0073240792305653063 0.0017767641563046764 0 -0.0060391940699305287 0.0015086202906747709 0 -0.0073240792305653063 0.0017767641563046764 0 -0.0066516302848107891 0.0013042328696901005 0 -0.0073240792305653063 0.0017767641563046764 0 -0.0070879715062374992 0.0012961273609129226 0 -0.0066516302848107891 0.0013042328696901005 0 -0.0074020309362896452 0.001502153617396304 0 -0.0073240792305653063 0.0017767641563046764 0 -0.0070879715062374992 0.0012961273609129226 0 -0.0074020309362896452 0.001502153617396304 0 -0.0073240792305653063 0.0017767641563046764 0 -0.0078693627561360717 0.0013392528026900999 0 -0.0073240792305653063 0.0017767641563046764 0 -0.0078693627561360717 0.0013392528026900999 0 -0.0089349512308833628 0.0014358349181306676 0 -0.0078693627561360717 0.0013392528026900999 0 -0.008014552836476568 0.00098143674460459979 0 -0.0085226421259531164 0.00089867975382361626 0 -0.008014552836476568 0.00098143674460459979 0 -0.0077938869274894133 0.0010133836509878323 0 -0.0076584070382233463 0.0012474653470047046 0 -0.0078693627561360717 0.0013392528026900999 0 -0.008014552836476568 0.00098143674460459979 0 -0.0076584070382233463 0.0012474653470047046 0 -0.0074020309362896452 0.001502153617396304 0 -0.0078693627561360717 0.0013392528026900999 0 -0.0076584070382233463 0.0012474653470047046 0 -0.008014552836476568 0.00098143674460459979 0 -0.0080067612185589429 0.0007608013310540638 0 -0.0077938869274894133 0.0010133836509878323 0 -0.008014552836476568 0.00098143674460459979 0 -0.0083297228267166443 0.00052613420582165967 0 -0.0080067612185589429 0.0007608013310540638 0 -0.008014552836476568 0.00098143674460459979 0 -0.0085226421259531164 0.00089867975382361626 0 -0.0085554187261492887 0.00055323780013142275 0 -0.0085226421259531164 0.00089867975382361626 0 -0.0089349512308833628 0.0014358349181306676 0 -0.0092421542281914577 0.0007261173075659461 0 -0.0085226421259531164 0.00089867975382361626 0 -0.008918207354220194 0.00052739391377146921 0 -0.0085554187261492887 0.00055323780013142275 0 -0.0085226421259531164 0.00089867975382361626 0 -0.0092421542281914577 0.0007261173075659461 0 -0.008918207354220194 0.00052739391377146921 0 -0.0078693627561360717 0.0013392528026900999 0 -0.0085226421259531164 0.00089867975382361626 0 -0.0089349512308833628 0.0014358349181306676 0 -0.0074215419400960854 0.0018612707941415129 0 -0.0074050765139419784 0.0019562007754325168 0 -0.0053097462390782084 0.0025650262190917909 0 -0.0053279798718735864 0.00233397476061987 0 -0.0057900846649197677 0.0026295522632648755 0 -0.0097831798405542507 0.00088975027987645515 0 -0.0089349512308833628 0.0014358349181306676 0 -0.0092421542281914577 0.0007261173075659461 0 -0.0092421542281914577 0.0007261173075659461 0 -0.0094230286677010836 0.00023494577346309996 0 -0.008918207354220194 0.00052739391377146921 0 -0.009728332059417007 0.00042007012145460709 0 -0.0092421542281914577 0.0007261173075659461 0 -0.0094230286677010836 0.00023494577346309996 0 -0.0094230286677010836 0.00023494577346309996 0 -0.008918207354220194 0.00052739391377146921 0 -0.0090235428355343646 0.00017991734836687929 0 -0.008918207354220194 0.00052739391377146921 0 -0.0090235428355343646 0.00017991734836687929 0 -0.0085554187261492887 0.00055323780013142275 0 -0.0090235428355343646 0.00017991734836687929 0 -0.0090290738868923307 -4.848769362979186e-05 0 -0.0093023020641787579 -9.7632409879839287e-05 0 -0.0094230286677010836 0.00023494577346309996 0 -0.0090235428355343646 0.00017991734836687929 0 -0.0093023020641787579 -9.7632409879839287e-05 0 -0.0096344396395051466 -0.00016655727651809007 0 -0.0094230286677010836 0.00023494577346309996 0 -0.0093023020641787579 -9.7632409879839287e-05 0 -0.0096344396395051466 -0.00016655727651809007 0 -0.0097290413157424226 9.5069673302039902e-05 0 -0.0094230286677010836 0.00023494577346309996 0 -0.0096344396395051466 -0.00016655727651809007 0 -0.0093023020641787579 -9.7632409879839287e-05 0 -0.0094644817463620575 -0.00042478549236687915 0 -0.0097052548963177058 -0.00042471389499727601 0 -0.0096344396395051466 -0.00016655727651809007 0 -0.0094644817463620575 -0.00042478549236687915 0 -0.0097052548963177058 -0.00042471389499727601 0 -0.0094644817463620575 -0.00042478549236687915 0 -0.0096505561441024325 -0.00058139591015213569 0 -0.0090290738868923307 -4.848769362979186e-05 0 -0.0093023020641787579 -9.7632409879839287e-05 0 -0.0092451669490858281 -0.00027489510005265696 0 -0.0093023020641787579 -9.7632409879839287e-05 0 -0.0094644817463620575 -0.00042478549236687915 0 -0.0092451669490858281 -0.00027489510005265696 0 -0.0090290738868923307 -4.848769362979186e-05 0 -0.0092451669490858281 -0.00027489510005265696 0 -0.0091016397641248414 -0.00031532529662410666 0 -0.0092451669490858281 -0.00027489510005265696 0 -0.0093012974385123098 -0.00048819290545975657 0 -0.0091016397641248414 -0.00031532529662410666 0 -0.0094644817463620575 -0.00042478549236687915 0 -0.0092451669490858281 -0.00027489510005265696 0 -0.0093012974385123098 -0.00048819290545975657 0 -0.0094644817463620575 -0.00042478549236687915 0 -0.0093012974385123098 -0.00048819290545975657 0 -0.0094156432209318852 -0.00063523735288680114 0 -0.0093012974385123098 -0.00048819290545975657 0 -0.0093437802880381986 -0.00066705545593005321 0 -0.0092527331242769646 -0.00053698856731939943 0 -0.0094010825880714299 -0.00074422636249206464 0 -0.0093437802880381986 -0.00066705545593005321 0 -0.0094156432209318852 -0.00063523735288680114 0 -0.0093012974385123098 -0.00048819290545975657 0 -0.0093437802880381986 -0.00066705545593005321 0 -0.0094156432209318852 -0.00063523735288680114 0 -0.0095122513192513539 -0.0007480534805646955 0 -0.0094156432209318852 -0.00063523735288680114 0 -0.0095494051948065688 -0.00067824250057293739 0 -0.0095990071866529445 -0.00078181238105245543 0 -0.0095122513192513539 -0.0007480534805646955 0 -0.0095494051948065688 -0.00067824250057293739 0 -0.0095990071866529445 -0.00078181238105245543 0 -0.0097110181698910163 -0.00076053186384912282 0 -0.0095494051948065688 -0.00067824250057293739 0 -0.0097110181698910163 -0.00076053186384912282 0 -0.0095494051948065688 -0.00067824250057293739 0 -0.0096505561441024325 -0.00058139591015213569 0 -0.0094644817463620575 -0.00042478549236687915 0 -0.0095494051948065688 -0.00067824250057293739 0 -0.0096505561441024325 -0.00058139591015213569 0 -0.0094644817463620575 -0.00042478549236687915 0 -0.0094156432209318852 -0.00063523735288680114 0 -0.0095494051948065688 -0.00067824250057293739 0 -0.0091558821141105411 -0.00048068861752705272 0 -0.0089713474134216261 -0.00044520369771666919 0 -0.0087653346482747547 -0.00015017878953899768 0 -0.009431192389094227 -0.00072090020085638709 0 -0.0092738169601402978 -0.00067614847762572749 0 -0.0089713474134216261 -0.00044520369771666919 0 -0.009431192389094227 -0.00072090020085638709 0 -0.0091558821141105411 -0.00048068861752705272 0 -0.0089713474134216261 -0.00044520369771666919 0 -0.00938601165274776 -0.00073221857139555888 0 -0.009431192389094227 -0.00072090020085638709 0 -0.0091558821141105411 -0.00048068861752705272 0 -0.00938601165274776 -0.00073221857139555888 0 -0.0091558821141105411 -0.00048068861752705272 0 -0.0092527331242769646 -0.00053698856731939943 0 -0.00938601165274776 -0.00073221857139555888 0 -0.0093437802880381986 -0.00066705545593005321 0 -0.0092527331242769646 -0.00053698856731939943 0 -0.0093012974385123098 -0.00048819290545975657 0 -0.0092527331242769646 -0.00053698856731939943 0 -0.0091016397641248414 -0.00031532529662410666 0 -0.0091558821141105411 -0.00048068861752705272 0 -0.0092527331242769646 -0.00053698856731939943 0 -0.0091016397641248414 -0.00031532529662410666 0 -0.0091558821141105411 -0.00048068861752705272 0 -0.0089759738467993094 -0.00025687848743980016 0 -0.0091016397641248414 -0.00031532529662410666 0 -0.0090290738868923307 -4.848769362979186e-05 0 -0.0091016397641248414 -0.00031532529662410666 0 -0.0088486949254636404 -5.7175573610056813e-05 0 -0.0089759738467993094 -0.00025687848743980016 0 -0.0091016397641248414 -0.00031532529662410666 0 -0.0088486949254636404 -5.7175573610056813e-05 0 -0.0088486949254636404 -5.7175573610056813e-05 0 -0.0087653346482747547 -0.00015017878953899768 0 -0.0085214079715772838 0.00020336905256198703 0 -0.0089759738467993094 -0.00025687848743980016 0 -0.0088486949254636404 -5.7175573610056813e-05 0 -0.0087653346482747547 -0.00015017878953899768 0 -0.0091558821141105411 -0.00048068861752705272 0 -0.0089759738467993094 -0.00025687848743980016 0 -0.0087653346482747547 -0.00015017878953899768 0 -0.0089713474134216261 -0.00044520369771666919 0 -0.0087653346482747547 -0.00015017878953899768 0 -0.0085322121191840419 -0.00020472750339658395 0 -0.0087653346482747547 -0.00015017878953899768 0 -0.0085214079715772838 0.00020336905256198703 0 -0.0083242349740605612 0.0001604713961941741 0 -0.0085214079715772838 0.00020336905256198703 0 -0.0087339483216041097 0.0002063555816423754 0 -0.0083297228267166443 0.00052613420582165967 0 -0.0085214079715772838 0.00020336905256198703 0 -0.0083297228267166443 0.00052613420582165967 0 -0.008182007842058775 0.00046005263035895012 0 -0.0090235428355343646 0.00017991734836687929 0 -0.0090290738868923307 -4.848769362979186e-05 0 -0.0087339483216041097 0.0002063555816423754 0 -0.0090290738868923307 -4.848769362979186e-05 0 -0.0088486949254636404 -5.7175573610056813e-05 0 -0.0087339483216041097 0.0002063555816423754 0 -0.0088486949254636404 -5.7175573610056813e-05 0 -0.0085214079715772838 0.00020336905256198703 0 -0.0087339483216041097 0.0002063555816423754 0 -0.0090235428355343646 0.00017991734836687929 0 -0.0087339483216041097 0.0002063555816423754 0 -0.0085554187261492887 0.00055323780013142275 0 -0.0087339483216041097 0.0002063555816423754 0 -0.0085554187261492887 0.00055323780013142275 0 -0.0083297228267166443 0.00052613420582165967 0 -0.008014552836476568 0.00098143674460459979 0 -0.0085554187261492887 0.00055323780013142275 0 -0.0083297228267166443 0.00052613420582165967 0 -0.0083297228267166443 0.00052613420582165967 0 -0.0080067612185589429 0.0007608013310540638 0 -0.008182007842058775 0.00046005263035895012 0 -0.0080067612185589429 0.0007608013310540638 0 -0.0079498382728652919 0.00067088794385088742 0 -0.008182007842058775 0.00046005263035895012 0 -0.0080067612185589429 0.0007608013310540638 0 -0.0079498382728652919 0.00067088794385088742 0 -0.0078387185649778368 0.00084901698022139154 0 -0.0079498382728652919 0.00067088794385088742 0 -0.008182007842058775 0.00046005263035895012 0 -0.0079669308065156222 0.00048088116843046896 0 -0.0077710325769035984 0.00077495599559413797 0 -0.0077220556844268574 0.00062315561696423807 0 -0.0076038580907694525 0.00080801308764104818 0 -0.0079498382728652919 0.00067088794385088742 0 -0.0077710325769035984 0.00077495599559413797 0 -0.0078387185649778368 0.00084901698022139154 0 -0.0079498382728652919 0.00067088794385088742 0 -0.0077710325769035984 0.00077495599559413797 0 -0.0079669308065156222 0.00048088116843046896 0 -0.0077710325769035984 0.00077495599559413797 0 -0.0077220556844268574 0.00062315561696423807 0 -0.0079669308065156222 0.00048088116843046896 0 -0.0077220556844268574 0.00062315561696423807 0 -0.0079669308065156222 0.00048088116843046896 0 -0.0077642163510684495 0.00038008179796235976 0 -0.0079669308065156222 0.00048088116843046896 0 -0.0080352678726549037 0.00023390306626591527 0 -0.0077642163510684495 0.00038008179796235976 0 -0.0080352678726549037 0.00023390306626591527 0 -0.0079311413771171405 6.4115298623489643e-05 0 -0.0077642163510684495 0.00038008179796235976 0 -0.0085214079715772838 0.00020336905256198703 0 -0.008182007842058775 0.00046005263035895012 0 -0.0083242349740605612 0.0001604713961941741 0 -0.008182007842058775 0.00046005263035895012 0 -0.0079669308065156222 0.00048088116843046896 0 -0.0083242349740605612 0.0001604713961941741 0 -0.0079669308065156222 0.00048088116843046896 0 -0.0080352678726549037 0.00023390306626591527 0 -0.0083242349740605612 0.0001604713961941741 0 -0.0087653346482747547 -0.00015017878953899768 0 -0.0083242349740605612 0.0001604713961941741 0 -0.0085322121191840419 -0.00020472750339658395 0 -0.0083242349740605612 0.0001604713961941741 0 -0.0085322121191840419 -0.00020472750339658395 0 -0.0082046012769907434 2.1499362511598785e-05 0 -0.0085322121191840419 -0.00020472750339658395 0 -0.0082046012769907434 2.1499362511598785e-05 0 -0.0081993758364340384 -0.00020780076093775623 0 -0.0080352678726549037 0.00023390306626591527 0 -0.0083242349740605612 0.0001604713961941741 0 -0.0082046012769907434 2.1499362511598785e-05 0 -0.0080352678726549037 0.00023390306626591527 0 -0.0082046012769907434 2.1499362511598785e-05 0 -0.0079311413771171405 6.4115298623489643e-05 0 -0.0079311413771171405 6.4115298623489643e-05 0 -0.0081993758364340384 -0.00020780076093775623 0 -0.0078761665538405173 -0.00025895816336646846 0 -0.0082046012769907434 2.1499362511598785e-05 0 -0.0079311413771171405 6.4115298623489643e-05 0 -0.0081993758364340384 -0.00020780076093775623 0 -0.0082380231393615923 -0.00073975098228602602 0 -0.0081503730152110519 -0.00048612101410452582 0 -0.0076284506521857171 -0.00058777781998353023 0 -0.0081993758364340384 -0.00020780076093775623 0 -0.0081503730152110519 -0.00048612101410452582 0 -0.0084738653256599267 -0.00042944519171855529 0 -0.0081993758364340384 -0.00020780076093775623 0 -0.0081503730152110519 -0.00048612101410452582 0 -0.0078761665538405173 -0.00025895816336646846 0 -0.008481213158061069 -0.00063403270302957854 0 -0.0081503730152110519 -0.00048612101410452582 0 -0.0084738653256599267 -0.00042944519171855529 0 -0.008481213158061069 -0.00063403270302957854 0 -0.0082380231393615923 -0.00073975098228602602 0 -0.0081503730152110519 -0.00048612101410452582 0 -0.0088220914808075316 -0.0006433517774459799 0 -0.008481213158061069 -0.00063403270302957854 0 -0.0084738653256599267 -0.00042944519171855529 0 -0.0089713474134216261 -0.00044520369771666919 0 -0.0085322121191840419 -0.00020472750339658395 0 -0.0084738653256599267 -0.00042944519171855529 0 -0.0088220914808075316 -0.0006433517774459799 0 -0.0089713474134216261 -0.00044520369771666919 0 -0.0084738653256599267 -0.00042944519171855529 0 -0.0088220914808075316 -0.0006433517774459799 0 -0.0092738169601402978 -0.00067614847762572749 0 -0.0089713474134216261 -0.00044520369771666919 0 -0.0085322121191840419 -0.00020472750339658395 0 -0.0081993758364340384 -0.00020780076093775623 0 -0.0084738653256599267 -0.00042944519171855529 0 -0.019336565259033659 0.00062306269643935103 0 -0.01939077535274453 0.0008169461031408042 0 -0.019232106288380048 0.00075205341025036138 0 -0.012716691925828843 -0.00027537849696420184 0 -0.012791592954015699 -0.00079229553329181787 0 -0.011467964413168129 0.00051433264659831097 0 -0.012764658491875596 0.00084495705325582642 0 -0.010083753159342094 -0.00042787591407156218 0 -0.015320233876447391 -0.00015127299789307875 0 -0.012764658491875596 0.00084495705325582642 0 -0.015332367540364666 0.0010345400460286956 0 -0.015324462810327099 0.0010984031498592517 0 -0.01518413822071016 0.0011485487328941357 0 -0.015320233876447391 -0.00015127299789307875 0 -0.017835214005945055 0.0014315401828380945 0 -0.015320233876447391 -0.00015127299789307875 0 -0.010083753159342094 -0.00042787591407156218 0 -0.0073016930338432335 -0.00019541492161729779 0 -0.0076284506521857171 -0.00058777781998353023 0 -0.0075961679175833409 -1.4635711386948653e-05 0 -0.0076284506521857171 -0.00058777781998353023 0 -0.0078761665538405173 -0.00025895816336646846 0 -0.0075961679175833409 -1.4635711386948653e-05 0 -0.0081503730152110519 -0.00048612101410452582 0 -0.0076284506521857171 -0.00058777781998353023 0 -0.0078761665538405173 -0.00025895816336646846 0 -0.0079311413771171405 6.4115298623489643e-05 0 -0.0078761665538405173 -0.00025895816336646846 0 -0.0075961679175833409 -1.4635711386948653e-05 0 -0.0079311413771171405 6.4115298623489643e-05 0 -0.0075961679175833409 -1.4635711386948653e-05 0 -0.0077031525289501836 0.00019890029506937359 0 -0.0075961679175833409 -1.4635711386948653e-05 0 -0.0077031525289501836 0.00019890029506937359 0 -0.0075195150351027576 0.00034611840012326283 0 -0.0075961679175833409 -1.4635711386948653e-05 0 -0.0072536288133420558 0.00026117693142935076 0 -0.0075195150351027576 0.00034611840012326283 0 -0.0073016930338432335 -0.00019541492161729779 0 -0.0075961679175833409 -1.4635711386948653e-05 0 -0.0072536288133420558 0.00026117693142935076 0 -0.014187164459185928 0.002060008024267639 0 -0.014204409334574727 0.0020519580634844204 0 -0.014226632578143383 0.0020577636694930996 0 -0.012764658491875596 0.00084495705325582642 0 -0.010723739977895844 0.0011702370386494534 0 -0.012764658491875596 0.00084495705325582642 0 -0.01495262661373804 0.0020056593690286873 0 -0.010723739977895844 0.0011702370386494534 0 -0.0089598985725810303 0.0013560942536893629 0 -0.0072536288133420558 0.00026117693142935076 0 -0.0075195150351027576 0.00034611840012326283 0 -0.0072210134364774775 0.00066165004275108724 0 -0.014204409334574727 0.0020519580634844204 0 -0.014226006665707903 0.0020033207414584782 0 -0.014269769525810971 0.0020345023685234896 0 -0.0075195150351027576 0.00034611840012326283 0 -0.0075184977578008827 0.00063652183018431531 0 -0.0072763195636273183 0.00068061137258255695 0 -0.0071780339905130452 0.00044569007262518239 0 -0.0089598985725810303 0.0013560942536893629 0 -0.0077031525289501836 0.00019890029506937359 0 -0.0075195150351027576 0.00034611840012326283 0 -0.0077642163510684495 0.00038008179796235976 0 -0.0079311413771171405 6.4115298623489643e-05 0 -0.0077031525289501836 0.00019890029506937359 0 -0.0077642163510684495 0.00038008179796235976 0 -0.0075195150351027576 0.00034611840012326283 0 -0.0077642163510684495 0.00038008179796235976 0 -0.0075184977578008827 0.00063652183018431531 0 -0.0075184977578008827 0.00063652183018431531 0 -0.0076038580907694525 0.00080801308764104818 0 -0.0074755396311661348 0.00095655440937189953 0 -0.0077220556844268574 0.00062315561696423807 0 -0.0077642163510684495 0.00038008179796235976 0 -0.0075184977578008827 0.00063652183018431531 0 -0.0077220556844268574 0.00062315561696423807 0 -0.0075184977578008827 0.00063652183018431531 0 -0.0076038580907694525 0.00080801308764104818 0 -0.0075184977578008827 0.00063652183018431531 0 -0.0072763195636273183 0.00068061137258255695 0 -0.0074755396311661348 0.00095655440937189953 0 -0.0074755396311661348 0.00095655440937189953 0 -0.0074592052080056535 0.0011123898407679337 0 -0.0073752061902643091 0.0011299012623413401 0 -0.0072763195636273183 0.00068061137258255695 0 -0.0074755396311661348 0.00095655440937189953 0 -0.0073752061902643091 0.0011299012623413401 0 -0.0089598985725810303 0.0013560942536893629 0 -0.0073542124934515424 0.0016868880955432394 0 -0.0074592052080056535 0.0011123898407679337 0 -0.0074782329556891515 0.001172594748261758 0 -0.0073752061902643091 0.0011299012623413401 0 -0.0074782329556891515 0.001172594748261758 0 -0.0073752061902643091 0.0011299012623413401 0 -0.0077178596385637814 0.0011303071211595736 0 -0.0074592052080056535 0.0011123898407679337 0 -0.0074782329556891515 0.001172594748261758 0 -0.007512005748131041 0.0011441969864306714 0 -0.0074755396311661348 0.00095655440937189953 0 -0.0074592052080056535 0.0011123898407679337 0 -0.007512005748131041 0.0011441969864306714 0 -0.007512005748131041 0.0011441969864306714 0 -0.0075624893495393327 0.0011763745933155445 0 -0.0075039388617963929 0.0012342267516449734 0 -0.007512005748131041 0.0011441969864306714 0 -0.0075014174778322736 0.0011953255395353651 0 -0.0075039388617963929 0.0012342267516449734 0 -0.0074782329556891515 0.001172594748261758 0 -0.007512005748131041 0.0011441969864306714 0 -0.0075014174778322736 0.0011953255395353651 0 -0.007512005748131041 0.0011441969864306714 0 -0.0075921749633952179 0.00099681823482448756 0 -0.0075624893495393327 0.0011763745933155445 0 -0.0074755396311661348 0.00095655440937189953 0 -0.007512005748131041 0.0011441969864306714 0 -0.0075921749633952179 0.00099681823482448756 0 -0.0076038580907694525 0.00080801308764104818 0 -0.0074755396311661348 0.00095655440937189953 0 -0.0075921749633952179 0.00099681823482448756 0 -0.0077710325769035984 0.00077495599559413797 0 -0.0075921749633952179 0.00099681823482448756 0 -0.0076897449155729049 0.0010084196032957389 0 -0.0077710325769035984 0.00077495599559413797 0 -0.0076038580907694525 0.00080801308764104818 0 -0.0075921749633952179 0.00099681823482448756 0 -0.0077710325769035984 0.00077495599559413797 0 -0.0076897449155729049 0.0010084196032957389 0 -0.0078387185649778368 0.00084901698022139154 0 -0.0075921749633952179 0.00099681823482448756 0 -0.0076897449155729049 0.0010084196032957389 0 -0.0075624893495393327 0.0011763745933155445 0 -0.0080067612185589429 0.0007608013310540638 0 -0.0078387185649778368 0.00084901698022139154 0 -0.0077938869274894133 0.0010133836509878323 0 -0.0076897449155729049 0.0010084196032957389 0 -0.0077938869274894133 0.0010133836509878323 0 -0.0076376165312650717 0.0011609983934126561 0 -0.0076897449155729049 0.0010084196032957389 0 -0.0078387185649778368 0.00084901698022139154 0 -0.0077938869274894133 0.0010133836509878323 0 -0.0076376165312650717 0.0011609983934126561 0 -0.0076584070382233463 0.0012474653470047046 0 -0.0075007512996169744 0.0013093601175216255 0 -0.0077938869274894133 0.0010133836509878323 0 -0.0076376165312650717 0.0011609983934126561 0 -0.0076584070382233463 0.0012474653470047046 0 -0.0076897449155729049 0.0010084196032957389 0 -0.0076376165312650717 0.0011609983934126561 0 -0.0075624893495393327 0.0011763745933155445 0 -0.0076376165312650717 0.0011609983934126561 0 -0.0075624893495393327 0.0011763745933155445 0 -0.0075007512996169744 0.0013093601175216255 0 -0.0075624893495393327 0.0011763745933155445 0 -0.0075007512996169744 0.0013093601175216255 0 -0.0075039388617963929 0.0012342267516449734 0 -0.0075007512996169744 0.0013093601175216255 0 -0.0074775524825045582 0.0012330652791376893 0 -0.0075039388617963929 0.0012342267516449734 0 -0.0074020309362896452 0.001502153617396304 0 -0.0076584070382233463 0.0012474653470047046 0 -0.0075007512996169744 0.0013093601175216255 0 -0.0074020309362896452 0.001502153617396304 0 -0.0075007512996169744 0.0013093601175216255 0 -0.0073806830285599832 0.0012565610808030192 0 -0.0074020309362896452 0.001502153617396304 0 -0.0073806830285599832 0.0012565610808030192 0 -0.0070879715062374992 0.0012961273609129226 0 -0.0075007512996169744 0.0013093601175216255 0 -0.0073806830285599832 0.0012565610808030192 0 -0.0074775524825045582 0.0012330652791376893 0 -0.0073806830285599832 0.0012565610808030192 0 -0.0074489033372439617 0.001158654796325513 0 -0.0073645228480874077 0.0011059566460833784 0 -0.0073806830285599832 0.0012565610808030192 0 -0.0074489033372439617 0.001158654796325513 0 -0.0074775524825045582 0.0012330652791376893 0 -0.0074489033372439617 0.001158654796325513 0 -0.0074775524825045582 0.0012330652791376893 0 -0.0075090267138967466 0.0011793166698193488 0 -0.0074775524825045582 0.0012330652791376893 0 -0.0075090267138967466 0.0011793166698193488 0 -0.0075158642770940262 0.001189446002713914 0 -0.0074489033372439617 0.001158654796325513 0 -0.0075090267138967466 0.0011793166698193488 0 -0.0075327457424719827 0.0010726048042872395 0 -0.0075770980994126821 0.0011770689862820698 0 -0.0076411798960101225 0.0010915535756093014 0 -0.0075327457424719827 0.0010726048042872395 0 -0.0075090267138967466 0.0011793166698193488 0 -0.0075770980994126821 0.0011770689862820698 0 -0.0075327457424719827 0.0010726048042872395 0 -0.0075770980994126821 0.0011770689862820698 0 -0.0076411798960101225 0.0010915535756093014 0 -0.0076945430647635893 0.0011925981819324249 0 -0.0076051474725673382 0.00126897528457548 0 -0.007701690564227706 0.0013636313860795656 0 -0.0076411798960101225 0.0010915535756093014 0 -0.0076945430647635893 0.0011925981819324249 0 -0.0077554007752581302 0.0010392748106984907 0 -0.0075467595915568262 0.0011529965510493287 0 -0.007701690564227706 0.0013636313860795656 0 -0.0075158642770940262 0.001189446002713914 0 -0.0075502951807768061 0.0011347570949030922 0 -0.007593198666951669 0.0010496197346473494 0 -0.0075090267138967466 0.0011793166698193488 0 -0.0075770980994126821 0.0011770689862820698 0 -0.0075158642770940262 0.001189446002713914 0 -0.0075770980994126821 0.0011770689862820698 0 -0.0075158642770940262 0.001189446002713914 0 -0.0076243655436071516 0.0011864080482744221 0 -0.0075212079972503199 0.0011649915741377005 0 -0.0075158642770940262 0.001189446002713914 0 -0.0075502951807768061 0.0011347570949030922 0 -0.0075212079972503199 0.0011649915741377005 0 -0.0075158642770940262 0.001189446002713914 0 -0.0075014174778322736 0.0011953255395353651 0 -0.0075212079972503199 0.0011649915741377005 0 -0.0075502951807768061 0.0011347570949030922 0 -0.0077178596385637814 0.0011303071211595736 0 -0.0074782329556891515 0.001172594748261758 0 -0.0075212079972503199 0.0011649915741377005 0 -0.0077178596385637814 0.0011303071211595736 0 -0.0074782329556891515 0.001172594748261758 0 -0.0075212079972503199 0.0011649915741377005 0 -0.0075014174778322736 0.0011953255395353651 0 -0.0075158642770940262 0.001189446002713914 0 -0.0075014174778322736 0.0011953255395353651 0 -0.0075039388617963929 0.0012342267516449734 0 -0.0074775524825045582 0.0012330652791376893 0 -0.0075158642770940262 0.001189446002713914 0 -0.0075039388617963929 0.0012342267516449734 0 -0.0074720105915480218 0.00090837685378754589 0 -0.0074080363895966811 0.00074684417686418951 0 -0.0073408465811118876 0.00091417398253055703 0 -0.0074720105915480218 0.00090837685378754589 0 -0.0075843250141388527 0.0008489910564781904 0 -0.0075163879221670418 0.00069838582205651676 0 -0.0074720105915480218 0.00090837685378754589 0 -0.0074080363895966811 0.00074684417686418951 0 -0.0075163879221670418 0.00069838582205651676 0 -0.0075843250141388527 0.0008489910564781904 0 -0.0075163879221670418 0.00069838582205651676 0 -0.0077049026795477848 0.00068544468802769613 0 -0.0075843250141388527 0.0008489910564781904 0 -0.0078164169564552965 0.00087350496094853807 0 -0.0077049026795477848 0.00068544468802769613 0 -0.0075843250141388527 0.0008489910564781904 0 -0.0076570304279351712 0.00098647006776066506 0 -0.0078164169564552965 0.00087350496094853807 0 -0.0075843250141388527 0.0008489910564781904 0 -0.0076570304279351712 0.00098647006776066506 0 -0.0075327457424719827 0.0010726048042872395 0 -0.0076570304279351712 0.00098647006776066506 0 -0.0076411798960101225 0.0010915535756093014 0 -0.0077554007752581302 0.0010392748106984907 0 -0.0076570304279351712 0.00098647006776066506 0 -0.0076411798960101225 0.0010915535756093014 0 -0.0075327457424719827 0.0010726048042872395 0 -0.0074720105915480218 0.00090837685378754589 0 -0.0075843250141388527 0.0008489910564781904 0 -0.0075327457424719827 0.0010726048042872395 0 -0.0074720105915480218 0.00090837685378754589 0 -0.0075327457424719827 0.0010726048042872395 0 -0.0074338163726452664 0.0010379697787149178 0 -0.0074720105915480218 0.00090837685378754589 0 -0.0074338163726452664 0.0010379697787149178 0 -0.0073408465811118876 0.00091417398253055703 0 -0.0074489033372439617 0.001158654796325513 0 -0.0075327457424719827 0.0010726048042872395 0 -0.0074338163726452664 0.0010379697787149178 0 -0.0073806830285599832 0.0012565610808030192 0 -0.0073645228480874077 0.0011059566460833784 0 -0.0072182082529958676 0.0010610415273115512 0 -0.0074489033372439617 0.001158654796325513 0 -0.0074338163726452664 0.0010379697787149178 0 -0.0073645228480874077 0.0011059566460833784 0 -0.0073645228480874077 0.0011059566460833784 0 -0.0072182082529958676 0.0010610415273115512 0 -0.0073408465811118876 0.00091417398253055703 0 -0.0074338163726452664 0.0010379697787149178 0 -0.0073645228480874077 0.0011059566460833784 0 -0.0073408465811118876 0.00091417398253055703 0 -0.0072182082529958676 0.0010610415273115512 0 -0.0069582095552357453 0.00085438052032992126 0 -0.0070879715062374992 0.0012961273609129226 0 -0.0073806830285599832 0.0012565610808030192 0 -0.0072182082529958676 0.0010610415273115512 0 -0.0070879715062374992 0.0012961273609129226 0 -0.0071726974297754917 0.00080828240110108389 0 -0.0069582095552357453 0.00085438052032992126 0 -0.0070419829287708185 0.00052113601973417074 0 -0.0072182082529958676 0.0010610415273115512 0 -0.0071726974297754917 0.00080828240110108389 0 -0.0069582095552357453 0.00085438052032992126 0 -0.0072182082529958676 0.0010610415273115512 0 -0.0071726974297754917 0.00080828240110108389 0 -0.0073408465811118876 0.00091417398253055703 0 -0.0071726974297754917 0.00080828240110108389 0 -0.0073408465811118876 0.00091417398253055703 0 -0.007267496577440578 0.00066378921868454229 0 -0.0074080363895966811 0.00074684417686418951 0 -0.0073408465811118876 0.00091417398253055703 0 -0.007267496577440578 0.00066378921868454229 0 -0.0071726974297754917 0.00080828240110108389 0 -0.007267496577440578 0.00066378921868454229 0 -0.0070419829287708185 0.00052113601973417074 0 -0.007267496577440578 0.00066378921868454229 0 -0.0070419829287708185 0.00052113601973417074 0 -0.0072275332194120375 0.00041770024006311502 0 -0.007267496577440578 0.00066378921868454229 0 -0.0072275332194120375 0.00041770024006311502 0 -0.0073963584480436209 0.0004991805608795815 0 -0.0070419829287708185 0.00052113601973417074 0 -0.0068159053575039593 0.00023679310460509245 0 -0.0066530264239114496 0.00051286457809559388 0 -0.0069582095552357453 0.00085438052032992126 0 -0.0070419829287708185 0.00052113601973417074 0 -0.0066530264239114496 0.00051286457809559388 0 -0.0070419829287708185 0.00052113601973417074 0 -0.0068159053575039593 0.00023679310460509245 0 -0.007099326064803969 0.00016973533726432575 0 -0.0068159053575039593 0.00023679310460509245 0 -0.007099326064803969 0.00016973533726432575 0 -0.0068319116503393592 2.6650665731000268e-05 0 -0.0070419829287708185 0.00052113601973417074 0 -0.007099326064803969 0.00016973533726432575 0 -0.0072275332194120375 0.00041770024006311502 0 -0.007099326064803969 0.00016973533726432575 0 -0.0072275332194120375 0.00041770024006311502 0 -0.0073224034788607313 0.00020484281619635806 0 -0.0072275332194120375 0.00041770024006311502 0 -0.0073963584480436209 0.0004991805608795815 0 -0.0073224034788607313 0.00020484281619635806 0 -0.0073963584480436209 0.0004991805608795815 0 -0.0074652292532576617 0.00033085482192602616 0 -0.0073224034788607313 0.00020484281619635806 0 -0.0073963584480436209 0.0004991805608795815 0 -0.0075297434323019236 0.00052816849397368322 0 -0.0074652292532576617 0.00033085482192602616 0 -0.0073963584480436209 0.0004991805608795815 0 -0.0075163879221670418 0.00069838582205651676 0 -0.0075297434323019236 0.00052816849397368322 0 -0.0074080363895966811 0.00074684417686418951 0 -0.0073963584480436209 0.0004991805608795815 0 -0.0075163879221670418 0.00069838582205651676 0 -0.0074080363895966811 0.00074684417686418951 0 -0.007267496577440578 0.00066378921868454229 0 -0.0073963584480436209 0.0004991805608795815 0 -0.0075297434323019236 0.00052816849397368322 0 -0.0076219571068988825 0.00041078886499464111 0 -0.0077049026795477848 0.00068544468802769613 0 -0.0075163879221670418 0.00069838582205651676 0 -0.0075297434323019236 0.00052816849397368322 0 -0.0077049026795477848 0.00068544468802769613 0 -0.0076219571068988825 0.00041078886499464111 0 -0.0074652292532576617 0.00033085482192602616 0 -0.0074995767763055389 0.00014158142372133495 0 -0.0076219571068988825 0.00041078886499464111 0 -0.0074995767763055389 0.00014158142372133495 0 -0.0076718214220129685 0.00021551303795354145 0 -0.0075297434323019236 0.00052816849397368322 0 -0.0076219571068988825 0.00041078886499464111 0 -0.0074652292532576617 0.00033085482192602616 0 -0.0074995767763055389 0.00014158142372133495 0 -0.0073563123740956584 4.3118153012473402e-05 0 -0.0073857801754160391 -0.00010360330652029747 0 -0.0074995767763055389 0.00014158142372133495 0 -0.0073563123740956584 4.3118153012473402e-05 0 -0.0073224034788607313 0.00020484281619635806 0 -0.0074652292532576617 0.00033085482192602616 0 -0.0074995767763055389 0.00014158142372133495 0 -0.0073224034788607313 0.00020484281619635806 0 -0.0073563123740956584 4.3118153012473402e-05 0 -0.0073224034788607313 0.00020484281619635806 0 -0.007222410076832525 -6.3360943322945951e-05 0 -0.007222410076832525 -6.3360943322945951e-05 0 -0.0073857801754160391 -0.00010360330652029747 0 -0.0072419622142341792 -0.0002000107942226909 0 -0.0073563123740956584 4.3118153012473402e-05 0 -0.007222410076832525 -6.3360943322945951e-05 0 -0.0073857801754160391 -0.00010360330652029747 0 -0.0074995767763055389 0.00014158142372133495 0 -0.0073857801754160391 -0.00010360330652029747 0 -0.0075524584605650797 -8.1190525519835141e-05 0 -0.0073857801754160391 -0.00010360330652029747 0 -0.0075524584605650797 -8.1190525519835141e-05 0 -0.0074500569159475349 -0.00027067748544443572 0 -0.0073108801593271232 -0.00029078118478419656 0 -0.0073372081976743799 -0.00028868159679641469 0 -0.0074500569159475349 -0.00027067748544443572 0 -0.0073857801754160391 -0.00010360330652029747 0 -0.0073108801593271232 -0.00029078118478419656 0 -0.0074500569159475349 -0.00027067748544443572 0 -0.0073857801754160391 -0.00010360330652029747 0 -0.0073108801593271232 -0.00029078118478419656 0 -0.0072419622142341792 -0.0002000107942226909 0 -0.0073108801593271232 -0.00029078118478419656 0 -0.0072419622142341792 -0.0002000107942226909 0 -0.0071911237552974008 -0.00029658802466281793 0 -0.0073108801593271232 -0.00029078118478419656 0 -0.0071911237552974008 -0.00029658802466281793 0 -0.0072269869726025717 -0.00032383027691661984 0 -0.0073108801593271232 -0.00029078118478419656 0 -0.0072652216483258458 -0.00030127118280104273 0 -0.0072269869726025717 -0.00032383027691661984 0 -0.0073108801593271232 -0.00029078118478419656 0 -0.0073372081976743799 -0.00028868159679641469 0 -0.0072652216483258458 -0.00030127118280104273 0 -0.0064601228365668882 -0.00030680856776966835 0 -0.0062354510693132968 -5.6075256053267098e-05 0 -0.0071911237552974008 -0.00029658802466281793 0 -0.0070336350623498014 -0.00030207993885554026 0 -0.0071888441808287502 -0.00033772416177337326 0 -0.0071911237552974008 -0.00029658802466281793 0 -0.0071888441808287502 -0.00033772416177337326 0 -0.0072269869726025717 -0.00032383027691661984 0 -0.0072419622142341792 -0.0002000107942226909 0 -0.0071911237552974008 -0.00029658802466281793 0 -0.0070948646022183049 -0.00019671752657316344 0 -0.0071911237552974008 -0.00029658802466281793 0 -0.0070336350623498014 -0.00030207993885554026 0 -0.0070948646022183049 -0.00019671752657316344 0 -0.0070336350623498014 -0.00030207993885554026 0 -0.0070948646022183049 -0.00019671752657316344 0 -0.0067867495269076442 -0.00016806724006756041 0 -0.0064601228365668882 -0.00030680856776966835 0 -0.0064400664145915333 -0.00023702808963810932 0 -0.0070948646022183049 -0.00019671752657316344 0 -0.0070065887031063936 -6.3131913024397449e-05 0 -0.0067867495269076442 -0.00016806724006756041 0 -0.007222410076832525 -6.3360943322945951e-05 0 -0.0070948646022183049 -0.00019671752657316344 0 -0.0070065887031063936 -6.3131913024397449e-05 0 -0.007222410076832525 -6.3360943322945951e-05 0 -0.0072419622142341792 -0.0002000107942226909 0 -0.0070948646022183049 -0.00019671752657316344 0 -0.007099326064803969 0.00016973533726432575 0 -0.007222410076832525 -6.3360943322945951e-05 0 -0.0070065887031063936 -6.3131913024397449e-05 0 -0.007099326064803969 0.00016973533726432575 0 -0.0073224034788607313 0.00020484281619635806 0 -0.007222410076832525 -6.3360943322945951e-05 0 -0.0068319116503393592 2.6650665731000268e-05 0 -0.0070065887031063936 -6.3131913024397449e-05 0 -0.0067867495269076442 -0.00016806724006756041 0 -0.007099326064803969 0.00016973533726432575 0 -0.0068319116503393592 2.6650665731000268e-05 0 -0.0070065887031063936 -6.3131913024397449e-05 0 -0.0061201612319311486 -0.00034617192137365651 0 -0.0061413125924622515 -0.00037878862342048908 0 -0.006295924136675961 3.5623967852889563e-05 0 -0.0068319116503393592 2.6650665731000268e-05 0 -0.0067867495269076442 -0.00016806724006756041 0 -0.006295924136675961 3.5623967852889563e-05 0 -0.0064400664145915333 -0.00023702808963810932 0 -0.0062942912713578525 4.3915802119901176e-05 0 -0.0049572597000960986 -0.00028454427289889312 0 -0.0052548520376322697 -0.00020154302243174046 0 -0.0057681856576320837 0.00016191655385915191 0 -0.0061201612319311486 -0.00034617192137365651 0 -0.006295924136675961 3.5623967852889563e-05 0 -0.0057681856576320837 0.00016191655385915191 0 -0.0055273837932105687 -0.00024729036713391908 0 -0.0057103002834073954 0.00016527016810360704 0 -0.0049572597000960986 -0.00028454427289889312 0 -0.004218470006708509 0.00033185318435770218 0 -0.0051204807057364772 -0.00012583061105482973 0 -0.0055273837932105687 -0.00024729036713391908 0 -0.0051761128562820861 -1.002447742606275e-05 0 -0.0061201612319311486 -0.00034617192137365651 0 -0.0061413125924622515 -0.00037878862342048908 0 -0.0061031862786728851 -0.00028645655626578098 0 -0.0058522702228097304 -0.00028974367394095439 0 -0.0061413125924622515 -0.00037878862342048908 0 -0.0061031862786728851 -0.00028645655626578098 0 -0.0049572597000960986 -0.00028454427289889312 0 -0.0041794838410920106 0.00030349682253079304 0 -0.004218470006708509 0.00033185318435770218 0 -0.0042640118725453613 0.00031044186555868192 0 -0.0043409257360248138 0.00027467697684052943 0 -0.0038528113267946211 0.00016946294772142483 0 -0.0037144375681647337 -6.4697294296953676e-05 0 -0.004083700242482489 5.7899205568907392e-05 0 -0.0041794838410920106 0.00030349682253079304 0 -0.004218470006708509 0.00033185318435770218 0 -0.004083700242482489 5.7899205568907392e-05 0 -0.004218470006708509 0.00033185318435770218 0 -0.0038528113267946211 0.00016946294772142483 0 -0.0036642696721730312 0.0004279281329123949 0 -0.004218470006708509 0.00033185318435770218 0 -0.0038528113267946211 0.00016946294772142483 0 -0.004083700242482489 5.7899205568907392e-05 0 -0.0041794838410920106 0.00030349682253079304 0 -0.0042101995834240699 -0.00013968323674389888 0 -0.004083700242482489 5.7899205568907392e-05 0 -0.0051761128562820861 -1.002447742606275e-05 0 -0.0049652626059139898 3.8905197974878198e-05 0 -0.0058522702228097304 -0.00028974367394095439 0 -0.0061031862786728851 -0.00028645655626578098 0 -0.0059613394629956665 7.0984569267571487e-05 0 -0.0030828514249934855 0.0002525625829892772 0 -0.0034913924659332679 0.0002140082793994981 0 -0.003377202453672888 0.00063054472411594345 0 -0.0030828514249934855 0.0002525625829892772 0 -0.0034913924659332679 0.0002140082793994981 0 -0.0032012688994521705 -0.00016935593814583022 0 -0.0038528113267946211 0.00016946294772142483 0 -0.0034913924659332679 0.0002140082793994981 0 -0.0037144375681647337 -6.4697294296953676e-05 0 -0.0038528113267946211 0.00016946294772142483 0 -0.0034913924659332679 0.0002140082793994981 0 -0.0036642696721730312 0.0004279281329123949 0 -0.0034913924659332679 0.0002140082793994981 0 -0.0036642696721730312 0.0004279281329123949 0 -0.003377202453672888 0.00063054472411594345 0 -0.0036642696721730312 0.0004279281329123949 0 -0.003377202453672888 0.00063054472411594345 0 -0.0035854387564142149 0.00073120480415835118 0 -0.004218470006708509 0.00033185318435770218 0 -0.0036642696721730312 0.0004279281329123949 0 -0.0035854387564142149 0.00073120480415835118 0 -0.0030828514249934855 0.0002525625829892772 0 -0.003377202453672888 0.00063054472411594345 0 -0.003104161399603754 0.00055977158534806291 0 -0.003377202453672888 0.00063054472411594345 0 -0.0035854387564142149 0.00073120480415835118 0 -0.0034062627555371183 0.0007260736036829884 0 -0.003377202453672888 0.00063054472411594345 0 -0.0034062627555371183 0.0007260736036829884 0 -0.0033528150920928653 0.0007851037667465187 0 -0.003377202453672888 0.00063054472411594345 0 -0.0033528150920928653 0.0007851037667465187 0 -0.003104161399603754 0.00055977158534806291 0 -0.0043409257360248138 0.00027467697684052943 0 -0.0042243266119656878 0.00025448213571562054 0 -0.0049572597000960986 -0.00028454427289889312 0 -0.0051204807057364772 -0.00012583061105482973 0 -0.0052548520376322697 -0.00020154302243174046 0 -0.0051204807057364772 -0.00012583061105482973 0 -0.0052548520376322697 -0.00020154302243174046 0 -0.005039156256674053 -0.00028166370566824181 0 -0.0052548520376322697 -0.00020154302243174046 0 -0.005039156256674053 -0.00028166370566824181 0 -0.0051175210568834674 0.00018933922751725114 0 -0.0042243266119656878 0.00025448213571562054 0 -0.0041254743381295448 0.00037980566462460745 0 -0.005039156256674053 -0.00028166370566824181 0 -0.0051175210568834674 0.00018933922751725114 0 -0.0041501824255855309 0.00036692847981961691 0 -0.0051175210568834674 0.00018933922751725114 0 -0.0049929557486827845 0.00067927750332056312 0 -0.0057806966149323968 0.0007023073637222884 0 -0.0051175210568834674 0.00018933922751725114 0 -0.0049929557486827845 0.00067927750332056312 0 -0.0041501824255855309 0.00036692847981961691 0 -0.0051175210568834674 0.00018933922751725114 0 -0.0057681856576320837 0.00016191655385915191 0 -0.0057806966149323968 0.0007023073637222884 0 -0.0052548520376322697 -0.00020154302243174046 0 -0.0051175210568834674 0.00018933922751725114 0 -0.0057681856576320837 0.00016191655385915191 0 -0.006295924136675961 3.5623967852889563e-05 0 -0.0057681856576320837 0.00016191655385915191 0 -0.0061697126684270394 0.00050815087572111831 0 -0.0068159053575039593 0.00023679310460509245 0 -0.0068319116503393592 2.6650665731000268e-05 0 -0.006295924136675961 3.5623967852889563e-05 0 -0.0068159053575039593 0.00023679310460509245 0 -0.006295924136675961 3.5623967852889563e-05 0 -0.0066530264239114496 0.00051286457809559388 0 -0.006295924136675961 3.5623967852889563e-05 0 -0.0066530264239114496 0.00051286457809559388 0 -0.0061697126684270394 0.00050815087572111831 0 -0.0066530264239114496 0.00051286457809559388 0 -0.0061697126684270394 0.00050815087572111831 0 -0.006528112932620414 0.0009104195588800941 0 -0.0057681856576320837 0.00016191655385915191 0 -0.0061697126684270394 0.00050815087572111831 0 -0.0057806966149323968 0.0007023073637222884 0 -0.0061697126684270394 0.00050815087572111831 0 -0.006528112932620414 0.0009104195588800941 0 -0.0057806966149323968 0.0007023073637222884 0 -0.006528112932620414 0.0009104195588800941 0 -0.0061003180496589701 0.0011052083795802263 0 -0.0057806966149323968 0.0007023073637222884 0 -0.0069582095552357453 0.00085438052032992126 0 -0.0066530264239114496 0.00051286457809559388 0 -0.006528112932620414 0.0009104195588800941 0 -0.0069582095552357453 0.00085438052032992126 0 -0.006528112932620414 0.0009104195588800941 0 -0.0070879715062374992 0.0012961273609129226 0 -0.006528112932620414 0.0009104195588800941 0 -0.0066516302848107891 0.0013042328696901005 0 -0.0061003180496589701 0.0011052083795802263 0 -0.006528112932620414 0.0009104195588800941 0 -0.0070879715062374992 0.0012961273609129226 0 -0.0066516302848107891 0.0013042328696901005 0 -0.0060391940699305287 0.0015086202906747709 0 -0.0061003180496589701 0.0011052083795802263 0 -0.0054305516290678348 0.0010811668279837594 0 -0.0060391940699305287 0.0015086202906747709 0 -0.0066516302848107891 0.0013042328696901005 0 -0.0061003180496589701 0.0011052083795802263 0 -0.0051593724926674266 0.0016396305373520144 0 -0.0054305516290678348 0.0010811668279837594 0 -0.0045265172379762636 0.00091775367709891426 0 -0.0051593724926674266 0.0016396305373520144 0 -0.0060391940699305287 0.0015086202906747709 0 -0.0054305516290678348 0.0010811668279837594 0 -0.0049929557486827845 0.00067927750332056312 0 -0.0054305516290678348 0.0010811668279837594 0 -0.0057806966149323968 0.0007023073637222884 0 -0.0049929557486827845 0.00067927750332056312 0 -0.0054305516290678348 0.0010811668279837594 0 -0.0045265172379762636 0.00091775367709891426 0 -0.0061003180496589701 0.0011052083795802263 0 -0.0054305516290678348 0.0010811668279837594 0 -0.0057806966149323968 0.0007023073637222884 0 -0.0045265172379762636 0.00091775367709891426 0 -0.0039869696387819622 0.0010867614811136484 0 -0.0038766150841034706 0.00049070499478293843 0 -0.0044332903663376723 0.0015091289292885402 0 -0.0051593724926674266 0.0016396305373520144 0 -0.0045265172379762636 0.00091775367709891426 0 -0.0044332903663376723 0.0015091289292885402 0 -0.0045265172379762636 0.00091775367709891426 0 -0.0039869696387819622 0.0010867614811136484 0 -0.0071601686289561326 -0.00037849196113462101 0 -0.0071608031792040044 -0.00018114859438411534 0 -0.0072989908089554148 -0.00018974566201556618 0 -0.0069071116876541789 0.0010471472442733661 0 -0.0053678180686360585 0.00040091946616724854 0 -0.0072989908089554148 -0.00018974566201556618 0 -0.0071595994800576056 -1.291076406259411e-05 0 -0.007374448357621308 -6.3739242398172749e-05 0 -0.0071608031792040044 -0.00018114859438411534 0 -0.0072989908089554148 -0.00018974566201556618 0 -0.0071595994800576056 -1.291076406259411e-05 0 -0.0053678180686360585 0.00040091946616724854 0 -0.0057417561422873735 0.00018133703609070722 0 -0.0071595994800576056 -1.291076406259411e-05 0 -0.007378492100667421 -3.6790121556283917e-06 0 -0.007374448357621308 -6.3739242398172749e-05 0 -0.0071595994800576056 -1.291076406259411e-05 0 -0.0073066570484258391 0.00010558967451714207 0 -0.007378492100667421 -3.6790121556283917e-06 0 -0.0071595994800576056 -1.291076406259411e-05 0 -0.0071266120852720395 0.00016988307674688875 0 -0.0073066570484258391 0.00010558967451714207 0 -0.0057417561422873735 0.00018133703609070722 0 -0.0040305968256498532 0.00075198835031695566 0 -0.0038766150841034706 0.00049070499478293843 0 -0.003857819600933619 0.00047881361844722835 0 -0.0041501824255855309 0.00036692847981961691 0 -0.003857819600933619 0.00047881361844722835 0 -0.0041501824255855309 0.00036692847981961691 0 -0.0034188763498703722 0.00077854246845864635 0 -0.0038766150841034706 0.00049070499478293843 0 -0.003857819600933619 0.00047881361844722835 0 -0.0038878906211403629 0.00062190615589738309 0 -0.0045265172379762636 0.00091775367709891426 0 -0.0038766150841034706 0.00049070499478293843 0 -0.0041501824255855309 0.00036692847981961691 0 -0.0049929557486827845 0.00067927750332056312 0 -0.0045265172379762636 0.00091775367709891426 0 -0.0041501824255855309 0.00036692847981961691 0 -0.0041501824255855309 0.00036692847981961691 0 -0.0034188763498703722 0.00077854246845864635 0 -0.0033528150920928653 0.0007851037667465187 0 -0.0034062627555371183 0.0007260736036829884 0 -0.0041501824255855309 0.00036692847981961691 0 -0.0033528150920928653 0.0007851037667465187 0 -0.003857819600933619 0.00047881361844722835 0 -0.0034188763498703722 0.00077854246845864635 0 -0.0038878906211403629 0.00062190615589738309 0 -0.003209301245177681 0.00085846416852508253 0 -0.0040305968256498532 0.00075198835031695566 0 -0.0034188763498703722 0.00077854246845864635 0 -0.0026182453760623049 0.00066592315249784694 0 -0.0028197456166416698 0.0010423546838040901 0 -0.0034188763498703722 0.00077854246845864635 0 -0.002991611556212376 0.00068569024894591887 0 -0.0026182453760623049 0.00066592315249784694 0 -0.0034188763498703722 0.00077854246845864635 0 -0.002991611556212376 0.00068569024894591887 0 -0.0033528150920928653 0.0007851037667465187 0 -0.002991611556212376 0.00068569024894591887 0 -0.0033528150920928653 0.0007851037667465187 0 -0.003104161399603754 0.00055977158534806291 0 -0.002991611556212376 0.00068569024894591887 0 -0.003104161399603754 0.00055977158534806291 0 -0.0026552452245066855 0.00034481087955559879 0 -0.002991611556212376 0.00068569024894591887 0 -0.0020137339409180962 0.00046583160455499303 0 -0.0026182453760623049 0.00066592315249784694 0 -0.002991611556212376 0.00068569024894591887 0 -0.0026552452245066855 0.00034481087955559879 0 -0.0020137339409180962 0.00046583160455499303 0 -0.0026552452245066855 0.00034481087955559879 0 -0.0020137339409180962 0.00046583160455499303 0 -0.001953065557441111 0.0001137516901589796 0 -0.0026552452245066855 0.00034481087955559879 0 -0.001953065557441111 0.0001137516901589796 0 -0.0026381118753185983 -4.4142180054011846e-05 0 -0.0030828514249934855 0.0002525625829892772 0 -0.0026552452245066855 0.00034481087955559879 0 -0.0026381118753185983 -4.4142180054011846e-05 0 -0.0030828514249934855 0.0002525625829892772 0 -0.003104161399603754 0.00055977158534806291 0 -0.0026552452245066855 0.00034481087955559879 0 -0.0011994000434446986 0.00040451970337111303 0 -0.001953065557441111 0.0001137516901589796 0 -0.0010495303679463328 0.00015691943551696631 0 -0.0011994000434446986 0.00040451970337111303 0 -0.0020137339409180962 0.00046583160455499303 0 -0.001953065557441111 0.0001137516901589796 0 -0.0020137339409180962 0.00046583160455499303 0 -0.0013693320613934259 0.00053612294779941348 0 -0.0016219904025466714 0.00053807005520226678 0 -0.0020470799571856713 0.0004041680635238073 0 -0.0020807349222390632 0.00055281969102503718 0 -0.0011994000434446986 0.00040451970337111303 0 -0.0020137339409180962 0.00046583160455499303 0 -0.0013693320613934259 0.00053612294779941348 0 -0.0013693320613934259 0.00053612294779941348 0 -0.0014129355925812774 0.00047638120149361401 0 -0.0013522575791303489 0.00040406834145002201 0 -0.0020807349222390632 0.00055281969102503718 0 -0.0040305968256498532 0.00075198835031695566 0 -0.0013693320613934259 0.00053612294779941348 0 -0.0014129355925812774 0.00047638120149361401 0 -0.0016219904025466714 0.00053807005520226678 0 -0.0014129355925812774 0.00047638120149361401 0 -0.0016219904025466714 0.00053807005520226678 0 -0.0014806235515797289 0.00050549845873908725 0 -0.0040305968256498532 0.00075198835031695566 0 -0.0044175509734183434 0.00013823239590795062 0 -0.0014129355925812774 0.00047638120149361401 0 -0.0013606512913685834 0.00030186613283242331 0 -0.0013522575791303489 0.00040406834145002201 0 -0.0014129355925812774 0.00047638120149361401 0 -0.0014806235515797289 0.00050549845873908725 0 -0.0013606512913685834 0.00030186613283242331 0 -0.0013606512913685834 0.00030186613283242331 0 -0.0013522575791303489 0.00040406834145002201 0 -0.0016702581280404422 -0.00012058167087168559 0 -0.0013522575791303489 0.00040406834145002201 0 -0.0018123486783935964 0.00025196887979471569 0 -0.0016702581280404422 -0.00012058167087168559 0 -0.0018123486783935964 0.00025196887979471569 0 -0.0029632444068324157 -0.00039126172633458499 0 -0.0016702581280404422 -0.00012058167087168559 0 -0.0013522575791303489 0.00040406834145002201 0 -0.00098210247863869541 0.00048284974428153206 0 -0.0018123486783935964 0.00025196887979471569 0 -0.0013693320613934259 0.00053612294779941348 0 -0.0013522575791303489 0.00040406834145002201 0 -0.00098210247863869541 0.00048284974428153206 0 -0.0011994000434446986 0.00040451970337111303 0 -0.0013693320613934259 0.00053612294779941348 0 -0.00098210247863869541 0.00048284974428153206 0 -0.00098210247863869541 0.00048284974428153206 0 -0.0011454385502765953 0.00030628821919700472 0 -0.0018123486783935964 0.00025196887979471569 0 -0.00098210247863869541 0.00048284974428153206 0 -0.0005459806574619557 0.00031039557855456736 0 0.0001705156881751939 0.00025645263332623412 0 -0.00098210247863869541 0.00048284974428153206 0 -0.0011454385502765953 0.00030628821919700472 0 0.0001705156881751939 0.00025645263332623412 0 -0.0011994000434446986 0.00040451970337111303 0 -0.00098210247863869541 0.00048284974428153206 0 -0.0005459806574619557 0.00031039557855456736 0 -0.0011994000434446986 0.00040451970337111303 0 -0.0005459806574619557 0.00031039557855456736 0 -0.0010495303679463328 0.00015691943551696631 0 -0.0013327477664414175 3.4785105201246889e-07 0 0.0001705156881751939 0.00025645263332623412 0 0.00076807942338241177 3.8802375564603644e-07 0 -0.0011454385502765953 0.00030628821919700472 0 -0.0013327477664414175 3.4785105201246889e-07 0 0.0001705156881751939 0.00025645263332623412 0 -0.0011454385502765953 0.00030628821919700472 0 -0.0013327477664414175 3.4785105201246889e-07 0 -0.003434993024663878 1.4423505171729221e-06 0 -0.0011454385502765953 0.00030628821919700472 0 -0.0018123486783935964 0.00025196887979471569 0 -0.003434993024663878 1.4423505171729221e-06 0 -0.0018123486783935964 0.00025196887979471569 0 -0.003434993024663878 1.4423505171729221e-06 0 -0.0029632444068324157 -0.00039126172633458499 0 -0.0055360678086149072 -1.2633980242922818e-07 0 -0.0050925616210740722 -0.00027077741403625053 0 -0.003434993024663878 1.4423505171729221e-06 0 -0.0055322809470585788 -2.9383541861423982e-06 0 -0.0029632444068324157 -0.00039126172633458499 0 -0.0055401680219085833 -1.288840253649323e-06 0 -0.0072918217315247587 9.5922807073665759e-05 0 -0.0073303919535069317 -0.00029422167726417611 0 -0.0055401680219085833 -1.288840253649323e-06 0 -0.0072918217315247587 9.5922807073665759e-05 0 -0.0075011120699577218 3.4417734127693921e-07 0 -0.0072918217315247587 9.5922807073665759e-05 0 -0.0073303919535069317 -0.00029422167726417611 0 -0.0075134092755502107 3.3952297897589202e-05 0 -0.0073303919535069317 -0.00029422167726417611 0 -0.0074410164400061972 -5.5389309859289182e-05 0 -0.0075134092755502107 3.3952297897589202e-05 0 -0.0050925616210740722 -0.00027077741403625053 0 -0.0045596930839938076 -7.5354724497312048e-05 0 -0.0073066570484258391 0.00010558967451714207 0 -0.0074410164400061972 -5.5389309859289182e-05 0 -0.007378492100667421 -3.6790121556283917e-06 0 -0.0044175509734183434 0.00013823239590795062 0 -0.0045596930839938076 -7.5354724497312048e-05 0 -0.007378492100667421 -3.6790121556283917e-06 0 -0.0075134092755502107 3.3952297897589202e-05 0 -0.007374448357621308 -6.3739242398172749e-05 0 -0.0074410164400061972 -5.5389309859289182e-05 0 -0.007378492100667421 -3.6790121556283917e-06 0 -0.0075134092755502107 3.3952297897589202e-05 0 -0.0075134092755502107 3.3952297897589202e-05 0 -0.007374448357621308 -6.3739242398172749e-05 0 -0.0075820255789352062 -0.00030038539019810865 0 -0.0072989908089554148 -0.00018974566201556618 0 -0.007374448357621308 -6.3739242398172749e-05 0 -0.0075820255789352062 -0.00030038539019810865 0 -0.0073583825914239585 -0.00033840908230124521 0 -0.0072989908089554148 -0.00018974566201556618 0 -0.0075820255789352062 -0.00030038539019810865 0 -0.0087684973066114065 -0.00023746173581484756 0 -0.0083660453850404066 -0.000134096383211193 0 -0.0097485594079268004 0.00013593811095709009 0 -0.010156747719176252 -0.00026622939715372141 0 -0.0082298124799363107 -8.9369906657630894e-05 0 -0.0094676046622573003 4.2214080232047761e-07 0 -0.0082298124799363107 -8.9369906657630894e-05 0 -0.0075011120699577218 3.4417734127693921e-07 0 -0.0072918217315247587 9.5922807073665759e-05 0 -0.0082298124799363107 -8.9369906657630894e-05 0 -0.0075011120699577218 3.4417734127693921e-07 0 -0.0072918217315247587 9.5922807073665759e-05 0 -0.0075134092755502107 3.3952297897589202e-05 0 -0.0082298124799363107 -8.9369906657630894e-05 0 -0.0075134092755502107 3.3952297897589202e-05 0 -0.0075820255789352062 -0.00030038539019810865 0 -0.0082298124799363107 -8.9369906657630894e-05 0 -0.013238924545308775 0.0034978353974710057 0 -0.014203074802379919 0.0030859375343041261 0 -0.014597636703304094 0.0039001754515538998 0 -0.013238924545308775 0.0034978353974710057 0 -0.012898767245226863 0.0027405865913998993 0 -0.013480431369209777 0.0025614459155238558 0 -0.013238924545308775 0.0034978353974710057 0 -0.014203074802379919 0.0030859375343041261 0 -0.013480431369209777 0.0025614459155238558 0 -0.014203074802379919 0.0030859375343041261 0 -0.014597636703304094 0.0039001754515538998 0 -0.01490514227137911 0.0031727111906638709 0 -0.014203074802379919 0.0030859375343041261 0 -0.014719155666133561 0.0022515828645621851 0 -0.01490514227137911 0.0031727111906638709 0 -0.014597636703304094 0.0039001754515538998 0 -0.01490514227137911 0.0031727111906638709 0 -0.015114693744250679 0.0038378988114429317 0 -0.014597636703304094 0.0039001754515538998 0 -0.015114693744250679 0.0038378988114429317 0 -0.014789029320893342 0.0039936769483531901 0 -0.014828598042183914 0.0041213428226298567 0 -0.014597636703304094 0.0039001754515538998 0 -0.014821889873243229 0.0039741088701914992 0 -0.014597636703304094 0.0039001754515538998 0 -0.014821889873243229 0.0039741088701914992 0 -0.014789029320893342 0.0039936769483531901 0 -0.014054848264217714 0.0037861050993079175 0 -0.014518233068137895 0.0039162149695445101 0 -0.014821889873243229 0.0039741088701914992 0 -0.014961303521887794 0.0040728222572922806 0 -0.015003541674356705 0.0039686619395371912 0 -0.014828598042183914 0.0041213428226298567 0 -0.014821889873243229 0.0039741088701914992 0 -0.014961303521887794 0.0040728222572922806 0 -0.015128019241635005 0.004090917188379911 0 -0.015148391739970081 0.0039605302809209856 0 -0.015003541674356705 0.0039686619395371912 0 -0.014961303521887794 0.0040728222572922806 0 -0.015128019241635005 0.004090917188379911 0 -0.015003541674356705 0.0039686619395371912 0 -0.015128019241635005 0.004090917188379911 0 -0.015004627619087248 0.0042061022852297953 0 -0.015161460428820639 0.0042778046243614276 0 -0.014961303521887794 0.0040728222572922806 0 -0.015128019241635005 0.004090917188379911 0 -0.015004627619087248 0.0042061022852297953 0 -0.013734533289497003 0.0036504888755697659 0 -0.013568021669982808 0.003101684751569547 0 -0.014828598042183914 0.0041213428226298567 0 -0.014961303521887794 0.0040728222572922806 0 -0.015004627619087248 0.0042061022852297953 0 -0.013238924545308775 0.0034978353974710057 0 -0.012430412587608193 0.003032616981182009 0 -0.012898767245226863 0.0027405865913998993 0 -0.014054848264217714 0.0037861050993079175 0 -0.013734533289497003 0.0036504888755697659 0 -0.012430412587608193 0.003032616981182009 0 -0.012898767245226863 0.0027405865913998993 0 -0.012217254338344254 0.0024872329651861526 0 -0.012898767245226863 0.0027405865913998993 0 -0.012766406358747999 0.0023188941075408518 0 -0.012217254338344254 0.0024872329651861526 0 -0.012430412587608193 0.003032616981182009 0 -0.012217254338344254 0.0024872329651861526 0 -0.011856999172345872 0.0026980068078989081 0 -0.012217254338344254 0.0024872329651861526 0 -0.011856999172345872 0.0026980068078989081 0 -0.011768288037280906 0.002274178982522251 0 -0.012217254338344254 0.0024872329651861526 0 -0.012056044869260865 0.0021392058453872887 0 -0.011768288037280906 0.002274178982522251 0 -0.012217254338344254 0.0024872329651861526 0 -0.012056044869260865 0.0021392058453872887 0 -0.012427229418253079 0.0020878517013592861 0 -0.012056044869260865 0.0021392058453872887 0 -0.012427229418253079 0.0020878517013592861 0 -0.012171089833535941 0.0018663078811521339 0 -0.012427229418253079 0.0020878517013592861 0 -0.01253554640259907 0.0018030826302997092 0 -0.012171089833535941 0.0018663078811521339 0 -0.012056044869260865 0.0021392058453872887 0 -0.011787581923606547 0.0019188823535586067 0 -0.012171089833535941 0.0018663078811521339 0 -0.012766406358747999 0.0023188941075408518 0 -0.012217254338344254 0.0024872329651861526 0 -0.012427229418253079 0.0020878517013592861 0 -0.012766406358747999 0.0023188941075408518 0 -0.012764651264409911 0.0019989212336271956 0 -0.013102349039518322 0.0020756725405001075 0 -0.012766406358747999 0.0023188941075408518 0 -0.012427229418253079 0.0020878517013592861 0 -0.012764651264409911 0.0019989212336271956 0 -0.012427229418253079 0.0020878517013592861 0 -0.012764651264409911 0.0019989212336271956 0 -0.01253554640259907 0.0018030826302997092 0 -0.012764651264409911 0.0019989212336271956 0 -0.013102349039518322 0.0020756725405001075 0 -0.012919261083732975 0.0016897418887153943 0 -0.013102349039518322 0.0020756725405001075 0 -0.013234682287212609 0.0018485502033133685 0 -0.012919261083732975 0.0016897418887153943 0 -0.013102349039518322 0.0020756725405001075 0 -0.013392252832145795 0.0021191353370222858 0 -0.013234682287212609 0.0018485502033133685 0 -0.012766406358747999 0.0023188941075408518 0 -0.013102349039518322 0.0020756725405001075 0 -0.013480431369209777 0.0025614459155238558 0 -0.013102349039518322 0.0020756725405001075 0 -0.013480431369209777 0.0025614459155238558 0 -0.013392252832145795 0.0021191353370222858 0 -0.012898767245226863 0.0027405865913998993 0 -0.012766406358747999 0.0023188941075408518 0 -0.013480431369209777 0.0025614459155238558 0 -0.014203074802379919 0.0030859375343041261 0 -0.013480431369209777 0.0025614459155238558 0 -0.014719155666133561 0.0022515828645621851 0 -0.013480502248047676 0.0025505355090438158 0 -0.014192777584639868 0.0022704652472398195 0 -0.013480431369209777 0.0025614459155238558 0 -0.013561462365445323 0.0022734602007085047 0 -0.013392252832145795 0.0021191353370222858 0 -0.013561462365445323 0.0022734602007085047 0 -0.013392252832145795 0.0021191353370222858 0 -0.013498961929478186 0.0018612249514946418 0 -0.013392252832145795 0.0021191353370222858 0 -0.013498961929478186 0.0018612249514946418 0 -0.013234682287212609 0.0018485502033133685 0 -0.013561462365445323 0.0022734602007085047 0 -0.013498961929478186 0.0018612249514946418 0 -0.013937400510064311 0.0020907789177156315 0 -0.013498961929478186 0.0018612249514946418 0 -0.013937400510064311 0.0020907789177156315 0 -0.013803271344890533 0.0016141184967127002 0 -0.014245642205538662 0.0018135225853301185 0 -0.013929995565759683 0.0013536163542437561 0 -0.01420757818827734 0.0019235084576992921 0 -0.014549746241834371 0.0017813018148319258 0 -0.014549796860142664 0.0021510437523001619 0 -0.014245642205538662 0.0018135225853301185 0 -0.013542202539098323 0.0011943193695241525 0 -0.013395061710725667 0.00092483656122797041 0 -0.013384073052923939 0.00092916284965060625 0 -0.013381122838749 0.00092795307286023913 0 -0.01420757818827734 0.0019235084576992921 0 -0.014549796860142664 0.0021510437523001619 0 -0.014313879435022195 0.002389613920813351 0 -0.014245642205538662 0.0018135225853301185 0 -0.01506245101252586 0.0027140819030977716 0 -0.014719155666133561 0.0022515828645621851 0 -0.015506080412607979 0.0019580131958165142 0 -0.015700870632562522 0.002990325717386947 0 -0.014192777584639868 0.0022704652472398195 0 -0.014245642205538662 0.0018135225853301185 0 -0.014659353468883907 0.0018262441173640261 0 -0.014078394715187521 0.0013316125771571032 0 -0.014265634687850299 0.0013917222566474424 0 -0.014399292842491355 0.0015099311193836182 0 -0.014217332503916193 0.0013601417441601611 0 -0.013965326859566725 0.001232798069055894 0 -0.014085626885820527 0.0013760697322658226 0 -0.014265634687850299 0.0013917222566474424 0 -0.014085626885820527 0.0013760697322658226 0 -0.014265634687850299 0.0013917222566474424 0 -0.014217332503916193 0.0013601417441601611 0 -0.014549746241834371 0.0017813018148319258 0 -0.014856332449494402 0.0020990550834734147 0 -0.014888621853282278 0.0016386305963690525 0 -0.013929995565759683 0.0013536163542437561 0 -0.014078394715187521 0.0013316125771571032 0 -0.014549796860142664 0.0021510437523001619 0 -0.014856332449494402 0.0020990550834734147 0 -0.014822257713679267 0.0025650933301901717 0 -0.014549746241834371 0.0017813018148319258 0 -0.014549796860142664 0.0021510437523001619 0 -0.014856332449494402 0.0020990550834734147 0 -0.01395230088191487 0.0010191054770372378 0 -0.013965326859566725 0.001232798069055894 0 -0.014265634687850299 0.0013917222566474424 0 -0.014370749581966167 0.0013796377742656496 0 -0.014282122313174097 0.0013851657658239249 0 -0.014740168716978029 0.0016272377242796939 0 -0.014265634687850299 0.0013917222566474424 0 -0.014399292842491355 0.0015099311193836182 0 -0.014740168716978029 0.0016272377242796939 0 -0.014399292842491355 0.0015099311193836182 0 -0.014608698838346991 0.0018618870641874778 0 -0.014659353468883907 0.0018262441173640261 0 -0.014598673046024647 0.0023103132986403035 0 -0.014399292842491355 0.0015099311193836182 0 -0.014372659487192515 0.0020068051615053594 0 -0.014608698838346991 0.0018618870641874778 0 -0.014947977427145024 0.0019538741742605096 0 -0.014608698838346991 0.0018618870641874778 0 -0.014611717972925445 0.0022946521663752169 0 -0.014372659487192515 0.0020068051615053594 0 -0.014608698838346991 0.0018618870641874778 0 -0.014611717972925445 0.0022946521663752169 0 -0.014549796860142664 0.0021510437523001619 0 -0.014822257713679267 0.0025650933301901717 0 -0.014313879435022195 0.002389613920813351 0 -0.014822257713679267 0.0025650933301901717 0 -0.014313879435022195 0.002389613920813351 0 -0.014421495462249984 0.0028579256315991843 0 -0.014822257713679267 0.0025650933301901717 0 -0.014421495462249984 0.0028579256315991843 0 -0.014784916651041114 0.0030319735046212032 0 -0.014598673046024647 0.0023103132986403035 0 -0.014471580769542674 0.0026960889401016776 0 -0.014372659487192515 0.0020068051615053594 0 -0.014611717972925445 0.0022946521663752169 0 -0.014310686176764405 0.00263108282791189 0 -0.014705766236787635 0.0022567506373655025 0 -0.014471580769542674 0.0026960889401016776 0 -0.01490514227137911 0.0031727111906638709 0 -0.015700870632562522 0.002990325717386947 0 -0.015114693744250679 0.0038378988114429317 0 -0.014719155666133561 0.0022515828645621851 0 -0.01490514227137911 0.0031727111906638709 0 -0.015700870632562522 0.002990325717386947 0 -0.01506245101252586 0.0027140819030977716 0 -0.015099672847889814 0.0033471460198769305 0 -0.015700870632562522 0.002990325717386947 0 -0.015750526008038515 0.0037743642193597514 0 -0.015114693744250679 0.0038378988114429317 0 -0.015114693744250679 0.0038378988114429317 0 -0.01534914237386277 0.0041936256238924424 0 -0.015094282847534293 0.0041507033756682157 0 -0.015750526008038515 0.0037743642193597514 0 -0.01534914237386277 0.0041936256238924424 0 -0.015829510114913004 0.0042964234073944877 0 -0.015750526008038515 0.0037743642193597514 0 -0.015114693744250679 0.0038378988114429317 0 -0.01534914237386277 0.0041936256238924424 0 -0.015099672847889814 0.0033471460198769305 0 -0.015055724196144964 0.0035845638193119172 0 -0.01534914237386277 0.0041936256238924424 0 -0.015460364306611542 0.0042696176365374571 0 -0.015375713453876325 0.0042795304371043988 0 -0.01534914237386277 0.0041936256238924424 0 -0.015690940092500636 0.0044481898191504879 0 -0.015829510114913004 0.0042964234073944877 0 -0.015397232614970752 0.0042318740044191422 0 -0.015854443499833157 0.0038381716797599038 0 -0.015854443499833157 0.0038381716797599038 0 -0.015055724196144964 0.0035845638193119172 0 -0.016567180617049235 0.0031829624672573918 0 -0.016944213302207446 0.0034662523820057209 0 -0.016545792861496825 0.003582738396817929 0 -0.015460364306611542 0.0042696176365374571 0 -0.015375713453876325 0.0042795304371043988 0 -0.015387964770002677 0.0043587121956069966 0 -0.015375713453876325 0.0042795304371043988 0 -0.0152929995465811 0.0042860763138098312 0 -0.015387964770002677 0.0043587121956069966 0 -0.0152929995465811 0.0042860763138098312 0 -0.015138061506902263 0.0042729103795258955 0 -0.015094282847534293 0.0041507033756682157 0 -0.01534914237386277 0.0041936256238924424 0 -0.0152929995465811 0.0042860763138098312 0 -0.015094282847534293 0.0041507033756682157 0 -0.01534914237386277 0.0041936256238924424 0 -0.015375713453876325 0.0042795304371043988 0 -0.0152929995465811 0.0042860763138098312 0 -0.01504880006633464 0.0025908053289243702 0 -0.014784141321671468 0.0022487454657581676 0 -0.014510163024341301 0.0025456405633533068 0 -0.01504880006633464 0.0025908053289243702 0 -0.014510163024341301 0.0025456405633533068 0 -0.014764824128760587 0.0029139675906419051 0 -0.014421495462249984 0.0028579256315991843 0 -0.014784916651041114 0.0030319735046212032 0 -0.014528725475132452 0.0033241689146746752 0 -0.014471580769542674 0.0026960889401016776 0 -0.015055724196144964 0.0035845638193119172 0 -0.014478748348200234 0.0025256081758607183 0 -0.014081687236441287 0.0029610511070882642 0 -0.014414944122058626 0.0032378665121069127 0 -0.014471580769542674 0.0026960889401016776 0 -0.014429458711016713 0.0031315023763725225 0 -0.01558091967235155 0.0036324476222947817 0 -0.015583711853842594 0.0036275616648737325 0 -0.015588108164522167 0.0036366118165686054 0 -0.015055724196144964 0.0035845638193119172 0 -0.015939160100443318 0.0034635339121396663 0 -0.015854443499833157 0.0038381716797599038 0 -0.015939160100443318 0.0034635339121396663 0 -0.014081687236441287 0.0029610511070882642 0 -0.014414944122058626 0.0032378665121069127 0 -0.014152646079192793 0.0033535166868472709 0 -0.014510163024341301 0.0025456405633533068 0 -0.014414944122058626 0.0032378665121069127 0 -0.014764824128760587 0.0029139675906419051 0 -0.014414944122058626 0.0032378665121069127 0 -0.014764824128760587 0.0029139675906419051 0 -0.014856682838027541 0.0033500399304878551 0 -0.015099144952823136 0.0029977630060076875 0 -0.014764824128760587 0.0029139675906419051 0 -0.014856682838027541 0.0033500399304878551 0 -0.014414944122058626 0.0032378665121069127 0 -0.014152646079192793 0.0033535166868472709 0 -0.014905639744006079 0.0039991319206705749 0 -0.015215243531338751 0.0036171419745483859 0 -0.014856682838027541 0.0033500399304878551 0 -0.014905639744006079 0.0039991319206705749 0 -0.014414944122058626 0.0032378665121069127 0 -0.014856682838027541 0.0033500399304878551 0 -0.014905639744006079 0.0039991319206705749 0 -0.015939160100443318 0.0034635339121396663 0 -0.016447450156300971 0.0040944142468402125 0 -0.015939160100443318 0.0034635339121396663 0 -0.017303616015633051 0.0043812902695794607 0 -0.016944213302207446 0.0034662523820057209 0 -0.017153350447532571 0.0043364085874745117 0 -0.01661189455671146 0.0039414281671181581 0 -0.017134480812313144 0.0035661643018301587 0 -0.017322686094014935 0.0043454215695686704 0 -0.01804077137038777 0.0042681648054743318 0 -0.01744559133336316 0.0051512563491537362 0 -0.017303616015633051 0.0043812902695794607 0 -0.017322686094014935 0.0043454215695686704 0 -0.01804077137038777 0.0042681648054743318 0 -0.017979676306264548 0.0046688718034337204 0 -0.017496839745911593 0.0051281559364212146 0 -0.017322686094014935 0.0043454215695686704 0 -0.017979676306264548 0.0046688718034337204 0 -0.018299976131716397 0.0048474585891252579 0 -0.01804077137038777 0.0042681648054743318 0 -0.017979676306264548 0.0046688718034337204 0 -0.015744180079634587 0.0040422029373020927 0 -0.015488391555142587 0.0043776224182192286 0 -0.015330103011701377 0.0043533178086087639 0 -0.015387964770002677 0.0043587121956069966 0 -0.015482868157918333 0.0044191727900096955 0 -0.0152929995465811 0.0042860763138098312 0 -0.015330103011701377 0.0043533178086087639 0 -0.015138061506902263 0.0042729103795258955 0 -0.0152929995465811 0.0042860763138098312 0 -0.015330103011701377 0.0043533178086087639 0 -0.015387964770002677 0.0043587121956069966 0 -0.015854443499833157 0.0038381716797599038 0 -0.015744180079634587 0.0040422029373020927 0 -0.016054818549352569 0.0037415051799092555 0 -0.016545792861496825 0.003582738396817929 0 -0.01661189455671146 0.0039414281671181581 0 -0.016567180617049235 0.0031829624672573918 0 -0.016054818549352569 0.0037415051799092555 0 -0.016545792861496825 0.003582738396817929 0 -0.016944213302207446 0.0034662523820057209 0 -0.016545792861496825 0.003582738396817929 0 -0.01661189455671146 0.0039414281671181581 0 -0.016054818549352569 0.0037415051799092555 0 -0.01661189455671146 0.0039414281671181581 0 -0.016203071870623753 0.0043926189215081493 0 -0.016544643875745758 0.0049492388471538452 0 -0.017153350447532571 0.0043364085874745117 0 -0.016203071870623753 0.0043926189215081493 0 -0.017153350447532571 0.0043364085874745117 0 -0.01661189455671146 0.0039414281671181581 0 -0.016203071870623753 0.0043926189215081493 0 -0.016061633035548542 0.0047785632605768453 0 -0.016544643875745758 0.0049492388471538452 0 -0.016203071870623753 0.0043926189215081493 0 -0.015610371106292851 0.0048089046469661527 0 -0.016061633035548542 0.0047785632605768453 0 -0.015482868157918333 0.0044191727900096955 0 -0.016061633035548542 0.0047785632605768453 0 -0.016203071870623753 0.0043926189215081493 0 -0.015482868157918333 0.0044191727900096955 0 -0.016054818549352569 0.0037415051799092555 0 -0.016203071870623753 0.0043926189215081493 0 -0.015482868157918333 0.0044191727900096955 0 -0.015307323572608717 0.0047171051162327848 0 -0.015610371106292851 0.0048089046469661527 0 -0.015482868157918333 0.0044191727900096955 0 -0.015307323572608717 0.0047171051162327848 0 -0.015135848314643345 0.0046546967612465344 0 -0.015205665640796324 0.0044262731933552742 0 -0.015307323572608717 0.0047171051162327848 0 -0.015482868157918333 0.0044191727900096955 0 -0.015205665640796324 0.0044262731933552742 0 -0.015018138295987906 0.0045067831460258063 0 -0.015135848314643345 0.0046546967612465344 0 -0.015205665640796324 0.0044262731933552742 0 -0.015010146381117227 0.0047421515879467486 0 -0.015018138295987906 0.0045067831460258063 0 -0.015135848314643345 0.0046546967612465344 0 -0.015018138295987906 0.0045067831460258063 0 -0.015005434996954161 0.0043118663967518546 0 -0.014891313520657644 0.0043806257761195184 0 -0.015018138295987906 0.0045067831460258063 0 -0.015005434996954161 0.0043118663967518546 0 -0.015205665640796324 0.0044262731933552742 0 -0.015005434996954161 0.0043118663967518546 0 -0.015205665640796324 0.0044262731933552742 0 -0.015138061506902263 0.0042729103795258955 0 -0.015330103011701377 0.0043533178086087639 0 -0.015205665640796324 0.0044262731933552742 0 -0.015138061506902263 0.0042729103795258955 0 -0.015330103011701377 0.0043533178086087639 0 -0.015482868157918333 0.0044191727900096955 0 -0.015205665640796324 0.0044262731933552742 0 -0.015138061506902263 0.0042729103795258955 0 -0.014952530714948307 0.004145618501791134 0 -0.015094282847534293 0.0041507033756682157 0 -0.015005434996954161 0.0043118663967518546 0 -0.015138061506902263 0.0042729103795258955 0 -0.014952530714948307 0.004145618501791134 0 -0.015005434996954161 0.0043118663967518546 0 -0.014866787110660518 0.0041520939089814803 0 -0.014891313520657644 0.0043806257761195184 0 -0.015005434996954161 0.0043118663967518546 0 -0.014952530714948307 0.004145618501791134 0 -0.014866787110660518 0.0041520939089814803 0 -0.014821889873243229 0.0039741088701914992 0 -0.014823931451499744 0.0039897019837388864 0 -0.014789029320893342 0.0039936769483531901 0 -0.014952530714948307 0.004145618501791134 0 -0.014866787110660518 0.0041520939089814803 0 -0.014823931451499744 0.0039897019837388864 0 -0.014952530714948307 0.004145618501791134 0 -0.014823931451499744 0.0039897019837388864 0 -0.014789029320893342 0.0039936769483531901 0 -0.014849245353285363 0.0038656236723525086 0 -0.014823931451499744 0.0039897019837388864 0 -0.014902575197712835 0.0039392252560277469 0 -0.015800209391802562 0.0052513308462105758 0 -0.015294446859349966 0.0040857420994309685 0 -0.014821889873243229 0.0039741088701914992 0 -0.014823931451499744 0.0039897019837388864 0 -0.014902575197712835 0.0039392252560277469 0 -0.015114693744250679 0.0038378988114429317 0 -0.014789029320893342 0.0039936769483531901 0 -0.015094282847534293 0.0041507033756682157 0 -0.014952530714948307 0.004145618501791134 0 -0.014789029320893342 0.0039936769483531901 0 -0.015094282847534293 0.0041507033756682157 0 -0.015148391739970081 0.0039605302809209856 0 -0.015003541674356705 0.0039686619395371912 0 -0.01504534871666492 0.0038627425931526032 0 -0.015148391739970081 0.0039605302809209856 0 -0.01504534871666492 0.0038627425931526032 0 -0.015199987974011737 0.0038445560541666545 0 -0.014849245353285363 0.0038656236723525086 0 -0.014902575197712835 0.0039392252560277469 0 -0.01504534871666492 0.0038627425931526032 0 -0.014821889873243229 0.0039741088701914992 0 -0.015003541674356705 0.0039686619395371912 0 -0.014902575197712835 0.0039392252560277469 0 -0.015003541674356705 0.0039686619395371912 0 -0.014902575197712835 0.0039392252560277469 0 -0.01504534871666492 0.0038627425931526032 0 -0.016878302180700688 0.0073464716660077084 0 -0.018693510852343501 0.0061535170799540302 0 -0.017741001339892995 0.0057521865635315455 0 -0.015800209391802562 0.0052513308462105758 0 -0.016343080354987376 0.0050817540812313194 0 -0.015800209391802562 0.0052513308462105758 0 -0.016746338522870774 0.0050097832413989411 0 -0.014849245353285363 0.0038656236723525086 0 -0.01504534871666492 0.0038627425931526032 0 -0.015051432949911861 0.0037092840415468972 0 -0.01504534871666492 0.0038627425931526032 0 -0.015178394547781263 0.0037507145259102902 0 -0.015051432949911861 0.0037092840415468972 0 -0.01504534871666492 0.0038627425931526032 0 -0.015178394547781263 0.0037507145259102902 0 -0.015199987974011737 0.0038445560541666545 0 -0.016746338522870774 0.0050097832413989411 0 -0.018652425048141436 0.0042329575110357474 0 -0.015178394547781263 0.0037507145259102902 0 -0.015051432949911861 0.0037092840415468972 0 -0.01529578368039229 0.0035553828608938087 0 -0.018693510852343501 0.0061535170799540302 0 -0.019062473480784409 0.00500098997940148 0 -0.020567628991943636 0.0049121678896907675 0 -0.019062473480784409 0.00500098997940148 0 -0.017741001339892995 0.0057521865635315455 0 -0.018604242619179187 0.0040930531201451301 0 -0.016343080354987376 0.0050817540812313194 0 -0.016320982660397894 0.0045499382493532194 0 -0.018693510852343501 0.0061535170799540302 0 -0.019062473480784409 0.00500098997940148 0 -0.017741001339892995 0.0057521865635315455 0 -0.015018138295987906 0.0045067831460258063 0 -0.014891313520657644 0.0043806257761195184 0 -0.014869585543811613 0.0046164758605331709 0 -0.015010146381117227 0.0047421515879467486 0 -0.015018138295987906 0.0045067831460258063 0 -0.014869585543811613 0.0046164758605331709 0 -0.019062473480784409 0.00500098997940148 0 -0.019727909485580807 0.0040763900490453173 0 -0.020567628991943636 0.0049121678896907675 0 -0.019500025735037816 0.0023572608339984956 0 -0.018604242619179187 0.0040930531201451301 0 -0.019727909485580807 0.0040763900490453173 0 -0.019062473480784409 0.00500098997940148 0 -0.018604242619179187 0.0040930531201451301 0 -0.019727909485580807 0.0040763900490453173 0 -0.020925080208841672 0.0031131833076704749 0 -0.020678935144522792 0.0051658817362526515 0 -0.022465434498582255 0.0039555541315482957 0 -0.020571506945577293 0.0036380002008188205 0 -0.018652425048141436 0.0042329575110357474 0 -0.020925080208841672 0.0031131833076704749 0 -0.020295951575306389 0.0030842391147414307 0 -0.020678935144522792 0.0051658817362526515 0 -0.020295951575306389 0.0030842391147414307 0 -0.019727909485580807 0.0040763900490453173 0 -0.020567628991943636 0.0049121678896907675 0 -0.018652425048141436 0.0042329575110357474 0 -0.025378925464080646 0.0040245983720981031 0 -0.015178394547781263 0.0037507145259102902 0 -0.01529578368039229 0.0035553828608938087 0 -0.015313569650435368 0.003763661505012512 0 -0.019705709715678591 0.0035837302190198624 0 -0.021300064350859536 0.0043027712856902227 0 -0.020065996801765615 0.0055472995133199494 0 -0.018652425048141436 0.0042329575110357474 0 -0.017380390922590781 0.0038524555041500731 0 -0.019629507130100764 0.0038820015631683322 0 -0.017380390922590781 0.0038524555041500731 0 -0.018238514720629938 0.0031712136668327275 0 -0.018394167975421174 0.0030393537451050045 0 -0.018406596647443395 0.0032421775092230654 0 -0.018238514720629938 0.0031712136668327275 0 -0.018406596647443395 0.0032421775092230654 0 -0.018252706430213934 0.0033467489010191691 0 -0.019629507130100764 0.0038820015631683322 0 -0.02325201915636416 0.0029811797966303073 0 -0.021300064350859536 0.0043027712856902227 0 -0.021413469162987222 0.0024168117149416879 0 -0.022539901955301658 0.0030458924374524698 0 -0.019705709715678591 0.0035837302190198624 0 -0.021300064350859536 0.0043027712856902227 0 -0.021413469162987222 0.0024168117149416879 0 -0.029028434790556543 0.0042436502628989056 0 -0.028658445649963123 0.0044309442973138012 0 -0.028906305695064458 0.0045551397407732619 0 -0.025378925464080646 0.0040245983720981031 0 -0.02325201915636416 0.0029811797966303073 0 -0.026767479567722456 0.0032195645770872585 0 -0.02325201915636416 0.0029811797966303073 0 -0.02325201915636416 0.0029811797966303073 0 -0.020552746603133304 0.0024535821623090752 0 -0.023542386633222098 0.0024643173245561555 0 -0.023696441001572126 0.0022901163916624985 0 -0.023485494540121051 0.0021712714104003099 0 -0.023542386633222098 0.0024643173245561555 0 -0.023485494540121051 0.0021712714104003099 0 -0.023353560633618632 0.0023083339621058061 0 -0.020552746603133304 0.0024535821623090752 0 -0.021575969164535979 0.0028874866256424457 0 -0.023485494540121051 0.0021712714104003099 0 -0.023353560633618632 0.0023083339621058061 0 -0.023265355931285179 0.0020567738186724801 0 -0.018563135852038365 0.0031505946197401911 0 -0.01856606406289292 0.0033224624543004167 0 -0.018732630730551252 0.0032547748431365777 0 -0.018563135852038365 0.0031505946197401911 0 -0.018406596647443395 0.0032421775092230654 0 -0.01856606406289292 0.0033224624543004167 0 -0.018394167975421174 0.0030393537451050045 0 -0.018563135852038365 0.0031505946197401911 0 -0.018406596647443395 0.0032421775092230654 0 -0.018406596647443395 0.0032421775092230654 0 -0.01856606406289292 0.0033224624543004167 0 -0.018406494815540415 0.0034364751501975736 0 -0.018406596647443395 0.0032421775092230654 0 -0.018406494815540415 0.0034364751501975736 0 -0.018252706430213934 0.0033467489010191691 0 -0.01856606406289292 0.0033224624543004167 0 -0.018732630730551252 0.0032547748431365777 0 -0.018665999732382414 0.0035120394406658088 0 -0.01856606406289292 0.0033224624543004167 0 -0.018406494815540415 0.0034364751501975736 0 -0.018665999732382414 0.0035120394406658088 0 -0.018406494815540415 0.0034364751501975736 0 -0.018665999732382414 0.0035120394406658088 0 -0.018412908520126399 0.0036795124357109524 0 -0.018406494815540415 0.0034364751501975736 0 -0.01812076352689565 0.0035728149254338247 0 -0.018412908520126399 0.0036795124357109524 0 -0.018406494815540415 0.0034364751501975736 0 -0.01812076352689565 0.0035728149254338247 0 -0.018252706430213934 0.0033467489010191691 0 -0.016749265461628561 0.0038544645507159994 0 -0.017380390922590781 0.0038524555041500731 0 -0.015148391739970081 0.0039605302809209856 0 -0.01528890066765253 0.0039770513909069046 0 -0.015199987974011737 0.0038445560541666545 0 -0.01528890066765253 0.0039770513909069046 0 -0.015199987974011737 0.0038445560541666545 0 -0.015276527486022132 0.0037773349192545165 0 -0.015345821521653926 0.0043099100729900941 0 -0.017380390922590781 0.0038524555041500731 0 -0.015178394547781263 0.0037507145259102902 0 -0.015199987974011737 0.0038445560541666545 0 -0.015313569650435368 0.003763661505012512 0 -0.018238514720629938 0.0031712136668327275 0 -0.018089968758667595 0.0033066979380024968 0 -0.018252706430213934 0.0033467489010191691 0 -0.01812076352689565 0.0035728149254338247 0 -0.018089968758667595 0.0033066979380024968 0 -0.018252706430213934 0.0033467489010191691 0 -0.017835214005945055 0.0014315401828380945 0 -0.018950962305798569 0.0021173874347248604 0 -0.022689576705216381 0.0021665231486024204 0 -0.022887005593785644 0.0022562998158553978 0 -0.022882395659412934 0.0020628175518001136 0 -0.014369476270826133 0.0023395525965437818 0 -0.014387896777853843 0.0024581598758408761 0 -0.014587994457502508 0.0023496669688525206 0 -0.01495262661373804 0.0020056593690286873 0 -0.017835214005945055 0.0014315401828380945 0 -0.015324462810327099 0.0010984031498592517 0 -0.015182951425454868 0.001264112675523616 0 -0.01518413822071016 0.0011485487328941357 0 -0.017835214005945055 0.0014315401828380945 0 -0.020905723709286395 0.0015274506406447938 0 -0.01939077535274453 0.0008169461031408042 0 -0.019214958078521322 0.00093950740433440755 0 -0.019232106288380048 0.00075205341025036138 0 -0.022897940521193972 0.0024770017785343381 0 -0.022696681278664005 0.0023834654022331023 0 -0.022887005593785644 0.0022562998158553978 0 -0.022689576705216381 0.0021665231486024204 0 -0.022696681278664005 0.0023834654022331023 0 -0.022887005593785644 0.0022562998158553978 0 -0.023012699723858741 0.0025285526057656758 0 -0.022887005593785644 0.0022562998158553978 0 -0.023052500762795528 0.0023414742439153992 0 -0.022693825773377863 0.0025328521611430836 0 -0.023034196174147408 0.002339543139384732 0 -0.022887005593785644 0.0022562998158553978 0 -0.023039071887778921 0.0021617393584702563 0 -0.023052500762795528 0.0023414742439153992 0 -0.022887005593785644 0.0022562998158553978 0 -0.022882395659412934 0.0020628175518001136 0 -0.023039071887778921 0.0021617393584702563 0 -0.023039071887778921 0.0021617393584702563 0 -0.023177882533954301 0.0022777804215839887 0 -0.023265355931285179 0.0020567738186724801 0 -0.022882395659412934 0.0020628175518001136 0 -0.023039071887778921 0.0021617393584702563 0 -0.023037374833385662 0.0019489086906657998 0 -0.023039071887778921 0.0021617393584702563 0 -0.023265355931285179 0.0020567738186724801 0 -0.023037374833385662 0.0019489086906657998 0 -0.023039071887778921 0.0021617393584702563 0 -0.023052500762795528 0.0023414742439153992 0 -0.023177882533954301 0.0022777804215839887 0 -0.023250966730870015 0.002458719478865324 0 -0.023052500762795528 0.0023414742439153992 0 -0.023177882533954301 0.0022777804215839887 0 -0.023250966730870015 0.002458719478865324 0 -0.023177882533954301 0.0022777804215839887 0 -0.023353560633618632 0.0023083339621058061 0 -0.023177882533954301 0.0022777804215839887 0 -0.023353560633618632 0.0023083339621058061 0 -0.023265355931285179 0.0020567738186724801 0 -0.018732630730551252 0.0032547748431365777 0 -0.018665999732382414 0.0035120394406658088 0 -0.018898086659577599 0.0033498619219545708 0 -0.016173630965947421 0.0028580629777450817 0 -0.017909412786495008 0.0025165478948140922 0 -0.014262542853000954 0.0019989620326013105 0 -0.014276297077139991 0.0019965964880910916 0 -0.014252306400294085 0.0019901492537519692 0 -0.014276297077139991 0.0019965964880910916 0 -0.014255147043683566 0.0019904436699800785 0 -0.014252306400294085 0.0019901492537519692 0 -0.021575969164535979 0.0028874866256424457 0 -0.017909412786495008 0.0025165478948140922 0 -0.018950962305798569 0.0021173874347248604 0 -0.017909412786495008 0.0025165478948140922 0 -0.014909312821572951 0.0021780582436945503 0 -0.014577084168039926 0.002186132446953805 0 -0.014574860542132211 0.0020177495780261054 0 -0.017909412786495008 0.0025165478948140922 0 -0.01390785058138231 0.0017499610329169673 0 -0.014587994457502508 0.0023496669688525206 0 -0.014909312821572951 0.0021780582436945503 0 -0.014577084168039926 0.002186132446953805 0 -0.014587994457502508 0.0023496669688525206 0 -0.014577084168039926 0.002186132446953805 0 -0.014429964545307199 0.0022529565902171728 0 -0.014577084168039926 0.002186132446953805 0 -0.014574860542132211 0.0020177495780261054 0 -0.014426960048750064 0.0020965310168079166 0 -0.014255147043683566 0.0019904436699800785 0 -0.014246057213736885 0.0019729259911970974 0 -0.014252306400294085 0.0019901492537519692 0 -0.014241588055968174 0.0019821706877997621 0 -0.014269769525810971 0.0020345023685234896 0 -0.014426960048750064 0.0020965310168079166 0 -0.014574860542132211 0.0020177495780261054 0 -0.014241588055968174 0.0019821706877997621 0 -0.014426960048750064 0.0020965310168079166 0 -0.014226006665707903 0.0020033207414584782 0 -0.014241588055968174 0.0019821706877997621 0 -0.014246057213736885 0.0019729259911970974 0 -0.014255147043683566 0.0019904436699800785 0 -0.014241588055968174 0.0019821706877997621 0 -0.014246057213736885 0.0019729259911970974 0 -0.01390785058138231 0.0017499610329169673 0 -0.014448256137291844 0.0020734586455557311 0 -0.0089598985725810303 0.0013560942536893629 0 -0.011459876724734702 0.0022307299257125525 0 -0.014226006665707903 0.0020033207414584782 0 -0.014241588055968174 0.0019821706877997621 0 -0.014269769525810971 0.0020345023685234896 0 -0.01495262661373804 0.0020056593690286873 0 -0.01421005525309502 0.002119092308427105 0 -0.014321892227572826 0.0023705016758247079 0 -0.014269769525810971 0.0020345023685234896 0 -0.014429964545307199 0.0022529565902171728 0 -0.014369476270826133 0.0023395525965437818 0 -0.014587994457502508 0.0023496669688525206 0 -0.014429964545307199 0.0022529565902171728 0 -0.014204409334574727 0.0020519580634844204 0 -0.014226632578143383 0.0020577636694930996 0 -0.014269769525810971 0.0020345023685234896 0 -0.014577084168039926 0.002186132446953805 0 -0.014426960048750064 0.0020965310168079166 0 -0.014429964545307199 0.0022529565902171728 0 -0.014269769525810971 0.0020345023685234896 0 -0.014426960048750064 0.0020965310168079166 0 -0.014429964545307199 0.0022529565902171728 0 -0.01495262661373804 0.0020056593690286873 0 -0.014439949788417027 0.0023719280941508453 0 -0.0073542124934515424 0.0016868880955432394 0 -0.0077562627729651917 0.0010791877643332713 0 -0.0077271524044678717 0.0020731832374078617 0 -0.0077178596385637814 0.0011303071211595736 0 -0.008001524813628192 0.0015779576068096872 0 -0.0081716544809706734 0.0019066665117111639 0 -0.0083555884323485551 0.0015065923312887947 0 -0.008001524813628192 0.0015779576068096872 0 -0.0081716544809706734 0.0019066665117111639 0 -0.0077271524044678717 0.0020731832374078617 0 -0.008001524813628192 0.0015779576068096872 0 -0.0076788517597203955 0.002830996996278146 0 -0.0077271524044678717 0.0020731832374078617 0 -0.008150010592550945 0.0023920257325702092 0 -0.0081716544809706734 0.0019066665117111639 0 -0.0077271524044678717 0.0020731832374078617 0 -0.008150010592550945 0.0023920257325702092 0 -0.014246057213736885 0.0019729259911970974 0 -0.014229927525683257 0.0019979476257938901 0 -0.014252306400294085 0.0019901492537519692 0 -0.011459876724734702 0.0022307299257125525 0 -0.011454411721846514 0.0019618073929223074 0 -0.0081716544809706734 0.0019066665117111639 0 -0.008150010592550945 0.0023920257325702092 0 -0.0087681749756020506 0.0019122873301409423 0 -0.0081716544809706734 0.0019066665117111639 0 -0.0087681749756020506 0.0019122873301409423 0 -0.0083555884323485551 0.0015065923312887947 0 -0.014229927525683257 0.0019979476257938901 0 -0.014241165978619632 0.0019996911602229266 0 -0.014217640432091547 0.0019970193739714567 0 -0.011454411721846514 0.0019618073929223074 0 -0.011939948659299234 0.0016323227228136152 0 -0.014229927525683257 0.0019979476257938901 0 -0.014252306400294085 0.0019901492537519692 0 -0.014241165978619632 0.0019996911602229266 0 -0.014262542853000954 0.0019989620326013105 0 -0.014252306400294085 0.0019901492537519692 0 -0.014241165978619632 0.0019996911602229266 0 -0.014241165978619632 0.0019996911602229266 0 -0.014217640432091547 0.0019970193739714567 0 -0.0142378624943675 0.0020001342578628346 0 -0.014217640432091547 0.0019970193739714567 0 -0.014225320123582135 0.001991707865815122 0 -0.014212274289496726 0.0019828144601428551 0 -0.0096510435551922652 0.0014089226964439277 0 -0.010877494689020445 0.0013887101398606858 0 -0.010540121380326771 0.00076309595759049918 0 -0.0095088609000083778 0.0013047224131776578 0 -0.0093988086205180187 0.00061831148999414354 0 -0.010284142809140405 0.00060272468936219895 0 -0.0093123433926131371 0.00099946328870242625 0 -0.011774896263570511 0.0011822270740516354 0 -0.0096510435551922652 0.0014089226964439277 0 -0.0094840345626032423 0.0010970286061032385 0 -0.010540121380326771 0.00076309595759049918 0 -0.011939948659299234 0.0016323227228136152 0 -0.011774896263570511 0.0011822270740516354 0 -0.0093123433926131371 0.00099946328870242625 0 -0.0084625732353118682 0.0012460269422853907 0 -0.0093735223608154856 0.0016295794077567348 0 -0.0087528932067490756 0.0018210819669563002 0 -0.0088290930655021867 0.0015331401813294587 0 -0.0096510435551922652 0.0014089226964439277 0 -0.0094840345626032423 0.0010970286061032385 0 -0.0084330209149156756 0.0014286921089877553 0 -0.0093988086205180187 0.00061831148999414354 0 -0.008832852951060316 0.0011941195082329956 0 -0.0085648877075988963 0.0006556873339987661 0 -0.009457188917171809 0.0013580400350729515 0 -0.0084625732353118682 0.0012460269422853907 0 -0.0087681749756020506 0.0019122873301409423 0 -0.0095088609000083778 0.0013047224131776578 0 -0.008832852951060316 0.0011941195082329956 0 -0.0095088609000083778 0.0013047224131776578 0 -0.0093988086205180187 0.00061831148999414354 0 -0.008832852951060316 0.0011941195082329956 0 -0.0087681749756020506 0.0019122873301409423 0 -0.008832852951060316 0.0011941195082329956 0 -0.0083555884323485551 0.0015065923312887947 0 -0.0083555884323485551 0.0015065923312887947 0 -0.0083698445579473753 0.0011023572158037293 0 -0.0080592640554013276 0.0012516539307761911 0 -0.008832852951060316 0.0011941195082329956 0 -0.0083555884323485551 0.0015065923312887947 0 -0.0083698445579473753 0.0011023572158037293 0 -0.0083698445579473753 0.0011023572158037293 0 -0.0085648877075988963 0.0006556873339987661 0 -0.0079068430887105235 0.00091430728867433698 0 -0.0084625732353118682 0.0012460269422853907 0 -0.0078072109984155726 0.0010185715094959914 0 -0.008832852951060316 0.0011941195082329956 0 -0.0083698445579473753 0.0011023572158037293 0 -0.0085648877075988963 0.0006556873339987661 0 -0.0087528932067490756 0.0018210819669563002 0 -0.0084760104934976724 0.001393279488142121 0 -0.0088290930655021867 0.0015331401813294587 0 -0.0087528932067490756 0.0018210819669563002 0 -0.0078366429298923831 0.0018308629627341278 0 -0.0084760104934976724 0.001393279488142121 0 -0.007899484633873249 0.0010411174049058797 0 -0.0077111001094997897 0.0011001760493422625 0 -0.007593198666951669 0.0010496197346473494 0 -0.007591216387915406 0.0011061327725173735 0 -0.0078072109984155726 0.0010185715094959914 0 -0.0075502951807768061 0.0011347570949030922 0 -0.0077111001094997897 0.0011001760493422625 0 -0.007593198666951669 0.0010496197346473494 0 -0.007701690564227706 0.0013636313860795656 0 -0.0081751706661861625 0.0012336336656950124 0 -0.0084625732353118682 0.0012460269422853907 0 -0.007701690564227706 0.0013636313860795656 0 -0.0075502951807768061 0.0011347570949030922 0 -0.0079068430887105235 0.00091430728867433698 0 -0.0077178596385637814 0.0011303071211595736 0 -0.0083698445579473753 0.0011023572158037293 0 -0.0079068430887105235 0.00091430728867433698 0 -0.0080592640554013276 0.0012516539307761911 0 -0.0079068430887105235 0.00091430728867433698 0 -0.0077178596385637814 0.0011303071211595736 0 -0.0080592640554013276 0.0012516539307761911 0 -0.0083555884323485551 0.0015065923312887947 0 -0.0080592640554013276 0.0012516539307761911 0 -0.008001524813628192 0.0015779576068096872 0 -0.0077178596385637814 0.0011303071211595736 0 -0.0080592640554013276 0.0012516539307761911 0 -0.008001524813628192 0.0015779576068096872 0 -0.015710537949659681 0.0033465654301552939 0 -0.016504707049996535 0.0027316301407286367 0 -0.015128019241635005 0.004090917188379911 0 -0.01531587684766882 0.004182095847826744 0 -0.015161460428820639 0.0042778046243614276 0 -0.015710537949659681 0.0033465654301552939 0 -0.013568021669982808 0.003101684751569547 0 -0.015128019241635005 0.004090917188379911 0 -0.01528890066765253 0.0039770513909069046 0 -0.01531587684766882 0.004182095847826744 0 -0.015128019241635005 0.004090917188379911 0 -0.015148391739970081 0.0039605302809209856 0 -0.01528890066765253 0.0039770513909069046 0 -0.016749265461628561 0.0038544645507159994 0 -0.015710537949659681 0.0033465654301552939 0 -0.01812076352689565 0.0035728149254338247 0 -0.018146308167472289 0.0038415856283621598 0 -0.018412908520126399 0.0036795124357109524 0 -0.016173630965947421 0.0028580629777450817 0 -0.016504707049996535 0.0027316301407286367 0 -0.014262542853000954 0.0019989620326013105 0 -0.014241165978619632 0.0019996911602229266 0 -0.014257764055611726 0.0020088808819269609 0 -0.014241165978619632 0.0019996911602229266 0 -0.014257764055611726 0.0020088808819269609 0 -0.0142378624943675 0.0020001342578628346 0 -0.014267551158162362 0.0020135595893982948 0 -0.014257764055611726 0.0020088808819269609 0 -0.014250230939741851 0.0020040364953581667 0 -0.014257764055611726 0.0020088808819269609 0 -0.0142378624943675 0.0020001342578628346 0 -0.014250230939741851 0.0020040364953581667 0 -0.0142378624943675 0.0020001342578628346 0 -0.014250230939741851 0.0020040364953581667 0 -0.014238716982028011 0.0019941912202865431 0 -0.014250230939741851 0.0020040364953581667 0 -0.014238716982028011 0.0019941912202865431 0 -0.014251207113298895 0.0019909607195670214 0 -0.014217640432091547 0.0019970193739714567 0 -0.0142378624943675 0.0020001342578628346 0 -0.014225320123582135 0.001991707865815122 0 -0.0142378624943675 0.0020001342578628346 0 -0.014238716982028011 0.0019941912202865431 0 -0.014225320123582135 0.001991707865815122 0 -0.014225320123582135 0.001991707865815122 0 -0.014212274289496726 0.0019828144601428551 0 -0.014225811126539967 0.0019803130911885763 0 -0.011129907713497233 0.001461511000178634 0 -0.012876720003446475 0.0018570302704544299 0 -0.011839790507252455 0.0012860444741915262 0 -0.011496332227613483 0.0016160291002693511 0 -0.012452304565923493 0.0016024736974307866 0 -0.011774896263570511 0.0011822270740516354 0 -0.012876720003446475 0.0018570302704544299 0 -0.011183858076128929 0.0010939245852106274 0 -0.010877494689020445 0.0013887101398606858 0 -0.010540121380326771 0.00076309595759049918 0 -0.011129907713497233 0.001461511000178634 0 -0.011774896263570511 0.0011822270740516354 0 -0.012876720003446475 0.0018570302704544299 0 -0.01297080223462465 0.0020614779715948579 0 -0.012876720003446475 0.0018570302704544299 0 -0.011666700065661822 0.0019661841108176616 0 -0.014238716982028011 0.0019941912202865431 0 -0.014225811126539967 0.0019803130911885763 0 -0.014251207113298895 0.0019909607195670214 0 -0.011325936315108882 0.0016776055261244263 0 -0.011407718300834181 0.0017196420043984115 0 -0.011472106241288657 0.0016321973668720353 0 -0.014238716982028011 0.0019941912202865431 0 -0.014225320123582135 0.001991707865815122 0 -0.014225811126539967 0.0019803130911885763 0 -0.011407718300834181 0.0017196420043984115 0 -0.011580572573871779 0.0017188816867954458 0 -0.011472106241288657 0.0016321973668720353 0 -0.012673721702259423 0.001949011646352466 0 -0.01250274141650312 0.0019542098310696534 0 -0.01248550283680531 0.0018556068969145401 0 -0.011666700065661822 0.0019661841108176616 0 -0.011354528045735937 0.0020186547084253435 0 -0.011203974848570143 0.0020451801747793448 0 -0.011470097453645059 0.0020482761792119941 0 -0.011337412040669433 0.0017898894349778561 0 -0.011197623231131285 0.0020552062252394963 0 -0.011258038644599932 0.002374529903488866 0 -0.011470097453645059 0.0020482761792119941 0 -0.011666700065661822 0.0019661841108176616 0 -0.01297080223462465 0.0020614779715948579 0 -0.015710537949659681 0.0033465654301552939 0 -0.01297080223462465 0.0020614779715948579 0 -0.014267551158162362 0.0020135595893982948 0 -0.014250230939741851 0.0020040364953581667 0 -0.014251207113298895 0.0019909607195670214 0 -0.011258038644599932 0.002374529903488866 0 -0.011856999172345872 0.0026980068078989081 0 -0.011768288037280906 0.002274178982522251 0 -0.01297080223462465 0.0020614779715948579 0 -0.013568021669982808 0.003101684751569547 0 -0.013960312765925485 0.0030177008553250026 0 -0.013867078427844431 0.0025799524799964323 0 -0.014284714384107689 0.0027979205998516993 0 -0.011258038644599932 0.002374529903488866 0 -0.011768288037280906 0.002274178982522251 0 -0.011470097453645059 0.0020482761792119941 0 -0.011768288037280906 0.002274178982522251 0 -0.011470097453645059 0.0020482761792119941 0 -0.011787581923606547 0.0019188823535586067 0 -0.011470097453645059 0.0020482761792119941 0 -0.011787581923606547 0.0019188823535586067 0 -0.011529876391919457 0.0017735923970233942 0 -0.012056044869260865 0.0021392058453872887 0 -0.011768288037280906 0.002274178982522251 0 -0.011787581923606547 0.0019188823535586067 0 -0.011787581923606547 0.0019188823535586067 0 -0.011672626815545801 0.0016344880158040225 0 -0.011955754383099336 0.0016775277664561107 0 -0.011787581923606547 0.0019188823535586067 0 -0.011529876391919457 0.0017735923970233942 0 -0.011672626815545801 0.0016344880158040225 0 -0.011529876391919457 0.0017735923970233942 0 -0.011672626815545801 0.0016344880158040225 0 -0.011358488060841986 0.0015356240471367619 0 -0.011672626815545801 0.0016344880158040225 0 -0.011575849733441461 0.001453243502287475 0 -0.011358488060841986 0.0015356240471367619 0 -0.011672626815545801 0.0016344880158040225 0 -0.011955754383099336 0.0016775277664561107 0 -0.011882104744799166 0.0014618614052746707 0 -0.011672626815545801 0.0016344880158040225 0 -0.011575849733441461 0.001453243502287475 0 -0.011882104744799166 0.0014618614052746707 0 -0.011575849733441461 0.001453243502287475 0 -0.011653700780428029 0.0013387663491050633 0 -0.011882104744799166 0.0014618614052746707 0 -0.011575849733441461 0.001453243502287475 0 -0.011499370809719236 0.0013159515025781413 0 -0.011653700780428029 0.0013387663491050633 0 -0.011575849733441461 0.001453243502287475 0 -0.011442052933936707 0.0013920309820552468 0 -0.011358488060841986 0.0015356240471367619 0 -0.011575849733441461 0.001453243502287475 0 -0.011442052933936707 0.0013920309820552468 0 -0.011499370809719236 0.0013159515025781413 0 -0.011442052933936707 0.0013920309820552468 0 -0.011499370809719236 0.0013159515025781413 0 -0.011341645323932396 0.0012770718027881685 0 -0.011499370809719236 0.0013159515025781413 0 -0.011497519599121821 0.0012383619086319604 0 -0.011341645323932396 0.0012770718027881685 0 -0.011497519599121821 0.0012383619086319604 0 -0.011341645323932396 0.0012770718027881685 0 -0.011527419085013632 0.0011652619621809435 0 -0.011499370809719236 0.0013159515025781413 0 -0.011497519599121821 0.0012383619086319604 0 -0.011558280355989122 0.0012588110520922249 0 -0.011572041980404521 0.0011711709977123754 0 -0.011653700780428029 0.0013387663491050633 0 -0.011970366096112009 0.0012271845991725697 0 -0.011497519599121821 0.0012383619086319604 0 -0.011572041980404521 0.0011711709977123754 0 -0.011558280355989122 0.0012588110520922249 0 -0.011497519599121821 0.0012383619086319604 0 -0.011572041980404521 0.0011711709977123754 0 -0.011527419085013632 0.0011652619621809435 0 -0.011572041980404521 0.0011711709977123754 0 -0.011653700780428029 0.0013387663491050633 0 -0.011558280355989122 0.0012588110520922249 0 -0.011499370809719236 0.0013159515025781413 0 -0.011653700780428029 0.0013387663491050633 0 -0.011558280355989122 0.0012588110520922249 0 -0.011341645323932396 0.0012770718027881685 0 -0.011134274875525414 0.0015727706389264821 0 -0.011108321749214004 0.0012142000814883672 0 -0.011543800974563957 0.0015502583858037317 0 -0.011499121142050636 0.0014831105332284266 0 -0.011497852088571455 0.0013490109858653163 0 -0.011331171328834601 0.0015020598775801648 0 -0.011010658095106512 0.0015779073429688119 0 -0.011341645323932396 0.0012770718027881685 0 -0.011108321749214004 0.0012142000814883672 0 -0.011527419085013632 0.0011652619621809435 0 -0.011442052933936707 0.0013920309820552468 0 -0.011341645323932396 0.0012770718027881685 0 -0.011358488060841986 0.0015356240471367619 0 -0.011341645323932396 0.0012770718027881685 0 -0.011134274875525414 0.0015727706389264821 0 -0.011358488060841986 0.0015356240471367619 0 -0.011580572573871779 0.0017188816867954458 0 -0.011543800974563957 0.0015502583858037317 0 -0.011472106241288657 0.0016321973668720353 0 -0.011666700065661822 0.0019661841108176616 0 -0.011331171328834601 0.0015020598775801648 0 -0.011203974848570143 0.0020451801747793448 0 -0.011134274875525414 0.0015727706389264821 0 -0.011337412040669433 0.0017898894349778561 0 -0.011134274875525414 0.0015727706389264821 0 -0.011358488060841986 0.0015356240471367619 0 -0.011337412040669433 0.0017898894349778561 0 -0.011529876391919457 0.0017735923970233942 0 -0.011358488060841986 0.0015356240471367619 0 -0.011337412040669433 0.0017898894349778561 0 -0.011470097453645059 0.0020482761792119941 0 -0.011529876391919457 0.0017735923970233942 0 -0.011337412040669433 0.0017898894349778561 0 -0.011325936315108882 0.0016776055261244263 0 -0.011472106241288657 0.0016321973668720353 0 -0.011454041198114712 0.0015401416932540625 0 -0.010462798837281987 0.0016037919885820249 0 -0.010807582109070896 0.0012076355030854159 0 -0.01095818622639633 0.0011267158793921499 0 -0.011129907713497233 0.001461511000178634 0 -0.011238439987265213 0.0013609822141117855 0 -0.010807582109070896 0.0012076355030854159 0 -0.01095818622639633 0.0011267158793921499 0 -0.010631101925346401 0.00098961654977104815 0 -0.011543800974563957 0.0015502583858037317 0 -0.011472106241288657 0.0016321973668720353 0 -0.011499121142050636 0.0014831105332284266 0 -0.011472106241288657 0.0016321973668720353 0 -0.011454041198114712 0.0015401416932540625 0 -0.011499121142050636 0.0014831105332284266 0 -0.010807582109070896 0.0012076355030854159 0 -0.010425201828109939 0.0011530968174819384 0 -0.010021696171130022 0.0014634395174207349 0 -0.010462798837281987 0.0016037919885820249 0 -0.010807582109070896 0.0012076355030854159 0 -0.010122005177435667 0.001427609031133213 0 -0.010712390998527338 0.0012564791158251518 0 -0.010161591588030001 0.0013007947331058081 0 -0.011129907713497233 0.001461511000178634 0 -0.010161591588030001 0.0013007947331058081 0 -0.010807582109070896 0.0012076355030854159 0 -0.010425201828109939 0.0011530968174819384 0 -0.010631101925346401 0.00098961654977104815 0 -0.010425201828109939 0.0011530968174819384 0 -0.010238527640145607 0.00095356654342125091 0 -0.010021696171130022 0.0014634395174207349 0 -0.010586256247010184 0.0013047696291001833 0 -0.0094953926318195707 0.0010104106488805858 0 -0.010238527640145607 0.00095356654342125091 0 -0.010628727150443582 0.00053349222139922067 0 -0.0096168693624657919 0.0006076869431538163 0 -0.010238527640145607 0.00095356654342125091 0 -0.010631101925346401 0.00098961654977104815 0 -0.010628727150443582 0.00053349222139922067 0 -0.010425201828109939 0.0011530968174819384 0 -0.010238527640145607 0.00095356654342125091 0 -0.010631101925346401 0.00098961654977104815 0 -0.011238439987265213 0.0013609822141117855 0 -0.010586256247010184 0.0013047696291001833 0 -0.01142752719526609 0.001550670604941312 0 -0.011311319401147097 0.0013590240125178179 0 -0.011499121142050636 0.0014831105332284266 0 -0.01095818622639633 0.0011267158793921499 0 -0.010631101925346401 0.00098961654977104815 0 -0.010628727150443582 0.00053349222139922067 0 -0.011238439987265213 0.0013609822141117855 0 -0.011375905370861153 0.0013992021224441906 0 -0.010586256247010184 0.0013047696291001833 0 -0.011010658095106512 0.0015779073429688119 0 -0.011311319401147097 0.0013590240125178179 0 -0.011499121142050636 0.0014831105332284266 0 -0.011497852088571455 0.0013490109858653163 0 -0.011010658095106512 0.0015779073429688119 0 -0.010669909874169681 0.0013369699452887517 0 -0.010741894029262433 0.0023186457452062745 0 -0.010504861729107952 0.0020185256683563496 0 -0.010642688046500806 0.0016454274072188098 0 -0.010211622420017597 0.0023599145241590099 0 -0.010741894029262433 0.0023186457452062745 0 -0.010504861729107952 0.0020185256683563496 0 -0.010504861729107952 0.0020185256683563496 0 -0.010472865281361961 0.00181581611859788 0 -0.0099699175338389297 0.0019438458281999475 0 -0.010472865281361961 0.00181581611859788 0 -0.0099699175338389297 0.0019438458281999475 0 -0.010392944859542508 0.0016346084036917014 0 -0.010504861729107952 0.0020185256683563496 0 -0.010472865281361961 0.00181581611859788 0 -0.010642688046500806 0.0016454274072188098 0 -0.010198334736161925 0.001314932839112047 0 -0.010067822555442106 0.0010865351425995387 0 -0.0096775309432728038 0.0013536992595893842 0 -0.010211622420017597 0.0023599145241590099 0 -0.010504861729107952 0.0020185256683563496 0 -0.0099699175338389297 0.0019438458281999475 0 -0.010586256247010184 0.0013047696291001833 0 -0.009890137334554237 0.0015396862394464496 0 -0.009890137334554237 0.0015396862394464496 0 -0.010245095985858434 0.0017036287381832116 0 -0.0098030504942372733 0.0020425963438332022 0 -0.0097841411831926378 0.0014126092912419947 0 -0.0092414808780663469 0.0010817930057648664 0 -0.009890137334554237 0.0015396862394464496 0 -0.0090798997530300192 0.00077251482832734809 0 -0.0098030504942372733 0.0020425963438332022 0 -0.010091838130331722 0.0015054956617603125 0 -0.010392944859542508 0.0016346084036917014 0 -0.0098030504942372733 0.0020425963438332022 0 -0.010091838130331722 0.0015054956617603125 0 -0.0097841411831926378 0.0014126092912419947 0 -0.010091838130331722 0.0015054956617603125 0 -0.0097841411831926378 0.0014126092912419947 0 -0.01020835856204122 0.0013071143582805487 0 -0.0097841411831926378 0.0014126092912419947 0 -0.01020835856204122 0.0013071143582805487 0 -0.0098456658063511265 0.00092823417928172326 0 -0.0097841411831926378 0.0014126092912419947 0 -0.0092414808780663469 0.0010817930057648664 0 -0.0098456658063511265 0.00092823417928172326 0 -0.010669909874169681 0.0013369699452887517 0 -0.010539346428684796 0.00072731229864829883 0 -0.01072874869068275 0.0009825083860656315 0 -0.010786163411454967 0.00085895488040465542 0 -0.010518965531778652 0.00070115051294685946 0 -0.010642688046500806 0.0016454274072188098 0 -0.01020835856204122 0.0013071143582805487 0 -0.010518965531778652 0.00070115051294685946 0 -0.010642688046500806 0.0016454274072188098 0 -0.010392944859542508 0.0016346084036917014 0 -0.01020835856204122 0.0013071143582805487 0 -0.010472865281361961 0.00181581611859788 0 -0.010642688046500806 0.0016454274072188098 0 -0.010392944859542508 0.0016346084036917014 0 -0.010091838130331722 0.0015054956617603125 0 -0.010392944859542508 0.0016346084036917014 0 -0.01020835856204122 0.0013071143582805487 0 -0.010786163411454967 0.00085895488040465542 0 -0.010972498273303722 0.00096366105326066626 0 -0.010919727094419195 0.00078406389742129634 0 -0.01072874869068275 0.0009825083860656315 0 -0.010786163411454967 0.00085895488040465542 0 -0.010972498273303722 0.00096366105326066626 0 -0.010972498273303722 0.00096366105326066626 0 -0.011184184589161771 0.0010132119333500814 0 -0.01119960010642823 0.00089099447269801657 0 -0.01119960010642823 0.00089099447269801657 0 -0.011159353595928982 0.00069174273827833914 0 -0.010919727094419195 0.00078406389742129634 0 -0.010972498273303722 0.00096366105326066626 0 -0.01119960010642823 0.00089099447269801657 0 -0.010919727094419195 0.00078406389742129634 0 -0.01119960010642823 0.00089099447269801657 0 -0.01135962402760367 0.00079169460253088468 0 -0.011159353595928982 0.00069174273827833914 0 -0.01119960010642823 0.00089099447269801657 0 -0.011406095143577259 0.00091840935319112849 0 -0.01135962402760367 0.00079169460253088468 0 -0.011406095143577259 0.00091840935319112849 0 -0.011367611589124395 0.0010187258712447572 0 -0.011534848787599968 0.0010446616131602566 0 -0.01119960010642823 0.00089099447269801657 0 -0.011406095143577259 0.00091840935319112849 0 -0.011367611589124395 0.0010187258712447572 0 -0.011184184589161771 0.0010132119333500814 0 -0.01119960010642823 0.00089099447269801657 0 -0.011367611589124395 0.0010187258712447572 0 -0.011441898962252955 0.0010897008303128535 0 -0.011367611589124395 0.0010187258712447572 0 -0.011272896308559504 0.0011235992927789529 0 -0.011184184589161771 0.0010132119333500814 0 -0.011367611589124395 0.0010187258712447572 0 -0.011272896308559504 0.0011235992927789529 0 -0.011441898962252955 0.0010897008303128535 0 -0.011367611589124395 0.0010187258712447572 0 -0.011534848787599968 0.0010446616131602566 0 -0.011572041980404521 0.0011711709977123754 0 -0.011527419085013632 0.0011652619621809435 0 -0.011534848787599968 0.0010446616131602566 0 -0.011441898962252955 0.0010897008303128535 0 -0.011527419085013632 0.0011652619621809435 0 -0.011534848787599968 0.0010446616131602566 0 -0.011441898962252955 0.0010897008303128535 0 -0.011527419085013632 0.0011652619621809435 0 -0.011272896308559504 0.0011235992927789529 0 -0.011010658095106512 0.0015779073429688119 0 -0.011477995945944116 0.0011111070921615081 0 -0.010824665990522434 0.0013683270861866701 0 -0.011527419085013632 0.0011652619621809435 0 -0.011272896308559504 0.0011235992927789529 0 -0.010824665990522434 0.0013683270861866701 0 -0.011272896308559504 0.0011235992927789529 0 -0.011082009305149913 0.0011158058080010748 0 -0.010824665990522434 0.0013683270861866701 0 -0.010972498273303722 0.00096366105326066626 0 -0.011082009305149913 0.0011158058080010748 0 -0.010824665990522434 0.0013683270861866701 0 -0.01072874869068275 0.0009825083860656315 0 -0.010972498273303722 0.00096366105326066626 0 -0.011184184589161771 0.0010132119333500814 0 -0.011272896308559504 0.0011235992927789529 0 -0.011082009305149913 0.0011158058080010748 0 -0.010972498273303722 0.00096366105326066626 0 -0.011184184589161771 0.0010132119333500814 0 -0.011082009305149913 0.0011158058080010748 0 -0.0078164169564552965 0.00087350496094853807 0 -0.0079730031756143679 0.00066937504002739779 0 -0.0077049026795477848 0.00068544468802769613 0 -0.0076570304279351712 0.00098647006776066506 0 -0.0078164169564552965 0.00087350496094853807 0 -0.0077554007752581302 0.0010392748106984907 0 -0.0076945430647635893 0.0011925981819324249 0 -0.0077554007752581302 0.0010392748106984907 0 -0.0079309211555423122 0.0010524824651223217 0 -0.0078164169564552965 0.00087350496094853807 0 -0.0077554007752581302 0.0010392748106984907 0 -0.0079309211555423122 0.0010524824651223217 0 -0.0084760104934976724 0.001393279488142121 0 -0.0088290930655021867 0.0015331401813294587 0 -0.0091100298927527211 0.00095244682437143821 0 -0.0081751706661861625 0.0012336336656950124 0 -0.0088830433454498824 0.0010535739201019559 0 -0.0078164169564552965 0.00087350496094853807 0 -0.0079309211555423122 0.0010524824651223217 0 -0.0081750723507130561 0.00089340842929278128 0 -0.0078164169564552965 0.00087350496094853807 0 -0.0081750723507130561 0.00089340842929278128 0 -0.0079730031756143679 0.00066937504002739779 0 -0.0081750723507130561 0.00089340842929278128 0 -0.0083342403921315301 0.00059381241166107533 0 -0.0079730031756143679 0.00066937504002739779 0 -0.0088830433454498824 0.0010535739201019559 0 -0.0087410737193934253 0.00079227441884436776 0 -0.009206911065987573 0.0011393314376534527 0 -0.0091456067388857084 0.0012074500789281141 0 -0.0092325684128131986 0.0010361730853947872 0 -0.009206911065987573 0.0011393314376534527 0 -0.0091456067388857084 0.0012074500789281141 0 -0.0092525485383100903 0.001135712835116625 0 -0.0088830433454498824 0.0010535739201019559 0 -0.0094953926318195707 0.0010104106488805858 0 -0.0091194245498561442 0.00095407994096500441 0 -0.0093851598073717048 0.0011302549685928548 0 -0.0096168693624657919 0.0006076869431538163 0 -0.0088932388146238713 0.0014191992808327187 0 -0.0088830433454498824 0.0010535739201019559 0 -0.0088290930655021867 0.0015331401813294587 0 -0.0091194245498561442 0.00095407994096500441 0 -0.0091663301804021779 0.0013298085774254289 0 -0.0093735223608154856 0.0016295794077567348 0 -0.0088290930655021867 0.0015331401813294587 0 -0.0091663301804021779 0.0013298085774254289 0 -0.0093735223608154856 0.0016295794077567348 0 -0.0091663301804021779 0.0013298085774254289 0 -0.0093851598073717048 0.0011302549685928548 0 -0.0091194245498561442 0.00095407994096500441 0 -0.0091663301804021779 0.0013298085774254289 0 -0.0093851598073717048 0.0011302549685928548 0 -0.0094118147798637995 0.00116038049627294 0 -0.010161591588030001 0.0013007947331058081 0 -0.009457188917171809 0.0013580400350729515 0 -0.010161591588030001 0.0013007947331058081 0 -0.0093851598073717048 0.0011302549685928548 0 -0.010021696171130022 0.0014634395174207349 0 -0.0098152633422131236 0.0010379018177900914 0 -0.0093735223608154856 0.0016295794077567348 0 -0.0093851598073717048 0.0011302549685928548 0 -0.0099826092781856567 0.0014352984840630678 0 -0.010238527640145607 0.00095356654342125091 0 -0.010021696171130022 0.0014634395174207349 0 -0.0098152633422131236 0.0010379018177900914 0 -0.010238527640145607 0.00095356654342125091 0 -0.0098152633422131236 0.0010379018177900914 0 -0.0096168693624657919 0.0006076869431538163 0 -0.0093851598073717048 0.0011302549685928548 0 -0.0098152633422131236 0.0010379018177900914 0 -0.0096168693624657919 0.0006076869431538163 0 -0.00929552705526418 0.0010564144442428364 0 -0.0094953926318195707 0.0010104106488805858 0 -0.009890137334554237 0.0015396862394464496 0 -0.0094953926318195707 0.0010104106488805858 0 -0.0094156053835007109 0.0010296462699998755 0 -0.0092533242595453525 0.0011368862790210646 0 -0.0092325684128131986 0.0010361730853947872 0 -0.009206911065987573 0.0011393314376534527 0 -0.0092533242595453525 0.0011368862790210646 0 -0.0092325684128131986 0.0010361730853947872 0 -0.0083342403921315301 0.00059381241166107533 0 -0.008293503589736826 0.00035381483588730136 0 -0.0084913102414918874 0.00028985335818053337 0 -0.0094156053835007109 0.0010296462699998755 0 -0.0092325684128131986 0.0010361730853947872 0 -0.0093180997191954478 0.0008604034715212251 0 -0.0087410737193934253 0.00079227441884436776 0 -0.0090798997530300192 0.00077251482832734809 0 -0.008293503589736826 0.00035381483588730136 0 -0.0080471275457925061 0.00042299020122603994 0 -0.0081681756031402493 0.00026314699710308729 0 -0.0083342403921315301 0.00059381241166107533 0 -0.008293503589736826 0.00035381483588730136 0 -0.0080471275457925061 0.00042299020122603994 0 -0.0083342403921315301 0.00059381241166107533 0 -0.0079730031756143679 0.00066937504002739779 0 -0.0080471275457925061 0.00042299020122603994 0 -0.0079730031756143679 0.00066937504002739779 0 -0.0080471275457925061 0.00042299020122603994 0 -0.0078188699440850887 0.00051095658356191734 0 -0.0080471275457925061 0.00042299020122603994 0 -0.0078373401067221952 0.00034433974852978268 0 -0.0079385398728804568 0.00018030272440876685 0 -0.0080471275457925061 0.00042299020122603994 0 -0.0078373401067221952 0.00034433974852978268 0 -0.0078188699440850887 0.00051095658356191734 0 -0.0080471275457925061 0.00042299020122603994 0 -0.0079385398728804568 0.00018030272440876685 0 -0.0081681756031402493 0.00026314699710308729 0 -0.0076219571068988825 0.00041078886499464111 0 -0.0078373401067221952 0.00034433974852978268 0 -0.0078188699440850887 0.00051095658356191734 0 -0.0076219571068988825 0.00041078886499464111 0 -0.0078373401067221952 0.00034433974852978268 0 -0.0076718214220129685 0.00021551303795354145 0 -0.0079730031756143679 0.00066937504002739779 0 -0.0077049026795477848 0.00068544468802769613 0 -0.0078188699440850887 0.00051095658356191734 0 -0.0076219571068988825 0.00041078886499464111 0 -0.0077049026795477848 0.00068544468802769613 0 -0.0078188699440850887 0.00051095658356191734 0 -0.0075524584605650797 -8.1190525519835141e-05 0 -0.0078404256345817585 -5.1449407262394783e-05 0 -0.0077900490530830946 -0.00024007475622637994 0 -0.0075524584605650797 -8.1190525519835141e-05 0 -0.0077900490530830946 -0.00024007475622637994 0 -0.0074500569159475349 -0.00027067748544443572 0 -0.0075524584605650797 -8.1190525519835141e-05 0 -0.0077138407921443627 6.4476795751797948e-05 0 -0.0078404256345817585 -5.1449407262394783e-05 0 -0.0074995767763055389 0.00014158142372133495 0 -0.0075524584605650797 -8.1190525519835141e-05 0 -0.0077138407921443627 6.4476795751797948e-05 0 -0.0074995767763055389 0.00014158142372133495 0 -0.0076718214220129685 0.00021551303795354145 0 -0.0077138407921443627 6.4476795751797948e-05 0 -0.0078373401067221952 0.00034433974852978268 0 -0.0076718214220129685 0.00021551303795354145 0 -0.0079385398728804568 0.00018030272440876685 0 -0.0076718214220129685 0.00021551303795354145 0 -0.0077138407921443627 6.4476795751797948e-05 0 -0.0079385398728804568 0.00018030272440876685 0 -0.0077138407921443627 6.4476795751797948e-05 0 -0.0079385398728804568 0.00018030272440876685 0 -0.0078404256345817585 -5.1449407262394783e-05 0 -0.0079385398728804568 0.00018030272440876685 0 -0.0080247235683760677 -2.5803321869551326e-05 0 -0.0082146801673558395 8.4668024747322514e-05 0 -0.0079385398728804568 0.00018030272440876685 0 -0.0080247235683760677 -2.5803321869551326e-05 0 -0.0078404256345817585 -5.1449407262394783e-05 0 -0.0078404256345817585 -5.1449407262394783e-05 0 -0.0080447742455103024 -0.00024309361306821964 0 -0.0077900490530830946 -0.00024007475622637994 0 -0.0080247235683760677 -2.5803321869551326e-05 0 -0.0078404256345817585 -5.1449407262394783e-05 0 -0.0080447742455103024 -0.00024309361306821964 0 -0.0080247235683760677 -2.5803321869551326e-05 0 -0.0080447742455103024 -0.00024309361306821964 0 -0.0081543320449472823 -0.00010300949420558379 0 -0.0080447742455103024 -0.00024309361306821964 0 -0.0081543320449472823 -0.00010300949420558379 0 -0.0081916902307095692 -0.0003560469384852195 0 -0.0081543320449472823 -0.00010300949420558379 0 -0.0084096114211807908 5.4696798409733442e-06 0 -0.0081916902307095692 -0.0003560469384852195 0 -0.0081543320449472823 -0.00010300949420558379 0 -0.0084096114211807908 5.4696798409733442e-06 0 -0.0082146801673558395 8.4668024747322514e-05 0 -0.0080247235683760677 -2.5803321869551326e-05 0 -0.0081543320449472823 -0.00010300949420558379 0 -0.0082146801673558395 8.4668024747322514e-05 0 -0.0079385398728804568 0.00018030272440876685 0 -0.0082146801673558395 8.4668024747322514e-05 0 -0.0081681756031402493 0.00026314699710308729 0 -0.008293503589736826 0.00035381483588730136 0 -0.0081681756031402493 0.00026314699710308729 0 -0.0083286652365802717 0.00020058337180905406 0 -0.0084096114211807908 5.4696798409733442e-06 0 -0.0082146801673558395 8.4668024747322514e-05 0 -0.0083286652365802717 0.00020058337180905406 0 -0.0082146801673558395 8.4668024747322514e-05 0 -0.0081681756031402493 0.00026314699710308729 0 -0.0083286652365802717 0.00020058337180905406 0 -0.0083582893211845786 1.7516282416205815e-05 0 -0.0090798997530300192 0.00077251482832734809 0 -0.0084096114211807908 5.4696798409733442e-06 0 -0.0083286652365802717 0.00020058337180905406 0 -0.0084913102414918874 0.00028985335818053337 0 -0.0084096114211807908 5.4696798409733442e-06 0 -0.0091514308656056448 0.0012432191221767432 0 -0.0094256669557914886 0.00068230927730374125 0 -0.008293503589736826 0.00035381483588730136 0 -0.0083286652365802717 0.00020058337180905406 0 -0.0084913102414918874 0.00028985335818053337 0 -0.0090798997530300192 0.00077251482832734809 0 -0.0092709725378011896 0.00079398488778580545 0 -0.0084096114211807908 5.4696798409733442e-06 0 -0.0092412202530977022 -7.9200998411086161e-05 0 -0.0081916902307095692 -0.0003560469384852195 0 -0.0084096114211807908 5.4696798409733442e-06 0 -0.0092412202530977022 -7.9200998411086161e-05 0 -0.0094256669557914886 0.00068230927730374125 0 -0.0082244731011726149 -0.00036567960231865659 0 -0.0086979266574501394 -0.00058396297451008704 0 -0.0080835275864793738 -0.00038168759155626363 0 -0.0081916902307095692 -0.0003560469384852195 0 -0.0079694410948014955 -0.00042275036153706347 0 -0.0092412202530977022 -7.9200998411086161e-05 0 -0.0081916902307095692 -0.0003560469384852195 0 -0.0094956560638252627 -0.0006691882779043506 0 -0.0081148097141215004 -0.0003577720833785962 0 -0.0078192265227600092 -0.00035392785225360035 0 -0.0080835275864793738 -0.00038168759155626363 0 -0.0080248793858693785 -0.00038549530913608275 0 -0.0080209156277872944 -0.00038472841668441829 0 -0.0080835275864793738 -0.00038168759155626363 0 -0.0080209156277872944 -0.00038472841668441829 0 -0.0080383159316139863 -0.00038419265857527629 0 -0.0080248793858693785 -0.00038549530913608275 0 -0.0079694410948014955 -0.00042275036153706347 0 -0.0079793689347029528 -0.00039236239489398291 0 -0.0080835275864793738 -0.00038168759155626363 0 -0.0080248793858693785 -0.00038549530913608275 0 -0.0079694410948014955 -0.00042275036153706347 0 -0.0078192265227600092 -0.00035392785225360035 0 -0.0075240431069164022 -0.00013801231076827797 0 -0.0079978593919991514 -0.00038677389781787791 0 -0.0079691048268349333 -0.00038632047695603288 0 -0.0079581503020484719 -0.00039156968028227255 0 -0.0080248793858693785 -0.00038549530913608275 0 -0.0079978593919991514 -0.00038677389781787791 0 -0.0079793689347029528 -0.00039236239489398291 0 -0.0079978593919991514 -0.00038677389781787791 0 -0.0079691048268349333 -0.00038632047695603288 0 -0.0080209156277872944 -0.00038472841668441829 0 -0.0080209156277872944 -0.00038472841668441829 0 -0.0080383159316139863 -0.00038419265857527629 0 -0.0079668612628564523 -0.00036490316097349167 0 -0.0080248793858693785 -0.00038549530913608275 0 -0.0079978593919991514 -0.00038677389781787791 0 -0.0080209156277872944 -0.00038472841668441829 0 -0.0079691048268349333 -0.00038632047695603288 0 -0.0080209156277872944 -0.00038472841668441829 0 -0.0079668612628564523 -0.00036490316097349167 0 -0.0072821293991359127 -5.3620400193710627e-05 0 -0.0073111715018775725 -1.83496391779876e-05 0 -0.007221022209676368 3.7338241288105043e-05 0 -0.0081736212236596627 -0.00055102104475840473 0 -0.0080894239494798455 -0.00065690668586286462 0 -0.0079907659609859422 -0.00041331909767912704 0 -0.0078192265227600092 -0.00035392785225360035 0 -0.0074055036305533959 -0.00019568741277096286 0 -0.0078192265227600092 -0.00035392785225360035 0 -0.0080454643010316081 -0.00042728917791722118 0 -0.0081519200714892711 -0.00040520730965185107 0 -0.0081459839998758009 -0.00038337047726399179 0 -0.0080361022861333859 -0.00040352684588957532 0 -0.0080835275864793738 -0.00038168759155626363 0 -0.0081519200714892711 -0.00040520730965185107 0 -0.0081459839998758009 -0.00038337047726399179 0 -0.0080835275864793738 -0.00038168759155626363 0 -0.0081459839998758009 -0.00038337047726399179 0 -0.0081916902307095692 -0.0003560469384852195 0 -0.0080447742455103024 -0.00024309361306821964 0 -0.0081459839998758009 -0.00038337047726399179 0 -0.0081916902307095692 -0.0003560469384852195 0 -0.0080447742455103024 -0.00024309361306821964 0 -0.0081459839998758009 -0.00038337047726399179 0 -0.0080361022861333859 -0.00040352684588957532 0 -0.0080447742455103024 -0.00024309361306821964 0 -0.0077900490530830946 -0.00024007475622637994 0 -0.0080361022861333859 -0.00040352684588957532 0 -0.0078066274892943134 -0.00025407581604927057 0 -0.0080454643010316081 -0.00042728917791722118 0 -0.0077900490530830946 -0.00024007475622637994 0 -0.0079907659609859422 -0.00041331909767912704 0 -0.0078207875491276158 -0.00050323198075030956 0 -0.0080894239494798455 -0.00065690668586286462 0 -0.0079907659609859422 -0.00041331909767912704 0 -0.0078207875491276158 -0.00050323198075030956 0 -0.0074055036305533959 -0.00019568741277096286 0 -0.007618976456862451 -0.00043478700929199194 0 -0.0072692149042621178 -0.00028735389598237262 0 -0.0072746617255964588 -0.00028650554041323298 0 -0.007293584396023769 -0.00029567261914919992 0 -0.0072746617255964588 -0.00028650554041323298 0 -0.007293584396023769 -0.00029567261914919992 0 -0.0072762215155269677 -0.00028323351606128819 0 -0.007293584396023769 -0.00029567261914919992 0 -0.0073372081976743799 -0.00028868159679641469 0 -0.0072762215155269677 -0.00028323351606128819 0 -0.0073372081976743799 -0.00028868159679641469 0 -0.0072762215155269677 -0.00028323351606128819 0 -0.0072652216483258458 -0.00030127118280104273 0 -0.007618976456862451 -0.00043478700929199194 0 -0.0074232140626251828 -0.00027025185337006829 0 -0.0077900490530830946 -0.00024007475622637994 0 -0.0078207875491276158 -0.00050323198075030956 0 -0.0074500569159475349 -0.00027067748544443572 0 -0.007293584396023769 -0.00029567261914919992 0 -0.0073372081976743799 -0.00028868159679641469 0 -0.0074500569159475349 -0.00027067748544443572 0 -0.010848637034352368 0.00026436824161682162 0 -0.010896671650633266 0.00046420326839385342 0 -0.010557635509598979 0.00018104505650400459 0 -0.010904839443643522 0.00047727395372907863 0 -0.011206411750075154 0.00051321194317362337 0 -0.010848637034352368 0.00026436824161682162 0 -0.010908506268334572 0.00028097305723174659 0 -0.010966043792590644 0.0004288245733860426 0 -0.010848637034352368 0.00026436824161682162 0 -0.010896671650633266 0.00046420326839385342 0 -0.010966043792590644 0.0004288245733860426 0 -0.01135962402760367 0.00079169460253088468 0 -0.011159353595928982 0.00069174273827833914 0 -0.01147395207659856 0.0005882620820692393 0 -0.011159353595928982 0.00069174273827833914 0 -0.010896671650633266 0.00046420326839385342 0 -0.01147395207659856 0.0005882620820692393 0 -0.010896671650633266 0.00046420326839385342 0 -0.010919727094419195 0.00078406389742129634 0 -0.010518965531778652 0.00070115051294685946 0 -0.011159353595928982 0.00069174273827833914 0 -0.010896671650633266 0.00046420326839385342 0 -0.010919727094419195 0.00078406389742129634 0 -0.010896671650633266 0.00046420326839385342 0 -0.010518965531778652 0.00070115051294685946 0 -0.010557635509598979 0.00018104505650400459 0 -0.010786163411454967 0.00085895488040465542 0 -0.010919727094419195 0.00078406389742129634 0 -0.010518965531778652 0.00070115051294685946 0 -0.01020835856204122 0.0013071143582805487 0 -0.010518965531778652 0.00070115051294685946 0 -0.0098456658063511265 0.00092823417928172326 0 -0.0092414808780663469 0.0010817930057648664 0 -0.0098456658063511265 0.00092823417928172326 0 -0.0094256669557914886 0.00068230927730374125 0 -0.010518965531778652 0.00070115051294685946 0 -0.0098456658063511265 0.00092823417928172326 0 -0.0099593242830209004 0.00037970318882751819 0 -0.0098456658063511265 0.00092823417928172326 0 -0.0094256669557914886 0.00068230927730374125 0 -0.0099593242830209004 0.00037970318882751819 0 -0.0092412202530977022 -7.9200998411086161e-05 0 -0.0094256669557914886 0.00068230927730374125 0 -0.0099593242830209004 0.00037970318882751819 0 -0.0092412202530977022 -7.9200998411086161e-05 0 -0.010003945110145214 -0.00020450099542949091 0 -0.0094956560638252627 -0.0006691882779043506 0 -0.0092412202530977022 -7.9200998411086161e-05 0 -0.0099593242830209004 0.00037970318882751819 0 -0.010003945110145214 -0.00020450099542949091 0 -0.010518965531778652 0.00070115051294685946 0 -0.0099593242830209004 0.00037970318882751819 0 -0.010557635509598979 0.00018104505650400459 0 -0.0099593242830209004 0.00037970318882751819 0 -0.010003945110145214 -0.00020450099542949091 0 -0.010557635509598979 0.00018104505650400459 0 -0.010003945110145214 -0.00020450099542949091 0 -0.010557635509598979 0.00018104505650400459 0 -0.010819112693489806 -0.0009541934730741134 0 -0.010723403126963637 -9.7260945760839585e-06 0 -0.0095887404754896374 -0.00019295848599195324 0 -0.0079658830887237402 -0.00038736131249099377 0 -0.0079694410948014955 -0.00042275036153706347 0 -0.0079483979954086265 -0.00039123447524259833 0 -0.010003945110145214 -0.00020450099542949091 0 -0.010819112693489806 -0.0009541934730741134 0 -0.0094956560638252627 -0.0006691882779043506 0 -0.0095887404754896374 -0.00019295848599195324 0 -0.0086979266574501394 -0.00058396297451008704 0 -0.0079694410948014955 -0.00042275036153706347 0 -0.0079793689347029528 -0.00039236239489398291 0 -0.0079483979954086265 -0.00039123447524259833 0 -0.0079283326724024095 -0.00039286894020868374 0 -0.0079853269998261516 -0.00040922471414817747 0 -0.0078844237651810381 -0.00040210229226787287 0 -0.0079793689347029528 -0.00039236239489398291 0 -0.0079581503020484719 -0.00039156968028227255 0 -0.0079483979954086265 -0.00039123447524259833 0 -0.0079978593919991514 -0.00038677389781787791 0 -0.0079793689347029528 -0.00039236239489398291 0 -0.0079581503020484719 -0.00039156968028227255 0 -0.0079581503020484719 -0.00039156968028227255 0 -0.0079483979954086265 -0.00039123447524259833 0 -0.0079283326724024095 -0.00039286894020868374 0 -0.0079581503020484719 -0.00039156968028227255 0 -0.0079283326724024095 -0.00039286894020868374 0 -0.007945330092598497 -0.00039116839073538752 0 -0.0079283326724024095 -0.00039286894020868374 0 -0.0079211991567046582 -0.00039581510054880809 0 -0.0078844237651810381 -0.00040210229226787287 0 -0.0079283326724024095 -0.00039286894020868374 0 -0.0079211991567046582 -0.00039581510054880809 0 -0.007945330092598497 -0.00039116839073538752 0 -0.0079211991567046582 -0.00039581510054880809 0 -0.007932623164955693 -0.00039477794021904505 0 -0.007945330092598497 -0.00039116839073538752 0 -0.0079691048268349333 -0.00038632047695603288 0 -0.007932623164955693 -0.00039477794021904505 0 -0.007945330092598497 -0.00039116839073538752 0 -0.0079691048268349333 -0.00038632047695603288 0 -0.0079581503020484719 -0.00039156968028227255 0 -0.007945330092598497 -0.00039116839073538752 0 -0.0079658830887237402 -0.00038736131249099377 0 -0.0079483979954086265 -0.00039123447524259833 0 -0.0079853269998261516 -0.00040922471414817747 0 -0.0079483979954086265 -0.00039123447524259833 0 -0.0079283326724024095 -0.00039286894020868374 0 -0.0079853269998261516 -0.00040922471414817747 0 -0.0095887404754896374 -0.00019295848599195324 0 -0.0080706897550476484 -0.00060671442005147457 0 -0.0080706897550476484 -0.00060671442005147457 0 -0.0096971072414361072 -4.3199143561685459e-05 0 -0.009011670461646271 9.666357313965144e-05 0 -0.0091327695196667669 -0.00043390994635824091 0 -0.0096950050272704182 -6.2221127344306703e-05 0 -0.0095887404754896374 -0.00019295848599195324 0 -0.010353807387253852 6.8648392062279341e-05 0 -0.010848637034352368 0.00026436824161682162 0 -0.010557635509598979 0.00018104505650400459 0 -0.010677258505288814 0.00012545747397911725 0 -0.010848637034352368 0.00026436824161682162 0 -0.010677258505288814 0.00012545747397911725 0 -0.010872642007443221 0.00017140341052713533 0 -0.010848637034352368 0.00026436824161682162 0 -0.010908506268334572 0.00028097305723174659 0 -0.010872642007443221 0.00017140341052713533 0 -0.010908506268334572 0.00028097305723174659 0 -0.010872642007443221 0.00017140341052713533 0 -0.010951807135304623 0.00027727821258552953 0 -0.0096950050272704182 -6.2221127344306703e-05 0 -0.0099802976913491905 -0.00030814234265213504 0 -0.010386386618462954 -0.0002461059614259511 0 -0.0091327695196667669 -0.00043390994635824091 0 -0.0096950050272704182 -6.2221127344306703e-05 0 -0.0099802976913491905 -0.00030814234265213504 0 -0.010353807387253852 6.8648392062279341e-05 0 -0.010510898547090175 -8.6380506393998585e-06 0 -0.010872642007443221 0.00017140341052713533 0 -0.010977649654553084 0.00015722654057349759 0 -0.010951807135304623 0.00027727821258552953 0 -0.0096971072414361072 -4.3199143561685459e-05 0 -0.010510898547090175 -8.6380506393998585e-06 0 -0.0093159929998475766 0.00012203123100727071 0 -0.010147139039963057 0.00018411572083059025 0 -0.010255262272321531 -0.0002400435948558526 0 -0.010977649654553084 0.00015722654057349759 0 -0.011018691274862855 0.00013619907868402521 0 -0.011031918110505941 0.00030121487713518708 0 -0.011018691274862855 0.00013619907868402521 0 -0.011049034121309776 -0.00039390689465429896 0 -0.010255262272321531 -0.0002400435948558526 0 -0.010147139039963057 0.00018411572083059025 0 -0.011018691274862855 0.00013619907868402521 0 -0.010255262272321531 -0.0002400435948558526 0 -0.010510898547090175 -8.6380506393998585e-06 0 -0.01095812041018775 0.00015003133372021421 0 -0.011031918110505941 0.00030121487713518708 0 -0.011176255642084196 0.00029581444135918117 0 -0.01118655476296934 0.00055571168214372027 0 -0.011018691274862855 0.00013619907868402521 0 -0.011031918110505941 0.00030121487713518708 0 -0.011176255642084196 0.00029581444135918117 0 -0.010977649654553084 0.00015722654057349759 0 -0.011031918110505941 0.00030121487713518708 0 -0.010951807135304623 0.00027727821258552953 0 -0.011672196401509726 -5.6540594441598929e-05 0 -0.011361688356148635 0.00014458555890076841 0 -0.011772779604982965 0.00029743435837881595 0 -0.011672196401509726 -5.6540594441598929e-05 0 -0.011361688356148635 0.00014458555890076841 0 -0.011049034121309776 -0.00039390689465429896 0 -0.011018691274862855 0.00013619907868402521 0 -0.011361688356148635 0.00014458555890076841 0 -0.011049034121309776 -0.00039390689465429896 0 -0.011018691274862855 0.00013619907868402521 0 -0.011176255642084196 0.00029581444135918117 0 -0.011361688356148635 0.00014458555890076841 0 -0.011176255642084196 0.00029581444135918117 0 -0.011443714106265278 0.00037245707640986653 0 -0.01118655476296934 0.00055571168214372027 0 -0.011176255642084196 0.00029581444135918117 0 -0.011361688356148635 0.00014458555890076841 0 -0.011443714106265278 0.00037245707640986653 0 -0.011361688356148635 0.00014458555890076841 0 -0.011443714106265278 0.00037245707640986653 0 -0.011772779604982965 0.00029743435837881595 0 -0.011443714106265278 0.00037245707640986653 0 -0.011772779604982965 0.00029743435837881595 0 -0.011784100903420703 0.00064344151328054537 0 -0.011770702195911486 0.00063363864861935089 0 -0.011442044783772139 0.00061084826545471517 0 -0.011784100903420703 0.00064344151328054537 0 -0.01176767380213737 0.00080302537752533561 0 -0.011665131521037073 0.00067858990033170432 0 -0.011443714106265278 0.00037245707640986653 0 -0.011784100903420703 0.00064344151328054537 0 -0.01118655476296934 0.00055571168214372027 0 -0.01176767380213737 0.00080302537752533561 0 -0.011647903684288299 0.00082137140035918753 0 -0.011750774957550406 0.00091647867984021806 0 -0.01176767380213737 0.00080302537752533561 0 -0.011665131521037073 0.00067858990033170432 0 -0.011647903684288299 0.00082137140035918753 0 -0.01176767380213737 0.00080302537752533561 0 -0.011750774957550406 0.00091647867984021806 0 -0.011961594584380376 0.00093436467884259002 0 -0.011784100903420703 0.00064344151328054537 0 -0.01176767380213737 0.00080302537752533561 0 -0.011961594584380376 0.00093436467884259002 0 -0.011031918110505941 0.00030121487713518708 0 -0.010951807135304623 0.00027727821258552953 0 -0.010966043792590644 0.0004288245733860426 0 -0.010908506268334572 0.00028097305723174659 0 -0.010951807135304623 0.00027727821258552953 0 -0.010966043792590644 0.0004288245733860426 0 -0.011206411750075154 0.00051321194317362337 0 -0.011442044783772139 0.00061084826545471517 0 -0.011031918110505941 0.00030121487713518708 0 -0.010966043792590644 0.0004288245733860426 0 -0.01118655476296934 0.00055571168214372027 0 -0.01147395207659856 0.0005882620820692393 0 -0.011665131521037073 0.00067858990033170432 0 -0.011647903684288299 0.00082137140035918753 0 -0.01135962402760367 0.00079169460253088468 0 -0.01147395207659856 0.0005882620820692393 0 -0.011517979595071821 0.00086945267733397856 0 -0.01147395207659856 0.0005882620820692393 0 -0.011647903684288299 0.00082137140035918753 0 -0.011517979595071821 0.00086945267733397856 0 -0.011517979595071821 0.00086945267733397856 0 -0.011534848787599968 0.0010446616131602566 0 -0.011608736555474649 0.0010107739222306041 0 -0.011406095143577259 0.00091840935319112849 0 -0.01135962402760367 0.00079169460253088468 0 -0.011517979595071821 0.00086945267733397856 0 -0.011406095143577259 0.00091840935319112849 0 -0.011517979595071821 0.00086945267733397856 0 -0.011534848787599968 0.0010446616131602566 0 -0.012503528256488915 0.00082248011327825852 0 -0.011970366096112009 0.0012271845991725697 0 -0.01230435964032235 0.0012745514614899093 0 -0.011572041980404521 0.0011711709977123754 0 -0.012503528256488915 0.00082248011327825852 0 -0.011970366096112009 0.0012271845991725697 0 -0.011572041980404521 0.0011711709977123754 0 -0.011534848787599968 0.0010446616131602566 0 -0.011608736555474649 0.0010107739222306041 0 -0.011589803894729269 0.0011562535139261517 0 -0.012040125890354114 0.0009358339499981592 0 -0.012503528256488915 0.00082248011327825852 0 -0.012919917293537069 0.0010268960440638789 0 -0.012703069771379817 0.001326264181234551 0 -0.011647903684288299 0.00082137140035918753 0 -0.011608736555474649 0.0010107739222306041 0 -0.011750774957550406 0.00091647867984021806 0 -0.011647903684288299 0.00082137140035918753 0 -0.011517979595071821 0.00086945267733397856 0 -0.011608736555474649 0.0010107739222306041 0 -0.012040125890354114 0.0009358339499981592 0 -0.012411187451270967 0.00085573760935852736 0 -0.012411187451270967 0.00085573760935852736 0 -0.012632849860477675 0.00089700982522437672 0 -0.013086911662532445 0.00078011230614210333 0 -0.013337714658123714 0.00092984333951472197 0 -0.013308282674280468 0.00086878227944144233 0 -0.013086911662532445 0.00078011230614210333 0 -0.013219791386782828 0.0010898614443738102 0 -0.013337714658123714 0.00092984333951472197 0 -0.013086911662532445 0.00078011230614210333 0 -0.013219791386782828 0.0010898614443738102 0 -0.012919917293537069 0.0010268960440638789 0 -0.012503528256488915 0.00082248011327825852 0 -0.013086911662532445 0.00078011230614210333 0 -0.012919917293537069 0.0010268960440638789 0 -0.013219791386782828 0.0010898614443738102 0 -0.012919917293537069 0.0010268960440638789 0 -0.013019944449933128 0.0012736517199979291 0 -0.012919917293537069 0.0010268960440638789 0 -0.013019944449933128 0.0012736517199979291 0 -0.012703069771379817 0.001326264181234551 0 -0.013019944449933128 0.0012736517199979291 0 -0.012919261083732975 0.0016897418887153943 0 -0.012703069771379817 0.001326264181234551 0 -0.013219791386782828 0.0010898614443738102 0 -0.013210734328977274 0.0015013289529186864 0 -0.013436047203455623 0.0013982813320312694 0 -0.013219791386782828 0.0010898614443738102 0 -0.013019944449933128 0.0012736517199979291 0 -0.013210734328977274 0.0015013289529186864 0 -0.013219791386782828 0.0010898614443738102 0 -0.013436047203455623 0.0013982813320312694 0 -0.013461454944480419 0.0010476349901125319 0 -0.013498961929478186 0.0018612249514946418 0 -0.013210734328977274 0.0015013289529186864 0 -0.013436047203455623 0.0013982813320312694 0 -0.013498961929478186 0.0018612249514946418 0 -0.013210734328977274 0.0015013289529186864 0 -0.013234682287212609 0.0018485502033133685 0 -0.013019944449933128 0.0012736517199979291 0 -0.013210734328977274 0.0015013289529186864 0 -0.012919261083732975 0.0016897418887153943 0 -0.013210734328977274 0.0015013289529186864 0 -0.013234682287212609 0.0018485502033133685 0 -0.012919261083732975 0.0016897418887153943 0 -0.01253554640259907 0.0018030826302997092 0 -0.012267052061909844 0.0015673006193037387 0 -0.012703069771379817 0.001326264181234551 0 -0.012764651264409911 0.0019989212336271956 0 -0.012919261083732975 0.0016897418887153943 0 -0.01253554640259907 0.0018030826302997092 0 -0.012919261083732975 0.0016897418887153943 0 -0.01253554640259907 0.0018030826302997092 0 -0.012703069771379817 0.001326264181234551 0 -0.01253554640259907 0.0018030826302997092 0 -0.012171089833535941 0.0018663078811521339 0 -0.012267052061909844 0.0015673006193037387 0 -0.011787581923606547 0.0019188823535586067 0 -0.012171089833535941 0.0018663078811521339 0 -0.011955754383099336 0.0016775277664561107 0 -0.011955754383099336 0.0016775277664561107 0 -0.012267052061909844 0.0015673006193037387 0 -0.011882104744799166 0.0014618614052746707 0 -0.012171089833535941 0.0018663078811521339 0 -0.011955754383099336 0.0016775277664561107 0 -0.012267052061909844 0.0015673006193037387 0 -0.012267052061909844 0.0015673006193037387 0 -0.011882104744799166 0.0014618614052746707 0 -0.01230435964032235 0.0012745514614899093 0 -0.011653700780428029 0.0013387663491050633 0 -0.011882104744799166 0.0014618614052746707 0 -0.011970366096112009 0.0012271845991725697 0 -0.011882104744799166 0.0014618614052746707 0 -0.011970366096112009 0.0012271845991725697 0 -0.01230435964032235 0.0012745514614899093 0 -0.012503528256488915 0.00082248011327825852 0 -0.01230435964032235 0.0012745514614899093 0 -0.012703069771379817 0.001326264181234551 0 -0.012267052061909844 0.0015673006193037387 0 -0.01230435964032235 0.0012745514614899093 0 -0.012703069771379817 0.001326264181234551 0 -0.01329062667030443 0.0009316947917212406 0 -0.013308233042578351 0.00095197399032157686 0 -0.013247694263020107 0.00092694724299132434 0 -0.01329062667030443 0.0009316947917212406 0 -0.013279499017869956 0.00089159933923935977 0 -0.013365262621683787 0.00094980937371479438 0 -0.013248448492483156 0.00091451902064569796 0 -0.013229562850089556 0.00090353684605623096 0 -0.013279499017869956 0.00089159933923935977 0 -0.01329062667030443 0.0009316947917212406 0 -0.013248448492483156 0.00091451902064569796 0 -0.013279499017869956 0.00089159933923935977 0 -0.01329062667030443 0.0009316947917212406 0 -0.013248448492483156 0.00091451902064569796 0 -0.013247694263020107 0.00092694724299132434 0 -0.013230507692099793 0.0009155801029789313 0 -0.013247694263020107 0.00092694724299132434 0 -0.013221803256278369 0.00091862721006738643 0 -0.013230507692099793 0.0009155801029789313 0 -0.013248448492483156 0.00091451902064569796 0 -0.013247694263020107 0.00092694724299132434 0 -0.013221148059828918 0.00091381982772185185 0 -0.013230507692099793 0.0009155801029789313 0 -0.013225326516656595 0.00091128062631938458 0 -0.013221148059828918 0.00091381982772185185 0 -0.013230507692099793 0.0009155801029789313 0 -0.013221803256278369 0.00091862721006738643 0 -0.013230507692099793 0.0009155801029789313 0 -0.013225326516656595 0.00091128062631938458 0 -0.013233054880322162 0.00091152450990066079 0 -0.013225326516656595 0.00091128062631938458 0 -0.013233054880322162 0.00091152450990066079 0 -0.013229562850089556 0.00090353684605623096 0 -0.013225326516656595 0.00091128062631938458 0 -0.013229562850089556 0.00090353684605623096 0 -0.013224931696395598 0.00091093277671616972 0 -0.013230507692099793 0.0009155801029789313 0 -0.013248448492483156 0.00091451902064569796 0 -0.013233054880322162 0.00091152450990066079 0 -0.013248448492483156 0.00091451902064569796 0 -0.013233054880322162 0.00091152450990066079 0 -0.013229562850089556 0.00090353684605623096 0 -0.013229562850089556 0.00090353684605623096 0 -0.013232038005499566 0.00088335362221210966 0 -0.013279499017869956 0.00089159933923935977 0 -0.013423424181409389 0.00093137456683990477 0 -0.013515126828513342 0.00099042453610434424 0 -0.013229562850089556 0.00090353684605623096 0 -0.013229320678613439 0.0009071448785653661 0 -0.013224931696395598 0.00091093277671616972 0 -0.013229320678613439 0.0009071448785653661 0 -0.013224931696395598 0.00091093277671616972 0 -0.013226077677084327 0.00090892922595294965 0 -0.014085626885820527 0.0013760697322658226 0 -0.014114204487658646 0.0014766923282593708 0 -0.014217332503916193 0.0013601417441601611 0 -0.013782127142057883 0.0012775040696965795 0 -0.013667674483839974 0.0012331412723388222 0 -0.013791401503836922 0.0011829508608836277 0 -0.013515126828513342 0.00099042453610434424 0 -0.013534670945074394 0.0011761479380706531 0 -0.013534670945074394 0.0011761479380706531 0 -0.014078394715187521 0.0013316125771571032 0 -0.013386899677283473 0.00093025780296627407 0 -0.013386940506131312 0.00093266342061231887 0 -0.013383020581742681 0.0009306862463263737 0 -0.013515126828513342 0.00099042453610434424 0 -0.014078394715187521 0.0013316125771571032 0 -0.013384073052923939 0.00092916284965060625 0 -0.013386940506131312 0.00093266342061231887 0 -0.013383020581742681 0.0009306862463263737 0 -0.013515126828513342 0.00099042453610434424 0 -0.013295535241660147 0.00090288996620382586 0 -0.013386899677283473 0.00093025780296627407 0 -0.013383020581742681 0.0009306862463263737 0 -0.013379232556522928 0.0009312777168746562 0 -0.013383020581742681 0.0009306862463263737 0 -0.013379232556522928 0.0009312777168746562 0 -0.013381122838749 0.00092795307286023913 0 -0.013384073052923939 0.00092916284965060625 0 -0.013383020581742681 0.0009306862463263737 0 -0.013381122838749 0.00092795307286023913 0 -0.013395061710725667 0.00092483656122797041 0 -0.013381122838749 0.00092795307286023913 0 -0.013400908083666164 0.00091932796804959486 0 -0.013379232556522928 0.0009312777168746562 0 -0.013381122838749 0.00092795307286023913 0 -0.013365262621683787 0.00094980937371479438 0 -0.013381122838749 0.00092795307286023913 0 -0.013400908083666164 0.00091932796804959486 0 -0.013365262621683787 0.00094980937371479438 0 -0.013498961929478186 0.0018612249514946418 0 -0.013803271344890533 0.0016141184967127002 0 -0.013436047203455623 0.0013982813320312694 0 -0.013400908083666164 0.00091932796804959486 0 -0.013461454944480419 0.0010476349901125319 0 -0.013365262621683787 0.00094980937371479438 0 -0.013803271344890533 0.0016141184967127002 0 -0.013436047203455623 0.0013982813320312694 0 -0.013461454944480419 0.0010476349901125319 0 -0.013542202539098323 0.0011943193695241525 0 -0.013503932878925108 0.0011106638232718335 0 -0.013365262621683787 0.00094980937371479438 0 -0.013308233042578351 0.00095197399032157686 0 -0.013365229529492153 0.00097922472178859428 0 -0.013461454944480419 0.0010476349901125319 0 -0.013365262621683787 0.00094980937371479438 0 -0.013365229529492153 0.00097922472178859428 0 -0.013295535241660147 0.00090288996620382586 0 -0.01337329858208172 0.00094461832307198219 0 -0.01329062667030443 0.0009316947917212406 0 -0.013365262621683787 0.00094980937371479438 0 -0.013308233042578351 0.00095197399032157686 0 -0.013308233042578351 0.00095197399032157686 0 -0.013365229529492153 0.00097922472178859428 0 -0.013295922862271456 0.00092200351923358594 0 -0.013365229529492153 0.00097922472178859428 0 -0.013337714658123714 0.00092984333951472197 0 -0.013295922862271456 0.00092200351923358594 0 -0.013219791386782828 0.0010898614443738102 0 -0.013461454944480419 0.0010476349901125319 0 -0.013337714658123714 0.00092984333951472197 0 -0.013461454944480419 0.0010476349901125319 0 -0.013365229529492153 0.00097922472178859428 0 -0.013337714658123714 0.00092984333951472197 0 -0.013337714658123714 0.00092984333951472197 0 -0.013295922862271456 0.00092200351923358594 0 -0.013308282674280468 0.00086878227944144233 0 -0.013295922862271456 0.00092200351923358594 0 -0.013224185914261718 0.00092121205777583514 0 -0.013263956609673609 0.00093261633530946806 0 -0.013295922862271456 0.00092200351923358594 0 -0.013224185914261718 0.00092121205777583514 0 -0.013208431709284043 0.00091237118610537442 0 -0.013224185914261718 0.00092121205777583514 0 -0.0131818196237886 0.00091625499424955533 0 -0.013208431709284043 0.00091237118610537442 0 -0.013308233042578351 0.00095197399032157686 0 -0.013263956609673609 0.00093261633530946806 0 -0.013247694263020107 0.00092694724299132434 0 -0.013308233042578351 0.00095197399032157686 0 -0.013295922862271456 0.00092200351923358594 0 -0.013263956609673609 0.00093261633530946806 0 -0.013224185914261718 0.00092121205777583514 0 -0.013263956609673609 0.00093261633530946806 0 -0.013217597164529402 0.0009227689061689768 0 -0.013263956609673609 0.00093261633530946806 0 -0.013247694263020107 0.00092694724299132434 0 -0.013217597164529402 0.0009227689061689768 0 -0.01321372005284026 0.00091601580348076072 0 -0.013221803256278369 0.00091862721006738643 0 -0.013217597164529402 0.0009227689061689768 0 -0.013247694263020107 0.00092694724299132434 0 -0.013221803256278369 0.00091862721006738643 0 -0.013217597164529402 0.0009227689061689768 0 -0.01321372005284026 0.00091601580348076072 0 -0.013199834493851812 0.00091909976321532768 0 -0.013217597164529402 0.0009227689061689768 0 -0.013199834493851812 0.00091909976321532768 0 -0.013217597164529402 0.0009227689061689768 0 -0.0131818196237886 0.00091625499424955533 0 -0.013224185914261718 0.00092121205777583514 0 -0.013217597164529402 0.0009227689061689768 0 -0.0131818196237886 0.00091625499424955533 0 -0.013199834493851812 0.00091909976321532768 0 -0.013179038632470993 0.00091645149932759943 0 -0.0131818196237886 0.00091625499424955533 0 -0.013179038632470993 0.00091645149932759943 0 -0.013118097903311894 0.00087541210290009491 0 -0.013131880393092014 0.00089577703036017818 0 -0.013179038632470993 0.00091645149932759943 0 -0.0131818196237886 0.00091625499424955533 0 -0.013131880393092014 0.00089577703036017818 0 -0.0131818196237886 0.00091625499424955533 0 -0.013131880393092014 0.00089577703036017818 0 -0.013208431709284043 0.00091237118610537442 0 -0.013131880393092014 0.00089577703036017818 0 -0.013208431709284043 0.00091237118610537442 0 -0.013220598376980629 0.00092307580856454321 0 -0.013006041301761301 0.00079878921851423952 0 -0.012817363555788559 0.00089162655698386036 0 -0.0129973461787307 0.00079820256801333713 0 -0.012389083485450106 0.00089001726150476424 0 -0.012751296551527212 0.00049078929828346796 0 -0.013131880393092014 0.00089577703036017818 0 -0.0129973461787307 0.00079820256801333713 0 -0.013220598376980629 0.00092307580856454321 0 -0.013118097903311894 0.00087541210290009491 0 -0.013131880393092014 0.00089577703036017818 0 -0.0129973461787307 0.00079820256801333713 0 -0.013141175652900019 0.00083535689947220406 0 -0.013118097903311894 0.00087541210290009491 0 -0.0129973461787307 0.00079820256801333713 0 -0.011784100903420703 0.00064344151328054537 0 -0.012389083485450106 0.00089001726150476424 0 -0.012213176495136646 0.00051522788715846989 0 -0.011784100903420703 0.00064344151328054537 0 -0.011961594584380376 0.00093436467884259002 0 -0.012389083485450106 0.00089001726150476424 0 -0.012632849860477675 0.00089700982522437672 0 -0.012817363555788559 0.00089162655698386036 0 -0.013295922862271456 0.00092200351923358594 0 -0.013308282674280468 0.00086878227944144233 0 -0.013220598376980629 0.00092307580856454321 0 -0.013295922862271456 0.00092200351923358594 0 -0.013208431709284043 0.00091237118610537442 0 -0.013220598376980629 0.00092307580856454321 0 -0.012389083485450106 0.00089001726150476424 0 -0.012213176495136646 0.00051522788715846989 0 -0.012751296551527212 0.00049078929828346796 0 -0.011772779604982965 0.00029743435837881595 0 -0.012213176495136646 0.00051522788715846989 0 -0.012184616002453269 0.00015483614653083723 0 -0.011772779604982965 0.00029743435837881595 0 -0.011784100903420703 0.00064344151328054537 0 -0.012213176495136646 0.00051522788715846989 0 -0.012213176495136646 0.00051522788715846989 0 -0.012184616002453269 0.00015483614653083723 0 -0.012751296551527212 0.00049078929828346796 0 -0.0050260639754010489 0.001934495139015231 0 -0.005503070283566695 0.0018160292536461039 0 -0.0050584644146306583 0.0015504956401937926 0 -0.005503070283566695 0.0018160292536461039 0 -0.0054482266925327738 0.0014958372619304839 0 -0.0050584644146306583 0.0015504956401937926 0 -0.0050260639754010489 0.001934495139015231 0 -0.0045953436573050472 0.0014192918709726855 0 -0.0050584644146306583 0.0015504956401937926 0 -0.011672196401509726 -5.6540594441598929e-05 0 -0.011772779604982965 0.00029743435837881595 0 -0.012184616002453269 0.00015483614653083723 0 -0.00423285353734245 0.0016672976231935461 0 -0.0050260639754010489 0.001934495139015231 0 -0.0045953436573050472 0.0014192918709726855 0 -0.0079201833351236813 0.00078896695142218701 0 -0.0087784881985406224 0.0010808947368885122 0 -0.0129973461787307 0.00079820256801333713 0 -0.012751296551527212 0.00049078929828346796 0 -0.012788915918927325 0.00042664913768028864 0 -0.013157402222591642 0.00072983596642963377 0 -0.0129973461787307 0.00079820256801333713 0 -0.012788915918927325 0.00042664913768028864 0 -0.0075011410094818791 0.00091721473549961365 0 -0.0085148018543534619 0.0011857579333064566 0 -0.0023218691008764494 0.001371027967969486 0 -0.0032017816455032701 0.0019761805689691662 0 -0.0040885530534507499 0.001819734923876833 0 -0.012184616002453269 0.00015483614653083723 0 -0.012751296551527212 0.00049078929828346796 0 -0.012779324109433563 0.00040389205520515581 0 -0.0087784881985406224 0.0010808947368885122 0 -0.0085148018543534619 0.0011857579333064566 0 -0.0094036936500181707 0.00043528836136834121 0 -0.0085148018543534619 0.0011857579333064566 0 -0.0050260639754010489 0.001934495139015231 0 -0.0058394549955424428 0.0021821033079976633 0 -0.005503070283566695 0.0018160292536461039 0 -0.0058394549955424428 0.0021821033079976633 0 -0.005503070283566695 0.0018160292536461039 0 -0.0059715384644385295 0.0018092841347241042 0 -0.005503070283566695 0.0018160292536461039 0 -0.0059715384644385295 0.0018092841347241042 0 -0.0054482266925327738 0.0014958372619304839 0 -0.0031367425586314958 0.0023473089554128129 0 -0.0038521508075689721 0.0019939634151753495 0 -0.0020585771319712193 0.0017117805217667164 0 -0.0019833015049288286 0.0019746234558054077 0 -0.0023629837495690955 0.001906463378792264 0 -0.0085148018543534619 0.0011857579333064566 0 -0.0031367425586314958 0.0023473089554128129 0 -0.0032017816455032701 0.0019761805689691662 0 -0.0040885530534507499 0.001819734923876833 0 -0.0037376175156029335 0.0027052759994078729 0 -0.0026778270351785409 0.0020630182938132231 0 -0.0032017816455032701 0.0019761805689691662 0 -0.0037376175156029335 0.0027052759994078729 0 -0.0023568114103856334 0.0018642644821819064 0 -0.0031367425586314958 0.0023473089554128129 0 -0.0031367425586314958 0.0023473089554128129 0 -0.0016255063938839854 0.0023916469491160929 0 -0.0014631489573748374 0.0021774376098803749 0 -0.0013367778903001129 0.0024492320476977698 0 -0.0016757016894127336 0.0023087835759860913 0 -0.0019833015049288286 0.0019746234558054077 0 -0.0023629837495690955 0.001906463378792264 0 -0.0021490728356290327 0.0023674123498018907 0 -0.0013367778903001129 0.0024492320476977698 0 -0.0016757016894127336 0.0023087835759860913 0 -0.0016232964806490704 0.0026290080512108359 0 -0.0013367778903001129 0.0024492320476977698 0 -0.0016232964806490704 0.0026290080512108359 0 -0.0013795500489443065 0.0026381489533808451 0 -0.0013367778903001129 0.0024492320476977698 0 -0.0013795500489443065 0.0026381489533808451 0 -0.0012118627681954343 0.0027249026763635038 0 -0.0045953436573050472 0.0014192918709726855 0 -0.0049117655658786324 0.0011813160067574515 0 -0.0050584644146306583 0.0015504956401937926 0 -0.005038998071532296 0.00079256816830264656 0 -0.0018249988967874299 0.0019534347857964088 0 -0.0016757016894127336 0.0023087835759860913 0 -0.0016232964806490704 0.0026290080512108359 0 -0.0018898378745778673 0.0024393063976137059 0 -0.0054482266925327738 0.0014958372619304839 0 -0.0049117655658786324 0.0011813160067574515 0 -0.0050584644146306583 0.0015504956401937926 0 -0.0038521508075689721 0.0019939634151753495 0 -0.0018249988967874299 0.0019534347857964088 0 0.00046240203060316957 0.0024984492079847195 0 -0.0018249988967874299 0.0019534347857964088 0 0.0018202885487129813 0.0020268153372926304 0 0.0022135561066589874 0.002336436169534245 0 0.0023040250242121079 0.0018979873711251641 0 -0.0018249988967874299 0.0019534347857964088 0 -0.00065642176815974655 0.0014009600940533022 0 0.0022135561066589874 0.002336436169534245 0 0.0023040250242121079 0.0018979873711251641 0 0.0027584036881462626 0.0020354142224128821 0 -0.0045953436573050472 0.0014192918709726855 0 -0.0048445088151499224 0.0012259959151221089 0 -0.00420895657379623 0.00082614894232025554 0 0.0023040250242121079 0.0018979873711251641 0 0.0025985812386671715 0.001722619365507791 0 0.0027584036881462626 0.0020354142224128821 0 0.0023040250242121079 0.0018979873711251641 0 0.0023037890954570144 0.0016119284603956935 0 0.0025985812386671715 0.001722619365507791 0 0.0023040250242121079 0.0018979873711251641 0 0.0019872772136221325 0.0016515868618175293 0 0.0023037890954570144 0.0016119284603956935 0 0.0018202885487129813 0.0020268153372926304 0 0.0023040250242121079 0.0018979873711251641 0 0.0019872772136221325 0.0016515868618175293 0 0.0019872772136221325 0.0016515868618175293 0 0.0021292775026370515 0.0013810526543124398 0 0.0017294007779242505 0.0013759626903687534 0 0.0019872772136221325 0.0016515868618175293 0 0.0021292775026370515 0.0013810526543124398 0 0.0023037890954570144 0.0016119284603956935 0 0.0021292775026370515 0.0013810526543124398 0 0.0023037890954570144 0.0016119284603956935 0 0.0025039476879578242 0.0014047333968774385 0 0.0021292775026370515 0.0013810526543124398 0 0.0025039476879578242 0.0014047333968774385 0 0.0023042073938601697 0.0011509626193424217 0 0.0023037890954570144 0.0016119284603956935 0 0.0025039476879578242 0.0014047333968774385 0 0.0025985812386671715 0.001722619365507791 0 -0.0016232964806490704 0.0026290080512108359 0 -0.0013795500489443065 0.0026381489533808451 0 -0.0013574554269856632 0.0028148619293342368 0 -0.0013795500489443065 0.0026381489533808451 0 -0.0013574554269856632 0.0028148619293342368 0 -0.0012118627681954343 0.0027249026763635038 0 0.00046240203060316957 0.0024984492079847195 0 2.9149479026259616e-05 0.0021874809938863472 0 0.0018202885487129813 0.0020268153372926304 0 0.0014115962988369151 0.0017223018660169865 0 0.0017373703846382529 0.0016950617758835797 0 0.0018202885487129813 0.0020268153372926304 0 0.0019872772136221325 0.0016515868618175293 0 0.0017373703846382529 0.0016950617758835797 0 0.0014115962988369151 0.0017223018660169865 0 0.0017373703846382529 0.0016950617758835797 0 0.0017294007779242505 0.0013759626903687534 0 0.0019872772136221325 0.0016515868618175293 0 0.0017373703846382529 0.0016950617758835797 0 0.0017294007779242505 0.0013759626903687534 0 0.0014115962988369151 0.0017223018660169865 0 0.0017294007779242505 0.0013759626903687534 0 0.0013584936510186013 0.0013565284567455236 0 0.0017294007779242505 0.0013759626903687534 0 0.0013584936510186013 0.0013565284567455236 0 0.0014957312153179511 0.0010804064762691868 0 0.0013584936510186013 0.0013565284567455236 0 0.0014957312153179511 0.0010804064762691868 0 0.0011677301406859163 0.0011794307002870137 0 0.0014957312153179511 0.0010804064762691868 0 0.0014990707097747957 0.00081486063070825086 0 0.0012852292792037915 0.00092560941932105702 0 0.0014957312153179511 0.0010804064762691868 0 0.0012852292792037915 0.00092560941932105702 0 0.0011677301406859163 0.0011794307002870137 0 0.0014990707097747957 0.00081486063070825086 0 0.0012852292792037915 0.00092560941932105702 0 0.0012140716969710258 0.000542205239533511 0 0.0014990707097747957 0.00081486063070825086 0 0.0015776671948974756 0.00057995246734353172 0 0.0012140716969710258 0.000542205239533511 0 0.0014957312153179511 0.0010804064762691868 0 0.0014990707097747957 0.00081486063070825086 0 0.0017233110917672229 0.00084969541180403524 0 0.0014990707097747957 0.00081486063070825086 0 0.0017233110917672229 0.00084969541180403524 0 0.0015776671948974756 0.00057995246734353172 0 0.0019393715546079905 0.00075395756625858048 0 0.002045307764842505 0.00057162664187195749 0 0.0018503460523066808 0.00055416469610154381 0 0.0019393715546079905 0.00075395756625858048 0 0.0017233110917672229 0.00084969541180403524 0 0.0018503460523066808 0.00055416469610154381 0 0.0017233110917672229 0.00084969541180403524 0 0.0015776671948974756 0.00057995246734353172 0 0.0018503460523066808 0.00055416469610154381 0 0.0019393715546079905 0.00075395756625858048 0 0.0017233110917672229 0.00084969541180403524 0 0.0019820519618926687 0.0010718907572822179 0 0.0017233110917672229 0.00084969541180403524 0 0.0017407670126387607 0.0011104851024048268 0 0.0019820519618926687 0.0010718907572822179 0 0.0021292775026370515 0.0013810526543124398 0 0.0017294007779242505 0.0013759626903687534 0 0.0019820519618926687 0.0010718907572822179 0 0.0014957312153179511 0.0010804064762691868 0 0.0017233110917672229 0.00084969541180403524 0 0.0017407670126387607 0.0011104851024048268 0 0.0017294007779242505 0.0013759626903687534 0 0.0014957312153179511 0.0010804064762691868 0 0.0017407670126387607 0.0011104851024048268 0 0.0017294007779242505 0.0013759626903687534 0 0.0017407670126387607 0.0011104851024048268 0 0.0019820519618926687 0.0010718907572822179 0 0.0021292775026370515 0.0013810526543124398 0 0.0019820519618926687 0.0010718907572822179 0 0.0023042073938601697 0.0011509626193424217 0 0.0022798863711504286 0.00093575304312437863 0 0.0019820519618926687 0.0010718907572822179 0 0.0023042073938601697 0.0011509626193424217 0 0.0025039476879578242 0.0014047333968774385 0 0.0023042073938601697 0.0011509626193424217 0 0.0025251489879610177 0.0010330695271546508 0 0.0025039476879578242 0.0014047333968774385 0 0.0025251489879610177 0.0010330695271546508 0 0.0027973474872609581 0.0012352005254917635 0 0.0022798863711504286 0.00093575304312437863 0 0.0023042073938601697 0.0011509626193424217 0 0.0025251489879610177 0.0010330695271546508 0 0.0025251489879610177 0.0010330695271546508 0 0.0024204170388733462 0.00081005291074526557 0 0.0026745959563379876 0.0007207402021996793 0 0.0022798863711504286 0.00093575304312437863 0 0.0025251489879610177 0.0010330695271546508 0 0.0024204170388733462 0.00081005291074526557 0 0.0024204170388733462 0.00081005291074526557 0 0.002417117337072013 0.00060220900403248629 0 0.0021560177538383252 0.0007663999449343871 0 0.002417117337072013 0.00060220900403248629 0 0.0025695087472723632 0.00043923356364791797 0 0.0026745959563379876 0.0007207402021996793 0 0.0024204170388733462 0.00081005291074526557 0 0.002417117337072013 0.00060220900403248629 0 0.0026745959563379876 0.0007207402021996793 0 0.0019393715546079905 0.00075395756625858048 0 0.0019820519618926687 0.0010718907572822179 0 0.0021560177538383252 0.0007663999449343871 0 0.0022798863711504286 0.00093575304312437863 0 0.0019820519618926687 0.0010718907572822179 0 0.0021560177538383252 0.0007663999449343871 0 0.0022798863711504286 0.00093575304312437863 0 0.0024204170388733462 0.00081005291074526557 0 0.0021560177538383252 0.0007663999449343871 0 0.0021560177538383252 0.0007663999449343871 0 0.002045307764842505 0.00057162664187195749 0 0.0022626289130846704 0.00044442831368303307 0 0.002417117337072013 0.00060220900403248629 0 0.0021560177538383252 0.0007663999449343871 0 0.0022626289130846704 0.00044442831368303307 0 0.0019393715546079905 0.00075395756625858048 0 0.0021560177538383252 0.0007663999449343871 0 0.002045307764842505 0.00057162664187195749 0 0.002045307764842505 0.00057162664187195749 0 0.0022626289130846704 0.00044442831368303307 0 0.0020176813947835066 0.00034282268549335073 0 0.0022626289130846704 0.00044442831368303307 0 0.0020176813947835066 0.00034282268549335073 0 0.0021951637273057495 0.00014980460572076762 0 0.002417117337072013 0.00060220900403248629 0 0.0022626289130846704 0.00044442831368303307 0 0.0025695087472723632 0.00043923356364791797 0 0.0022626289130846704 0.00044442831368303307 0 0.0025695087472723632 0.00043923356364791797 0 0.0024166627316298752 0.00010793992222305686 0 0.0025695087472723632 0.00043923356364791797 0 0.0024166627316298752 0.00010793992222305686 0 0.0026868506404457452 0.00017878158274797133 0 0.0024166627316298752 0.00010793992222305686 0 0.0022314456232340784 -0.00016642685656855213 0 0.0026704454530639002 -0.00013618790829359403 0 0.0024166627316298752 0.00010793992222305686 0 0.0026868506404457452 0.00017878158274797133 0 0.0026704454530639002 -0.00013618790829359403 0 0.0019899644135932867 8.7442332322065327e-05 0 0.0019040709962949583 -0.0001310741809959966 0 0.0022314456232340784 -0.00016642685656855213 0 0.0020176813947835066 0.00034282268549335073 0 0.0021951637273057495 0.00014980460572076762 0 0.0019899644135932867 8.7442332322065327e-05 0 0.0022626289130846704 0.00044442831368303307 0 0.0024166627316298752 0.00010793992222305686 0 0.0021951637273057495 0.00014980460572076762 0 0.0024166627316298752 0.00010793992222305686 0 0.0021951637273057495 0.00014980460572076762 0 0.0022314456232340784 -0.00016642685656855213 0 0.0021951637273057495 0.00014980460572076762 0 0.0019899644135932867 8.7442332322065327e-05 0 0.0022314456232340784 -0.00016642685656855213 0 0.0019899644135932867 8.7442332322065327e-05 0 0.0017994775372896041 5.9801992913560256e-05 0 0.0019040709962949583 -0.0001310741809959966 0 0.0020176813947835066 0.00034282268549335073 0 0.0019899644135932867 8.7442332322065327e-05 0 0.0017365524199007912 0.00026157341029808617 0 0.0019899644135932867 8.7442332322065327e-05 0 0.0017994775372896041 5.9801992913560256e-05 0 0.0017365524199007912 0.00026157341029808617 0 0.0017994775372896041 5.9801992913560256e-05 0 0.0016351095020422099 -5.2298463199694583e-06 0 0.0019040709962949583 -0.0001310741809959966 0 0.0017994775372896041 5.9801992913560256e-05 0 0.0016351095020422099 -5.2298463199694583e-06 0 0.0017365524199007912 0.00026157341029808617 0 0.0015449795744245261 7.6794082445486212e-05 0 0.0011682787256541906 0.00070207547920606559 0 0.0016351095020422099 -5.2298463199694583e-06 0 0.0017365524199007912 0.00026157341029808617 0 0.0012140716969710258 0.000542205239533511 0 0.0015776671948974756 0.00057995246734353172 0 0.0017365524199007912 0.00026157341029808617 0 0.0012140716969710258 0.000542205239533511 0 0.0015776671948974756 0.00057995246734353172 0 0.0018503460523066808 0.00055416469610154381 0 0.0017365524199007912 0.00026157341029808617 0 0.002045307764842505 0.00057162664187195749 0 0.0020176813947835066 0.00034282268549335073 0 0.0018503460523066808 0.00055416469610154381 0 0.0020176813947835066 0.00034282268549335073 0 0.0018503460523066808 0.00055416469610154381 0 0.0017365524199007912 0.00026157341029808617 0 0.0036340494054388234 0.00022724771220983175 0 0.0034105761710876777 0.00047856052319879576 0 0.003763817408584186 0.00059767957291732116 0 0.0036340494054388234 0.00022724771220983175 0 0.0034105761710876777 0.00047856052319879576 0 0.0032854277473575652 0.00014386864591941503 0 0.0036340494054388234 0.00022724771220983175 0 0.0039561460813228111 0.00029344107543260154 0 0.003763817408584186 0.00059767957291732116 0 0.0039561460813228111 0.00029344107543260154 0 0.003763817408584186 0.00059767957291732116 0 0.0041313407976190097 0.00058050931121116642 0 0.0039561460813228111 0.00029344107543260154 0 0.0039598862795718398 -4.018512424061537e-05 0 0.0043250632916874681 0.00021865727562667592 0 0.0036340494054388234 0.00022724771220983175 0 0.0039561460813228111 0.00029344107543260154 0 0.0039598862795718398 -4.018512424061537e-05 0 0.0036340494054388234 0.00022724771220983175 0 0.0039598862795718398 -4.018512424061537e-05 0 0.0035024095474560217 -0.0001022338908335569 0 0.0036340494054388234 0.00022724771220983175 0 0.0035024095474560217 -0.0001022338908335569 0 0.0032854277473575652 0.00014386864591941503 0 0.0035024095474560217 -0.0001022338908335569 0 0.0032854277473575652 0.00014386864591941503 0 0.0031183539029533561 -0.00025526553555150507 0 0.0032854277473575652 0.00014386864591941503 0 0.0029589356752187145 7.68389515490313e-05 0 0.0031183539029533561 -0.00025526553555150507 0 0.0032854277473575652 0.00014386864591941503 0 0.0029589356752187145 7.68389515490313e-05 0 0.0031019776552321044 0.00042666131497068701 0 0.0029589356752187145 7.68389515490313e-05 0 0.0026704454530639002 -0.00013618790829359403 0 0.0031183539029533561 -0.00025526553555150507 0 0.0029589356752187145 7.68389515490313e-05 0 0.0026868506404457452 0.00017878158274797133 0 0.0026704454530639002 -0.00013618790829359403 0 0.0029589356752187145 7.68389515490313e-05 0 0.0026868506404457452 0.00017878158274797133 0 0.0028146057047306926 0.0004149401144107886 0 0.0025695087472723632 0.00043923356364791797 0 0.0026868506404457452 0.00017878158274797133 0 0.0028146057047306926 0.0004149401144107886 0 0.0029589356752187145 7.68389515490313e-05 0 0.0028146057047306926 0.0004149401144107886 0 0.0031019776552321044 0.00042666131497068701 0 0.0028146057047306926 0.0004149401144107886 0 0.0031019776552321044 0.00042666131497068701 0 0.0029048878897185858 0.00064305552886322428 0 0.0025695087472723632 0.00043923356364791797 0 0.0028146057047306926 0.0004149401144107886 0 0.0026745959563379876 0.0007207402021996793 0 0.0034105761710876777 0.00047856052319879576 0 0.0031019776552321044 0.00042666131497068701 0 0.0032170290072554854 0.00079391013195184701 0 0.0034105761710876777 0.00047856052319879576 0 0.0032854277473575652 0.00014386864591941503 0 0.0031019776552321044 0.00042666131497068701 0 0.0031019776552321044 0.00042666131497068701 0 0.0032170290072554854 0.00079391013195184701 0 0.0029048878897185858 0.00064305552886322428 0 0.0032170290072554854 0.00079391013195184701 0 0.0029802416079775713 0.00087555528806684802 0 0.0030654543584910489 0.0010873822149963426 0 0.0032170290072554854 0.00079391013195184701 0 0.0029048878897185858 0.00064305552886322428 0 0.0029802416079775713 0.00087555528806684802 0 0.0028146057047306926 0.0004149401144107886 0 0.0026745959563379876 0.0007207402021996793 0 0.0029048878897185858 0.00064305552886322428 0 0.0026745959563379876 0.0007207402021996793 0 0.0029048878897185858 0.00064305552886322428 0 0.0029802416079775713 0.00087555528806684802 0 0.0026745959563379876 0.0007207402021996793 0 0.0029802416079775713 0.00087555528806684802 0 0.0027641791171969625 0.0009670535351773156 0 0.0025251489879610177 0.0010330695271546508 0 0.0026745959563379876 0.0007207402021996793 0 0.0027641791171969625 0.0009670535351773156 0 0.0025251489879610177 0.0010330695271546508 0 0.0027641791171969625 0.0009670535351773156 0 0.0027973474872609581 0.0012352005254917635 0 0.0029802416079775713 0.00087555528806684802 0 0.0027641791171969625 0.0009670535351773156 0 0.0030654543584910489 0.0010873822149963426 0 0.0027641791171969625 0.0009670535351773156 0 0.0027973474872609581 0.0012352005254917635 0 0.0030654543584910489 0.0010873822149963426 0 0.0027973474872609581 0.0012352005254917635 0 0.0030654543584910489 0.0010873822149963426 0 0.0030400248413809229 0.0013388741192051866 0 0.0032170290072554854 0.00079391013195184701 0 0.0033259749861387052 0.0010249610217112127 0 0.0030654543584910489 0.0010873822149963426 0 0.0030654543584910489 0.0010873822149963426 0 0.0033325759442581699 0.0012946242984143539 0 0.0030400248413809229 0.0013388741192051866 0 0.0033259749861387052 0.0010249610217112127 0 0.0030654543584910489 0.0010873822149963426 0 0.0033325759442581699 0.0012946242984143539 0 0.0033325759442581699 0.0012946242984143539 0 0.0036075964396477859 0.0012793679255974689 0 0.0035943846108371638 0.00097553424720595917 0 0.0033259749861387052 0.0010249610217112127 0 0.0033325759442581699 0.0012946242984143539 0 0.0035943846108371638 0.00097553424720595917 0 0.0033259749861387052 0.0010249610217112127 0 0.0035943846108371638 0.00097553424720595917 0 0.0034907393770186139 0.00072492004366594444 0 0.0032170290072554854 0.00079391013195184701 0 0.0033259749861387052 0.0010249610217112127 0 0.0034907393770186139 0.00072492004366594444 0 0.0035943846108371638 0.00097553424720595917 0 0.0034907393770186139 0.00072492004366594444 0 0.003763817408584186 0.00059767957291732116 0 0.0034105761710876777 0.00047856052319879576 0 0.0034907393770186139 0.00072492004366594444 0 0.003763817408584186 0.00059767957291732116 0 0.0034105761710876777 0.00047856052319879576 0 0.0032170290072554854 0.00079391013195184701 0 0.0034907393770186139 0.00072492004366594444 0 0.0035943846108371638 0.00097553424720595917 0 0.003763817408584186 0.00059767957291732116 0 0.0038850470099349639 0.00096874652922935439 0 0.003763817408584186 0.00059767957291732116 0 0.0038850470099349639 0.00096874652922935439 0 0.0041313407976190097 0.00058050931121116642 0 0.0038850470099349639 0.00096874652922935439 0 0.0039096645388347461 0.0014141743216136466 0 0.0042500742144527233 0.00098204606507989057 0 0.0036075964396477859 0.0012793679255974689 0 0.0038850470099349639 0.00096874652922935439 0 0.0039096645388347461 0.0014141743216136466 0 0.0036075964396477859 0.0012793679255974689 0 0.0035943846108371638 0.00097553424720595917 0 0.0038850470099349639 0.00096874652922935439 0 -0.00027254294642231017 0.00088676354710191829 0 -0.003659962115960559 0.00082556685164145204 0 -0.00027254294642231017 0.00088676354710191829 0 0.00013876152298147252 0.00094595170493100744 0 0.0036075964396477859 0.0012793679255974689 0 0.0039096645388347461 0.0014141743216136466 0 0.003324015188128178 0.0017296258030841392 0 0.0033325759442581699 0.0012946242984143539 0 0.0036075964396477859 0.0012793679255974689 0 0.003324015188128178 0.0017296258030841392 0 -0.0024631996430828982 -0.00024427825538126654 0 -0.0034384234636069735 0.00031649319967465593 0 -0.0030747807597392737 0.0005624795911691611 0 -0.0034384234636069735 0.00031649319967465593 0 -0.0030747807597392737 0.0005624795911691611 0 -0.0036699623327960669 0.00077945640985119713 0 -0.0033340563324664543 0.00085673914470332227 0 -0.003491824033058811 0.0010399783944460947 0 -0.0032848090283977014 0.0010437613595312169 0 -0.003491824033058811 0.0010399783944460947 0 -0.0034014012796276258 0.0011338507031747149 0 -0.0032848090283977014 0.0010437613595312169 0 0.0025039476879578242 0.0014047333968774385 0 0.0028905731534580956 0.0015763130188431432 0 0.0025985812386671715 0.001722619365507791 0 0.0025039476879578242 0.0014047333968774385 0 0.0027973474872609581 0.0012352005254917635 0 0.0028905731534580956 0.0015763130188431432 0 0.0027973474872609581 0.0012352005254917635 0 0.0028905731534580956 0.0015763130188431432 0 0.0030400248413809229 0.0013388741192051866 0 0.003324015188128178 0.0017296258030841392 0 0.0028905731534580956 0.0015763130188431432 0 0.0031648615630817493 0.0014998486710108465 0 0.0033325759442581699 0.0012946242984143539 0 0.003324015188128178 0.0017296258030841392 0 0.0031648615630817493 0.0014998486710108465 0 0.0028905731534580956 0.0015763130188431432 0 0.0030400248413809229 0.0013388741192051866 0 0.0031648615630817493 0.0014998486710108465 0 0.0033325759442581699 0.0012946242984143539 0 0.0030400248413809229 0.0013388741192051866 0 0.0031648615630817493 0.0014998486710108465 0 0.003324015188128178 0.0017296258030841392 0 0.0028905731534580956 0.0015763130188431432 0 0.0027584036881462626 0.0020354142224128821 0 0.00013876152298147252 0.00094595170493100744 0 -0.00065642176815974655 0.0014009600940533022 0 -0.0034384234636069735 0.00031649319967465593 0 -0.00420895657379623 0.00082614894232025554 0 -0.0036699623327960669 0.00077945640985119713 0 0.0028905731534580956 0.0015763130188431432 0 0.0025985812386671715 0.001722619365507791 0 0.0027584036881462626 0.0020354142224128821 0 -0.00420895657379623 0.00082614894232025554 0 -0.0038927445433956757 0.0010277309292294036 0 -0.0040132548232797534 0.0012640382937731192 0 -0.00420895657379623 0.00082614894232025554 0 -0.0038927445433956757 0.0010277309292294036 0 -0.0036699623327960669 0.00077945640985119713 0 -0.0038927445433956757 0.0010277309292294036 0 -0.0036797836474703515 0.0012239132518601465 0 -0.0040132548232797534 0.0012640382937731192 0 -0.0038927445433956757 0.0010277309292294036 0 -0.0036699623327960669 0.00077945640985119713 0 -0.0036797836474703515 0.0012239132518601465 0 -0.00423285353734245 0.0016672976231935461 0 -0.0040132548232797534 0.0012640382937731192 0 -0.0035878413675287189 0.0013971992434316804 0 -0.0036797836474703515 0.0012239132518601465 0 -0.0040132548232797534 0.0012640382937731192 0 -0.0035878413675287189 0.0013971992434316804 0 -0.0079201833351236813 0.00078896695142218701 0 -0.0072878429733741514 0.00051472258615114673 0 -0.00423285353734245 0.0016672976231935461 0 -0.0045953436573050472 0.0014192918709726855 0 -0.0040132548232797534 0.0012640382937731192 0 -0.0045953436573050472 0.0014192918709726855 0 -0.00420895657379623 0.00082614894232025554 0 -0.0040132548232797534 0.0012640382937731192 0 -0.0034014012796276258 0.0011338507031747149 0 -0.0033410032450560422 0.0012516362123965808 0 -0.0032848090283977014 0.0010437613595312169 0 -0.0034014012796276258 0.0011338507031747149 0 -0.0034919515998195956 0.0011976526710734379 0 -0.0033410032450560422 0.0012516362123965808 0 -0.003491824033058811 0.0010399783944460947 0 -0.0036797836474703515 0.0012239132518601465 0 -0.0034919515998195956 0.0011976526710734379 0 -0.003491824033058811 0.0010399783944460947 0 -0.0034014012796276258 0.0011338507031747149 0 -0.0034919515998195956 0.0011976526710734379 0 -0.0030747807597392737 0.0005624795911691611 0 -0.0036699623327960669 0.00077945640985119713 0 -0.0036797836474703515 0.0012239132518601465 0 -0.003659962115960559 0.00082556685164145204 0 -0.0035353860076319517 0.0011612841853835868 0 -0.0036797836474703515 0.0012239132518601465 0 -0.0034919515998195956 0.0011976526710734379 0 -0.0035878413675287189 0.0013971992434316804 0 -0.0034919515998195956 0.0011976526710734379 0 -0.0035878413675287189 0.0013971992434316804 0 -0.0033410032450560422 0.0012516362123965808 0 -0.011049034121309776 -0.00039390689465429896 0 -0.010255262272321531 -0.0002400435948558526 0 -0.0095378416520822511 -0.00099716371468160374 0 -0.0093159929998475766 0.00012203123100727071 0 -0.010255262272321531 -0.0002400435948558526 0 -0.0095378416520822511 -0.00099716371468160374 0 -0.0072878429733741514 0.00051472258615114673 0 -0.006588424300546224 7.7850809995515459e-06 0 -0.0095378416520822511 -0.00099716371468160374 0 -0.0084964032486468354 -0.00060808435356669464 0 -0.0078257236589951637 -0.0015223387818430031 0 -0.0093159929998475766 0.00012203123100727071 0 -0.0095378416520822511 -0.00099716371468160374 0 -0.0084964032486468354 -0.00060808435356669464 0 -0.006588424300546224 7.7850809995515459e-06 0 -0.004625197817123834 0.00089779513766773144 0 -0.0033410032450560422 0.0012516362123965808 0 -0.0031076252673538354 0.0011767753375518943 0 -0.0032848090283977014 0.0010437613595312169 0 -0.0080706897550476484 -0.00060671442005147457 0 -0.004625197817123834 0.00089779513766773144 0 -0.0075058612202012834 -0.0001004612361463112 0 -0.0084964032486468354 -0.00060808435356669464 0 -0.0078257236589951637 -0.0015223387818430031 0 -0.0075058612202012834 -0.0001004612361463112 0 -0.0093159929998475766 0.00012203123100727071 0 -0.0084964032486468354 -0.00060808435356669464 0 -0.0080706897550476484 -0.00060671442005147457 0 -0.0076079810956976822 -0.00037940186647588943 0 -0.0069368122552394039 -0.00052165555977757314 0 -0.0078844237651810381 -0.00040210229226787287 0 -0.0071633579431679703 3.2902733525484403e-05 0 -0.0069368122552394039 -0.00052165555977757314 0 -0.0068835897264962666 7.2926163921712805e-05 0 -0.0071633579431679703 3.2902733525484403e-05 0 -0.0075240431069164022 -0.00013801231076827797 0 -0.0072187118834272906 1.1722399764255684e-05 0 -0.0079668612628564523 -0.00036490316097349167 0 -0.0078844237651810381 -0.00040210229226787287 0 -0.0071633579431679703 3.2902733525484403e-05 0 -0.0071843893205510217 2.9202517818237029e-05 0 -0.0071674996523945619 4.8109545660262983e-05 0 -0.0071633579431679703 3.2902733525484403e-05 0 -0.0071843893205510217 2.9202517818237029e-05 0 -0.0071674996523945619 4.8109545660262983e-05 0 -0.007221022209676368 3.7338241288105043e-05 0 -0.0079691048268349333 -0.00038632047695603288 0 -0.007932623164955693 -0.00039477794021904505 0 -0.0079668612628564523 -0.00036490316097349167 0 -0.0079211991567046582 -0.00039581510054880809 0 -0.007932623164955693 -0.00039477794021904505 0 -0.0078844237651810381 -0.00040210229226787287 0 -0.007932623164955693 -0.00039477794021904505 0 -0.0079668612628564523 -0.00036490316097349167 0 -0.0078844237651810381 -0.00040210229226787287 0 -0.0071674996523945619 4.8109545660262983e-05 0 -0.0072092957236256404 4.7063276340353825e-05 0 -0.0070479225522343363 1.3846330012000331e-05 0 -0.0072092957236256404 4.7063276340353825e-05 0 -0.0070479225522343363 1.3846330012000331e-05 0 -0.0069932310179713752 -8.2799633020573627e-05 0 -0.0071674996523945619 4.8109545660262983e-05 0 -0.0072092957236256404 4.7063276340353825e-05 0 -0.0071633579431679703 3.2902733525484403e-05 0 -0.00098785663441694699 0.0037334467314223138 0 -1.1740207003094703e-05 0.0034628249188222424 0 -0.00046550017404032332 0.0028910892507958371 0 -0.004625197817123834 0.00089779513766773144 0 -0.0034855531073021361 0.0018364304228244911 0 -0.0068835897264962666 7.2926163921712805e-05 0 -0.0072092957236256404 4.7063276340353825e-05 0 -0.0071633579431679703 3.2902733525484403e-05 0 -1.1740207003094703e-05 0.0034628249188222424 0 -0.00046550017404032332 0.0028910892507958371 0 0.00015084771867579863 0.0027268117937739368 0 -0.0034855531073021361 0.0018364304228244911 0 -0.0030249057071292718 0.0015459646801870787 0 -1.1740207003094703e-05 0.0034628249188222424 0 0.00015084771867579863 0.0027268117937739368 0 0.00098783055880430305 0.0031768939210380831 0 0.00015084771867579863 0.0027268117937739368 0 0.00098783055880430305 0.0031768939210380831 0 0.00060340118983255033 0.002006700503005773 0 0.00015084771867579863 0.0027268117937739368 0 -0.00035712864906261931 0.0020958929488437291 0 0.00060340118983255033 0.002006700503005773 0 -0.00046550017404032332 0.0028910892507958371 0 -0.00035712864906261931 0.0020958929488437291 0 -0.00097340501808562392 0.0022022818156733461 0 -0.00046550017404032332 0.0028910892507958371 0 0.00015084771867579863 0.0027268117937739368 0 -0.00035712864906261931 0.0020958929488437291 0 -0.0019514391224954187 0.0022343682678644537 0 -0.0014379035816627942 0.00119941362454424 0 -0.00097340501808562392 0.0022022818156733461 0 -0.0011891437805050871 0.0027697904125451129 0 -0.0014193543636672526 0.0017687519129662389 0 -0.00046550017404032332 0.0028910892507958371 0 -0.00097340501808562392 0.0022022818156733461 0 -0.0011891437805050871 0.0027697904125451129 0 -0.0033340563324664543 0.00085673914470332227 0 -0.0032273738114081195 0.00091217614002619149 0 -0.0031604115406448363 0.0007665951213327621 0 -0.0033340563324664543 0.00085673914470332227 0 -0.0032273738114081195 0.00091217614002619149 0 -0.0032848090283977014 0.0010437613595312169 0 -0.0032273738114081195 0.00091217614002619149 0 -0.0031327117648526862 0.0009777654299030381 0 -0.0031604115406448363 0.0007665951213327621 0 -0.0032273738114081195 0.00091217614002619149 0 -0.0032848090283977014 0.0010437613595312169 0 -0.0031327117648526862 0.0009777654299030381 0 -0.00098785663441694699 0.0037334467314223138 0 -0.00046550017404032332 0.0028910892507958371 0 -0.0011891437805050871 0.0027697904125451129 0 -0.0031076252673538354 0.0011767753375518943 0 -0.0032848090283977014 0.0010437613595312169 0 -0.0031327117648526862 0.0009777654299030381 0 -0.004625197817123834 0.00089779513766773144 0 -0.0019514391224954187 0.0022343682678644537 0 -0.0071685991550250773 -0.00027352811795293105 0 -0.0072260642274412064 -0.00028629814273951741 0 -0.007193650062945452 -0.00029171620903788083 0 -0.007027646345056586 -0.00017209682197394258 0 -0.0070194802326627977 -0.00013580501219132522 0 -0.0071685991550250773 -0.00027352811795293105 0 -0.0072260642274412064 -0.00028629814273951741 0 -0.0072590205900218687 -0.00028352080638948589 0 -0.0072260642274412064 -0.00028629814273951741 0 -0.0072762215155269677 -0.00028323351606128819 0 -0.0072590205900218687 -0.00028352080638948589 0 -0.0072260642274412064 -0.00028629814273951741 0 -0.0072762215155269677 -0.00028323351606128819 0 -0.0072652216483258458 -0.00030127118280104273 0 -0.0074055036305533959 -0.00019568741277096286 0 -0.0070194802326627977 -0.00013580501219132522 0 -0.0072692149042621178 -0.00028735389598237262 0 -0.0072746617255964588 -0.00028650554041323298 0 -0.0072590205900218687 -0.00028352080638948589 0 -0.0072746617255964588 -0.00028650554041323298 0 -0.0072762215155269677 -0.00028323351606128819 0 -0.0072590205900218687 -0.00028352080638948589 0 -0.0068427177649678702 9.2939039187491728e-06 0 -0.0068538442254787576 -7.4633107379958497e-05 0 -0.006922422366240375 3.8616436226491606e-05 0 -0.0068552346469369294 -0.00011024755440203592 0 -0.0068427177649678702 9.2939039187491728e-06 0 -0.0068538442254787576 -7.4633107379958497e-05 0 -0.0068538442254787576 -7.4633107379958497e-05 0 -0.0069297621771330234 -3.3113372462154312e-05 0 -0.006922422366240375 3.8616436226491606e-05 0 -0.0069297621771330234 -3.3113372462154312e-05 0 -0.006922422366240375 3.8616436226491606e-05 0 -0.0069773035021246429 2.9283113032575003e-05 0 -0.0069131453142597232 0.00012865153022101426 0 -0.006922422366240375 3.8616436226491606e-05 0 -0.0070135050541339427 9.0399243052562072e-05 0 -0.0074055036305533959 -0.00019568741277096286 0 -0.007057576489107059 0.00010560213434585693 0 -0.0069131453142597232 0.00012865153022101426 0 -0.0068427177649678702 9.2939039187491728e-06 0 -0.006922422366240375 3.8616436226491606e-05 0 -0.006922422366240375 3.8616436226491606e-05 0 -0.0070135050541339427 9.0399243052562072e-05 0 -0.0069773035021246429 2.9283113032575003e-05 0 -0.0070135050541339427 9.0399243052562072e-05 0 -0.0070479225522343363 1.3846330012000331e-05 0 -0.0069773035021246429 2.9283113032575003e-05 0 -0.0071901369331364455 2.9581516430093036e-05 0 -0.007057576489107059 0.00010560213434585693 0 -0.0072821293991359127 -5.3620400193710627e-05 0 -0.0071843893205510217 2.9202517818237029e-05 0 -0.007221022209676368 3.7338241288105043e-05 0 -0.0071674996523945619 4.8109545660262983e-05 0 -0.0070135050541339427 9.0399243052562072e-05 0 -0.0070479225522343363 1.3846330012000331e-05 0 -0.0069297621771330234 -3.3113372462154312e-05 0 -0.0070479225522343363 1.3846330012000331e-05 0 -0.0069773035021246429 2.9283113032575003e-05 0 -0.0069297621771330234 -3.3113372462154312e-05 0 -0.0070479225522343363 1.3846330012000331e-05 0 -0.0069932310179713752 -8.2799633020573627e-05 0 0.00098783055880430305 0.0031768939210380831 0 0.0015529709926350263 0.0020285228146478614 0 0.00060340118983255033 0.002006700503005773 0 0.00098783055880430305 0.0031768939210380831 0 0.0019795482442872881 0.0028616499085173316 0 0.0015529709926350263 0.0020285228146478614 0 0.0019795482442872881 0.0028616499085173316 0 0.0023145398060718213 0.0021977462630739888 0 0.0015529709926350263 0.0020285228146478614 0 -0.0030249057071292718 0.0015459646801870787 0 -0.0024286776271281109 0.0013761318074198682 0 -0.0068538442254787576 -7.4633107379958497e-05 0 -0.0069297621771330234 -3.3113372462154312e-05 0 -0.0068510481390408979 -9.6970015481186416e-05 0 -0.0069297621771330234 -3.3113372462154312e-05 0 -0.0069932310179713752 -8.2799633020573627e-05 0 -0.0068510481390408979 -9.6970015481186416e-05 0 -0.0024286776271281109 0.0013761318074198682 0 -0.0020745335345418712 0.0012099017362736354 0 -0.0068538442254787576 -7.4633107379958497e-05 0 -0.0068510481390408979 -9.6970015481186416e-05 0 -0.0068661507025346317 -9.0904734869355115e-05 0 0.0019795482442872881 0.0028616499085173316 0 0.0023145398060718213 0.0021977462630739888 0 0.0028449169737189963 0.0024974190676802523 0 0.0028449169737189963 0.0024974190676802523 0 0.0028144986083024947 0.0019007063473361527 0 0.0035319310827718517 0.0022263039118712068 0 0.0023145398060718213 0.0021977462630739888 0 0.0028449169737189963 0.0024974190676802523 0 0.0028144986083024947 0.0019007063473361527 0 -0.007027646345056586 -0.00017209682197394258 0 -0.0070504781030218781 -0.00012810120714035848 0 -0.0068552346469369294 -0.00011024755440203592 0 -0.0068661507025346317 -9.0904734869355115e-05 0 -0.00704024487323744 -0.00013600120013063452 0 -0.0068552346469369294 -0.00011024755440203592 0 -0.0068538442254787576 -7.4633107379958497e-05 0 -0.0068661507025346317 -9.0904734869355115e-05 0 0.0028144986083024947 0.0019007063473361527 0 0.0024010627563395433 0.0015177548802040725 0 0.0030610789958955644 0.0010970606479685442 0 0.0028144986083024947 0.0019007063473361527 0 0.0030610789958955644 0.0010970606479685442 0 0.0032599254723117777 0.0016401443597764435 0 0.0029138926415974106 0.00091460804508051768 0 0.0039004191708901532 0.0021435826992880539 0 0.0023145398060718213 0.0021977462630739888 0 0.0028144986083024947 0.0019007063473361527 0 0.0024010627563395433 0.0015177548802040725 0 0.0023145398060718213 0.0021977462630739888 0 0.0024010627563395433 0.0015177548802040725 0 0.0015529709926350263 0.0020285228146478614 0 0.0024010627563395433 0.0015177548802040725 0 0.0024530513666248706 0.0010288343662794967 0 0.0030610789958955644 0.0010970606479685442 0 0.0024010627563395433 0.0015177548802040725 0 0.0020257192520781796 0.0012521084420833121 0 0.0024530513666248706 0.0010288343662794967 0 0.0024687161736732795 0.001521592904561081 0 0.0014607739767478409 0.0010667109850254432 0 0.0024010627563395433 0.0015177548802040725 0 0.0015105913203492479 0.0009824143507733865 0 0.0015529709926350263 0.0020285228146478614 0 0.0015529709926350263 0.0020285228146478614 0 0.00081740989404774204 0.0012501263660452345 0 0.00060340118983255033 0.002006700503005773 0 0.0015105913203492479 0.0009824143507733865 0 0.00081740989404774204 0.0012501263660452345 0 0.0006791686298223469 0.00052286262781076607 0 0.0014607739767478409 0.0010667109850254432 0 0.0030109344997202151 0.0002951594096132948 0 0.0015105913203492479 0.0009824143507733865 0 0.0015529709926350263 0.0020285228146478614 0 0.00081740989404774204 0.0012501263660452345 0 0.0020257192520781796 0.0012521084420833121 0 0.0021683953090760491 0.00061419831203208132 0 0.0015741631900613603 0.00099115881221498213 0 0.0042082163834294226 -0.00015651143357374255 0 0.0030109344997202151 0.0002951594096132948 0 0.0062861988751903939 -0.00061966266615627878 0 0.0058737372613036415 -0.00079774072972162006 0 0.0062602056966426841 -0.00082180218499870099 0 0.0062861988751903939 -0.00061966266615627878 0 0.0058737372613036415 -0.00079774072972162006 0 0.0057069334697763766 -0.00041537055627300994 0 0.0020257192520781796 0.0012521084420833121 0 0.0021683953090760491 0.00061419831203208132 0 0.0024530513666248706 0.0010288343662794967 0 0.0021683953090760491 0.00061419831203208132 0 0.0024530513666248706 0.0010288343662794967 0 0.0027556221074566786 0.00070402006627308465 0 0.0024530513666248706 0.0010288343662794967 0 0.0027556221074566786 0.00070402006627308465 0 0.0030610789958955644 0.0010970606479685442 0 0.0042082163834294226 -0.00015651143357374255 0 0.0040583890311507555 -0.00020021532539181441 0 0.0021683953090760491 0.00061419831203208132 0 0.0027556221074566786 0.00070402006627308465 0 0.0029066664706781029 0.00017240700663471385 0 0.0027556221074566786 0.00070402006627308465 0 0.0032255556849083151 0.00059389133271816577 0 0.0029066664706781029 0.00017240700663471385 0 0.0027556221074566786 0.00070402006627308465 0 0.0032255556849083151 0.00059389133271816577 0 0.0030610789958955644 0.0010970606479685442 0 0.0016086297453552227 0.0013335656888510989 0 0.0025347195815860171 0.00078507538206434022 0 0.0017489004963575656 0.00036469255980607396 0 -0.00017675842209471696 0.0011408738033517349 0 0.00098692357315627853 0.0010316928709956661 0 0.0038850470099349639 0.00096874652922935439 0 0.0041313407976190097 0.00058050931121116642 0 0.0042500742144527233 0.00098204606507989057 0 0.0041313407976190097 0.00058050931121116642 0 0.0042500742144527233 0.00098204606507989057 0 0.0045767373959842688 0.00053627255920845967 0 0.0030142603573898273 0.001012211506031369 0 0.0030029394730859138 0.00052259818458469192 0 0.0012133697463803045 0.0011218349110877896 0 0.0016086297453552227 0.0013335656888510989 0 0.0017489004963575656 0.00036469255980607396 0 0.0012133697463803045 0.0011218349110877896 0 0.0014503821946756992 0.0014264917804543628 0 0.0016086297453552227 0.0013335656888510989 0 -0.00027254294642231017 0.00088676354710191829 0 -0.0014379035816627942 0.00119941362454424 0 0.00067690596730392608 0.0018769234359176435 0 0.0012133697463803045 0.0011218349110877896 0 0.0014503821946756992 0.0014264917804543628 0 -0.00027254294642231017 0.00088676354710191829 0 0.0030142603573898273 0.001012211506031369 0 -0.0014379035816627942 0.00119941362454424 0 -0.00017675842209471696 0.0011408738033517349 0 -0.00035712864906261931 0.0020958929488437291 0 -0.00097340501808562392 0.0022022818156733461 0 -0.0012598919522667543 0.0016721594654648391 0 -0.00097340501808562392 0.0022022818156733461 0 -0.0014193543636672526 0.0017687519129662389 0 -0.0012598919522667543 0.0016721594654648391 0 -0.00035712864906261931 0.0020958929488437291 0 -0.0012598919522667543 0.0016721594654648391 0 -0.0003003070199495619 0.0011013371656822411 0 -0.00035712864906261931 0.0020958929488437291 0 0.00060340118983255033 0.002006700503005773 0 -0.0003003070199495619 0.0011013371656822411 0 0.00081740989404774204 0.0012501263660452345 0 0.00060340118983255033 0.002006700503005773 0 -0.0003003070199495619 0.0011013371656822411 0 0.00098692357315627853 0.0010316928709956661 0 0.0030109344997202151 0.0002951594096132948 0 0.00081740989404774204 0.0012501263660452345 0 -0.0003003070199495619 0.0011013371656822411 0 0.0006791686298223469 0.00052286262781076607 0 0.0025347195815860171 0.00078507538206434022 0 0.0023309162245824483 0.00020536828674471943 0 0.0017489004963575656 0.00036469255980607396 0 0.0025347195815860171 0.00078507538206434022 0 0.0023309162245824483 0.00020536828674471943 0 0.0028605106312685992 -7.4695865833228413e-05 0 0.0023309162245824483 0.00020536828674471943 0 0.0028605106312685992 -7.4695865833228413e-05 0 0.0022808128868723907 -0.00038534472328554471 0 0.0025347195815860171 0.00078507538206434022 0 0.0034440863551982053 0.0002362809053407439 0 0.0028605106312685992 -7.4695865833228413e-05 0 0.0062602056966426841 -0.00082180218499870099 0 0.0063073231485211295 -0.00072028750281205405 0 0.0062842040810398431 -0.00063432901805907452 0 0.0030109344997202151 0.0002951594096132948 0 0.0046905696017052016 -0.00031872415529022745 0 0.0062861988751903939 -0.00061966266615627878 0 0.0062602056966426841 -0.00082180218499870099 0 0.0062842040810398431 -0.00063432901805907452 0 0.0062842040810398431 -0.00063432901805907452 0 0.0063509844230837161 -0.00066047137612295747 0 0.0062440795487814262 -0.00056297455547124869 0 0.0063073231485211295 -0.00072028750281205405 0 0.0062842040810398431 -0.00063432901805907452 0 0.0063509844230837161 -0.00066047137612295747 0 0.0046502755125012191 -8.7240201282115187e-05 0 0.0065704421550773894 -0.00071579643994670471 0 0.0046905696017052016 -0.00031872415529022745 0 0.0046502755125012191 -8.7240201282115187e-05 0 0.0057828969420568171 0.00029662839639307603 0 0.0049783201231758676 -4.6489344908755062e-05 0 0.0056472989184684361 -0.00047323082568466126 0 0.0048765032529419538 9.881008453192276e-05 0 0.0043250632916874681 0.00021865727562667592 0 0.0044494596709102711 -0.00013632882926174015 0 0.0046502755125012191 -8.7240201282115187e-05 0 0.0048371446003640075 -3.3730719982350334e-05 0 0.0048765032529419538 9.881008453192276e-05 0 0.0045767373959842688 0.00053627255920845967 0 0.0043250632916874681 0.00021865727562667592 0 0.0023309162245824483 0.00020536828674471943 0 0.0022808128868723907 -0.00038534472328554471 0 0.0017489004963575656 0.00036469255980607396 0 0.0046502755125012191 -8.7240201282115187e-05 0 0.0030029394730859138 0.00052259818458469192 0 0.0039561460813228111 0.00029344107543260154 0 0.0041313407976190097 0.00058050931121116642 0 0.0043250632916874681 0.00021865727562667592 0 0.0041313407976190097 0.00058050931121116642 0 0.0045767373959842688 0.00053627255920845967 0 0.0043250632916874681 0.00021865727562667592 0 0.0039598862795718398 -4.018512424061537e-05 0 0.0043250632916874681 0.00021865727562667592 0 0.0044494596709102711 -0.00013632882926174015 0 0.0049783201231758676 -4.6489344908755062e-05 0 0.00499437859965755 -0.0010219234336747826 0 0.0040841766251921456 -0.00040695364461443902 0 0.0048371446003640075 -3.3730719982350334e-05 0 0.0040716705400296342 -0.0004164196111271599 0 0.0053560861797527027 -0.00088643802249228378 0 0.0045201636818613068 -0.00074833318175859516 0 0.0057187631351619779 -0.00077170225733637918 0 0.0054721423618382071 -0.0010392483856074221 0 0.0051504991961761467 -0.00063918854835752817 0 0.00499437859965755 -0.0010219234336747826 0 0.0056472989184684361 -0.00047323082568466126 0 0.0060975513647403374 -0.00093025074001657729 0 0.0053560861797527027 -0.00088643802249228378 0 0.0060404533346158249 -0.00092844566519002521 0 0.0057187631351619779 -0.00077170225733637918 0 0.0060975513647403374 -0.00093025074001657729 0 0.0059973448875316714 -0.0010307598094739887 0 0.0049783201231758676 -4.6489344908755062e-05 0 0.00499437859965755 -0.0010219234336747826 0 0.0056472989184684361 -0.00047323082568466126 0 0.0057828969420568171 0.00029662839639307603 0 0.0056472989184684361 -0.00047323082568466126 0 0.0062440795487814262 -0.00056297455547124869 0 0.0056472989184684361 -0.00047323082568466126 0 0.0062440795487814262 -0.00056297455547124869 0 0.0060975513647403374 -0.00093025074001657729 0 0.0062861988751903939 -0.00061966266615627878 0 0.0062842040810398431 -0.00063432901805907452 0 0.0063146384378794003 -0.00067586250585984994 0 0.0062842040810398431 -0.00063432901805907452 0 0.0062440795487814262 -0.00056297455547124869 0 0.0063146384378794003 -0.00067586250585984994 0 0.0062440795487814262 -0.00056297455547124869 0 0.0063146384378794003 -0.00067586250585984994 0 0.0062982744250950663 -0.00083422545275412853 0 0.0062982744250950663 -0.00083422545275412853 0 0.0062724472448156769 -0.0010652630523035637 0 0.0064943899340571803 -0.00091444896434447981 0 0.0063146384378794003 -0.00067586250585984994 0 0.0062982744250950663 -0.00083422545275412853 0 0.0064943899340571803 -0.00091444896434447981 0 0.0062982744250950663 -0.00083422545275412853 0 0.0060975513647403374 -0.00093025074001657729 0 0.0062724472448156769 -0.0010652630523035637 0 0.0062440795487814262 -0.00056297455547124869 0 0.0062982744250950663 -0.00083422545275412853 0 0.0060975513647403374 -0.00093025074001657729 0 0.0060975513647403374 -0.00093025074001657729 0 0.0062724472448156769 -0.0010652630523035637 0 0.0059973448875316714 -0.0010307598094739887 0 0.0062724472448156769 -0.0010652630523035637 0 0.0060713842015158014 -0.0012536443657926806 0 0.0059973448875316714 -0.0010307598094739887 0 0.0062724472448156769 -0.0010652630523035637 0 0.0060713842015158014 -0.0012536443657926806 0 0.0062665792002040768 -0.0013208364500611872 0 0.0062724472448156769 -0.0010652630523035637 0 0.0064988704629938389 -0.0012034568914608343 0 0.0064943899340571803 -0.00091444896434447981 0 0.0062724472448156769 -0.0010652630523035637 0 0.0064988704629938389 -0.0012034568914608343 0 0.0062665792002040768 -0.0013208364500611872 0 0.0064988704629938389 -0.0012034568914608343 0 0.0062665792002040768 -0.0013208364500611872 0 0.0064081237371327992 -0.0016146487607715133 0 0.0060713842015158014 -0.0012536443657926806 0 0.0062665792002040768 -0.0013208364500611872 0 0.0060802015208927191 -0.0015134340448352413 0 0.0060713842015158014 -0.0012536443657926806 0 0.0058781425796381424 -0.0013659379593940709 0 0.0060802015208927191 -0.0015134340448352413 0 0.0058781425796381424 -0.0013659379593940709 0 0.005800192233301772 -0.0016042940157101847 0 0.0060802015208927191 -0.0015134340448352413 0 0.0060713842015158014 -0.0012536443657926806 0 0.0058781425796381424 -0.0013659379593940709 0 0.005800893747051868 -0.0011325167685596878 0 0.0058781425796381424 -0.0013659379593940709 0 0.0056122820708846607 -0.0013285977554741253 0 0.005800893747051868 -0.0011325167685596878 0 0.0058781425796381424 -0.0013659379593940709 0 0.0056122820708846607 -0.0013285977554741253 0 0.005800192233301772 -0.0016042940157101847 0 0.0056122820708846607 -0.0013285977554741253 0 0.0054796532510150179 -0.001590675622772083 0 0.005800192233301772 -0.0016042940157101847 0 0.0056122820708846607 -0.0013285977554741253 0 0.0054796532510150179 -0.001590675622772083 0 0.0053715705453617904 -0.0013092846016616898 0 0.0056122820708846607 -0.0013285977554741253 0 0.0054721423618382071 -0.0010392483856074221 0 0.0053715705453617904 -0.0013092846016616898 0 0.0056122820708846607 -0.0013285977554741253 0 0.0054721423618382071 -0.0010392483856074221 0 0.005800893747051868 -0.0011325167685596878 0 0.0057187631351619779 -0.00077170225733637918 0 0.0054721423618382071 -0.0010392483856074221 0 0.005800893747051868 -0.0011325167685596878 0 0.0057187631351619779 -0.00077170225733637918 0 0.0059973448875316714 -0.0010307598094739887 0 0.005800893747051868 -0.0011325167685596878 0 0.0060713842015158014 -0.0012536443657926806 0 0.0059973448875316714 -0.0010307598094739887 0 0.005800893747051868 -0.0011325167685596878 0 0.0051675845564969876 -0.00031264137983560443 0 0.0052996710911212119 -0.00062638764042551259 0 0.0048955757240280303 -0.00047384998914868975 0 0.0032255556849083151 0.00059389133271816577 0 0.0029066664706781029 0.00017240700663471385 0 0.0037698001006492743 -0.00020271009533978394 0 0.0040583890311507555 -0.00020021532539181441 0 0.0043441881077186661 -0.00032932865716286562 0 0.0058737372613036415 -0.00079774072972162006 0 0.0052996710911212119 -0.00062638764042551259 0 0.0057069334697763766 -0.00041537055627300994 0 0.0059862316575365788 -0.00073660197415559119 0 0.0062267404762343563 -0.00066212293956228389 0 0.0051675845564969876 -0.00031264137983560443 0 0.0052996710911212119 -0.00062638764042551259 0 0.0057069334697763766 -0.00041537055627300994 0 0.0068074766961986229 -0.0011605165396115353 0 0.0067536685770661969 -0.00089020677001019259 0 0.0068055846801467227 -0.0011567834263639823 0 0.0067536685770661969 -0.00089020677001019259 0 0.0064943899340571803 -0.00091444896434447981 0 0.0067700713736388298 -0.001132749479279998 0 0.0062910920624027616 -0.00062997723845784515 0 0.0062267404762343563 -0.00066212293956228389 0 0.0062861988751903939 -0.00061966266615627878 0 0.0063146384378794003 -0.00067586250585984994 0 0.0064943899340571803 -0.00091444896434447981 0 0.0062861988751903939 -0.00061966266615627878 0 0.0067536685770661969 -0.00089020677001019259 0 0.0064943899340571803 -0.00091444896434447981 0 0.0064988704629938389 -0.0012034568914608343 0 0.0064943899340571803 -0.00091444896434447981 0 0.0066270415939152106 -0.0011006046357459603 0 0.0064943899340571803 -0.00091444896434447981 0 0.0066270415939152106 -0.0011006046357459603 0 0.0067700713736388298 -0.001132749479279998 0 0.0064988704629938389 -0.0012034568914608343 0 0.0066270415939152106 -0.0011006046357459603 0 0.0068853576056394448 -0.0013009432213343009 0 0.0064988704629938389 -0.0012034568914608343 0 0.0068853576056394448 -0.0013009432213343009 0 0.0064081237371327992 -0.0016146487607715133 0 0.0067700713736388298 -0.001132749479279998 0 0.0068372513094495067 -0.0011641540038115391 0 0.0068853576056394448 -0.0013009432213343009 0 0.0066270415939152106 -0.0011006046357459603 0 0.0067700713736388298 -0.001132749479279998 0 0.0068853576056394448 -0.0013009432213343009 0 0.0067536685770661969 -0.00089020677001019259 0 0.0067700713736388298 -0.001132749479279998 0 0.0068055846801467227 -0.0011567834263639823 0 0.0067700713736388298 -0.001132749479279998 0 0.0068055846801467227 -0.0011567834263639823 0 0.0068372513094495067 -0.0011641540038115391 0 0.0068055846801467227 -0.0011567834263639823 0 0.0067765213611959774 -0.001154220039579985 0 0.0068372513094495067 -0.0011641540038115391 0 0.0068074766961986229 -0.0011605165396115353 0 0.0067765213611959774 -0.001154220039579985 0 0.0066632323245218754 -0.001147154430768965 0 0.0067765213611959774 -0.001154220039579985 0 0.0067364132053317699 -0.0010596048756201959 0 0.0066632323245218754 -0.001147154430768965 0 0.0068074766961986229 -0.0011605165396115353 0 0.0068055846801467227 -0.0011567834263639823 0 0.0067765213611959774 -0.001154220039579985 0 0.0068000900576378606 -0.00092007985031210911 0 0.0067364132053317699 -0.0010596048756201959 0 0.0066805206309806207 -0.00089488383161878747 0 0.0068000900576378606 -0.00092007985031210911 0 0.0066805206309806207 -0.00089488383161878747 0 0.0067280148794488072 -0.00069400091294918843 0 0.0068000900576378606 -0.00092007985031210911 0 0.0067364132053317699 -0.0010596048756201959 0 0.0068372513094495067 -0.0011641540038115391 0 0.0067765213611959774 -0.001154220039579985 0 0.0067364132053317699 -0.0010596048756201959 0 0.0068372513094495067 -0.0011641540038115391 0 0.0068000900576378606 -0.00092007985031210911 0 0.0068372513094495067 -0.0011641540038115391 0 0.0069531331140567842 -0.001000530090769779 0 0.0068000900576378606 -0.00092007985031210911 0 0.0069531331140567842 -0.001000530090769779 0 0.0069565678303237987 -0.00080623110010896921 0 0.0069531331140567842 -0.001000530090769779 0 0.007142655594065456 -0.00098644705401144971 0 0.0071383073299818032 -0.00077384678532042156 0 0.0069531331140567842 -0.001000530090769779 0 0.0071383073299818032 -0.00077384678532042156 0 0.0069565678303237987 -0.00080623110010896921 0 0.0068372513094495067 -0.0011641540038115391 0 0.0069531331140567842 -0.001000530090769779 0 0.0068853576056394448 -0.0013009432213343009 0 0.0069531331140567842 -0.001000530090769779 0 0.0068853576056394448 -0.0013009432213343009 0 0.007142655594065456 -0.00098644705401144971 0 0.0069118305968970404 -0.0013277691827339136 0 0.0069561958629152281 -0.0014243944805019913 0 0.0068853576056394448 -0.0013009432213343009 0 0.0073203415044761286 -0.0010797098545726001 0 0.007142655594065456 -0.00098644705401144971 0 0.0068853576056394448 -0.0013009432213343009 0 0.0073203415044761286 -0.0010797098545726001 0 0.007557429075985213 -0.0012514133078760027 0 0.0073203415044761286 -0.0010797098545726001 0 0.007142655594065456 -0.00098644705401144971 0 0.0073368176334046454 -0.00088441703019720972 0 0.007142655594065456 -0.00098644705401144971 0 0.0073368176334046454 -0.00088441703019720972 0 0.0071383073299818032 -0.00077384678532042156 0 0.0073368176334046454 -0.00088441703019720972 0 0.0071383073299818032 -0.00077384678532042156 0 0.0074327515124813061 -0.00067096240782400709 0 0.0071383073299818032 -0.00077384678532042156 0 0.0071618330570158715 -0.00055871318473931539 0 0.0074327515124813061 -0.00067096240782400709 0 0.0073324190740110184 -0.00046265824458842868 0 0.0071618330570158715 -0.00055871318473931539 0 0.0074327515124813061 -0.00067096240782400709 0 0.0073324190740110184 -0.00046265824458842868 0 0.0071618330570158715 -0.00055871318473931539 0 0.0071918413764986882 -0.00043489499966097012 0 0.0071618330570158715 -0.00055871318473931539 0 0.0070333717127329387 -0.00047136002331437629 0 0.0070368981114090571 -0.00065235064923443173 0 0.0070333717127329387 -0.00047136002331437629 0 0.0070368981114090571 -0.00065235064923443173 0 0.0069170207793963828 -0.0006764238372437935 0 0.0071618330570158715 -0.00055871318473931539 0 0.0070333717127329387 -0.00047136002331437629 0 0.0071918413764986882 -0.00043489499966097012 0 0.0071383073299818032 -0.00077384678532042156 0 0.0071618330570158715 -0.00055871318473931539 0 0.0070368981114090571 -0.00065235064923443173 0 0.0071383073299818032 -0.00077384678532042156 0 0.0070368981114090571 -0.00065235064923443173 0 0.0069565678303237987 -0.00080623110010896921 0 0.0068000900576378606 -0.00092007985031210911 0 0.0069565678303237987 -0.00080623110010896921 0 0.0069170207793963828 -0.0006764238372437935 0 0.0070368981114090571 -0.00065235064923443173 0 0.0069565678303237987 -0.00080623110010896921 0 0.0069170207793963828 -0.0006764238372437935 0 0.0090425951170045732 -0.00082756282278542779 0 0.011070258256782567 -8.7536204651086384e-05 0 0.0074341088284205735 -0.00022616961701855376 0 0.0069170207793963828 -0.0006764238372437935 0 0.0071468587893515415 -0.0002064471682750704 0 0.0069170207793963828 -0.0006764238372437935 0 0.006637871052386432 -0.00065719538450039947 0 0.0071468587893515415 -0.0002064471682750704 0 0.0068916081845660556 -0.00047076853560103595 0 0.0070528337155273922 -0.00057229584218425257 0 0.01370921705864386 -0.00066167515459995038 0 0.013586250969332789 -0.00014674325663435742 0 0.013726944419633824 -0.00025532781581832177 0 0.0090425951170045732 -0.00082756282278542779 0 0.011114181636455098 0.00036140829391133111 0 0.01370921705864386 -0.00066167515459995038 0 0.013726944419633824 -0.00025532781581832177 0 0.014149640646542758 -0.00033106732183788267 0 0.0063651048537643855 -0.00066255528993268409 0 0.0090425951170045732 -0.00082756282278542779 0 0.0068000900576378606 -0.00092007985031210911 0 0.0068197354997380595 -0.00063354405738077146 0 0.0067280148794488072 -0.00069400091294918843 0 0.0068000900576378606 -0.00092007985031210911 0 0.0069170207793963828 -0.0006764238372437935 0 0.006637871052386432 -0.00065719538450039947 0 0.0090425951170045732 -0.00082756282278542779 0 0.0067590231902714282 -0.0011669905192077691 0 0.0060119205356195856 -0.001845871416554419 0 0.0056117522356529601 -0.0019418635629458835 0 0.0056869158247396315 -0.0017643580499250913 0 0.0079571034385294108 -0.0010866373747179998 0 0.0081586655693473131 -0.00099506276753302445 0 0.0080273683476260287 -0.00093716336736101441 0 0.0079571034385294108 -0.0010866373747179998 0 0.0078677521533649288 -0.00088917282897474869 0 0.0080273683476260287 -0.00093716336736101441 0 0.0070600883533860938 -0.0014533260847813376 0 0.0064697437648370782 -0.0015578402754806531 0 0.0060119205356195856 -0.001845871416554419 0 0.0055955835618402925 -0.0020767734946196639 0 0.0056117522356529601 -0.0019418635629458835 0 0.0056121550820529519 -0.0021553100550159385 0 0.0054829485624433467 -0.0020633185472871064 0 0.0054645529586474758 -0.0022341187853225485 0 0.0064697437648370782 -0.0015578402754806531 0 0.005621375003216092 -0.0019784276751375822 0 0.0054829485624433467 -0.0020633185472871064 0 0.0056117522356529601 -0.0019418635629458835 0 0.0054919846561360232 -0.0018164017959038537 0 0.0056121550820529519 -0.0021553100550159385 0 0.0054829485624433467 -0.0020633185472871064 0 0.0056117522356529601 -0.0019418635629458835 0 0.0064697437648370782 -0.0015578402754806531 0 0.0060805489047754046 -0.0020136702298931041 0 0.0056869158247396315 -0.0017643580499250913 0 0.0054796532510150179 -0.001590675622772083 0 0.005800192233301772 -0.0016042940157101847 0 0.0056117522356529601 -0.0019418635629458835 0 0.0056869158247396315 -0.0017643580499250913 0 0.0054919846561360232 -0.0018164017959038537 0 0.0056869158247396315 -0.0017643580499250913 0 0.0054919846561360232 -0.0018164017959038537 0 0.0054796532510150179 -0.001590675622772083 0 0.0060119205356195856 -0.001845871416554419 0 0.005800192233301772 -0.0016042940157101847 0 0.0060802015208927191 -0.0015134340448352413 0 0.0060119205356195856 -0.001845871416554419 0 0.0056869158247396315 -0.0017643580499250913 0 0.005800192233301772 -0.0016042940157101847 0 0.0070600883533860938 -0.0014533260847813376 0 0.0069561958629152281 -0.0014243944805019913 0 0.0060119205356195856 -0.001845871416554419 0 0.0060802015208927191 -0.0015134340448352413 0 0.0064081237371327992 -0.0016146487607715133 0 0.0062665792002040768 -0.0013208364500611872 0 0.0060802015208927191 -0.0015134340448352413 0 0.0064081237371327992 -0.0016146487607715133 0 0.0073368176334046454 -0.00088441703019720972 0 0.0076702278127608568 -0.00099731633455874056 0 0.0074327515124813061 -0.00067096240782400709 0 0.0073203415044761286 -0.0010797098545726001 0 0.007557429075985213 -0.0012514133078760027 0 0.0076702278127608568 -0.00099731633455874056 0 0.0073203415044761286 -0.0010797098545726001 0 0.0073368176334046454 -0.00088441703019720972 0 0.0076702278127608568 -0.00099731633455874056 0 0.0079571034385294108 -0.0010866373747179998 0 0.0076702278127608568 -0.00099731633455874056 0 0.0078677521533649288 -0.00088917282897474869 0 0.0079571034385294108 -0.0010866373747179998 0 0.007557429075985213 -0.0012514133078760027 0 0.0076702278127608568 -0.00099731633455874056 0 0.0078677521533649288 -0.00088917282897474869 0 0.0077643634877874032 -0.00083043601114593751 0 0.0078677161864012246 -0.0007774747546493518 0 0.0078677521533649288 -0.00088917282897474869 0 0.0078677161864012246 -0.0007774747546493518 0 0.0079906247618293826 -0.00081329691483654845 0 0.0076702278127608568 -0.00099731633455874056 0 0.0078677521533649288 -0.00088917282897474869 0 0.0077643634877874032 -0.00083043601114593751 0 0.0076638462068016706 -0.0009684294587276361 0 0.00763979142996729 -0.00081762471656578141 0 0.0072422862552430529 -0.00040174212490673065 0 0.00763979142996729 -0.00081762471656578141 0 0.0077897040270393601 -0.0007028504161118393 0 0.0077643634877874032 -0.00083043601114593751 0 0.0078677161864012246 -0.0007774747546493518 0 0.0077897040270393601 -0.0007028504161118393 0 0.0078677161864012246 -0.0007774747546493518 0 0.0079475457052047456 -0.00068275382288025127 0 0.0078677161864012246 -0.0007774747546493518 0 0.0079906247618293826 -0.00081329691483654845 0 0.0079475457052047456 -0.00068275382288025127 0 0.008093772659003939 -0.00071421761405428697 0 0.0079906247618293826 -0.00081329691483654845 0 0.0080958178135500589 -0.0008522549337435149 0 0.008093772659003939 -0.00071421761405428697 0 0.0079906247618293826 -0.00081329691483654845 0 0.0079475457052047456 -0.00068275382288025127 0 0.0079906247618293826 -0.00081329691483654845 0 0.0080273683476260287 -0.00093716336736101441 0 0.0080958178135500589 -0.0008522549337435149 0 0.0078677521533649288 -0.00088917282897474869 0 0.0079906247618293826 -0.00081329691483654845 0 0.0080273683476260287 -0.00093716336736101441 0 0.0056345930868607523 -0.0021703273759717773 0 0.0055662322567060817 -0.0028240287430832283 0 0.0054645529586474758 -0.0022341187853225485 0 0.0081586655693473131 -0.00099506276753302445 0 0.0080958178135500589 -0.0008522549337435149 0 0.008192111555952496 -0.00079296797568308196 0 0.0064697437648370782 -0.0015578402754806531 0 0.0066196050152673895 -0.0020513995707450118 0 0.0081586655693473131 -0.00099506276753302445 0 0.0080273683476260287 -0.00093716336736101441 0 0.0080958178135500589 -0.0008522549337435149 0 0.008093772659003939 -0.00071421761405428697 0 0.0080958178135500589 -0.0008522549337435149 0 0.008192111555952496 -0.00079296797568308196 0 0.0055662322567060817 -0.0028240287430832283 0 0.0049821619257568233 -0.0027438313341758532 0 0.0049266098690347437 -0.0031866887153552889 0 0.0049821619257568233 -0.0027438313341758532 0 0.0046633967375280857 -0.0027589179360780441 0 0.0049266098690347437 -0.0031866887153552889 0 0.0049821619257568233 -0.0027438313341758532 0 0.0047745080422372417 -0.0024244719548421668 0 0.0051757019698957796 -0.0024442683595528795 0 0.0047745080422372417 -0.0024244719548421668 0 0.0051757019698957796 -0.0024442683595528795 0 0.0050500266068658128 -0.0022233177278344661 0 0.0049821619257568233 -0.0027438313341758532 0 0.0047745080422372417 -0.0024244719548421668 0 0.0046633967375280857 -0.0027589179360780441 0 0.0055662322567060817 -0.0028240287430832283 0 0.0051757019698957796 -0.0024442683595528795 0 0.0054645529586474758 -0.0022341187853225485 0 0.0055662322567060817 -0.0028240287430832283 0 0.0049821619257568233 -0.0027438313341758532 0 0.0051757019698957796 -0.0024442683595528795 0 0.0054829485624433467 -0.0020633185472871064 0 0.0052818704636673468 -0.002154682692917971 0 0.0054645529586474758 -0.0022341187853225485 0 0.0051757019698957796 -0.0024442683595528795 0 0.0052818704636673468 -0.002154682692917971 0 0.0054645529586474758 -0.0022341187853225485 0 0.0054829485624433467 -0.0020633185472871064 0 0.0054919846561360232 -0.0018164017959038537 0 0.0053551294460251111 -0.0019696635749304526 0 0.0054829485624433467 -0.0020633185472871064 0 0.0052818704636673468 -0.002154682692917971 0 0.0053551294460251111 -0.0019696635749304526 0 0.0053551294460251111 -0.0019696635749304526 0 0.0051537204576866322 -0.0020205596662915782 0 0.0052127405769585231 -0.0017902895411246425 0 0.0052818704636673468 -0.002154682692917971 0 0.0053551294460251111 -0.0019696635749304526 0 0.0051537204576866322 -0.0020205596662915782 0 0.0052818704636673468 -0.002154682692917971 0 0.0051537204576866322 -0.0020205596662915782 0 0.0050500266068658128 -0.0022233177278344661 0 0.0051757019698957796 -0.0024442683595528795 0 0.0052818704636673468 -0.002154682692917971 0 0.0050500266068658128 -0.0022233177278344661 0 0.0047745080422372417 -0.0024244719548421668 0 0.0050500266068658128 -0.0022233177278344661 0 0.0048641924637205279 -0.0019676975258805141 0 0.0047745080422372417 -0.0024244719548421668 0 0.0048641924637205279 -0.0019676975258805141 0 0.0045099969691835134 -0.0022000231014891298 0 0.0051537204576866322 -0.0020205596662915782 0 0.0050500266068658128 -0.0022233177278344661 0 0.0048641924637205279 -0.0019676975258805141 0 0.0048641924637205279 -0.0019676975258805141 0 0.004987161728092996 -0.0016607459094221033 0 0.0052127405769585231 -0.0017902895411246425 0 0.0048641924637205279 -0.0019676975258805141 0 0.0045132490792728162 -0.0018783538985954246 0 0.004698476418885612 -0.0015774352573096949 0 0.0048641924637205279 -0.0019676975258805141 0 0.004987161728092996 -0.0016607459094221033 0 0.004698476418885612 -0.0015774352573096949 0 0.004987161728092996 -0.0016607459094221033 0 0.0052127405769585231 -0.0017902895411246425 0 0.0051765488038745958 -0.0014803183132411281 0 0.0054796532510150179 -0.001590675622772083 0 0.0052127405769585231 -0.0017902895411246425 0 0.0051765488038745958 -0.0014803183132411281 0 0.0054919846561360232 -0.0018164017959038537 0 0.0053551294460251111 -0.0019696635749304526 0 0.0052127405769585231 -0.0017902895411246425 0 0.0054919846561360232 -0.0018164017959038537 0 0.0054796532510150179 -0.001590675622772083 0 0.0052127405769585231 -0.0017902895411246425 0 0.0051537204576866322 -0.0020205596662915782 0 0.0048641924637205279 -0.0019676975258805141 0 0.0052127405769585231 -0.0017902895411246425 0 0.0038374004605072941 -0.0017985953170290136 0 0.0042007606464800826 -0.0020425596470917792 0 0.0038358730670568441 -0.002225906466633466 0 0.0038374004605072941 -0.0017985953170290136 0 0.0042007606464800826 -0.0020425596470917792 0 0.0042809379132102273 -0.0015995818880626812 0 0.0045132490792728162 -0.0018783538985954246 0 0.0042007606464800826 -0.0020425596470917792 0 0.0042809379132102273 -0.0015995818880626812 0 0.0045132490792728162 -0.0018783538985954246 0 0.004698476418885612 -0.0015774352573096949 0 0.0042809379132102273 -0.0015995818880626812 0 0.0045132490792728162 -0.0018783538985954246 0 0.0045099969691835134 -0.0022000231014891298 0 0.0042007606464800826 -0.0020425596470917792 0 0.0045099969691835134 -0.0022000231014891298 0 0.0042007606464800826 -0.0020425596470917792 0 0.0042955419007527787 -0.0024800119227830399 0 0.0048641924637205279 -0.0019676975258805141 0 0.0045132490792728162 -0.0018783538985954246 0 0.0045099969691835134 -0.0022000231014891298 0 0.0042007606464800826 -0.0020425596470917792 0 0.0042955419007527787 -0.0024800119227830399 0 0.0038358730670568441 -0.002225906466633466 0 0.0042955419007527787 -0.0024800119227830399 0 0.0037612170815984479 -0.0026546589759610206 0 0.0038358730670568441 -0.002225906466633466 0 0.0039772204376006034 -0.002770016328996022 0 0.0042955419007527787 -0.0024800119227830399 0 0.0043349067380329181 -0.0029501188233633782 0 0.0039772204376006034 -0.002770016328996022 0 0.0042955419007527787 -0.0024800119227830399 0 0.0037612170815984479 -0.0026546589759610206 0 0.008020013333427398 -0.00096467191444561738 0 0.01222899261990841 -0.00051210974637618499 0 0.0047745080422372417 -0.0024244719548421668 0 0.0042955419007527787 -0.0024800119227830399 0 0.0046633967375280857 -0.0027589179360780441 0 0.0042955419007527787 -0.0024800119227830399 0 0.0046633967375280857 -0.0027589179360780441 0 0.0043349067380329181 -0.0029501188233633782 0 0.0047745080422372417 -0.0024244719548421668 0 0.0045099969691835134 -0.0022000231014891298 0 0.0042955419007527787 -0.0024800119227830399 0 0.010577034248949397 -0.00082381742577868598 0 0.0083857818749233353 -0.0013271075405419754 0 0.014164856775151911 -7.3614515804480999e-05 0 0.014620119568292476 0.0003708179266075033 0 0.013268412122989156 0.00039140420757351164 0 0.013363524038541829 0.00013015695181169422 0 0.012982044582478395 0.00045703534102410376 0 0.012763246094858441 0.00053889123944657813 0 0.0046633967375280857 -0.0027589179360780441 0 0.0043349067380329181 -0.0029501188233633782 0 0.0049266098690347437 -0.0031866887153552889 0 0.010577034248949397 -0.00082381742577868598 0 0.013451256110637444 0.00023263999554809585 0 0.014164856775151911 -7.3614515804480999e-05 0 0.015120007596045809 -0.00039149934726028218 0 0.014620119568292476 0.0003708179266075033 0 0.010577034248949397 -0.00082381742577868598 0 0.01222899261990841 -0.00051210974637618499 0 0.010422232544033903 -0.00066057525975110674 0 0.010335683822378604 -0.00065088548083462551 0 0.010454177823004587 -0.00065336142776314249 0 0.008020013333427398 -0.00096467191444561738 0 0.010577034248949397 -0.00082381742577868598 0 0.015806871518467529 -6.8100270764390416e-05 0 0.01585867429042289 -0.0001617092954723534 0 0.015120007596045809 -0.00039149934726028218 0 0.015806871518467529 -6.8100270764390416e-05 0 0.015120007596045809 -0.00039149934726028218 0 0.014620119568292476 0.0003708179266075033 0 0.015806871518467529 -6.8100270764390416e-05 0 0.015855157189044383 7.3384174221334126e-06 0 0.015909858133042475 4.7831072421055362e-05 0 0.015779565759424134 -3.9277313054764203e-05 0 0.015290519726378409 0.0001852598734860614 0 0.015806871518467529 -6.8100270764390416e-05 0 0.01585867429042289 -0.0001617092954723534 0 0.015831045456764184 3.3451145341804478e-05 0 0.015867503968306652 -0.00019772475853564516 0 0.015925149526672157 -0.00064722104835097829 0 0.01564430291222799 -0.0009008075290669813 0 0.01585867429042289 -0.0001617092954723534 0 0.016039919499267256 -0.0013550422612012094 0 0.01564430291222799 -0.0009008075290669813 0 0.015611047529173958 -0.00042680171745944237 0 0.01585867429042289 -0.0001617092954723534 0 0.015611047529173958 -0.00042680171745944237 0 0.01585867429042289 -0.0001617092954723534 0 0.015915380803664499 -0.0001549397941696908 0 0.013204623054173465 0.00051401918628732302 0 0.013204781367234799 0.0005010776873537599 0 0.013138982397197936 0.00060810855440313538 0 0.0087223518023877566 -0.00071849534946309549 0 0.0089891787663751999 -0.00081771680352996188 0 0.008659316578243547 -0.0005965622146124885 0 0.013204623054173465 0.00051401918628732302 0 0.013204781367234799 0.0005010776873537599 0 0.013188073681997965 0.00048251498185350851 0 0.010724080388174698 -2.9212194472561631e-06 0 0.010957398412167947 -2.8255305712013511e-05 0 0.0087223518023877566 -0.00071849534946309549 0 0.0084340551200058188 -0.0005569363960152519 0 0.008659316578243547 -0.0005965622146124885 0 0.01585867429042289 -0.0001617092954723534 0 0.015915380803664499 -0.0001549397941696908 0 0.015120007596045809 -0.00039149934726028218 0 0.0065177576560919541 -0.001425310819658452 0 0.0061087292481499375 -0.0015378949189647935 0 0.010724080388174698 -2.9212194472561631e-06 0 0.01222899261990841 -0.00051210974637618499 0 0.01490556156080837 0.00020418280639964808 0 0.01222899261990841 -0.00051210974637618499 0 0.0087223518023877566 -0.00071849534946309549 0 0.0089891787663751999 -0.00081771680352996188 0 0.0090378443606306015 -0.00089136705054929338 0 0.0037612170815984479 -0.0026546589759610206 0 0.0035765059151686247 -0.0023188872955164017 0 0.0033052370983895707 -0.002338059472732394 0 0.008020013333427398 -0.00096467191444561738 0 0.0065177576560919541 -0.001425310819658452 0 0.0091114880108786184 -0.00090623647415248143 0 0.0089891787663751999 -0.00081771680352996188 0 0.0090378443606306015 -0.00089136705054929338 0 0.014241495315895455 -0.00045974690916518625 0 0.014602382710448159 0.00032352428265246112 0 0.013470563758414832 -0.00021782994681855932 0 0.014241495315895455 -0.00045974690916518625 0 0.013400731081513823 -0.0008481660562016511 0 0.013470563758414832 -0.00021782994681855932 0 0.014241495315895455 -0.00045974690916518625 0 0.014222472509025053 -0.0010549799622138949 0 0.013400731081513823 -0.0008481660562016511 0 0.014721523990595566 -0.00082647125832343107 0 0.014241495315895455 -0.00045974690916518625 0 0.014222472509025053 -0.0010549799622138949 0 0.014241495315895455 -0.00045974690916518625 0 0.015082246715147981 -0.00033363649968746713 0 0.014602382710448159 0.00032352428265246112 0 0.014721523990595566 -0.00082647125832343107 0 0.014241495315895455 -0.00045974690916518625 0 0.015082246715147981 -0.00033363649968746713 0 0.015611047529173958 -0.00042680171745944237 0 0.015915380803664499 -0.0001549397941696908 0 0.015082246715147981 -0.00033363649968746713 0 0.014721523990595566 -0.00082647125832343107 0 0.015082246715147981 -0.00033363649968746713 0 0.015204601038225853 -0.00085959316303452888 0 0.014721523990595566 -0.00082647125832343107 0 0.015204601038225853 -0.00085959316303452888 0 0.014810323443688489 -0.001219505455314776 0 0.01564430291222799 -0.0009008075290669813 0 0.015204601038225853 -0.00085959316303452888 0 0.015428455862855975 -0.00060577450776038116 0 0.01564430291222799 -0.0009008075290669813 0 0.015611047529173958 -0.00042680171745944237 0 0.015428455862855975 -0.00060577450776038116 0 0.015082246715147981 -0.00033363649968746713 0 0.015204601038225853 -0.00085959316303452888 0 0.015428455862855975 -0.00060577450776038116 0 0.015611047529173958 -0.00042680171745944237 0 0.015082246715147981 -0.00033363649968746713 0 0.015428455862855975 -0.00060577450776038116 0 0.015915380803664499 -0.0001549397941696908 0 0.015082246715147981 -0.00033363649968746713 0 0.014602382710448159 0.00032352428265246112 0 0.013204781367234799 0.0005010776873537599 0 0.013070722097732424 0.00049828072542561653 0 0.013138982397197936 0.00060810855440313538 0 0.01490556156080837 0.00020418280639964808 0 0.013718137725255921 0.00038529468877441007 0 0.013070722097732424 0.00049828072542561653 0 0.012939992311479593 0.00060274919649378205 0 0.012741306229748671 0.00040702243367415507 0 0.014602382710448159 0.00032352428265246112 0 0.013470563758414832 -0.00021782994681855932 0 0.012741306229748671 0.00040702243367415507 0 0.013070722097732424 0.00049828072542561653 0 0.012939992311479593 0.00060274919649378205 0 0.013138982397197936 0.00060810855440313538 0 0.013718137725255921 0.00038529468877441007 0 0.012860380234242984 0.00042946331504362903 0 0.0081802397770340245 -0.00040722771854991751 0 0.0084340551200058188 -0.0005569363960152519 0 0.0083636503305092487 -0.00040281808043989128 0 0.012931429002936413 0.00084436045582991141 0 0.012939992311479593 0.00060274919649378205 0 0.013138982397197936 0.00060810855440313538 0 0.0097962461065200183 0.00024914413374194848 0 0.010957398412167947 -2.8255305712013511e-05 0 0.0097962461065200183 0.00024914413374194848 0 0.004964940166629535 -0.001276071654103574 0 0.0084340551200058188 -0.0005569363960152519 0 0.0083636503305092487 -0.00040281808043989128 0 0.008659316578243547 -0.0005965622146124885 0 0.0030700577475145313 -0.0021364479703645904 0 0.0033052370983895707 -0.002338059472732394 0 0.003244208882757249 -0.0021318032621083045 0 0.004964940166629535 -0.001276071654103574 0 0.0061087292481499375 -0.0015378949189647935 0 0.004964940166629535 -0.001276071654103574 0 0.0026743568709861648 -0.0021612763201873473 0 0.0022739986751269484 -0.002261530956900887 0 0.002535149823063148 -0.0018767060018369951 0 0.0028216708057278344 -0.0022079382520638364 0 0.002535149823063148 -0.0018767060018369951 0 0.0029432370356612969 -0.0018110591406405453 0 0.0024328461730437128 -0.0014236646235543785 0 0.002535149823063148 -0.0018767060018369951 0 0.0021496903674063776 -0.0017814020303371706 0 0.0024328461730437128 -0.0014236646235543785 0 0.0022739986751269484 -0.002261530956900887 0 0.002535149823063148 -0.0018767060018369951 0 0.0021496903674063776 -0.0017814020303371706 0 0.0021496903674063776 -0.0017814020303371706 0 0.0017686288741124369 -0.0019486820930243341 0 0.0017398042747826291 -0.0014162289394618974 0 0.004964940166629535 -0.001276071654103574 0 0.0039423480353407911 -0.00091507424829394019 0 0.0022739986751269484 -0.002261530956900887 0 0.0021496903674063776 -0.0017814020303371706 0 0.0017686288741124369 -0.0019486820930243341 0 0.0064573702040499129 -0.00011005119183165379 0 0.0064350823964781654 -0.0001229778675871942 0 0.0064496352948249271 -0.0001075410912504788 0 0.0037612170815984479 -0.0026546589759610206 0 0.0038358730670568441 -0.002225906466633466 0 0.0035765059151686247 -0.0023188872955164017 0 0.0038358730670568441 -0.002225906466633466 0 0.0035765059151686247 -0.0023188872955164017 0 0.0034318417972492394 -0.0020751949975890025 0 0.0035765059151686247 -0.0023188872955164017 0 0.0033052370983895707 -0.002338059472732394 0 0.0034318417972492394 -0.0020751949975890025 0 0.0033052370983895707 -0.002338059472732394 0 0.003244208882757249 -0.0021318032621083045 0 0.0034318417972492394 -0.0020751949975890025 0 0.0026743568709861648 -0.0021612763201873473 0 0.0034795045474221124 -0.0020908523610426353 0 0.0029432370356612969 -0.0018110591406405453 0 0.0034318417972492394 -0.0020751949975890025 0 0.0032287997624102912 -0.0014735320118597331 0 0.0028216708057278344 -0.0022079382520638364 0 0.0029432370356612969 -0.0018110591406405453 0 0.0034318417972492394 -0.0020751949975890025 0 0.002535149823063148 -0.0018767060018369951 0 0.0028216708057278344 -0.0022079382520638364 0 0.0029432370356612969 -0.0018110591406405453 0 0.0038374004605072941 -0.0017985953170290136 0 0.0034318417972492394 -0.0020751949975890025 0 0.0032287997624102912 -0.0014735320118597331 0 0.0038374004605072941 -0.0017985953170290136 0 0.0038358730670568441 -0.002225906466633466 0 0.0034318417972492394 -0.0020751949975890025 0 0.0037831507000727293 -0.0013275283569168276 0 0.0032287997624102912 -0.0014735320118597331 0 0.0034209553576370886 -0.00091106236608922136 0 0.0038374004605072941 -0.0017985953170290136 0 0.0037831507000727293 -0.0013275283569168276 0 0.0032287997624102912 -0.0014735320118597331 0 0.0029432370356612969 -0.0018110591406405453 0 0.0032287997624102912 -0.0014735320118597331 0 0.0024328461730437128 -0.0014236646235543785 0 0.0032287997624102912 -0.0014735320118597331 0 0.0028254063502499045 -0.0010752701948742534 0 0.0024328461730437128 -0.0014236646235543785 0 0.0028254063502499045 -0.0010752701948742534 0 0.0034209553576370886 -0.00091106236608922136 0 0.0028356169905352957 -0.00031750471279294042 0 0.0032287997624102912 -0.0014735320118597331 0 0.0028254063502499045 -0.0010752701948742534 0 0.0034209553576370886 -0.00091106236608922136 0 0.0037831507000727293 -0.0013275283569168276 0 0.0034209553576370886 -0.00091106236608922136 0 0.0041080214687130179 -0.00088747837509193129 0 0.0034209553576370886 -0.00091106236608922136 0 0.0037269031376667154 -0.0004012607546443396 0 0.0041080214687130179 -0.00088747837509193129 0 0.0017398042747826291 -0.0014162289394618974 0 0.0024328461730437128 -0.0014236646235543785 0 0.0017906316820629721 -0.00094561477735365909 0 0.0021496903674063776 -0.0017814020303371706 0 0.0017398042747826291 -0.0014162289394618974 0 0.0024328461730437128 -0.0014236646235543785 0 0.0024328461730437128 -0.0014236646235543785 0 0.002322195532869221 -0.00077175360885868029 0 0.0017906316820629721 -0.00094561477735365909 0 0.0028254063502499045 -0.0010752701948742534 0 0.0024328461730437128 -0.0014236646235543785 0 0.002322195532869221 -0.00077175360885868029 0 0.0028254063502499045 -0.0010752701948742534 0 0.002322195532869221 -0.00077175360885868029 0 0.0028356169905352957 -0.00031750471279294042 0 0.002322195532869221 -0.00077175360885868029 0 0.0017906316820629721 -0.00094561477735365909 0 0.0017586118017562139 -0.00038520566289355955 0 0.0017906316820629721 -0.00094561477735365909 0 0.0017586118017562139 -0.00038520566289355955 0 0.0014499907066888389 -0.00057244874367321581 0 0.0017586118017562139 -0.00038520566289355955 0 0.0014499907066888389 -0.00057244874367321581 0 0.0014396913017676999 -0.00025775768522018008 0 0.0017586118017562139 -0.00038520566289355955 0 0.0017309929194119194 -0.00023650469193652206 0 0.0020874290488516697 -0.00047840286407930296 0 0.002322195532869221 -0.00077175360885868029 0 0.0017586118017562139 -0.00038520566289355955 0 0.0028356169905352957 -0.00031750471279294042 0 0.0018095103990705219 -0.0003839250310633816 0 0.0024577376163411073 -0.00040530043218288219 0 0.0019040709962949583 -0.0001310741809959966 0 0.0017309929194119194 -0.00023650469193652206 0 0.0020874290488516697 -0.00047840286407930296 0 0.0017586118017562139 -0.00038520566289355955 0 0.0017309929194119194 -0.00023650469193652206 0 0.0015834463919481051 -0.00025604461511617135 0 0.0016351095020422099 -5.2298463199694583e-06 0 0.0019040709962949583 -0.0001310741809959966 0 0.0017309929194119194 -0.00023650469193652206 0 0.0016351095020422099 -5.2298463199694583e-06 0 0.0017309929194119194 -0.00023650469193652206 0 0.0014159412752176301 -0.00014761540815387287 0 0.0017309929194119194 -0.00023650469193652206 0 0.0014159412752176301 -0.00014761540815387287 0 0.0015834463919481051 -0.00025604461511617135 0 0.0017586118017562139 -0.00038520566289355955 0 0.0015834463919481051 -0.00025604461511617135 0 0.0014396913017676999 -0.00025775768522018008 0 0.0014159412752176301 -0.00014761540815387287 0 0.0015834463919481051 -0.00025604461511617135 0 0.0014396913017676999 -0.00025775768522018008 0 0.0034209553576370886 -0.00091106236608922136 0 0.0037269031376667154 -0.0004012607546443396 0 0.0028356169905352957 -0.00031750471279294042 0 0.0031708151603123519 -0.00049079584349202095 0 0.0024577376163411073 -0.00040530043218288219 0 0.0026135179944045584 -0.00057908017455586297 0 0.0020874290488516697 -0.00047840286407930296 0 0.0022314456232340784 -0.00016642685656855213 0 0.0019040709962949583 -0.0001310741809959966 0 0.0020874290488516697 -0.00047840286407930296 0 0.0022314456232340784 -0.00016642685656855213 0 0.0026135179944045584 -0.00057908017455586297 0 0.0022314456232340784 -0.00016642685656855213 0 0.0026704454530639002 -0.00013618790829359403 0 0.0026135179944045584 -0.00057908017455586297 0 0.0026704454530639002 -0.00013618790829359403 0 0.0031183539029533561 -0.00025526553555150507 0 0.0031708151603123519 -0.00049079584349202095 0 0.0038436111452255454 -0.00060432918615569765 0 0.0037269031376667154 -0.0004012607546443396 0 0.0044904394272111767 -0.00051718551349826699 0 0.0041080214687130179 -0.00088747837509193129 0 0.0026135179944045584 -0.00057908017455586297 0 0.003197479143175112 -0.00068539979399598078 0 0.0031183539029533561 -0.00025526553555150507 0 0.003197479143175112 -0.00068539979399598078 0 0.0031183539029533561 -0.00025526553555150507 0 0.0035948263141985853 -0.00039982752582098561 0 0.0035024095474560217 -0.0001022338908335569 0 0.0031183539029533561 -0.00025526553555150507 0 0.0035948263141985853 -0.00039982752582098561 0 0.0039598862795718398 -4.018512424061537e-05 0 0.0035024095474560217 -0.0001022338908335569 0 0.0035948263141985853 -0.00039982752582098561 0 0.0039598862795718398 -4.018512424061537e-05 0 0.0044494596709102711 -0.00013632882926174015 0 0.0040841766251921456 -0.00040695364461443902 0 0.0035948263141985853 -0.00039982752582098561 0 0.0040841766251921456 -0.00040695364461443902 0 0.0038756014613356201 -0.00085565957257084646 0 0.0039598862795718398 -4.018512424061537e-05 0 0.0035948263141985853 -0.00039982752582098561 0 0.0040841766251921456 -0.00040695364461443902 0 0.00499437859965755 -0.0010219234336747826 0 0.0040841766251921456 -0.00040695364461443902 0 0.0038756014613356201 -0.00085565957257084646 0 0.0038436111452255454 -0.00060432918615569765 0 0.0045201636818613068 -0.00074833318175859516 0 0.0044904394272111767 -0.00051718551349826699 0 0.0051504991961761467 -0.00063918854835752817 0 0.004846864522520155 -0.00084015432162502085 0 0.003197479143175112 -0.00068539979399598078 0 0.0035948263141985853 -0.00039982752582098561 0 0.0038756014613356201 -0.00085565957257084646 0 0.0051504991961761467 -0.00063918854835752817 0 0.004846864522520155 -0.00084015432162502085 0 0.0050936795137067354 -0.0011063768496923424 0 0.004846864522520155 -0.00084015432162502085 0 0.0050936795137067354 -0.0011063768496923424 0 0.004632080562832484 -0.0010931123761522771 0 0.0050936795137067354 -0.0011063768496923424 0 0.0049397579995336255 -0.0013625263419879555 0 0.004632080562832484 -0.0010931123761522771 0 0.0054721423618382071 -0.0010392483856074221 0 0.0050936795137067354 -0.0011063768496923424 0 0.0053715705453617904 -0.0013092846016616898 0 0.0054721423618382071 -0.0010392483856074221 0 0.0051504991961761467 -0.00063918854835752817 0 0.0050936795137067354 -0.0011063768496923424 0 0.0050936795137067354 -0.0011063768496923424 0 0.0053715705453617904 -0.0013092846016616898 0 0.0051765488038745958 -0.0014803183132411281 0 0.0050936795137067354 -0.0011063768496923424 0 0.0051765488038745958 -0.0014803183132411281 0 0.0049397579995336255 -0.0013625263419879555 0 0.0054796532510150179 -0.001590675622772083 0 0.0053715705453617904 -0.0013092846016616898 0 0.0051765488038745958 -0.0014803183132411281 0 0.0049397579995336255 -0.0013625263419879555 0 0.004698476418885612 -0.0015774352573096949 0 0.004632080562832484 -0.0010931123761522771 0 0.004987161728092996 -0.0016607459094221033 0 0.0051765488038745958 -0.0014803183132411281 0 0.0049397579995336255 -0.0013625263419879555 0 0.004987161728092996 -0.0016607459094221033 0 0.0049397579995336255 -0.0013625263419879555 0 0.004698476418885612 -0.0015774352573096949 0 0.0042809379132102273 -0.0015995818880626812 0 0.0041080214687130179 -0.00088747837509193129 0 0.004632080562832484 -0.0010931123761522771 0 0.004698476418885612 -0.0015774352573096949 0 0.0042809379132102273 -0.0015995818880626812 0 0.004632080562832484 -0.0010931123761522771 0 0.0038374004605072941 -0.0017985953170290136 0 0.0037831507000727293 -0.0013275283569168276 0 0.0042809379132102273 -0.0015995818880626812 0 0.0037831507000727293 -0.0013275283569168276 0 0.0042809379132102273 -0.0015995818880626812 0 0.0041080214687130179 -0.00088747837509193129 0 0.0044904394272111767 -0.00051718551349826699 0 0.0041080214687130179 -0.00088747837509193129 0 0.004632080562832484 -0.0010931123761522771 0 0.0044904394272111767 -0.00051718551349826699 0 0.004846864522520155 -0.00084015432162502085 0 0.004632080562832484 -0.0010931123761522771 0 0.0055502646792203823 -0.00010887739127159165 0 0.0070729032425765814 1.0654029863669171e-06 0 0.0061716230523396415 -0.00061201056906477064 0 0.0070729032425765814 1.0654029863669171e-06 0 0.0061716230523396415 -0.00061201056906477064 0 0.0091701583731339537 -3.2009294441022934e-06 0 0.0078344770417221998 -0.00012388343534414675 0 0.0055887166027666609 -0.0012740572451396767 0 0.0055502646792203823 -0.00010887739127159165 0 0.0061716230523396415 -0.00061201056906477064 0 0.0050074240975630929 -0.0005168252511581397 0 0.0090783854411467472 4.6798769125317066e-05 0 0.0087785771924503257 0.00012622858170656672 0 0.0087630769698103621 8.7325216004230119e-06 0 0.007088779358517182 -0.00064913481251562119 0 0.0088945163613513151 -0.00042334138641700222 0 0.0061241360309648015 -0.0012131434360963835 0 0.0056725505743163221 -0.001285087381917306 0 0.0064694461666495061 -0.001526696368004124 0 0.0061241360309648015 -0.0012131434360963835 0 0.0065488369902071096 -0.0011319363895116112 0 0.0058063459310932391 -0.0009088407985825387 0 0.0055887166027666609 -0.0012740572451396767 0 0.0030866631700537136 -0.0026202765759306334 0 0.0055887166027666609 -0.0012740572451396767 0 0.0088945163613513151 -0.00042334138641700222 0 0.0061241360309648015 -0.0012131434360963835 0 0.0065488369902071096 -0.0011319363895116112 0 0.0064694461666495061 -0.001526696368004124 0 0.0022700100973085655 -0.0029443753842556312 0 0.0020484715030777536 -0.0023695823041910043 0 0.0024913599576221394 -0.0019491557772524026 0 0.0020484715030777536 -0.0023695823041910043 0 0.0018590021736599853 -0.0017108347537141057 0 0.0015590765692802223 -0.0027505365552158625 0 0.0022700100973085655 -0.0029443753842556312 0 0.0020484715030777536 -0.0023695823041910043 0 0.0015590765692802223 -0.0027505365552158625 0 0.0055887166027666609 -0.0012740572451396767 0 0.0032737302648867331 -0.0010678532036853359 0 0.0055502646792203823 -0.00010887739127159165 0 0.0050074240975630929 -0.0005168252511581397 0 0.0047417722294860317 -3.2186130966915245e-06 0 0.0024913599576221394 -0.0019491557772524026 0 0.0018590021736599853 -0.0017108347537141057 0 0.0023116136811682773 -0.0011442195276915729 0 0.0020484715030777536 -0.0023695823041910043 0 0.0024913599576221394 -0.0019491557772524026 0 0.0018590021736599853 -0.0017108347537141057 0 0.0018590021736599853 -0.0017108347537141057 0 0.0023116136811682773 -0.0011442195276915729 0 0.0020804203246986663 -0.00048230834308497772 0 0.0015357698823630244 -0.0024840049862218804 0 0.0020804203246986663 -0.00048230834308497772 0 0.0011378888583311786 -0.0013065983417083291 0 0.0013849172812191541 -0.0023114748573566982 0 0.0021871388160909899 -0.00045471354048420582 0 0.0024913599576221394 -0.0019491557772524026 0 0.0023116136811682773 -0.0011442195276915729 0 0.0029767965036351491 -0.00038720290873398911 0 0.0032737302648867331 -0.0010678532036853359 0 0.0032073025711442703 -0.00027123754897990913 0 0.0047417722294860317 -3.2186130966915245e-06 0 0.0044476664313793397 -6.2784318788180966e-05 0 0.0029767965036351491 -0.00038720290873398911 0 0.0044476664313793397 -6.2784318788180966e-05 0 0.0035112870396389693 -6.9195788184804062e-05 0 0.0029767965036351491 -0.00038720290873398911 0 0.0055502646792203823 -0.00010887739127159165 0 0.0047417722294860317 -3.2186130966915245e-06 0 0.0044476664313793397 -6.2784318788180966e-05 0 0.0070729032425765814 1.0654029863669171e-06 0 0.0044476664313793397 -6.2784318788180966e-05 0 0.0049705639155404819 -3.2320249335628967e-07 0 0.0055502646792203823 -0.00010887739127159165 0 0.0070729032425765814 1.0654029863669171e-06 0 0.0044476664313793397 -6.2784318788180966e-05 0 0.0044476664313793397 -6.2784318788180966e-05 0 0.0049705639155404819 -3.2320249335628967e-07 0 0.0035112870396389693 -6.9195788184804062e-05 0 0.0049705639155404819 -3.2320249335628967e-07 0 0.0035112870396389693 -6.9195788184804062e-05 0 0.0028694771780282124 -6.5295154052485092e-08 0 0.0035112870396389693 -6.9195788184804062e-05 0 0.0027109753675475874 -0.00013098119384004312 0 0.0029767965036351491 -0.00038720290873398911 0 0.0035112870396389693 -6.9195788184804062e-05 0 0.0027109753675475874 -0.00013098119384004312 0 0.0021959027197381315 -3.4155274644796333e-05 0 0.0027109753675475874 -0.00013098119384004312 0 0.0021959027197381315 -3.4155274644796333e-05 0 0.0020158045366415484 -9.164945688084673e-05 0 0.0035112870396389693 -6.9195788184804062e-05 0 0.0021959027197381315 -3.4155274644796333e-05 0 0.0028694771780282124 -6.5295154052485092e-08 0 0.0021959027197381315 -3.4155274644796333e-05 0 0.0001705156881751939 0.00025645263332623412 0 0.00076807942338241177 3.8802375564603644e-07 0 0.0021959027197381315 -3.4155274644796333e-05 0 0.0001705156881751939 0.00025645263332623412 0 0.0011947159252965725 -0.00013455831614728542 0 0.0021959027197381315 -3.4155274644796333e-05 0 0.0028694771780282124 -6.5295154052485092e-08 0 0.00076807942338241177 3.8802375564603644e-07 0 -0.0005459806574619557 0.00031039557855456736 0 -0.00013786324285118453 7.0910170469668733e-05 0 -0.0010495303679463328 0.00015691943551696631 0 -0.0005459806574619557 0.00031039557855456736 0 0.0001705156881751939 0.00025645263332623412 0 -0.00013786324285118453 7.0910170469668733e-05 0 0.0001705156881751939 0.00025645263332623412 0 -0.00013786324285118453 7.0910170469668733e-05 0 0.0011947159252965725 -0.00013455831614728542 0 0.0011016310761659796 -0.00015252003915246557 0 9.8221572732043967e-05 -0.00029526414136489516 0 -0.00013786324285118453 7.0910170469668733e-05 0 0.0011947159252965725 -0.00013455831614728542 0 -0.00094336511404663405 -0.00091461249428264615 0 0.0016120585096319874 -6.0719634708554682e-05 0 0.0011311504059649828 -0.00043279491275299403 0 0.0011711699465928739 0.00029582070683474397 0 0.0011947159252965725 -0.00013455831614728542 0 0.0016120585096319874 -6.0719634708554682e-05 0 0.0011711699465928739 0.00029582070683474397 0 0.0021959027197381315 -3.4155274644796333e-05 0 0.0011947159252965725 -0.00013455831614728542 0 0.0020158045366415484 -9.164945688084673e-05 0 0.0011947159252965725 -0.00013455831614728542 0 0.0016120585096319874 -6.0719634708554682e-05 0 0.0020158045366415484 -9.164945688084673e-05 0 0.0027109753675475874 -0.00013098119384004312 0 0.0020158045366415484 -9.164945688084673e-05 0 0.0029767965036351491 -0.00038720290873398911 0 0.0020158045366415484 -9.164945688084673e-05 0 0.0029767965036351491 -0.00038720290873398911 0 0.0020804203246986663 -0.00048230834308497772 0 0.0016120585096319874 -6.0719634708554682e-05 0 0.0020158045366415484 -9.164945688084673e-05 0 0.0020804203246986663 -0.00048230834308497772 0 0.0023116136811682773 -0.0011442195276915729 0 0.0029767965036351491 -0.00038720290873398911 0 0.0020804203246986663 -0.00048230834308497772 0 0.0016120585096319874 -6.0719634708554682e-05 0 0.0020804203246986663 -0.00048230834308497772 0 0.0011311504059649828 -0.00043279491275299403 0 0.0020804203246986663 -0.00048230834308497772 0 0.0011311504059649828 -0.00043279491275299403 0 0.0011378888583311786 -0.0013065983417083291 0 0.00032580043430150476 -0.0011821702758075809 0 0.0011311504059649828 -0.00043279491275299403 0 0.0011378888583311786 -0.0013065983417083291 0 0.00032580043430150476 -0.0011821702758075809 0 -0.00065679325985787743 9.1401971078277063e-05 0 -0.00070660325310063256 -0.0012258812948781929 0 0.00032580043430150476 -0.0011821702758075809 0 0.0011311504059649828 -0.00043279491275299403 0 -0.00065679325985787743 9.1401971078277063e-05 0 9.8221572732043967e-05 -0.00029526414136489516 0 -0.0013721349778185407 -0.00039777179253076795 0 0.0011311504059649828 -0.00043279491275299403 0 0.0011711699465928739 0.00029582070683474397 0 -0.00065679325985787743 9.1401971078277063e-05 0 -0.00013786324285118453 7.0910170469668733e-05 0 -0.00094336511404663405 -0.00091461249428264615 0 -0.0015792490928934982 -0.00038234217062118469 0 -0.0015792490928934982 -0.00038234217062118469 0 -0.0022158719674943354 -0.00031725033750039052 0 -0.002125308157731712 -0.00085381793346307354 0 -0.00094336511404663405 -0.00091461249428264615 0 -0.0015792490928934982 -0.00038234217062118469 0 -0.002125308157731712 -0.00085381793346307354 0 -0.0015792490928934982 -0.00038234217062118469 0 -0.001953065557441111 0.0001137516901589796 0 -0.0022158719674943354 -0.00031725033750039052 0 -0.0015792490928934982 -0.00038234217062118469 0 -0.001953065557441111 0.0001137516901589796 0 -0.0010495303679463328 0.00015691943551696631 0 -0.00013786324285118453 7.0910170469668733e-05 0 -0.0015792490928934982 -0.00038234217062118469 0 -0.0010495303679463328 0.00015691943551696631 0 -0.0030828514249934855 0.0002525625829892772 0 -0.0026381118753185983 -4.4142180054011846e-05 0 -0.0032012688994521705 -0.00016935593814583022 0 -0.0026381118753185983 -4.4142180054011846e-05 0 -0.002653996542283221 -0.00040080838861788944 0 -0.0032012688994521705 -0.00016935593814583022 0 -0.001953065557441111 0.0001137516901589796 0 -0.0026381118753185983 -4.4142180054011846e-05 0 -0.0022158719674943354 -0.00031725033750039052 0 -0.0022158719674943354 -0.00031725033750039052 0 -0.002653996542283221 -0.00040080838861788944 0 -0.002125308157731712 -0.00085381793346307354 0 -0.0026381118753185983 -4.4142180054011846e-05 0 -0.0022158719674943354 -0.00031725033750039052 0 -0.002653996542283221 -0.00040080838861788944 0 -0.002653996542283221 -0.00040080838861788944 0 -0.0025734953956033143 -0.0006077975430420526 0 -0.002125308157731712 -0.00085381793346307354 0 -0.0024868803213430771 -0.00058497170207824536 0 -0.0013721349778185407 -0.00039777179253076795 0 -0.0025734953956033143 -0.0006077975430420526 0 -0.00065679325985787743 9.1401971078277063e-05 0 -0.0015893132851128458 -0.00095362744551430987 0 -0.00065679325985787743 9.1401971078277063e-05 0 -0.0015893132851128458 -0.00095362744551430987 0 -0.00070660325310063256 -0.0012258812948781929 0 -0.0015893132851128458 -0.00095362744551430987 0 -0.00070660325310063256 -0.0012258812948781929 0 -0.0013687605328099677 -0.0017851939365545687 0 -0.0015893132851128458 -0.00095362744551430987 0 -0.0025076337850093557 -0.0012582523468091208 0 -0.0013687605328099677 -0.0017851939365545687 0 -0.0025734953956033143 -0.0006077975430420526 0 -0.0015893132851128458 -0.00095362744551430987 0 -0.0025076337850093557 -0.0012582523468091208 0 -0.0025076337850093557 -0.0012582523468091208 0 -0.0024903606982554392 -0.0020902745455541652 0 -0.0013687605328099677 -0.0017851939365545687 0 -3.7534181136467374e-05 -0.0013523984117214428 0 0.0015321844570184563 -0.0022016460122698763 0 -0.0024903606982554392 -0.0020902745455541652 0 -0.0015105264021296075 -0.00307624439826725 0 -0.0013687605328099677 -0.0017851939365545687 0 0.0023222703912670895 -0.00065062468000719176 0 0.0032640974321049595 -0.0015954495721219805 0 0.0022277244649343522 -0.0015279358104417409 0 0.0032640974321049595 -0.0015954495721219805 0 0.0032363941283989677 -0.0018410354918831789 0 0.0022277244649343522 -0.0015279358104417409 0 -0.00085347126150607088 -0.0028514638418193302 0 -0.0014665252349166987 -0.0030833014024894928 0 -0.0013687605328099677 -0.0017851939365545687 0 0.0015321844570184563 -0.0022016460122698763 0 -0.0019198151875876709 -0.0023070263723038061 0 -0.00085347126150607088 -0.0028514638418193302 0 -0.0013687605328099677 -0.0017851939365545687 0 -0.00020497498163988333 -0.0022612864303252645 0 -0.00085347126150607088 -0.0028514638418193302 0 -0.0014665252349166987 -0.0030833014024894928 0 -0.001091002722469307 -0.0034769477312455209 0 -0.00070660325310063256 -0.0012258812948781929 0 -0.0013687605328099677 -0.0017851939365545687 0 -0.00020497498163988333 -0.0022612864303252645 0 0.00032580043430150476 -0.0011821702758075809 0 0.00064139877098659157 -0.0020529060497304222 0 -0.00020497498163988333 -0.0022612864303252645 0 0.00032580043430150476 -0.0011821702758075809 0 -0.00070660325310063256 -0.0012258812948781929 0 -0.00020497498163988333 -0.0022612864303252645 0 0.0015357698823630244 -0.0024840049862218804 0 0.0011378888583311786 -0.0013065983417083291 0 0.00064139877098659157 -0.0020529060497304222 0 0.00032580043430150476 -0.0011821702758075809 0 0.0011378888583311786 -0.0013065983417083291 0 0.00064139877098659157 -0.0020529060497304222 0 0.0015357698823630244 -0.0024840049862218804 0 0.00064139877098659157 -0.0020529060497304222 0 0.00054421211686873439 -0.0029560894669486654 0 0.00064139877098659157 -0.0020529060497304222 0 0.00054421211686873439 -0.0029560894669486654 0 -0.00020497498163988333 -0.0022612864303252645 0 -0.00085347126150607088 -0.0028514638418193302 0 -0.00020497498163988333 -0.0022612864303252645 0 -0.00010445297990408635 -0.0037944683198408106 0 0.00054421211686873439 -0.0029560894669486654 0 -0.00020497498163988333 -0.0022612864303252645 0 -0.00010445297990408635 -0.0037944683198408106 0 0.0045097089304622804 -0.0014137907387547788 0 0.0044919062944339654 -0.0016818241784153037 0 0.0040908792393531826 -0.0012832981668882482 0 0.0019021337540488052 -0.0025095888785158695 0 0.0036190104811198746 -0.0016200024866030833 0 0.0015357698823630244 -0.0024840049862218804 0 0.00054421211686873439 -0.0029560894669486654 0 0.00091079672993534802 -0.0041142181705663642 0 0.00054421211686873439 -0.0029560894669486654 0 -0.00010445297990408635 -0.0037944683198408106 0 0.00091079672993534802 -0.0041142181705663642 0 0.0013849172812191541 -0.0023114748573566982 0 0.0030866631700537136 -0.0026202765759306334 0 0.0045097089304622804 -0.0014137907387547788 0 0.0049192408169216103 -0.0015468382210993596 0 0.0046901615484774926 -0.0016073550263394261 0 0.0019021337540488052 -0.0025095888785158695 0 0.0030866631700537136 -0.0026202765759306334 0 0.0061241360309648015 -0.0012131434360963835 0 0.0058063459310932391 -0.0009088407985825387 0 0.0056725505743163221 -0.001285087381917306 0 0.0030866631700537136 -0.0026202765759306334 0 0.007088779358517182 -0.00064913481251562119 0 0.0049192408169216103 -0.0015468382210993596 0 0.0046901615484774926 -0.0016073550263394261 0 0.0048378132367867012 -0.001786068176177903 0 0.007870955144810423 -0.00033034202650019593 0 0.0074048185649499302 -0.00018579614043948839 0 0.0077825630026439243 -0.00057130533791897864 0 0.007088779358517182 -0.00064913481251562119 0 0.008664857986524532 -0.00014864692882612194 0 0.0082222140604369769 9.367024443051609e-06 0 0.0082205901504360662 8.7164334502498469e-06 0 0.0081975501788518462 1.271350740044432e-06 0 0.0082298402910710011 1.0156698620526114e-05 0 0.0082205901504360662 8.7164334502498469e-06 0 0.008231452184723138 9.6830723328168063e-06 0 0.0070746211684498605 -0.00041348663337022586 0 0.0076074721633133269 -0.00043834636081989235 0 0.0046901615484774926 -0.0016073550263394261 0 0.0048378132367867012 -0.001786068176177903 0 0.0044919062944339654 -0.0016818241784153037 0 0.0045097089304622804 -0.0014137907387547788 0 0.0046901615484774926 -0.0016073550263394261 0 0.0044919062944339654 -0.0016818241784153037 0 0.0070746211684498605 -0.00041348663337022586 0 0.008664857986524532 -0.00014864692882612194 0 0.0082298402910710011 1.0156698620526114e-05 0 0.0082416242519977988 1.0937355985522001e-05 0 0.0082460774044832066 1.0846561053592019e-05 0 0.007088779358517182 -0.00064913481251562119 0 0.0070746211684498605 -0.00041348663337022586 0 0.0082298402910710011 1.0156698620526114e-05 0 0.008231452184723138 9.6830723328168063e-06 0 0.0082416242519977988 1.0937355985522001e-05 0 0.0082206713546475654 6.8046910091717623e-06 0 0.0082386882760643008 9.6030088052538616e-06 0 0.0081938593572341636 -9.4115560911492977e-07 0 0.008231452184723138 9.6830723328168063e-06 0 0.0082206713546475654 6.8046910091717623e-06 0 0.0082414049871914682 1.1926699387705429e-05 0 0.0082206713546475654 6.8046910091717623e-06 0 0.0082386882760643008 9.6030088052538616e-06 0 0.0082414049871914682 1.1926699387705429e-05 0 0.0082205901504360662 8.7164334502498469e-06 0 0.008231452184723138 9.6830723328168063e-06 0 0.0082206713546475654 6.8046910091717623e-06 0 0.0084327860665526812 0.00015543228316248567 0 0.0084356406781232705 0.000120166984693736 0 0.0084821390110282786 0.0001606820071149741 0 0.0085177118607022775 0.0002523485830684516 0 0.0051373771515537351 -0.00075523171701248734 0 0.0084327860665526812 0.00015543228316248567 0 0.0084356406781232705 0.000120166984693736 0 0.0083734666762943256 8.4301758858069338e-05 0 0.0084356406781232705 0.000120166984693736 0 0.0083734666762943256 8.4301758858069338e-05 0 0.0084194667073316139 7.2054851038110655e-05 0 0.0051373771515537351 -0.00075523171701248734 0 0.0057885401307263161 -0.00086059410365918747 0 0.0070746211684498605 -0.00041348663337022586 0 0.0036190104811198746 -0.0016200024866030833 0 -0.00085347126150607088 -0.0028514638418193302 0 -0.00010445297990408635 -0.0037944683198408106 0 -0.001091002722469307 -0.0034769477312455209 0 0.0026877008075603848 -0.0014996680151535067 0 0.0026295862767508212 -0.0019632857742156954 0 0.0033610816778524926 -0.0021920371251113705 0 0.0082206713546475654 6.8046910091717623e-06 0 0.0081938593572341636 -9.4115560911492977e-07 0 0.0081975501788518462 1.271350740044432e-06 0 0.0015321844570184563 -0.0022016460122698763 0 0.0051373771515537351 -0.00075523171701248734 0 0.0051373771515537351 -0.00075523171701248734 0 0.0036190104811198746 -0.0016200024866030833 0 0.0015321844570184563 -0.0022016460122698763 0 0.0036190104811198746 -0.0016200024866030833 0 0.0082205901504360662 8.7164334502498469e-06 0 0.0082206713546475654 6.8046910091717623e-06 0 0.0081975501788518462 1.271350740044432e-06 0 0.005906495820344377 0.00062682200210365077 0 0.0054079287227149645 0.00091928286130754341 0 0.0059399353176473463 0.0012468992550061914 0 0.0078540503603222542 0.00067203367545878737 0 0.0028077908408434436 -0.00028877644601381971 0 0.0085154345902789339 0.00014358232697037093 0 0.0084445130667237019 6.0118323793903869e-05 0 0.0084194667073316139 7.2054851038110655e-05 0 0.0084356406781232705 0.000120166984693736 0 0.0085154345902789339 0.00014358232697037093 0 0.0084194667073316139 7.2054851038110655e-05 0 0.0084821390110282786 0.0001606820071149741 0 0.0085154345902789339 0.00014358232697037093 0 0.0085229907595805853 0.00019305261311421346 0 0.0084356406781232705 0.000120166984693736 0 0.0084821390110282786 0.0001606820071149741 0 0.0085154345902789339 0.00014358232697037093 0 0.005906495820344377 0.00062682200210365077 0 0.0054079287227149645 0.00091928286130754341 0 0.005471687368400706 0.00028796690667253638 0 0.0051443591680418984 0.00058365611000268708 0 0.0054079287227149645 0.00091928286130754341 0 0.005471687368400706 0.00028796690667253638 0 0.0051443591680418984 0.00058365611000268708 0 0.0054079287227149645 0.00091928286130754341 0 0.0049019992671444522 0.0009525213412485945 0 0.0054079287227149645 0.00091928286130754341 0 0.0049696373024681311 0.0012597846759761031 0 0.0049019992671444522 0.0009525213412485945 0 0.00051274538384159414 0.00012627167473188412 0 0.0028077908408434436 -0.00028877644601381971 0 0.0054079287227149645 0.00091928286130754341 0 0.005307404524054855 0.0014607707038209639 0 0.0059399353176473463 0.0012468992550061914 0 0.0054079287227149645 0.00091928286130754341 0 0.005307404524054855 0.0014607707038209639 0 0.0049696373024681311 0.0012597846759761031 0 0.00051274538384159414 0.00012627167473188412 0 -0.00027798456280021171 0.00051783790835000377 0 0.005307404524054855 0.0014607707038209639 0 0.0046576458055724518 0.001664444753658864 0 0.0049696373024681311 0.0012597846759761031 0 -0.0038429792599193103 -0.0012513483158044889 0 -0.00401523009315332 -0.00092976173446628193 0 -0.0042912845701455647 -0.0010910618217139189 0 -0.0038429792599193103 -0.0012513483158044889 0 -0.0035204769564930786 -0.0010754228533933299 0 -0.0033343023391858746 -0.0014016201609871083 0 -0.0038429792599193103 -0.0012513483158044889 0 -0.0035204769564930786 -0.0010754228533933299 0 -0.0036827177458983447 -0.00087817293952282866 0 -0.0038429792599193103 -0.0012513483158044889 0 -0.0036827177458983447 -0.00087817293952282866 0 -0.00401523009315332 -0.00092976173446628193 0 0.0028077908408434436 -0.00028877644601381971 0 -0.0019195347358337824 -0.00084151894260018646 0 -0.0035204769564930786 -0.0010754228533933299 0 -0.0033343023391858746 -0.0014016201609871083 0 -0.0033420925127056671 -0.00094913546417454856 0 0.0023222703912670895 -0.00065062468000719176 0 0.0012256690104757531 -0.0012132750699687792 0 0.0022277244649343522 -0.0015279358104417409 0 0.0028077908408434436 -0.00028877644601381971 0 0.0057885401307263161 -0.00086059410365918747 0 -0.0025076337850093557 -0.0012582523468091208 0 -0.0024903606982554392 -0.0020902745455541652 0 -0.0032270606958517919 -0.0011861829536516909 0 -3.7534181136467374e-05 -0.0013523984117214428 0 -0.0019195347358337824 -0.00084151894260018646 0 0.0023222703912670895 -0.00065062468000719176 0 0.0012256690104757531 -0.0012132750699687792 0 0.0013847279379975901 0.00028322282959673324 0 -0.0028514141195227919 -0.00085547412707101436 0 -0.0032270606958517919 -0.0011861829536516909 0 -0.0030290181990807585 -0.00049036231134494347 0 -0.0025076337850093557 -0.0012582523468091208 0 -0.0028514141195227919 -0.00085547412707101436 0 -0.0032270606958517919 -0.0011861829536516909 0 -0.0025734953956033143 -0.0006077975430420526 0 -0.0025076337850093557 -0.0012582523468091208 0 -0.0028514141195227919 -0.00085547412707101436 0 -0.0035204769564930786 -0.0010754228533933299 0 -0.0034011006944099221 -0.00090272792155048857 0 -0.0036827177458983447 -0.00087817293952282866 0 -0.0033530917060083623 -0.00094947016941437359 0 -0.0034011006944099221 -0.00090272792155048857 0 -0.0033220131924825958 -0.00059632452499889523 0 -0.0034011006944099221 -0.00090272792155048857 0 -0.0035585028311526539 -0.00069291979808627823 0 -0.0036827177458983447 -0.00087817293952282866 0 -0.0035204769564930786 -0.0010754228533933299 0 -0.0033420925127056671 -0.00094913546417454856 0 -0.0034011006944099221 -0.00090272792155048857 0 -0.0019195347358337824 -0.00084151894260018646 0 -0.0023750004217696708 -0.00062818512903477545 0 -0.0034011006944099221 -0.00090272792155048857 0 -0.0035585028311526539 -0.00069291979808627823 0 -0.0033220131924825958 -0.00059632452499889523 0 -0.0035585028311526539 -0.00069291979808627823 0 -0.0033220131924825958 -0.00059632452499889523 0 -0.0036135940936033954 -0.00041061625069215843 0 -0.0025734953956033143 -0.0006077975430420526 0 -0.0028514141195227919 -0.00085547412707101436 0 -0.0030290181990807585 -0.00049036231134494347 0 -0.002653996542283221 -0.00040080838861788944 0 -0.0025734953956033143 -0.0006077975430420526 0 -0.0030290181990807585 -0.00049036231134494347 0 -0.0019195347358337824 -0.00084151894260018646 0 -0.0033188991464073729 -0.00061237242396614433 0 -0.0033188991464073729 -0.00061237242396614433 0 -0.0031580614314012955 -0.00014252239564997469 0 -0.002653996542283221 -0.00040080838861788944 0 -0.0030290181990807585 -0.00049036231134494347 0 -0.0032012688994521705 -0.00016935593814583022 0 -0.0033220131924825958 -0.00059632452499889523 0 -0.0036135940936033954 -0.00041061625069215843 0 -0.0032012688994521705 -0.00016935593814583022 0 -0.0034913924659332679 0.0002140082793994981 0 -0.0037144375681647337 -6.4697294296953676e-05 0 -0.0032012688994521705 -0.00016935593814583022 0 -0.0036135940936033954 -0.00041061625069215843 0 -0.0037144375681647337 -6.4697294296953676e-05 0 -0.0032012688994521705 -0.00016935593814583022 0 -0.0042101995834240699 -0.00013968323674389888 0 -0.004083700242482489 5.7899205568907392e-05 0 -0.0039587238568959404 -0.00031158346987493322 0 -0.0037144375681647337 -6.4697294296953676e-05 0 -0.004083700242482489 5.7899205568907392e-05 0 -0.0039587238568959404 -0.00031158346987493322 0 -0.0036135940936033954 -0.00041061625069215843 0 -0.0039587238568959404 -0.00031158346987493322 0 -0.0038480100204508166 -0.0006402199162154719 0 -0.0036135940936033954 -0.00041061625069215843 0 -0.0037144375681647337 -6.4697294296953676e-05 0 -0.0039587238568959404 -0.00031158346987493322 0 -0.0049652626059139898 3.8905197974878198e-05 0 -0.0057189204116546806 -0.00027797276901789594 0 -0.0042101995834240699 -0.00013968323674389888 0 -0.0039587238568959404 -0.00031158346987493322 0 -0.0042344231979800822 -0.00064692063763421577 0 -0.0039587238568959404 -0.00031158346987493322 0 -0.0038480100204508166 -0.0006402199162154719 0 -0.0042344231979800822 -0.00064692063763421577 0 -0.0038480100204508166 -0.0006402199162154719 0 -0.00401523009315332 -0.00092976173446628193 0 -0.0042344231979800822 -0.00064692063763421577 0 -0.0035585028311526539 -0.00069291979808627823 0 -0.0038480100204508166 -0.0006402199162154719 0 -0.0036827177458983447 -0.00087817293952282866 0 -0.0035585028311526539 -0.00069291979808627823 0 -0.0036135940936033954 -0.00041061625069215843 0 -0.0038480100204508166 -0.0006402199162154719 0 -0.0038480100204508166 -0.0006402199162154719 0 -0.0036827177458983447 -0.00087817293952282866 0 -0.00401523009315332 -0.00092976173446628193 0 -0.00401523009315332 -0.00092976173446628193 0 -0.0042344231979800822 -0.00064692063763421577 0 -0.0042912845701455647 -0.0010910618217139189 0 -0.0057189204116546806 -0.00027797276901789594 0 -0.00027798456280021171 0.00051783790835000377 0 -0.005763539665103636 0.0005460212546897162 0 -0.0052285150133006258 0.00097826006722148478 0 -0.0055360346895317845 0.0010729203676983403 0 -0.005763539665103636 0.0005460212546897162 0 -0.0052135392164843995 0.00042157622414212256 0 -0.0052285150133006258 0.00097826006722148478 0 -0.005763539665103636 0.0005460212546897162 0 -0.0055334325540847698 1.5756984725739935e-05 0 -0.0052135392164843995 0.00042157622414212256 0 -0.0059613394629956665 7.0984569267571487e-05 0 -0.005763539665103636 0.0005460212546897162 0 -0.0055334325540847698 1.5756984725739935e-05 0 -0.0062354510693132968 -5.6075256053267098e-05 0 -0.0069205332949272254 -0.00024455180325156181 0 -0.0058522702228097304 -0.00028974367394095439 0 -0.0059613394629956665 7.0984569267571487e-05 0 -0.0055334325540847698 1.5756984725739935e-05 0 -0.0072652216483258458 -0.00030127118280104273 0 -0.0072269869726025717 -0.00032383027691661984 0 -0.007193650062945452 -0.00029171620903788083 0 -0.0072260642274412064 -0.00028629814273951741 0 -0.0072652216483258458 -0.00030127118280104273 0 -0.007193650062945452 -0.00029171620903788083 0 -0.0071888441808287502 -0.00033772416177337326 0 -0.0072269869726025717 -0.00032383027691661984 0 -0.0072219003794526913 -0.00027042537007201326 0 -0.0072269869726025717 -0.00032383027691661984 0 -0.007193650062945452 -0.00029171620903788083 0 -0.0072219003794526913 -0.00027042537007201326 0 -0.007193650062945452 -0.00029171620903788083 0 -0.0071375705131548504 -0.00024452250841974505 0 -0.0072219003794526913 -0.00027042537007201326 0 -0.0071685991550250773 -0.00027352811795293105 0 -0.007193650062945452 -0.00029171620903788083 0 -0.0071375705131548504 -0.00024452250841974505 0 -0.0071375705131548504 -0.00024452250841974505 0 -0.0072219003794526913 -0.00027042537007201326 0 -0.00704024487323744 -0.00013600120013063452 0 -0.0071685991550250773 -0.00027352811795293105 0 -0.0071375705131548504 -0.00024452250841974505 0 -0.00704024487323744 -0.00013600120013063452 0 -0.0069205332949272254 -0.00024455180325156181 0 -0.0015045244921256058 0.0011468950300983656 0 -0.0072219003794526913 -0.00027042537007201326 0 -0.00704024487323744 -0.00013600120013063452 0 -0.0070979293818453316 -4.9989286009527936e-05 0 -0.0015045244921256058 0.0011468950300983656 0 -0.00048688927217744687 0.001533878986482708 0 -0.0052135392164843995 0.00042157622414212256 0 -0.0048950777667305092 0.00088201234872125299 0 -0.0052285150133006258 0.00097826006722148478 0 -0.0068661507025346317 -9.0904734869355115e-05 0 -0.00704024487323744 -0.00013600120013063452 0 -0.0070979293818453316 -4.9989286009527936e-05 0 -0.0020745335345418712 0.0012099017362736354 0 -0.0015045244921256058 0.0011468950300983656 0 0.0036519544435713231 0.0022256711217842028 0 0.0033973640639083759 0.0016957904455628099 0 0.0038338175930064124 0.0018133821964284123 0 0.0028144986083024947 0.0019007063473361527 0 0.0035319310827718517 0.0022263039118712068 0 0.0032599254723117777 0.0016401443597764435 0 -0.0015045244921256058 0.0011468950300983656 0 0.0039004191708901532 0.0021435826992880539 0 0.0030610789958955644 0.0010970606479685442 0 0.0033973640639083759 0.0016957904455628099 0 0.0036176200123093361 0.0010242209585215286 0 0.0033973640639083759 0.0016957904455628099 0 0.0039842387647512434 0.0013685994826202474 0 0.0036176200123093361 0.0010242209585215286 0 0.0033973640639083759 0.0016957904455628099 0 0.0039842387647512434 0.0013685994826202474 0 0.0038338175930064124 0.0018133821964284123 0 0.0039842387647512434 0.0013685994826202474 0 0.0038338175930064124 0.0018133821964284123 0 0.0042116889325110093 0.001690589512794454 0 0.0038338175930064124 0.0018133821964284123 0 0.0041519749237390905 0.0020717787149228391 0 0.0042116889325110093 0.001690589512794454 0 0.0036519544435713231 0.0022256711217842028 0 0.0038338175930064124 0.0018133821964284123 0 0.0041519749237390905 0.0020717787149228391 0 -0.00048688927217744687 0.001533878986482708 0 -0.00027798456280021171 0.00051783790835000377 0 0.0042116889325110093 0.001690589512794454 0 0.0046340040050973259 0.0019103701131352984 0 0.0045425826778427167 0.0014455889211276857 0 0.0041519749237390905 0.0020717787149228391 0 0.0042116889325110093 0.001690589512794454 0 0.0046340040050973259 0.0019103701131352984 0 -0.00027798456280021171 0.00051783790835000377 0 0.0047124393429115799 0.0018084887094810653 0 0.0046576458055724518 0.001664444753658864 0 0.0049696373024681311 0.0012597846759761031 0 0.0045755880373645995 0.0012982337805383032 0 0.0049696373024681311 0.0012597846759761031 0 0.0045755880373645995 0.0012982337805383032 0 0.0049019992671444522 0.0009525213412485945 0 0.0039842387647512434 0.0013685994826202474 0 0.0042116889325110093 0.001690589512794454 0 0.0045425826778427167 0.0014455889211276857 0 0.0047124393429115799 0.0018084887094810653 0 0.0044178945376228554 0.00083744198971423621 0 0.0039842387647512434 0.0013685994826202474 0 0.0045425826778427167 0.0014455889211276857 0 0.0044620980728031267 0.00094495067298461092 0 0.0044620980728031267 0.00094495067298461092 0 0.0043045359295419494 0.00056823169714756536 0 0.0040354936080471138 0.00088916726511712677 0 0.0045755880373645995 0.0012982337805383032 0 0.0044620980728031267 0.00094495067298461092 0 0.0049019992671444522 0.0009525213412485945 0 0.0044620980728031267 0.00094495067298461092 0 0.0049019992671444522 0.0009525213412485945 0 0.0047433376146552237 0.00058271598107809098 0 0.0051443591680418984 0.00058365611000268708 0 0.0049019992671444522 0.0009525213412485945 0 0.0047433376146552237 0.00058271598107809098 0 0.0051443591680418984 0.00058365611000268708 0 0.0047433376146552237 0.00058271598107809098 0 0.0050540847156228209 0.00021668471202184909 0 0.0047433376146552237 0.00058271598107809098 0 0.0043045359295419494 0.00056823169714756536 0 0.0046130998794287796 0.00021983198006220194 0 0.0044620980728031267 0.00094495067298461092 0 0.0047433376146552237 0.00058271598107809098 0 0.0043045359295419494 0.00056823169714756536 0 0.0043045359295419494 0.00056823169714756536 0 0.0037957521097824374 0.00056419939401133943 0 0.0040354936080471138 0.00088916726511712677 0 0.0043045359295419494 0.00056823169714756536 0 0.0037957521097824374 0.00056419939401133943 0 0.0041977232948649896 0.00021187313188218194 0 0.0032255556849083151 0.00059389133271816577 0 0.0037957521097824374 0.00056419939401133943 0 0.0036176200123093361 0.0010242209585215286 0 0.0032255556849083151 0.00059389133271816577 0 0.0030610789958955644 0.0010970606479685442 0 0.0036176200123093361 0.0010242209585215286 0 0.0037957521097824374 0.00056419939401133943 0 0.0036176200123093361 0.0010242209585215286 0 0.0040354936080471138 0.00088916726511712677 0 0.0039842387647512434 0.0013685994826202474 0 0.0044620980728031267 0.00094495067298461092 0 0.0040354936080471138 0.00088916726511712677 0 0.0039842387647512434 0.0013685994826202474 0 0.0036176200123093361 0.0010242209585215286 0 0.0040354936080471138 0.00088916726511712677 0 0.0037698001006492743 -0.00020271009533978394 0 0.0044708781557943325 -5.9635208876667767e-05 0 0.0047269144229534444 -0.00039584981587339872 0 0.0043441881077186661 -0.00032932865716286562 0 0.0046791456621122791 -0.00039849330128196203 0 0.0032255556849083151 0.00059389133271816577 0 0.0037957521097824374 0.00056419939401133943 0 0.0037698001006492743 -0.00020271009533978394 0 0.0037698001006492743 -0.00020271009533978394 0 0.0041977232948649896 0.00021187313188218194 0 0.0044708781557943325 -5.9635208876667767e-05 0 0.0037957521097824374 0.00056419939401133943 0 0.0037698001006492743 -0.00020271009533978394 0 0.0041977232948649896 0.00021187313188218194 0 0.0043045359295419494 0.00056823169714756536 0 0.0041977232948649896 0.00021187313188218194 0 0.0046130998794287796 0.00021983198006220194 0 0.0046130998794287796 0.00021983198006220194 0 0.0048819094018691857 -0.00012611506823553701 0 0.0044708781557943325 -5.9635208876667767e-05 0 0.0041977232948649896 0.00021187313188218194 0 0.0046130998794287796 0.00021983198006220194 0 0.0044708781557943325 -5.9635208876667767e-05 0 0.0046130998794287796 0.00021983198006220194 0 0.0050540847156228209 0.00021668471202184909 0 0.0048819094018691857 -0.00012611506823553701 0 0.0047433376146552237 0.00058271598107809098 0 0.0046130998794287796 0.00021983198006220194 0 0.0050540847156228209 0.00021668471202184909 0 0.0048819094018691857 -0.00012611506823553701 0 0.0050574819266564113 -0.00041825137399346772 0 0.0054016614796062803 -0.00017295183376666467 0 0.0050540847156228209 0.00021668471202184909 0 0.0048819094018691857 -0.00012611506823553701 0 0.0054016614796062803 -0.00017295183376666467 0 0.0048819094018691857 -0.00012611506823553701 0 0.0044708781557943325 -5.9635208876667767e-05 0 0.0047269144229534444 -0.00039584981587339872 0 0.0047269144229534444 -0.00039584981587339872 0 0.0050574819266564113 -0.00041825137399346772 0 0.0049056347758264446 -0.00066599963670541421 0 0.0048819094018691857 -0.00012611506823553701 0 0.0047269144229534444 -0.00039584981587339872 0 0.0050574819266564113 -0.00041825137399346772 0 0.0050574819266564113 -0.00041825137399346772 0 0.0049056347758264446 -0.00066599963670541421 0 0.0053043859013798813 -0.00058260085692658586 0 0.0049056347758264446 -0.00066599963670541421 0 0.0054441085145775338 -0.00075729475901270711 0 0.0053043859013798813 -0.00058260085692658586 0 0.0047269144229534444 -0.00039584981587339872 0 0.0048039388990449832 -0.00036727647729347404 0 0.0049056347758264446 -0.00066599963670541421 0 0.0056880826983442198 -0.00081190723348186574 0 0.0055299873093126598 -0.00090947537673416901 0 0.0048955757240280303 -0.00047384998914868975 0 0.0047269144229534444 -0.00039584981587339872 0 0.0048039388990449832 -0.00036727647729347404 0 0.0059862316575365788 -0.00073660197415559119 0 0.0056880826983442198 -0.00081190723348186574 0 0.0051675845564969876 -0.00031264137983560443 0 0.0048955757240280303 -0.00047384998914868975 0 0.0048039388990449832 -0.00036727647729347404 0 0.0068074766961986229 -0.0011605165396115353 0 0.0065610438396957729 -0.0012525512477635887 0 0.0066632323245218754 -0.001147154430768965 0 0.0065610438396957729 -0.0012525512477635887 0 0.0066632323245218754 -0.001147154430768965 0 0.006578811720260716 -0.0010109137302927039 0 0.0067364132053317699 -0.0010596048756201959 0 0.006578811720260716 -0.0010109137302927039 0 0.0066805206309806207 -0.00089488383161878747 0 0.0067364132053317699 -0.0010596048756201959 0 0.0066632323245218754 -0.001147154430768965 0 0.006578811720260716 -0.0010109137302927039 0 0.0065610438396957729 -0.0012525512477635887 0 0.006578811720260716 -0.0010109137302927039 0 0.0063436085815842319 -0.00099282764441347023 0 0.0065610438396957729 -0.0012525512477635887 0 0.0063436085815842319 -0.00099282764441347023 0 0.0061457702605792535 -0.0011839031992328219 0 0.006578811720260716 -0.0010109137302927039 0 0.0063436085815842319 -0.00099282764441347023 0 0.0064800458959516473 -0.0007880617827404978 0 0.0063436085815842319 -0.00099282764441347023 0 0.0064800458959516473 -0.0007880617827404978 0 0.0062379997905884473 -0.00065482757006976502 0 0.006578811720260716 -0.0010109137302927039 0 0.0064800458959516473 -0.0007880617827404978 0 0.0066805206309806207 -0.00089488383161878747 0 0.0064800458959516473 -0.0007880617827404978 0 0.0066805206309806207 -0.00089488383161878747 0 0.0067280148794488072 -0.00069400091294918843 0 0.0064800458959516473 -0.0007880617827404978 0 0.0067280148794488072 -0.00069400091294918843 0 0.0065190622270718561 -0.0005735348984218147 0 0.0069611034352206032 -0.00054038020943671463 0 0.0067280148794488072 -0.00069400091294918843 0 0.0067006417059500166 -0.00042736421387027534 0 0.0067280148794488072 -0.00069400091294918843 0 0.0065190622270718561 -0.0005735348984218147 0 0.0067006417059500166 -0.00042736421387027534 0 0.0065190622270718561 -0.0005735348984218147 0 0.006439027319531004 -0.00028625785585159412 0 0.0062379997905884473 -0.00065482757006976502 0 0.0064800458959516473 -0.0007880617827404978 0 0.0065190622270718561 -0.0005735348984218147 0 0.0062379997905884473 -0.00065482757006976502 0 0.0065190622270718561 -0.0005735348984218147 0 0.006439027319531004 -0.00028625785585159412 0 0.0067006417059500166 -0.00042736421387027534 0 0.006439027319531004 -0.00028625785585159412 0 0.0067006417059500166 -0.00042736421387027534 0 0.0068557131662588307 -5.2344928556729844e-05 0 0.0069611034352206032 -0.00054038020943671463 0 0.0067006417059500166 -0.00042736421387027534 0 0.0068557131662588307 -5.2344928556729844e-05 0 0.006042532645762896 -0.00038813334449196868 0 0.0058077707629086229 -0.00064099001602913638 0 0.0056603854070925641 -0.00033358269593718247 0 0.006042532645762896 -0.00038813334449196868 0 0.0056603854070925641 -0.00033358269593718247 0 0.0060740648543534783 -4.0066849257679404e-05 0 0.006439027319531004 -0.00028625785585159412 0 0.006042532645762896 -0.00038813334449196868 0 0.0060740648543534783 -4.0066849257679404e-05 0 0.006439027319531004 -0.00028625785585159412 0 0.006042532645762896 -0.00038813334449196868 0 0.0062379997905884473 -0.00065482757006976502 0 0.006042532645762896 -0.00038813334449196868 0 0.0062379997905884473 -0.00065482757006976502 0 0.0058077707629086229 -0.00064099001602913638 0 0.0058077707629086229 -0.00064099001602913638 0 0.0060235150811708375 -0.00086662495923779507 0 0.0055215385431826806 -0.00090185178322944772 0 0.0062379997905884473 -0.00065482757006976502 0 0.0058077707629086229 -0.00064099001602913638 0 0.0060235150811708375 -0.00086662495923779507 0 0.0063436085815842319 -0.00099282764441347023 0 0.0062379997905884473 -0.00065482757006976502 0 0.0060235150811708375 -0.00086662495923779507 0 0.0063436085815842319 -0.00099282764441347023 0 0.0060235150811708375 -0.00086662495923779507 0 0.0061457702605792535 -0.0011839031992328219 0 0.0055299873093126598 -0.00090947537673416901 0 0.0055066121477993215 -0.00089978796978570257 0 0.0049056347758264446 -0.00066599963670541421 0 0.0054441085145775338 -0.00075729475901270711 0 0.0055215385431826806 -0.00090185178322944772 0 0.0060235150811708375 -0.00086662495923779507 0 0.0061457702605792535 -0.0011839031992328219 0 0.0055215385431826806 -0.00090185178322944772 0 0.0054441085145775338 -0.00075729475901270711 0 0.0055568740422895441 -0.00083688831404843075 0 0.0055215385431826806 -0.00090185178322944772 0 0.0054441085145775338 -0.00075729475901270711 0 0.0055568740422895441 -0.00083688831404843075 0 0.005505673794975934 -0.00066341168559525736 0 0.0080069358770222549 -0.00059826365686429389 0 0.010129452689234967 0.00019308415250864137 0 0.01083269092128452 -0.00012666541082567332 0 0.01080243678408368 -0.00011208396142367737 0 0.010828888385970964 -4.600646428068397e-06 0 0.013100690544594232 0.00035738243790665197 0 0.010129452689234967 0.00019308415250864137 0 0.01083269092128452 -0.00012666541082567332 0 0.010776219791160344 -0.00021005110583879321 0 0.010834965940095904 -0.00023797635650290013 0 0.013100690544594232 0.00035738243790665197 0 0.013987728003091487 -2.3287104262893067e-05 0 0.015000118029929328 0.00064722777690137201 0 0.014978116577224561 0.00025412449426675274 0 0.015140348735674524 0.00037964821393734246 0 0.01083269092128452 -0.00012666541082567332 0 0.01080243678408368 -0.00011208396142367737 0 0.010776219791160344 -0.00021005110583879321 0 0.0080069358770222549 -0.00059826365686429389 0 0.0078543113696324662 -0.00055084613282551395 0 0.0055568740422895441 -0.00083688831404843075 0 0.0055215385431826806 -0.00090185178322944772 0 0.0054826174012812716 -0.0007415266140674468 0 0.0058077707629086229 -0.00064099001602913638 0 0.0055215385431826806 -0.00090185178322944772 0 0.0054826174012812716 -0.0007415266140674468 0 0.010776219791160344 -0.00021005110583879321 0 0.010834965940095904 -0.00023797635650290013 0 0.010747438774731447 -0.0003049546022729988 0 0.0058077707629086229 -0.00064099001602913638 0 0.0054826174012812716 -0.0007415266140674468 0 0.0056603854070925641 -0.00033358269593718247 0 0.0078543113696324662 -0.00055084613282551395 0 0.01126734438522835 -0.00036398012780564136 0 0.013987728003091487 -2.3287104262893067e-05 0 0.01126734438522835 -0.00036398012780564136 0 0.013987728003091487 -2.3287104262893067e-05 0 0.015197261784777077 0.00055288048239575242 0 0.013987728003091487 -2.3287104262893067e-05 0 0.014722376135374016 0.00021792235014236761 0 0.014989133947246169 0.00027618016526732842 0 0.014938814732905823 5.1333778809444586e-05 0 0.015215641793173727 0.00014739744110612473 0 0.0149682565565936 0.00033134714656435431 0 0.014938814732905823 5.1333778809444586e-05 0 0.014517836925325663 -9.7551082579995876e-06 0 0.014938814732905823 5.1333778809444586e-05 0 0.015062243486461638 -0.0001542314264198698 0 0.015215641793173727 0.00014739744110612473 0 0.014938814732905823 5.1333778809444586e-05 0 0.015062243486461638 -0.0001542314264198698 0 0.014792388548191442 -0.00030619989164286393 0 0.014938814732905823 5.1333778809444586e-05 0 0.014517836925325663 -9.7551082579995876e-06 0 0.014792388548191442 -0.00030619989164286393 0 0.01126734438522835 -0.00036398012780564136 0 0.014531311687905338 0.00012648308902709572 0 0.015456526575012078 7.2958846612908876e-05 0 0.015599429542330403 0.00017596533769433001 0 0.015607549713271517 -0.00015742039565890567 0 0.015034755834840017 0.00011231360472868548 0 0.019039349879549108 0.00043121973992351281 0 0.014924282268655187 0.00015235473145512463 0 0.019039349879549108 0.00043121973992351281 0 0.015228836915415397 0.0001194493899510837 0 0.015292125255801838 -0.00035582686182972743 0 0.015456526575012078 7.2958846612908876e-05 0 0.015215641793173727 0.00014739744110612473 0 0.0153157009782029 -0.00029585174811833911 0 0.015062243486461638 -0.0001542314264198698 0 0.015215641793173727 0.00014739744110612473 0 0.015277076136106712 -0.00043203422154975785 0 0.015456526575012078 7.2958846612908876e-05 0 0.015215641793173727 0.00014739744110612473 0 0.015392401138577216 0.00031957612975439068 0 0.014989133947246169 0.00027618016526732842 0 0.015215641793173727 0.00014739744110612473 0 0.015140348735674524 0.00037964821393734246 0 0.015215641793173727 0.00014739744110612473 0 0.015140348735674524 0.00037964821393734246 0 0.015392401138577216 0.00031957612975439068 0 0.015456526575012078 7.2958846612908876e-05 0 0.015392401138577216 0.00031957612975439068 0 0.015599429542330403 0.00017596533769433001 0 0.015392401138577216 0.00031957612975439068 0 0.015599429542330403 0.00017596533769433001 0 0.015602622559780996 0.00059622274547647004 0 0.015392401138577216 0.00031957612975439068 0 0.015328334813348094 0.00056961852359874729 0 0.015602622559780996 0.00059622274547647004 0 0.015140348735674524 0.00037964821393734246 0 0.015392401138577216 0.00031957612975439068 0 0.015328334813348094 0.00056961852359874729 0 0.015000118029929328 0.00064722777690137201 0 0.015140348735674524 0.00037964821393734246 0 0.015328334813348094 0.00056961852359874729 0 0.015000118029929328 0.00064722777690137201 0 0.015320894664646307 0.00086164081910333496 0 0.0149892187101577 0.0010341777951652748 0 0.015000118029929328 0.00064722777690137201 0 0.015328334813348094 0.00056961852359874729 0 0.015320894664646307 0.00086164081910333496 0 0.015328334813348094 0.00056961852359874729 0 0.015320894664646307 0.00086164081910333496 0 0.015602622559780996 0.00059622274547647004 0 0.0088264718361464704 -0.00073624654022683752 0 0.0093128708609087531 -0.00047213874026472776 0 0.0092758708424551667 -0.0011540929652252971 0 0.012320493421972046 1.2892391111584552e-05 0 0.01326154385289903 -0.00017135689026475707 0 0.0088264718361464704 -0.00073624654022683752 0 0.0089316001342944467 -0.00023089916317388848 0 0.0086696635665601072 -0.00030432488877793669 0 0.0088264718361464704 -0.00073624654022683752 0 0.0089316001342944467 -0.00023089916317388848 0 0.0093128708609087531 -0.00047213874026472776 0 0.0089316001342944467 -0.00023089916317388848 0 0.0088780143080648705 1.1739391952184788e-05 0 0.0093796266143390816 0.00021878624556274004 0 0.0089316001342944467 -0.00023089916317388848 0 0.0086132317183224942 -7.7406857913778698e-05 0 0.0086696635665601072 -0.00030432488877793669 0 0.0089316001342944467 -0.00023089916317388848 0 0.0088780143080648705 1.1739391952184788e-05 0 0.0086132317183224942 -7.7406857913778698e-05 0 0.0086132317183224942 -7.7406857913778698e-05 0 0.0084405071067790733 -0.000227608631414031 0 0.0085124626166880237 0.00024151156741370822 0 0.0084405071067790733 -0.000227608631414031 0 0.0084193211570774817 -0.00027009129907380232 0 0.0085124626166880237 0.00024151156741370822 0 0.0089623213834651872 -0.00012242651656879473 0 0.0068227723449844884 -2.6224503128856938e-05 0 0.0088780143080648705 1.1739391952184788e-05 0 0.0086132317183224942 -7.7406857913778698e-05 0 0.008612597106612583 0.00015084753678335587 0 0.0086132317183224942 -7.7406857913778698e-05 0 0.0086696635665601072 -0.00030432488877793669 0 0.0085443060464741247 -0.00021475014038545864 0 0.0086132317183224942 -7.7406857913778698e-05 0 0.0085443060464741247 -0.00021475014038545864 0 0.0084405071067790733 -0.000227608631414031 0 0.0086696635665601072 -0.00030432488877793669 0 0.0085443060464741247 -0.00021475014038545864 0 0.0084121689164908895 -0.0002945840993828814 0 0.0085443060464741247 -0.00021475014038545864 0 0.0084405071067790733 -0.000227608631414031 0 0.0084121689164908895 -0.0002945840993828814 0 0.0089084597581148822 -0.00017846031545693455 0 0.0089623213834651872 -0.00012242651656879473 0 0.0088264718361464704 -0.00073624654022683752 0 0.0086696635665601072 -0.00030432488877793669 0 0.0084121689164908895 -0.0002945840993828814 0 0.015320894664646307 0.00086164081910333496 0 0.015011474194547261 0.0011229005484163089 0 0.0149892187101577 0.0010341777951652748 0 0.0089623213834651872 -0.00012242651656879473 0 0.010129452689234967 0.00019308415250864137 0 0.012320493421972046 1.2892391111584552e-05 0 0.0089623213834651872 -0.00012242651656879473 0 0.0055568740422895441 -0.00083688831404843075 0 0.005505673794975934 -0.00066341168559525736 0 0.0057235631408301532 -0.0005708948333708417 0 0.0057630721308892813 -0.00048604802055842453 0 0.0057235631408301532 -0.0005708948333708417 0 0.0054955651641547358 -0.00049339619615145912 0 0.005505673794975934 -0.00066341168559525736 0 0.0057235631408301532 -0.0005708948333708417 0 0.0054955651641547358 -0.00049339619615145912 0 0.0054441085145775338 -0.00075729475901270711 0 0.005505673794975934 -0.00066341168559525736 0 0.0053043859013798813 -0.00058260085692658586 0 0.005505673794975934 -0.00066341168559525736 0 0.0053043859013798813 -0.00058260085692658586 0 0.0054955651641547358 -0.00049339619615145912 0 0.0050574819266564113 -0.00041825137399346772 0 0.0054955651641547358 -0.00049339619615145912 0 0.0054016614796062803 -0.00017295183376666467 0 0.0050574819266564113 -0.00041825137399346772 0 0.0053043859013798813 -0.00058260085692658586 0 0.0054955651641547358 -0.00049339619615145912 0 0.0057630721308892813 -0.00048604802055842453 0 0.0054955651641547358 -0.00049339619615145912 0 0.0054016614796062803 -0.00017295183376666467 0 0.0089623213834651872 -0.00012242651656879473 0 0.004366410577895205 -7.0486542759307485e-05 0 0.0058495693344370334 -0.00060130756725193361 0 0.0054016614796062803 -0.00017295183376666467 0 0.0058629998040826622 1.5955158484501593e-05 0 0.0054016614796062803 -0.00017295183376666467 0 0.005471687368400706 0.00028796690667253638 0 0.0058629998040826622 1.5955158484501593e-05 0 0.0051443591680418984 0.00058365611000268708 0 0.0050540847156228209 0.00021668471202184909 0 0.005471687368400706 0.00028796690667253638 0 0.0050540847156228209 0.00021668471202184909 0 0.0054016614796062803 -0.00017295183376666467 0 0.005471687368400706 0.00028796690667253638 0 0.005906495820344377 0.00062682200210365077 0 0.005471687368400706 0.00028796690667253638 0 0.0058629998040826622 1.5955158484501593e-05 0 0.0078540503603222542 0.00067203367545878737 0 0.0068227723449844884 -2.6224503128856938e-05 0 0.0085154345902789339 0.00014358232697037093 0 0.0085229907595805853 0.00019305261311421346 0 0.0085124626166880237 0.00024151156741370822 0 0.0085229907595805853 0.00019305261311421346 0 0.0085124626166880237 0.00024151156741370822 0 0.0085592649513817655 0.00020481826981138572 0 0.0084821390110282786 0.0001606820071149741 0 0.0085229907595805853 0.00019305261311421346 0 0.0085015143653277992 0.00018242439591851091 0 0.0085229907595805853 0.00019305261311421346 0 0.0085015143653277992 0.00018242439591851091 0 0.0085715995139699127 0.00019379328239444517 0 0.0085229907595805853 0.00019305261311421346 0 0.0085715995139699127 0.00019379328239444517 0 0.0085592649513817655 0.00020481826981138572 0 0.0085715995139699127 0.00019379328239444517 0 0.008612597106612583 0.00015084753678335587 0 0.0085592649513817655 0.00020481826981138572 0 0.0085015143653277992 0.00018242439591851091 0 0.0085715995139699127 0.00019379328239444517 0 0.0084764764460601542 0.0002406896200384792 0 0.0088780143080648705 1.1739391952184788e-05 0 0.008612597106612583 0.00015084753678335587 0 0.0093796266143390816 0.00021878624556274004 0 0.0080344230418007961 0.00032251994856300126 0 0.010022651404726576 0.00020305509799351199 0 0.0085715995139699127 0.00019379328239444517 0 0.008612597106612583 0.00015084753678335587 0 0.0085551305479354238 0.00023394235011378711 0 0.00817236609840904 0.00016625322404792124 0 0.010022651404726576 0.00020305509799351199 0 0.0086132317183224942 -7.7406857913778698e-05 0 0.008612597106612583 0.00015084753678335587 0 0.0085124626166880237 0.00024151156741370822 0 0.008612597106612583 0.00015084753678335587 0 0.0085124626166880237 0.00024151156741370822 0 0.0085592649513817655 0.00020481826981138572 0 0.0094775678535543705 8.5689915379392483e-05 0 0.010022651404726576 0.00020305509799351199 0 0.010022651404726576 0.00020305509799351199 0 0.014430389775827432 -0.00043415432725936139 0 0.011368370730904102 0.00018326103718862107 0 0.0099123613635791752 0.00017054911510161553 0 0.012457852804132613 -0.00057574264177498501 0 0.0082549657012707042 1.5670315090395968e-05 0 0.0082584112626113253 1.7924123547167522e-05 0 0.0082716134052520009 2.1296631882339795e-05 0 0.0082549657012707042 1.5670315090395968e-05 0 0.0082584112626113253 1.7924123547167522e-05 0 0.0082517875919130863 1.4980568814671253e-05 0 0.0082584112626113253 1.7924123547167522e-05 0 0.0082517875919130863 1.4980568814671253e-05 0 0.0082515147303038154 1.3506567698916765e-05 0 0.0085177118607022775 0.0002523485830684516 0 0.010022651404726576 0.00020305509799351199 0 0.0082386882760643008 9.6030088052538616e-06 0 0.0082549657012707042 1.5670315090395968e-05 0 0.0082716134052520009 2.1296631882339795e-05 0 0.0084327860665526812 0.00015543228316248567 0 0.0084821390110282786 0.0001606820071149741 0 0.0085015143653277992 0.00018242439591851091 0 0.0084327860665526812 0.00015543228316248567 0 0.0085015143653277992 0.00018242439591851091 0 0.0084764764460601542 0.0002406896200384792 0 0.0082386882760643008 9.6030088052538616e-06 0 0.0082549657012707042 1.5670315090395968e-05 0 0.0082414049871914682 1.1926699387705429e-05 0 0.0082517875919130863 1.4980568814671253e-05 0 0.0082414049871914682 1.1926699387705429e-05 0 0.0082515147303038154 1.3506567698916765e-05 0 0.0082549657012707042 1.5670315090395968e-05 0 0.0082517875919130863 1.4980568814671253e-05 0 0.0082414049871914682 1.1926699387705429e-05 0 0.0082414049871914682 1.1926699387705429e-05 0 0.0082416242519977988 1.0937355985522001e-05 0 0.0082515147303038154 1.3506567698916765e-05 0 0.008664857986524532 -0.00014864692882612194 0 0.01177880238638458 -0.00020865730918191697 0 0.0082515147303038154 1.3506567698916765e-05 0 0.0082460774044832066 1.0846561053592019e-05 0 0.0082655155682167039 1.449926081436133e-05 0 0.008231452184723138 9.6830723328168063e-06 0 0.0082414049871914682 1.1926699387705429e-05 0 0.0082416242519977988 1.0937355985522001e-05 0 0.0082416242519977988 1.0937355985522001e-05 0 0.0082515147303038154 1.3506567698916765e-05 0 0.0082460774044832066 1.0846561053592019e-05 0 0.010383177992305473 -8.2929385075900276e-05 0 0.01039234590291053 -9.5925615505785839e-05 0 0.01043565833516673 -3.716031890088287e-05 0 0.010371269428233187 -0.00011087099413520862 0 0.010383177992305473 -8.2929385075900276e-05 0 0.010361242451973578 -7.6490230534425664e-05 0 0.010371269428233187 -0.00011087099413520862 0 0.010383177992305473 -8.2929385075900276e-05 0 0.010381718988536867 -9.433007598817349e-05 0 0.009591196230435672 -0.0005105872257134416 0 0.008664857986524532 -0.00014864692882612194 0 0.010383177992305473 -8.2929385075900276e-05 0 0.010376710656877888 -6.8385032753330975e-05 0 0.010361242451973578 -7.6490230534425664e-05 0 0.010383177992305473 -8.2929385075900276e-05 0 0.010376710656877888 -6.8385032753330975e-05 0 0.010389020910352695 -5.6103451122987702e-05 0 0.010376710656877888 -6.8385032753330975e-05 0 0.010389020910352695 -5.6103451122987702e-05 0 0.01037332499949185 -5.8067490662828298e-05 0 0.015493965276130608 -0.00079584791098240987 0 0.015164439700274269 -0.00040893885514896934 0 0.014708533433716647 -0.00087066092847335201 0 0.010383177992305473 -8.2929385075900276e-05 0 0.010389020910352695 -5.6103451122987702e-05 0 0.01043565833516673 -3.716031890088287e-05 0 0.010389020910352695 -5.6103451122987702e-05 0 0.01043565833516673 -3.716031890088287e-05 0 0.01037243905137185 -3.4199659246329383e-05 0 0.01177880238638458 -0.00020865730918191697 0 0.012791090177360027 -0.00048565084797949209 0 0.0082584112626113253 1.7924123547167522e-05 0 0.0082515147303038154 1.3506567698916765e-05 0 0.0082655155682167039 1.449926081436133e-05 0 0.01177880238638458 -0.00020865730918191697 0 0.014430389775827432 -0.00043415432725936139 0 0.011368370730904102 0.00018326103718862107 0 0.012741846615269992 0.00019453837284843294 0 0.012457852804132613 -0.00057574264177498501 0 0.0094775678535543705 8.5689915379392483e-05 0 0.01177880238638458 -0.00020865730918191697 0 0.014430389775827432 -0.00043415432725936139 0 0.014927779712318252 2.1464525438892875e-05 0 0.015119735903791879 -0.00021490122308903025 0 0.014945316312888821 -0.00018945790702871814 0 0.015057888157425944 1.016911282685782e-05 0 0.015493965276130608 -0.00079584791098240987 0 0.015581889732977057 -0.00055179998269933972 0 0.015164439700274269 -0.00040893885514896934 0 0.014430389775827432 -0.00043415432725936139 0 0.015172292403490181 -0.00034160815014486049 0 0.015172292403490181 -0.00034160815014486049 0 0.014680501496190395 -0.00019463122384087559 0 0.014945316312888821 -0.00018945790702871814 0 0.014956687126552645 0.0001286254581648275 0 0.015057888157425944 1.016911282685782e-05 0 0.014945316312888821 -0.00018945790702871814 0 0.014956687126552645 0.0001286254581648275 0 0.014775119406712871 4.2108485673817987e-05 0 0.015119735903791879 -0.00021490122308903025 0 0.015057888157425944 1.016911282685782e-05 0 0.015170912827007487 0.00010024344116621976 0 0.014956687126552645 0.0001286254581648275 0 0.015057888157425944 1.016911282685782e-05 0 0.015069882773243353 0.00017767853013529543 0 0.015057888157425944 1.016911282685782e-05 0 0.015170912827007487 0.00010024344116621976 0 0.015069882773243353 0.00017767853013529543 0 0.014575441541327219 -0.00015336556075013887 0 0.01467147554124504 -0.0001841636174843301 0 0.014670577351647037 -0.00010559722664874103 0 0.014575441541327219 -0.00015336556075013887 0 0.014592914816775547 -0.00023694172024434182 0 0.01467147554124504 -0.0001841636174843301 0 0.014515912556262408 -0.00025785810989699284 0 0.014575441541327219 -0.00015336556075013887 0 0.014592914816775547 -0.00023694172024434182 0 0.014600565002383754 -0.00028735995496369064 0 0.014515912556262408 -0.00025785810989699284 0 0.014592914816775547 -0.00023694172024434182 0 0.0089316001342944467 -0.00023089916317388848 0 0.0093796266143390816 0.00021878624556274004 0 0.0093128708609087531 -0.00047213874026472776 0 0.010022651404726576 0.00020305509799351199 0 0.012078811373997158 -0.00045980268980885125 0 0.014600565002383754 -0.00028735995496369064 0 0.014592914816775547 -0.00023694172024434182 0 0.01467147554124504 -0.0001841636174843301 0 0.014670577351647037 -0.00010559722664874103 0 0.014689716333402858 -1.9985965105759228e-05 0 0.014761212850635041 -4.6742555815968541e-05 0 0.012078811373997158 -0.00045980268980885125 0 0.01326154385289903 -0.00017135689026475707 0 0.01467147554124504 -0.0001841636174843301 0 0.014670577351647037 -0.00010559722664874103 0 0.014761212850635041 -4.6742555815968541e-05 0 0.014575441541327219 -0.00015336556075013887 0 0.014670577351647037 -0.00010559722664874103 0 0.014689716333402858 -1.9985965105759228e-05 0 0.015170912827007487 0.00010024344116621976 0 0.01508893958283453 0.00025372073282962124 0 0.015099001663400611 0.00021982206226080637 0 0.014927779712318252 2.1464525438892875e-05 0 0.014882364901986574 8.7277877828635043e-05 0 0.01508893958283453 0.00025372073282962124 0 0.015086154704664264 0.00023700037912603838 0 0.015099001663400611 0.00021982206226080637 0 0.01508893958283453 0.00025372073282962124 0 0.015086154704664264 0.00023700037912603838 0 0.015050140053071429 0.00019525581522018286 0 0.014689716333402858 -1.9985965105759228e-05 0 0.014761212850635041 -4.6742555815968541e-05 0 0.014782379609904297 2.2796961833446809e-05 0 0.014891589899263044 -6.5742647922895656e-05 0 0.014782379609904297 2.2796961833446809e-05 0 0.014877833933331927 6.6414605652230643e-05 0 0.015034755834840017 0.00011231360472868548 0 0.01326154385289903 -0.00017135689026475707 0 0.01326154385289903 -0.00017135689026475707 0 0.014937656763904399 -0.00025662646666501325 0 0.014927182510658532 0.000135389396714908 0 0.014891589899263044 -6.5742647922895656e-05 0 0.014877833933331927 6.6414605652230643e-05 0 0.014882364901986574 8.7277877828635043e-05 0 0.014934690378243635 0.00013024614400757782 0 0.014689716333402858 -1.9985965105759228e-05 0 0.014782379609904297 2.2796961833446809e-05 0 0.014945539176675734 0.00013385909050230932 0 0.014782379609904297 2.2796961833446809e-05 0 0.014877833933331927 6.6414605652230643e-05 0 0.014945539176675734 0.00013385909050230932 0 0.014927182510658532 0.000135389396714908 0 0.014877833933331927 6.6414605652230643e-05 0 0.014945539176675734 0.00013385909050230932 0 0.01508893958283453 0.00025372073282962124 0 0.015050140053071429 0.00019525581522018286 0 0.014945539176675734 0.00013385909050230932 0 0.015086154704664264 0.00023700037912603838 0 0.015050140053071429 0.00019525581522018286 0 0.015079361554083032 0.00019228865273164389 0 0.015079361554083032 0.00019228865273164389 0 0.015037900884520341 0.00013794561580783042 0 0.015091087105576492 0.00012926670632084006 0 0.015050140053071429 0.00019525581522018286 0 0.015079361554083032 0.00019228865273164389 0 0.015037900884520341 0.00013794561580783042 0 0.015050140053071429 0.00019525581522018286 0 0.015037900884520341 0.00013794561580783042 0 0.014945539176675734 0.00013385909050230932 0 0.015037900884520341 0.00013794561580783042 0 0.015061530379244488 8.537265377363398e-05 0 0.014991932462199998 6.8708897614102275e-05 0 0.015037900884520341 0.00013794561580783042 0 0.015061530379244488 8.537265377363398e-05 0 0.015091087105576492 0.00012926670632084006 0 0.015061530379244488 8.537265377363398e-05 0 0.015109213581582421 4.8104190255830085e-05 0 0.015091087105576492 0.00012926670632084006 0 0.015061530379244488 8.537265377363398e-05 0 0.015109213581582421 4.8104190255830085e-05 0 0.015066980231962818 1.525857728258371e-05 0 0.015061530379244488 8.537265377363398e-05 0 0.014991932462199998 6.8708897614102275e-05 0 0.015066980231962818 1.525857728258371e-05 0 0.014927182510658532 0.000135389396714908 0 0.014991932462199998 6.8708897614102275e-05 0 0.014943811420067158 -2.261076678211778e-05 0 0.014927182510658532 0.000135389396714908 0 0.014991932462199998 6.8708897614102275e-05 0 0.014945539176675734 0.00013385909050230932 0 0.015037900884520341 0.00013794561580783042 0 0.014991932462199998 6.8708897614102275e-05 0 0.014945539176675734 0.00013385909050230932 0 0.015162860681465785 0.00019725494823911679 0 0.015138742125797616 0.00010194778226831216 0 0.015111247608812342 0.00019075816491612621 0 0.015162860681465785 0.00019725494823911679 0 0.015328747354848574 9.3210323392345235e-05 0 0.015212287992471091 5.7388514875476313e-05 0 0.015162860681465785 0.00019725494823911679 0 0.015138742125797616 0.00010194778226831216 0 0.015212287992471091 5.7388514875476313e-05 0 0.015138742125797616 0.00010194778226831216 0 0.015109213581582421 4.8104190255830085e-05 0 0.015091087105576492 0.00012926670632084006 0 0.015138742125797616 0.00010194778226831216 0 0.015091087105576492 0.00012926670632084006 0 0.015111247608812342 0.00019075816491612621 0 0.015079361554083032 0.00019228865273164389 0 0.015111247608812342 0.00019075816491612621 0 0.015090650885138175 0.00023172058429343266 0 0.015079361554083032 0.00019228865273164389 0 0.015091087105576492 0.00012926670632084006 0 0.015111247608812342 0.00019075816491612621 0 0.015086154704664264 0.00023700037912603838 0 0.015079361554083032 0.00019228865273164389 0 0.015090650885138175 0.00023172058429343266 0 0.015111247608812342 0.00019075816491612621 0 0.015090650885138175 0.00023172058429343266 0 0.015090079388529038 0.00025562473014251825 0 0.015162860681465785 0.00019725494823911679 0 0.015090079388529038 0.00025562473014251825 0 0.015070056435552991 0.00031300048119859656 0 0.015162860681465785 0.00019725494823911679 0 0.015111247608812342 0.00019075816491612621 0 0.015090079388529038 0.00025562473014251825 0 0.015090079388529038 0.00025562473014251825 0 0.015021889564188498 0.00026975671210323273 0 0.015070056435552991 0.00031300048119859656 0 0.015090079388529038 0.00025562473014251825 0 0.015021889564188498 0.00026975671210323273 0 0.015078889879095978 0.00024888923755436699 0 0.015021889564188498 0.00026975671210323273 0 0.015078889879095978 0.00024888923755436699 0 0.015069882773243353 0.00017767853013529543 0 0.015086154704664264 0.00023700037912603838 0 0.015090650885138175 0.00023172058429343266 0 0.015078889879095978 0.00024888923755436699 0 0.015090650885138175 0.00023172058429343266 0 0.015090079388529038 0.00025562473014251825 0 0.015078889879095978 0.00024888923755436699 0 0.015086154704664264 0.00023700037912603838 0 0.015078889879095978 0.00024888923755436699 0 0.015099001663400611 0.00021982206226080637 0 0.015078889879095978 0.00024888923755436699 0 0.015069882773243353 0.00017767853013529543 0 0.015099001663400611 0.00021982206226080637 0 0.015170912827007487 0.00010024344116621976 0 0.015069882773243353 0.00017767853013529543 0 0.015099001663400611 0.00021982206226080637 0 0.014956687126552645 0.0001286254581648275 0 0.015021889564188498 0.00026975671210323273 0 0.015069882773243353 0.00017767853013529543 0 0.014956687126552645 0.0001286254581648275 0 0.015021889564188498 0.00026975671210323273 0 0.014856007601005554 0.00026537186005444582 0 0.014856007601005554 0.00026537186005444582 0 0.014785489504213529 0.00035602240245919255 0 0.014528943677227747 0.00018543424451763585 0 0.014856007601005554 0.00026537186005444582 0 0.014528943677227747 0.00018543424451763585 0 0.014775119406712871 4.2108485673817987e-05 0 0.014956687126552645 0.0001286254581648275 0 0.014856007601005554 0.00026537186005444582 0 0.014775119406712871 4.2108485673817987e-05 0 0.014351435745066147 0.00026693586847155183 0 0.014785489504213529 0.00035602240245919255 0 0.014528943677227747 0.00018543424451763585 0 0.014351435745066147 0.00026693586847155183 0 0.014785489504213529 0.00035602240245919255 0 0.014312211925731587 0.00029870897692908956 0 0.014785489504213529 0.00035602240245919255 0 0.01509498072965928 0.0003146706123050126 0 0.015182144547967322 0.00028835895785640667 0 0.014785489504213529 0.00035602240245919255 0 0.015070056435552991 0.00031300048119859656 0 0.01509498072965928 0.0003146706123050126 0 0.015021889564188498 0.00026975671210323273 0 0.014856007601005554 0.00026537186005444582 0 0.015070056435552991 0.00031300048119859656 0 0.014856007601005554 0.00026537186005444582 0 0.014785489504213529 0.00035602240245919255 0 0.015070056435552991 0.00031300048119859656 0 0.015162860681465785 0.00019725494823911679 0 0.015070056435552991 0.00031300048119859656 0 0.01521795026970984 0.00024495482428794359 0 0.015070056435552991 0.00031300048119859656 0 0.01509498072965928 0.0003146706123050126 0 0.01521795026970984 0.00024495482428794359 0 0.01509498072965928 0.0003146706123050126 0 0.015389185767422474 0.00027059934068572681 0 0.015182144547967322 0.00028835895785640667 0 0.01509498072965928 0.0003146706123050126 0 0.015389185767422474 0.00027059934068572681 0 0.01521795026970984 0.00024495482428794359 0 0.015389185767422474 0.00027059934068572681 0 0.015593381680354592 8.0368639877363904e-05 0 0.015328747354848574 9.3210323392345235e-05 0 0.015389185767422474 0.00027059934068572681 0 0.015593381680354592 8.0368639877363904e-05 0 0.016027343524768312 0.00024784793930041147 0 0.015162860681465785 0.00019725494823911679 0 0.015328747354848574 9.3210323392345235e-05 0 0.01521795026970984 0.00024495482428794359 0 0.015389185767422474 0.00027059934068572681 0 0.015328747354848574 9.3210323392345235e-05 0 0.01521795026970984 0.00024495482428794359 0 0.017326866879364741 1.0006802152814912e-06 0 0.016027343524768312 0.00024784793930041147 0 0.01710751974703557 -2.6999259021017633e-06 0 0.017326866879364741 1.0006802152814912e-06 0 0.016027343524768312 0.00024784793930041147 0 0.01559734810497204 5.5439035610450226e-07 0 0.015389185767422474 0.00027059934068572681 0 0.016027343524768312 0.00024784793930041147 0 0.015182144547967322 0.00028835895785640667 0 0.016027343524768312 0.00024784793930041147 0 0.015182144547967322 0.00028835895785640667 0 0.01559734810497204 5.5439035610450226e-07 0 0.01559734810497204 5.5439035610450226e-07 0 0.014312211925731587 0.00029870897692908956 0 0.013868839940475617 2.2929219474967247e-07 0 0.014785489504213529 0.00035602240245919255 0 0.015182144547967322 0.00028835895785640667 0 0.014312211925731587 0.00029870897692908956 0 0.015182144547967322 0.00028835895785640667 0 0.01559734810497204 5.5439035610450226e-07 0 0.014312211925731587 0.00029870897692908956 0 0.014312211925731587 0.00029870897692908956 0 0.01339638591451154 0.00016306024824652295 0 0.013841206602550317 0.0001553506559554856 0 0.014351435745066147 0.00026693586847155183 0 0.014312211925731587 0.00029870897692908956 0 0.013841206602550317 0.0001553506559554856 0 0.014312211925731587 0.00029870897692908956 0 0.013868839940475617 2.2929219474967247e-07 0 0.01339638591451154 0.00016306024824652295 0 0.013868839940475617 2.2929219474967247e-07 0 0.01339638591451154 0.00016306024824652295 0 0.012138535150217291 1.022238805011015e-06 0 0.01339638591451154 0.00016306024824652295 0 0.012138535150217291 1.022238805011015e-06 0 0.012843750499810028 -1.6180104140550385e-05 0 0.012138535150217291 1.022238805011015e-06 0 0.012843750499810028 -1.6180104140550385e-05 0 0.01041295874088608 -2.9332636781799908e-06 0 0.012843750499810028 -1.6180104140550385e-05 0 0.013841206602550317 0.0001553506559554856 0 0.014083950095319982 -0.00023857649137543435 0 0.012843750499810028 -1.6180104140550385e-05 0 0.014083950095319982 -0.00023857649137543435 0 0.013457130356477493 -0.001021872509877192 0 0.01339638591451154 0.00016306024824652295 0 0.012843750499810028 -1.6180104140550385e-05 0 0.013841206602550317 0.0001553506559554856 0 0.013841206602550317 0.0001553506559554856 0 0.014528943677227747 0.00018543424451763585 0 0.014083950095319982 -0.00023857649137543435 0 0.014351435745066147 0.00026693586847155183 0 0.013841206602550317 0.0001553506559554856 0 0.014528943677227747 0.00018543424451763585 0 0.014528943677227747 0.00018543424451763585 0 0.014686838503030599 -0.00020059809700681346 0 0.014083950095319982 -0.00023857649137543435 0 0.014528943677227747 0.00018543424451763585 0 0.014775119406712871 4.2108485673817987e-05 0 0.014686838503030599 -0.00020059809700681346 0 0.014686838503030599 -0.00020059809700681346 0 0.014083950095319982 -0.00023857649137543435 0 0.014708533433716647 -0.00087066092847335201 0 0.014945316312888821 -0.00018945790702871814 0 0.014775119406712871 4.2108485673817987e-05 0 0.014686838503030599 -0.00020059809700681346 0 0.015164439700274269 -0.00040893885514896934 0 0.014686838503030599 -0.00020059809700681346 0 0.014708533433716647 -0.00087066092847335201 0 0.012791090177360027 -0.00048565084797949209 0 0.011811159946141042 -0.0004569067657830312 0 0.010318673081618388 -5.897984370516606e-05 0 0.010226047360979883 -0.00010375111506682474 0 0.010252712216974613 7.8279236113729429e-06 0 0.014083950095319982 -0.00023857649137543435 0 0.014708533433716647 -0.00087066092847335201 0 0.013457130356477493 -0.001021872509877192 0 0.01037243905137185 -3.4199659246329383e-05 0 0.010318673081618388 -5.897984370516606e-05 0 0.010252712216974613 7.8279236113729429e-06 0 0.01037243905137185 -3.4199659246329383e-05 0 0.010366162549724264 -4.8647555087615979e-05 0 0.010318673081618388 -5.897984370516606e-05 0 0.010389020910352695 -5.6103451122987702e-05 0 0.01037243905137185 -3.4199659246329383e-05 0 0.01037332499949185 -5.8067490662828298e-05 0 0.01037243905137185 -3.4199659246329383e-05 0 0.010366162549724264 -4.8647555087615979e-05 0 0.01037332499949185 -5.8067490662828298e-05 0 0.010366162549724264 -4.8647555087615979e-05 0 0.010348907496009844 -0.00012694641772341666 0 0.010318673081618388 -5.897984370516606e-05 0 0.010371269428233187 -0.00011087099413520862 0 0.010361242451973578 -7.6490230534425664e-05 0 0.010331954110819238 -9.6954717469360379e-05 0 0.010366162549724264 -4.8647555087615979e-05 0 0.010361242451973578 -7.6490230534425664e-05 0 0.010331954110819238 -9.6954717469360379e-05 0 0.010471212834103606 0.00014247858195205238 0 0.0088945163613513151 -0.00042334138641700222 0 0.010366162549724264 -4.8647555087615979e-05 0 0.01037332499949185 -5.8067490662828298e-05 0 0.010361242451973578 -7.6490230534425664e-05 0 0.010376710656877888 -6.8385032753330975e-05 0 0.01037332499949185 -5.8067490662828298e-05 0 0.010361242451973578 -7.6490230534425664e-05 0 0.010348907496009844 -0.00012694641772341666 0 0.010318673081618388 -5.897984370516606e-05 0 0.010226047360979883 -0.00010375111506682474 0 0.0088945163613513151 -0.00042334138641700222 0 0.0097765542514743585 -2.5594004882524319e-05 0 0.0090783854411467472 4.6798769125317066e-05 0 0.0087630769698103621 8.7325216004230119e-06 0 0.009080885186724225 -3.4088520488300364e-05 0 0.0090783854411467472 4.6798769125317066e-05 0 0.009080885186724225 -3.4088520488300364e-05 0 0.0091797083347715924 4.3385702733208277e-07 0 0.0078344770417221998 -0.00012388343534414675 0 0.0091734681811498162 -1.0804846197126039e-07 0 0.0097765542514743585 -2.5594004882524319e-05 0 0.0099490585412735748 -8.8656463435398554e-09 0 0.009080885186724225 -3.4088520488300364e-05 0 0.0091797083347715924 4.3385702733208277e-07 0 0.0099440188055433722 -4.5253759449032901e-07 0 0.0099551167107709195 2.1623704889600585e-07 0 0.010403521109317341 -2.3778725797348598e-07 0 0.010252712216974613 7.8279236113729429e-06 0 0.012843750499810028 -1.6180104140550385e-05 0 0.01041295874088608 -2.9332636781799908e-06 0 0.013457130356477493 -0.001021872509877192 0 0.010409868039737867 -2.1241891365627408e-07 0 0.011811159946141042 -0.0004569067657830312 0 0.010226047360979883 -0.00010375111506682474 0 0.0099551167107709195 2.1623704889600585e-07 0 0.010252712216974613 7.8279236113729429e-06 0 0.024225657421814543 -4.100356296377234e-05 0 0.024502978791056226 8.5261934296831086e-05 0 0.024520762785964531 5.9219039093839958e-05 0 0.025289518023122081 -0.00093497945366196569 0 0.022384711518308974 -0.00044979787637244444 0 0.025289518023122081 -0.00093497945366196569 0 0.024987535304817059 6.5643134693678635e-08 0 0.024225657421814543 -4.100356296377234e-05 0 0.024502978791056226 8.5261934296831086e-05 0 0.024983168874974118 -3.5040600179009489e-08 0 0.024502978791056226 8.5261934296831086e-05 0 0.024167731698316014 1.5734730348433079e-08 0 0.024983168874974118 -3.5040600179009489e-08 0 0.027338099515987316 -0.00081679208786993918 0 0.024989971144527921 -2.1857905241618208e-06 0 0.027000079373637374 0.00010166596164230646 0 0.024989971144527921 -2.1857905241618208e-06 0 0.027000079373637374 0.00010166596164230646 0 0.026749707140815496 9.9381626564254982e-07 0 0.027338099515987316 -0.00081679208786993918 0 0.027000079373637374 0.00010166596164230646 0 0.027840397597126389 0.0002791289662633912 0 0.026737979268337514 -0.0018366772638845411 0 0.027219744556990715 -0.0018965436505416987 0 0.027018217746587261 -0.0012358074274790775 0 0.025289518023122081 -0.00093497945366196569 0 0.027721865653407177 -0.00050056375584877342 0 0.027501034894077535 -0.0015325064347266769 0 0.027219744556990715 -0.0018965436505416987 0 0.027018217746587261 -0.0012358074274790775 0 0.022490746805892678 -0.0010066812971923796 0 0.022595853474031313 -0.0011240863865047657 0 0.022800336745793005 -0.00098500522132697341 0 0.024810441597688707 -0.0014788234426735265 0 0.024844925384002695 -0.0014138298349541368 0 0.027501034894077535 -0.0015325064347266769 0 0.027219744556990715 -0.0018965436505416987 0 0.02769718239963416 -0.0019515842063142332 0 0.025289518023122081 -0.00093497945366196569 0 0.024810441597688707 -0.0014788234426735265 0 0.022388612947129734 -0.0010250883902958631 0 0.022490746805892678 -0.0010066812971923796 0 0.022410187177014373 -0.0010966033682468772 0 0.022490746805892678 -0.0010066812971923796 0 0.022410187177014373 -0.0010966033682468772 0 0.022456425629579314 -0.0011173815913671477 0 0.022410187177014373 -0.0010966033682468772 0 0.022456425629579314 -0.0011173815913671477 0 0.022437451820636421 -0.0011695466659710494 0 0.022411610132479446 -0.0012027404793038105 0 0.021596251490104849 -0.00091543461120328646 0 0.022410187177014373 -0.0010966033682468772 0 0.022437451820636421 -0.0011695466659710494 0 0.02234921861277624 -0.0011154642751507106 0 0.022456425629579314 -0.0011173815913671477 0 0.0225111682822649 -0.0012775916858578029 0 0.022323627449705615 -0.0014017477663278051 0 0.022490746805892678 -0.0010066812971923796 0 0.022456425629579314 -0.0011173815913671477 0 0.022595853474031313 -0.0011240863865047657 0 0.022456425629579314 -0.0011173815913671477 0 0.022595853474031313 -0.0011240863865047657 0 0.0225111682822649 -0.0012775916858578029 0 0.0225111682822649 -0.0012775916858578029 0 0.022639736858719429 -0.0014355787575679889 0 0.022731977767006251 -0.0012405383662751947 0 0.022595853474031313 -0.0011240863865047657 0 0.0225111682822649 -0.0012775916858578029 0 0.022731977767006251 -0.0012405383662751947 0 0.0225111682822649 -0.0012775916858578029 0 0.022397018488778848 -0.0014487758507834431 0 0.022323627449705615 -0.0014017477663278051 0 0.0225111682822649 -0.0012775916858578029 0 0.022639736858719429 -0.0014355787575679889 0 0.022397018488778848 -0.0014487758507834431 0 0.022397018488778848 -0.0014487758507834431 0 0.022556697939585469 -0.0015668976802972918 0 0.022455098110916796 -0.0017166740196744939 0 0.022639736858719429 -0.0014355787575679889 0 0.022397018488778848 -0.0014487758507834431 0 0.022556697939585469 -0.0015668976802972918 0 0.022639736858719429 -0.0014355787575679889 0 0.022556697939585469 -0.0015668976802972918 0 0.022734600600437381 -0.0016674976305026895 0 0.020148813972594031 -0.00045167116464513206 0 0.020389108390479888 -0.00035035020243115856 0 0.020230449834741135 -9.5665772240926153e-05 0 0.022397018488778848 -0.0014487758507834431 0 0.022295117977803716 -0.0013941142248402579 0 0.022163772771221609 -0.001797320632287696 0 0.022152436192583655 -0.0012388434405509535 0 0.021596251490104849 -0.00091543461120328646 0 0.020389108390479888 -0.00035035020243115856 0 0.020513579239100438 -0.00065019088079864543 0 0.020615100931453158 -0.00040006144882908317 0 0.022384711518308974 -0.00044979787637244444 0 0.021462346506969394 -0.00012387325741259499 0 0.020148813972594031 -0.00045167116464513206 0 0.020389108390479888 -0.00035035020243115856 0 0.020513579239100438 -0.00065019088079864543 0 0.020389108390479888 -0.00035035020243115856 0 0.020615100931453158 -0.00040006144882908317 0 0.02050441427042202 -0.00015518155415691957 0 0.021596251490104849 -0.00091543461120328646 0 0.022384711518308974 -0.00044979787637244444 0 0.022388612947129734 -0.0010250883902958631 0 0.022410187177014373 -0.0010966033682468772 0 0.02234921861277624 -0.0011154642751507106 0 0.02416503054650183 -2.133397472250969e-07 0 0.022384711518308974 -0.00044979787637244444 0 0.024161954561300159 -6.443402740063519e-07 0 0.022897649518389702 4.6123608161889133e-05 0 0.022462581735421816 4.0344377002322991e-07 0 0.024161954561300159 -6.443402740063519e-07 0 0.022676857630955675 -8.2329040415172433e-05 0 0.022897649518389702 4.6123608161889133e-05 0 0.024502978791056226 8.5261934296831086e-05 0 0.024167731698316014 1.5734730348433079e-08 0 0.024520762785964531 5.9219039093839958e-05 0 0.022897649518389702 4.6123608161889133e-05 0 0.022462581735421816 4.0344377002322991e-07 0 0.022503030161386949 7.4936945808343823e-05 0 0.022462581735421816 4.0344377002322991e-07 0 0.022503030161386949 7.4936945808343823e-05 0 0.020940012276111749 -2.755290204535834e-05 0 0.022676857630955675 -8.2329040415172433e-05 0 0.022897649518389702 4.6123608161889133e-05 0 0.022503030161386949 7.4936945808343823e-05 0 0.020615100931453158 -0.00040006144882908317 0 0.020940012276111749 -2.755290204535834e-05 0 0.02050441427042202 -0.00015518155415691957 0 0.022462581735421816 4.0344377002322991e-07 0 0.020940012276111749 -2.755290204535834e-05 0 0.020758413770819977 1.1935323653275925e-07 0 0.021462346506969394 -0.00012387325741259499 0 0.021171818858042455 3.9442049598650788e-05 0 0.020940012276111749 -2.755290204535834e-05 0 0.02050441427042202 -0.00015518155415691957 0 0.020510365819695602 2.5574976255821232e-05 0 0.020389108390479888 -0.00035035020243115856 0 0.02050441427042202 -0.00015518155415691957 0 0.020230449834741135 -9.5665772240926153e-05 0 0.02050441427042202 -0.00015518155415691957 0 0.020397548063539193 3.4705149377190753e-05 0 0.020230449834741135 -9.5665772240926153e-05 0 0.02050441427042202 -0.00015518155415691957 0 0.020397548063539193 3.4705149377190753e-05 0 0.020510365819695602 2.5574976255821232e-05 0 0.020397548063539193 3.4705149377190753e-05 0 0.020332660610382219 0.00011152998338893847 0 0.020301882225793089 -7.6310286149736589e-05 0 0.020397548063539193 3.4705149377190753e-05 0 0.020301882225793089 -7.6310286149736589e-05 0 0.020344788204837278 2.3831803263313337e-05 0 0.020397548063539193 3.4705149377190753e-05 0 0.020344788204837278 2.3831803263313337e-05 0 0.020230449834741135 -9.5665772240926153e-05 0 0.020758413770819977 1.1935323653275925e-07 0 0.020332660610382219 0.00011152998338893847 0 0.019059048469781927 -4.4204666783619669e-07 0 0.020940012276111749 -2.755290204535834e-05 0 0.020758413770819977 1.1935323653275925e-07 0 0.020332660610382219 0.00011152998338893847 0 0.020940012276111749 -2.755290204535834e-05 0 0.020510365819695602 2.5574976255821232e-05 0 0.020332660610382219 0.00011152998338893847 0 0.020397548063539193 3.4705149377190753e-05 0 0.020510365819695602 2.5574976255821232e-05 0 0.020332660610382219 0.00011152998338893847 0 0.019053684722283918 -2.70601845156565e-06 0 0.017005238046564761 -0.0010478509938364683 0 0.01710751974703557 -2.6999259021017633e-06 0 0.019056593200734297 -2.8597622289409423e-07 0 0.018528704663864203 -0.00050785266631245924 0 0.020332660610382219 0.00011152998338893847 0 0.019059048469781927 -4.4204666783619669e-07 0 0.020301882225793089 -7.6310286149736589e-05 0 0.018528704663864203 -0.00050785266631245924 0 0.018736307148277856 -0.0010335908884591114 0 0.017005238046564761 -0.0010478509938364683 0 0.015984894326454238 -0.00011460288522493887 0 0.015830530311631966 -0.0013423403602442919 0 0.015593381680354592 8.0368639877363904e-05 0 0.016027343524768312 0.00024784793930041147 0 0.015984894326454238 -0.00011460288522493887 0 0.016027343524768312 0.00024784793930041147 0 0.015984894326454238 -0.00011460288522493887 0 0.01710751974703557 -2.6999259021017633e-06 0 0.017005238046564761 -0.0010478509938364683 0 0.015984894326454238 -0.00011460288522493887 0 0.01710751974703557 -2.6999259021017633e-06 0 0.017326866879364741 1.0006802152814912e-06 0 0.019053684722283918 -2.70601845156565e-06 0 0.01710751974703557 -2.6999259021017633e-06 0 0.015328747354848574 9.3210323392345235e-05 0 0.015535797601826207 -0.0001561521787168577 0 0.015294122486667136 -9.0278703528233234e-05 0 0.015593381680354592 8.0368639877363904e-05 0 0.015984894326454238 -0.00011460288522493887 0 0.015535797601826207 -0.0001561521787168577 0 0.015593381680354592 8.0368639877363904e-05 0 0.015328747354848574 9.3210323392345235e-05 0 0.015535797601826207 -0.0001561521787168577 0 0.015720862408021702 -0.00027562938741746047 0 0.018736307148277856 -0.0010335908884591114 0 0.015535797601826207 -0.0001561521787168577 0 0.015813209926906015 -0.00040015897417642411 0 0.015427176316282095 -0.00035195805109603255 0 0.015984894326454238 -0.00011460288522493887 0 0.015535797601826207 -0.0001561521787168577 0 0.015813209926906015 -0.00040015897417642411 0 0.015535797601826207 -0.0001561521787168577 0 0.015427176316282095 -0.00035195805109603255 0 0.015294122486667136 -9.0278703528233234e-05 0 0.018736307148277856 -0.0010335908884591114 0 0.019115639785711496 -0.0012334017148324604 0 0.0220370340578733 -0.0022033779967047138 0 0.022511024170900493 -0.0021036373056015122 0 0.022163772771221609 -0.001797320632287696 0 0.018736307148277856 -0.0010335908884591114 0 0.021357390832252351 -0.0009186555067831404 0 0.022397018488778848 -0.0014487758507834431 0 0.022163772771221609 -0.001797320632287696 0 0.022455098110916796 -0.0017166740196744939 0 0.021596251490104849 -0.00091543461120328646 0 0.021357390832252351 -0.0009186555067831404 0 0.022511024170900493 -0.0021036373056015122 0 0.022455098110916796 -0.0017166740196744939 0 0.022734600600437381 -0.0016674976305026895 0 0.022511024170900493 -0.0021036373056015122 0 0.022163772771221609 -0.001797320632287696 0 0.022455098110916796 -0.0017166740196744939 0 0.022556697939585469 -0.0015668976802972918 0 0.022455098110916796 -0.0017166740196744939 0 0.022734600600437381 -0.0016674976305026895 0 0.022734600600437381 -0.0016674976305026895 0 0.023050577298428042 -0.0016960459622382788 0 0.022951653094318979 -0.0020014119314731198 0 0.023050577298428042 -0.0016960459622382788 0 0.022951653094318979 -0.0020014119314731198 0 0.02338098829399585 -0.0019015380586456254 0 0.015243211899006452 -0.00027480217238121622 0 0.015198405040744755 -0.00017356031125056231 0 0.015169573689761932 -0.00020620297862577929 0 0.015243211899006452 -0.00027480217238121622 0 0.015169573689761932 -0.00020620297862577929 0 0.015186440701341454 -0.00026509948820615408 0 0.018580425235439332 -0.0011638650220753902 0 0.021818587978937088 -0.0014796031857294294 0 0.019115639785711496 -0.0012334017148324604 0 0.018580425235439332 -0.0011638650220753902 0 0.022511024170900493 -0.0021036373056015122 0 0.022734600600437381 -0.0016674976305026895 0 0.022951653094318979 -0.0020014119314731198 0 0.015427176316282095 -0.00035195805109603255 0 0.015243211899006452 -0.00027480217238121622 0 0.015274796482668074 -0.00021329573925180532 0 0.015427176316282095 -0.00035195805109603255 0 0.015274796482668074 -0.00021329573925180532 0 0.015294122486667136 -9.0278703528233234e-05 0 0.015274796482668074 -0.00021329573925180532 0 0.015176242141514897 -2.9978647075655292e-05 0 0.015294122486667136 -9.0278703528233234e-05 0 0.015243211899006452 -0.00027480217238121622 0 0.015274796482668074 -0.00021329573925180532 0 0.015198405040744755 -0.00017356031125056231 0 0.015274796482668074 -0.00021329573925180532 0 0.015198405040744755 -0.00017356031125056231 0 0.015176242141514897 -2.9978647075655292e-05 0 0.015198405040744755 -0.00017356031125056231 0 0.015176242141514897 -2.9978647075655292e-05 0 0.015141884043245268 -0.00010831303448937936 0 0.015198405040744755 -0.00017356031125056231 0 0.015141884043245268 -0.00010831303448937936 0 0.015169573689761932 -0.00020620297862577929 0 0.015176242141514897 -2.9978647075655292e-05 0 0.015116657646088692 -2.652284267303622e-05 0 0.015141884043245268 -0.00010831303448937936 0 0.015109213581582421 4.8104190255830085e-05 0 0.015176242141514897 -2.9978647075655292e-05 0 0.015116657646088692 -2.652284267303622e-05 0 0.015138742125797616 0.00010194778226831216 0 0.015109213581582421 4.8104190255830085e-05 0 0.015176242141514897 -2.9978647075655292e-05 0 0.015138742125797616 0.00010194778226831216 0 0.015176242141514897 -2.9978647075655292e-05 0 0.015212287992471091 5.7388514875476313e-05 0 0.015176242141514897 -2.9978647075655292e-05 0 0.015212287992471091 5.7388514875476313e-05 0 0.015294122486667136 -9.0278703528233234e-05 0 0.015328747354848574 9.3210323392345235e-05 0 0.015212287992471091 5.7388514875476313e-05 0 0.015294122486667136 -9.0278703528233234e-05 0 0.015029682470639341 -2.0064619888234957e-05 0 0.015045343047407201 -9.1777739949197861e-05 0 0.014943811420067158 -2.261076678211778e-05 0 0.014991932462199998 6.8708897614102275e-05 0 0.015029682470639341 -2.0064619888234957e-05 0 0.014943811420067158 -2.261076678211778e-05 0 0.015029682470639341 -2.0064619888234957e-05 0 0.015086739678894559 -6.1964437348626205e-05 0 0.015045343047407201 -9.1777739949197861e-05 0 0.014991932462199998 6.8708897614102275e-05 0 0.015029682470639341 -2.0064619888234957e-05 0 0.015066980231962818 1.525857728258371e-05 0 0.015109213581582421 4.8104190255830085e-05 0 0.015066980231962818 1.525857728258371e-05 0 0.015116657646088692 -2.652284267303622e-05 0 0.015066980231962818 1.525857728258371e-05 0 0.015116657646088692 -2.652284267303622e-05 0 0.015086739678894559 -6.1964437348626205e-05 0 0.015116657646088692 -2.652284267303622e-05 0 0.015086739678894559 -6.1964437348626205e-05 0 0.015141884043245268 -0.00010831303448937936 0 0.015029682470639341 -2.0064619888234957e-05 0 0.015066980231962818 1.525857728258371e-05 0 0.015086739678894559 -6.1964437348626205e-05 0 0.015086739678894559 -6.1964437348626205e-05 0 0.015115897870465453 -0.00013257218875551186 0 0.015045343047407201 -9.1777739949197861e-05 0 0.015115897870465453 -0.00013257218875551186 0 0.015111321405518205 -0.00016885544011963386 0 0.015045343047407201 -9.1777739949197861e-05 0 0.015086739678894559 -6.1964437348626205e-05 0 0.015115897870465453 -0.00013257218875551186 0 0.015141884043245268 -0.00010831303448937936 0 0.015115897870465453 -0.00013257218875551186 0 0.015141884043245268 -0.00010831303448937936 0 0.015169573689761932 -0.00020620297862577929 0 0.015115897870465453 -0.00013257218875551186 0 0.015111321405518205 -0.00016885544011963386 0 0.015169573689761932 -0.00020620297862577929 0 0.015045343047407201 -9.1777739949197861e-05 0 0.015041162602177539 -0.00016718542558092871 0 0.014943811420067158 -2.261076678211778e-05 0 0.015111321405518205 -0.00016885544011963386 0 0.015045343047407201 -9.1777739949197861e-05 0 0.015041162602177539 -0.00016718542558092871 0 0.028897675454180642 0.0013207990010309224 0 0.028845223877107057 0.00077556356572967594 0 0.029459972112063033 0.00026887936650488929 0 0.015041162602177539 -0.00016718542558092871 0 0.015172166111699142 -0.00024408562334466853 0 0.01516885587892248 -0.0003007740785987863 0 0.021870854432912923 0.00066262118930731381 0 0.025863750160583385 0.00046070067927068357 0 0.015111321405518205 -0.00016885544011963386 0 0.015041162602177539 -0.00016718542558092871 0 0.015172166111699142 -0.00024408562334466853 0 0.028845223877107057 0.00077556356572967594 0 0.02892477439366934 0.00040632963935302466 0 0.029459972112063033 0.00026887936650488929 0 0.028845223877107057 0.00077556356572967594 0 0.02892477439366934 0.00040632963935302466 0 0.028577211638403058 0.00047911049261675255 0 0.015111321405518205 -0.00016885544011963386 0 0.015169573689761932 -0.00020620297862577929 0 0.015172166111699142 -0.00024408562334466853 0 0.015169573689761932 -0.00020620297862577929 0 0.015172166111699142 -0.00024408562334466853 0 0.015186440701341454 -0.00026509948820615408 0 0.021818587978937088 -0.0014796031857294294 0 0.025863750160583385 0.00046070067927068357 0 0.015172166111699142 -0.00024408562334466853 0 0.015217567854969024 -0.00029272727665823848 0 0.01516885587892248 -0.0003007740785987863 0 0.019403024368362241 0.00020318567526932322 0 0.021818587978937088 -0.0014796031857294294 0 0.030881276407651648 -0.00073278345364375145 0 0.030422153042921597 -0.00082826883052654506 0 0.031010063424420125 -0.0017909441829691106 0 0.025863750160583385 0.00046070067927068357 0 0.031270071814315549 -0.0018941865106855257 0 0.030881276407651648 -0.00073278345364375145 0 0.031463591333072818 -0.0021897970163930404 0 0.031010063424420125 -0.0017909441829691106 0 0.023050577298428042 -0.0016960459622382788 0 0.02338098829399585 -0.0019015380586456254 0 0.023287850900824289 -0.0014600955589926471 0 0.021818587978937088 -0.0014796031857294294 0 0.027974074766604417 -0.0019612107854511656 0 0.030278129798932407 0.00042098222357450703 0 0.029822485540010005 -0.0007065143860049461 0 0.031062688006183604 -0.0011989895847715746 0 0.025863750160583385 0.00046070067927068357 0 0.029977195336964531 0.00043524436320029443 0 0.030278129798932407 0.00042098222357450703 0 0.029822485540010005 -0.0007065143860049461 0 0.028767641839414482 3.19810216275144e-05 0 0.02892477439366934 0.00040632963935302466 0 0.029459972112063033 0.00026887936650488929 0 0.028767641839414482 3.19810216275144e-05 0 0.029822485540010005 -0.0007065143860049461 0 0.029040818249236797 -0.0006074397103317114 0 0.029270913961886632 -0.0013402825602343398 0 0.029822485540010005 -0.0007065143860049461 0 0.029040818249236797 -0.0006074397103317114 0 0.028767641839414482 3.19810216275144e-05 0 0.029270913961886632 -0.0013402825602343398 0 0.030215486423827046 -0.0014866814065477483 0 0.029883913850656169 -0.0020536429204639985 0 0.029822485540010005 -0.0007065143860049461 0 0.029270913961886632 -0.0013402825602343398 0 0.030215486423827046 -0.0014866814065477483 0 0.029822485540010005 -0.0007065143860049461 0 0.030215486423827046 -0.0014866814065477483 0 0.031062688006183604 -0.0011989895847715746 0 0.029883913850656169 -0.0020536429204639985 0 0.030403008469419353 -0.002610175246534248 0 0.030858150632591438 -0.0021573140414126945 0 0.030215486423827046 -0.0014866814065477483 0 0.029883913850656169 -0.0020536429204639985 0 0.030858150632591438 -0.0021573140414126945 0 0.029883913850656169 -0.0020536429204639985 0 0.029386531879805198 -0.0025738918942394421 0 0.028824265799068334 -0.0020533743174622975 0 0.029270913961886632 -0.0013402825602343398 0 0.029883913850656169 -0.0020536429204639985 0 0.028824265799068334 -0.0020533743174622975 0 0.029386531879805198 -0.0025738918942394421 0 0.02986373116491968 -0.0031224152801966514 0 0.02869688409474918 -0.0031843864931645348 0 0.031135140925949524 -0.0032402481810308915 0 0.030648791913448315 -0.0036628255894019736 0 0.02986373116491968 -0.0031224152801966514 0 0.031139235212738457 -0.003165561728502765 0 0.029204696005228698 -0.0041348672436543506 0 0.029386531879805198 -0.0025738918942394421 0 0.030403008469419353 -0.002610175246534248 0 0.02986373116491968 -0.0031224152801966514 0 0.029883913850656169 -0.0020536429204639985 0 0.029386531879805198 -0.0025738918942394421 0 0.030403008469419353 -0.002610175246534248 0 0.030403008469419353 -0.002610175246534248 0 0.02986373116491968 -0.0031224152801966514 0 0.031139235212738457 -0.003165561728502765 0 0.02986373116491968 -0.0031224152801966514 0 0.029204696005228698 -0.0041348672436543506 0 0.02869688409474918 -0.0031843864931645348 0 0.031425287774809234 -0.0030882900219392239 0 0.031509023835610266 -0.0025971068294463814 0 0.031683250339263731 -0.0033034591505518534 0 0.031509023835610266 -0.0025971068294463814 0 0.031463591333072818 -0.0021897970163930404 0 0.031683250339263731 -0.0033034591505518534 0 0.031425287774809234 -0.0030882900219392239 0 0.031139235212738457 -0.003165561728502765 0 0.031509023835610266 -0.0025971068294463814 0 0.031425287774809234 -0.0030882900219392239 0 0.031139235212738457 -0.003165561728502765 0 0.031394294161288326 -0.0031625808904630417 0 0.031139235212738457 -0.003165561728502765 0 0.031434616074336383 -0.0031289915692341852 0 0.031394294161288326 -0.0031625808904630417 0 0.030403008469419353 -0.002610175246534248 0 0.031139235212738457 -0.003165561728502765 0 0.030858150632591438 -0.0021573140414126945 0 0.031139235212738457 -0.003165561728502765 0 0.031509023835610266 -0.0025971068294463814 0 0.030858150632591438 -0.0021573140414126945 0 0.031509023835610266 -0.0025971068294463814 0 0.031463591333072818 -0.0021897970163930404 0 0.031010063424420125 -0.0017909441829691106 0 0.031509023835610266 -0.0025971068294463814 0 0.030858150632591438 -0.0021573140414126945 0 0.031062688006183604 -0.0011989895847715746 0 0.031387962382440432 -0.0023106089339721045 0 0.031270071814315549 -0.0018941865106855257 0 0.030215486423827046 -0.0014866814065477483 0 0.030858150632591438 -0.0021573140414126945 0 0.031062688006183604 -0.0011989895847715746 0 0.023050577298428042 -0.0016960459622382788 0 0.023287850900824289 -0.0014600955589926471 0 0.022891205488026631 -0.0014493862692749172 0 0.023287850900824289 -0.0014600955589926471 0 0.022891205488026631 -0.0014493862692749172 0 0.022946156142147036 -0.0012004005783408881 0 0.022734600600437381 -0.0016674976305026895 0 0.023050577298428042 -0.0016960459622382788 0 0.022891205488026631 -0.0014493862692749172 0 0.022639736858719429 -0.0014355787575679889 0 0.022734600600437381 -0.0016674976305026895 0 0.022891205488026631 -0.0014493862692749172 0 0.022639736858719429 -0.0014355787575679889 0 0.022891205488026631 -0.0014493862692749172 0 0.022731977767006251 -0.0012405383662751947 0 0.022731977767006251 -0.0012405383662751947 0 0.022946156142147036 -0.0012004005783408881 0 0.022800336745793005 -0.00098500522132697341 0 0.022595853474031313 -0.0011240863865047657 0 0.022731977767006251 -0.0012405383662751947 0 0.022800336745793005 -0.00098500522132697341 0 0.022891205488026631 -0.0014493862692749172 0 0.022731977767006251 -0.0012405383662751947 0 0.022946156142147036 -0.0012004005783408881 0 0.027974074766604417 -0.0019612107854511656 0 0.027849117351524674 -0.001921758640957985 0 0.023287850900824289 -0.0014600955589926471 0 0.022946156142147036 -0.0012004005783408881 0 0.023189864425647282 -0.0010207085465988258 0 0.031361904103922388 -0.0032079708585313151 0 0.031209631426719446 -0.0028754450103547491 0 0.031453719559821978 -0.0029715415036127078 0 0.022946156142147036 -0.0012004005783408881 0 0.023189864425647282 -0.0010207085465988258 0 0.022800336745793005 -0.00098500522132697341 0 0.031425287774809234 -0.0030882900219392239 0 0.031475710086387158 -0.0032344253410921892 0 0.031683250339263731 -0.0033034591505518534 0 0.029733700803647563 -0.0022900445852851144 0 0.027849117351524674 -0.001921758640957985 0 0.027849117351524674 -0.001921758640957985 0 0.024844925384002695 -0.0014138298349541368 0 0.031475710086387158 -0.0032344253410921892 0 0.031361904103922388 -0.0032079708585313151 0 0.031464995120137236 -0.0031063237469645946 0 0.028173468283185468 -0.0020052338153696237 0 0.027782670473747932 -0.001668457207906808 0 0.028074590387788485 -0.0016301260365895616 0 0.027849117351524674 -0.001921758640957985 0 0.029721470325556613 -0.0025101465983677768 0 0.028173468283185468 -0.0020052338153696237 0 0.02769718239963416 -0.0019515842063142332 0 0.027782670473747932 -0.001668457207906808 0 0.027501034894077535 -0.0015325064347266769 0 0.02769718239963416 -0.0019515842063142332 0 0.027782670473747932 -0.001668457207906808 0 0.027782670473747932 -0.001668457207906808 0 0.027748571887035861 -0.0013767672684456007 0 0.027993286884444933 -0.0014622431208184551 0 0.027501034894077535 -0.0015325064347266769 0 0.027782670473747932 -0.001668457207906808 0 0.027748571887035861 -0.0013767672684456007 0 0.028074590387788485 -0.0016301260365895616 0 0.027993286884444933 -0.0014622431208184551 0 0.02798032256198104 -0.001260697020722477 0 0.031209631426719446 -0.0028754450103547491 0 0.031424097612916646 -0.0026755727635588492 0 0.031061314922615248 -0.0024753692126537911 0 0.029721470325556613 -0.0025101465983677768 0 0.0287590388237343 -0.001602714250084489 0 0.031209631426719446 -0.0028754450103547491 0 0.031424097612916646 -0.0026755727635588492 0 0.031453719559821978 -0.0029715415036127078 0 0.027782670473747932 -0.001668457207906808 0 0.028074590387788485 -0.0016301260365895616 0 0.027993286884444933 -0.0014622431208184551 0 0.031424097612916646 -0.0026755727635588492 0 0.031608785120695169 -0.0028135318296458193 0 0.031715660345606647 -0.0025632547332482712 0 0.031424097612916646 -0.0026755727635588492 0 0.031608785120695169 -0.0028135318296458193 0 0.031453719559821978 -0.0029715415036127078 0 0.031608785120695169 -0.0028135318296458193 0 0.031848854199614467 -0.002744887750059587 0 0.031601165776278313 -0.0029925693682887116 0 0.031608785120695169 -0.0028135318296458193 0 0.031453719559821978 -0.0029715415036127078 0 0.031601165776278313 -0.0029925693682887116 0 0.031608785120695169 -0.0028135318296458193 0 0.031848854199614467 -0.002744887750059587 0 0.031715660345606647 -0.0025632547332482712 0 0.031848854199614467 -0.002744887750059587 0 0.032041184654878818 -0.002475095399411507 0 0.031715660345606647 -0.0025632547332482712 0 0.031848854199614467 -0.002744887750059587 0 0.032169083653419528 -0.0026800695567199789 0 0.032041184654878818 -0.002475095399411507 0 0.032169083653419528 -0.0026800695567199789 0 0.031938086748841125 -0.0029311095164699309 0 0.032198123401816117 -0.0028393235823935556 0 0.031848854199614467 -0.002744887750059587 0 0.032169083653419528 -0.0026800695567199789 0 0.031938086748841125 -0.0029311095164699309 0 0.031848854199614467 -0.002744887750059587 0 0.031938086748841125 -0.0029311095164699309 0 0.031601165776278313 -0.0029925693682887116 0 0.031139235212738457 -0.003165561728502765 0 0.032037064492024446 -0.003230115136751234 0 0.031611044542928998 -0.0030963339318719756 0 0.031938086748841125 -0.0029311095164699309 0 0.031611044542928998 -0.0030963339318719756 0 0.031601165776278313 -0.0029925693682887116 0 0.031938086748841125 -0.0029311095164699309 0 0.032037064492024446 -0.003230115136751234 0 0.032225730844245029 -0.0029639505887313431 0 0.031938086748841125 -0.0029311095164699309 0 0.032037064492024446 -0.003230115136751234 0 0.031611044542928998 -0.0030963339318719756 0 0.031139235212738457 -0.003165561728502765 0 0.031611044542928998 -0.0030963339318719756 0 0.031434616074336383 -0.0031289915692341852 0 0.031611044542928998 -0.0030963339318719756 0 0.031434616074336383 -0.0031289915692341852 0 0.031601165776278313 -0.0029925693682887116 0 0.031425287774809234 -0.0030882900219392239 0 0.031475710086387158 -0.0032344253410921892 0 0.031394294161288326 -0.0031625808904630417 0 0.031475710086387158 -0.0032344253410921892 0 0.031394294161288326 -0.0031625808904630417 0 0.031464995120137236 -0.0031063237469645946 0 0.031434616074336383 -0.0031289915692341852 0 0.031394294161288326 -0.0031625808904630417 0 0.031464995120137236 -0.0031063237469645946 0 0.031361904103922388 -0.0032079708585313151 0 0.031464995120137236 -0.0031063237469645946 0 0.031453719559821978 -0.0029715415036127078 0 0.031464995120137236 -0.0031063237469645946 0 0.031453719559821978 -0.0029715415036127078 0 0.031601165776278313 -0.0029925693682887116 0 0.031434616074336383 -0.0031289915692341852 0 0.031464995120137236 -0.0031063237469645946 0 0.031601165776278313 -0.0029925693682887116 0 0.027070396411152754 -0.0027216457439761151 0 0.027062002769120776 -0.0027174435006572148 0 0.027067730416845404 -0.0027134421034332515 0 0.029715312999714007 -0.003335749524883868 0 0.030321798974561529 -0.0029382776864967891 0 0.027070396411152754 -0.0027216457439761151 0 0.027062002769120776 -0.0027174435006572148 0 0.027056115836146387 -0.0027171943426088467 0 0.029715312999714007 -0.003335749524883868 0 0.026907520502396719 -0.0035359762821582839 0 0.027070396411152754 -0.0027216457439761151 0 0.027056115836146387 -0.0027171943426088467 0 0.027060710765918809 -0.0027170508455957249 0 0.028038937568032846 -0.004259094871972454 0 0.026907520502396719 -0.0035359762821582839 0 0.029204696005228698 -0.0041348672436543506 0 0.027519027258861021 -0.0049015594757405769 0 0.028310410470814812 -0.0043238849356160092 0 0.032037064492024446 -0.003230115136751234 0 0.03255846025689034 -0.0029714038680545151 0 0.032225730844245029 -0.0029639505887313431 0 0.030648791913448315 -0.0036628255894019736 0 0.029715312999714007 -0.003335749524883868 0 0.027519027258861021 -0.0049015594757405769 0 0.028310410470814812 -0.0043238849356160092 0 0.027664437422582146 -0.003816433317929305 0 0.029204696005228698 -0.0041348672436543506 0 0.028310410470814812 -0.0043238849356160092 0 0.02869688409474918 -0.0031843864931645348 0 0.031938086748841125 -0.0029311095164699309 0 0.032225730844245029 -0.0029639505887313431 0 0.032198123401816117 -0.0028393235823935556 0 0.032225730844245029 -0.0029639505887313431 0 0.03237533896704646 -0.0028461890709133271 0 0.032198123401816117 -0.0028393235823935556 0 0.03255846025689034 -0.0029714038680545151 0 0.032225730844245029 -0.0029639505887313431 0 0.03237533896704646 -0.0028461890709133271 0 0.03255846025689034 -0.0029714038680545151 0 0.03237533896704646 -0.0028461890709133271 0 0.032565790305412796 -0.0028296362899188437 0 0.03237533896704646 -0.0028461890709133271 0 0.032465574311987037 -0.0027289341270854317 0 0.032565790305412796 -0.0028296362899188437 0 0.03237533896704646 -0.0028461890709133271 0 0.032465574311987037 -0.0027289341270854317 0 0.032325179150947396 -0.0027338455493127545 0 0.03237533896704646 -0.0028461890709133271 0 0.032198123401816117 -0.0028393235823935556 0 0.032325179150947396 -0.0027338455493127545 0 0.032169083653419528 -0.0026800695567199789 0 0.032198123401816117 -0.0028393235823935556 0 0.032325179150947396 -0.0027338455493127545 0 0.032169083653419528 -0.0026800695567199789 0 0.032325179150947396 -0.0027338455493127545 0 0.032418455951615736 -0.0025874395160961502 0 0.032169083653419528 -0.0026800695567199789 0 0.032418455951615736 -0.0025874395160961502 0 0.032312254497461952 -0.0024293077122190345 0 0.032418455951615736 -0.0025874395160961502 0 0.032603549398043143 -0.0026441113715431636 0 0.032571731602587708 -0.0024840096212010222 0 0.032465574311987037 -0.0027289341270854317 0 0.032418455951615736 -0.0025874395160961502 0 0.032603549398043143 -0.0026441113715431636 0 0.032465574311987037 -0.0027289341270854317 0 0.032325179150947396 -0.0027338455493127545 0 0.032418455951615736 -0.0025874395160961502 0 0.032603549398043143 -0.0026441113715431636 0 0.032701170585700767 -0.0025205466184186668 0 0.032571731602587708 -0.0024840096212010222 0 0.029715312999714007 -0.003335749524883868 0 0.030453023540044661 -0.0025048388333539459 0 0.032551095712055431 -0.0029151987009529584 0 0.032565790305412796 -0.0028296362899188437 0 0.032838166709619178 -0.0027054131009731116 0 0.032603549398043143 -0.0026441113715431636 0 0.032565790305412796 -0.0028296362899188437 0 0.032838166709619178 -0.0027054131009731116 0 0.032465574311987037 -0.0027289341270854317 0 0.032603549398043143 -0.0026441113715431636 0 0.032565790305412796 -0.0028296362899188437 0 0.032603549398043143 -0.0026441113715431636 0 0.032838166709619178 -0.0027054131009731116 0 0.032701170585700767 -0.0025205466184186668 0 0.030453023540044661 -0.0025048388333539459 0 0.027197543156632389 -0.0027638200126222593 0 0.032838166709619178 -0.0027054131009731116 0 0.032822903698720783 -0.0024249110563520121 0 0.032701170585700767 -0.0025205466184186668 0 0.032838166709619178 -0.0027054131009731116 0 0.03304910187240629 -0.002554481722217357 0 0.032975633673352496 -0.0024382071057844276 0 0.027067730416845404 -0.0027134421034332515 0 0.02707371075408677 -0.0027055416644919113 0 0.027057449488372822 -0.0027186207984018392 0 0.027197543156632389 -0.0027638200126222593 0 0.024362947360030873 -0.0026747618301063108 0 0.021382777990957186 -0.003520413628848603 0 0.021099867207371108 -0.002528388956055316 0 0.021039693623989879 -0.0036875105923985384 0 0.021382777990957186 -0.003520413628848603 0 0.021099867207371108 -0.002528388956055316 0 0.022116748816062314 -0.0023409509672340316 0 0.027197543156632389 -0.0027638200126222593 0 0.02575272798473437 -0.0019041323666177986 0 0.021099867207371108 -0.002528388956055316 0 0.022116748816062314 -0.0023409509672340316 0 0.021550728672186343 -0.0014246931270750175 0 0.021099867207371108 -0.002528388956055316 0 0.021550728672186343 -0.0014246931270750175 0 0.020481568129480838 -0.0014938570712970281 0 0.027056115836146387 -0.0027171943426088467 0 0.027057449488372822 -0.0027186207984018392 0 0.027037943073428442 -0.0027106200033573218 0 0.027062002769120776 -0.0027174435006572148 0 0.027056115836146387 -0.0027171943426088467 0 0.027057449488372822 -0.0027186207984018392 0 0.027062002769120776 -0.0027174435006572148 0 0.027067730416845404 -0.0027134421034332515 0 0.027057449488372822 -0.0027186207984018392 0 0.024362947360030873 -0.0026747618301063108 0 0.023733891091249227 -0.0019566822716206213 0 0.022116748816062314 -0.0023409509672340316 0 0.021550728672186343 -0.0014246931270750175 0 0.022876215353539526 -0.0011508830323123411 0 0.021550728672186343 -0.0014246931270750175 0 0.02205734600265143 -0.00051625483164090215 0 0.022876215353539526 -0.0011508830323123411 0 0.020716861410055146 -0.0010298068432813691 0 0.023733891091249227 -0.0019566822716206213 0 0.021550728672186343 -0.0014246931270750175 0 0.020806955390074097 -0.000593354866657649 0 0.020481568129480838 -0.0014938570712970281 0 0.021550728672186343 -0.0014246931270750175 0 0.020806955390074097 -0.000593354866657649 0 0.02205734600265143 -0.00051625483164090215 0 0.020806955390074097 -0.000593354866657649 0 0.021228970428074968 0.00012177748485554898 0 0.02205734600265143 -0.00051625483164090215 0 0.018403702456256926 -0.00046816415718783547 0 0.020716861410055146 -0.0010298068432813691 0 0.018403702456256926 -0.00046816415718783547 0 0.016704106219037923 -0.0012748095495483665 0 0.018460286714300486 -0.0008371086728196259 0 0.019524234564700205 -0.0016661210171094109 0 0.020053240208317211 -0.00083386978380787374 0 0.019524234564700205 -0.0016661210171094109 0 0.020436149110214484 -0.0015048725329797508 0 0.020588345356656292 -0.0024811582957703525 0 0.019524234564700205 -0.0016661210171094109 0 0.020053240208317211 -0.00083386978380787374 0 0.020436149110214484 -0.0015048725329797508 0 0.020436149110214484 -0.0015048725329797508 0 0.020588345356656292 -0.0024811582957703525 0 0.021637857386134569 -0.00082944344263924277 0 0.023733891091249227 -0.0019566822716206213 0 0.02165690773974939 -0.0017138062432732067 0 0.016704106219037923 -0.0012748095495483665 0 0.02165690773974939 -0.0017138062432732067 0 0.024385521865393781 -0.0026003270921112968 0 0.024784121861821953 -0.0024498519006623757 0 0.024740758226572783 -0.0020352031566097028 0 0.020053240208317211 -0.00083386978380787374 0 0.020436149110214484 -0.0015048725329797508 0 0.021637857386134569 -0.00082944344263924277 0 0.024385521865393781 -0.0026003270921112968 0 0.024742713274672111 -0.0028756833228177304 0 0.024784121861821953 -0.0024498519006623757 0 0.023733891091249227 -0.0019566822716206213 0 0.026907520502396719 -0.0035359762821582839 0 0.027056115836146387 -0.0027171943426088467 0 0.027037943073428442 -0.0027106200033573218 0 0.027060710765918809 -0.0027170508455957249 0 0.028310410470814812 -0.0043238849356160092 0 0.027634585260482094 -0.0037992525978858558 0 0.02869688409474918 -0.0031843864931645348 0 0.027634585260482094 -0.0037992525978858558 0 0.02869688409474918 -0.0031843864931645348 0 0.027814978537401489 -0.0023742952396413742 0 0.026907520502396719 -0.0035359762821582839 0 0.026290173219443842 -0.0023894875735053734 0 0.02869688409474918 -0.0031843864931645348 0 0.028824265799068334 -0.0020533743174622975 0 0.027814978537401489 -0.0023742952396413742 0 0.029386531879805198 -0.0025738918942394421 0 0.02869688409474918 -0.0031843864931645348 0 0.028824265799068334 -0.0020533743174622975 0 0.028824265799068334 -0.0020533743174622975 0 0.027814978537401489 -0.0023742952396413742 0 0.028510045891113958 -0.0015490754291239439 0 0.026290173219443842 -0.0023894875735053734 0 0.025380403169609284 -0.0014453236559079337 0 0.027814978537401489 -0.0023742952396413742 0 0.027980181279824143 -0.0010067581381533401 0 0.028510045891113958 -0.0015490754291239439 0 0.025380403169609284 -0.0014453236559079337 0 0.028219915553608768 -0.001237820199089479 0 0.024784121861821953 -0.0024498519006623757 0 0.024827081553296489 -0.0020344861054586924 0 0.024740758226572783 -0.0020352031566097028 0 0.025380403169609284 -0.0014453236559079337 0 0.02165690773974939 -0.0017138062432732067 0 0.027980181279824143 -0.0010067581381533401 0 0.028656660215057937 -0.0010000117319165641 0 0.028510045891113958 -0.0015490754291239439 0 0.029270913961886632 -0.0013402825602343398 0 0.028824265799068334 -0.0020533743174622975 0 0.028510045891113958 -0.0015490754291239439 0 0.029270913961886632 -0.0013402825602343398 0 0.028656660215057937 -0.0010000117319165641 0 0.028510045891113958 -0.0015490754291239439 0 0.029040818249236797 -0.0006074397103317114 0 0.028009776763371276 -0.00043451580836627676 0 0.028767641839414482 3.19810216275144e-05 0 0.029040818249236797 -0.0006074397103317114 0 0.028656660215057937 -0.0010000117319165641 0 0.028009776763371276 -0.00043451580836627676 0 0.029040818249236797 -0.0006074397103317114 0 0.029270913961886632 -0.0013402825602343398 0 0.028656660215057937 -0.0010000117319165641 0 0.025380403169609284 -0.0014453236559079337 0 0.024273067045336372 -0.00097268476067940209 0 0.027926341883537001 -0.0010041694067383245 0 0.028656660215057937 -0.0010000117319165641 0 0.028009776763371276 -0.00043451580836627676 0 0.023798832398459029 -0.00060601339352255338 0 0.024155639311528809 -0.00060280861281169021 0 0.023710805371465381 -0.0013073175078915759 0 0.02165690773974939 -0.0017138062432732067 0 0.024273067045336372 -0.00097268476067940209 0 0.024273067045336372 -0.00097268476067940209 0 0.028680475456116374 0.0011306405785349316 0 0.028009776763371276 -0.00043451580836627676 0 0.028767641839414482 3.19810216275144e-05 0 0.028577211638403058 0.00047911049261675255 0 0.015425797453400242 -0.0015706222603382065 0 0.015360407211571402 -0.00096484694138379925 0 0.015438379161831722 -0.0016083386977234391 0 0.015335553923634481 -0.0010204217588500909 0 0.01517170396990343 -0.001311438073481605 0 0.015135661684455516 -0.0016777667057086808 0 0.015688318730802495 -0.0016588541363464228 0 0.015438379161831722 -0.0016083386977234391 0 0.015799977158927943 -0.0014790587003720599 0 0.015438379161831722 -0.0016083386977234391 0 0.015377347310612587 -0.00088327149167867329 0 0.015135661684455516 -0.0016777667057086808 0 0.015438379161831722 -0.0016083386977234391 0 0.01517170396990343 -0.001311438073481605 0 0.015688318730802495 -0.0016588541363464228 0 0.015799977158927943 -0.0014790587003720599 0 0.015438379161831722 -0.0016083386977234391 0 0.024273067045336372 -0.00097268476067940209 0 0.022089426198246238 0.00027484800896251769 0 0.015799977158927943 -0.0014790587003720599 0 0.015377347310612587 -0.00088327149167867329 0 0.01581607512282358 -0.00082315214040192387 0 0.028059806032957692 -0.0002731381647826486 0 0.028577211638403058 0.00047911049261675255 0 0.028242176716420465 0.0010875984693516009 0 0.02892477439366934 0.00040632963935302466 0 0.028767641839414482 3.19810216275144e-05 0 0.028577211638403058 0.00047911049261675255 0 0.028845223877107057 0.00077556356572967594 0 0.028577211638403058 0.00047911049261675255 0 0.028242176716420465 0.0010875984693516009 0 0.028897675454180642 0.0013207990010309224 0 0.028845223877107057 0.00077556356572967594 0 0.028242176716420465 0.0010875984693516009 0 0.01581607512282358 -0.00082315214040192387 0 0.015580736076378067 -0.00053965002203236055 0 0.015771468468452898 -0.00028832836611398762 0 0.022089426198246238 0.00027484800896251769 0 0.019039349879549108 0.00043121973992351281 0 0.021870854432912923 0.00066262118930731381 0 0.019039349879549108 0.00043121973992351281 0 0.028897675454180642 0.0013207990010309224 0 0.028242176716420465 0.0010875984693516009 0 0.028269482557905783 0.0023290658107862549 0 0.015377347310612587 -0.00088327149167867329 0 0.015580736076378067 -0.00053965002203236055 0 0.0153157009782029 -0.00029585174811833911 0 0.015335553923634481 -0.0010204217588500909 0 0.015277076136106712 -0.00043203422154975785 0 0.015023074898885944 -0.00095101858012028046 0 0.015377347310612587 -0.00088327149167867329 0 0.01581607512282358 -0.00082315214040192387 0 0.015580736076378067 -0.00053965002203236055 0 0.015360407211571402 -0.00096484694138379925 0 0.015292125255801838 -0.00035582686182972743 0 0.015456526575012078 7.2958846612908876e-05 0 0.0153157009782029 -0.00029585174811833911 0 0.015771468468452898 -0.00028832836611398762 0 0.015580736076378067 -0.00053965002203236055 0 0.0153157009782029 -0.00029585174811833911 0 0.015771468468452898 -0.00028832836611398762 0 0.014792388548191442 -0.00030619989164286393 0 0.014751593144071122 -0.00065857939550733637 0 0.014366605880617021 -0.00038061809925736366 0 0.014517836925325663 -9.7551082579995876e-06 0 0.014792388548191442 -0.00030619989164286393 0 0.014366605880617021 -0.00038061809925736366 0 0.015062243486461638 -0.0001542314264198698 0 0.015277076136106712 -0.00043203422154975785 0 0.014792388548191442 -0.00030619989164286393 0 0.015277076136106712 -0.00043203422154975785 0 0.014792388548191442 -0.00030619989164286393 0 0.014751593144071122 -0.00065857939550733637 0 0.015277076136106712 -0.00043203422154975785 0 0.014751593144071122 -0.00065857939550733637 0 0.015023074898885944 -0.00095101858012028046 0 0.014751593144071122 -0.00065857939550733637 0 0.014613196248370004 -0.0011112918099091958 0 0.015023074898885944 -0.00095101858012028046 0 0.014751593144071122 -0.00065857939550733637 0 0.014613196248370004 -0.0011112918099091958 0 0.01424112473656056 -0.00080242499254950638 0 0.014751593144071122 -0.00065857939550733637 0 0.01424112473656056 -0.00080242499254950638 0 0.014366605880617021 -0.00038061809925736366 0 0.015335553923634481 -0.0010204217588500909 0 0.015023074898885944 -0.00095101858012028046 0 0.01517170396990343 -0.001311438073481605 0 0.014613196248370004 -0.0011112918099091958 0 0.015023074898885944 -0.00095101858012028046 0 0.014924316680151171 -0.0013229435106668383 0 0.015023074898885944 -0.00095101858012028046 0 0.01517170396990343 -0.001311438073481605 0 0.014924316680151171 -0.0013229435106668383 0 0.014664189755784996 -0.0016877820253450423 0 0.015135661684455516 -0.0016777667057086808 0 0.014924316680151171 -0.0013229435106668383 0 0.015135661684455516 -0.0016777667057086808 0 0.01517170396990343 -0.001311438073481605 0 0.014924316680151171 -0.0013229435106668383 0 0.014664189755784996 -0.0016877820253450423 0 0.014613196248370004 -0.0011112918099091958 0 0.014066870462038812 -0.0012565324714423796 0 0.014664189755784996 -0.0016877820253450423 0 0.014613196248370004 -0.0011112918099091958 0 0.014924316680151171 -0.0013229435106668383 0 0.018403702456256926 -0.00046816415718783547 0 0.017107974834226481 -0.00041875938055561273 0 0.014066870462038812 -0.0012565324714423796 0 0.01424112473656056 -0.00080242499254950638 0 0.013470729742716965 -0.00081364317726098786 0 0.019967425337165775 5.2906596303832028e-05 0 0.019252489923973735 0.00065825493842492711 0 0.019414680614242931 5.754600280279058e-05 0 0.019252489923973735 0.00065825493842492711 0 0.018654119444845744 0.0006314305978601675 0 0.018868638021603344 1.7469791686249528e-05 0 0.019252489923973735 0.00065825493842492711 0 0.018868638021603344 1.7469791686249528e-05 0 0.019414680614242931 5.754600280279058e-05 0 0.017107974834226481 -0.00041875938055561273 0 0.012482706418550827 0.00013039188763475939 0 0.019252489923973735 0.00065825493842492711 0 0.01834656166782898 0.0013751933969086104 0 0.018654119444845744 0.0006314305978601675 0 0.014613196248370004 -0.0011112918099091958 0 0.014066870462038812 -0.0012565324714423796 0 0.01424112473656056 -0.00080242499254950638 0 0.01424112473656056 -0.00080242499254950638 0 0.01399695425635971 -0.00041305630136920642 0 0.013470729742716965 -0.00081364317726098786 0 0.009344284391789151 -0.00041895496996113206 0 0.012482706418550827 0.00013039188763475939 0 0.01126734438522835 -0.00036398012780564136 0 0.009344284391789151 -0.00041895496996113206 0 0.014474538635992939 -4.3255025359253663e-05 0 0.01399695425635971 -0.00041305630136920642 0 0.014366605880617021 -0.00038061809925736366 0 0.01424112473656056 -0.00080242499254950638 0 0.01399695425635971 -0.00041305630136920642 0 0.014366605880617021 -0.00038061809925736366 0 0.006439027319531004 -0.00028625785585159412 0 0.0068557131662588307 -5.2344928556729844e-05 0 0.0065076417364422013 0.00025691729651678211 0 0.006439027319531004 -0.00028625785585159412 0 0.0060740648543534783 -4.0066849257679404e-05 0 0.0065076417364422013 0.00025691729651678211 0 0.011114181636455098 0.00036140829391133111 0 0.01578122601793934 0.00070764998918176653 0 0.01364345294209471 -0.00016868801896253966 0 0.01354615000987382 0.00029090991467122727 0 0.013819050775802776 5.2840755655330927e-05 0 0.011114181636455098 0.00036140829391133111 0 0.012482706418550827 0.00013039188763475939 0 0.012832492477737871 0.00076522575658955708 0 0.013320996185237606 0.0003971183169652363 0 0.013042808938117115 0.00017248857310643681 0 0.01354615000987382 0.00029090991467122727 0 0.013819050775802776 5.2840755655330927e-05 0 0.013725785474987009 0.00042873423913284222 0 0.017847461764450477 0.00098270218095912226 0 0.018213024742656504 0.0008773356285180857 0 0.018006709593331918 0.00051638765388759445 0 0.01578122601793934 0.00070764998918176653 0 0.017598554975995363 0.00040603876395450394 0 0.017837739286281316 0.001014816776391313 0 0.018006709593331918 0.00051638765388759445 0 0.017425076496567729 0.00068881211668839377 0 0.01578122601793934 0.00070764998918176653 0 0.015652358808412734 0.00055111746745713946 0 0.01834656166782898 0.0013751933969086104 0 0.018654119444845744 0.0006314305978601675 0 0.018213024742656504 0.0008773356285180857 0 0.018654119444845744 0.0006314305978601675 0 0.018213024742656504 0.0008773356285180857 0 0.018006709593331918 0.00051638765388759445 0 0.012482706418550827 0.00013039188763475939 0 0.01578122601793934 0.00070764998918176653 0 0.01834656166782898 0.0013751933969086104 0 0.017847461764450477 0.00098270218095912226 0 0.018213024742656504 0.0008773356285180857 0 0.018654119444845744 0.0006314305978601675 0 0.01831870897751171 0.00016810716972432809 0 0.018006709593331918 0.00051638765388759445 0 0.018654119444845744 0.0006314305978601675 0 0.01831870897751171 0.00016810716972432809 0 0.018868638021603344 1.7469791686249528e-05 0 0.01831870897751171 0.00016810716972432809 0 0.018006709593331918 0.00051638765388759445 0 0.017922758709575951 0.0002043574745070132 0 0.01831870897751171 0.00016810716972432809 0 0.017922758709575951 0.0002043574745070132 0 0.018129475105447244 -0.00011066419963569176 0 0.017922758709575951 0.0002043574745070132 0 0.017737927221124737 -0.00023780197142858956 0 0.017425076496567729 0.00068881211668839377 0 0.021652248624099112 0.00054486088285337275 0 0.015652358808412734 0.00055111746745713946 0 0.018006709593331918 0.00051638765388759445 0 0.017922758709575951 0.0002043574745070132 0 0.017425076496567729 0.00068881211668839377 0 0.021652248624099112 0.00054486088285337275 0 0.023998667880003068 0.00071997847907173315 0 0.017737927221124737 -0.00023780197142858956 0 0.018265495889512744 -0.00054393666573446947 0 0.018129475105447244 -0.00011066419963569176 0 0.017922758709575951 0.0002043574745070132 0 0.017737927221124737 -0.00023780197142858956 0 0.018129475105447244 -0.00011066419963569176 0 0.022468774257262507 0.0012349865518503748 0 0.022996333821822135 0.00061382317324236348 0 0.023080133108996238 0.00094647421390758781 0 0.021652248624099112 0.00054486088285337275 0 0.01974965556157773 -0.00022182772554957676 0 0.024833044833872019 0.0014632198256463703 0 0.024692612156700579 0.0011271775308400829 0 0.024525335516364943 0.0013571817714182264 0 0.022468774257262507 0.0012349865518503748 0 0.022774525207833744 0.00035362533144233396 0 0.022996333821822135 0.00061382317324236348 0 0.024833044833872019 0.0014632198256463703 0 0.024692612156700579 0.0011271775308400829 0 0.025015930723907415 0.00094357829731870312 0 0.024692612156700579 0.0011271775308400829 0 0.025015930723907415 0.00094357829731870312 0 0.024658909827853338 0.00081822724500598266 0 0.01816996498683025 -0.0005902223647518837 0 0.019109476181771692 -0.0008142026590615951 0 0.019075271038073657 -0.0016222824643241389 0 0.01974965556157773 -0.00022182772554957676 0 0.021578613374103384 -0.00074202349881686116 0 0.023195131237263033 0.00040506057617247979 0 0.023080133108996238 0.00094647421390758781 0 0.023789496068936093 0.00018684303555302039 0 0.023195131237263033 0.00040506057617247979 0 0.023789496068936093 0.00018684303555302039 0 0.023324289620579863 -3.9494948815888269e-05 0 0.022774525207833744 0.00035362533144233396 0 0.023195131237263033 0.00040506057617247979 0 0.023324289620579863 -3.9494948815888269e-05 0 0.022774525207833744 0.00035362533144233396 0 0.023195131237263033 0.00040506057617247979 0 0.022996333821822135 0.00061382317324236348 0 0.023195131237263033 0.00040506057617247979 0 0.022996333821822135 0.00061382317324236348 0 0.023080133108996238 0.00094647421390758781 0 0.018701474331050256 -0.00035946284000343992 0 0.018265495889512744 -0.00054393666573446947 0 0.019109476181771692 -0.0008142026590615951 0 0.018701474331050256 -0.00035946284000343992 0 0.018265495889512744 -0.00054393666573446947 0 0.018464685684279742 -0.00014843382032785087 0 0.01974965556157773 -0.00022182772554957676 0 0.018576546245617036 -0.0006525098634652391 0 0.018265495889512744 -0.00054393666573446947 0 0.018129475105447244 -0.00011066419963569176 0 0.018464685684279742 -0.00014843382032785087 0 0.01831870897751171 0.00016810716972432809 0 0.018129475105447244 -0.00011066419963569176 0 0.018464685684279742 -0.00014843382032785087 0 0.01831870897751171 0.00016810716972432809 0 0.018464685684279742 -0.00014843382032785087 0 0.018868638021603344 1.7469791686249528e-05 0 0.018701474331050256 -0.00035946284000343992 0 0.018464685684279742 -0.00014843382032785087 0 0.018868638021603344 1.7469791686249528e-05 0 0.018821755447633839 3.4173173767495069e-05 0 0.020138848165349867 8.5962542266368339e-05 0 0.018868638021603344 1.7469791686249528e-05 0 0.020073797022381084 0.00010492542915166354 0 0.019773882131775014 -0.00056204682908124232 0 0.018868638021603344 1.7469791686249528e-05 0 0.019773882131775014 -0.00056204682908124232 0 0.019109476181771692 -0.0008142026590615951 0 0.018701474331050256 -0.00035946284000343992 0 0.018868638021603344 1.7469791686249528e-05 0 0.019109476181771692 -0.0008142026590615951 0 0.018403702456256926 -0.00046816415718783547 0 0.020138848165349867 8.5962542266368339e-05 0 0.020806955390074097 -0.000593354866657649 0 0.021228970428074968 0.00012177748485554898 0 0.020073797022381084 0.00010492542915166354 0 0.020806955390074097 -0.000593354866657649 0 0.020073797022381084 0.00010492542915166354 0 0.019773882131775014 -0.00056204682908124232 0 0.020806955390074097 -0.000593354866657649 0 0.019773882131775014 -0.00056204682908124232 0 0.020481568129480838 -0.0014938570712970281 0 0.019773882131775014 -0.00056204682908124232 0 0.020481568129480838 -0.0014938570712970281 0 0.019728452053807653 -0.0012630029135651489 0 0.019773882131775014 -0.00056204682908124232 0 0.019109476181771692 -0.0008142026590615951 0 0.019728452053807653 -0.0012630029135651489 0 0.019109476181771692 -0.0008142026590615951 0 0.019728452053807653 -0.0012630029135651489 0 0.019075271038073657 -0.0016222824643241389 0 0.023789496068936093 0.00018684303555302039 0 0.0237798472328394 -0.00060981443094378595 0 0.02450390483932741 -0.00058036146276730565 0 0.019728452053807653 -0.0012630029135651489 0 0.019075271038073657 -0.0016222824643241389 0 0.020059070103424503 -0.0026674861243266373 0 0.021578613374103384 -0.00074202349881686116 0 0.021945295785698704 -0.0015449781000174694 0 0.023789496068936093 0.00018684303555302039 0 0.0237798472328394 -0.00060981443094378595 0 0.023324289620579863 -3.9494948815888269e-05 0 0.021099867207371108 -0.002528388956055316 0 0.020481568129480838 -0.0014938570712970281 0 0.020059070103424503 -0.0026674861243266373 0 0.020481568129480838 -0.0014938570712970281 0 0.019728452053807653 -0.0012630029135651489 0 0.020059070103424503 -0.0026674861243266373 0 0.021945295785698704 -0.0015449781000174694 0 0.02575272798473437 -0.0019041323666177986 0 0.021099867207371108 -0.002528388956055316 0 0.020059070103424503 -0.0026674861243266373 0 0.021039693623989879 -0.0036875105923985384 0 0.02450390483932741 -0.00058036146276730565 0 0.024331480859336153 -0.0011750088829232477 0 0.02521526491523593 -0.0013533261001324366 0 0.0237798472328394 -0.00060981443094378595 0 0.02450390483932741 -0.00058036146276730565 0 0.024331480859336153 -0.0011750088829232477 0 0.0237798472328394 -0.00060981443094378595 0 0.024331480859336153 -0.0011750088829232477 0 0.023395887731353364 -0.0014283173806706741 0 0.0237798472328394 -0.00060981443094378595 0 0.023084911752716999 -0.0005353193258757034 0 0.023395887731353364 -0.0014283173806706741 0 0.024087204750019426 -9.01668219939392e-05 0 0.025309173155781947 -0.00024172884556958261 0 0.025184549873497355 0.00046309931576410678 0 0.02536028712491371 2.1639003652476395e-06 0 0.025293010800422674 2.9640122552573447e-05 0 0.02503708263525951 0.00017351433523010598 0 0.025184549873497355 0.00046309931576410678 0 0.025293010800422674 2.9640122552573447e-05 0 0.02503708263525951 0.00017351433523010598 0 0.024793268164851667 0.00029694721161353435 0 0.025184549873497355 0.00046309931576410678 0 0.024793268164851667 0.00029694721161353435 0 0.024881046624691195 -9.9486433373406771e-05 0 0.024616636607222599 0.00019051611787964743 0 0.02503708263525951 0.00017351433523010598 0 0.024793268164851667 0.00029694721161353435 0 0.024881046624691195 -9.9486433373406771e-05 0 0.024793268164851667 0.00029694721161353435 0 0.024853680523307102 0.00060015316143908787 0 0.025184549873497355 0.00046309931576410678 0 0.025015930723907415 0.00094357829731870312 0 0.024853680523307102 0.00060015316143908787 0 0.025184549873497355 0.00046309931576410678 0 0.024793268164851667 0.00029694721161353435 0 0.024853680523307102 0.00060015316143908787 0 0.024617854288637678 0.00049221639554360456 0 0.024853680523307102 0.00060015316143908787 0 0.024658909827853338 0.00081822724500598266 0 0.024617854288637678 0.00049221639554360456 0 0.025015930723907415 0.00094357829731870312 0 0.024853680523307102 0.00060015316143908787 0 0.024658909827853338 0.00081822724500598266 0 0.023998667880003068 0.00071997847907173315 0 0.024087204750019426 -9.01668219939392e-05 0 0.022774525207833744 0.00035362533144233396 0 0.023324289620579863 -3.9494948815888269e-05 0 0.023084911752716999 -0.0005353193258757034 0 0.0237798472328394 -0.00060981443094378595 0 0.023324289620579863 -3.9494948815888269e-05 0 0.023084911752716999 -0.0005353193258757034 0 0.03428177181437226 0.0014472686188368574 0 0.034349750410400101 0.00049702305652583856 0 0.034002365885268164 0.00054811683478294239 0 0.03102337456167259 -0.00080786566308954698 0 0.029653885128378028 -2.0227311924218739e-05 0 0.03428177181437226 0.0014472686188368574 0 0.033350258171778599 0.0010421662944469275 0 0.034002365885268164 0.00054811683478294239 0 0.027232083712944301 -0.00074160181521557597 0 0.02598765880285658 -0.0013084323712187877 0 0.026378757124004695 -0.00065936441396030935 0 0.02598765880285658 -0.0013084323712187877 0 0.025439562954045841 -0.0010670713425446881 0 0.024821929837336214 -0.0017767982539906709 0 0.02598765880285658 -0.0013084323712187877 0 0.025439562954045841 -0.0010670713425446881 0 0.026378757124004695 -0.00065936441396030935 0 0.02503708263525951 0.00017351433523010598 0 0.024881046624691195 -9.9486433373406771e-05 0 0.025293010800422674 2.9640122552573447e-05 0 0.025439562954045841 -0.0010670713425446881 0 0.02577810922409559 -0.00016651693491969794 0 0.026378757124004695 -0.00065936441396030935 0 0.024893812644179541 -7.345263548927706e-05 0 0.028355977541694794 -0.00039283766595387337 0 0.024881046624691195 -9.9486433373406771e-05 0 0.025477845500441833 -0.00030348939189232322 0 0.025293010800422674 2.9640122552573447e-05 0 0.02577810922409559 -0.00016651693491969794 0 0.026378757124004695 -0.00065936441396030935 0 0.027171788322551901 -0.00055923192254933216 0 0.028355977541694794 -0.00039283766595387337 0 0.025309173155781947 -0.00024172884556958261 0 0.027232083712944301 -0.00074160181521557597 0 0.026378757124004695 -0.00065936441396030935 0 0.027171788322551901 -0.00055923192254933216 0 0.027253500762515367 -0.0011053343220346367 0 0.026972600368823374 -0.00027028716124054118 0 0.027563944636735612 -0.0012039275600082805 0 0.03102337456167259 -0.00080786566308954698 0 0.028355977541694794 -0.00039283766595387337 0 0.025477845500441833 -0.00030348939189232322 0 0.025367385722561683 1.9582705182328151e-07 0 0.025293010800422674 2.9640122552573447e-05 0 0.025309173155781947 -0.00024172884556958261 0 0.025292042831997149 -0.00021201060458580348 0 0.025309173155781947 -0.00024172884556958261 0 0.027378750472655429 -0.0015076941745635882 0 0.026972600368823374 -0.00027028716124054118 0 0.028327511424403699 -0.00084104498203348035 0 0.027563944636735612 -0.0012039275600082805 0 0.024331480859336153 -0.0011750088829232477 0 0.023395887731353364 -0.0014283173806706741 0 0.024281439530704607 -0.0017980948326097243 0 0.027378750472655429 -0.0015076941745635882 0 0.030772891310587497 -0.0011635500097726401 0 0.028355977541694794 -0.00039283766595387337 0 0.030772891310587497 -0.0011635500097726401 0 0.030166127152578884 -0.0013815143775296446 0 0.030166737017887465 -0.0013896172518584507 0 0.030156741759686426 -0.0013878976374784499 0 0.027378750472655429 -0.0015076941745635882 0 0.02575272798473437 -0.0019041323666177986 0 0.028264314088135609 -0.0018670421531122505 0 0.028027494020987701 -0.001768550898648239 0 0.027908594736093792 -0.0020430655943609569 0 0.024331480859336153 -0.0011750088829232477 0 0.024281439530704607 -0.0017980948326097243 0 0.02521526491523593 -0.0013533261001324366 0 0.027378750472655429 -0.0015076941745635882 0 0.030872662796553988 -0.002211519512655281 0 0.033003249063005766 -0.0021555616539533683 0 0.033067383130743429 -0.0020553982734744366 0 0.032918886208609791 -0.0021307513703359804 0 0.032945476880594411 -0.0021820142517817386 0 0.032963985491933745 -0.0021507797631331888 0 0.032918886208609791 -0.0021307513703359804 0 0.030872662796553988 -0.002211519512655281 0 0.032790360125002561 -0.0021114222792532017 0 0.030309996683725922 -0.0013561358435863582 0 0.031082603838900276 -0.0016815491493299573 0 0.030879601873275677 -0.0020015466037125998 0 0.032790360125002561 -0.0021114222792532017 0 0.034270879182098007 -0.0016443072596688351 0 0.034682951259833041 -0.0016755320733256825 0 0.034815689129333229 -0.001601278577987921 0 0.034751571881112928 -0.0015961330616299553 0 0.032790360125002561 -0.0021114222792532017 0 0.032956317859116131 -0.0021503842621137807 0 0.034786383532130198 -0.001701445731821239 0 0.034682951259833041 -0.0016755320733256825 0 0.034815689129333229 -0.001601278577987921 0 0.030772891310587497 -0.0011635500097726401 0 0.032790360125002561 -0.0021114222792532017 0 0.030309996683725922 -0.0013561358435863582 0 0.029730955110421644 -0.0016312185622693056 0 0.030879601873275677 -0.0020015466037125998 0 0.03102337456167259 -0.00080786566308954698 0 0.035303176265108142 -0.00060184328278547984 0 0.034793086114303332 -0.0016956472103364475 0 0.034786383532130198 -0.001701445731821239 0 0.034815689129333229 -0.001601278577987921 0 0.03102337456167259 -0.00080786566308954698 0 0.030772891310587497 -0.0011635500097726401 0 0.03428177181437226 0.0014472686188368574 0 0.034349750410400101 0.00049702305652583856 0 0.0347017743064061 0.00016316109261993884 0 0.034793086114303332 -0.0016956472103364475 0 0.034815689129333229 -0.001601278577987921 0 0.034879855196796046 -0.0015299502840244172 0 0.034754335827990541 -0.0016275734037932835 0 0.034270879182098007 -0.0016443072596688351 0 0.034815689129333229 -0.001601278577987921 0 0.034828376484035958 -0.0015757568560732908 0 0.034800459609318608 -0.0015994692118998944 0 0.034634184587026794 -0.0014991489805730026 0 0.034270879182098007 -0.0016443072596688351 0 0.034815689129333229 -0.001601278577987921 0 0.034879855196796046 -0.0015299502840244172 0 0.034828376484035958 -0.0015757568560732908 0 0.034879855196796046 -0.0015299502840244172 0 0.034828376484035958 -0.0015757568560732908 0 0.034668967557657568 -0.0013748042523099404 0 0.034349750410400101 0.00049702305652583856 0 0.034481442906855397 0.00018883978328298985 0 0.034298104948287257 0.00014066551642096464 0 0.034349750410400101 0.00049702305652583856 0 0.0347017743064061 0.00016316109261993884 0 0.034481442906855397 0.00018883978328298985 0 0.034270879182098007 -0.0016443072596688351 0 0.03336233543683792 -0.0019940938738838591 0 0.034722602979507688 -0.0017768752585301437 0 0.034451878841496177 -0.001537933377827068 0 0.034032533865049029 -0.001850208657464358 0 0.034828376484035958 -0.0015757568560732908 0 0.034722602979507688 -0.0017768752585301437 0 0.034668985615496521 -0.0015654987730145758 0 0.034722602979507688 -0.0017768752585301437 0 0.034668985615496521 -0.0015654987730145758 0 0.034451878841496177 -0.001537933377827068 0 0.034828376484035958 -0.0015757568560732908 0 0.034668985615496521 -0.0015654987730145758 0 0.034668967557657568 -0.0013748042523099404 0 0.034668985615496521 -0.0015654987730145758 0 0.034451878841496177 -0.001537933377827068 0 0.034668967557657568 -0.0013748042523099404 0 0.034668967557657568 -0.0013748042523099404 0 0.034492318874587223 -0.0012058846023951114 0 0.034737490420430242 -0.00068781125864778264 0 0.034451878841496177 -0.001537933377827068 0 0.034668967557657568 -0.0013748042523099404 0 0.034492318874587223 -0.0012058846023951114 0 0.034879855196796046 -0.0015299502840244172 0 0.034668967557657568 -0.0013748042523099404 0 0.034737490420430242 -0.00068781125864778264 0 0.0347017743064061 0.00016316109261993884 0 0.034560485277670652 -0.00013891100797832457 0 0.034737490420430242 -0.00068781125864778264 0 0.035303176265108142 -0.00060184328278547984 0 0.034589557297044923 -0.00067653740253207479 0 0.034560485277670652 -0.00013891100797832457 0 0.034246981913984599 -0.00011242269643594531 0 0.034298104948287257 0.00014066551642096464 0 0.034481442906855397 0.00018883978328298985 0 0.034560485277670652 -0.00013891100797832457 0 0.034298104948287257 0.00014066551642096464 0 0.0347017743064061 0.00016316109261993884 0 0.034481442906855397 0.00018883978328298985 0 0.034560485277670652 -0.00013891100797832457 0 0.034560485277670652 -0.00013891100797832457 0 0.034555208977693583 -0.0003785091396567938 0 0.034246981913984599 -0.00011242269643594531 0 0.034555208977693583 -0.0003785091396567938 0 0.034049670097105619 -0.0003599944615915852 0 0.034246981913984599 -0.00011242269643594531 0 0.034049670097105619 -0.0003599944615915852 0 0.033974492493923807 -0.00014114433596552569 0 0.034246981913984599 -0.00011242269643594531 0 0.034049670097105619 -0.0003599944615915852 0 0.033974492493923807 -0.00014114433596552569 0 0.033515244934070654 -0.00023196054227440585 0 0.033974492493923807 -0.00014114433596552569 0 0.033995530463246174 0.00012453388728300217 0 0.033676779934572569 0.0001868464749288803 0 0.033974492493923807 -0.00014114433596552569 0 0.033676779934572569 0.0001868464749288803 0 0.033515244934070654 -0.00023196054227440585 0 0.033974492493923807 -0.00014114433596552569 0 0.034246981913984599 -0.00011242269643594531 0 0.033995530463246174 0.00012453388728300217 0 0.034246981913984599 -0.00011242269643594531 0 0.033995530463246174 0.00012453388728300217 0 0.034298104948287257 0.00014066551642096464 0 0.033995530463246174 0.00012453388728300217 0 0.034298104948287257 0.00014066551642096464 0 0.034002365885268164 0.00054811683478294239 0 0.033350258171778599 0.0010421662944469275 0 0.033676779934572569 0.0001868464749288803 0 0.034002365885268164 0.00054811683478294239 0 0.034349750410400101 0.00049702305652583856 0 0.034298104948287257 0.00014066551642096464 0 0.034002365885268164 0.00054811683478294239 0 0.033995530463246174 0.00012453388728300217 0 0.033676779934572569 0.0001868464749288803 0 0.034002365885268164 0.00054811683478294239 0 0.033350258171778599 0.0010421662944469275 0 0.033676779934572569 0.0001868464749288803 0 0.033066901555149263 0.00017111812684394038 0 0.033350258171778599 0.0010421662944469275 0 0.033066901555149263 0.00017111812684394038 0 0.032310766502789287 0.00064172485885888731 0 0.033066901555149263 0.00017111812684394038 0 0.033515244934070654 -0.00023196054227440585 0 0.033076595109255633 -0.00026574330643281714 0 0.034049670097105619 -0.0003599944615915852 0 0.033515244934070654 -0.00023196054227440585 0 0.033234467804748015 -0.00073487543015130017 0 0.033676779934572569 0.0001868464749288803 0 0.033066901555149263 0.00017111812684394038 0 0.033515244934070654 -0.00023196054227440585 0 0.033076595109255633 -0.00026574330643281714 0 0.033234467804748015 -0.00073487543015130017 0 0.032479278493974861 -0.00027505755448955984 0 0.033515244934070654 -0.00023196054227440585 0 0.033076595109255633 -0.00026574330643281714 0 0.033234467804748015 -0.00073487543015130017 0 0.034930065387609219 -0.00030454846717427591 0 0.034873345858161028 -0.00032614014384557276 0 0.034937476081758907 -0.00024342994140998572 0 0.034873345858161028 -0.00032614014384557276 0 0.034937476081758907 -0.00024342994140998572 0 0.034926912704191619 -0.00016313513333315199 0 0.034930065387609219 -0.00030454846717427591 0 0.034937476081758907 -0.00024342994140998572 0 0.034955160722739471 -0.00022065445802996333 0 0.034873345858161028 -0.00032614014384557276 0 0.034808623773608605 -0.00040258408967082951 0 0.034626352202620989 -0.00056145494316456985 0 0.034049670097105619 -0.0003599944615915852 0 0.033234467804748015 -0.00073487543015130017 0 0.034626352202620989 -0.00056145494316456985 0 0.034930065387609219 -0.00030454846717427591 0 0.034873345858161028 -0.00032614014384557276 0 0.034626352202620989 -0.00056145494316456985 0 0.033873064244910683 -0.00051595253420013299 0 0.034655528627012953 -0.00056332111242824367 0 0.034884351517646461 -0.00033300519085965337 0 0.034864034003003024 -0.00025539513699678859 0 0.034873345858161028 -0.00032614014384557276 0 0.034897675092310836 -0.00010994583867425746 0 0.034926912704191619 -0.00016313513333315199 0 0.034897675092310836 -0.00010994583867425746 0 0.034926912704191619 -0.00016313513333315199 0 0.034959419332933693 -8.5057658919112817e-05 0 0.034926912704191619 -0.00016313513333315199 0 0.034959419332933693 -8.5057658919112817e-05 0 0.034958638134647009 -0.00017650799055430162 0 0.034937476081758907 -0.00024342994140998572 0 0.034926912704191619 -0.00016313513333315199 0 0.034958638134647009 -0.00017650799055430162 0 0.034897675092310836 -0.00010994583867425746 0 0.034960440004417184 -4.2684680946817006e-05 0 0.034959768503861191 -3.5250236181817609e-05 0 0.034897675092310836 -0.00010994583867425746 0 0.034959419332933693 -8.5057658919112817e-05 0 0.034960440004417184 -4.2684680946817006e-05 0 0.034960440004417184 -4.2684680946817006e-05 0 0.034999920380576276 -4.1465374439086548e-08 0 0.034959768503861191 -3.5250236181817609e-05 0 0.034960440004417184 -4.2684680946817006e-05 0 0.034999920380576276 -4.1465374439086548e-08 0 0.034999962693701703 -2.8003395288128785e-08 0 0.034959419332933693 -8.5057658919112817e-05 0 0.034960440004417184 -4.2684680946817006e-05 0 0.034999962693701703 -2.8003395288128785e-08 0 0.034910721634424616 -6.1840982687408257e-05 0 0.035049492572257951 -8.2191199849597103e-05 0 0.035004014284595063 -5.0573990616318906e-05 0 0.034910721634424616 -6.1840982687408257e-05 0 0.034999886256578266 -2.3038144249185403e-07 0 0.034806537638882619 -0.0001778821141652979 0 0.034999920826849253 -1.2273178565314776e-08 0 0.034881394765119075 -9.8033882350961421e-05 0 0.034910721634424616 -6.1840982687408257e-05 0 0.034999886256578266 -2.3038144249185403e-07 0 0.035004014284595063 -5.0573990616318906e-05 0 0.034999920380576276 -4.1465374439086548e-08 0 0.034999973435804813 3.097275125297677e-09 0 0.034959768503861191 -3.5250236181817609e-05 0 0.034864034003003024 -0.00025539513699678859 0 0.034881394765119075 -9.8033882350961421e-05 0 0.034808623773608605 -0.00040258408967082951 0 0.034806537638882619 -0.0001778821141652979 0 0.03475600410880058 -0.00034094139707613975 0 0.034806537638882619 -0.0001778821141652979 0 0.03475600410880058 -0.00034094139707613975 0 0.034733476513819521 -0.0002250917571282068 0 0.034910721634424616 -6.1840982687408257e-05 0 0.034733476513819521 -0.0002250917571282068 0 0.0343584171684947 -0.00019091079903082016 0 0.034874617769297893 -6.795354832222678e-05 0 0.034692992894879357 -0.00016267703590717086 0 0.034733476513819521 -0.0002250917571282068 0 0.034646551768212255 -0.00041396050506045803 0 0.0343584171684947 -0.00019091079903082016 0 0.03475600410880058 -0.00034094139707613975 0 0.034733476513819521 -0.0002250917571282068 0 0.034646551768212255 -0.00041396050506045803 0 0.034910721634424616 -6.1840982687408257e-05 0 0.034806537638882619 -0.0001778821141652979 0 0.034733476513819521 -0.0002250917571282068 0 0.034646551768212255 -0.00041396050506045803 0 0.034737490420430242 -0.00068781125864778264 0 0.034326691697186183 -0.00059249424771148234 0 0.034646551768212255 -0.00041396050506045803 0 0.034735400416565337 -0.00050384357358477009 0 0.034737490420430242 -0.00068781125864778264 0 0.034808623773608605 -0.00040258408967082951 0 0.03475600410880058 -0.00034094139707613975 0 0.034735400416565337 -0.00050384357358477009 0 0.034808623773608605 -0.00040258408967082951 0 0.034735400416565337 -0.00050384357358477009 0 0.034626352202620989 -0.00056145494316456985 0 0.03475600410880058 -0.00034094139707613975 0 0.034646551768212255 -0.00041396050506045803 0 0.034735400416565337 -0.00050384357358477009 0 0.034560485277670652 -0.00013891100797832457 0 0.034555208977693583 -0.0003785091396567938 0 0.034737490420430242 -0.00068781125864778264 0 0.034735400416565337 -0.00050384357358477009 0 0.034626352202620989 -0.00056145494316456985 0 0.034737490420430242 -0.00068781125864778264 0 0.034555208977693583 -0.0003785091396567938 0 0.034626352202620989 -0.00056145494316456985 0 0.034737490420430242 -0.00068781125864778264 0 0.034555208977693583 -0.0003785091396567938 0 0.034049670097105619 -0.0003599944615915852 0 0.034626352202620989 -0.00056145494316456985 0 0.034492318874587223 -0.0012058846023951114 0 0.034737490420430242 -0.00068781125864778264 0 0.03437296540689333 -0.00094425516265684575 0 0.034737490420430242 -0.00068781125864778264 0 0.03437296540689333 -0.00094425516265684575 0 0.034326691697186183 -0.00059249424771148234 0 0.033963472537363044 -0.001008900632792674 0 0.033838192992871254 -0.00050708161604441041 0 0.034326691697186183 -0.00059249424771148234 0 0.03437296540689333 -0.00094425516265684575 0 0.033963472537363044 -0.001008900632792674 0 0.034326691697186183 -0.00059249424771148234 0 0.033963472537363044 -0.001008900632792674 0 0.033838192992871254 -0.00050708161604441041 0 0.033302868492209252 -0.00097791107056033832 0 0.034646551768212255 -0.00041396050506045803 0 0.034326691697186183 -0.00059249424771148234 0 0.0343584171684947 -0.00019091079903082016 0 0.033838192992871254 -0.00050708161604441041 0 0.034326691697186183 -0.00059249424771148234 0 0.0343584171684947 -0.00019091079903082016 0 0.034281343873451248 -0.00052372078810588999 0 0.034692992894879357 -0.00016267703590717086 0 0.034751205765469466 -0.00053241392074047835 0 0.035049492572257951 -8.2191199849597103e-05 0 0.034752084173684146 0.00010355619644531116 0 0.035049492572257951 -8.2191199849597103e-05 0 0.034999687260199877 2.6076090616357775e-07 0 0.034752084173684146 0.00010355619644531116 0 0.034999886256578266 -2.3038144249185403e-07 0 0.034999687260199877 2.6076090616357775e-07 0 0.035004014284595063 -5.0573990616318906e-05 0 0.035049492572257951 -8.2191199849597103e-05 0 0.034999687260199877 2.6076090616357775e-07 0 0.035004014284595063 -5.0573990616318906e-05 0 0.034999791926558832 -8.6996657579609831e-08 0 0.035006165477494168 4.9973030105356356e-05 0 0.035000083376894871 6.2429724255818047e-08 0 0.034999687260199877 2.6076090616357775e-07 0 0.034999791926558832 -8.6996657579609831e-08 0 0.034752084173684146 0.00010355619644531116 0 0.034999791926558832 -8.6996657579609831e-08 0 0.034752084173684146 0.00010355619644531116 0 0.035006165477494168 4.9973030105356356e-05 0 0.034752084173684146 0.00010355619644531116 0 0.033339559598514361 0.0002481130304921096 0 0.034040366049744704 -0.00039824634280732441 0 0.034751205765469466 -0.00053241392074047835 0 0.034752084173684146 0.00010355619644531116 0 0.034040366049744704 -0.00039824634280732441 0 0.034676435800804491 0.00011965655696762744 0 0.034214439159291198 0.0001344399676222321 0 0.0332152338667158 -0.00059849833071931428 0 0.034040366049744704 -0.00039824634280732441 0 0.033925805864809075 -0.0011669234699329244 0 0.033339559598514361 0.0002481130304921096 0 0.0332152338667158 -0.00059849833071931428 0 0.034040366049744704 -0.00039824634280732441 0 0.034751205765469466 -0.00053241392074047835 0 0.034040366049744704 -0.00039824634280732441 0 0.033925805864809075 -0.0011669234699329244 0 0.034281343873451248 -0.00052372078810588999 0 0.033612133291904281 -0.00105779814211366 0 0.0332152338667158 -0.00059849833071931428 0 0.033925805864809075 -0.0011669234699329244 0 0.032875739094463084 -0.0011675185960487477 0 0.033612133291904281 -0.00105779814211366 0 0.032976679035374976 -0.0015042059305307857 0 0.033925805864809075 -0.0011669234699329244 0 0.032887532434606341 -0.0015412783522604759 0 0.032875739094463084 -0.0011675185960487477 0 0.033302868492209252 -0.00097791107056033832 0 0.032887532434606341 -0.0015412783522604759 0 0.033193226048236928 -0.0015463813724818224 0 0.032887532434606341 -0.0015412783522604759 0 0.032796213621495006 -0.0017998690732863858 0 0.033193226048236928 -0.0015463813724818224 0 0.032887532434606341 -0.0015412783522604759 0 0.032714604712197726 -0.0016999861510643938 0 0.032796213621495006 -0.0017998690732863858 0 0.032714604712197726 -0.0016999861510643938 0 0.032796213621495006 -0.0017998690732863858 0 0.032644604301077962 -0.0018640341724621497 0 0.032714604712197726 -0.0016999861510643938 0 0.032644604301077962 -0.0018640341724621497 0 0.032519402692972363 -0.0018494466360518193 0 0.032796213621495006 -0.0017998690732863858 0 0.032693930968128782 -0.0019698391052081848 0 0.033174424560005855 -0.0019757288320399005 0 0.032693930968128782 -0.0019698391052081848 0 0.032687784946774337 -0.0020371470609877405 0 0.032655039083839356 -0.0020581247946932914 0 0.032717282599087377 -0.0019863254771975841 0 0.032951048431219036 -0.0020203013796725863 0 0.032903832228571336 -0.0018560568961352145 0 0.032951048431219036 -0.0020203013796725863 0 0.032693930968128782 -0.0019698391052081848 0 0.032555578206392634 -0.0019757672174193215 0 0.032644604301077962 -0.0018640341724621497 0 0.032555578206392634 -0.0019757672174193215 0 0.032644604301077962 -0.0018640341724621497 0 0.032519402692972363 -0.0018494466360518193 0 0.032796213621495006 -0.0017998690732863858 0 0.032693930968128782 -0.0019698391052081848 0 0.032644604301077962 -0.0018640341724621497 0 0.033260816511492618 -0.0019412198392996878 0 0.033193226048236928 -0.0015463813724818224 0 0.033663711074612128 -0.0014646789218956111 0 0.032747429387439693 -0.0020908984917406806 0 0.032695376679540748 -0.002078588402510391 0 0.03275722395715519 -0.0021014010687396695 0 0.032951048431219036 -0.0020203013796725863 0 0.032536199930230304 -0.0024242300832276412 0 0.032796213621495006 -0.0017998690732863858 0 0.033260816511492618 -0.0019412198392996878 0 0.033193226048236928 -0.0015463813724818224 0 0.033302868492209252 -0.00097791107056033832 0 0.033193226048236928 -0.0015463813724818224 0 0.033663711074612128 -0.0014646789218956111 0 0.033963472537363044 -0.001008900632792674 0 0.033663711074612128 -0.0014646789218956111 0 0.034166986173755812 -0.0013371724844728396 0 0.033963472537363044 -0.001008900632792674 0 0.033302868492209252 -0.00097791107056033832 0 0.033663711074612128 -0.0014646789218956111 0 0.03437296540689333 -0.00094425516265684575 0 0.033963472537363044 -0.001008900632792674 0 0.034166986173755812 -0.0013371724844728396 0 0.034492318874587223 -0.0012058846023951114 0 0.03437296540689333 -0.00094425516265684575 0 0.034166986173755812 -0.0013371724844728396 0 0.034451878841496177 -0.001537933377827068 0 0.034492318874587223 -0.0012058846023951114 0 0.034166986173755812 -0.0013371724844728396 0 0.034451878841496177 -0.001537933377827068 0 0.034166986173755812 -0.0013371724844728396 0 0.034032533865049029 -0.001850208657464358 0 0.032951048431219036 -0.0020203013796725863 0 0.03336233543683792 -0.0019940938738838591 0 0.032747429387439693 -0.0020908984917406806 0 0.032695376679540748 -0.002078588402510391 0 0.03285210551295098 -0.0020706574663878451 0 0.032747429387439693 -0.0020908984917406806 0 0.03285210551295098 -0.0020706574663878451 0 0.032756725644179835 -0.0021015684763402453 0 0.033663711074612128 -0.0014646789218956111 0 0.034166986173755812 -0.0013371724844728396 0 0.034032533865049029 -0.001850208657464358 0 0.033260816511492618 -0.0019412198392996878 0 0.033663711074612128 -0.0014646789218956111 0 0.034032533865049029 -0.001850208657464358 0 0.032536199930230304 -0.0024242300832276412 0 0.032287484417100616 -0.0025768611234505898 0 0.03235291160358137 -0.0032609055191852149 0 0.031663212128390232 -0.0025138858973232595 0 0.031424210171731172 -0.0028863365417522396 0 0.03285210551295098 -0.0020706574663878451 0 0.032756725644179835 -0.0021015684763402453 0 0.032852553153070764 -0.0021444402605659803 0 0.032539053337888139 -0.0023896171131790839 0 0.032536199930230304 -0.0024242300832276412 0 0.032536199930230304 -0.0024242300832276412 0 0.03258439522104481 -0.0026420618533847268 0 0.032808813201006905 -0.0020830256299506247 0 0.032961929146474611 -0.0022844382495580077 0 0.032766148650717794 -0.002246418002657916 0 0.030872662796553988 -0.002211519512655281 0 0.032287484417100616 -0.0025768611234505898 0 0.033067383130743429 -0.0020553982734744366 0 0.03285210551295098 -0.0020706574663878451 0 0.032918886208609791 -0.0021307513703359804 0 0.032945476880594411 -0.0021820142517817386 0 0.032918886208609791 -0.0021307513703359804 0 0.032852553153070764 -0.0021444402605659803 0 0.030495271330409995 -0.0025027368809012675 0 0.031424210171731172 -0.0028863365417522396 0 0.031077723539367611 -0.0024064829905078447 0 0.03285210551295098 -0.0020706574663878451 0 0.032918886208609791 -0.0021307513703359804 0 0.032852553153070764 -0.0021444402605659803 0 0.031663212128390232 -0.0025138858973232595 0 0.031424210171731172 -0.0028863365417522396 0 0.031077723539367611 -0.0024064829905078447 0 0.028027494020987701 -0.001768550898648239 0 0.027871208504069669 -0.0019997829985413289 0 0.027908594736093792 -0.0020430655943609569 0 0.030495271330409995 -0.0025027368809012675 0 0.031077723539367611 -0.0024064829905078447 0 0.03096629126491816 -0.001760311994581869 0 0.030872662796553988 -0.002211519512655281 0 0.02881789083322488 -0.0024776047194330891 0 0.032961929146474611 -0.0022844382495580077 0 0.033089947407193628 -0.0024839729992707947 0 0.032975633673352496 -0.0024382071057844276 0 0.031663212128390232 -0.0025138858973232595 0 0.031077723539367611 -0.0024064829905078447 0 0.03096629126491816 -0.001760311994581869 0 0.03258439522104481 -0.0026420618533847268 0 0.02881789083322488 -0.0024776047194330891 0 0.03304910187240629 -0.002554481722217357 0 0.033089947407193628 -0.0024839729992707947 0 0.032975633673352496 -0.0024382071057844276 0 0.027295383117617669 -0.0028804703904382438 0 0.027913075345707451 -0.001917512820999558 0 0.028329347861635688 -0.002381646506255932 0 0.027197543156632389 -0.0027638200126222593 0 0.02881789083322488 -0.0024776047194330891 0 0.02881789083322488 -0.0024776047194330891 0 0.02575272798473437 -0.0019041323666177986 0 0.032838166709619178 -0.0027054131009731116 0 0.032975633673352496 -0.0024382071057844276 0 0.032822903698720783 -0.0024249110563520121 0 0.032961929146474611 -0.0022844382495580077 0 0.032822903698720783 -0.0024249110563520121 0 0.032766148650717794 -0.002246418002657916 0 0.032961929146474611 -0.0022844382495580077 0 0.032975633673352496 -0.0024382071057844276 0 0.032822903698720783 -0.0024249110563520121 0 0.032822903698720783 -0.0024249110563520121 0 0.032701170585700767 -0.0025205466184186668 0 0.032678332668526586 -0.0023683035512847895 0 0.032822903698720783 -0.0024249110563520121 0 0.032678332668526586 -0.0023683035512847895 0 0.032766148650717794 -0.002246418002657916 0 0.032678332668526586 -0.0023683035512847895 0 0.032555446116603749 -0.0023502259105400362 0 0.032640554589736887 -0.0022385621011590503 0 0.032678332668526586 -0.0023683035512847895 0 0.032766148650717794 -0.002246418002657916 0 0.032640554589736887 -0.0022385621011590503 0 0.032701170585700767 -0.0025205466184186668 0 0.032678332668526586 -0.0023683035512847895 0 0.032571731602587708 -0.0024840096212010222 0 0.032678332668526586 -0.0023683035512847895 0 0.032571731602587708 -0.0024840096212010222 0 0.032555446116603749 -0.0023502259105400362 0 0.032418455951615736 -0.0025874395160961502 0 0.032571731602587708 -0.0024840096212010222 0 0.032461837914165612 -0.002439001866608656 0 0.032571731602587708 -0.0024840096212010222 0 0.032461837914165612 -0.002439001866608656 0 0.032555446116603749 -0.0023502259105400362 0 0.032461837914165612 -0.002439001866608656 0 0.032312254497461952 -0.0024293077122190345 0 0.032453951869715468 -0.0023382004919863817 0 0.032418455951615736 -0.0025874395160961502 0 0.032461837914165612 -0.002439001866608656 0 0.032312254497461952 -0.0024293077122190345 0 0.032312254497461952 -0.0024293077122190345 0 0.032453951869715468 -0.0023382004919863817 0 0.03241883487178232 -0.0022309175928956868 0 0.032312254497461952 -0.0024293077122190345 0 0.03241883487178232 -0.0022309175928956868 0 0.032236648805549668 -0.0022757615594955608 0 0.032453951869715468 -0.0023382004919863817 0 0.032540451628039542 -0.002227340086822125 0 0.03241883487178232 -0.0022309175928956868 0 0.032461837914165612 -0.002439001866608656 0 0.032453951869715468 -0.0023382004919863817 0 0.032555446116603749 -0.0023502259105400362 0 0.032453951869715468 -0.0023382004919863817 0 0.032555446116603749 -0.0023502259105400362 0 0.032540451628039542 -0.002227340086822125 0 0.032555446116603749 -0.0023502259105400362 0 0.032540451628039542 -0.002227340086822125 0 0.032640554589736887 -0.0022385621011590503 0 0.032540451628039542 -0.002227340086822125 0 0.032620371949340796 -0.0021387961144017881 0 0.032560544720597953 -0.0020864506411161594 0 0.032540451628039542 -0.002227340086822125 0 0.032620371949340796 -0.0021387961144017881 0 0.032640554589736887 -0.0022385621011590503 0 0.03241883487178232 -0.0022309175928956868 0 0.032560544720597953 -0.0020864506411161594 0 0.032380864715410539 -0.0020610988640801351 0 0.032540451628039542 -0.002227340086822125 0 0.03241883487178232 -0.0022309175928956868 0 0.032560544720597953 -0.0020864506411161594 0 0.032555578206392634 -0.0019757672174193215 0 0.032560544720597953 -0.0020864506411161594 0 0.032380864715410539 -0.0020610988640801351 0 0.032693930968128782 -0.0019698391052081848 0 0.032555578206392634 -0.0019757672174193215 0 0.032560544720597953 -0.0020864506411161594 0 0.032693930968128782 -0.0019698391052081848 0 0.032560544720597953 -0.0020864506411161594 0 0.032655039083839356 -0.0020581247946932914 0 0.032620371949340796 -0.0021387961144017881 0 0.032560544720597953 -0.0020864506411161594 0 0.032655039083839356 -0.0020581247946932914 0 0.032687784946774337 -0.0020371470609877405 0 0.032655039083839356 -0.0020581247946932914 0 0.032687555571632922 -0.0021214138591972758 0 0.032620371949340796 -0.0021387961144017881 0 0.032655039083839356 -0.0020581247946932914 0 0.032687555571632922 -0.0021214138591972758 0 0.032808813201006905 -0.0020830256299506247 0 0.032687555571632922 -0.0021214138591972758 0 0.032766148650717794 -0.002246418002657916 0 0.032687784946774337 -0.0020371470609877405 0 0.032808813201006905 -0.0020830256299506247 0 0.032687555571632922 -0.0021214138591972758 0 0.032687555571632922 -0.0021214138591972758 0 0.032766148650717794 -0.002246418002657916 0 0.032640554589736887 -0.0022385621011590503 0 0.032620371949340796 -0.0021387961144017881 0 0.032687555571632922 -0.0021214138591972758 0 0.032640554589736887 -0.0022385621011590503 0 0.032008407459710779 -0.0020472025884773646 0 0.031896383710088495 -0.0019303641310471015 0 0.032102160662287091 -0.0021295352420873906 0 0.031457720972197054 -0.0022659437963489983 0 0.031478254631045838 -0.0016295279214584297 0 0.032102160662287091 -0.0021295352420873906 0 0.031951250132662194 -0.0019495330458990693 0 0.032282768351046404 -0.0018803762665231083 0 0.032380864715410539 -0.0020610988640801351 0 0.032102160662287091 -0.0021295352420873906 0 0.032282768351046404 -0.0018803762665231083 0 0.032380864715410539 -0.0020610988640801351 0 0.032102160662287091 -0.0021295352420873906 0 0.032236648805549668 -0.0022757615594955608 0 0.03241883487178232 -0.0022309175928956868 0 0.032380864715410539 -0.0020610988640801351 0 0.032236648805549668 -0.0022757615594955608 0 0.032102160662287091 -0.0021295352420873906 0 0.032236648805549668 -0.0022757615594955608 0 0.032041184654878818 -0.002475095399411507 0 0.032102160662287091 -0.0021295352420873906 0 0.032041184654878818 -0.002475095399411507 0 0.031715660345606647 -0.0025632547332482712 0 0.032169083653419528 -0.0026800695567199789 0 0.032312254497461952 -0.0024293077122190345 0 0.032041184654878818 -0.002475095399411507 0 0.032312254497461952 -0.0024293077122190345 0 0.032236648805549668 -0.0022757615594955608 0 0.032041184654878818 -0.002475095399411507 0 0.031424097612916646 -0.0026755727635588492 0 0.031715660345606647 -0.0025632547332482712 0 0.031457720972197054 -0.0022659437963489983 0 0.032102160662287091 -0.0021295352420873906 0 0.031715660345606647 -0.0025632547332482712 0 0.031457720972197054 -0.0022659437963489983 0 0.031457720972197054 -0.0022659437963489983 0 0.031061314922615248 -0.0024753692126537911 0 0.030965767982581199 -0.0018593241036679556 0 0.031424097612916646 -0.0026755727635588492 0 0.031457720972197054 -0.0022659437963489983 0 0.031061314922615248 -0.0024753692126537911 0 0.0287590388237343 -0.001602714250084489 0 0.029487412620034233 -0.0013798215185588008 0 0.028327551316157617 -0.0013496638204251816 0 0.0287590388237343 -0.001602714250084489 0 0.027501034894077535 -0.0015325064347266769 0 0.027748571887035861 -0.0013767672684456007 0 0.027534228840252369 -0.0010655830399750399 0 0.027748571887035861 -0.0013767672684456007 0 0.027755255443571138 -0.0011665602504969896 0 0.027534228840252369 -0.0010655830399750399 0 0.027748571887035861 -0.0013767672684456007 0 0.027993286884444933 -0.0014622431208184551 0 0.02797903502714463 -0.0012522150840404125 0 0.027748571887035861 -0.0013767672684456007 0 0.02797903502714463 -0.0012522150840404125 0 0.027755255443571138 -0.0011665602504969896 0 0.02797903502714463 -0.0012522150840404125 0 0.027755255443571138 -0.0011665602504969896 0 0.027754675686572677 -0.00097132449232904654 0 0.027755255443571138 -0.0011665602504969896 0 0.027754675686572677 -0.00097132449232904654 0 0.027534228840252369 -0.0010655830399750399 0 0.0287590388237343 -0.001602714250084489 0 0.027668026757643571 -0.00055012865222762812 0 0.02797903502714463 -0.0012522150840404125 0 0.027754675686572677 -0.00097132449232904654 0 0.027857936983883672 -0.0006766742329589085 0 0.028084758339062196 -0.0013745899049513385 0 0.028007313025145045 -0.0008102549377437848 0 0.027857936983883672 -0.0006766742329589085 0 0.027754675686572677 -0.00097132449232904654 0 0.027562486157370877 -0.00077450474159793201 0 0.027534228840252369 -0.0010655830399750399 0 0.027754675686572677 -0.00097132449232904654 0 0.027857936983883672 -0.0006766742329589085 0 0.027562486157370877 -0.00077450474159793201 0 0.031457720972197054 -0.0022659437963489983 0 0.030965767982581199 -0.0018593241036679556 0 0.031478254631045838 -0.0016295279214584297 0 0.031896383710088495 -0.0019303641310471015 0 0.030323409140671977 -0.00081594307456850856 0 0.030965767982581199 -0.0018593241036679556 0 0.031478254631045838 -0.0016295279214584297 0 0.030891956711907496 -0.0011852942664699259 0 0.031951250132662194 -0.0019495330458990693 0 0.031503973540203345 -0.0016481331308991832 0 0.031772162841672127 -0.0015215851484056725 0 0.031951250132662194 -0.0019495330458990693 0 0.031772162841672127 -0.0015215851484056725 0 0.032035960326191909 -0.0015803588298356577 0 0.029487412620034233 -0.0013798215185588008 0 0.030323409140671977 -0.00081594307456850856 0 0.027857936983883672 -0.0006766742329589085 0 0.027949526093006168 -0.00030129581671956582 0 0.027562486157370877 -0.00077450474159793201 0 0.028007313025145045 -0.0008102549377437848 0 0.027857936983883672 -0.0006766742329589085 0 0.027949526093006168 -0.00030129581671956582 0 0.030323409140671977 -0.00081594307456850856 0 0.031393223617022535 -0.0008148177065338603 0 0.030845585623133047 -0.00053692589579224567 0 0.03084263430881682 -0.00045571823789679425 0 0.030766727648774046 -0.00047243066752996596 0 0.030323409140671977 -0.00081594307456850856 0 0.02957943710468533 -0.00033177879316578394 0 0.031393223617022535 -0.0008148177065338603 0 0.031735877360295893 -0.00025154564965801894 0 0.03084263430881682 -0.00045571823789679425 0 0.030766727648774046 -0.00047243066752996596 0 0.030775647516212191 -0.0004543024589630226 0 0.031503973540203345 -0.0016481331308991832 0 0.031455133094827455 -0.00125542383299127 0 0.031772162841672127 -0.0015215851484056725 0 0.031772162841672127 -0.0015215851484056725 0 0.031972979653434597 -0.0013082781468233481 0 0.032035960326191909 -0.0015803588298356577 0 0.031455133094827455 -0.00125542383299127 0 0.031772162841672127 -0.0015215851484056725 0 0.031726993934274833 -0.0012551483825861223 0 0.031393223617022535 -0.0008148177065338603 0 0.031655942003115868 -0.0011090882186337845 0 0.031772162841672127 -0.0015215851484056725 0 0.031726993934274833 -0.0012551483825861223 0 0.031972979653434597 -0.0013082781468233481 0 0.031972979653434597 -0.0013082781468233481 0 0.032311388658261921 -0.0013089656860239512 0 0.032035960326191909 -0.0015803588298356577 0 0.032311388658261921 -0.0013089656860239512 0 0.032035960326191909 -0.0015803588298356577 0 0.032211154501834795 -0.0016809482374071487 0 0.031951250132662194 -0.0019495330458990693 0 0.032035960326191909 -0.0015803588298356577 0 0.032211154501834795 -0.0016809482374071487 0 0.031951250132662194 -0.0019495330458990693 0 0.032211154501834795 -0.0016809482374071487 0 0.032282768351046404 -0.0018803762665231083 0 0.032555578206392634 -0.0019757672174193215 0 0.032380864715410539 -0.0020610988640801351 0 0.032519402692972363 -0.0018494466360518193 0 0.032380864715410539 -0.0020610988640801351 0 0.032519402692972363 -0.0018494466360518193 0 0.032282768351046404 -0.0018803762665231083 0 0.032211154501834795 -0.0016809482374071487 0 0.032282768351046404 -0.0018803762665231083 0 0.032549888264819159 -0.0016000398942213547 0 0.032519402692972363 -0.0018494466360518193 0 0.032282768351046404 -0.0018803762665231083 0 0.032549888264819159 -0.0016000398942213547 0 0.032714604712197726 -0.0016999861510643938 0 0.032519402692972363 -0.0018494466360518193 0 0.032549888264819159 -0.0016000398942213547 0 0.032887532434606341 -0.0015412783522604759 0 0.032549888264819159 -0.0016000398942213547 0 0.032875739094463084 -0.0011675185960487477 0 0.032887532434606341 -0.0015412783522604759 0 0.032714604712197726 -0.0016999861510643938 0 0.032549888264819159 -0.0016000398942213547 0 0.032311388658261921 -0.0013089656860239512 0 0.032549888264819159 -0.0016000398942213547 0 0.032875739094463084 -0.0011675185960487477 0 0.032311388658261921 -0.0013089656860239512 0 0.032211154501834795 -0.0016809482374071487 0 0.032549888264819159 -0.0016000398942213547 0 0.032311388658261921 -0.0013089656860239512 0 0.032875739094463084 -0.0011675185960487477 0 0.032523594484857275 -0.00084499506514334479 0 0.0332152338667158 -0.00059849833071931428 0 0.032875739094463084 -0.0011675185960487477 0 0.032523594484857275 -0.00084499506514334479 0 0.032523594484857275 -0.00084499506514334479 0 0.032086430901649012 -0.0010241279290717229 0 0.032008652974720733 -0.00061302766190944841 0 0.031972979653434597 -0.0013082781468233481 0 0.032086430901649012 -0.0010241279290717229 0 0.0318346097172338 -0.0010014678519978102 0 0.031972979653434597 -0.0013082781468233481 0 0.032311388658261921 -0.0013089656860239512 0 0.032086430901649012 -0.0010241279290717229 0 0.032311388658261921 -0.0013089656860239512 0 0.032523594484857275 -0.00084499506514334479 0 0.032086430901649012 -0.0010241279290717229 0 0.032086430901649012 -0.0010241279290717229 0 0.032008652974720733 -0.00061302766190944841 0 0.0318346097172338 -0.0010014678519978102 0 0.032523594484857275 -0.00084499506514334479 0 0.032008652974720733 -0.00061302766190944841 0 0.032652586379749222 -0.00035744701681865676 0 0.032008652974720733 -0.00061302766190944841 0 0.032292681383167293 8.792930786185323e-05 0 0.031722752962720611 -0.00038134218735519674 0 0.032008652974720733 -0.00061302766190944841 0 0.032652586379749222 -0.00035744701681865676 0 0.032292681383167293 8.792930786185323e-05 0 0.0332152338667158 -0.00059849833071931428 0 0.032523594484857275 -0.00084499506514334479 0 0.032652586379749222 -0.00035744701681865676 0 0.033339559598514361 0.0002481130304921096 0 0.0332152338667158 -0.00059849833071931428 0 0.032652586379749222 -0.00035744701681865676 0 0.033339559598514361 0.0002481130304921096 0 0.032652586379749222 -0.00035744701681865676 0 0.032292681383167293 8.792930786185323e-05 0 0.034214439159291198 0.0001344399676222321 0 0.033464549640524206 5.4512804230166711e-05 0 0.034992406139828396 8.7314712572588528e-06 0 0.035000083376894871 6.2429724255818047e-08 0 0.034999933618792826 -1.7675782776827041e-08 0 0.035006165477494168 4.9973030105356356e-05 0 0.034992406139828396 8.7314712572588528e-06 0 0.035000083376894871 6.2429724255818047e-08 0 0.03495081385758992 1.7458741323873247e-05 0 0.034999744625399828 9.4035838897688168e-08 0 0.035000086719658291 -4.5651576582766497e-09 0 0.03495081385758992 1.7458741323873247e-05 0 0.035000086719658291 -4.5651576582766497e-09 0 0.03497170310448941 -2.1889085798885364e-05 0 0.035000692988851216 5.5138335797417609e-07 0 0.03404740131972183 -0.00014481966970785652 0 0.032292681383167293 8.792930786185323e-05 0 0.031457189851999467 -6.1270173935600502e-05 0 0.031722752962720611 -0.00038134218735519674 0 0.033464549640524206 5.4512804230166711e-05 0 0.03404740131972183 -0.00014481966970785652 0 0.034992406139828396 8.7314712572588528e-06 0 0.034999933618792826 -1.7675782776827041e-08 0 0.03498029462110018 -5.848520817965046e-07 0 0.03495081385758992 1.7458741323873247e-05 0 0.03497170310448941 -2.1889085798885364e-05 0 0.034878120300897007 -5.099119761971035e-05 0 0.03404740131972183 -0.00014481966970785652 0 0.034946284551240887 2.5063272632981861e-05 0 0.035058998623209874 9.6647587737787256e-05 0 0.034946136325908032 -4.1591968112209487e-05 0 0.034732050579584353 5.1684230015228437e-05 0 0.034781807797517446 -8.809846074985443e-05 0 0.034946136325908032 -4.1591968112209487e-05 0 0.034732050579584353 5.1684230015228437e-05 0 0.034781807797517446 -8.809846074985443e-05 0 0.034946136325908032 -4.1591968112209487e-05 0 0.034976602654931237 -0.00015452567576527374 0 0.034781807797517446 -8.809846074985443e-05 0 0.034976602654931237 -0.00015452567576527374 0 0.034668936558411793 -0.0002440012507134862 0 0.03404740131972183 -0.00014481966970785652 0 0.033395586885895633 -0.00027801545196383718 0 0.035058998623209874 9.6647587737787256e-05 0 0.034946136325908032 -4.1591968112209487e-05 0 0.034953556772748973 -0.00015514445965895566 0 0.033784249518097637 -0.00021118252584858841 0 0.033395586885895633 -0.00027801545196383718 0 0.031457189851999467 -6.1270173935600502e-05 0 0.031301419812387384 -0.00045089665335308149 0 0.031722752962720611 -0.00038134218735519674 0 0.031301419812387384 -0.00045089665335308149 0 0.031722752962720611 -0.00038134218735519674 0 0.031582344572423447 -0.00083436192447277366 0 0.032008652974720733 -0.00061302766190944841 0 0.031722752962720611 -0.00038134218735519674 0 0.031582344572423447 -0.00083436192447277366 0 0.032008652974720733 -0.00061302766190944841 0 0.0318346097172338 -0.0010014678519978102 0 0.031582344572423447 -0.00083436192447277366 0 0.031380977372951403 -0.0012580236842780783 0 0.031726993934274833 -0.0012551483825861223 0 0.031582344572423447 -0.00083436192447277366 0 0.031726993934274833 -0.0012551483825861223 0 0.0318346097172338 -0.0010014678519978102 0 0.031582344572423447 -0.00083436192447277366 0 0.031726993934274833 -0.0012551483825861223 0 0.031972979653434597 -0.0013082781468233481 0 0.0318346097172338 -0.0010014678519978102 0 0.031380977372951403 -0.0012580236842780783 0 0.031301419812387384 -0.00045089665335308149 0 0.031582344572423447 -0.00083436192447277366 0 0.033395586885895633 -0.00027801545196383718 0 0.031735877360295893 -0.00025154564965801894 0 0.031393223617022535 -0.0008148177065338603 0 0.033395586885895633 -0.00027801545196383718 0 0.034976602654931237 -0.00015452567576527374 0 0.03462807981659375 -0.00052744757815857354 0 0.034742988281348926 -0.00083949901896728473 0 0.032312432801057826 -0.00059315787840063161 0 0.032287393129187866 -0.00019678872673022156 0 0.032110685454918589 -0.00059314681464331853 0 0.03462807981659375 -0.00052744757815857354 0 0.034742988281348926 -0.00083949901896728473 0 0.034574726055719769 -0.00085563459847401153 0 0.034134419204491978 -0.0014399527049575478 0 0.031646274278934322 -0.0006639186247575314 0 0.03438021238953138 -0.00074040952469242528 0 0.03462807981659375 -0.00052744757815857354 0 0.034574726055719769 -0.00085563459847401153 0 0.03438021238953138 -0.00074040952469242528 0 0.03462807981659375 -0.00052744757815857354 0 0.03433182595536801 -0.00022535709377475855 0 0.03438021238953138 -0.00074040952469242528 0 0.033873671213743815 -0.0005445289839845661 0 0.033506556761035054 -0.0011530657386334422 0 0.03438021238953138 -0.00074040952469242528 0 0.033506556761035054 -0.0011530657386334422 0 0.034741631145818561 -0.00099179227326458221 0 0.03438021238953138 -0.00074040952469242528 0 0.033873671213743815 -0.0005445289839845661 0 0.03433182595536801 -0.00022535709377475855 0 0.03433182595536801 -0.00022535709377475855 0 0.034027750462435197 5.084944654169077e-05 0 0.033584346456259233 -0.00012346939721101565 0 0.033873671213743815 -0.0005445289839845661 0 0.03433182595536801 -0.00022535709377475855 0 0.033584346456259233 -0.00012346939721101565 0 0.03433182595536801 -0.00022535709377475855 0 0.034495574267275259 1.7992426389180375e-06 0 0.034027750462435197 5.084944654169077e-05 0 0.034976602654931237 -0.00015452567576527374 0 0.03462807981659375 -0.00052744757815857354 0 0.034668936558411793 -0.0002440012507134862 0 0.03433182595536801 -0.00022535709377475855 0 0.034668936558411793 -0.0002440012507134862 0 0.034598685497481636 -7.4402822540643219e-05 0 0.03462807981659375 -0.00052744757815857354 0 0.03433182595536801 -0.00022535709377475855 0 0.034668936558411793 -0.0002440012507134862 0 0.03433182595536801 -0.00022535709377475855 0 0.034598685497481636 -7.4402822540643219e-05 0 0.034495574267275259 1.7992426389180375e-06 0 0.034781807797517446 -8.809846074985443e-05 0 0.034598685497481636 -7.4402822540643219e-05 0 0.034732050579584353 5.1684230015228437e-05 0 0.034781807797517446 -8.809846074985443e-05 0 0.034668936558411793 -0.0002440012507134862 0 0.034598685497481636 -7.4402822540643219e-05 0 0.03495081385758992 1.7458741323873247e-05 0 0.034878120300897007 -5.099119761971035e-05 0 0.034813037573134156 7.4616349614931046e-05 0 0.034878120300897007 -5.099119761971035e-05 0 0.034495574267275259 1.7992426389180375e-06 0 0.034813037573134156 7.4616349614931046e-05 0 0.034946284551240887 2.5063272632981861e-05 0 0.034509179548157479 -1.158127921070861e-05 0 0.034598685497481636 -7.4402822540643219e-05 0 0.034732050579584353 5.1684230015228437e-05 0 0.034495574267275259 1.7992426389180375e-06 0 0.034495574267275259 1.7992426389180375e-06 0 0.034528736052739067 0.00011008121797394333 0 0.034813037573134156 7.4616349614931046e-05 0 0.034495574267275259 1.7992426389180375e-06 0 0.034027750462435197 5.084944654169077e-05 0 0.034528736052739067 0.00011008121797394333 0 0.034528736052739067 0.00011008121797394333 0 0.034999965258587035 -3.3620721865237079e-09 0 0.034997279875357688 6.6725110664175519e-07 0 0.034528736052739067 0.00011008121797394333 0 0.034999965258587035 -3.3620721865237079e-09 0 0.034813037573134156 7.4616349614931046e-05 0 0.034999744625399828 9.4035838897688168e-08 0 0.034999965258587035 -3.3620721865237079e-09 0 0.034813037573134156 7.4616349614931046e-05 0 0.03495081385758992 1.7458741323873247e-05 0 0.034999744625399828 9.4035838897688168e-08 0 0.034813037573134156 7.4616349614931046e-05 0 0.03499802616674591 1.5605892116533792e-09 0 0.03500098399949466 2.0225365430174225e-10 0 0.033806256402263347 -2.0174810562030806e-09 0 0.034997279875357688 6.6725110664175519e-07 0 0.034090613645115869 8.6447937965384203e-05 0 0.033801782396285215 7.684420578235152e-07 0 0.03499965809226991 1.1642982895468929e-07 0 0.03380363620550806 -1.139708277361099e-07 0 0.034528736052739067 0.00011008121797394333 0 0.034997279875357688 6.6725110664175519e-07 0 0.034090613645115869 8.6447937965384203e-05 0 0.034027750462435197 5.084944654169077e-05 0 0.034528736052739067 0.00011008121797394333 0 0.034090613645115869 8.6447937965384203e-05 0 0.034027750462435197 5.084944654169077e-05 0 0.034090613645115869 8.6447937965384203e-05 0 0.03319890263506501 6.888265101134048e-05 0 0.034090613645115869 8.6447937965384203e-05 0 0.033801782396285215 7.684420578235152e-07 0 0.03319890263506501 6.888265101134048e-05 0 0.03204084840478133 2.8888980283395643e-08 0 0.03319890263506501 6.888265101134048e-05 0 0.032687009756976138 -0.00016395037488980391 0 0.033801782396285215 7.684420578235152e-07 0 0.03204084840478133 2.8888980283395643e-08 0 0.03319890263506501 6.888265101134048e-05 0 0.034027750462435197 5.084944654169077e-05 0 0.03319890263506501 6.888265101134048e-05 0 0.033584346456259233 -0.00012346939721101565 0 0.03319890263506501 6.888265101134048e-05 0 0.033584346456259233 -0.00012346939721101565 0 0.032687009756976138 -0.00016395037488980391 0 0.032687009756976138 -0.00016395037488980391 0 0.03059760423042682 -0.00030236325486557839 0 0.033506556761035054 -0.0011530657386334422 0 0.033873671213743815 -0.0005445289839845661 0 0.033584346456259233 -0.00012346939721101565 0 0.032687009756976138 -0.00016395037488980391 0 0.033873671213743815 -0.0005445289839845661 0 0.032687009756976138 -0.00016395037488980391 0 0.033506556761035054 -0.0011530657386334422 0 0.03204084840478133 2.8888980283395643e-08 0 0.030276658044061655 -1.5761496075907713e-06 0 0.03059760423042682 -0.00030236325486557839 0 0.03204084840478133 2.8888980283395643e-08 0 0.032687009756976138 -0.00016395037488980391 0 0.03059760423042682 -0.00030236325486557839 0 0.030276658044061655 -1.5761496075907713e-06 0 0.03059760423042682 -0.00030236325486557839 0 0.029077074600494083 0.00013643349552822898 0 0.030276658044061655 -1.5761496075907713e-06 0 0.028513099510901471 8.2154686092185924e-07 0 0.029077074600494083 0.00013643349552822898 0 0.028513099510901471 8.2154686092185924e-07 0 0.029077074600494083 0.00013643349552822898 0 0.027962553585784998 0.00032592211832690722 0 0.029077074600494083 0.00013643349552822898 0 0.028238038781614891 0.00012650691106521752 0 0.027962553585784998 0.00032592211832690722 0 0.03059760423042682 -0.00030236325486557839 0 0.029077074600494083 0.00013643349552822898 0 0.028397927101960763 -0.00056843892853533629 0 0.029077074600494083 0.00013643349552822898 0 0.028397927101960763 -0.00056843892853533629 0 0.028238038781614891 0.00012650691106521752 0 0.030697873878804304 -0.00042646446016657302 0 0.030864467900753728 -0.00078559979405385966 0 0.030864467900753728 -0.00078559979405385966 0 0.031646274278934322 -0.0006639186247575314 0 0.028397927101960763 -0.00056843892853533629 0 0.02797442856009702 -0.00014174977127348135 0 0.027727218214770692 -0.00044541037984960346 0 0.028397927101960763 -0.00056843892853533629 0 0.02797442856009702 -0.00014174977127348135 0 0.028238038781614891 0.00012650691106521752 0 0.030636228815590735 -0.00047578122004004271 0 0.03051484772876957 -0.00077366371083559629 0 0.031030518346691672 -0.00077296238358136218 0 0.02957943710468533 -0.00033177879316578394 0 0.031735877360295893 -0.00025154564965801894 0 0.02957943710468533 -0.00033177879316578394 0 0.031646274278934322 -0.0006639186247575314 0 0.031735877360295893 -0.00025154564965801894 0 0.031646274278934322 -0.0006639186247575314 0 0.02797442856009702 -0.00014174977127348135 0 0.027617661269732877 -0.00034490304468196508 0 0.027727218214770692 -0.00044541037984960346 0 0.027949526093006168 -0.00030129581671956582 0 0.027580039635129051 -1.8548649022782108e-05 0 0.027294667748046165 -0.00063868474111561857 0 0.027949526093006168 -0.00030129581671956582 0 0.027294667748046165 -0.00063868474111561857 0 0.027562486157370877 -0.00077450474159793201 0 0.02957943710468533 -0.00033177879316578394 0 0.027279049884838431 -0.00022520361307875819 0 0.02797442856009702 -0.00014174977127348135 0 0.027617661269732877 -0.00034490304468196508 0 0.027936443196178367 0.00026080020556303442 0 0.02797442856009702 -0.00014174977127348135 0 0.027936443196178367 0.00026080020556303442 0 0.028238038781614891 0.00012650691106521752 0 0.027936443196178367 0.00026080020556303442 0 0.028238038781614891 0.00012650691106521752 0 0.027962553585784998 0.00032592211832690722 0 0.027936443196178367 0.00026080020556303442 0 0.027840397597126389 0.0002791289662633912 0 0.027962553585784998 0.00032592211832690722 0 0.027279049884838431 -0.00022520361307875819 0 0.027721865653407177 -0.00050056375584877342 0 0.027294667748046165 -0.00063868474111561857 0 0.027534228840252369 -0.0010655830399750399 0 0.027018217746587261 -0.0012358074274790775 0 0.027294667748046165 -0.00063868474111561857 0 0.027562486157370877 -0.00077450474159793201 0 0.027534228840252369 -0.0010655830399750399 0 0.027501034894077535 -0.0015325064347266769 0 0.027534228840252369 -0.0010655830399750399 0 0.027018217746587261 -0.0012358074274790775 0 0.027000079373637374 0.00010166596164230646 0 0.027840397597126389 0.0002791289662633912 0 0.027962553585784998 0.00032592211832690722 0 0.027000079373637374 0.00010166596164230646 0 0.026749707140815496 9.9381626564254982e-07 0 0.027962553585784998 0.00032592211832690722 0 0.028513099510901471 8.2154686092185924e-07 0 0.026749707140815496 9.9381626564254982e-07 0 0.027962553585784998 0.00032592211832690722 0 0.016608084568646608 -0.0003707472850846713 0 0.016290421817296584 -0.00056037052793887624 0 0.017112388128568318 -0.00057038374817565721 0 0.016608084568646608 -0.0003707472850846713 0 0.016290421817296584 -0.00056037052793887624 0 0.016132358107878466 -0.00048004894329505655 0 0.017659123805476452 -0.00012273100589981354 0 0.019202538080502828 0.00010861340923784355 0 0.019298958336347691 0.00034517359710698245 0 0.019675107814728372 0.00019466688415468205 0 0.020039832074144025 0.00035590489704396194 0 0.019298958336347691 0.00034517359710698245 0 0.019675107814728372 0.00019466688415468205 0 0.019455338276715098 0.00011691458920138173 0 0.019675107814728372 0.00019466688415468205 0 0.019455338276715098 0.00011691458920138173 0 0.019667011744122009 3.5321727440467722e-05 0 0.019298958336347691 0.00034517359710698245 0 0.019455338276715098 0.00011691458920138173 0 0.019260447063594501 0.00011087855379995006 0 0.015954205453367985 -0.00040658295491826437 0 0.016132358107878466 -0.00048004894329505655 0 0.015795964226905729 -0.00039303735165794549 0 0.017659123805476452 -0.00012273100589981354 0 0.017253984024650268 -9.6565184147085175e-05 0 0.019298958336347691 0.00034517359710698245 0 0.019087016392184387 0.00012914711739301727 0 0.018860621604693432 0.00015184833433485752 0 0.019298958336347691 0.00034517359710698245 0 0.019260447063594501 0.00011087855379995006 0 0.019087016392184387 0.00012914711739301727 0 0.016290421817296584 -0.00056037052793887624 0 0.016132358107878466 -0.00048004894329505655 0 0.015795964226905729 -0.00039303735165794549 0 0.019298958336347691 0.00034517359710698245 0 0.018860621604693432 0.00015184833433485752 0 0.018506663961293555 0.00024497419923682839 0 0.018860621604693432 0.00015184833433485752 0 0.018655050205787907 0.00013426005949999955 0 0.018720994783564173 5.9923261364726366e-05 0 0.018860621604693432 0.00015184833433485752 0 0.018893547506385389 6.3890105839624989e-06 0 0.018720994783564173 5.9923261364726366e-05 0 0.019087016392184387 0.00012914711739301727 0 0.018860621604693432 0.00015184833433485752 0 0.018893547506385389 6.3890105839624989e-06 0 0.015954205453367985 -0.00040658295491826437 0 0.016132358107878466 -0.00048004894329505655 0 0.01605168027901523 -0.00040060662717269645 0 0.016132358107878466 -0.00048004894329505655 0 0.016090228999121152 -0.00035128801838535666 0 0.01605168027901523 -0.00040060662717269645 0 0.016132358107878466 -0.00048004894329505655 0 0.016090228999121152 -0.00035128801838535666 0 0.016222685892799089 -0.00032974086723093244 0 0.016090228999121152 -0.00035128801838535666 0 0.01605168027901523 -0.00040060662717269645 0 0.015983453617466271 -0.00033146527061051297 0 0.015954205453367985 -0.00040658295491826437 0 0.01605168027901523 -0.00040060662717269645 0 0.015983453617466271 -0.00033146527061051297 0 0.016090228999121152 -0.00035128801838535666 0 0.015983453617466271 -0.00033146527061051297 0 0.016042360372978664 -0.00026464347289177127 0 0.015983453617466271 -0.00033146527061051297 0 0.016042360372978664 -0.00026464347289177127 0 0.015962617865184641 -0.00020721785718840109 0 0.016090228999121152 -0.00035128801838535666 0 0.016128230270914784 -0.00027827480479489567 0 0.016042360372978664 -0.00026464347289177127 0 0.016090228999121152 -0.00035128801838535666 0 0.016128230270914784 -0.00027827480479489567 0 0.016222685892799089 -0.00032974086723093244 0 0.016128230270914784 -0.00027827480479489567 0 0.016042360372978664 -0.00026464347289177127 0 0.016067219721689827 -0.00017162486642907442 0 0.016608084568646608 -0.0003707472850846713 0 0.016132358107878466 -0.00048004894329505655 0 0.016803683271290337 7.6695004669742535e-05 0 0.016132358107878466 -0.00048004894329505655 0 0.016222685892799089 -0.00032974086723093244 0 0.016442280303222808 -0.00026881518783992389 0 0.016128230270914784 -0.00027827480479489567 0 0.016261540109004713 -0.00024917557337912204 0 0.016067219721689827 -0.00017162486642907442 0 0.015831595593408836 -0.00067103981337777508 0 0.017401529692660241 0.00034898754527015751 0 0.016128230270914784 -0.00027827480479489567 0 0.016261540109004713 -0.00024917557337912204 0 0.016222685892799089 -0.00032974086723093244 0 0.016261540109004713 -0.00024917557337912204 0 0.016222685892799089 -0.00032974086723093244 0 0.016442280303222808 -0.00026881518783992389 0 0.016261540109004713 -0.00024917557337912204 0 0.016442280303222808 -0.00026881518783992389 0 0.016436484849933472 -0.00016776641898942729 0 0.017401529692660241 0.00034898754527015751 0 0.019202538080502828 0.00010861340923784355 0 0.017401529692660241 0.00034898754527015751 0 0.017151686587526034 0.00013694027423454027 0 0.016608084568646608 -0.0003707472850846713 0 0.016803683271290337 7.6695004669742535e-05 0 0.017112388128568318 -0.00057038374817565721 0 0.020101132935840448 0.0010873028161091306 0 0.020186119862342335 0.00095122798632053113 0 0.020138946219265857 0.00085392511046448831 0 0.020101132935840448 0.0010873028161091306 0 0.020189988321488408 0.0010596180428545452 0 0.020251629541146263 0.0010992410573932427 0 0.020189988321488408 0.0010596180428545452 0 0.020293688725353049 0.0010714900218640399 0 0.020251629541146263 0.0010992410573932427 0 0.020189988321488408 0.0010596180428545452 0 0.020230212042332687 0.0010245380617843025 0 0.020293688725353049 0.0010714900218640399 0 0.020189988321488408 0.0010596180428545452 0 0.020230212042332687 0.0010245380617843025 0 0.020186119862342335 0.00095122798632053113 0 0.020101132935840448 0.0010873028161091306 0 0.020189988321488408 0.0010596180428545452 0 0.020186119862342335 0.00095122798632053113 0 0.020293688725353049 0.0010714900218640399 0 0.020452079438307316 0.0011340228699676434 0 0.020343401257046943 0.0010800582763057412 0 0.020452079438307316 0.0011340228699676434 0 0.020343401257046943 0.0010800582763057412 0 0.02024273296659394 0.0010294448978073827 0 0.020293688725353049 0.0010714900218640399 0 0.020343401257046943 0.0010800582763057412 0 0.020251629541146263 0.0010992410573932427 0 0.020293688725353049 0.0010714900218640399 0 0.020283726892629809 0.0010195208411242491 0 0.020452079438307316 0.0011340228699676434 0 0.020230212042332687 0.0010245380617843025 0 0.020293688725353049 0.0010714900218640399 0 0.020283726892629809 0.0010195208411242491 0 0.020230212042332687 0.0010245380617843025 0 0.020186119862342335 0.00095122798632053113 0 0.020283726892629809 0.0010195208411242491 0 0.020186119862342335 0.00095122798632053113 0 0.020283726892629809 0.0010195208411242491 0 0.020297213624948535 0.00094113086915779422 0 0.020283726892629809 0.0010195208411242491 0 0.020452079438307316 0.0011340228699676434 0 0.020297213624948535 0.00094113086915779422 0 0.020452079438307316 0.0011340228699676434 0 0.020413068231002598 0.00071410241594248617 0 0.020802058587792053 0.00053252529783028501 0 0.020169181003894313 0.00082271127060856968 0 0.020024482396432938 0.00082428975782632954 0 0.020302284054523587 3.3602114182196014e-05 0 0.020452079438307316 0.0011340228699676434 0 0.020297213624948535 0.00094113086915779422 0 0.020413068231002598 0.00071410241594248617 0 0.020297213624948535 0.00094113086915779422 0 0.020169181003894313 0.00082271127060856968 0 0.020413068231002598 0.00071410241594248617 0 0.020186119862342335 0.00095122798632053113 0 0.020297213624948535 0.00094113086915779422 0 0.020175146505775898 0.00088543484618398805 0 0.020297213624948535 0.00094113086915779422 0 0.020169181003894313 0.00082271127060856968 0 0.020175146505775898 0.00088543484618398805 0 0.020169181003894313 0.00082271127060856968 0 0.020175146505775898 0.00088543484618398805 0 0.020138946219265857 0.00085392511046448831 0 0.019682671115784513 0.00022771637209210893 0 0.019202538080502828 0.00010861340923784355 0 0.020186119862342335 0.00095122798632053113 0 0.020175146505775898 0.00088543484618398805 0 0.020138946219265857 0.00085392511046448831 0 0.019675107814728372 0.00019466688415468205 0 0.020039832074144025 0.00035590489704396194 0 0.019928573783517315 2.42275441905213e-05 0 0.020039832074144025 0.00035590489704396194 0 0.019928573783517315 2.42275441905213e-05 0 0.020361893455728176 -0.00028678501624932319 0 0.019675107814728372 0.00019466688415468205 0 0.019928573783517315 2.42275441905213e-05 0 0.019667011744122009 3.5321727440467722e-05 0 0.019928573783517315 2.42275441905213e-05 0 0.019740500209563638 -0.00021463436723521316 0 0.019667011744122009 3.5321727440467722e-05 0 0.019928573783517315 2.42275441905213e-05 0 0.019740500209563638 -0.00021463436723521316 0 0.020361893455728176 -0.00028678501624932319 0 0.020413068231002598 0.00071410241594248617 0 0.020302284054523587 3.3602114182196014e-05 0 0.020802058587792053 0.00053252529783028501 0 0.020169181003894313 0.00082271127060856968 0 0.020413068231002598 0.00071410241594248617 0 0.020302284054523587 3.3602114182196014e-05 0 0.019202538080502828 0.00010861340923784355 0 0.02043535332121784 -7.2520721097067491e-05 0 0.02043535332121784 -7.2520721097067491e-05 0 0.020679757448228437 -0.00084917063177387313 0 0.020302284054523587 3.3602114182196014e-05 0 0.021008938141813517 -8.9883539954467727e-05 0 0.020730644105840263 -0.00086754212398502386 0 0.020361893455728176 -0.00028678501624932319 0 0.020730644105840263 -0.00086754212398502386 0 0.020206872914072929 -0.0008519778649158506 0 0.020361893455728176 -0.00028678501624932319 0 0.019793271914463312 -0.00062120736143348376 0 0.020206872914072929 -0.0008519778649158506 0 0.019740500209563638 -0.00021463436723521316 0 0.020361893455728176 -0.00028678501624932319 0 0.019793271914463312 -0.00062120736143348376 0 0.019793271914463312 -0.00062120736143348376 0 0.019369735885374984 -0.00045800590900631151 0 0.019270060894699036 -0.00084094898936587612 0 0.019740500209563638 -0.00021463436723521316 0 0.019793271914463312 -0.00062120736143348376 0 0.019369735885374984 -0.00045800590900631151 0 0.019740500209563638 -0.00021463436723521316 0 0.019369735885374984 -0.00045800590900631151 0 0.019371253841302234 -9.1041943253369819e-05 0 0.019369735885374984 -0.00045800590900631151 0 0.019371253841302234 -9.1041943253369819e-05 0 0.019067000182820242 -0.00031516521572822078 0 0.019260447063594501 0.00011087855379995006 0 0.019371253841302234 -9.1041943253369819e-05 0 0.019094221784390814 -5.2951741703422945e-05 0 0.019455338276715098 0.00011691458920138173 0 0.019260447063594501 0.00011087855379995006 0 0.019371253841302234 -9.1041943253369819e-05 0 0.019455338276715098 0.00011691458920138173 0 0.019371253841302234 -9.1041943253369819e-05 0 0.019667011744122009 3.5321727440467722e-05 0 0.019740500209563638 -0.00021463436723521316 0 0.019371253841302234 -9.1041943253369819e-05 0 0.019667011744122009 3.5321727440467722e-05 0 0.018893547506385389 6.3890105839624989e-06 0 0.019094221784390814 -5.2951741703422945e-05 0 0.018890029730741307 -0.00016919245533845883 0 0.018893547506385389 6.3890105839624989e-06 0 0.018890029730741307 -0.00016919245533845883 0 0.018701200967171011 -0.00010688222639322724 0 0.018893547506385389 6.3890105839624989e-06 0 0.018701200967171011 -0.00010688222639322724 0 0.018720994783564173 5.9923261364726366e-05 0 0.019087016392184387 0.00012914711739301727 0 0.018893547506385389 6.3890105839624989e-06 0 0.019094221784390814 -5.2951741703422945e-05 0 0.019260447063594501 0.00011087855379995006 0 0.019087016392184387 0.00012914711739301727 0 0.019094221784390814 -5.2951741703422945e-05 0 0.019094221784390814 -5.2951741703422945e-05 0 0.019067000182820242 -0.00031516521572822078 0 0.018890029730741307 -0.00016919245533845883 0 0.019371253841302234 -9.1041943253369819e-05 0 0.019094221784390814 -5.2951741703422945e-05 0 0.019067000182820242 -0.00031516521572822078 0 0.018890029730741307 -0.00016919245533845883 0 0.018701200967171011 -0.00010688222639322724 0 0.018692285250858063 -0.00032502409728012047 0 0.019067000182820242 -0.00031516521572822078 0 0.018890029730741307 -0.00016919245533845883 0 0.018692285250858063 -0.00032502409728012047 0 0.019067000182820242 -0.00031516521572822078 0 0.018947649712066878 -0.00059186983131897012 0 0.018692285250858063 -0.00032502409728012047 0 0.019369735885374984 -0.00045800590900631151 0 0.019067000182820242 -0.00031516521572822078 0 0.018947649712066878 -0.00059186983131897012 0 0.019369735885374984 -0.00045800590900631151 0 0.018947649712066878 -0.00059186983131897012 0 0.019270060894699036 -0.00084094898936587612 0 0.018947649712066878 -0.00059186983131897012 0 0.018579525356786374 -0.00058206003173578676 0 0.018832711879936726 -0.00085857759386592336 0 0.018947649712066878 -0.00059186983131897012 0 0.018579525356786374 -0.00058206003173578676 0 0.018692285250858063 -0.00032502409728012047 0 0.018579525356786374 -0.00058206003173578676 0 0.018242169007590667 -0.00032449687053453765 0 0.018692285250858063 -0.00032502409728012047 0 0.018579525356786374 -0.00058206003173578676 0 0.018268733239193358 -0.00060251749049170227 0 0.018242169007590667 -0.00032449687053453765 0 0.018579525356786374 -0.00058206003173578676 0 0.018268733239193358 -0.00060251749049170227 0 0.018533706443865653 -0.00085911711773160968 0 0.018268733239193358 -0.00060251749049170227 0 0.018242169007590667 -0.00032449687053453765 0 0.017865978577065868 -0.00040239915161355174 0 0.018242169007590667 -0.00032449687053453765 0 0.017979306155200235 -0.00021851022021582905 0 0.017865978577065868 -0.00040239915161355174 0 0.018242169007590667 -0.00032449687053453765 0 0.018111179572023361 -0.00016882992472044291 0 0.018422352945728065 -0.00013585529662369085 0 0.018242169007590667 -0.00032449687053453765 0 0.017979306155200235 -0.00021851022021582905 0 0.018111179572023361 -0.00016882992472044291 0 0.018111179572023361 -0.00016882992472044291 0 0.018422352945728065 -0.00013585529662369085 0 0.018248847284386711 -4.1663187548435804e-05 0 0.018422352945728065 -0.00013585529662369085 0 0.018701200967171011 -0.00010688222639322724 0 0.018692285250858063 -0.00032502409728012047 0 0.018422352945728065 -0.00013585529662369085 0 0.018701200967171011 -0.00010688222639322724 0 0.018522953460297441 3.3448362698525458e-05 0 0.018701200967171011 -0.00010688222639322724 0 0.018720994783564173 5.9923261364726366e-05 0 0.018522953460297441 3.3448362698525458e-05 0 0.018242169007590667 -0.00032449687053453765 0 0.018422352945728065 -0.00013585529662369085 0 0.018692285250858063 -0.00032502409728012047 0 0.019751346778811026 -0.0011829897624612289 0 0.020025276977841795 -0.0012065918594013586 0 0.019870576947190331 -0.0013363260237390176 0 0.018978407833077773 -0.00082276764996301035 0 0.018996766099758547 -0.00068062256554852064 0 0.017865978577065868 -0.00040239915161355174 0 0.018308831401105286 -0.00019713772458738703 0 0.018002458427708555 -0.0001973442916636367 0 0.017979306155200235 -0.00021851022021582905 0 0.017865978577065868 -0.00040239915161355174 0 0.018002458427708555 -0.0001973442916636367 0 0.019751346778811026 -0.0011829897624612289 0 0.019677853278694309 -0.001057183318192623 0 0.019435265850992332 -0.0010754041120386428 0 0.019751346778811026 -0.0011829897624612289 0 0.020025276977841795 -0.0012065918594013586 0 0.019677853278694309 -0.001057183318192623 0 0.018996766099758547 -0.00068062256554852064 0 0.019149558434667792 -0.0010685801635559502 0 0.018308831401105286 -0.00019713772458738703 0 0.018002458427708555 -0.0001973442916636367 0 0.018245915137412253 -0.00079952006937868017 0 0.018002458427708555 -0.0001973442916636367 0 0.018245915137412253 -0.00079952006937868017 0 0.017720203266871393 -0.00024893486096043513 0 0.017979306155200235 -0.00021851022021582905 0 0.018002458427708555 -0.0001973442916636367 0 0.017720203266871393 -0.00024893486096043513 0 0.018245915137412253 -0.00079952006937868017 0 0.018429014144388672 -0.0013278414666299315 0 0.017764398788631893 -0.0012942337013571109 0 0.017729763134803272 -0.0007518631121673716 0 0.018245915137412253 -0.00079952006937868017 0 0.017764398788631893 -0.0012942337013571109 0 0.017729763134803272 -0.0007518631121673716 0 0.018245915137412253 -0.00079952006937868017 0 0.017720203266871393 -0.00024893486096043513 0 0.018308831401105286 -0.00019713772458738703 0 0.018245915137412253 -0.00079952006937868017 0 0.019125839304688079 -0.0010784024463440791 0 0.018245915137412253 -0.00079952006937868017 0 0.018429014144388672 -0.0013278414666299315 0 0.019125839304688079 -0.0010784024463440791 0 0.016005936111445625 -0.00047717442511962664 0 0.015795964226905729 -0.00039303735165794549 0 0.016681488860820069 -0.00050004456221175409 0 0.016005936111445625 -0.00047717442511962664 0 0.015901992338626582 -0.00042581927200372398 0 0.015940992644436779 -0.00039012358079835345 0 0.015954205453367985 -0.00040658295491826437 0 0.015901992338626582 -0.00042581927200372398 0 0.015795964226905729 -0.00039303735165794549 0 0.015954205453367985 -0.00040658295491826437 0 0.015901992338626582 -0.00042581927200372398 0 0.015940992644436779 -0.00039012358079835345 0 0.016005936111445625 -0.00047717442511962664 0 0.015901992338626582 -0.00042581927200372398 0 0.015795964226905729 -0.00039303735165794549 0 0.018860621604693432 0.00015184833433485752 0 0.018506663961293555 0.00024497419923682839 0 0.018655050205787907 0.00013426005949999955 0 0.018506663961293555 0.00024497419923682839 0 0.018655050205787907 0.00013426005949999955 0 0.018522953460297441 3.3448362698525458e-05 0 0.018655050205787907 0.00013426005949999955 0 0.018720994783564173 5.9923261364726366e-05 0 0.018522953460297441 3.3448362698525458e-05 0 0.018506663961293555 0.00024497419923682839 0 0.018522953460297441 3.3448362698525458e-05 0 0.018248847284386711 -4.1663187548435804e-05 0 0.018422352945728065 -0.00013585529662369085 0 0.018522953460297441 3.3448362698525458e-05 0 0.018248847284386711 -4.1663187548435804e-05 0 0.018506663961293555 0.00024497419923682839 0 0.018248847284386711 -4.1663187548435804e-05 0 0.017720203266871393 -0.00024893486096043513 0 0.017253984024650268 -9.6565184147085175e-05 0 0.017693347595475684 -0.00021109547405648454 0 0.018111179572023361 -0.00016882992472044291 0 0.018248847284386711 -4.1663187548435804e-05 0 0.017720203266871393 -0.00024893486096043513 0 0.015795964226905729 -0.00039303735165794549 0 0.017720203266871393 -0.00024893486096043513 0 0.016681488860820069 -0.00050004456221175409 0 0.017979306155200235 -0.00021851022021582905 0 0.018111179572023361 -0.00016882992472044291 0 0.017720203266871393 -0.00024893486096043513 0 0.017729763134803272 -0.0007518631121673716 0 0.017720203266871393 -0.00024893486096043513 0 0.016681488860820069 -0.00050004456221175409 0 0.0166552065486834 -0.00052118309430356738 0 0.016956980753003833 -0.0014121034457428463 0 0.016681488860820069 -0.00050004456221175409 0 0.015958668329546805 -0.0017606754647240207 0 0.016301864123733439 -0.0017212832187792481 0 0.017729763134803272 -0.0007518631121673716 0 0.016681488860820069 -0.00050004456221175409 0 0.017764398788631893 -0.0012942337013571109 0 0.016005936111445625 -0.00047717442511962664 0 0.015940992644436779 -0.00039012358079835345 0 0.015848880216551998 -0.00023046228833147004 0 0.016005936111445625 -0.00047717442511962664 0 0.016681488860820069 -0.00050004456221175409 0 0.015958668329546805 -0.0017606754647240207 0 0.015974793206775601 -0.00052352970734618792 0 0.015921782726518213 -0.00097538188010018239 0 0.015983453617466271 -0.00033146527061051297 0 0.015940992644436779 -0.00039012358079835345 0 0.015848880216551998 -0.00023046228833147004 0 0.015954205453367985 -0.00040658295491826437 0 0.015983453617466271 -0.00033146527061051297 0 0.015940992644436779 -0.00039012358079835345 0 0.015983453617466271 -0.00033146527061051297 0 0.015848880216551998 -0.00023046228833147004 0 0.015962617865184641 -0.00020721785718840109 0 0.015848880216551998 -0.00023046228833147004 0 0.015920418497063459 -0.00013241687108160984 0 0.015962617865184641 -0.00020721785718840109 0 0.015958668329546805 -0.0017606754647240207 0 0.01596141315231971 -0.0019143710642808881 0 0.016301864123733439 -0.0017212832187792481 0 0.01596141315231971 -0.0019143710642808881 0 0.015978981627342979 -0.0019181923403772624 0 0.015693935789962209 -0.0018297250844028117 0 0.015958668329546805 -0.0017606754647240207 0 0.01596141315231971 -0.0019143710642808881 0 0.015978981627342979 -0.0019181923403772624 0 0.015848880216551998 -0.00023046228833147004 0 0.015845564869897445 -7.8707101620879128e-05 0 0.015920418497063459 -0.00013241687108160984 0 0.015845564869897445 -7.8707101620879128e-05 0 0.015920418497063459 -0.00013241687108160984 0 0.015928103405618187 -7.2565681851436621e-05 0 0.015921782726518213 -0.00097538188010018239 0 0.015915754359888106 -0.00099102585436043112 0 0.018429014144388672 -0.0013278414666299315 0 0.019125839304688079 -0.0010784024463440791 0 0.018771748245743302 -0.0015401696021894696 0 0.018429014144388672 -0.0013278414666299315 0 0.01829756462470928 -0.0017711911027308649 0 0.018771748245743302 -0.0015401696021894696 0 0.016956980753003833 -0.0014121034457428463 0 0.017093034133685191 -0.0018622616052711692 0 0.01596141315231971 -0.0019143710642808881 0 0.016301864123733439 -0.0017212832187792481 0 0.015575361949096445 -0.0019675272649886319 0 0.018429014144388672 -0.0013278414666299315 0 0.017764398788631893 -0.0012942337013571109 0 0.01829756462470928 -0.0017711911027308649 0 0.01596141315231971 -0.0019143710642808881 0 0.015575361949096445 -0.0019675272649886319 0 0.015693935789962209 -0.0018297250844028117 0 0.01829756462470928 -0.0017711911027308649 0 0.018698718010633747 -0.0018223814918949185 0 0.018771748245743302 -0.0015401696021894696 0 0.017093034133685191 -0.0018622616052711692 0 0.015669244658288509 -0.0020775903163835286 0 0.015575361949096445 -0.0019675272649886319 0 0.015268285705579695 -0.0018246689354974514 0 0.015080579995256438 -0.0017861607864524628 0 0.01829756462470928 -0.0017711911027308649 0 0.018698718010633747 -0.0018223814918949185 0 0.01862347869371974 -0.0021123953230856238 0 0.015268285705579695 -0.0018246689354974514 0 0.014849214347340213 -0.001585349370766451 0 0.014248530450780153 -0.0018558996216815251 0 0.014875175274935638 -0.0017517426391220974 0 0.015669244658288509 -0.0020775903163835286 0 0.015693935789962209 -0.0018297250844028117 0 0.015268285705579695 -0.0018246689354974514 0 0.015407060197790904 -0.0014158901753994165 0 0.015575361949096445 -0.0019675272649886319 0 0.015693935789962209 -0.0018297250844028117 0 0.015268285705579695 -0.0018246689354974514 0 0.01564430291222799 -0.0009008075290669813 0 0.015204601038225853 -0.00085959316303452888 0 0.015407060197790904 -0.0014158901753994165 0 0.015204601038225853 -0.00085959316303452888 0 0.015407060197790904 -0.0014158901753994165 0 0.014810323443688489 -0.001219505455314776 0 0.015268285705579695 -0.0018246689354974514 0 0.015407060197790904 -0.0014158901753994165 0 0.014849214347340213 -0.001585349370766451 0 0.015407060197790904 -0.0014158901753994165 0 0.014849214347340213 -0.001585349370766451 0 0.014810323443688489 -0.001219505455314776 0 0.014849214347340213 -0.001585349370766451 0 0.014248530450780153 -0.0018558996216815251 0 0.014372272792591132 -0.0014558090369092584 0 0.014849214347340213 -0.001585349370766451 0 0.014810323443688489 -0.001219505455314776 0 0.014372272792591132 -0.0014558090369092584 0 0.014721523990595566 -0.00082647125832343107 0 0.014810323443688489 -0.001219505455314776 0 0.014222472509025053 -0.0010549799622138949 0 0.014810323443688489 -0.001219505455314776 0 0.014222472509025053 -0.0010549799622138949 0 0.014372272792591132 -0.0014558090369092584 0 0.014222472509025053 -0.0010549799622138949 0 0.013809651468263516 -0.0014844937851194099 0 0.013400731081513823 -0.0008481660562016511 0 0.014222472509025053 -0.0010549799622138949 0 0.013809651468263516 -0.0014844937851194099 0 0.014372272792591132 -0.0014558090369092584 0 0.013809651468263516 -0.0014844937851194099 0 0.014248530450780153 -0.0018558996216815251 0 0.014372272792591132 -0.0014558090369092584 0 0.014396432287773753 -0.0012916185790452968 0 0.015669244658288509 -0.0020775903163835286 0 0.015845564869897445 -7.8707101620879128e-05 0 0.015889940148431664 -9.8007638502174454e-06 0 0.015831045456764184 3.3451145341804478e-05 0 0.015845564869897445 -7.8707101620879128e-05 0 0.015889940148431664 -9.8007638502174454e-06 0 0.015928103405618187 -7.2565681851436621e-05 0 0.015978981627342979 -0.0019181923403772624 0 0.015693935789962209 -0.0018297250844028117 0 0.016039919499267256 -0.0013550422612012094 0 0.015915754359888106 -0.00099102585436043112 0 0.015925149526672157 -0.00064722104835097829 0 0.01564430291222799 -0.0009008075290669813 0 0.015407060197790904 -0.0014158901753994165 0 0.016039919499267256 -0.0013550422612012094 0 0.015693935789962209 -0.0018297250844028117 0 0.015407060197790904 -0.0014158901753994165 0 0.016039919499267256 -0.0013550422612012094 0 0.015889940148431664 -9.8007638502174454e-06 0 0.015831045456764184 3.3451145341804478e-05 0 0.015855157189044383 7.3384174221334126e-06 0 0.015806871518467529 -6.8100270764390416e-05 0 0.015831045456764184 3.3451145341804478e-05 0 0.015855157189044383 7.3384174221334126e-06 0 0.015889940148431664 -9.8007638502174454e-06 0 0.015855157189044383 7.3384174221334126e-06 0 0.015895004545687732 8.802871530148295e-06 0 0.015855157189044383 7.3384174221334126e-06 0 0.015909858133042475 4.7831072421055362e-05 0 0.015895004545687732 8.802871530148295e-06 0 0.015909858133042475 4.7831072421055362e-05 0 0.015934706432219579 -3.1258236256835897e-06 0 0.015895004545687732 8.802871530148295e-06 0 0.015909858133042475 4.7831072421055362e-05 0 0.015934706432219579 -3.1258236256835897e-06 0 0.015976304409924865 6.6968494266989829e-06 0 0.015889940148431664 -9.8007638502174454e-06 0 0.015934706432219579 -3.1258236256835897e-06 0 0.015895004545687732 8.802871530148295e-06 0 0.015909858133042475 4.7831072421055362e-05 0 0.015976304409924865 6.6968494266989829e-06 0 0.016042931741719682 1.5491756841755758e-05 0 0.015290519726378409 0.0001852598734860614 0 0.014457842974327867 0.0004429357499949748 0 0.014620119568292476 0.0003708179266075033 0 0.013268412122989156 0.00039140420757351164 0 0.013049045481746247 0.00078965372811619838 0 0.015934706432219579 -3.1258236256835897e-06 0 0.015976304409924865 6.6968494266989829e-06 0 0.015990632620010541 -2.6511351965237023e-05 0 0.015976304409924865 6.6968494266989829e-06 0 0.0160181503107284 -1.133993191621174e-05 0 0.015990632620010541 -2.6511351965237023e-05 0 0.015976304409924865 6.6968494266989829e-06 0 0.0160181503107284 -1.133993191621174e-05 0 0.016042931741719682 1.5491756841755758e-05 0 0.016025138873697258 -3.7714798257288014e-05 0 0.015990632620010541 -2.6511351965237023e-05 0 0.016012882128011469 -5.9780611241596102e-05 0 0.0160181503107284 -1.133993191621174e-05 0 0.016025138873697258 -3.7714798257288014e-05 0 0.015990632620010541 -2.6511351965237023e-05 0 0.016012882128011469 -5.9780611241596102e-05 0 0.015965370981121663 -4.4865250604642498e-05 0 0.016003317848418727 -8.7658664865037015e-05 0 0.015990632620010541 -2.6511351965237023e-05 0 0.016012882128011469 -5.9780611241596102e-05 0 0.015965370981121663 -4.4865250604642498e-05 0 0.016025138873697258 -3.7714798257288014e-05 0 0.016012882128011469 -5.9780611241596102e-05 0 0.016045873604941006 -6.2030042807297841e-05 0 0.015889940148431664 -9.8007638502174454e-06 0 0.015934706432219579 -3.1258236256835897e-06 0 0.015965370981121663 -4.4865250604642498e-05 0 0.015934706432219579 -3.1258236256835897e-06 0 0.015990632620010541 -2.6511351965237023e-05 0 0.015965370981121663 -4.4865250604642498e-05 0 0.015965370981121663 -4.4865250604642498e-05 0 0.015928103405618187 -7.2565681851436621e-05 0 0.016003317848418727 -8.7658664865037015e-05 0 0.015889940148431664 -9.8007638502174454e-06 0 0.015965370981121663 -4.4865250604642498e-05 0 0.015928103405618187 -7.2565681851436621e-05 0 0.015920418497063459 -0.00013241687108160984 0 0.015928103405618187 -7.2565681851436621e-05 0 0.015994265454731892 -0.00012499810865724103 0 0.015994265454731892 -0.00012499810865724103 0 0.016003317848418727 -8.7658664865037015e-05 0 0.016042842908742191 -0.00012334913539354596 0 0.015928103405618187 -7.2565681851436621e-05 0 0.015994265454731892 -0.00012499810865724103 0 0.016003317848418727 -8.7658664865037015e-05 0 0.016012882128011469 -5.9780611241596102e-05 0 0.016003317848418727 -8.7658664865037015e-05 0 0.016037721281482939 -9.5563536708124591e-05 0 0.016003317848418727 -8.7658664865037015e-05 0 0.016037721281482939 -9.5563536708124591e-05 0 0.016042842908742191 -0.00012334913539354596 0 0.016012882128011469 -5.9780611241596102e-05 0 0.016037721281482939 -9.5563536708124591e-05 0 0.016045873604941006 -6.2030042807297841e-05 0 0.016037721281482939 -9.5563536708124591e-05 0 0.016059662560182431 -8.6203728327548189e-05 0 0.016045873604941006 -6.2030042807297841e-05 0 0.016037721281482939 -9.5563536708124591e-05 0 0.01605344710630725 -0.00010983378435264597 0 0.016059662560182431 -8.6203728327548189e-05 0 0.01605344710630725 -0.00010983378435264597 0 0.016042842908742191 -0.00012334913539354596 0 0.016061939128096066 -0.00012697595133737114 0 0.016037721281482939 -9.5563536708124591e-05 0 0.01605344710630725 -0.00010983378435264597 0 0.016042842908742191 -0.00012334913539354596 0 0.016067219721689827 -0.00017162486642907442 0 0.016436484849933472 -0.00016776641898942729 0 0.016538847356649101 7.8160041216790909e-05 0 0.016042842908742191 -0.00012334913539354596 0 0.016067219721689827 -0.00017162486642907442 0 0.016061939128096066 -0.00012697595133737114 0 0.016169904193676359 -0.00012569841364566431 0 0.016076183296209363 -7.4414457523400753e-05 0 0.016261540109004713 -0.00024917557337912204 0 0.016067219721689827 -0.00017162486642907442 0 0.016436484849933472 -0.00016776641898942729 0 0.016042360372978664 -0.00026464347289177127 0 0.016067219721689827 -0.00017162486642907442 0 0.015962617865184641 -0.00020721785718840109 0 0.015994265454731892 -0.00012499810865724103 0 0.016067219721689827 -0.00017162486642907442 0 0.015962617865184641 -0.00020721785718840109 0 0.015920418497063459 -0.00013241687108160984 0 0.015994265454731892 -0.00012499810865724103 0 0.015962617865184641 -0.00020721785718840109 0 0.015994265454731892 -0.00012499810865724103 0 0.016042842908742191 -0.00012334913539354596 0 0.016067219721689827 -0.00017162486642907442 0 0.017166456739333827 0.00016284539591612029 0 0.016538847356649101 7.8160041216790909e-05 0 0.017187921395734357 0.00030152892667669129 0 0.019095224193810937 0.00061986736002879309 0 0.020120088684725035 0.0012177352177692381 0 0.020366026069815385 0.00079804246594620046 0 0.020343401257046943 0.0010800582763057412 0 0.02024273296659394 0.0010294448978073827 0 0.020354144944010531 0.0012092336919847482 0 0.020343401257046943 0.0010800582763057412 0 0.020251629541146263 0.0010992410573932427 0 0.017401529692660241 0.00034898754527015751 0 0.019095224193810937 0.00061986736002879309 0 0.01650057032902991 -0.00032345740364479047 0 0.017166456739333827 0.00016284539591612029 0 0.016538847356649101 7.8160041216790909e-05 0 0.020101132935840448 0.0010873028161091306 0 0.020354144944010531 0.0012092336919847482 0 0.020251629541146263 0.0010992410573932427 0 0.01650057032902991 -0.00032345740364479047 0 0.016436484849933472 -0.00016776641898942729 0 0.016538847356649101 7.8160041216790909e-05 0 0.016061939128096066 -0.00012697595133737114 0 0.016094998587752183 -9.5685020634903525e-05 0 0.016071932763621656 -0.00010106623657689072 0 0.016076183296209363 -7.4414457523400753e-05 0 0.017793947564451542 5.4522936855093859e-05 0 0.016061939128096066 -0.00012697595133737114 0 0.016094998587752183 -9.5685020634903525e-05 0 0.016130258661698833 -0.0001020002943388091 0 0.01605344710630725 -0.00010983378435264597 0 0.016061939128096066 -0.00012697595133737114 0 0.016071932763621656 -0.00010106623657689072 0 0.01605344710630725 -0.00010983378435264597 0 0.016071932763621656 -0.00010106623657689072 0 0.016059662560182431 -8.6203728327548189e-05 0 0.016071932763621656 -0.00010106623657689072 0 0.016059662560182431 -8.6203728327548189e-05 0 0.016083754411290053 -7.7927148039779059e-05 0 0.016059662560182431 -8.6203728327548189e-05 0 0.016083754411290053 -7.7927148039779059e-05 0 0.016069560164531427 -5.8940764277092204e-05 0 0.016094998587752183 -9.5685020634903525e-05 0 0.016071932763621656 -0.00010106623657689072 0 0.016083754411290053 -7.7927148039779059e-05 0 0.016083754411290053 -7.7927148039779059e-05 0 0.016105176253573664 -6.4714370962900579e-05 0 0.016085293197779005 -5.5354675309816279e-05 0 0.016094998587752183 -9.5685020634903525e-05 0 0.016105176253573664 -6.4714370962900579e-05 0 0.016130258661698833 -0.0001020002943388091 0 0.016094998587752183 -9.5685020634903525e-05 0 0.016083754411290053 -7.7927148039779059e-05 0 0.016105176253573664 -6.4714370962900579e-05 0 0.017976734954317369 -0.00014480328796141276 0 0.018147893437011901 0.0010966140486469288 0 0.018449524139925989 1.7575302105064276e-05 0 0.019095224193810937 0.00061986736002879309 0 0.019064491932933851 0.00032839804341236326 0 0.018643037212779968 0.00012200256245534605 0 0.01865806391703189 0.00022336013148707999 0 0.01887061432819747 0.00029363857816354231 0 0.017793947564451542 5.4522936855093859e-05 0 0.019064491932933851 0.00032839804341236326 0 0.019095224193810937 0.00061986736002879309 0 0.017793947564451542 5.4522936855093859e-05 0 0.017793947564451542 5.4522936855093859e-05 0 0.014403624490686754 0.00034170490777448863 0 0.016091740329686577 -3.4722291845874911e-05 0 0.016126201593344502 -1.9302988950575808e-05 0 0.016042931741719682 1.5491756841755758e-05 0 0.016105176253573664 -6.4714370962900579e-05 0 0.016130258661698833 -0.0001020002943388091 0 0.016126201593344502 -1.9302988950575808e-05 0 0.016105176253573664 -6.4714370962900579e-05 0 0.016091740329686577 -3.4722291845874911e-05 0 0.016126201593344502 -1.9302988950575808e-05 0 0.016105176253573664 -6.4714370962900579e-05 0 0.016091740329686577 -3.4722291845874911e-05 0 0.016085293197779005 -5.5354675309816279e-05 0 0.014403624490686754 0.00034170490777448863 0 0.0095052459710889062 -0.0010329766055697876 0 0.016045873604941006 -6.2030042807297841e-05 0 0.016069560164531427 -5.8940764277092204e-05 0 0.016059558814703622 -2.388737798871883e-05 0 0.016059662560182431 -8.6203728327548189e-05 0 0.016045873604941006 -6.2030042807297841e-05 0 0.016069560164531427 -5.8940764277092204e-05 0 0.016076485589896349 -4.2454077476531359e-05 0 0.016069560164531427 -5.8940764277092204e-05 0 0.016059558814703622 -2.388737798871883e-05 0 0.016076485589896349 -4.2454077476531359e-05 0 0.016069560164531427 -5.8940764277092204e-05 0 0.016085293197779005 -5.5354675309816279e-05 0 0.016083754411290053 -7.7927148039779059e-05 0 0.016069560164531427 -5.8940764277092204e-05 0 0.016085293197779005 -5.5354675309816279e-05 0 0.016091740329686577 -3.4722291845874911e-05 0 0.016076485589896349 -4.2454077476531359e-05 0 0.016085293197779005 -5.5354675309816279e-05 0 0.016091740329686577 -3.4722291845874911e-05 0 0.016059558814703622 -2.388737798871883e-05 0 0.016042931741719682 1.5491756841755758e-05 0 0.016091740329686577 -3.4722291845874911e-05 0 0.016076485589896349 -4.2454077476531359e-05 0 0.016059558814703622 -2.388737798871883e-05 0 0.016025138873697258 -3.7714798257288014e-05 0 0.016045873604941006 -6.2030042807297841e-05 0 0.016059558814703622 -2.388737798871883e-05 0 0.0160181503107284 -1.133993191621174e-05 0 0.016025138873697258 -3.7714798257288014e-05 0 0.016059558814703622 -2.388737798871883e-05 0 0.011848647888088376 0.0011140997669795414 0 0.013049045481746247 0.00078965372811619838 0 0.01252653316259327 0.00082733767894034181 0 0.0160181503107284 -1.133993191621174e-05 0 0.016059558814703622 -2.388737798871883e-05 0 0.016042931741719682 1.5491756841755758e-05 0 0.012982044582478395 0.00045703534102410376 0 0.01252653316259327 0.00082733767894034181 0 0.012763246094858441 0.00053889123944657813 0 0.013451256110637444 0.00023263999554809585 0 0.012473803825509612 0.00084890033733599939 0 0.013268412122989156 0.00039140420757351164 0 0.013049045481746247 0.00078965372811619838 0 0.01252653316259327 0.00082733767894034181 0 0.0083857818749233353 -0.0013271075405419754 0 0.0095052459710889062 -0.0010329766055697876 0 0.01252653316259327 0.00082733767894034181 0 0.012763246094858441 0.00053889123944657813 0 0.01184114161983167 0.00095017282725236632 0 0.014403624490686754 0.00034170490777448863 0 0.014457842974327867 0.0004429357499949748 0 0.0055662322567060817 -0.0028240287430832283 0 0.0049266098690347437 -0.0031866887153552889 0 0.0055124722146559961 -0.0034286901049528878 0 0.011848647888088376 0.0011140997669795414 0 0.01252653316259327 0.00082733767894034181 0 0.01184114161983167 0.00095017282725236632 0 0.008093772659003939 -0.00071421761405428697 0 0.008192111555952496 -0.00079296797568308196 0 0.0082408443527123842 -0.00061933062743759035 0 0.008093772659003939 -0.00071421761405428697 0 0.0082408443527123842 -0.00061933062743759035 0 0.0080811042239289973 -0.00053346679226748341 0 0.0066196050152673895 -0.0020513995707450118 0 0.0095052459710889062 -0.0010329766055697876 0 0.018147893437011901 0.0010966140486469288 0 0.018449524139925989 1.7575302105064276e-05 0 0.018785132791581331 0.00027642391264847148 0 0.0095052459710889062 -0.0010329766055697876 0 0.013649474666219363 -4.9086741137089224e-05 0 0.014403624490686754 0.00034170490777448863 0 0.013649474666219363 -4.9086741137089224e-05 0 0.018147893437011901 0.0010966140486469288 0 0.019497814328329605 0.0005675874472095896 0 0.018785132791581331 0.00027642391264847148 0 0.011780027474998902 -0.00027396353842429452 0 0.011810016675510475 -5.1144686159261175e-05 0 0.013420704012657943 -0.00080068849362585669 0 0.008093772659003939 -0.00071421761405428697 0 0.0080811042239289973 -0.00053346679226748341 0 0.0079475457052047456 -0.00068275382288025127 0 0.0080811042239289973 -0.00053346679226748341 0 0.0079475457052047456 -0.00068275382288025127 0 0.0079056547565137594 -0.00059744403508221158 0 0.0077897040270393601 -0.0007028504161118393 0 0.0079056547565137594 -0.00059744403508221158 0 0.0077898955968498827 -0.00057962079295055004 0 0.0077897040270393601 -0.0007028504161118393 0 0.0079475457052047456 -0.00068275382288025127 0 0.0079056547565137594 -0.00059744403508221158 0 0.01498165386058016 0.00085049800960205753 0 0.014978043268980282 0.0012404988517449331 0 0.012488448003098503 -0.0017447049301790687 0 0.012100748395091076 -0.00030236940349623819 0 0.011219954260373652 -0.0004367980842749733 0 0.01498165386058016 0.00085049800960205753 0 0.015907730005372218 0.00073522642302260703 0 0.012488448003098503 -0.0017447049301790687 0 0.0079056547565137594 -0.00059744403508221158 0 0.0079384280145387044 -0.00048294079352671526 0 0.0077898955968498827 -0.00057962079295055004 0 0.013649474666219363 -4.9086741137089224e-05 0 0.012100748395091076 -0.00030236940349623819 0 0.0080811042239289973 -0.00053346679226748341 0 0.0079056547565137594 -0.00059744403508221158 0 0.0079384280145387044 -0.00048294079352671526 0 0.017834385507543179 0.0011555074743762116 0 0.020775924816884821 0.001403115724356966 0 0.019497814328329605 0.0005675874472095896 0 0.019378225037655697 0.00056515397632537622 0 0.01922208367672977 0.00052016139963067978 0 0.021526103390567538 0.0017729495218758717 0 0.021597003827822349 0.0017433710762440571 0 0.02138620640587598 0.0016565228303578319 0 0.013649474666219363 -4.9086741137089224e-05 0 0.017834385507543179 0.0011555074743762116 0 0.013783137274409222 0.00052680706156283882 0 0.015293952173657177 6.689473444360653e-06 0 0.015118119271054459 -0.00012855457819802891 0 0.019378225037655697 0.00056515397632537622 0 0.01922208367672977 0.00052016139963067978 0 0.019431136190016192 0.00079575834688348909 0 0.017956429641485753 0.00087161841833884447 0 0.018149818164791356 0.00083021415034855751 0 0.014979609243362882 0.0012400158914957547 0 0.015907730005372218 0.00073522642302260703 0 0.015276857840681784 0.0015971647319123628 0 0.01498165386058016 0.00085049800960205753 0 0.014979609243362882 0.0012400158914957547 0 0.015907730005372218 0.00073522642302260703 0 0.017834385507543179 0.0011555074743762116 0 0.019481948165281635 0.0015378203725032076 0 0.015907730005372218 0.00073522642302260703 0 0.01635429149325535 0.001078300828259374 0 0.015276857840681784 0.0015971647319123628 0 0.012100748395091076 -0.00030236940349623819 0 0.017834385507543179 0.0011555074743762116 0 0.022349269585324121 0.0021511659210492516 0 0.022397169281378727 0.0021297148836793944 0 0.022223947696704313 0.0018020926230827448 0 0.016470686647928858 0.00043520245087409721 0 0.016470889598517054 0.00049713496635104279 0 0.016289642538315014 0.00046190022209210486 0 0.018149818164791356 0.00083021415034855751 0 0.019481948165281635 0.0015378203725032076 0 0.018780690852166809 0.0017236049140338778 0 0.018493366299052995 0.0013729524777383465 0 0.018791254722473071 0.0012298703521433872 0 0.018149818164791356 0.00083021415034855751 0 0.01927822100534932 0.0014394149193976944 0 0.019481948165281635 0.0015378203725032076 0 0.01927822100534932 0.0014394149193976944 0 0.020418310746630065 0.0012588669151158572 0 0.019938975613302046 0.0020022740228939017 0 0.020421684979093163 0.0022798008576221706 0 0.022397169281378727 0.0021297148836793944 0 0.022223947696704313 0.0018020926230827448 0 0.022457842192359186 0.0013549768580177282 0 0.01927822100534932 0.0014394149193976944 0 0.022057902288264035 0.0016915847331649516 0 0.022349269585324121 0.0021511659210492516 0 0.022223947696704313 0.0018020926230827448 0 0.021901069067016318 0.0016119205918346956 0 0.019481948165281635 0.0015378203725032076 0 0.022139092103383391 0.0017343785027915215 0 0.021597003827822349 0.0017433710762440571 0 0.021489328810831758 0.0014819370645015786 0 0.02138620640587598 0.0016565228303578319 0 0.022223947696704313 0.0018020926230827448 0 0.021901069067016318 0.0016119205918346956 0 0.022185980547007086 0.0014956257011404914 0 0.020775924816884821 0.001403115724356966 0 0.020410785282651341 0.0012231548916121094 0 0.021489328810831758 0.0014819370645015786 0 0.02138620640587598 0.0016565228303578319 0 0.021063517782873575 0.00149281544832037 0 0.019431136190016192 0.00079575834688348909 0 0.019766995745173436 0.00078146005709969725 0 0.019916794078798265 0.0011079097789448249 0 0.019916794078798265 0.0011079097789448249 0 0.02024273296659394 0.0010294448978073827 0 0.020094296710444704 0.00084459131559251892 0 0.020366026069815385 0.00079804246594620046 0 0.02024273296659394 0.0010294448978073827 0 0.020094296710444704 0.00084459131559251892 0 0.019766995745173436 0.00078146005709969725 0 0.020094296710444704 0.00084459131559251892 0 0.019963294034741112 0.00071640323319597534 0 0.019766995745173436 0.00078146005709969725 0 0.019916794078798265 0.0011079097789448249 0 0.020094296710444704 0.00084459131559251892 0 0.018473726128379456 -7.1508829685694222e-07 0 0.018785132791581331 0.00027642391264847148 0 0.019471223627107577 0.00044272640549661757 0 0.019766995745173436 0.00078146005709969725 0 0.019963294034741112 0.00071640323319597534 0 0.019767870521604693 0.00063261233100974073 0 0.020140136293052825 0.0005700713471361188 0 0.019471223627107577 0.00044272640549661757 0 0.019767870521604693 0.00063261233100974073 0 0.019064491932933851 0.00032839804341236326 0 0.019551316604601725 0.00042753310196786326 0 0.019963294034741112 0.00071640323319597534 0 0.020140136293052825 0.0005700713471361188 0 0.019767870521604693 0.00063261233100974073 0 0.020094296710444704 0.00084459131559251892 0 0.019963294034741112 0.00071640323319597534 0 0.020140136293052825 0.0005700713471361188 0 0.020366026069815385 0.00079804246594620046 0 0.020094296710444704 0.00084459131559251892 0 0.020140136293052825 0.0005700713471361188 0 0.019064491932933851 0.00032839804341236326 0 0.018728406915265717 0.00014311817869171981 0 0.019497814328329605 0.0005675874472095896 0 0.018785132791581331 0.00027642391264847148 0 0.019471223627107577 0.00044272640549661757 0 0.019471223627107577 0.00044272640549661757 0 0.019512510581809386 0.00062754568094477569 0 0.019767870521604693 0.00063261233100974073 0 0.019453083156005489 0.00051330489450468302 0 0.019471223627107577 0.00044272640549661757 0 0.019512510581809386 0.00062754568094477569 0 0.019497814328329605 0.0005675874472095896 0 0.019378225037655697 0.00056515397632537622 0 0.019453083156005489 0.00051330489450468302 0 0.019497814328329605 0.0005675874472095896 0 0.019453083156005489 0.00051330489450468302 0 0.019471223627107577 0.00044272640549661757 0 0.019378225037655697 0.00056515397632537622 0 0.019453083156005489 0.00051330489450468302 0 0.019512510581809386 0.00062754568094477569 0 0.019378225037655697 0.00056515397632537622 0 0.019431136190016192 0.00079575834688348909 0 0.019512510581809386 0.00062754568094477569 0 0.019431136190016192 0.00079575834688348909 0 0.019766995745173436 0.00078146005709969725 0 0.019512510581809386 0.00062754568094477569 0 0.019766995745173436 0.00078146005709969725 0 0.019512510581809386 0.00062754568094477569 0 0.019767870521604693 0.00063261233100974073 0 0.01364345294209471 -0.00016868801896253966 0 0.013819050775802776 5.2840755655330927e-05 0 0.013726944419633824 -0.00025532781581832177 0 0.013819050775802776 5.2840755655330927e-05 0 0.013726944419633824 -0.00025532781581832177 0 0.013956708836752237 -0.00010054481406578476 0 0.011114181636455098 0.00036140829391133111 0 0.013395729089974273 -0.00067823783565292635 0 0.013726944419633824 -0.00025532781581832177 0 0.014149640646542758 -0.00033106732183788267 0 0.013956708836752237 -0.00010054481406578476 0 0.014149640646542758 -0.00033106732183788267 0 0.013956708836752237 -0.00010054481406578476 0 0.014145690944803098 0.00011908477359360436 0 0.013819050775802776 5.2840755655330927e-05 0 0.013956708836752237 -0.00010054481406578476 0 0.014145690944803098 0.00011908477359360436 0 0.013819050775802776 5.2840755655330927e-05 0 0.014145690944803098 0.00011908477359360436 0 0.014083768062324777 0.00031297898004385835 0 0.014149640646542758 -0.00033106732183788267 0 0.014145690944803098 0.00011908477359360436 0 0.014414028326481898 0.00011749521425663611 0 0.014145690944803098 0.00011908477359360436 0 0.014414028326481898 0.00011749521425663611 0 0.014268651739876062 0.00032152753442453506 0 0.0068916081845660556 -0.00047076853560103595 0 0.0102804237419172 -0.00018793689239486765 0 0.0074341088284205735 -0.00022616961701855376 0 0.0071468587893515415 -0.0002064471682750704 0 0.0080330092297091638 0.00044633035617742852 0 0.011070258256782567 -8.7536204651086384e-05 0 0.0102804237419172 -0.00018793689239486765 0 0.0070333717127329387 -0.00047136002331437629 0 0.0071918413764986882 -0.00043489499966097012 0 0.0072387790694771279 -0.00024177648900140572 0 0.014149640646542758 -0.00033106732183788267 0 0.014414028326481898 0.00011749521425663611 0 0.014533547485120108 -2.6056652069379452e-05 0 0.0073324190740110184 -0.00046265824458842868 0 0.0071918413764986882 -0.00043489499966097012 0 0.0072387790694771279 -0.00024177648900140572 0 0.0072422862552430529 -0.00040174212490673065 0 0.011219954260373652 -0.0004367980842749733 0 0.0073324190740110184 -0.00046265824458842868 0 0.0072387790694771279 -0.00024177648900140572 0 0.0072619157031053559 -0.00021799356578316878 0 0.014414028326481898 0.00011749521425663611 0 0.01456046081136143 7.5107594690455869e-06 0 0.01446924351849857 0.00030869333687417631 0 0.011219954260373652 -0.0004367980842749733 0 0.015350525704096257 0.00025321936927408359 0 0.018149818164791356 0.00083021415034855751 0 0.011219954260373652 -0.0004367980842749733 0 0.014414028326481898 0.00011749521425663611 0 0.014533547485120108 -2.6056652069379452e-05 0 0.01456046081136143 7.5107594690455869e-06 0 0.0102804237419172 -0.00018793689239486765 0 0.011219954260373652 -0.0004367980842749733 0 0.016137317547499953 7.2289742546774392e-05 0 0.016289642538315014 0.00046190022209210486 0 0.016043096657506604 0.0004016270239979629 0 0.016213463360439828 0.0006132571398546723 0 0.015986675095186094 0.00072586172830632991 0 0.016043096657506604 0.0004016270239979629 0 0.016470686647928858 0.00043520245087409721 0 0.016137317547499953 7.2289742546774392e-05 0 0.016289642538315014 0.00046190022209210486 0 0.016289642538315014 0.00046190022209210486 0 0.016213463360439828 0.0006132571398546723 0 0.016043096657506604 0.0004016270239979629 0 0.01927822100534932 0.0014394149193976944 0 0.017918069143016999 0.0012028055981678568 0 0.016470889598517054 0.00049713496635104279 0 0.016289642538315014 0.00046190022209210486 0 0.016213463360439828 0.0006132571398546723 0 0.020418310746630065 0.0012588669151158572 0 0.019938251972967853 0.0014904271224772392 0 0.019938975613302046 0.0020022740228939017 0 0.018883243884798121 0.0015633905778203508 0 0.021821629155847636 0.00204363218282227 0 0.019938251972967853 0.0014904271224772392 0 0.019452605406731539 0.0017205568858491339 0 0.019938975613302046 0.0020022740228939017 0 0.023604313535302068 0.0019694044410932684 0 0.023462303299590273 0.0016489822911101232 0 0.023183470346989796 0.0017268693615324652 0 0.017918069143016999 0.0012028055981678568 0 0.018883243884798121 0.0015633905778203508 0 0.015986675095186094 0.00072586172830632991 0 0.015954509263173378 0.000706747728450226 0 0.016043096657506604 0.0004016270239979629 0 0.018883243884798121 0.0015633905778203508 0 0.01717517619729644 0.0010565838392289839 0 0.023604313535302068 0.0019694044410932684 0 0.023697012876380288 0.0019256204810361387 0 0.023662530447893858 0.0016674827653200871 0 0.023604313535302068 0.0019694044410932684 0 0.023462303299590273 0.0016489822911101232 0 0.023662530447893858 0.0016674827653200871 0 0.018883243884798121 0.0015633905778203508 0 0.018544446411775432 0.0013693457978076059 0 0.017216430090862492 0.0018700357336859247 0 0.018390951946900953 0.0013046235312121515 0 0.017984231476376691 0.0023215678119730167 0 0.015449205204816113 0.0011243512918172242 0 0.015436264700970663 0.00113388782547794 0 0.015763164338655978 0.00092471456431636933 0 0.018544446411775432 0.0013693457978076059 0 0.01717517619729644 0.0010565838392289839 0 0.01717517619729644 0.0010565838392289839 0 0.014184969764786096 0.00041104960023793171 0 0.01561004720083708 0.0011434013962485327 0 0.015436264700970663 0.00113388782547794 0 0.014800066379253502 0.00070771477459139463 0 0.015449205204816113 0.0011243512918172242 0 0.01561004720083708 0.0011434013962485327 0 0.015436264700970663 0.00113388782547794 0 0.01437430087418996 0.00059534221229733271 0 0.01446924351849857 0.00030869333687417631 0 0.014268651739876062 0.00032152753442453506 0 0.01437430087418996 0.00059534221229733271 0 0.014268651739876062 0.00032152753442453506 0 0.014137009700214793 0.00046077587707740665 0 0.01717517619729644 0.0010565838392289839 0 0.015350525704096257 0.00025321936927408359 0 0.014414028326481898 0.00011749521425663611 0 0.01446924351849857 0.00030869333687417631 0 0.014268651739876062 0.00032152753442453506 0 0.014145690944803098 0.00011908477359360436 0 0.014268651739876062 0.00032152753442453506 0 0.014083768062324777 0.00031297898004385835 0 0.014184969764786096 0.00041104960023793171 0 0.014109898140492615 0.00044252584659031677 0 0.014800066379253502 0.00070771477459139463 0 0.014155771682759189 0.00079635201807856952 0 0.013931564086319419 0.00037677564907365071 0 0.014083768062324777 0.00031297898004385835 0 0.014137009700214793 0.00046077587707740665 0 0.013931564086319419 0.00037677564907365071 0 0.014268651739876062 0.00032152753442453506 0 0.014083768062324777 0.00031297898004385835 0 0.014137009700214793 0.00046077587707740665 0 0.015436264700970663 0.00113388782547794 0 0.015898993281717424 0.0010263350099539994 0 0.015763164338655978 0.00092471456431636933 0 0.015436264700970663 0.00113388782547794 0 0.014800066379253502 0.00070771477459139463 0 0.014421683731594144 0.0014630360372118272 0 0.014277765067139831 0.0015088723684917565 0 0.018687996128028243 0.00092092919683390293 0 0.018544446411775432 0.0013693457978076059 0 0.020474958837231171 0.0014168464880222108 0 0.018687996128028243 0.00092092919683390293 0 0.020474958837231171 0.0014168464880222108 0 0.014800066379253502 0.00070771477459139463 0 0.014421683731594144 0.0014630360372118272 0 0.014155771682759189 0.00079635201807856952 0 0.018687996128028243 0.00092092919683390293 0 0.015652358808412734 0.00055111746745713946 0 0.014421683731594144 0.0014630360372118272 0 0.013567931182311511 0.00064898217690098603 0 0.014155771682759189 0.00079635201807856952 0 0.019136828865889636 0.00024814265022079205 0 0.018252501473180777 0.00054898507152662934 0 0.018856949266755574 0.0010302977000146178 0 0.013415398360211576 0.00022082171391170341 0 0.015652358808412734 0.00055111746745713946 0 0.013819050775802776 5.2840755655330927e-05 0 0.013567931182311511 0.00064898217690098603 0 0.013931564086319419 0.00037677564907365071 0 0.013567931182311511 0.00064898217690098603 0 0.014155771682759189 0.00079635201807856952 0 0.013931564086319419 0.00037677564907365071 0 0.013819050775802776 5.2840755655330927e-05 0 0.014083768062324777 0.00031297898004385835 0 0.013931564086319419 0.00037677564907365071 0 0.024658909827853338 0.00081822724500598266 0 0.0244301785765869 0.0010676900676896502 0 0.024386526832814878 0.00075696424839563647 0 0.0244301785765869 0.0010676900676896502 0 0.024151885923122184 0.0011230478252554532 0 0.024386526832814878 0.00075696424839563647 0 0.0244301785765869 0.0010676900676896502 0 0.024243828129285615 0.0012618437180234262 0 0.024151885923122184 0.0011230478252554532 0 0.024692612156700579 0.0011271775308400829 0 0.0244301785765869 0.0010676900676896502 0 0.024525335516364943 0.0013571817714182264 0 0.024692612156700579 0.0011271775308400829 0 0.024658909827853338 0.00081822724500598266 0 0.0244301785765869 0.0010676900676896502 0 0.021652248624099112 0.00054486088285337275 0 0.018687996128028243 0.00092092919683390293 0 0.024833044833872019 0.0014632198256463703 0 0.024098368276522172 0.0017172536130544004 0 0.024525335516364943 0.0013571817714182264 0 0.024098368276522172 0.0017172536130544004 0 0.024525335516364943 0.0013571817714182264 0 0.024207527722923471 0.0014899559672997783 0 0.0244301785765869 0.0010676900676896502 0 0.024525335516364943 0.0013571817714182264 0 0.024243828129285615 0.0012618437180234262 0 0.024525335516364943 0.0013571817714182264 0 0.024207527722923471 0.0014899559672997783 0 0.024243828129285615 0.0012618437180234262 0 0.024207527722923471 0.0014899559672997783 0 0.024243828129285615 0.0012618437180234262 0 0.024061159393815576 0.0013665599752163864 0 0.024243828129285615 0.0012618437180234262 0 0.024061159393815576 0.0013665599752163864 0 0.024151885923122184 0.0011230478252554532 0 0.024207527722923471 0.0014899559672997783 0 0.024061159393815576 0.0013665599752163864 0 0.02400073637396875 0.0015881650976452462 0 0.023879820482441253 0.00077455774647113126 0 0.020474958837231171 0.0014168464880222108 0 0.024098368276522172 0.0017172536130544004 0 0.024207527722923471 0.0014899559672997783 0 0.023931414050802725 0.0015988753538334045 0 0.024061159393815576 0.0013665599752163864 0 0.02400073637396875 0.0015881650976452462 0 0.023769183133323379 0.001407919741544444 0 0.020474958837231171 0.0014168464880222108 0 0.022715627838826719 0.001466130276204294 0 0.024061159393815576 0.0013665599752163864 0 0.024151885923122184 0.0011230478252554532 0 0.023769183133323379 0.001407919741544444 0 0.024151885923122184 0.0011230478252554532 0 0.024062286107533075 0.00081584977619190817 0 0.023769183133323379 0.001407919741544444 0 0.024128766717968306 0.00088523371657877659 0 0.023819252152292095 0.0014112813430638557 0 0.023878428296623073 0.0014587528527442151 0 0.024233274074241862 0.00079337041355476558 0 0.022715627838826719 0.001466130276204294 0 0.024151885923122184 0.0011230478252554532 0 0.024062286107533075 0.00081584977619190817 0 0.024386526832814878 0.00075696424839563647 0 0.024128766717968306 0.00088523371657877659 0 0.023621795316990119 0.001246267785938907 0 0.023877383179999139 0.00057057908404710921 0 0.024128766717968306 0.00088523371657877659 0 0.023819252152292095 0.0014112813430638557 0 0.023621795316990119 0.001246267785938907 0 0.023621795316990119 0.001246267785938907 0 0.023388744383431831 0.00065030456512036531 0 0.024007877151087802 0.00021885048352545837 0 0.023643286196355758 0.0012049742737579869 0 0.023932989637392408 0.00040511845667997698 0 0.023819252152292095 0.0014112813430638557 0 0.023734490253192051 0.0015133132594305667 0 0.023617989492111122 0.0014571793448051318 0 0.023819252152292095 0.0014112813430638557 0 0.023893807290258941 0.0014746631070870965 0 0.023734490253192051 0.0015133132594305667 0 0.022948504379583977 0.0015716992405163299 0 0.022715627838826719 0.001466130276204294 0 0.023697012876380288 0.0019256204810361387 0 0.023893807290258941 0.0014746631070870965 0 0.023662530447893858 0.0016674827653200871 0 0.018544446411775432 0.0013693457978076059 0 0.022715627838826719 0.001466130276204294 0 0.020186974994246383 0.0017522815934822465 0 0.020982947598352713 0.0013733180021703827 0 0.020502403304509816 0.00099258506582705717 0 0.023893807290258941 0.0014746631070870965 0 0.023734490253192051 0.0015133132594305667 0 0.023662530447893858 0.0016674827653200871 0 0.023462303299590273 0.0016489822911101232 0 0.023617989492111122 0.0014571793448051318 0 0.023290966194672365 0.0013962178541700398 0 0.023462303299590273 0.0016489822911101232 0 0.023662530447893858 0.0016674827653200871 0 0.023617989492111122 0.0014571793448051318 0 0.023734490253192051 0.0015133132594305667 0 0.023662530447893858 0.0016674827653200871 0 0.023617989492111122 0.0014571793448051318 0 0.023617989492111122 0.0014571793448051318 0 0.023621795316990119 0.001246267785938907 0 0.023290966194672365 0.0013962178541700398 0 0.023819252152292095 0.0014112813430638557 0 0.023617989492111122 0.0014571793448051318 0 0.023621795316990119 0.001246267785938907 0 0.023290966194672365 0.0013962178541700398 0 0.023099068601445547 0.0010787454042113849 0 0.022712737987237022 0.0014673921291072378 0 0.023621795316990119 0.001246267785938907 0 0.023290966194672365 0.0013962178541700398 0 0.023099068601445547 0.0010787454042113849 0 0.023290966194672365 0.0013962178541700398 0 0.023183470346989796 0.0017268693615324652 0 0.022712737987237022 0.0014673921291072378 0 0.023462303299590273 0.0016489822911101232 0 0.023290966194672365 0.0013962178541700398 0 0.023183470346989796 0.0017268693615324652 0 0.021821629155847636 0.00204363218282227 0 0.022057902288264035 0.0016915847331649516 0 0.023621795316990119 0.001246267785938907 0 0.023099068601445547 0.0010787454042113849 0 0.023388744383431831 0.00065030456512036531 0 0.023099068601445547 0.0010787454042113849 0 0.023388744383431831 0.00065030456512036531 0 0.022723716253468484 0.00064072467196321441 0 0.023388744383431831 0.00065030456512036531 0 0.023344567610729811 3.5098789289859276e-05 0 0.022723716253468484 0.00064072467196321441 0 0.023344567610729811 3.5098789289859276e-05 0 0.022723716253468484 0.00064072467196321441 0 0.022760794082130567 -0.00023708005788902176 0 0.023344567610729811 3.5098789289859276e-05 0 0.02365685226523169 -0.00045189696501999769 0 0.023175040878415373 -0.00062146581044982506 0 0.023344567610729811 3.5098789289859276e-05 0 0.022760794082130567 -0.00023708005788902176 0 0.023175040878415373 -0.00062146581044982506 0 0.023344567610729811 3.5098789289859276e-05 0 0.02365685226523169 -0.00045189696501999769 0 0.024007877151087802 0.00021885048352545837 0 0.02365685226523169 -0.00045189696501999769 0 0.023958753491105381 -0.00048860233493134035 0 0.024007877151087802 0.00021885048352545837 0 0.023388744383431831 0.00065030456512036531 0 0.023344567610729811 3.5098789289859276e-05 0 0.024007877151087802 0.00021885048352545837 0 0.024062286107533075 0.00081584977619190817 0 0.024408814427132487 0.00028087543101216767 0 0.024386526832814878 0.00075696424839563647 0 0.024233274074241862 0.00079337041355476558 0 0.024341904650228573 0.00034880038660384894 0 0.024128766717968306 0.00088523371657877659 0 0.023877383179999139 0.00057057908404710921 0 0.024408814427132487 0.00028087543101216767 0 0.023877383179999139 0.00057057908404710921 0 0.024412344294247615 6.3698529737419551e-05 0 0.024116379781963765 -0.00025481373319253745 0 0.023877383179999139 0.00057057908404710921 0 0.024412344294247615 6.3698529737419551e-05 0 0.024408814427132487 0.00028087543101216767 0 0.023932989637392408 0.00040511845667997698 0 0.024234672342927015 -0.00053229326929119013 0 0.023958753491105381 -0.00048860233493134035 0 0.024007877151087802 0.00021885048352545837 0 0.024329589416717857 -0.00076838892539510555 0 0.024881046624691195 -9.9486433373406771e-05 0 0.024412344294247615 6.3698529737419551e-05 0 0.024616636607222599 0.00019051611787964743 0 0.024412344294247615 6.3698529737419551e-05 0 0.024408814427132487 0.00028087543101216767 0 0.024616636607222599 0.00019051611787964743 0 0.024793268164851667 0.00029694721161353435 0 0.024616636607222599 0.00019051611787964743 0 0.024617854288637678 0.00049221639554360456 0 0.024408814427132487 0.00028087543101216767 0 0.024616636607222599 0.00019051611787964743 0 0.024617854288637678 0.00049221639554360456 0 0.024408814427132487 0.00028087543101216767 0 0.024617854288637678 0.00049221639554360456 0 0.024386526832814878 0.00075696424839563647 0 0.024658909827853338 0.00081822724500598266 0 0.024617854288637678 0.00049221639554360456 0 0.024386526832814878 0.00075696424839563647 0 0.021240136518675842 0.00090379000360818191 0 0.02146358342780098 0.00037559232707871362 0 0.020802058587792053 0.00053252529783028501 0 0.021240136518675842 0.00090379000360818191 0 0.022000408267163908 0.0010078208314359947 0 0.02146358342780098 0.00037559232707871362 0 0.020452079438307316 0.0011340228699676434 0 0.021240136518675842 0.00090379000360818191 0 0.020802058587792053 0.00053252529783028501 0 0.020452079438307316 0.0011340228699676434 0 0.019916794078798265 0.0011079097789448249 0 0.02024273296659394 0.0010294448978073827 0 0.020448867343091266 0.0011695839479745234 0 0.020410785282651341 0.0012231548916121094 0 0.020452079438307316 0.0011340228699676434 0 0.021063517782873575 0.00149281544832037 0 0.021240136518675842 0.00090379000360818191 0 0.021489328810831758 0.0014819370645015786 0 0.021063517782873575 0.00149281544832037 0 0.021240136518675842 0.00090379000360818191 0 0.022139092103383391 0.0017343785027915215 0 0.02108527743672747 0.00082037984077570751 0 0.021901069067016318 0.0016119205918346956 0 0.021240136518675842 0.00090379000360818191 0 0.022000408267163908 0.0010078208314359947 0 0.021901069067016318 0.0016119205918346956 0 0.022185980547007086 0.0014956257011404914 0 0.022000408267163908 0.0010078208314359947 0 0.022185980547007086 0.0014956257011404914 0 0.022457842192359186 0.0013549768580177282 0 0.022000408267163908 0.0010078208314359947 0 0.022057902288264035 0.0016915847331649516 0 0.02215419803873972 0.0010487564947816524 0 0.022223947696704313 0.0018020926230827448 0 0.022185980547007086 0.0014956257011404914 0 0.022457842192359186 0.0013549768580177282 0 0.022659986079706408 0.0014039656354073958 0 0.022000408267163908 0.0010078208314359947 0 0.022690146540664452 0.00055005097372600625 0 0.022057902288264035 0.0016915847331649516 0 0.022766536087544746 0.00052478622438105775 0 0.023099068601445547 0.0010787454042113849 0 0.022712737987237022 0.0014673921291072378 0 0.022723716253468484 0.00064072467196321441 0 0.022000408267163908 0.0010078208314359947 0 0.022047958017228867 0.0003223363868607072 0 0.02146358342780098 0.00037559232707871362 0 0.022000408267163908 0.0010078208314359947 0 0.022047958017228867 0.0003223363868607072 0 0.022690146540664452 0.00055005097372600625 0 0.022766536087544746 0.00052478622438105775 0 0.022740888803582528 -0.00015648752574759636 0 0.022047958017228867 0.0003223363868607072 0 0.022690146540664452 0.00055005097372600625 0 0.022760794082130567 -0.00023708005788902176 0 0.022760794082130567 -0.00023708005788902176 0 0.022194576121496265 -0.00025526884353661492 0 0.022255714412056475 -0.00081303636217034834 0 0.022047958017228867 0.0003223363868607072 0 0.022194576121496265 -0.00025526884353661492 0 0.021714379526115032 -0.00029463620584742762 0 0.022194576121496265 -0.00025526884353661492 0 0.021714379526115032 -0.00029463620584742762 0 0.022255714412056475 -0.00081303636217034834 0 0.022047958017228867 0.0003223363868607072 0 0.022760794082130567 -0.00023708005788902176 0 0.022194576121496265 -0.00025526884353661492 0 0.021714379526115032 -0.00029463620584742762 0 0.021008938141813517 -8.9883539954467727e-05 0 0.02127875272494362 -0.00068033564706008315 0 0.021714379526115032 -0.00029463620584742762 0 0.02146358342780098 0.00037559232707871362 0 0.021008938141813517 -8.9883539954467727e-05 0 0.022047958017228867 0.0003223363868607072 0 0.021714379526115032 -0.00029463620584742762 0 0.02146358342780098 0.00037559232707871362 0 0.02146358342780098 0.00037559232707871362 0 0.020802058587792053 0.00053252529783028501 0 0.021008938141813517 -8.9883539954467727e-05 0 0.020302284054523587 3.3602114182196014e-05 0 0.020802058587792053 0.00053252529783028501 0 0.021008938141813517 -8.9883539954467727e-05 0 0.021008938141813517 -8.9883539954467727e-05 0 0.020730644105840263 -0.00086754212398502386 0 0.02127875272494362 -0.00068033564706008315 0 0.020730644105840263 -0.00086754212398502386 0 0.021239545788483163 -0.0011180256857043097 0 0.02127875272494362 -0.00068033564706008315 0 0.020953812460036147 -0.0014960195657419673 0 0.021239545788483163 -0.0011180256857043097 0 0.021513978447937933 -0.0015506908391675386 0 0.020730644105840263 -0.00086754212398502386 0 0.020953812460036147 -0.0014960195657419673 0 0.021239545788483163 -0.0011180256857043097 0 0.021239545788483163 -0.0011180256857043097 0 0.021513978447937933 -0.0015506908391675386 0 0.021685232297329778 -0.0010116799444014114 0 0.021513978447937933 -0.0015506908391675386 0 0.021685232297329778 -0.0010116799444014114 0 0.022032335572248603 -0.0014633217267854294 0 0.021714379526115032 -0.00029463620584742762 0 0.021685232297329778 -0.0010116799444014114 0 0.02127875272494362 -0.00068033564706008315 0 0.021239545788483163 -0.0011180256857043097 0 0.021685232297329778 -0.0010116799444014114 0 0.02127875272494362 -0.00068033564706008315 0 0.021714379526115032 -0.00029463620584742762 0 0.021685232297329778 -0.0010116799444014114 0 0.022255714412056475 -0.00081303636217034834 0 0.022760794082130567 -0.00023708005788902176 0 0.022902422179335222 -0.0010326428623186749 0 0.023175040878415373 -0.00062146581044982506 0 0.022760794082130567 -0.00023708005788902176 0 0.022255714412056475 -0.00081303636217034834 0 0.022902422179335222 -0.0010326428623186749 0 0.022902422179335222 -0.0010326428623186749 0 0.022556444930115764 -0.0014123572770927586 0 0.022996673223294489 -0.0016150223560940009 0 0.022255714412056475 -0.00081303636217034834 0 0.022902422179335222 -0.0010326428623186749 0 0.022556444930115764 -0.0014123572770927586 0 0.021685232297329778 -0.0010116799444014114 0 0.022255714412056475 -0.00081303636217034834 0 0.022032335572248603 -0.0014633217267854294 0 0.022255714412056475 -0.00081303636217034834 0 0.022556444930115764 -0.0014123572770927586 0 0.022032335572248603 -0.0014633217267854294 0 0.022556444930115764 -0.0014123572770927586 0 0.022032335572248603 -0.0014633217267854294 0 0.022336479161232763 -0.0017986282778067965 0 0.022032335572248603 -0.0014633217267854294 0 0.022336479161232763 -0.0017986282778067965 0 0.02193362104912696 -0.0020488649263203183 0 0.022336479161232763 -0.0017986282778067965 0 0.022528604159003148 -0.0022085020409229076 0 0.02193362104912696 -0.0020488649263203183 0 0.022719770126673141 -0.0018374240216034858 0 0.022528604159003148 -0.0022085020409229076 0 0.023171126334616859 -0.0020725063366379627 0 0.022996673223294489 -0.0016150223560940009 0 0.022719770126673141 -0.0018374240216034858 0 0.023171126334616859 -0.0020725063366379627 0 0.022556444930115764 -0.0014123572770927586 0 0.022996673223294489 -0.0016150223560940009 0 0.022719770126673141 -0.0018374240216034858 0 0.022556444930115764 -0.0014123572770927586 0 0.022336479161232763 -0.0017986282778067965 0 0.022719770126673141 -0.0018374240216034858 0 0.022336479161232763 -0.0017986282778067965 0 0.022719770126673141 -0.0018374240216034858 0 0.022528604159003148 -0.0022085020409229076 0 0.021969348996214822 -0.002882524347939988 0 0.028319958435627762 -0.0018728076284014309 0 0.022528604159003148 -0.0022085020409229076 0 0.023171126334616859 -0.0020725063366379627 0 0.022786621628914323 -0.0027887870312012803 0 0.023171126334616859 -0.0020725063366379627 0 0.023238840051578249 -0.0022706077120593577 0 0.023136570402623562 -0.0024472308390954297 0 0.022528604159003148 -0.0022085020409229076 0 0.022184729857963579 -0.0025547475183620269 0 0.022786621628914323 -0.0027887870312012803 0 0.022528604159003148 -0.0022085020409229076 0 0.022184729857963579 -0.0025547475183620269 0 0.02193362104912696 -0.0020488649263203183 0 0.022184729857963579 -0.0025547475183620269 0 0.021594833599430364 -0.0026349547919690408 0 0.02193362104912696 -0.0020488649263203183 0 0.021594833599430364 -0.0026349547919690408 0 0.021317075088867446 -0.002101420860507281 0 0.02193362104912696 -0.0020488649263203183 0 0.021594833599430364 -0.0026349547919690408 0 0.020927159631907687 -0.0024221906180121105 0 0.021317075088867446 -0.002101420860507281 0 0.020927159631907687 -0.0024221906180121105 0 0.021317075088867446 -0.002101420860507281 0 0.020692311572526909 -0.0019576995627049801 0 0.020953812460036147 -0.0014960195657419673 0 0.021317075088867446 -0.002101420860507281 0 0.020692311572526909 -0.0019576995627049801 0 0.020953812460036147 -0.0014960195657419673 0 0.021513978447937933 -0.0015506908391675386 0 0.021317075088867446 -0.002101420860507281 0 0.021513978447937933 -0.0015506908391675386 0 0.021317075088867446 -0.002101420860507281 0 0.02193362104912696 -0.0020488649263203183 0 0.021513978447937933 -0.0015506908391675386 0 0.022032335572248603 -0.0014633217267854294 0 0.02193362104912696 -0.0020488649263203183 0 0.024921205367623767 -0.0012957332147352804 0 0.024928232408045193 -0.0007879588538618205 0 0.024116379781963765 -0.00025481373319253745 0 0.025439562954045841 -0.0010670713425446881 0 0.024921205367623767 -0.0012957332147352804 0 0.024821929837336214 -0.0017767982539906709 0 0.025439562954045841 -0.0010670713425446881 0 0.024921205367623767 -0.0012957332147352804 0 0.024928232408045193 -0.0007879588538618205 0 0.025439562954045841 -0.0010670713425446881 0 0.02577810922409559 -0.00016651693491969794 0 0.024928232408045193 -0.0007879588538618205 0 0.024928232408045193 -0.0007879588538618205 0 0.02463360609286841 -0.00035506878591474089 0 0.024116379781963765 -0.00025481373319253745 0 0.02577810922409559 -0.00016651693491969794 0 0.024928232408045193 -0.0007879588538618205 0 0.02463360609286841 -0.00035506878591474089 0 0.024893812644179541 -7.345263548927706e-05 0 0.024659182816386474 1.9872818102553982e-05 0 0.02577810922409559 -0.00016651693491969794 0 0.024412344294247615 6.3698529737419551e-05 0 0.02463360609286841 -0.00035506878591474089 0 0.024412344294247615 6.3698529737419551e-05 0 0.02463360609286841 -0.00035506878591474089 0 0.024116379781963765 -0.00025481373319253745 0 0.024329589416717857 -0.00076838892539510555 0 0.024126616574091486 -0.0011087434186658439 0 0.02384584058857666 -0.00094146801606298633 0 0.024921205367623767 -0.0012957332147352804 0 0.024116379781963765 -0.00025481373319253745 0 0.024635040327396444 -0.0016860899415077422 0 0.024126616574091486 -0.0011087434186658439 0 0.0243134849985213 -0.0013361789455726392 0 0.024016489568974796 -0.0013868940628542815 0 0.024234672342927015 -0.00053229326929119013 0 0.024609455017160532 -0.0016242198951194736 0 0.024329589416717857 -0.00076838892539510555 0 0.0243134849985213 -0.0013361789455726392 0 0.024635040327396444 -0.0016860899415077422 0 0.024329589416717857 -0.00076838892539510555 0 0.024126616574091486 -0.0011087434186658439 0 0.0243134849985213 -0.0013361789455726392 0 0.0243134849985213 -0.0013361789455726392 0 0.024201101654832965 -0.001650940511079648 0 0.024635040327396444 -0.0016860899415077422 0 0.0243134849985213 -0.0013361789455726392 0 0.024016489568974796 -0.0013868940628542815 0 0.024201101654832965 -0.001650940511079648 0 0.024016489568974796 -0.0013868940628542815 0 0.023657441452883128 -0.0013480898896200465 0 0.023851408774984102 -0.0016990676591536831 0 0.023657441452883128 -0.0013480898896200465 0 0.02384584058857666 -0.00094146801606298633 0 0.023379324350615242 -0.0010713079737143091 0 0.024126616574091486 -0.0011087434186658439 0 0.024016489568974796 -0.0013868940628542815 0 0.02384584058857666 -0.00094146801606298633 0 0.024016489568974796 -0.0013868940628542815 0 0.023657441452883128 -0.0013480898896200465 0 0.02384584058857666 -0.00094146801606298633 0 0.023958753491105381 -0.00048860233493134035 0 0.024329589416717857 -0.00076838892539510555 0 0.02384584058857666 -0.00094146801606298633 0 0.02365685226523169 -0.00045189696501999769 0 0.023958753491105381 -0.00048860233493134035 0 0.02384584058857666 -0.00094146801606298633 0 0.02365685226523169 -0.00045189696501999769 0 0.02384584058857666 -0.00094146801606298633 0 0.023514789936762825 -0.00077286787273984881 0 0.02384584058857666 -0.00094146801606298633 0 0.023514789936762825 -0.00077286787273984881 0 0.023379324350615242 -0.0010713079737143091 0 0.023514789936762825 -0.00077286787273984881 0 0.023175040878415373 -0.00062146581044982506 0 0.023379324350615242 -0.0010713079737143091 0 0.02365685226523169 -0.00045189696501999769 0 0.023514789936762825 -0.00077286787273984881 0 0.023175040878415373 -0.00062146581044982506 0 0.022902422179335222 -0.0010326428623186749 0 0.023175040878415373 -0.00062146581044982506 0 0.023379324350615242 -0.0010713079737143091 0 0.022902422179335222 -0.0010326428623186749 0 0.023379324350615242 -0.0010713079737143091 0 0.023313581071512841 -0.001431067876901422 0 0.022902422179335222 -0.0010326428623186749 0 0.022996673223294489 -0.0016150223560940009 0 0.023313581071512841 -0.001431067876901422 0 0.023657441452883128 -0.0013480898896200465 0 0.023379324350615242 -0.0010713079737143091 0 0.023313581071512841 -0.001431067876901422 0 0.023657441452883128 -0.0013480898896200465 0 0.023313581071512841 -0.001431067876901422 0 0.02354252549103205 -0.001684157350907448 0 0.022996673223294489 -0.0016150223560940009 0 0.0233202121036888 -0.0017624552006400001 0 0.023171126334616859 -0.0020725063366379627 0 0.022996673223294489 -0.0016150223560940009 0 0.023313581071512841 -0.001431067876901422 0 0.0233202121036888 -0.0017624552006400001 0 0.0233202121036888 -0.0017624552006400001 0 0.02354252549103205 -0.001684157350907448 0 0.023557853991149489 -0.0019869414965817565 0 0.023313581071512841 -0.001431067876901422 0 0.0233202121036888 -0.0017624552006400001 0 0.02354252549103205 -0.001684157350907448 0 0.0233202121036888 -0.0017624552006400001 0 0.023557853991149489 -0.0019869414965817565 0 0.023171126334616859 -0.0020725063366379627 0 0.023171126334616859 -0.0020725063366379627 0 0.023238840051578249 -0.0022706077120593577 0 0.023433744833525099 -0.0023403629279490144 0 0.028920091745624644 -0.0012223804932403153 0 0.028319958435627762 -0.0018728076284014309 0 0.023238840051578249 -0.0022706077120593577 0 0.023382135817989411 -0.0022805612835867699 0 0.023136570402623562 -0.0024472308390954297 0 0.023434782485411892 -0.0013756039088193975 0 0.028920091745624644 -0.0012223804932403153 0 0.023557853991149489 -0.0019869414965817565 0 0.023171126334616859 -0.0020725063366379627 0 0.023433744833525099 -0.0023403629279490144 0 0.028920091745624644 -0.0012223804932403153 0 0.027202606075382049 -0.0010945756349927561 0 0.02996714138615738 -0.00043255857358094309 0 0.031165212796709772 0.00014053291178660514 0 0.031655465390423777 -0.00062788284697169901 0 0.023557853991149489 -0.0019869414965817565 0 0.023433744833525099 -0.0023403629279490144 0 0.024079300052243836 -0.0020824640012971568 0 0.028920091745624644 -0.0012223804932403153 0 0.034096002432777148 -0.00030459292953473397 0 0.023557853991149489 -0.0019869414965817565 0 0.024079300052243836 -0.0020824640012971568 0 0.023851408774984102 -0.0016990676591536831 0 0.02354252549103205 -0.001684157350907448 0 0.023557853991149489 -0.0019869414965817565 0 0.023851408774984102 -0.0016990676591536831 0 0.023657441452883128 -0.0013480898896200465 0 0.02354252549103205 -0.001684157350907448 0 0.023851408774984102 -0.0016990676591536831 0 0.024079300052243836 -0.0020824640012971568 0 0.023851408774984102 -0.0016990676591536831 0 0.024201101654832965 -0.001650940511079648 0 0.024016489568974796 -0.0013868940628542815 0 0.023851408774984102 -0.0016990676591536831 0 0.024201101654832965 -0.001650940511079648 0 0.024079300052243836 -0.0020824640012971568 0 0.024821929837336214 -0.0017767982539906709 0 0.024635040327396444 -0.0016860899415077422 0 0.027202606075382049 -0.0010945756349927561 0 0.028651351655072821 -0.00054884605463247148 0 0.024079300052243836 -0.0020824640012971568 0 0.024201101654832965 -0.001650940511079648 0 0.024635040327396444 -0.0016860899415077422 0 0.031165212796709772 0.00014053291178660514 0 0.032479278493974861 -0.00027505755448955984 0 0.032310766502789287 0.00064172485885888731 0 0.031165212796709772 0.00014053291178660514 0 0.031655465390423777 -0.00062788284697169901 0 0.032479278493974861 -0.00027505755448955984 0 0.033234467804748015 -0.00073487543015130017 0 0.031655465390423777 -0.00062788284697169901 0 0.032479278493974861 -0.00027505755448955984 0 0.033066901555149263 0.00017111812684394038 0 0.033076595109255633 -0.00026574330643281714 0 0.032479278493974861 -0.00027505755448955984 0 0.029653885128378028 -2.0227311924218739e-05 0 0.028651351655072821 -0.00054884605463247148 0 0.033066901555149263 0.00017111812684394038 0 0.032479278493974861 -0.00027505755448955984 0 0.032310766502789287 0.00064172485885888731 0 0.024921205367623767 -0.0012957332147352804 0 0.024821929837336214 -0.0017767982539906709 0 0.024635040327396444 -0.0016860899415077422 0 0.034959419332933693 -8.5057658919112817e-05 0 0.034975603196700566 -0.00012551508970453233 0 0.034958638134647009 -0.00017650799055430162 0 0.034975603196700566 -0.00012551508970453233 0 0.034958638134647009 -0.00017650799055430162 0 0.03496845805575758 -0.00017649012252038328 0 0.033873064244910683 -0.00051595253420013299 0 0.034096002432777148 -0.00030459292953473397 0 0.034937476081758907 -0.00024342994140998572 0 0.034958638134647009 -0.00017650799055430162 0 0.034955160722739471 -0.00022065445802996333 0 0.034958606852187414 -0.00016665856745733676 0 0.034955160722739471 -0.00022065445802996333 0 0.03496845805575758 -0.00017649012252038328 0 0.034930065387609219 -0.00030454846717427591 0 0.034958606852187414 -0.00016665856745733676 0 0.034955160722739471 -0.00022065445802996333 0 0.034958638134647009 -0.00017650799055430162 0 0.034955160722739471 -0.00022065445802996333 0 0.03496845805575758 -0.00017649012252038328 0 0.034958606852187414 -0.00016665856745733676 0 0.03496845805575758 -0.00017649012252038328 0 0.034964201500339416 -0.00014637185699804513 0 0.034958606852187414 -0.00016665856745733676 0 0.034964201500339416 -0.00014637185699804513 0 0.034938116147844374 -0.0001487335067704078 0 0.034975603196700566 -0.00012551508970453233 0 0.034964201500339416 -0.00014637185699804513 0 0.03497608264662528 -0.00010533524807654861 0 0.034975603196700566 -0.00012551508970453233 0 0.03496845805575758 -0.00017649012252038328 0 0.034964201500339416 -0.00014637185699804513 0 0.034964201500339416 -0.00014637185699804513 0 0.034953086999851259 -0.00012653551574967782 0 0.03496981873184779 -0.00010729632718887247 0 0.034964201500339416 -0.00014637185699804513 0 0.03496981873184779 -0.00010729632718887247 0 0.03497608264662528 -0.00010533524807654861 0 0.034953086999851259 -0.00012653551574967782 0 0.034938116147844374 -0.0001487335067704078 0 0.034923383413457361 -0.00013962030457647127 0 0.034964201500339416 -0.00014637185699804513 0 0.034953086999851259 -0.00012653551574967782 0 0.034938116147844374 -0.0001487335067704078 0 0.034887547244225346 -0.00014448279144007952 0 0.034958606852187414 -0.00016665856745733676 0 0.034938116147844374 -0.0001487335067704078 0 0.034887547244225346 -0.00014448279144007952 0 0.034938116147844374 -0.0001487335067704078 0 0.034923383413457361 -0.00013962030457647127 0 0.034887547244225346 -0.00014448279144007952 0 0.034923383413457361 -0.00013962030457647127 0 0.0348911947167279 -0.00015511741557232373 0 0.034923383413457361 -0.00013962030457647127 0 0.034950639545661813 -0.00011312181062173151 0 0.034930910784130499 -0.00012544351553318167 0 0.034953086999851259 -0.00012653551574967782 0 0.034923383413457361 -0.00013962030457647127 0 0.034950639545661813 -0.00011312181062173151 0 0.034950639545661813 -0.00011312181062173151 0 0.034962961701093233 -9.4036686524403995e-05 0 0.034948809366842255 -0.00010533552128674041 0 0.034953086999851259 -0.00012653551574967782 0 0.034950639545661813 -0.00011312181062173151 0 0.034970294404796126 -9.1047175525555215e-05 0 0.034950639545661813 -0.00011312181062173151 0 0.034970294404796126 -9.1047175525555215e-05 0 0.034962961701093233 -9.4036686524403995e-05 0 0.034970294404796126 -9.1047175525555215e-05 0 0.034973930203892813 -7.7900875776367709e-05 0 0.034982095182802174 -6.5479887464992486e-05 0 0.034970294404796126 -9.1047175525555215e-05 0 0.034962961701093233 -9.4036686524403995e-05 0 0.034973930203892813 -7.7900875776367709e-05 0 0.034962961701093233 -9.4036686524403995e-05 0 0.034973930203892813 -7.7900875776367709e-05 0 0.03496208809440176 -9.0929225239694148e-05 0 0.03498025858822449 -6.3384728646137704e-05 0 0.034996261647832413 -2.0532785137078147e-05 0 0.034957832316839126 -0.00010449059433157207 0 0.034935858025279459 -2.8093363527021914e-05 0 0.035102890301808 -3.9149749162556949e-05 0 0.034973930203892813 -7.7900875776367709e-05 0 0.03496208809440176 -9.0929225239694148e-05 0 0.034970078178703859 -8.1014058532702537e-05 0 0.034999982892115991 -7.565588486901274e-08 0 0.034996261647832413 -2.0532785137078147e-05 0 0.035001168980097717 9.0442955284854206e-07 0 0.034973930203892813 -7.7900875776367709e-05 0 0.03498025858822449 -6.3384728646137704e-05 0 0.034970078178703859 -8.1014058532702537e-05 0 0.03498025858822449 -6.3384728646137704e-05 0 0.034987437741100864 -5.0128524245362662e-05 0 0.034996261647832413 -2.0532785137078147e-05 0 0.03498025858822449 -6.3384728646137704e-05 0 0.034987437741100864 -5.0128524245362662e-05 0 0.034982095182802174 -6.5479887464992486e-05 0 0.034973930203892813 -7.7900875776367709e-05 0 0.03498025858822449 -6.3384728646137704e-05 0 0.034982095182802174 -6.5479887464992486e-05 0 0.034999982892115991 -7.565588486901274e-08 0 0.034996261647832413 -2.0532785137078147e-05 0 0.034999973952794514 -5.2051354668427786e-08 0 0.034982095182802174 -6.5479887464992486e-05 0 0.034987368142497428 -5.2159601222235889e-05 0 0.034979764680748968 -7.7542245747710386e-05 0 0.034987368142497428 -5.2159601222235889e-05 0 0.034996261647832413 -2.0532785137078147e-05 0 0.034989714051498262 -4.3345718168647489e-05 0 0.034996261647832413 -2.0532785137078147e-05 0 0.034989714051498262 -4.3345718168647489e-05 0 0.034999973952794514 -5.2051354668427786e-08 0 0.034987437741100864 -5.0128524245362662e-05 0 0.034982095182802174 -6.5479887464992486e-05 0 0.034987368142497428 -5.2159601222235889e-05 0 0.034987437741100864 -5.0128524245362662e-05 0 0.034987368142497428 -5.2159601222235889e-05 0 0.034996261647832413 -2.0532785137078147e-05 0 0.034987368142497428 -5.2159601222235889e-05 0 0.034989714051498262 -4.3345718168647489e-05 0 0.034979764680748968 -7.7542245747710386e-05 0 0.034989714051498262 -4.3345718168647489e-05 0 0.034979764680748968 -7.7542245747710386e-05 0 0.03497608264662528 -0.00010533524807654861 0 0.034970294404796126 -9.1047175525555215e-05 0 0.034982095182802174 -6.5479887464992486e-05 0 0.034979764680748968 -7.7542245747710386e-05 0 0.034970294404796126 -9.1047175525555215e-05 0 0.034979764680748968 -7.7542245747710386e-05 0 0.03496981873184779 -0.00010729632718887247 0 0.034953086999851259 -0.00012653551574967782 0 0.034970294404796126 -9.1047175525555215e-05 0 0.03496981873184779 -0.00010729632718887247 0 0.034979764680748968 -7.7542245747710386e-05 0 0.03496981873184779 -0.00010729632718887247 0 0.03497608264662528 -0.00010533524807654861 0 0.034989714051498262 -4.3345718168647489e-05 0 0.03497608264662528 -0.00010533524807654861 0 0.034985719448031694 -5.8122784816419945e-05 0 0.034975603196700566 -0.00012551508970453233 0 0.03497608264662528 -0.00010533524807654861 0 0.034985719448031694 -5.8122784816419945e-05 0 0.034989714051498262 -4.3345718168647489e-05 0 0.034999973952794514 -5.2051354668427786e-08 0 0.034985719448031694 -5.8122784816419945e-05 0 0.034999962693701703 -2.8003395288128785e-08 0 0.034999973952794514 -5.2051354668427786e-08 0 0.034985719448031694 -5.8122784816419945e-05 0 0.034959419332933693 -8.5057658919112817e-05 0 0.034999962693701703 -2.8003395288128785e-08 0 0.034985719448031694 -5.8122784816419945e-05 0 0.034959419332933693 -8.5057658919112817e-05 0 0.034975603196700566 -0.00012551508970453233 0 0.034985719448031694 -5.8122784816419945e-05 0 0.033102740523093165 -0.0013273029388820982 0 0.033815723463938067 -0.0018435412825165477 0 0.032489489680412452 -0.0025246589307628066 0 0.027395913389661616 -0.0027176152501663612 0 0.027048755642290305 -0.0029525200122140511 0 0.033102740523093165 -0.0013273029388820982 0 0.033815723463938067 -0.0018435412825165477 0 0.03393846180686385 -0.00087351743608767723 0 0.021456372196270636 -0.0033785028417734173 0 0.020833791921728701 -0.0036779477105082646 0 0.020851510232250951 -0.0032901571912688286 0 0.027395913389661616 -0.0027176152501663612 0 0.029363964611750906 -0.0018384922541202471 0 0.033815723463938067 -0.0018435412825165477 0 0.03393846180686385 -0.00087351743608767723 0 0.034950003377023364 -0.0012328022700427753 0 0.021456372196270636 -0.0033785028417734173 0 0.021058120753940472 -0.0029177157676186006 0 0.020851510232250951 -0.0032901571912688286 0 0.021594833599430364 -0.0026349547919690408 0 0.020927159631907687 -0.0024221906180121105 0 0.021058120753940472 -0.0029177157676186006 0 0.021594833599430364 -0.0026349547919690408 0 0.021456372196270636 -0.0033785028417734173 0 0.021058120753940472 -0.0029177157676186006 0 0.022184729857963579 -0.0025547475183620269 0 0.021594833599430364 -0.0026349547919690408 0 0.022100617791444004 -0.0030869900573419705 0 0.021594833599430364 -0.0026349547919690408 0 0.021456372196270636 -0.0033785028417734173 0 0.022100617791444004 -0.0030869900573419705 0 0.022184729857963579 -0.0025547475183620269 0 0.022100617791444004 -0.0030869900573419705 0 0.022786621628914323 -0.0027887870312012803 0 0.032489489680412452 -0.0025246589307628066 0 0.031084615033371163 -0.003172159780769364 0 0.03212930055422978 -0.0013449432568755715 0 0.027048755642290305 -0.0029525200122140511 0 0.028319958435627762 -0.0018728076284014309 0 0.034923383413457361 -0.00013962030457647127 0 0.0348911947167279 -0.00015511741557232373 0 0.034930910784130499 -0.00012544351553318167 0 0.034930910784130499 -0.00012544351553318167 0 0.034946620670689356 -0.00011262100982508075 0 0.034948809366842255 -0.00010533552128674041 0 0.028319958435627762 -0.0018728076284014309 0 0.034231317894868191 -0.00050359029427159618 0 0.0348911947167279 -0.00015511741557232373 0 0.034930910784130499 -0.00012544351553318167 0 0.034946620670689356 -0.00011262100982508075 0 0.034950639545661813 -0.00011312181062173151 0 0.034930910784130499 -0.00012544351553318167 0 0.034948809366842255 -0.00010533552128674041 0 0.033102740523093165 -0.0013273029388820982 0 0.032489489680412452 -0.0025246589307628066 0 0.03212930055422978 -0.0013449432568755715 0 0.034946620670689356 -0.00011262100982508075 0 0.034948111071410201 -0.00010215527692561237 0 0.034942222680753462 -0.00010214557200586396 0 0.034946620670689356 -0.00011262100982508075 0 0.034953775454660246 -9.8545887499910056e-05 0 0.034948111071410201 -0.00010215527692561237 0 0.034231317894868191 -0.00050359029427159618 0 0.034433131425765963 -0.00014068571467621668 0 0.034946620670689356 -0.00011262100982508075 0 0.034948809366842255 -0.00010533552128674041 0 0.034953775454660246 -9.8545887499910056e-05 0 0.034962961701093233 -9.4036686524403995e-05 0 0.034948809366842255 -0.00010533552128674041 0 0.03496208809440176 -9.0929225239694148e-05 0 0.034953775454660246 -9.8545887499910056e-05 0 0.03496208809440176 -9.0929225239694148e-05 0 0.034960714590600163 -9.2432408296217947e-05 0 0.034948809366842255 -0.00010533552128674041 0 0.034953775454660246 -9.8545887499910056e-05 0 0.03496208809440176 -9.0929225239694148e-05 0 0.034999982892115991 -7.565588486901274e-08 0 0.035000014477795965 2.4310650970774054e-08 0 0.035001168980097717 9.0442955284854206e-07 0 0.03498025858822449 -6.3384728646137704e-05 0 0.034970078178703859 -8.1014058532702537e-05 0 0.034957832316839126 -0.00010449059433157207 0 0.034970078178703859 -8.1014058532702537e-05 0 0.034960714590600163 -9.2432408296217947e-05 0 0.034957832316839126 -0.00010449059433157207 0 0.03496208809440176 -9.0929225239694148e-05 0 0.034970078178703859 -8.1014058532702537e-05 0 0.034960714590600163 -9.2432408296217947e-05 0 0.034954707735969266 -9.8542450846512947e-05 0 0.034957832316839126 -0.00010449059433157207 0 0.034948111071410201 -0.00010215527692561237 0 0.034960714590600163 -9.2432408296217947e-05 0 0.034954707735969266 -9.8542450846512947e-05 0 0.034957832316839126 -0.00010449059433157207 0 0.034953775454660246 -9.8545887499910056e-05 0 0.034960714590600163 -9.2432408296217947e-05 0 0.034954707735969266 -9.8542450846512947e-05 0 0.035102890301808 -3.9149749162556949e-05 0 0.034433131425765963 -0.00014068571467621668 0 0.035000014477795965 2.4310650970774054e-08 0 0.035001168980097717 9.0442955284854206e-07 0 0.034998820896893559 -5.3099806771270025e-07 0 0.034957832316839126 -0.00010449059433157207 0 0.034948111071410201 -0.00010215527692561237 0 0.034942222680753462 -0.00010214557200586396 0 0.035000014477795965 2.4310650970774054e-08 0 0.034998820896893559 -5.3099806771270025e-07 0 0.034999985056391215 -1.3792835907309218e-08 0 0.034953775454660246 -9.8545887499910056e-05 0 0.034954707735969266 -9.8542450846512947e-05 0 0.034948111071410201 -0.00010215527692561237 0 0.035011086671544629 2.2972464021623466e-05 0 0.035000099684515389 -2.2496261802586219e-08 0 0.034902227509182794 4.0109951456312918e-05 0 0.033138133896742354 0.00035453974888844205 0 0.033270534305772065 -0.00069610075516949514 0 0.034000900896813159 -0.00028752601774953689 0 0.034433131425765963 -0.00014068571467621668 0 0.034999417487842563 1.5544140487943482e-07 0 0.033102740523093165 -0.0013273029388820982 0 0.03212930055422978 -0.0013449432568755715 0 0.033270534305772065 -0.00069610075516949514 0 0.03212930055422978 -0.0013449432568755715 0 0.033138133896742354 0.00035453974888844205 0 0.033270534305772065 -0.00069610075516949514 0 0.033270534305772065 -0.00069610075516949514 0 0.03393846180686385 -0.00087351743608767723 0 0.034000900896813159 -0.00028752601774953689 0 0.033102740523093165 -0.0013273029388820982 0 0.033270534305772065 -0.00069610075516949514 0 0.03393846180686385 -0.00087351743608767723 0 0.03393846180686385 -0.00087351743608767723 0 0.034598215968397787 -0.0004554912712664142 0 0.034866202063781958 -0.00095954249373421982 0 0.035822551041305148 -0.0012584344346398652 0 0.029363964611750906 -0.0018384922541202471 0 0.03393846180686385 -0.00087351743608767723 0 0.034598215968397787 -0.0004554912712664142 0 0.034000900896813159 -0.00028752601774953689 0 0.034433131425765963 -0.00014068571467621668 0 0.034688919195741075 0.000144064139736353 0 0.035000099684515389 -2.2496261802586219e-08 0 0.034902227509182794 4.0109951456312918e-05 0 0.034999595161116177 1.0257210219564513e-07 0 0.033138133896742354 0.00035453974888844205 0 0.034000900896813159 -0.00028752601774953689 0 0.034902227509182794 4.0109951456312918e-05 0 0.034598215968397787 -0.0004554912712664142 0 0.034000900896813159 -0.00028752601774953689 0 0.034902227509182794 4.0109951456312918e-05 0 0.034902227509182794 4.0109951456312918e-05 0 0.034999595161116177 1.0257210219564513e-07 0 0.035027795746591303 -7.2652929210651114e-05 0 0.034902227509182794 4.0109951456312918e-05 0 0.03487030742649587 -0.00018514075232744774 0 0.035027795746591303 -7.2652929210651114e-05 0 0.034598215968397787 -0.0004554912712664142 0 0.034902227509182794 4.0109951456312918e-05 0 0.03487030742649587 -0.00018514075232744774 0 0.03487030742649587 -0.00018514075232744774 0 0.035027795746591303 -7.2652929210651114e-05 0 0.035046429958960144 -0.00022377444918969782 0 0.034999595161116177 1.0257210219564513e-07 0 0.035027795746591303 -7.2652929210651114e-05 0 0.035000175684758918 -1.5486117215024135e-07 0 0.035013835793529784 -5.8110146831591317e-05 0 0.035019718133054857 -0.00010922050670260114 0 0.034999690859891817 -4.2059066197383815e-05 0 0.035027795746591303 -7.2652929210651114e-05 0 0.035013835793529784 -5.8110146831591317e-05 0 0.035000175684758918 -1.5486117215024135e-07 0 0.035027795746591303 -7.2652929210651114e-05 0 0.035019718133054857 -0.00010922050670260114 0 0.035046429958960144 -0.00022377444918969782 0 0.035027795746591303 -7.2652929210651114e-05 0 0.035013835793529784 -5.8110146831591317e-05 0 0.035019718133054857 -0.00010922050670260114 0 0.028897337727915751 -0.00036632727009630926 0 0.028947219590647756 -0.00037709731882961181 0 0.028899150851181939 -0.00039462562137466332 0 0.028897337727915751 -0.00036632727009630926 0 0.028977485589185087 -0.00032662593586388615 0 0.028947219590647756 -0.00037709731882961181 0 0.035019718133054857 -0.00010922050670260114 0 0.035016652455192851 -0.00015067539780465214 0 0.034999690859891817 -4.2059066197383815e-05 0 0.031810084155790737 -0.00070315409637227615 0 0.031929564045210725 -0.00013112997937013134 0 0.035019718133054857 -0.00010922050670260114 0 0.035016652455192851 -0.00015067539780465214 0 0.035046429958960144 -0.00022377444918969782 0 0.031810084155790737 -0.00070315409637227615 0 0.025002035292029726 -0.0013641426133794426 0 0.0284064078283712 -0.0022575653527353414 0 0.029804037138964252 -0.0015911445056884814 0 0.027679520519803418 -0.00094622387524050935 0 0.035309455797769652 -0.00068742650539039705 0 0.034866202063781958 -0.00095954249373421982 0 0.035046429958960144 -0.00022377444918969782 0 0.031810084155790737 -0.00070315409637227615 0 0.029363964611750906 -0.0018384922541202471 0 0.034598215968397787 -0.0004554912712664142 0 0.03487030742649587 -0.00018514075232744774 0 0.035046429958960144 -0.00022377444918969782 0 0.034598215968397787 -0.0004554912712664142 0 0.034866202063781958 -0.00095954249373421982 0 0.035046429958960144 -0.00022377444918969782 0 0.031810084155790737 -0.00070315409637227615 0 0.03414661553080061 -0.00095589598972203827 0 0.031929564045210725 -0.00013112997937013134 0 0.032561348977874563 -0.00020480810835403121 0 0.035000175684758918 -1.5486117215024135e-07 0 0.034999904153752856 5.3263127954241791e-08 0 0.034999450273664717 -2.2945821894238935e-06 0 0.028977485589185087 -0.00032662593586388615 0 0.029042536471408059 -0.0003694986181475188 0 0.02907800979828936 -0.00028250145675913057 0 0.034999690859891817 -4.2059066197383815e-05 0 0.035000175684758918 -1.5486117215024135e-07 0 0.034999450273664717 -2.2945821894238935e-06 0 0.035013835793529784 -5.8110146831591317e-05 0 0.034999690859891817 -4.2059066197383815e-05 0 0.035000175684758918 -1.5486117215024135e-07 0 0.028977485589185087 -0.00032662593586388615 0 0.028947219590647756 -0.00037709731882961181 0 0.028997077234824208 -0.00040744302529229637 0 0.028977485589185087 -0.00032662593586388615 0 0.028997077234824208 -0.00040744302529229637 0 0.029042536471408059 -0.0003694986181475188 0 0.027121053671513417 -0.0011588141538244714 0 0.025033306453701623 -0.0015367550490081436 0 0.028997077234824208 -0.00040744302529229637 0 0.02895754826027442 -0.00041716465162488321 0 0.02899647678828797 -0.0004450064343681046 0 0.02413582935656421 -0.0018430347938879722 0 0.023997710989257071 -0.0020782573510308077 0 0.023851872780954752 -0.0017559597739043328 0 0.028947219590647756 -0.00037709731882961181 0 0.02895754826027442 -0.00041716465162488321 0 0.028899150851181939 -0.00039462562137466332 0 0.027121053671513417 -0.0011588141538244714 0 0.025002035292029726 -0.0013641426133794426 0 0.028947219590647756 -0.00037709731882961181 0 0.028997077234824208 -0.00040744302529229637 0 0.02895754826027442 -0.00041716465162488321 0 0.02413582935656421 -0.0018430347938879722 0 0.023997710989257071 -0.0020782573510308077 0 0.024243109158874208 -0.0019954838260242622 0 0.019769293762271808 -0.0026734017036896839 0 0.019201464063747415 -0.0028662387272827047 0 0.019368600278588416 -0.0025393672855797541 0 0.02099832489594779 -0.0027662884137795805 0 0.021696000570759492 -0.0019361397362741017 0 0.02099832489594779 -0.0027662884137795805 0 0.02047289332969458 -0.0028685966433794315 0 0.02413582935656421 -0.0018430347938879722 0 0.024243109158874208 -0.0019954838260242622 0 0.024436519056219737 -0.0019234105054082881 0 0.019201464063747415 -0.0028662387272827047 0 0.018903195554866029 -0.0024082853612390105 0 0.019368600278588416 -0.0025393672855797541 0 0.021934314984588168 -0.0018515930506448821 0 0.021806273317497977 -0.0016570595343862705 0 0.02178769547620607 -0.0018032043563807024 0 0.021696000570759492 -0.0019361397362741017 0 0.020348102321193526 -0.0020170257258669134 0 0.021934314984588168 -0.0018515930506448821 0 0.021760630438069275 -0.0019107961766826201 0 0.02178769547620607 -0.0018032043563807024 0 0.021696000570759492 -0.0019361397362741017 0 0.025033306453701623 -0.0015367550490081436 0 0.020851510232250951 -0.0032901571912688286 0 0.020287834049753588 -0.0035266656932950715 0 0.020608500396863585 -0.0029998959112723378 0 0.029363964611750906 -0.0018384922541202471 0 0.025002035292029726 -0.0013641426133794426 0 0.020833791921728701 -0.0036779477105082646 0 0.020851510232250951 -0.0032901571912688286 0 0.020287834049753588 -0.0035266656932950715 0 0.019772566975564027 -0.0027234656325006547 0 0.020287834049753588 -0.0035266656932950715 0 0.020248185350612669 -0.0027794898896941183 0 0.020287834049753588 -0.0035266656932950715 0 0.020248185350612669 -0.0027794898896941183 0 0.020608500396863585 -0.0029998959112723378 0 0.02099832489594779 -0.0027662884137795805 0 0.025002035292029726 -0.0013641426133794426 0 0.01990539305118769 -0.0026773718886654416 0 0.020248185350612669 -0.0027794898896941183 0 0.020116897028614231 -0.0025422029537555285 0 0.019772566975564027 -0.0027234656325006547 0 0.01990539305118769 -0.0026773718886654416 0 0.020248185350612669 -0.0027794898896941183 0 0.020248185350612669 -0.0027794898896941183 0 0.02065639860548998 -0.002664896750622316 0 0.020608500396863585 -0.0029998959112723378 0 0.021058120753940472 -0.0029177157676186006 0 0.020851510232250951 -0.0032901571912688286 0 0.020608500396863585 -0.0029998959112723378 0 0.020927159631907687 -0.0024221906180121105 0 0.021058120753940472 -0.0029177157676186006 0 0.02065639860548998 -0.002664896750622316 0 0.021058120753940472 -0.0029177157676186006 0 0.02065639860548998 -0.002664896750622316 0 0.020608500396863585 -0.0029998959112723378 0 0.020927159631907687 -0.0024221906180121105 0 0.020383635869161965 -0.0023783779343805743 0 0.020692311572526909 -0.0019576995627049801 0 0.020927159631907687 -0.0024221906180121105 0 0.02065639860548998 -0.002664896750622316 0 0.020383635869161965 -0.0023783779343805743 0 0.020248185350612669 -0.0027794898896941183 0 0.02065639860548998 -0.002664896750622316 0 0.020383635869161965 -0.0023783779343805743 0 0.020383635869161965 -0.0023783779343805743 0 0.020692311572526909 -0.0019576995627049801 0 0.020149422965257513 -0.0019218002760708133 0 0.020692311572526909 -0.0019576995627049801 0 0.020149422965257513 -0.0019218002760708133 0 0.020310060426270777 -0.0013697873596496542 0 0.020149422965257513 -0.0019218002760708133 0 0.019720858659206569 -0.0019388269351316076 0 0.019743455679609959 -0.0015526175284768793 0 0.020149422965257513 -0.0019218002760708133 0 0.019928137131813049 -0.0023348925069931041 0 0.019720858659206569 -0.0019388269351316076 0 0.020383635869161965 -0.0023783779343805743 0 0.020149422965257513 -0.0019218002760708133 0 0.019928137131813049 -0.0023348925069931041 0 0.020383635869161965 -0.0023783779343805743 0 0.019928137131813049 -0.0023348925069931041 0 0.020116897028614231 -0.0025422029537555285 0 0.020248185350612669 -0.0027794898896941183 0 0.020383635869161965 -0.0023783779343805743 0 0.020116897028614231 -0.0025422029537555285 0 0.01990539305118769 -0.0026773718886654416 0 0.019928137131813049 -0.0023348925069931041 0 0.020116897028614231 -0.0025422029537555285 0 0.019769293762271808 -0.0026734017036896839 0 0.019479048117099832 -0.0021785851952195279 0 0.019368600278588416 -0.0025393672855797541 0 0.019763897119096964 -0.0027242084218879027 0 0.01990539305118769 -0.0026773718886654416 0 0.019928137131813049 -0.0023348925069931041 0 0.019763897119096964 -0.0027242084218879027 0 0.019928137131813049 -0.0023348925069931041 0 0.019454421936999842 -0.0022041936067244633 0 0.02099832489594779 -0.0027662884137795805 0 0.019395054220613207 -0.0020855028717678072 0 0.019928137131813049 -0.0023348925069931041 0 0.019454421936999842 -0.0022041936067244633 0 0.019720858659206569 -0.0019388269351316076 0 0.019479048117099832 -0.0021785851952195279 0 0.018903195554866029 -0.0024082853612390105 0 0.019004922817228289 -0.0020021106785326382 0 0.019479048117099832 -0.0021785851952195279 0 0.018903195554866029 -0.0024082853612390105 0 0.019368600278588416 -0.0025393672855797541 0 0.019479048117099832 -0.0021785851952195279 0 0.019004922817228289 -0.0020021106785326382 0 0.019177636339801841 -0.0017012224257950425 0 0.019395054220613207 -0.0020855028717678072 0 0.019234090003314806 -0.0017913852415592324 0 0.019004922817228289 -0.0020021106785326382 0 0.019177636339801841 -0.0017012224257950425 0 0.018912933989442004 -0.0015365392961844944 0 0.019454421936999842 -0.0022041936067244633 0 0.019177636339801841 -0.0017012224257950425 0 0.019720858659206569 -0.0019388269351316076 0 0.019177636339801841 -0.0017012224257950425 0 0.019720858659206569 -0.0019388269351316076 0 0.019743455679609959 -0.0015526175284768793 0 0.019177636339801841 -0.0017012224257950425 0 0.019743455679609959 -0.0015526175284768793 0 0.019335964751591949 -0.0013178826254783692 0 0.019743455679609959 -0.0015526175284768793 0 0.019335964751591949 -0.0013178826254783692 0 0.019780670203681138 -0.0010870334315617931 0 0.019177636339801841 -0.0017012224257950425 0 0.019335964751591949 -0.0013178826254783692 0 0.018912933989442004 -0.0015365392961844944 0 0.019335964751591949 -0.0013178826254783692 0 0.018912933989442004 -0.0015365392961844944 0 0.019008233374829341 -0.0011275803436702251 0 0.018912933989442004 -0.0015365392961844944 0 0.019008233374829341 -0.0011275803436702251 0 0.018673680191422192 -0.0011690805069866739 0 0.019335964751591949 -0.0013178826254783692 0 0.019008233374829341 -0.0011275803436702251 0 0.019270060894699036 -0.00084094898936587612 0 0.019008233374829341 -0.0011275803436702251 0 0.018832711879936726 -0.00085857759386592336 0 0.018673680191422192 -0.0011690805069866739 0 0.019008233374829341 -0.0011275803436702251 0 0.019270060894699036 -0.00084094898936587612 0 0.018832711879936726 -0.00085857759386592336 0 0.018947649712066878 -0.00059186983131897012 0 0.019270060894699036 -0.00084094898936587612 0 0.018832711879936726 -0.00085857759386592336 0 0.019335964751591949 -0.0013178826254783692 0 0.019270060894699036 -0.00084094898936587612 0 0.019780670203681138 -0.0010870334315617931 0 0.019793271914463312 -0.00062120736143348376 0 0.019270060894699036 -0.00084094898936587612 0 0.019780670203681138 -0.0010870334315617931 0 0.019793271914463312 -0.00062120736143348376 0 0.020206872914072929 -0.0008519778649158506 0 0.019780670203681138 -0.0010870334315617931 0 0.020206872914072929 -0.0008519778649158506 0 0.019780670203681138 -0.0010870334315617931 0 0.020310060426270777 -0.0013697873596496542 0 0.020730644105840263 -0.00086754212398502386 0 0.020206872914072929 -0.0008519778649158506 0 0.020310060426270777 -0.0013697873596496542 0 0.020953812460036147 -0.0014960195657419673 0 0.020692311572526909 -0.0019576995627049801 0 0.020310060426270777 -0.0013697873596496542 0 0.020730644105840263 -0.00086754212398502386 0 0.020953812460036147 -0.0014960195657419673 0 0.020310060426270777 -0.0013697873596496542 0 0.020149422965257513 -0.0019218002760708133 0 0.019743455679609959 -0.0015526175284768793 0 0.020310060426270777 -0.0013697873596496542 0 0.019743455679609959 -0.0015526175284768793 0 0.019780670203681138 -0.0010870334315617931 0 0.020310060426270777 -0.0013697873596496542 0 0.020116613161080845 -0.0014218608578269957 0 0.020323894175927434 -0.0015590148242376604 0 0.020174209966537699 -0.0015696057568913922 0 0.020116613161080845 -0.0014218608578269957 0 0.020012325488672968 -0.0014897307501999734 0 0.020174209966537699 -0.0015696057568913922 0 0.020116613161080845 -0.0014218608578269957 0 0.020012325488672968 -0.0014897307501999734 0 0.019870576947190331 -0.0013363260237390176 0 0.020025276977841795 -0.0012065918594013586 0 0.020116613161080845 -0.0014218608578269957 0 0.019870576947190331 -0.0013363260237390176 0 0.020025276977841795 -0.0012065918594013586 0 0.020116613161080845 -0.0014218608578269957 0 0.020305629341042134 -0.0013864222665003012 0 0.018268733239193358 -0.00060251749049170227 0 0.017865978577065868 -0.00040239915161355174 0 0.018158305590032051 -0.001183436592807107 0 0.018268733239193358 -0.00060251749049170227 0 0.018533706443865653 -0.00085911711773160968 0 0.018158305590032051 -0.001183436592807107 0 0.018978407833077773 -0.00082276764996301035 0 0.019190119149513525 -0.0012931003140052588 0 0.018533706443865653 -0.00085911711773160968 0 0.018673680191422192 -0.0011690805069866739 0 0.018158305590032051 -0.001183436592807107 0 0.018579525356786374 -0.00058206003173578676 0 0.018832711879936726 -0.00085857759386592336 0 0.018533706443865653 -0.00085911711773160968 0 0.018832711879936726 -0.00085857759386592336 0 0.018533706443865653 -0.00085911711773160968 0 0.018673680191422192 -0.0011690805069866739 0 0.018575327634885348 -0.0014886493824937137 0 0.018158305590032051 -0.001183436592807107 0 0.018612852671264841 -0.0019508520944294498 0 0.018673680191422192 -0.0011690805069866739 0 0.018575327634885348 -0.0014886493824937137 0 0.018158305590032051 -0.001183436592807107 0 0.018912933989442004 -0.0015365392961844944 0 0.018673680191422192 -0.0011690805069866739 0 0.018575327634885348 -0.0014886493824937137 0 0.019190119149513525 -0.0012931003140052588 0 0.019881171776960797 -0.0017074646270783238 0 0.020116613161080845 -0.0014218608578269957 0 0.020305629341042134 -0.0013864222665003012 0 0.020323894175927434 -0.0015590148242376604 0 0.020323894175927434 -0.0015590148242376604 0 0.020547701892787901 -0.001605837801797875 0 0.020435417673686541 -0.00166962825181408 0 0.020305629341042134 -0.0013864222665003012 0 0.020323894175927434 -0.0015590148242376604 0 0.020547701892787901 -0.001605837801797875 0 0.020323894175927434 -0.0015590148242376604 0 0.020435417673686541 -0.00166962825181408 0 0.020287728916884656 -0.0016983292241533727 0 0.019004922817228289 -0.0020021106785326382 0 0.018912933989442004 -0.0015365392961844944 0 0.018616763665243809 -0.0019550810962157849 0 0.018912933989442004 -0.0015365392961844944 0 0.018575327634885348 -0.0014886493824937137 0 0.018616763665243809 -0.0019550810962157849 0 0.018692954498875675 -0.0015894443071320956 0 0.019881171776960797 -0.0017074646270783238 0 0.021806273317497977 -0.0016570595343862705 0 0.021656657563735467 -0.0014511035251638762 0 0.021698753415697099 -0.0016868711455213094 0 0.020547701892787901 -0.001605837801797875 0 0.020604417049619884 -0.0017718309334701806 0 0.020435417673686541 -0.00166962825181408 0 0.019881171776960797 -0.0017074646270783238 0 0.021109299175713296 -0.0017498740796955076 0 0.018903195554866029 -0.0024082853612390105 0 0.019004922817228289 -0.0020021106785326382 0 0.018616763665243809 -0.0019550810962157849 0 0.020348102321193526 -0.0020170257258669134 0 0.019881171776960797 -0.0017074646270783238 0 0.021806273317497977 -0.0016570595343862705 0 0.021698753415697099 -0.0016868711455213094 0 0.02178769547620607 -0.0018032043563807024 0 0.020435417673686541 -0.00166962825181408 0 0.020464278081562096 -0.0017884855866332769 0 0.020287728916884656 -0.0016983292241533727 0 0.020464278081562096 -0.0017884855866332769 0 0.020287728916884656 -0.0016983292241533727 0 0.020353374134231692 -0.0018668134140173301 0 0.020604417049619884 -0.0017718309334701806 0 0.020435417673686541 -0.00166962825181408 0 0.020464278081562096 -0.0017884855866332769 0 0.020326366393903617 -0.0017708013822486559 0 0.020413301385469759 -0.0016581924850725175 0 0.020287728916884656 -0.0016983292241533727 0 0.020200953207076409 -0.0017441257040046239 0 0.020392769946076268 -0.001825546526103133 0 0.020287728916884656 -0.0016983292241533727 0 0.020099712787709105 -0.0016524133716228687 0 0.020200953207076409 -0.0017441257040046239 0 0.020323894175927434 -0.0015590148242376604 0 0.020287728916884656 -0.0016983292241533727 0 0.020174209966537699 -0.0015696057568913922 0 0.020287728916884656 -0.0016983292241533727 0 0.020174209966537699 -0.0015696057568913922 0 0.020099712787709105 -0.0016524133716228687 0 0.020012325488672968 -0.0014897307501999734 0 0.020174209966537699 -0.0015696057568913922 0 0.020099712787709105 -0.0016524133716228687 0 0.020012325488672968 -0.0014897307501999734 0 0.020099712787709105 -0.0016524133716228687 0 0.019936403281068563 -0.0015843654488167146 0 0.020099712787709105 -0.0016524133716228687 0 0.020120841489887343 -0.001766749130857145 0 0.019999489956441015 -0.0017337751464506384 0 0.020099712787709105 -0.0016524133716228687 0 0.020200953207076409 -0.0017441257040046239 0 0.020120841489887343 -0.001766749130857145 0 0.020120841489887343 -0.001766749130857145 0 0.020212429798310293 -0.0018564809351532723 0 0.020090379608082905 -0.0018534823047902805 0 0.020212429798310293 -0.0018564809351532723 0 0.020184766314486829 -0.0019292404186577147 0 0.020090379608082905 -0.0018534823047902805 0 0.020212429798310293 -0.0018564809351532723 0 0.020317387642978642 -0.0019269052152387793 0 0.020184766314486829 -0.0019292404186577147 0 0.020200953207076409 -0.0017441257040046239 0 0.020120841489887343 -0.001766749130857145 0 0.020212429798310293 -0.0018564809351532723 0 0.020200953207076409 -0.0017441257040046239 0 0.020212429798310293 -0.0018564809351532723 0 0.020392769946076268 -0.001825546526103133 0 0.020392769946076268 -0.001825546526103133 0 0.020317387642978642 -0.0019269052152387793 0 0.020479292393613808 -0.0019652171348809836 0 0.020212429798310293 -0.0018564809351532723 0 0.020392769946076268 -0.001825546526103133 0 0.020317387642978642 -0.0019269052152387793 0 0.033597620537457268 -0.00082622621877828043 0 0.031759386433733397 -0.0014852706230093504 0 0.032500448293737869 -0.00021297542303843039 0 0.020317387642978642 -0.0019269052152387793 0 0.020260589571676084 -0.0020521614647468749 0 0.020479292393613808 -0.0019652171348809836 0 0.029736222800771525 -0.00078509112229091353 0 0.025092514993678379 -0.0019389231914091242 0 0.020260589571676084 -0.0020521614647468749 0 0.020184766314486829 -0.0019292404186577147 0 0.02003791207257162 -0.0019596660786978166 0 0.020317387642978642 -0.0019269052152387793 0 0.020260589571676084 -0.0020521614647468749 0 0.020184766314486829 -0.0019292404186577147 0 0.020604417049619884 -0.0017718309334701806 0 0.02066223656298186 -0.0019499166334515246 0 0.020565669359167781 -0.0019156645040330795 0 0.021109299175713296 -0.0017498740796955076 0 0.0242716413547335 -0.0015387761126731739 0 0.021698753415697099 -0.0016868711455213094 0 0.021741795226771554 -0.0019180059245660819 0 0.02178769547620607 -0.0018032043563807024 0 0.021741795226771554 -0.0019180059245660819 0 0.021760630438069275 -0.0019107961766826201 0 0.02178769547620607 -0.0018032043563807024 0 0.0242716413547335 -0.0015387761126731739 0 0.025033306453701623 -0.0015367550490081436 0 0.020604417049619884 -0.0017718309334701806 0 0.020464278081562096 -0.0017884855866332769 0 0.020565669359167781 -0.0019156645040330795 0 0.0242716413547335 -0.0015387761126731739 0 0.02073627225779575 -0.001135566500819686 0 0.020413301385469759 -0.0016581924850725175 0 0.025092514993678379 -0.0019389231914091242 0 0.020464278081562096 -0.0017884855866332769 0 0.020353374134231692 -0.0018668134140173301 0 0.020565669359167781 -0.0019156645040330795 0 0.020688328061121825 -0.0019616466248845721 0 0.020565669359167781 -0.0019156645040330795 0 0.020425570344112437 -0.0020491696050443597 0 0.020353374134231692 -0.0018668134140173301 0 0.020565669359167781 -0.0019156645040330795 0 0.020425570344112437 -0.0020491696050443597 0 0.028153642355666926 -0.0013924928353106732 0 0.028593982918369714 -0.0012453157675825861 0 0.028366918978036827 -0.0011078684342297393 0 0.025092514993678379 -0.0019389231914091242 0 0.030064193426552654 -0.0004967522113798297 0 0.028593982918369714 -0.0012453157675825861 0 0.028366918978036827 -0.0011078684342297393 0 0.028539559929889095 -0.00087269463027197115 0 0.0242716413547335 -0.0015387761126731739 0 0.025092514993678379 -0.0019389231914091242 0 0.028997077234824208 -0.00040744302529229637 0 0.028999534844401206 -0.00044471379233872573 0 0.029042536471408059 -0.0003694986181475188 0 0.028153642355666926 -0.0013924928353106732 0 0.028366918978036827 -0.0011078684342297393 0 0.028171594234670867 -0.00093365112762543851 0 0.0242716413547335 -0.0015387761126731739 0 0.028637131582614092 -0.00056707229295868895 0 0.028997077234824208 -0.00040744302529229637 0 0.028999534844401206 -0.00044471379233872573 0 0.02899647678828797 -0.0004450064343681046 0 0.028366918978036827 -0.0011078684342297393 0 0.028171594234670867 -0.00093365112762543851 0 0.028539559929889095 -0.00087269463027197115 0 0.028171594234670867 -0.00093365112762543851 0 0.028539559929889095 -0.00087269463027197115 0 0.028305113840889289 -0.00069535526347798795 0 0.031759386433733397 -0.0014852706230093504 0 0.031443563000894556 -0.00015918063140133484 0 0.032500448293737869 -0.00021297542303843039 0 0.031443563000894556 -0.00015918063140133484 0 0.031989331556322574 0.00039010410583763581 0 0.032500448293737869 -0.00021297542303843039 0 0.032891555216020746 0.00047233066892420642 0 0.03400262106847534 0.00036075950117327068 0 0.031989331556322574 0.00039010410583763581 0 0.031091429229602958 0.0012470944988444779 0 0.032929046393681508 0.00069932080314045824 0 0.034999997124301505 3.3903689589808656e-08 0 0.03499930595331114 2.5115026804197328e-06 0 0.034999988738545332 -3.827347663062591e-08 0 0.031443563000894556 -0.00015918063140133484 0 0.031989331556322574 0.00039010410583763581 0 0.031091429229602958 0.0012470944988444779 0 0.030064193426552654 -0.0004967522113798297 0 0.032891555216020746 0.00047233066892420642 0 0.028539559929889095 -0.00087269463027197115 0 0.028489266397442602 -0.00051279831726687105 0 0.028305113840889289 -0.00069535526347798795 0 0.034994438528126316 -1.4152176149995516e-07 0 0.032891555216020746 0.00047233066892420642 0 0.028171594234670867 -0.00093365112762543851 0 0.028305113840889289 -0.00069535526347798795 0 0.028195385945545114 -0.00048960153129304059 0 0.028637131582614092 -0.00056707229295868895 0 0.032561348977874563 -0.00020480810835403121 0 0.032891555216020746 0.00047233066892420642 0 0.031195448376488404 -0.00014980266295831822 0 0.034999984439635007 7.7832291715238619e-09 0 0.034996185264407009 3.1675746622259547e-06 0 0.034999992063671131 8.3013036206066775e-10 0 0.028489266397442602 -0.00051279831726687105 0 0.028305113840889289 -0.00069535526347798795 0 0.028311818854376697 -0.00052010425567762552 0 0.028489266397442602 -0.00051279831726687105 0 0.028299279168400183 -0.00045190811548359285 0 0.028311818854376697 -0.00052010425567762552 0 0.028305113840889289 -0.00069535526347798795 0 0.028311818854376697 -0.00052010425567762552 0 0.028195385945545114 -0.00048960153129304059 0 0.03499999490537669 -3.0498874436196008e-09 0 0.034999990300803099 -2.4372542971152632e-09 0 0.034997424165976565 -1.9562838059091012e-06 0 0.028299279168400183 -0.00045190811548359285 0 0.028311818854376697 -0.00052010425567762552 0 0.028195385945545114 -0.00048960153129304059 0 0.031195448376488404 -0.00014980266295831822 0 0.032561348977874563 -0.00020480810835403121 0 0.034989025312217321 -8.5275954478072616e-07 0 0.032561348977874563 -0.00020480810835403121 0 0.033922287319799439 -0.00081172563247897415 0 0.033548515049009874 -6.8029395344225112e-05 0 0.034767070231426896 3.4546069068331557e-05 0 0.033922287319799439 -0.00081172563247897415 0 0.033548515049009874 -6.8029395344225112e-05 0 0.032500448293737869 -0.00021297542303843039 0 0.033548515049009874 -6.8029395344225112e-05 0 0.032929046393681508 0.00069932080314045824 0 0.034767070231426896 3.4546069068331557e-05 0 0.029736222800771525 -0.00078509112229091353 0 0.033813194612676588 -0.00074496125192789178 0 0.031989331556322574 0.00039010410583763581 0 0.032500448293737869 -0.00021297542303843039 0 0.032929046393681508 0.00069932080314045824 0 0.033548515049009874 -6.8029395344225112e-05 0 0.032500448293737869 -0.00021297542303843039 0 0.032929046393681508 0.00069932080314045824 0 0.03499930595331114 2.5115026804197328e-06 0 0.035010669873974339 2.1173126885129836e-05 0 0.034999988738545332 -3.827347663062591e-08 0 0.035010669873974339 2.1173126885129836e-05 0 0.034999988738545332 -3.827347663062591e-08 0 0.034931653954794167 -2.7609617003759868e-06 0 0.03400262106847534 0.00036075950117327068 0 0.034712202359100004 6.2988200353669257e-05 0 0.035010669873974339 2.1173126885129836e-05 0 0.034931653954794167 -2.7609617003759868e-06 0 0.034767070231426896 3.4546069068331557e-05 0 0.034999988738545332 -3.827347663062591e-08 0 0.034931653954794167 -2.7609617003759868e-06 0 0.034999719860434583 9.4898397630596764e-08 0 0.034931653954794167 -2.7609617003759868e-06 0 0.034999719860434583 9.4898397630596764e-08 0 0.034900395207299137 6.3325363145591105e-06 0 0.034999719860434583 9.4898397630596764e-08 0 0.034926364709859457 -1.4824633090637173e-05 0 0.034900395207299137 6.3325363145591105e-06 0 0.034931653954794167 -2.7609617003759868e-06 0 0.034900395207299137 6.3325363145591105e-06 0 0.034767070231426896 3.4546069068331557e-05 0 0.034926364709859457 -1.4824633090637173e-05 0 0.034900395207299137 6.3325363145591105e-06 0 0.034767070231426896 3.4546069068331557e-05 0 0.029736222800771525 -0.00078509112229091353 0 0.036504789022835382 0.00022598140956460325 0 0.033922287319799439 -0.00081172563247897415 0 0.034767070231426896 3.4546069068331557e-05 0 0.034941915160610015 -0.00014089454233595709 0 0.034926364709859457 -1.4824633090637173e-05 0 0.034941915160610015 -0.00014089454233595709 0 0.034927580257091376 -9.8749238468867089e-05 0 0.034926364709859457 -1.4824633090637173e-05 0 0.034767070231426896 3.4546069068331557e-05 0 0.034941915160610015 -0.00014089454233595709 0 0.034927580257091376 -9.8749238468867089e-05 0 0.034891905175650488 -0.00010236981353145556 0 0.034883586531760019 -0.00011687146207552068 0 0.034941915160610015 -0.00014089454233595709 0 0.034927580257091376 -9.8749238468867089e-05 0 0.034883586531760019 -0.00011687146207552068 0 0.034926364709859457 -1.4824633090637173e-05 0 0.034927580257091376 -9.8749238468867089e-05 0 0.034948301994133832 -4.6235449904730713e-05 0 0.034927580257091376 -9.8749238468867089e-05 0 0.034948301994133832 -4.6235449904730713e-05 0 0.034891905175650488 -0.00010236981353145556 0 0.034999719860434583 9.4898397630596764e-08 0 0.034926364709859457 -1.4824633090637173e-05 0 0.034948301994133832 -4.6235449904730713e-05 0 0.034999719860434583 9.4898397630596764e-08 0 0.034948301994133832 -4.6235449904730713e-05 0 0.034999863757706494 -2.8082412098226357e-07 0 0.034999863757706494 -2.8082412098226357e-07 0 0.034916849940189967 -7.7550076256737918e-05 0 0.034838671870718409 -0.00012809378039770327 0 0.034948301994133832 -4.6235449904730713e-05 0 0.034999863757706494 -2.8082412098226357e-07 0 0.034916849940189967 -7.7550076256737918e-05 0 0.035000021319047343 3.9968561926107444e-08 0 0.034999914231780289 -8.5858545185433729e-08 0 0.0349936966997565 -2.6591361569634432e-05 0 0.034999945904537255 -1.4209455316432993e-08 0 0.034908764556233041 -7.9861802230842655e-05 0 0.034999914231780289 -8.5858545185433729e-08 0 0.0349936966997565 -2.6591361569634432e-05 0 0.034958437414374571 -3.6926637404172241e-05 0 0.034916849940189967 -7.7550076256737918e-05 0 0.034838671870718409 -0.00012809378039770327 0 0.034852237416985447 -0.00010855949877179595 0 0.034838671870718409 -0.00012809378039770327 0 0.034818501644099907 -0.00012525597799713527 0 0.034792892749422155 -0.00013902521665588931 0 0.034838671870718409 -0.00012809378039770327 0 0.034852237416985447 -0.00010855949877179595 0 0.034818501644099907 -0.00012525597799713527 0 0.034852237416985447 -0.00010855949877179595 0 0.034818501644099907 -0.00012525597799713527 0 0.034791742394762959 -0.00012786420937763924 0 0.034818501644099907 -0.00012525597799713527 0 0.034791742394762959 -0.00012786420937763924 0 0.034792892749422155 -0.00013902521665588931 0 0.034948301994133832 -4.6235449904730713e-05 0 0.034916849940189967 -7.7550076256737918e-05 0 0.034891905175650488 -0.00010236981353145556 0 0.034916849940189967 -7.7550076256737918e-05 0 0.034852237416985447 -0.00010855949877179595 0 0.034891905175650488 -0.00010236981353145556 0 0.034852237416985447 -0.00010855949877179595 0 0.034891905175650488 -0.00010236981353145556 0 0.034830176920534701 -0.00010991133998297012 0 0.034891905175650488 -0.00010236981353145556 0 0.034830176920534701 -0.00010991133998297012 0 0.034846822812992569 -0.00010683016899381577 0 0.034891905175650488 -0.00010236981353145556 0 0.034846822812992569 -0.00010683016899381577 0 0.034883586531760019 -0.00011687146207552068 0 0.034830176920534701 -0.00010991133998297012 0 0.034810768078113841 -0.00010170920767688117 0 0.034846822812992569 -0.00010683016899381577 0 0.034810768078113841 -0.00010170920767688117 0 0.034846822812992569 -0.00010683016899381577 0 0.034821189687120238 -8.3843816825885878e-05 0 0.034852237416985447 -0.00010855949877179595 0 0.034830176920534701 -0.00010991133998297012 0 0.034791742394762959 -0.00012786420937763924 0 0.034830176920534701 -0.00010991133998297012 0 0.034791742394762959 -0.00012786420937763924 0 0.034788562438653768 -0.0001112539169978658 0 0.034830176920534701 -0.00010991133998297012 0 0.034810768078113841 -0.00010170920767688117 0 0.034788562438653768 -0.0001112539169978658 0 0.034791742394762959 -0.00012786420937763924 0 0.034788562438653768 -0.0001112539169978658 0 0.034762095147680874 -0.00012296521670190563 0 0.034762095147680874 -0.00012296521670190563 0 0.03475141377656317 -0.00010127420783649355 0 0.034732186668928522 -0.00012734814103517762 0 0.034762095147680874 -0.00012296521670190563 0 0.034770083774676594 -9.2129328471274972e-05 0 0.03475141377656317 -0.00010127420783649355 0 0.034810768078113841 -0.00010170920767688117 0 0.034788562438653768 -0.0001112539169978658 0 0.034770083774676594 -9.2129328471274972e-05 0 0.034788562438653768 -0.0001112539169978658 0 0.034762095147680874 -0.00012296521670190563 0 0.034770083774676594 -9.2129328471274972e-05 0 0.034330167046689931 -0.00080448456882823078 0 0.031848753574852735 -0.0001039644930245363 0 0.031848753574852735 -0.0001039644930245363 0 0.026401096380808359 -0.0011750243649642114 0 0.019816297799484388 -0.0018492730220896979 0 0.019784128701768613 -0.0017001074440369862 0 0.019603089624804303 -0.0016947296008385539 0 0.026349894336776029 -0.00076152415023954603 0 0.026793384261122009 -0.0009256407080972148 0 0.026454512923053626 -0.00071048858816857407 0 0.034810768078113841 -0.00010170920767688117 0 0.034770083774676594 -9.2129328471274972e-05 0 0.034821189687120238 -8.3843816825885878e-05 0 0.034770083774676594 -9.2129328471274972e-05 0 0.034731163525801162 -6.7023546695146698e-05 0 0.034821189687120238 -8.3843816825885878e-05 0 0.026401096380808359 -0.0011750243649642114 0 0.02217955940666947 -0.0010303918889793106 0 0.019816297799484388 -0.0018492730220896979 0 0.019891762629063746 -0.0018722862303021176 0 0.019894297298507679 -0.0017760906841605736 0 0.019816297799484388 -0.0018492730220896979 0 0.019894297298507679 -0.0017760906841605736 0 0.019784128701768613 -0.0017001074440369862 0 0.026401096380808359 -0.0011750243649642114 0 0.027237865607549306 -0.00099106484755315618 0 0.019844156779817889 -0.0018556968367012575 0 0.019891762629063746 -0.0018722862303021176 0 0.02003791207257162 -0.0019596660786978166 0 0.026401096380808359 -0.0011750243649642114 0 0.022260536224583131 -0.00065097407846494084 0 0.019891762629063746 -0.0018722862303021176 0 0.019982952156385844 -0.0018396828076360238 0 0.02003791207257162 -0.0019596660786978166 0 0.019891762629063746 -0.0018722862303021176 0 0.019894297298507679 -0.0017760906841605736 0 0.019982952156385844 -0.0018396828076360238 0 0.020090379608082905 -0.0018534823047902805 0 0.019982952156385844 -0.0018396828076360238 0 0.019999489956441015 -0.0017337751464506384 0 0.020184766314486829 -0.0019292404186577147 0 0.020090379608082905 -0.0018534823047902805 0 0.02003791207257162 -0.0019596660786978166 0 0.019894297298507679 -0.0017760906841605736 0 0.019982952156385844 -0.0018396828076360238 0 0.019999489956441015 -0.0017337751464506384 0 0.020120841489887343 -0.001766749130857145 0 0.020090379608082905 -0.0018534823047902805 0 0.019999489956441015 -0.0017337751464506384 0 0.020090379608082905 -0.0018534823047902805 0 0.019982952156385844 -0.0018396828076360238 0 0.02003791207257162 -0.0019596660786978166 0 0.034771110039209491 -0.00014666552007371525 0 0.034941915160610015 -0.00014089454233595709 0 0.034875964121701276 -0.00013606892382591273 0 0.029736222800771525 -0.00078509112229091353 0 0.027237865607549306 -0.00099106484755315618 0 0.034941915160610015 -0.00014089454233595709 0 0.034875964121701276 -0.00013606892382591273 0 0.034883586531760019 -0.00011687146207552068 0 0.034821189687120238 -8.3843816825885878e-05 0 0.034875964121701276 -0.00013606892382591273 0 0.034883586531760019 -0.00011687146207552068 0 0.034846822812992569 -0.00010683016899381577 0 0.034821189687120238 -8.3843816825885878e-05 0 0.034883586531760019 -0.00011687146207552068 0 0.034571460520756492 -0.00027552724011296284 0 0.034607020999870203 -0.00024511828983565808 0 0.034684550723621588 -0.00016992710804077338 0 0.034571460520756492 -0.00027552724011296284 0 0.034607020999870203 -0.00024511828983565808 0 0.034564603989345501 -0.00027019549967066968 0 0.034607020999870203 -0.00024511828983565808 0 0.034607015310353699 -0.00024182639191719436 0 0.034564603989345501 -0.00027019549967066968 0 0.034607020999870203 -0.00024511828983565808 0 0.034619402846525586 -0.00022084327561274712 0 0.034607015310353699 -0.00024182639191719436 0 0.034999612076216997 -6.7802520014419341e-08 0 0.035000042658004597 -1.2016633279295633e-08 0 0.03499997741564885 5.9398208015430332e-09 0 0.034684550723621588 -0.00016992710804077338 0 0.034623385622799423 -0.00018216815937119774 0 0.034999543398897048 -1.2627608326973033e-07 0 0.034826319195123731 -9.0393738187007492e-05 0 0.034999957380735629 -2.9483018846879399e-08 0 0.034684550723621588 -0.00016992710804077338 0 0.034623385622799423 -0.00018216815937119774 0 0.034619402846525586 -0.00022084327561274712 0 0.034623385622799423 -0.00018216815937119774 0 0.034619402846525586 -0.00022084327561274712 0 0.034624324319881418 -0.00023225814581636202 0 0.034607020999870203 -0.00024511828983565808 0 0.034684550723621588 -0.00016992710804077338 0 0.034619402846525586 -0.00022084327561274712 0 0.035000042658004597 -1.2016633279295633e-08 0 0.035016405294104311 -2.2318764156918375e-05 0 0.034999936279437788 -1.1862766080537922e-08 0 0.034999612076216997 -6.7802520014419341e-08 0 0.035000042658004597 -1.2016633279295633e-08 0 0.035016405294104311 -2.2318764156918375e-05 0 0.034826319195123731 -9.0393738187007492e-05 0 0.034831171937631356 -0.00013411697094330282 0 0.034623385622799423 -0.00018216815937119774 0 0.034624324319881418 -0.00023225814581636202 0 0.03465359046532028 -0.00026558319354279313 0 0.034624324319881418 -0.00023225814581636202 0 0.034637031743509697 -0.00022497791480396837 0 0.03465359046532028 -0.00026558319354279313 0 0.034637031743509697 -0.00022497791480396837 0 0.034696797894136266 -0.0001902322013460191 0 0.03465359046532028 -0.00026558319354279313 0 0.034619402846525586 -0.00022084327561274712 0 0.034624324319881418 -0.00023225814581636202 0 0.034607015310353699 -0.00024182639191719436 0 0.034624324319881418 -0.00023225814581636202 0 0.034637031743509697 -0.00022497791480396837 0 0.034607015310353699 -0.00024182639191719436 0 0.034607015310353699 -0.00024182639191719436 0 0.034640271954779089 -0.00021289767409970561 0 0.034589407403025754 -0.00024254684388545374 0 0.034637031743509697 -0.00022497791480396837 0 0.034640271954779089 -0.00021289767409970561 0 0.034696797894136266 -0.0001902322013460191 0 0.034637031743509697 -0.00022497791480396837 0 0.034607015310353699 -0.00024182639191719436 0 0.034640271954779089 -0.00021289767409970561 0 0.034696797894136266 -0.0001902322013460191 0 0.03465359046532028 -0.00026558319354279313 0 0.034881685612465178 -0.00011059245450508271 0 0.034771028587534676 -0.00015515003300103903 0 0.034696797894136266 -0.0001902322013460191 0 0.034881685612465178 -0.00011059245450508271 0 0.034640271954779089 -0.00021289767409970561 0 0.034696797894136266 -0.0001902322013460191 0 0.034699132836822869 -0.00017714845959036925 0 0.034771028587534676 -0.00015515003300103903 0 0.034696797894136266 -0.0001902322013460191 0 0.034699132836822869 -0.00017714845959036925 0 0.034831171937631356 -0.00013411697094330282 0 0.034868738482650354 -0.00012070437507564322 0 0.035016405294104311 -2.2318764156918375e-05 0 0.034957019261562833 -3.3925001301470567e-05 0 0.034881685612465178 -0.00011059245450508271 0 0.035016405294104311 -2.2318764156918375e-05 0 0.034999936279437788 -1.1862766080537922e-08 0 0.034957019261562833 -3.3925001301470567e-05 0 0.034957019261562833 -3.3925001301470567e-05 0 0.034958437414374571 -3.6926637404172241e-05 0 0.034881685612465178 -0.00011059245450508271 0 0.034999914231780289 -8.5858545185433729e-08 0 0.034999936279437788 -1.1862766080537922e-08 0 0.034958437414374571 -3.6926637404172241e-05 0 0.034999936279437788 -1.1862766080537922e-08 0 0.034957019261562833 -3.3925001301470567e-05 0 0.034958437414374571 -3.6926637404172241e-05 0 0.0349936966997565 -2.6591361569634432e-05 0 0.034958437414374571 -3.6926637404172241e-05 0 0.034881685612465178 -0.00011059245450508271 0 0.0349936966997565 -2.6591361569634432e-05 0 0.034771028587534676 -0.00015515003300103903 0 0.034881685612465178 -0.00011059245450508271 0 0.034838671870718409 -0.00012809378039770327 0 0.034771028587534676 -0.00015515003300103903 0 0.034792892749422155 -0.00013902521665588931 0 0.034908764556233041 -7.9861802230842655e-05 0 0.034800055522403804 -0.00014091938101245397 0 0.034771028587534676 -0.00015515003300103903 0 0.034792892749422155 -0.00013902521665588931 0 0.034749827591601445 -0.00015331413640353852 0 0.034791742394762959 -0.00012786420937763924 0 0.034792892749422155 -0.00013902521665588931 0 0.034749827591601445 -0.00015331413640353852 0 0.034791742394762959 -0.00012786420937763924 0 0.034749827591601445 -0.00015331413640353852 0 0.034756250923920692 -0.00013786959013065489 0 0.034749827591601445 -0.00015331413640353852 0 0.034756250923920692 -0.00013786959013065489 0 0.034721318023099759 -0.00014662838293193816 0 0.034749827591601445 -0.00015331413640353852 0 0.034721318023099759 -0.00014662838293193816 0 0.034691945088885186 -0.00017076683346278716 0 0.034791742394762959 -0.00012786420937763924 0 0.034762095147680874 -0.00012296521670190563 0 0.034756250923920692 -0.00013786959013065489 0 0.034762095147680874 -0.00012296521670190563 0 0.034756250923920692 -0.00013786959013065489 0 0.034721318023099759 -0.00014662838293193816 0 0.034762095147680874 -0.00012296521670190563 0 0.034732186668928522 -0.00012734814103517762 0 0.034721318023099759 -0.00014662838293193816 0 0.03475141377656317 -0.00010127420783649355 0 0.034702459557835144 -0.00013672276746334511 0 0.034657067753110504 -0.00013638469504291718 0 0.03475141377656317 -0.00010127420783649355 0 0.034732186668928522 -0.00012734814103517762 0 0.034702459557835144 -0.00013672276746334511 0 0.034702459557835144 -0.00013672276746334511 0 0.034721318023099759 -0.00014662838293193816 0 0.034657757050520051 -0.00017429719207803245 0 0.034732186668928522 -0.00012734814103517762 0 0.034702459557835144 -0.00013672276746334511 0 0.034721318023099759 -0.00014662838293193816 0 0.034721318023099759 -0.00014662838293193816 0 0.034657757050520051 -0.00017429719207803245 0 0.034691945088885186 -0.00017076683346278716 0 0.034657757050520051 -0.00017429719207803245 0 0.034594437808431265 -0.00021083023215200892 0 0.034657067753110504 -0.00013638469504291718 0 0.034702459557835144 -0.00013672276746334511 0 0.034657757050520051 -0.00017429719207803245 0 0.034657067753110504 -0.00013638469504291718 0 0.034657757050520051 -0.00017429719207803245 0 0.034630879242065642 -0.00020600557318548501 0 0.034594437808431265 -0.00021083023215200892 0 0.034657757050520051 -0.00017429719207803245 0 0.034691945088885186 -0.00017076683346278716 0 0.034630879242065642 -0.00020600557318548501 0 0.034691945088885186 -0.00017076683346278716 0 0.034699132836822869 -0.00017714845959036925 0 0.034630879242065642 -0.00020600557318548501 0 0.034771028587534676 -0.00015515003300103903 0 0.034749827591601445 -0.00015331413640353852 0 0.034699132836822869 -0.00017714845959036925 0 0.034749827591601445 -0.00015331413640353852 0 0.034691945088885186 -0.00017076683346278716 0 0.034699132836822869 -0.00017714845959036925 0 0.034640271954779089 -0.00021289767409970561 0 0.034699132836822869 -0.00017714845959036925 0 0.034630879242065642 -0.00020600557318548501 0 0.034640271954779089 -0.00021289767409970561 0 0.034589407403025754 -0.00024254684388545374 0 0.034630879242065642 -0.00020600557318548501 0 0.034589407403025754 -0.00024254684388545374 0 0.034630879242065642 -0.00020600557318548501 0 0.034570905747435252 -0.00024339410659703526 0 0.034630879242065642 -0.00020600557318548501 0 0.034594437808431265 -0.00021083023215200892 0 0.034570905747435252 -0.00024339410659703526 0 0.034594437808431265 -0.00021083023215200892 0 0.034570905747435252 -0.00024339410659703526 0 0.034533380866416725 -0.00026232207083216218 0 0.034533380866416725 -0.00026232207083216218 0 0.034513833088566391 -0.00029357423263447321 0 0.034479075823076168 -0.00031787348987429129 0 0.034570905747435252 -0.00024339410659703526 0 0.034533380866416725 -0.00026232207083216218 0 0.034513833088566391 -0.00029357423263447321 0 0.034513833088566391 -0.00029357423263447321 0 0.034564603989345501 -0.00027019549967066968 0 0.034497870812256283 -0.00030965817105608985 0 0.034571460520756492 -0.00027552724011296284 0 0.034564603989345501 -0.00027019549967066968 0 0.034497870812256283 -0.00030965817105608985 0 0.034589407403025754 -0.00024254684388545374 0 0.034513833088566391 -0.00029357423263447321 0 0.034564603989345501 -0.00027019549967066968 0 0.034589407403025754 -0.00024254684388545374 0 0.034570905747435252 -0.00024339410659703526 0 0.034513833088566391 -0.00029357423263447321 0 0.034607015310353699 -0.00024182639191719436 0 0.034589407403025754 -0.00024254684388545374 0 0.034564603989345501 -0.00027019549967066968 0 0.030036627902887105 2.2114061441982502e-05 0 0.029789799829765224 0.000143102556799634 0 0.030183643118416318 0.0002386306427803821 0 0.029789799829765224 0.000143102556799634 0 0.029746184420608442 0.00028761152762196983 0 0.030183643118416318 0.0002386306427803821 0 0.030036627902887105 2.2114061441982502e-05 0 0.029789799829765224 0.000143102556799634 0 0.029814111376776736 -2.727805144595056e-05 0 0.034479075823076168 -0.00031787348987429129 0 0.034527462630796209 -0.00022867834647549959 0 0.034422369054476536 -0.0003846086410858458 0 0.032138618725342252 2.4373035529913178e-05 0 0.032318093302198585 -8.1399466918066844e-05 0 0.034533380866416725 -0.00026232207083216218 0 0.034479075823076168 -0.00031787348987429129 0 0.034527462630796209 -0.00022867834647549959 0 0.034594437808431265 -0.00021083023215200892 0 0.034527462630796209 -0.00022867834647549959 0 0.034657067753110504 -0.00013638469504291718 0 0.029746184420608442 0.00028761152762196983 0 0.029661575151705921 0.00021332061365900799 0 0.029597816706462436 0.00027106184913915982 0 0.032138618725342252 2.4373035529913178e-05 0 0.032193601892663654 7.7204042212249783e-05 0 0.034594437808431265 -0.00021083023215200892 0 0.034533380866416725 -0.00026232207083216218 0 0.034527462630796209 -0.00022867834647549959 0 0.028701824565284747 0.00018907066808042955 0 0.030003868005090164 -9.1098327860295283e-05 0 0.029789799829765224 0.000143102556799634 0 0.029642965925669548 0.00013080647666062573 0 0.029814111376776736 -2.727805144595056e-05 0 0.029789799829765224 0.000143102556799634 0 0.029661575151705921 0.00021332061365900799 0 0.029642965925669548 0.00013080647666062573 0 0.029008986091379016 0.0002326461590916974 0 0.028701824565284747 0.00018907066808042955 0 0.029789799829765224 0.000143102556799634 0 0.029746184420608442 0.00028761152762196983 0 0.029661575151705921 0.00021332061365900799 0 0.028701824565284747 0.00018907066808042955 0 0.024750289625312758 -0.00070385591149849526 0 0.029661575151705921 0.00021332061365900799 0 0.02965433451018111 0.00018984920204453184 0 0.029558652688455339 0.00024913967300584902 0 0.025599262384621346 -0.00041558808941018514 0 0.025149485080626612 -0.00038095212624869655 0 0.024738280600696445 1.8782590930791995e-05 0 0.028701824565284747 0.00018907066808042955 0 0.024987311677828809 -0.00034361558041461689 0 0.019615714260894621 -0.0015139379733920722 0 0.019635508271121527 -0.0015706014394294048 0 0.019761940866303861 -0.0015858574869368745 0 0.025599262384621346 -0.00041558808941018514 0 0.025149485080626612 -0.00038095212624869655 0 0.025559570923611979 -0.0007841456710216538 0 0.022016124478575747 -0.00064122720832695515 0 0.024750289625312758 -0.00070385591149849526 0 0.019615714260894621 -0.0015139379733920722 0 0.019579910316858559 -0.001549207022165556 0 0.019635508271121527 -0.0015706014394294048 0 0.029661575151705921 0.00021332061365900799 0 0.029597816706462436 0.00027106184913915982 0 0.029558652688455339 0.00024913967300584902 0 0.031848753574852735 -0.0001039644930245363 0 0.032193601892663654 7.7204042212249783e-05 0 0.02955722209104282 0.00025552389498275307 0 0.029597816706462436 0.00027106184913915982 0 0.029558652688455339 0.00024913967300584902 0 0.031848753574852735 -0.0001039644930245363 0 0.024987311677828809 -0.00034361558041461689 0 0.019579910316858559 -0.001549207022165556 0 0.019546132465162569 -0.0015346023174964514 0 0.019487975924877179 -0.0015088691963460652 0 0.019547301198594914 -0.0015597723484399933 0 0.019546132465162569 -0.0015346023174964514 0 0.019555155392306563 -0.0015686223183951128 0 0.019615714260894621 -0.0015139379733920722 0 0.019547301198594914 -0.0015597723484399933 0 0.019546132465162569 -0.0015346023174964514 0 0.022016124478575747 -0.00064122720832695515 0 0.024987311677828809 -0.00034361558041461689 0 0.019615714260894621 -0.0015139379733920722 0 0.019579910316858559 -0.001549207022165556 0 0.019546132465162569 -0.0015346023174964514 0 0.019724976337994291 -0.0011135654728876413 0 0.019387148544091553 -0.0016080092471385911 0 0.019341368034608401 -0.0013785567776761504 0 0.019487975924877179 -0.0015088691963460652 0 0.01943319408732622 -0.0013382003025420922 0 0.019341368034608401 -0.0013785567776761504 0 0.019219852112616436 -0.0014489484313558092 0 0.019487975924877179 -0.0015088691963460652 0 0.019579910316858559 -0.001549207022165556 0 0.01964025228982539 -0.0016301688372436273 0 0.019487975924877179 -0.0015088691963460652 0 0.019313396288789166 -0.0012800532941324968 0 0.019341368034608401 -0.0013785567776761504 0 0.01943319408732622 -0.0013382003025420922 0 0.019313396288789166 -0.0012800532941324968 0 0.01943319408732622 -0.0013382003025420922 0 0.019387656767340965 -0.0012346865714684275 0 0.019313396288789166 -0.0012800532941324968 0 0.019341368034608401 -0.0013785567776761504 0 0.019247739694822175 -0.0013467139220998186 0 0.019341368034608401 -0.0013785567776761504 0 0.019247739694822175 -0.0013467139220998186 0 0.019219852112616436 -0.0014489484313558092 0 0.019313396288789166 -0.0012800532941324968 0 0.019247739694822175 -0.0013467139220998186 0 0.019224731679922363 -0.001270282667197838 0 0.019247739694822175 -0.0013467139220998186 0 0.019156297036217407 -0.0013275806268650174 0 0.019224731679922363 -0.001270282667197838 0 0.019724976337994291 -0.0011135654728876413 0 0.020099150540077135 -0.00063986962683406138 0 0.019247739694822175 -0.0013467139220998186 0 0.019219852112616436 -0.0014489484313558092 0 0.019156297036217407 -0.0013275806268650174 0 0.01964025228982539 -0.0016301688372436273 0 0.019693890112090162 -0.0016008947300287695 0 0.019760776702154079 -0.0016599296726794457 0 0.020382748141626422 -0.00083490021785493913 0 0.020386280454110551 -0.00083309763129309287 0 0.020384803164435882 -0.00083207666771198494 0 0.019724976337994291 -0.0011135654728876413 0 0.021839413417238013 -0.00043565101439541922 0 0.019693890112090162 -0.0016008947300287695 0 0.019761940866303861 -0.0015858574869368745 0 0.019760776702154079 -0.0016599296726794457 0 0.01964025228982539 -0.0016301688372436273 0 0.01965162015873427 -0.0016069650668542313 0 0.019635508271121527 -0.0015706014394294048 0 0.019579910316858559 -0.001549207022165556 0 0.01964025228982539 -0.0016301688372436273 0 0.019635508271121527 -0.0015706014394294048 0 0.019635508271121527 -0.0015706014394294048 0 0.019693890112090162 -0.0016008947300287695 0 0.019761940866303861 -0.0015858574869368745 0 0.01964025228982539 -0.0016301688372436273 0 0.01965162015873427 -0.0016069650668542313 0 0.019693890112090162 -0.0016008947300287695 0 0.01965162015873427 -0.0016069650668542313 0 0.019635508271121527 -0.0015706014394294048 0 0.019693890112090162 -0.0016008947300287695 0 0.029262103437654119 0.00028464471540898544 0 0.029513968057872667 -9.4671369176402653e-05 0 0.029814111376776736 -2.727805144595056e-05 0 0.029262103437654119 0.00028464471540898544 0 0.029230465282220539 -8.8822435739018622e-05 0 0.029513968057872667 -9.4671369176402653e-05 0 0.029513968057872667 -9.4671369176402653e-05 0 0.029689236652671001 -0.00019342241636994582 0 0.029814111376776736 -2.727805144595056e-05 0 0.029230465282220539 -8.8822435739018622e-05 0 0.029513968057872667 -9.4671369176402653e-05 0 0.029560467203360287 -0.00036629039336361042 0 0.029513968057872667 -9.4671369176402653e-05 0 0.029560467203360287 -0.00036629039336361042 0 0.029689236652671001 -0.00019342241636994582 0 0.022870435550219757 0.0015414772851379791 0 0.021467909884128361 0.0018791952091767171 0 0.021907022944306735 0.0010752119688621903 0 0.02414669157427864 6.4179518989921456e-05 0 0.024415166053737093 -0.0001950863040995641 0 0.024128037571397497 -0.00012297702503471605 0 0.024750289625312758 -0.00070385591149849526 0 0.025259639250718946 0.00013037134567503363 0 0.025259639250718946 0.00013037134567503363 0 0.021839413417238013 -0.00043565101439541922 0 0.024750289625312758 -0.00070385591149849526 0 0.021839413417238013 -0.00043565101439541922 0 0.021743689704756746 0.00028166088435725251 0 0.022696800175729604 0.00072761631886915997 0 0.025383039057350842 0.0001278861979216075 0 0.021839413417238013 -0.00043565101439541922 0 0.020099150540077135 -0.00063986962683406138 0 0.021467909884128361 0.0018791952091767171 0 0.021907022944306735 0.0010752119688621903 0 0.021392145102370141 0.00039876680501493551 0 0.021743689704756746 0.00028166088435725251 0 0.022585175093640206 1.7128461692944969e-05 0 0.023372632108161883 5.4063897750790761e-05 0 0.021907022944306735 0.0010752119688621903 0 0.022061318120439707 0.00066948477746013265 0 0.022696800175729604 0.00072761631886915997 0 0.022061318120439707 0.00066948477746013265 0 0.021743689704756746 0.00028166088435725251 0 0.022696800175729604 0.00072761631886915997 0 0.021907022944306735 0.0010752119688621903 0 0.022061318120439707 0.00066948477746013265 0 0.021392145102370141 0.00039876680501493551 0 0.021392145102370141 0.00039876680501493551 0 0.021743689704756746 0.00028166088435725251 0 0.022286576618807057 -0.00092720516381488793 0 0.022061318120439707 0.00066948477746013265 0 0.021392145102370141 0.00039876680501493551 0 0.021743689704756746 0.00028166088435725251 0 0.021743689704756746 0.00028166088435725251 0 0.022585175093640206 1.7128461692944969e-05 0 0.022353239480217304 -0.00012228096345447048 0 0.022585175093640206 1.7128461692944969e-05 0 0.022967200432752178 -0.00022527349910648423 0 0.022584439854924261 -0.00027069894491166285 0 0.022585175093640206 1.7128461692944969e-05 0 0.022353239480217304 -0.00012228096345447048 0 0.022584439854924261 -0.00027069894491166285 0 0.021743689704756746 0.00028166088435725251 0 0.022353239480217304 -0.00012228096345447048 0 0.022310339411196853 -0.0003877367148961004 0 0.022870435550219757 0.0015414772851379791 0 0.021907022944306735 0.0010752119688621903 0 0.022696800175729604 0.00072761631886915997 0 0.022870435550219757 0.0015414772851379791 0 0.022696800175729604 0.00072761631886915997 0 0.023508825477966663 0.00094378077868655032 0 0.025259639250718946 0.00013037134567503363 0 0.023943342896157627 0.0011465648474730001 0 0.022003650084841828 0.00027283648330053923 0 0.024497422710764123 0.00025158238431209097 0 0.021743689704756746 0.00028166088435725251 0 0.023372632108161883 5.4063897750790761e-05 0 0.024034393933871481 0.00034216602319331042 0 0.022696800175729604 0.00072761631886915997 0 0.023508825477966663 0.00094378077868655032 0 0.025383039057350842 0.0001278861979216075 0 0.025259639250718946 0.00013037134567503363 0 0.028088771382804963 0.00013996264924381055 0 0.029560467203360287 -0.00036629039336361042 0 0.030026723860535096 -0.00044252795840644472 0 0.029854706864032309 -0.00027304871240916033 0 0.02287615241153846 0.001584171263506048 0 0.023508825477966663 0.00094378077868655032 0 0.025463408132193398 0.00086887927772980424 0 0.022585175093640206 1.7128461692944969e-05 0 0.023372632108161883 5.4063897750790761e-05 0 0.022967200432752178 -0.00022527349910648423 0 0.023372632108161883 5.4063897750790761e-05 0 0.022967200432752178 -0.00022527349910648423 0 0.02334792067860221 -0.00048728058013155676 0 0.023372632108161883 5.4063897750790761e-05 0 0.024034393933871481 0.00034216602319331042 0 0.023999330760870179 -0.00036980305125720051 0 0.023508825477966663 0.00094378077868655032 0 0.025383039057350842 0.0001278861979216075 0 0.025463408132193398 0.00086887927772980424 0 0.030026723860535096 -0.00044252795840644472 0 0.029999757289379633 -0.00030744229169584364 0 0.03009455778680158 -0.00032935948709221605 0 0.029854706864032309 -0.00027304871240916033 0 0.029814111376776736 -2.727805144595056e-05 0 0.030092211278030068 -0.00019859752069777663 0 0.029999757289379633 -0.00030744229169584364 0 0.029854706864032309 -0.00027304871240916033 0 0.030092211278030068 -0.00019859752069777663 0 0.030026723860535096 -0.00044252795840644472 0 0.029999757289379633 -0.00030744229169584364 0 0.029854706864032309 -0.00027304871240916033 0 0.029689236652671001 -0.00019342241636994582 0 0.029854706864032309 -0.00027304871240916033 0 0.029814111376776736 -2.727805144595056e-05 0 0.029560467203360287 -0.00036629039336361042 0 0.029689236652671001 -0.00019342241636994582 0 0.029854706864032309 -0.00027304871240916033 0 0.030036627902887105 2.2114061441982502e-05 0 0.029814111376776736 -2.727805144595056e-05 0 0.030092211278030068 -0.00019859752069777663 0 0.019750162753048098 -0.0015228943758011091 0 0.019771579422228031 -0.001691113007474045 0 0.019793393566325135 -0.0015325572066892626 0 0.019936403281068563 -0.0015843654488167146 0 0.019881197799754842 -0.0016591656213095847 0 0.019793393566325135 -0.0015325572066892626 0 0.019936403281068563 -0.0015843654488167146 0 0.019868372175610355 -0.0014663094369543467 0 0.020099712787709105 -0.0016524133716228687 0 0.019936403281068563 -0.0015843654488167146 0 0.019999489956441015 -0.0017337751464506384 0 0.019936403281068563 -0.0015843654488167146 0 0.019999489956441015 -0.0017337751464506384 0 0.019881197799754842 -0.0016591656213095847 0 0.019894297298507679 -0.0017760906841605736 0 0.019999489956441015 -0.0017337751464506384 0 0.019881197799754842 -0.0016591656213095847 0 0.019793393566325135 -0.0015325572066892626 0 0.019881197799754842 -0.0016591656213095847 0 0.019784128701768613 -0.0017001074440369862 0 0.019894297298507679 -0.0017760906841605736 0 0.019881197799754842 -0.0016591656213095847 0 0.019784128701768613 -0.0017001074440369862 0 0.019784128701768613 -0.0017001074440369862 0 0.019603089624804303 -0.0016947296008385539 0 0.019614810463223036 -0.0015615875448617769 0 0.019547301198594914 -0.0015597723484399933 0 0.019603089624804303 -0.0016947296008385539 0 0.019555155392306563 -0.0015686223183951128 0 0.019603089624804303 -0.0016947296008385539 0 0.019555155392306563 -0.0015686223183951128 0 0.019614810463223036 -0.0015615875448617769 0 0.026349894336776029 -0.00076152415023954603 0 0.026093603201788461 -0.00048612285219716859 0 0.026454512923053626 -0.00071048858816857407 0 0.024987311677828809 -0.00034361558041461689 0 0.02217955940666947 -0.0010303918889793106 0 0.019546132465162569 -0.0015346023174964514 0 0.019555155392306563 -0.0015686223183951128 0 0.019487975924877179 -0.0015088691963460652 0 0.019555155392306563 -0.0015686223183951128 0 0.019614810463223036 -0.0015615875448617769 0 0.019487975924877179 -0.0015088691963460652 0 0.019709560488139984 -0.0015024244804003137 0 0.019784128701768613 -0.0017001074440369862 0 0.019614810463223036 -0.0015615875448617769 0 0.019709560488139984 -0.0015024244804003137 0 0.019614810463223036 -0.0015615875448617769 0 0.019562922021666151 -0.0013870018335991245 0 0.019614810463223036 -0.0015615875448617769 0 0.019562922021666151 -0.0013870018335991245 0 0.019487975924877179 -0.0015088691963460652 0 0.019562922021666151 -0.0013870018335991245 0 0.019487975924877179 -0.0015088691963460652 0 0.01943319408732622 -0.0013382003025420922 0 0.019562922021666151 -0.0013870018335991245 0 0.01943319408732622 -0.0013382003025420922 0 0.019467097079869513 -0.0012390432283523459 0 0.019562922021666151 -0.0013870018335991245 0 0.019534900534893852 -0.0012101389939332262 0 0.019467097079869513 -0.0012390432283523459 0 0.019562922021666151 -0.0013870018335991245 0 0.019651735468005249 -0.0013392415889111695 0 0.019534900534893852 -0.0012101389939332262 0 0.019793393566325135 -0.0015325572066892626 0 0.019742822346603302 -0.0013663923052858636 0 0.019868372175610355 -0.0014663094369543467 0 0.019750162753048098 -0.0015228943758011091 0 0.019694980002465026 -0.0013515731683298572 0 0.019709560488139984 -0.0015024244804003137 0 0.019562922021666151 -0.0013870018335991245 0 0.019651735468005249 -0.0013392415889111695 0 0.020012325488672968 -0.0014897307501999734 0 0.019870576947190331 -0.0013363260237390176 0 0.019868372175610355 -0.0014663094369543467 0 0.020012325488672968 -0.0014897307501999734 0 0.019936403281068563 -0.0015843654488167146 0 0.019868372175610355 -0.0014663094369543467 0 0.019870576947190331 -0.0013363260237390176 0 0.019742822346603302 -0.0013663923052858636 0 0.019647188844993665 -0.0012050049176820367 0 0.019870576947190331 -0.0013363260237390176 0 0.019742822346603302 -0.0013663923052858636 0 0.019868372175610355 -0.0014663094369543467 0 0.019751346778811026 -0.0011829897624612289 0 0.019870576947190331 -0.0013363260237390176 0 0.019647188844993665 -0.0012050049176820367 0 0.019651735468005249 -0.0013392415889111695 0 0.019566983929917434 -0.0011750852775537942 0 0.019534900534893852 -0.0012101389939332262 0 0.019694980002465026 -0.0013515731683298572 0 0.019596617245120754 -0.0011866832309614141 0 0.019566983929917434 -0.0011750852775537942 0 0.019470695814961348 -0.0011079083297856219 0 0.019435265850992332 -0.0010754041120386428 0 0.019566983929917434 -0.0011750852775537942 0 0.019534900534893852 -0.0012101389939332262 0 0.019470695814961348 -0.0011079083297856219 0 0.019751346778811026 -0.0011829897624612289 0 0.019647188844993665 -0.0012050049176820367 0 0.019435265850992332 -0.0010754041120386428 0 0.019596617245120754 -0.0011866832309614141 0 0.019475979773249923 -0.0010828027749392613 0 0.019677853278694309 -0.001057183318192623 0 0.019435265850992332 -0.0010754041120386428 0 0.019125839304688079 -0.0010784024463440791 0 0.019470695814961348 -0.0011079083297856219 0 0.019435265850992332 -0.0010754041120386428 0 0.019411576722719964 -0.0010932196463112598 0 0.019435265850992332 -0.0010754041120386428 0 0.019125839304688079 -0.0010784024463440791 0 0.019411576722719964 -0.0010932196463112598 0 0.019125839304688079 -0.0010784024463440791 0 0.019381658702075637 -0.0012522847916056293 0 0.019411576722719964 -0.0010932196463112598 0 0.021017938035315716 -0.0016137885876822645 0 0.015401096436773114 -0.00029040249123413496 0 0.019511367758842126 -0.0012022970240387787 0 0.019473984207045124 -0.0010689577120005119 0 0.0196741053127505 -0.001215864567811037 0 0.019511367758842126 -0.0012022970240387787 0 0.019381658702075637 -0.0012522847916056293 0 0.019411576722719964 -0.0010932196463112598 0 0.019511367758842126 -0.0012022970240387787 0 0.019411576722719964 -0.0010932196463112598 0 0.019473984207045124 -0.0010689577120005119 0 0.019470695814961348 -0.0011079083297856219 0 0.019411576722719964 -0.0010932196463112598 0 0.019473984207045124 -0.0010689577120005119 0 0.019473984207045124 -0.0010689577120005119 0 0.019301048787712809 -0.001046774267019707 0 0.01916611136727674 -0.00073823455126939162 0 0.019473984207045124 -0.0010689577120005119 0 0.019301048787712809 -0.001046774267019707 0 0.019395003810950096 -0.0011448306875979136 0 0.019395003810950096 -0.0011448306875979136 0 0.019470525157059704 -0.0011462750192718987 0 0.019467097079869513 -0.0012390432283523459 0 0.019473984207045124 -0.0010689577120005119 0 0.019395003810950096 -0.0011448306875979136 0 0.019470525157059704 -0.0011462750192718987 0 0.019534900534893852 -0.0012101389939332262 0 0.019470695814961348 -0.0011079083297856219 0 0.019470525157059704 -0.0011462750192718987 0 0.019470695814961348 -0.0011079083297856219 0 0.019473984207045124 -0.0010689577120005119 0 0.019470525157059704 -0.0011462750192718987 0 0.019534900534893852 -0.0012101389939332262 0 0.019470525157059704 -0.0011462750192718987 0 0.019467097079869513 -0.0012390432283523459 0 0.019395003810950096 -0.0011448306875979136 0 0.019387656767340965 -0.0012346865714684275 0 0.019310111847902212 -0.0011795394241258439 0 0.019395003810950096 -0.0011448306875979136 0 0.019467097079869513 -0.0012390432283523459 0 0.019387656767340965 -0.0012346865714684275 0 0.01943319408732622 -0.0013382003025420922 0 0.019467097079869513 -0.0012390432283523459 0 0.019387656767340965 -0.0012346865714684275 0 0.019313396288789166 -0.0012800532941324968 0 0.019387656767340965 -0.0012346865714684275 0 0.019310111847902212 -0.0011795394241258439 0 0.019313396288789166 -0.0012800532941324968 0 0.019310111847902212 -0.0011795394241258439 0 0.019239206290213064 -0.0011933401939780506 0 0.020099150540077135 -0.00063986962683406138 0 0.019194735082753614 -0.0012886217388626208 0 0.019313396288789166 -0.0012800532941324968 0 0.019224731679922363 -0.001270282667197838 0 0.019239206290213064 -0.0011933401939780506 0 0.019156297036217407 -0.0013275806268650174 0 0.019224731679922363 -0.001270282667197838 0 0.019169210672800193 -0.0012125437441516073 0 0.019224731679922363 -0.001270282667197838 0 0.019169210672800193 -0.0012125437441516073 0 0.019239206290213064 -0.0011933401939780506 0 0.019194735082753614 -0.0012886217388626208 0 0.017821089229200927 -0.00071077259467536996 0 0.019239206290213064 -0.0011933401939780506 0 0.019174819310045204 -0.0011110230549297388 0 0.019239564469755097 -0.0011255539075703965 0 0.019169210672800193 -0.0012125437441516073 0 0.019239206290213064 -0.0011933401939780506 0 0.019174819310045204 -0.0011110230549297388 0 0.017821089229200927 -0.00071077259467536996 0 0.017272435211232541 -0.00047147056820400537 0 0.017304585736596833 -0.00044117679459883762 0 0.017268794649406657 -0.00081754102773630725 0 0.0170095314424537 -0.00086512482025034312 0 0.017821089229200927 -0.00071077259467536996 0 0.015593142518468672 3.4190856648270233e-05 0 0.019239564469755097 -0.0011255539075703965 0 0.019283160077645006 -0.0011106041420219641 0 0.019203708211727486 -0.0010750995976144793 0 0.019174819310045204 -0.0011110230549297388 0 0.019239564469755097 -0.0011255539075703965 0 0.019203708211727486 -0.0010750995976144793 0 0.019301048787712809 -0.001046774267019707 0 0.019395003810950096 -0.0011448306875979136 0 0.019283160077645006 -0.0011106041420219641 0 0.019395003810950096 -0.0011448306875979136 0 0.019310111847902212 -0.0011795394241258439 0 0.019283160077645006 -0.0011106041420219641 0 0.019310111847902212 -0.0011795394241258439 0 0.019239206290213064 -0.0011933401939780506 0 0.019239564469755097 -0.0011255539075703965 0 0.019310111847902212 -0.0011795394241258439 0 0.019239564469755097 -0.0011255539075703965 0 0.019283160077645006 -0.0011106041420219641 0 0.023012867549577268 -0.0011328329242543836 0 0.022286576618807057 -0.00092720516381488793 0 0.023415505884668529 -0.0027885144192335695 0 0.023855084193383634 -0.0012510803339294098 0 0.023999330760870179 -0.00036980305125720051 0 0.02334792067860221 -0.00048728058013155676 0 0.023855084193383634 -0.0012510803339294098 0 0.023999330760870179 -0.00036980305125720051 0 0.024593679550261711 -0.00083134481240067204 0 0.023372632108161883 5.4063897750790761e-05 0 0.023999330760870179 -0.00036980305125720051 0 0.02334792067860221 -0.00048728058013155676 0 0.022967200432752178 -0.00022527349910648423 0 0.022812746151011372 -0.00053794336442330147 0 0.022584439854924261 -0.00027069894491166285 0 0.022967200432752178 -0.00022527349910648423 0 0.02334792067860221 -0.00048728058013155676 0 0.022812746151011372 -0.00053794336442330147 0 0.02334792067860221 -0.00048728058013155676 0 0.022812746151011372 -0.00053794336442330147 0 0.023012867549577268 -0.0011328329242543836 0 0.023855084193383634 -0.0012510803339294098 0 0.02334792067860221 -0.00048728058013155676 0 0.023012867549577268 -0.0011328329242543836 0 0.0192533115110654 -0.0010712586284448409 0 0.019225319526590779 -0.0012363215695708697 0 0.019371355331614739 -0.0010545739930251986 0 0.019277632931240411 -0.00089958249428218561 0 0.0192533115110654 -0.0010712586284448409 0 0.019371355331614739 -0.0010545739930251986 0 0.021743689704756746 0.00028166088435725251 0 0.022310339411196853 -0.0003877367148961004 0 0.022286576618807057 -0.00092720516381488793 0 0.022812746151011372 -0.00053794336442330147 0 0.022520340352551901 -0.00049392490039957084 0 0.022286576618807057 -0.00092720516381488793 0 0.022812746151011372 -0.00053794336442330147 0 0.023012867549577268 -0.0011328329242543836 0 0.022286576618807057 -0.00092720516381488793 0 0.022812746151011372 -0.00053794336442330147 0 0.022520340352551901 -0.00049392490039957084 0 0.022584439854924261 -0.00027069894491166285 0 0.022520340352551901 -0.00049392490039957084 0 0.022584439854924261 -0.00027069894491166285 0 0.022310339411196853 -0.0003877367148961004 0 0.022353239480217304 -0.00012228096345447048 0 0.022584439854924261 -0.00027069894491166285 0 0.022310339411196853 -0.0003877367148961004 0 0.022520340352551901 -0.00049392490039957084 0 0.022310339411196853 -0.0003877367148961004 0 0.022286576618807057 -0.00092720516381488793 0 0.020099150540077135 -0.00063986962683406138 0 0.020125165606608392 -0.0013421910162954029 0 0.017621318773129137 0.00014118232371155645 0 0.015593142518468672 3.4190856648270233e-05 0 0.017825570238199209 -0.00047617263046982247 0 0.017863849262390454 -0.00045131232109519627 0 0.017872856709091476 -0.00047643423590202949 0 0.017821089229200927 -0.00071077259467536996 0 0.020125165606608392 -0.0013421910162954029 0 0.017825570238199209 -0.00047617263046982247 0 0.017872856709091476 -0.00047643423590202949 0 0.017819891163361138 -0.00048593878568992544 0 0.020125165606608392 -0.0013421910162954029 0 0.017621318773129137 0.00014118232371155645 0 0.023855084193383634 -0.0012510803339294098 0 0.023012867549577268 -0.0011328329242543836 0 0.023415505884668529 -0.0027885144192335695 0 0.023855084193383634 -0.0012510803339294098 0 0.023415505884668529 -0.0027885144192335695 0 0.024817997648130728 -0.0014913519137373526 0 0.014006265131845781 0.0016375238955128012 0 0.013868969973177043 0.0010383281812884992 0 0.013575499054138778 0.0013305205237871872 0 0.014006265131845781 0.0016375238955128012 0 0.013868969973177043 0.0010383281812884992 0 0.014373579811518622 0.0010961249856990503 0 0.017621318773129137 0.00014118232371155645 0 0.014005281072256882 0.0020647657108073102 0 0.014006265131845781 0.0016375238955128012 0 0.013575499054138778 0.0013305205237871872 0 0.013080760649656388 0.0014544944692754674 0 0.013868969973177043 0.0010383281812884992 0 0.013575499054138778 0.0013305205237871872 0 0.013400805798151436 0.00097399679637240994 0 0.013575499054138778 0.0013305205237871872 0 0.013271274939597389 0.0012210759239041763 0 0.013080760649656388 0.0014544944692754674 0 0.013575499054138778 0.0013305205237871872 0 0.013271274939597389 0.0012210759239041763 0 0.013400805798151436 0.00097399679637240994 0 0.013271274939597389 0.0012210759239041763 0 0.013400805798151436 0.00097399679637240994 0 0.013015672409707513 0.0010269808659716345 0 0.013556051253924624 0.0006231927872152104 0 0.013035684009314222 0.00065236048952903108 0 0.012917733012450071 7.523423868716139e-05 0 0.013400805798151436 0.00097399679637240994 0 0.013556051253924624 0.0006231927872152104 0 0.013035684009314222 0.00065236048952903108 0 0.013868969973177043 0.0010383281812884992 0 0.013400805798151436 0.00097399679637240994 0 0.013556051253924624 0.0006231927872152104 0 0.013868969973177043 0.0010383281812884992 0 0.013556051253924624 0.0006231927872152104 0 0.014101747703949353 0.00056425537754792776 0 0.013868969973177043 0.0010383281812884992 0 0.014101747703949353 0.00056425537754792776 0 0.014373579811518622 0.0010961249856990503 0 0.019301048787712809 -0.001046774267019707 0 0.019283160077645006 -0.0011106041420219641 0 0.019203708211727486 -0.0010750995976144793 0 0.017272435211232541 -0.00047147056820400537 0 0.015401096436773114 -0.00029040249123413496 0 0.019301048787712809 -0.001046774267019707 0 0.018859550104001265 -0.0011229369400997796 0 0.01916611136727674 -0.00073823455126939162 0 0.019968058744730049 -0.001106758007146822 0 0.017272435211232541 -0.00047147056820400537 0 0.0129337720015968 0.001418342084337105 0 0.013015672409707513 0.0010269808659716345 0 0.012369706752399021 0.0006209060375250671 0 0.013083664825120002 0.0014446817948712957 0 0.0129337720015968 0.001418342084337105 0 0.013058829720114195 0.0012693641723938516 0 0.015593142518468672 3.4190856648270233e-05 0 0.017272435211232541 -0.00047147056820400537 0 0.013271274939597389 0.0012210759239041763 0 0.013080760649656388 0.0014544944692754674 0 0.013058829720114195 0.0012693641723938516 0 0.015593142518468672 3.4190856648270233e-05 0 0.015020090133657672 0.00078311238341196687 0 0.0129337720015968 0.001418342084337105 0 0.013058829720114195 0.0012693641723938516 0 0.013015672409707513 0.0010269808659716345 0 0.013271274939597389 0.0012210759239041763 0 0.013058829720114195 0.0012693641723938516 0 0.013015672409707513 0.0010269808659716345 0 0.013015672409707513 0.0010269808659716345 0 0.013035684009314222 0.00065236048952903108 0 0.012369706752399021 0.0006209060375250671 0 0.013035684009314222 0.00065236048952903108 0 0.012369706752399021 0.0006209060375250671 0 0.012917733012450071 7.523423868716139e-05 0 0.013400805798151436 0.00097399679637240994 0 0.013015672409707513 0.0010269808659716345 0 0.013035684009314222 0.00065236048952903108 0 0.010772289711066915 0.00029291645309446809 0 0.010726800238379361 0.00033273804973005185 0 0.01075475544773416 0.00032077459529452007 0 0.010772289711066915 0.00029291645309446809 0 0.010709294224011316 0.00032786788688246029 0 0.010726800238379361 0.00033273804973005185 0 0.015401096436773114 -0.00029040249123413496 0 0.011148978632299333 0.00052926105225465996 0 0.010709294224011316 0.00032786788688246029 0 0.010695147145328909 0.00038512802569983174 0 0.010688771183914651 0.00036053389304702469 0 0.010709294224011316 0.00032786788688246029 0 0.010726800238379361 0.00033273804973005185 0 0.010688771183914651 0.00036053389304702469 0 0.010726800238379361 0.00033273804973005185 0 0.010701681369463922 0.00032740846614482424 0 0.01075475544773416 0.00032077459529452007 0 0.013556051253924624 0.0006231927872152104 0 0.014101747703949353 0.00056425537754792776 0 0.013646363787725969 4.5492213446470931e-05 0 0.014101747703949353 0.00056425537754792776 0 0.013646363787725969 4.5492213446470931e-05 0 0.014388707755135491 -6.4731216082084193e-05 0 0.013556051253924624 0.0006231927872152104 0 0.012917733012450071 7.523423868716139e-05 0 0.013646363787725969 4.5492213446470931e-05 0 0.011148978632299333 0.00052926105225465996 0 0.012244000180568241 -0.00018546213770480303 0 0.012917733012450071 7.523423868716139e-05 0 0.013646363787725969 4.5492213446470931e-05 0 0.013500401232587318 -0.0005787379940124551 0 0.013646363787725969 4.5492213446470931e-05 0 0.013500401232587318 -0.0005787379940124551 0 0.014067782443730744 -0.00071211450521161573 0 0.013646363787725969 4.5492213446470931e-05 0 0.014067782443730744 -0.00071211450521161573 0 0.014388707755135491 -6.4731216082084193e-05 0 0.013500401232587318 -0.0005787379940124551 0 0.014067782443730744 -0.00071211450521161573 0 0.014236407908098712 -0.0011600918952156076 0 0.010695147145328909 0.00038512802569983174 0 0.010752911128010807 0.00046084567742915377 0 0.010713860478505493 0.00042714010486124301 0 0.012244000180568241 -0.00018546213770480303 0 0.012444148812090366 -0.00030726229199104369 0 0.010695147145328909 0.00038512802569983174 0 0.010673082583576032 0.00038707067554945572 0 0.010688771183914651 0.00036053389304702469 0 0.010695147145328909 0.00038512802569983174 0 0.010673082583576032 0.00038707067554945572 0 0.010713860478505493 0.00042714010486124301 0 0.010673082583576032 0.00038707067554945572 0 0.010713860478505493 0.00042714010486124301 0 0.010672020710511022 0.00036749472659787388 0 0.010713860478505493 0.00042714010486124301 0 0.010786724833400894 0.00045002511769686435 0 0.010672020710511022 0.00036749472659787388 0 0.010752911128010807 0.00046084567742915377 0 0.010713860478505493 0.00042714010486124301 0 0.010786724833400894 0.00045002511769686435 0 0.010726800238379361 0.00033273804973005185 0 0.010688771183914651 0.00036053389304702469 0 0.010701681369463922 0.00032740846614482424 0 0.010688771183914651 0.00036053389304702469 0 0.010634667305968824 0.0003339349328172299 0 0.010701681369463922 0.00032740846614482424 0 0.010673082583576032 0.00038707067554945572 0 0.010688771183914651 0.00036053389304702469 0 0.010634667305968824 0.0003339349328172299 0 0.010673082583576032 0.00038707067554945572 0 0.010634667305968824 0.0003339349328172299 0 0.010623498297159405 0.00032381257575494744 0 0.010634667305968824 0.0003339349328172299 0 0.010701681369463922 0.00032740846614482424 0 0.010675931167126326 0.00033630985739996816 0 0.010701681369463922 0.00032740846614482424 0 0.010724638533320818 0.00032511544906060202 0 0.010675931167126326 0.00033630985739996816 0 0.010701681369463922 0.00032740846614482424 0 0.01074659437600514 0.00030926436642365201 0 0.01075475544773416 0.00032077459529452007 0 0.010701681369463922 0.00032740846614482424 0 0.01074659437600514 0.00030926436642365201 0 0.010724638533320818 0.00032511544906060202 0 0.015262538387760675 -0.00078404947914235414 0 0.013610073336618152 -0.00049535012795575686 0 0.01074659437600514 0.00030926436642365201 0 0.010724638533320818 0.00032511544906060202 0 0.010795190533007471 0.00033561729340372609 0 0.010724638533320818 0.00032511544906060202 0 0.010795190533007471 0.00033561729340372609 0 0.010675931167126326 0.00033630985739996816 0 0.01912908121943821 -0.0022610296108347347 0 0.018883183694493634 -0.0021777661021289019 0 0.019100563604831786 -0.0019148235911361222 0 0.013610073336618152 -0.00049535012795575686 0 0.016371176377155756 -0.0020956220399624488 0 0.011956045054711616 -0.0012956716495175085 0 0.012695367844211335 -0.0010720372510555642 0 0.012988038645745889 -0.0016841163548770067 0 0.013809651468263516 -0.0014844937851194099 0 0.012988038645745889 -0.0016841163548770067 0 0.013400731081513823 -0.0008481660562016511 0 0.012695367844211335 -0.0010720372510555642 0 0.012988038645745889 -0.0016841163548770067 0 0.013400731081513823 -0.0008481660562016511 0 0.013809651468263516 -0.0014844937851194099 0 0.014197119391463753 -0.0021308681380146893 0 0.012988038645745889 -0.0016841163548770067 0 0.015669244658288509 -0.0020775903163835286 0 0.016371176377155756 -0.0020956220399624488 0 0.018845996054290694 -0.0019702854124869799 0 0.019100563604831786 -0.0019148235911361222 0 0.019001664229779294 -0.0016756697112947094 0 0.018698718010633747 -0.0018223814918949185 0 0.018845996054290694 -0.0019702854124869799 0 0.019001664229779294 -0.0016756697112947094 0 0.018698718010633747 -0.0018223814918949185 0 0.01862347869371974 -0.0021123953230856238 0 0.018845996054290694 -0.0019702854124869799 0 0.01862347869371974 -0.0021123953230856238 0 0.018883183694493634 -0.0021777661021289019 0 0.018845996054290694 -0.0019702854124869799 0 0.018883183694493634 -0.0021777661021289019 0 0.018845996054290694 -0.0019702854124869799 0 0.019100563604831786 -0.0019148235911361222 0 0.019412768164151183 -0.0018578401621266896 0 0.01912908121943821 -0.0022610296108347347 0 0.019100563604831786 -0.0019148235911361222 0 0.019412768164151183 -0.0018578401621266896 0 0.019100563604831786 -0.0019148235911361222 0 0.019310433466143764 -0.0015555538740761217 0 0.019100563604831786 -0.0019148235911361222 0 0.019310433466143764 -0.0015555538740761217 0 0.019001664229779294 -0.0016756697112947094 0 0.019310433466143764 -0.0015555538740761217 0 0.019001664229779294 -0.0016756697112947094 0 0.019151680809126912 -0.0014057905232361088 0 0.019001664229779294 -0.0016756697112947094 0 0.018771748245743302 -0.0015401696021894696 0 0.019151680809126912 -0.0014057905232361088 0 0.018698718010633747 -0.0018223814918949185 0 0.019001664229779294 -0.0016756697112947094 0 0.018771748245743302 -0.0015401696021894696 0 0.019125839304688079 -0.0010784024463440791 0 0.018771748245743302 -0.0015401696021894696 0 0.019151680809126912 -0.0014057905232361088 0 0.019381658702075637 -0.0012522847916056293 0 0.019310433466143764 -0.0015555538740761217 0 0.019151680809126912 -0.0014057905232361088 0 0.019125839304688079 -0.0010784024463440791 0 0.019381658702075637 -0.0012522847916056293 0 0.019151680809126912 -0.0014057905232361088 0 0.019511367758842126 -0.0012022970240387787 0 0.019381658702075637 -0.0012522847916056293 0 0.01958469956806998 -0.0014695622613786572 0 0.019381658702075637 -0.0012522847916056293 0 0.019310433466143764 -0.0015555538740761217 0 0.01958469956806998 -0.0014695622613786572 0 0.019511367758842126 -0.0012022970240387787 0 0.0196741053127505 -0.001215864567811037 0 0.01958469956806998 -0.0014695622613786572 0 0.015401096436773114 -0.00029040249123413496 0 0.015106665201079278 -0.00062777857645825445 0 0.015262538387760675 -0.00078404947914235414 0 0.015106665201079278 -0.00062777857645825445 0 0.019412768164151183 -0.0018578401621266896 0 0.019310433466143764 -0.0015555538740761217 0 0.01958469956806998 -0.0014695622613786572 0 0.018721246004635924 -0.00046290396786330808 0 0.01881902653397919 0.00027229479124900004 0 0.019648025692109619 -9.7788730908057771e-05 0 0.018721246004635924 -0.00046290396786330808 0 0.019648025692109619 -9.7788730908057771e-05 0 0.019405120717432871 -0.00084777242141413471 0 0.018721246004635924 -0.00046290396786330808 0 0.017906245146838657 5.6273563346815887e-06 0 0.018021051798998003 -0.00084395326838136513 0 0.018721246004635924 -0.00046290396786330808 0 0.017906245146838657 5.6273563346815887e-06 0 0.01881902653397919 0.00027229479124900004 0 0.017906245146838657 5.6273563346815887e-06 0 0.017897450044277556 0.00089422303585294603 0 0.01881902653397919 0.00027229479124900004 0 0.017897450044277556 0.00089422303585294603 0 0.01881902653397919 0.00027229479124900004 0 0.018873397303509815 0.0011003711110977982 0 0.01881902653397919 0.00027229479124900004 0 0.019915663262914596 0.00083827578538905076 0 0.019648025692109619 -9.7788730908057771e-05 0 0.01881902653397919 0.00027229479124900004 0 0.019915663262914596 0.00083827578538905076 0 0.018873397303509815 0.0011003711110977982 0 0.019915663262914596 0.00083827578538905076 0 0.021168192731962961 0.0004727935815856323 0 0.0205339616300509 -0.00010704793238162798 0 0.019915663262914596 0.00083827578538905076 0 0.019648025692109619 -9.7788730908057771e-05 0 0.0205339616300509 -0.00010704793238162798 0 0.021168192731962961 0.0004727935815856323 0 0.021237364820222478 -0.00033819864106950976 0 0.0205339616300509 -0.00010704793238162798 0 0.020672113500889384 -0.00064926205655642464 0 0.021237364820222478 -0.00033819864106950976 0 0.0205339616300509 -0.00010704793238162798 0 0.020672113500889384 -0.00064926205655642464 0 0.021237364820222478 -0.00033819864106950976 0 0.021081625179968928 -0.00082423573617838625 0 0.019648025692109619 -9.7788730908057771e-05 0 0.0205339616300509 -0.00010704793238162798 0 0.020137477835804163 -0.00067049946202868307 0 0.020672113500889384 -0.00064926205655642464 0 0.0205339616300509 -0.00010704793238162798 0 0.020137477835804163 -0.00067049946202868307 0 0.019648025692109619 -9.7788730908057771e-05 0 0.020137477835804163 -0.00067049946202868307 0 0.019405120717432871 -0.00084777242141413471 0 0.020137477835804163 -0.00067049946202868307 0 0.019860852865056844 -0.0011928960735436982 0 0.019405120717432871 -0.00084777242141413471 0 0.020546900304099964 -0.001109391469586185 0 0.020840762655307064 -0.0014353347945058781 0 0.019761151862856437 -0.0018900973911488057 0 0.020137477835804163 -0.00067049946202868307 0 0.019860852865056844 -0.0011928960735436982 0 0.020546900304099964 -0.001109391469586185 0 0.020672113500889384 -0.00064926205655642464 0 0.020137477835804163 -0.00067049946202868307 0 0.020546900304099964 -0.001109391469586185 0 0.019860852865056844 -0.0011928960735436982 0 0.020546900304099964 -0.001109391469586185 0 0.019761151862856437 -0.0018900973911488057 0 0.019860852865056844 -0.0011928960735436982 0 0.019761151862856437 -0.0018900973911488057 0 0.019161125930292351 -0.001641972986700241 0 0.021081625179968928 -0.00082423573617838625 0 0.020816939899613897 -0.0013392038118222203 0 0.022064920776018057 -0.00065798022895730847 0 0.020672113500889384 -0.00064926205655642464 0 0.021081625179968928 -0.00082423573617838625 0 0.020546900304099964 -0.001109391469586185 0 0.021081625179968928 -0.00082423573617838625 0 0.020546900304099964 -0.001109391469586185 0 0.020816939899613897 -0.0013392038118222203 0 0.019934414353819485 -0.001491106057631619 0 0.018494461997397911 -0.00057807793556623167 0 0.0131055591839779 -2.6134812644361323e-05 0 0.01304139520074196 -0.00012036205143663853 0 0.013186152383155595 -0.00013842541545338899 0 0.018494461997397911 -0.00057807793556623167 0 0.017291160236975162 -0.00063829685285851352 0 0.018494461997397911 -0.00057807793556623167 0 0.016440244042736269 -0.00097595262981338123 0 0.0131055591839779 -2.6134812644361323e-05 0 0.01304139520074196 -0.00012036205143663853 0 0.012969239657574948 -6.4877813295111659e-05 0 0.01304139520074196 -0.00012036205143663853 0 0.012969239657574948 -6.4877813295111659e-05 0 0.012941266308662576 -0.00014167349868936396 0 0.019761151862856437 -0.0018900973911488057 0 0.018674443016052977 -0.0023080983706897824 0 0.019161125930292351 -0.001641972986700241 0 0.012969239657574948 -6.4877813295111659e-05 0 0.012882724834800239 -0.00011955408156316758 0 0.012846030580082705 -0.00011359572076144713 0 0.012969239657574948 -6.4877813295111659e-05 0 0.012882724834800239 -0.00011955408156316758 0 0.012941266308662576 -0.00014167349868936396 0 0.016440244042736269 -0.00097595262981338123 0 0.013578340400140547 -0.00069565278941114436 0 0.01301472942626291 -0.0004453839240120575 0 0.013578340400140547 -0.00069565278941114436 0 0.019161125930292351 -0.001641972986700241 0 0.018494814303305067 -0.0016068709268326374 0 0.018595892977919387 -0.0020067546441971669 0 0.018674443016052977 -0.0023080983706897824 0 0.019161125930292351 -0.001641972986700241 0 0.018595892977919387 -0.0020067546441971669 0 0.013578340400140547 -0.00069565278941114436 0 0.015074382871152254 -0.0020992309387374728 0 0.019860852865056844 -0.0011928960735436982 0 0.019161125930292351 -0.001641972986700241 0 0.019405120717432871 -0.00084777242141413471 0 0.019161125930292351 -0.001641972986700241 0 0.018638941551646103 -0.0011595989529424708 0 0.018494814303305067 -0.0016068709268326374 0 0.019161125930292351 -0.001641972986700241 0 0.019405120717432871 -0.00084777242141413471 0 0.018638941551646103 -0.0011595989529424708 0 0.018721246004635924 -0.00046290396786330808 0 0.019405120717432871 -0.00084777242141413471 0 0.018638941551646103 -0.0011595989529424708 0 0.018021051798998003 -0.00084395326838136513 0 0.018004184946305259 -0.0014649222631336694 0 0.017400249544451317 -0.0012770238417113302 0 0.018021051798998003 -0.00084395326838136513 0 0.018638941551646103 -0.0011595989529424708 0 0.018004184946305259 -0.0014649222631336694 0 0.018721246004635924 -0.00046290396786330808 0 0.018021051798998003 -0.00084395326838136513 0 0.018638941551646103 -0.0011595989529424708 0 0.018494814303305067 -0.0016068709268326374 0 0.018004184946305259 -0.0014649222631336694 0 0.018205879088199522 -0.0018720897889758894 0 0.018638941551646103 -0.0011595989529424708 0 0.018494814303305067 -0.0016068709268326374 0 0.018004184946305259 -0.0014649222631336694 0 0.018004184946305259 -0.0014649222631336694 0 0.018205879088199522 -0.0018720897889758894 0 0.017263481784728401 -0.0019949888915417628 0 0.013578340400140547 -0.00069565278941114436 0 0.0095499250471923602 -0.00017286430861437988 0 0.013578340400140547 -0.00069565278941114436 0 0.01426784138840711 -0.0014228046680368491 0 0.018672268613763011 -0.0022882575778039745 0 0.018205879088199522 -0.0018720897889758894 0 0.017263481784728401 -0.0019949888915417628 0 0.010103206685517018 -0.00040378368922355671 0 0.010887853048158995 -0.00063829389354132205 0 0.010926601262099793 -3.636929823876767e-05 0 0.018672268613763011 -0.0022882575778039745 0 0.018205879088199522 -0.0018720897889758894 0 0.018595892977919387 -0.0020067546441971669 0 0.018494814303305067 -0.0016068709268326374 0 0.018205879088199522 -0.0018720897889758894 0 0.018595892977919387 -0.0020067546441971669 0 0.010887853048158995 -0.00063829389354132205 0 0.011140234880887714 -0.00025050751983607563 0 0.010926601262099793 -3.636929823876767e-05 0 0.010887853048158995 -0.00063829389354132205 0 0.011140234880887714 -0.00025050751983607563 0 0.011525195322369289 -0.00034382618080071249 0 0.010887853048158995 -0.00063829389354132205 0 0.011525195322369289 -0.00034382618080071249 0 0.01216041366230013 -0.0010950010096834239 0 0.01426784138840711 -0.0014228046680368491 0 0.013937795772292212 -0.001355610379363933 0 0.016784678665875855 -0.00090105259018939861 0 0.01578485258474421 -0.0017120589665933154 0 0.015988301058461357 -0.00064428551250506321 0 0.017263481784728401 -0.0019949888915417628 0 0.016784678665875855 -0.00090105259018939861 0 0.01578485258474421 -0.0017120589665933154 0 0.017263481784728401 -0.0019949888915417628 0 0.016784678665875855 -0.00090105259018939861 0 0.017400249544451317 -0.0012770238417113302 0 0.018021051798998003 -0.00084395326838136513 0 0.016784678665875855 -0.00090105259018939861 0 0.017400249544451317 -0.0012770238417113302 0 0.018004184946305259 -0.0014649222631336694 0 0.017263481784728401 -0.0019949888915417628 0 0.017400249544451317 -0.0012770238417113302 0 0.012444148812090366 -0.00030726229199104369 0 0.012029928625644894 9.8617957176254159e-05 0 0.010752911128010807 0.00046084567742915377 0 0.010786724833400894 0.00045002511769686435 0 0.010964406026106299 0.0005473572707878991 0 0.01306738237966242 -0.00025143428017893353 0 0.01216041366230013 -0.0010950010096834239 0 0.014102166270013039 -0.0012503675854085466 0 0.011525195322369289 -0.00034382618080071249 0 0.01306738237966242 -0.00025143428017893353 0 0.01216041366230013 -0.0010950010096834239 0 0.01578485258474421 -0.0017120589665933154 0 0.01517931103216002 -0.00084598872450685045 0 0.014102166270013039 -0.0012503675854085466 0 0.01578485258474421 -0.0017120589665933154 0 0.01517931103216002 -0.00084598872450685045 0 0.015988301058461357 -0.00064428551250506321 0 0.013937795772292212 -0.001355610379363933 0 0.014087674629614425 -0.0012906559879696808 0 0.014236407908098712 -0.0011600918952156076 0 0.01306738237966242 -0.00025143428017893353 0 0.014102166270013039 -0.0012503675854085466 0 0.01517931103216002 -0.00084598872450685045 0 0.014102166270013039 -0.0012503675854085466 0 0.014579752820922174 -0.00060677831800809304 0 0.014067782443730744 -0.00071211450521161573 0 0.014102166270013039 -0.0012503675854085466 0 0.014579752820922174 -0.00060677831800809304 0 0.014067782443730744 -0.00071211450521161573 0 0.014236407908098712 -0.0011600918952156076 0 0.014102166270013039 -0.0012503675854085466 0 0.014579752820922174 -0.00060677831800809304 0 0.015490698283364168 -2.9172506597591785e-05 0 0.014388707755135491 -6.4731216082084193e-05 0 0.014067782443730744 -0.00071211450521161573 0 0.014579752820922174 -0.00060677831800809304 0 0.014388707755135491 -6.4731216082084193e-05 0 0.01517931103216002 -0.00084598872450685045 0 0.014579752820922174 -0.00060677831800809304 0 0.015490698283364168 -2.9172506597591785e-05 0 0.01517931103216002 -0.00084598872450685045 0 0.015490698283364168 -2.9172506597591785e-05 0 0.015988301058461357 -0.00064428551250506321 0 0.015424325493474727 6.5150126588267156e-05 0 0.015052450377050573 0.00063199003677695217 0 0.015490698283364168 -2.9172506597591785e-05 0 0.015056624302087467 0.0010078700226961463 0 0.015944614255257328 0.0010319842940254911 0 0.014101747703949353 0.00056425537754792776 0 0.014388707755135491 -6.4731216082084193e-05 0 0.014833247344401997 0.00056090556029983495 0 0.015490698283364168 -2.9172506597591785e-05 0 0.014388707755135491 -6.4731216082084193e-05 0 0.014833247344401997 0.00056090556029983495 0 0.017906245146838657 5.6273563346815887e-06 0 0.016784678665875855 -0.00090105259018939861 0 0.016787623821643081 0.00019908234102793254 0 0.017906245146838657 5.6273563346815887e-06 0 0.018021051798998003 -0.00084395326838136513 0 0.016784678665875855 -0.00090105259018939861 0 0.015490698283364168 -2.9172506597591785e-05 0 0.015988301058461357 -0.00064428551250506321 0 0.016787623821643081 0.00019908234102793254 0 0.016784678665875855 -0.00090105259018939861 0 0.015988301058461357 -0.00064428551250506321 0 0.016787623821643081 0.00019908234102793254 0 0.016787623821643081 0.00019908234102793254 0 0.016910917743171893 0.0012838093968560948 0 0.015944614255257328 0.0010319842940254911 0 0.015490698283364168 -2.9172506597591785e-05 0 0.016787623821643081 0.00019908234102793254 0 0.015944614255257328 0.0010319842940254911 0 0.017897450044277556 0.00089422303585294603 0 0.016787623821643081 0.00019908234102793254 0 0.016910917743171893 0.0012838093968560948 0 0.017906245146838657 5.6273563346815887e-06 0 0.017897450044277556 0.00089422303585294603 0 0.016787623821643081 0.00019908234102793254 0 0.016910917743171893 0.0012838093968560948 0 0.017557156839773554 0.001771999016831106 0 0.016922687120465258 0.0022141063685141328 0 0.017897450044277556 0.00089422303585294603 0 0.016910917743171893 0.0012838093968560948 0 0.017557156839773554 0.001771999016831106 0 0.016910917743171893 0.0012838093968560948 0 0.016099437296718967 0.0020088684045480925 0 0.016922687120465258 0.0022141063685141328 0 0.016910917743171893 0.0012838093968560948 0 0.016099437296718967 0.0020088684045480925 0 0.015944614255257328 0.0010319842940254911 0 0.016099437296718967 0.0020088684045480925 0 0.016922687120465258 0.0022141063685141328 0 0.016576466629526901 0.0033648161916907298 0 0.017557156839773554 0.001771999016831106 0 0.017360465773176469 0.0028200513020175152 0 0.018458231865702474 0.0025691420775573776 0 0.017557156839773554 0.001771999016831106 0 0.016922687120465258 0.0022141063685141328 0 0.017360465773176469 0.0028200513020175152 0 0.015052450377050573 0.00063199003677695217 0 0.014005281072256882 0.0020647657108073102 0 0.014101747703949353 0.00056425537754792776 0 0.014833247344401997 0.00056090556029983495 0 0.014373579811518622 0.0010961249856990503 0 0.015056624302087467 0.0010078700226961463 0 0.015306377319489936 0.0017966940687496849 0 0.014570441064188042 0.0019348702167855372 0 0.016099437296718967 0.0020088684045480925 0 0.015944614255257328 0.0010319842940254911 0 0.015306377319489936 0.0017966940687496849 0 0.015056624302087467 0.0010078700226961463 0 0.015944614255257328 0.0010319842940254911 0 0.015306377319489936 0.0017966940687496849 0 0.016099437296718967 0.0020088684045480925 0 0.015306377319489936 0.0017966940687496849 0 0.01525659684166099 0.0030646030004585359 0 0.014056975634386952 0.0027951648667577898 0 0.014570441064188042 0.0019348702167855372 0 0.01525659684166099 0.0030646030004585359 0 0.015306377319489936 0.0017966940687496849 0 0.014570441064188042 0.0019348702167855372 0 0.01525659684166099 0.0030646030004585359 0 0.017621318773129137 0.00014118232371155645 0 0.020746592821794207 0.00032479347547896521 0 0.023415505884668529 -0.0027885144192335695 0 0.025669692124388674 -0.0024499755731269318 0 0.024817997648130728 -0.0014913519137373526 0 0.025669692124388674 -0.0024499755731269318 0 0.025747621191975122 -0.0012828886881619561 0 0.024817997648130728 -0.0014913519137373526 0 0.016099437296718967 0.0020088684045480925 0 0.01525659684166099 0.0030646030004585359 0 0.016576466629526901 0.0033648161916907298 0 0.025669692124388674 -0.0024499755731269318 0 0.026945164853982437 -0.0011319251695384781 0 0.028035037579273454 -0.0020362859278826419 0 0.020746592821794207 0.00032479347547896521 0 0.022045648406694106 0.00066915513073647465 0 0.026842723986668596 -0.00040634844968951464 0 0.026104381204043285 -0.00055860753980639189 0 0.026561918725296164 0.00039986429968887045 0 0.026945164853982437 -0.0011319251695384781 0 0.026842723986668596 -0.00040634844968951464 0 0.027759796062959696 -0.00032267928539759724 0 0.026945164853982437 -0.0011319251695384781 0 0.026842723986668596 -0.00040634844968951464 0 0.026104381204043285 -0.00055860753980639189 0 0.026104381204043285 -0.00055860753980639189 0 0.025747621191975122 -0.0012828886881619561 0 0.025224121228909813 -0.00078190479526587056 0 0.026945164853982437 -0.0011319251695384781 0 0.026104381204043285 -0.00055860753980639189 0 0.025747621191975122 -0.0012828886881619561 0 0.025669692124388674 -0.0024499755731269318 0 0.026945164853982437 -0.0011319251695384781 0 0.025747621191975122 -0.0012828886881619561 0 0.025747621191975122 -0.0012828886881619561 0 0.025224121228909813 -0.00078190479526587056 0 0.024817997648130728 -0.0014913519137373526 0 0.026104381204043285 -0.00055860753980639189 0 0.025088766529992115 -0.0002548403891899757 0 0.025224121228909813 -0.00078190479526587056 0 0.025088766529992115 -0.0002548403891899757 0 0.025224121228909813 -0.00078190479526587056 0 0.024593679550261711 -0.00083134481240067204 0 0.023999330760870179 -0.00036980305125720051 0 0.025088766529992115 -0.0002548403891899757 0 0.024593679550261711 -0.00083134481240067204 0 0.023855084193383634 -0.0012510803339294098 0 0.024593679550261711 -0.00083134481240067204 0 0.024817997648130728 -0.0014913519137373526 0 0.025224121228909813 -0.00078190479526587056 0 0.024593679550261711 -0.00083134481240067204 0 0.024817997648130728 -0.0014913519137373526 0 0.017360465773176469 0.0028200513020175152 0 0.016576466629526901 0.0033648161916907298 0 0.017948552745686006 0.0036423506572812224 0 0.028035037579273454 -0.0020362859278826419 0 0.029649590377918075 -0.0014022456120993711 0 0.030316240577907258 -0.0014853545116341434 0 0.022045648406694106 0.00066915513073647465 0 0.025156615310246322 0.00081549381360396917 0 0.016922687120465258 0.0022141063685141328 0 0.017360465773176469 0.0028200513020175152 0 0.016576466629526901 0.0033648161916907298 0 0.028035037579273454 -0.0020362859278826419 0 0.02854393513753594 -0.00093924358735705924 0 0.029649590377918075 -0.0014022456120993711 0 0.026945164853982437 -0.0011319251695384781 0 0.028035037579273454 -0.0020362859278826419 0 0.02854393513753594 -0.00093924358735705924 0 0.026945164853982437 -0.0011319251695384781 0 0.02854393513753594 -0.00093924358735705924 0 0.027759796062959696 -0.00032267928539759724 0 0.02854393513753594 -0.00093924358735705924 0 0.027759796062959696 -0.00032267928539759724 0 0.029167412673487943 0.00026862199660959756 0 0.02854393513753594 -0.00093924358735705924 0 0.029387029231231071 -0.00073909963168761726 0 0.029167412673487943 0.00026862199660959756 0 0.02854393513753594 -0.00093924358735705924 0 0.029387029231231071 -0.00073909963168761726 0 0.029649590377918075 -0.0014022456120993711 0 0.029387029231231071 -0.00073909963168761726 0 0.029649590377918075 -0.0014022456120993711 0 0.030130864258171096 -0.00065366043057698924 0 0.029649590377918075 -0.0014022456120993711 0 0.030130864258171096 -0.00065366043057698924 0 0.030273098069041146 -0.0013813974638650151 0 0.029309338285133969 -0.00045121832082068 0 0.025156615310246322 0.00081549381360396917 0 0.029387029231231071 -0.00073909963168761726 0 0.030130864258171096 -0.00065366043057698924 0 0.029167412673487943 0.00026862199660959756 0 0.025156615310246322 0.00081549381360396917 0 0.028601175841296508 0.00031276230285188415 0 0.030827226291734258 -0.00074983511661360128 0 0.030273098069041146 -0.0013813974638650151 0 0.031246700232812091 -0.00070625470005828924 0 0.030130864258171096 -0.00065366043057698924 0 0.030827226291734258 -0.00074983511661360128 0 0.031223247971627774 -0.00031115355318138909 0 0.02549484375774929 0.001421726215882655 0 0.025085170442621055 0.0013684031857155068 0 0.025032256204076751 0.0015344717984109679 0 0.030130864258171096 -0.00065366043057698924 0 0.030827226291734258 -0.00074983511661360128 0 0.030273098069041146 -0.0013813974638650151 0 0.025085170442621055 0.0013684031857155068 0 0.025032256204076751 0.0015344717984109679 0 0.02462832319868196 0.0013051603888240917 0 0.031279643616462099 -0.00046775460552147977 0 0.031246700232812091 -0.00070625470005828924 0 0.031216467215156602 -0.00040351259775724585 0 0.030827226291734258 -0.00074983511661360128 0 0.031279643616462099 -0.00046775460552147977 0 0.031246700232812091 -0.00070625470005828924 0 0.030827226291734258 -0.00074983511661360128 0 0.031279643616462099 -0.00046775460552147977 0 0.031223247971627774 -0.00031115355318138909 0 0.019256203283002944 0.0034252337433165955 0 0.018458231865702474 0.0025691420775573776 0 0.019777265804719446 0.0026191312706125031 0 0.017948552745686006 0.0036423506572812224 0 0.019256203283002944 0.0034252337433165955 0 0.018458231865702474 0.0025691420775573776 0 0.025156615310246322 0.00081549381360396917 0 0.021510150864220711 0.002693089840944532 0 0.017360465773176469 0.0028200513020175152 0 0.017948552745686006 0.0036423506572812224 0 0.018458231865702474 0.0025691420775573776 0 0.017557156839773554 0.001771999016831106 0 0.018458231865702474 0.0025691420775573776 0 0.018395104998096483 0.0016788075707973417 0 0.018458231865702474 0.0025691420775573776 0 0.019339792057512167 0.0018117119023545727 0 0.018395104998096483 0.0016788075707973417 0 0.018458231865702474 0.0025691420775573776 0 0.019339792057512167 0.0018117119023545727 0 0.019777265804719446 0.0026191312706125031 0 0.019339792057512167 0.0018117119023545727 0 0.018873397303509815 0.0011003711110977982 0 0.018395104998096483 0.0016788075707973417 0 0.019915663262914596 0.00083827578538905076 0 0.019339792057512167 0.0018117119023545727 0 0.018873397303509815 0.0011003711110977982 0 0.017897450044277556 0.00089422303585294603 0 0.018873397303509815 0.0011003711110977982 0 0.018395104998096483 0.0016788075707973417 0 0.017897450044277556 0.00089422303585294603 0 0.017557156839773554 0.001771999016831106 0 0.018395104998096483 0.0016788075707973417 0 0.019915663262914596 0.00083827578538905076 0 0.021168192731962961 0.0004727935815856323 0 0.02084026895580211 0.0018498149600845411 0 0.02126126578860239 0.0012756349991635337 0 0.021659329441107059 0.0010379057086751962 0 0.021818903238949083 0.0014319876968754831 0 0.021168192731962961 0.0004727935815856323 0 0.02126126578860239 0.0012756349991635337 0 0.021659329441107059 0.0010379057086751962 0 0.021211515082781445 0.00049722736350275441 0 0.020902680043661026 0.0015981508354656335 0 0.019915663262914596 0.00083827578538905076 0 0.019339792057512167 0.0018117119023545727 0 0.02084026895580211 0.0018498149600845411 0 0.02084026895580211 0.0018498149600845411 0 0.019777265804719446 0.0026191312706125031 0 0.020567210676466951 0.0031959782079730385 0 0.019339792057512167 0.0018117119023545727 0 0.02084026895580211 0.0018498149600845411 0 0.019777265804719446 0.0026191312706125031 0 0.02126126578860239 0.0012756349991635337 0 0.021525869085229465 0.0016878672537797845 0 0.021141151726806445 0.0020355911292318542 0 0.02126126578860239 0.0012756349991635337 0 0.021525869085229465 0.0016878672537797845 0 0.021818903238949083 0.0014319876968754831 0 0.020902680043661026 0.0015981508354656335 0 0.022136025092929862 0.0024775542899290546 0 0.021525869085229465 0.0016878672537797845 0 0.021141151726806445 0.0020355911292318542 0 0.022051370558781983 0.0018113515818802672 0 0.022136025092929862 0.0024775542899290546 0 0.021845073992380223 0.0017206056116361704 0 0.022142974538389835 0.0018962428112042208 0 0.022207949930251217 0.0017693267110466041 0 0.022022931852149121 0.0018791020301870064 0 0.021510150864220711 0.002693089840944532 0 0.022136025092929862 0.0024775542899290546 0 0.019256203283002944 0.0034252337433165955 0 0.019777265804719446 0.0026191312706125031 0 0.020567210676466951 0.0031959782079730385 0 0.025032256204076751 0.0015344717984109679 0 0.024543734999775552 0.0016332135788138743 0 0.02462832319868196 0.0013051603888240917 0 0.022136025092929862 0.0024775542899290546 0 0.027840415698127126 0.00043627225891171447 0 0.028601175841296508 0.00031276230285188415 0 0.027840415698127126 0.00043627225891171447 0 0.031246700232812091 -0.00070625470005828924 0 0.031208848360321877 -0.00032965824658782815 0 0.031216467215156602 -0.00040351259775724585 0 0.027840415698127126 0.00043627225891171447 0 0.031193529851048545 -0.00074091988266281115 0 0.030587202785178652 0.00036690276752638317 0 0.030244309024239812 -0.00021280625820798162 0 0.029698122314751409 0.00018511383800243227 0 0.027840415698127126 0.00043627225891171447 0 0.029514981838306861 5.5730437946568519e-05 0 0.02907452249416204 -4.3856983418890797e-05 0 0.028577067442008199 0.00025415339581687083 0 0.028664363529319871 -0.00014841293409416766 0 0.027840415698127126 0.00043627225891171447 0 0.024840185148251145 0.0012154471498268446 0 0.030244309024239812 -0.00021280625820798162 0 0.030035852482767647 -0.00082132907746315837 0 0.030920968297035702 -0.00059079574824027169 0 0.029816561609894689 -0.00037614289555294082 0 0.030244309024239812 -0.00021280625820798162 0 0.029698122314751409 0.00018511383800243227 0 0.029816561609894689 -0.00037614289555294082 0 0.030035852482767647 -0.00082132907746315837 0 0.02926054204883306 -0.00059320477127249624 0 0.029816561609894689 -0.00037614289555294082 0 0.030244309024239812 -0.00021280625820798162 0 0.030035852482767647 -0.00082132907746315837 0 0.030035852482767647 -0.00082132907746315837 0 0.030695267478736177 -0.0011682602991780109 0 0.02981401889224693 -0.0015781401273158976 0 0.030035852482767647 -0.00082132907746315837 0 0.02981401889224693 -0.0015781401273158976 0 0.02950578798435748 -0.0010796862287008617 0 0.030035852482767647 -0.00082132907746315837 0 0.030920968297035702 -0.00059079574824027169 0 0.030695267478736177 -0.0011682602991780109 0 0.030920968297035702 -0.00059079574824027169 0 0.030695267478736177 -0.0011682602991780109 0 0.031300559739921033 -0.0010452183002052956 0 0.030587202785178652 0.00036690276752638317 0 0.030244309024239812 -0.00021280625820798162 0 0.030920968297035702 -0.00059079574824027169 0 0.031138020734391588 -0.00035991626632850867 0 0.031216467215156602 -0.00040351259775724585 0 0.030920968297035702 -0.00059079574824027169 0 0.027840415698127126 0.00043627225891171447 0 0.031597036944781172 -0.00087826952170802508 0 0.031216467215156602 -0.00040351259775724585 0 0.030920968297035702 -0.00059079574824027169 0 0.031283326736626815 -0.0003916816263474276 0 0.031283326736626815 -0.0003916816263474276 0 0.031223247971627774 -0.00031115355318138909 0 0.031642545985498358 -0.00037543527727672369 0 0.031279643616462099 -0.00046775460552147977 0 0.031216467215156602 -0.00040351259775724585 0 0.031283326736626815 -0.0003916816263474276 0 0.030920968297035702 -0.00059079574824027169 0 0.031283326736626815 -0.0003916816263474276 0 0.031642545985498358 -0.00037543527727672369 0 0.031279643616462099 -0.00046775460552147977 0 0.031283326736626815 -0.0003916816263474276 0 0.031223247971627774 -0.00031115355318138909 0 0.031125961243440411 -0.00026935548926013109 0 0.030119958380242322 -0.00012541320739543042 0 0.030130864258171096 -0.00065366043057698924 0 0.031223247971627774 -0.00031115355318138909 0 0.029167412673487943 0.00026862199660959756 0 0.031223247971627774 -0.00031115355318138909 0 0.031297807709244514 -0.00034892142542414413 0 0.031642545985498358 -0.00037543527727672369 0 0.031223247971627774 -0.00031115355318138909 0 0.031297807709244514 -0.00034892142542414413 0 0.031118136380422906 -0.00047648585148114348 0 0.031297807709244514 -0.00034892142542414413 0 0.031642545985498358 -0.00037543527727672369 0 0.031159926403675004 -8.9803705463893229e-05 0 0.031642545985498358 -0.00037543527727672369 0 0.032999652326600952 -0.00080458039905025416 0 0.033985684032884204 -0.0004979770303034823 0 0.031743687917663806 -0.00033209299719209613 0 0.032534749650898726 -0.00031947799429498454 0 0.030920968297035702 -0.00059079574824027169 0 0.031642545985498358 -0.00037543527727672369 0 0.031300559739921033 -0.0010452183002052956 0 0.031642545985498358 -0.00037543527727672369 0 0.031300559739921033 -0.0010452183002052956 0 0.032304709758122253 -0.0012925762470607279 0 0.031300559739921033 -0.0010452183002052956 0 0.032304709758122253 -0.0012925762470607279 0 0.031672702989635829 -0.001872979804538833 0 0.031300559739921033 -0.0010452183002052956 0 0.031672702989635829 -0.001872979804538833 0 0.031067075119628876 -0.001555074127089889 0 0.032999652326600952 -0.00080458039905025416 0 0.032304709758122253 -0.0012925762470607279 0 0.034023017711542737 -0.0010118454452000024 0 0.031642545985498358 -0.00037543527727672369 0 0.032999652326600952 -0.00080458039905025416 0 0.032304709758122253 -0.0012925762470607279 0 0.032304709758122253 -0.0012925762470607279 0 0.032593753418607756 -0.002677068252059251 0 0.031672702989635829 -0.001872979804538833 0 0.032304709758122253 -0.0012925762470607279 0 0.032593753418607756 -0.002677068252059251 0 0.034023017711542737 -0.0010118454452000024 0 0.033710783592437024 -0.0017303800358866449 0 0.03404356625802276 -0.0010110557870783481 0 0.032593753418607756 -0.002677068252059251 0 0.031672702989635829 -0.001872979804538833 0 0.031460892158682745 -0.0025352186556563345 0 0.031672702989635829 -0.001872979804538833 0 0.031053706408772263 -0.0020248572346020896 0 0.031067075119628876 -0.001555074127089889 0 0.031672702989635829 -0.001872979804538833 0 0.031460892158682745 -0.0025352186556563345 0 0.031053706408772263 -0.0020248572346020896 0 0.031460892158682745 -0.0025352186556563345 0 0.031053706408772263 -0.0020248572346020896 0 0.030542935267030856 -0.0024412143452826793 0 0.031053706408772263 -0.0020248572346020896 0 0.030542935267030856 -0.0024412143452826793 0 0.030631567278744658 -0.0017536163824792431 0 0.029273463025683562 -0.0018305147675894021 0 0.029540326821749282 -0.0015561338166974834 0 0.029198481260998034 -0.001184848040263208 0 0.029213034218433392 -0.00097840990749651865 0 0.029305768168810021 -0.0010201767309147543 0 0.028777252842743874 -0.0011166844672550527 0 0.029198481260998034 -0.001184848040263208 0 0.029229734670233161 -0.0015180242829435811 0 0.030542935267030856 -0.0024412143452826793 0 0.02981401889224693 -0.0015781401273158976 0 0.030631567278744658 -0.0017536163824792431 0 0.028777252842743874 -0.0011166844672550527 0 0.029198481260998034 -0.001184848040263208 0 0.029213034218433392 -0.00097840990749651865 0 0.030695267478736177 -0.0011682602991780109 0 0.02981401889224693 -0.0015781401273158976 0 0.030631567278744658 -0.0017536163824792431 0 0.030695267478736177 -0.0011682602991780109 0 0.031300559739921033 -0.0010452183002052956 0 0.031067075119628876 -0.001555074127089889 0 0.031053706408772263 -0.0020248572346020896 0 0.031067075119628876 -0.001555074127089889 0 0.030631567278744658 -0.0017536163824792431 0 0.030695267478736177 -0.0011682602991780109 0 0.031067075119628876 -0.001555074127089889 0 0.030631567278744658 -0.0017536163824792431 0 0.030036627902887105 2.2114061441982502e-05 0 0.030357806540832245 -9.3414806609865174e-05 0 0.030092211278030068 -0.00019859752069777663 0 0.030357806540832245 -9.3414806609865174e-05 0 0.030092211278030068 -0.00019859752069777663 0 0.030257258554716053 -0.00036785304262229948 0 0.030357806540832245 -9.3414806609865174e-05 0 0.030257258554716053 -0.00036785304262229948 0 0.030502551854476589 -0.00034437766035356831 0 0.030092211278030068 -0.00019859752069777663 0 0.03009455778680158 -0.00032935948709221605 0 0.030257258554716053 -0.00036785304262229948 0 0.029999757289379633 -0.00030744229169584364 0 0.030092211278030068 -0.00019859752069777663 0 0.03009455778680158 -0.00032935948709221605 0 0.025383039057350842 0.0001278861979216075 0 0.025463408132193398 0.00086887927772980424 0 0.028132934361131744 0.00010202966359161815 0 0.030026723860535096 -0.00044252795840644472 0 0.03009455778680158 -0.00032935948709221605 0 0.030257258554716053 -0.00036785304262229948 0 0.024034393933871481 0.00034216602319331042 0 0.025088766529992115 -0.0002548403891899757 0 0.025868929460313196 0.00039397298358610528 0 0.030026723860535096 -0.00044252795840644472 0 0.030257258554716053 -0.00036785304262229948 0 0.030413973021284145 -0.0005398864773492651 0 0.028088771382804963 0.00013996264924381055 0 0.028066415845057594 -3.9767601628912617e-05 0 0.024497422710764123 0.00025158238431209097 0 0.028066415845057594 -3.9767601628912617e-05 0 0.024034393933871481 0.00034216602319331042 0 0.023999330760870179 -0.00036980305125720051 0 0.025088766529992115 -0.0002548403891899757 0 0.030257258554716053 -0.00036785304262229948 0 0.030502551854476589 -0.00034437766035356831 0 0.030413973021284145 -0.0005398864773492651 0 0.030502551854476589 -0.00034437766035356831 0 0.030413973021284145 -0.0005398864773492651 0 0.030564769134042127 -0.00053824388935837741 0 0.025088766529992115 -0.0002548403891899757 0 0.025868929460313196 0.00039397298358610528 0 0.026561918725296164 0.00039986429968887045 0 0.026104381204043285 -0.00055860753980639189 0 0.025088766529992115 -0.0002548403891899757 0 0.026561918725296164 0.00039986429968887045 0 0.028066415845057594 -3.9767601628912617e-05 0 0.028559479981736576 -6.1568891481601285e-05 0 0.026842723986668596 -0.00040634844968951464 0 0.027759796062959696 -0.00032267928539759724 0 0.026561918725296164 0.00039986429968887045 0 0.030502551854476589 -0.00034437766035356831 0 0.030564769134042127 -0.00053824388935837741 0 0.030763122403890446 -0.00035085260109563303 0 0.030357806540832245 -9.3414806609865174e-05 0 0.030667945596047359 -0.0001816401794165554 0 0.030724747984941757 8.622823432611323e-05 0 0.030502551854476589 -0.00034437766035356831 0 0.030667945596047359 -0.0001816401794165554 0 0.030763122403890446 -0.00035085260109563303 0 0.030357806540832245 -9.3414806609865174e-05 0 0.030502551854476589 -0.00034437766035356831 0 0.030667945596047359 -0.0001816401794165554 0 0.030923947308621691 -0.00022629611192804527 0 0.031159926403675004 -8.9803705463893229e-05 0 0.030724747984941757 8.622823432611323e-05 0 0.030667945596047359 -0.0001816401794165554 0 0.030923947308621691 -0.00022629611192804527 0 0.030724747984941757 8.622823432611323e-05 0 0.030667945596047359 -0.0001816401794165554 0 0.030923947308621691 -0.00022629611192804527 0 0.030763122403890446 -0.00035085260109563303 0 0.028559479981736576 -6.1568891481601285e-05 0 0.030119958380242322 -0.00012541320739543042 0 0.027759796062959696 -0.00032267928539759724 0 0.026561918725296164 0.00039986429968887045 0 0.029167412673487943 0.00026862199660959756 0 0.030564769134042127 -0.00053824388935837741 0 0.030763122403890446 -0.00035085260109563303 0 0.031118136380422906 -0.00047648585148114348 0 0.030923947308621691 -0.00022629611192804527 0 0.030763122403890446 -0.00035085260109563303 0 0.031118136380422906 -0.00047648585148114348 0 0.030923947308621691 -0.00022629611192804527 0 0.031118136380422906 -0.00047648585148114348 0 0.031122853208047564 -0.00029424054595314703 0 0.031297807709244514 -0.00034892142542414413 0 0.031118136380422906 -0.00047648585148114348 0 0.031122853208047564 -0.00029424054595314703 0 0.031297807709244514 -0.00034892142542414413 0 0.031122853208047564 -0.00029424054595314703 0 0.031159926403675004 -8.9803705463893229e-05 0 0.030923947308621691 -0.00022629611192804527 0 0.031122853208047564 -0.00029424054595314703 0 0.031159926403675004 -8.9803705463893229e-05 0 0.033985684032884204 -0.0004979770303034823 0 0.034023017711542737 -0.0010118454452000024 0 0.034392633352501152 -0.00056721132191658993 0 0.032999652326600952 -0.00080458039905025416 0 0.033985684032884204 -0.0004979770303034823 0 0.034023017711542737 -0.0010118454452000024 0 0.034023017711542737 -0.0010118454452000024 0 0.034373138662973576 -0.0006631140597929202 0 0.034316565050969944 -0.00062878043936468689 0 0.034795145913937224 -0.0006035097914774127 0 0.034023017711542737 -0.0010118454452000024 0 0.034373138662973576 -0.0006631140597929202 0 0.034373138662973576 -0.0006631140597929202 0 0.034316565050969944 -0.00062878043936468689 0 0.034552332248822828 -0.00041966504662542173 0 0.034023017711542737 -0.0010118454452000024 0 0.034316565050969944 -0.00062878043936468689 0 0.034392633352501152 -0.00056721132191658993 0 0.032534749650898726 -0.00031947799429498454 0 0.032562696187295258 -0.00023290901250299625 0 0.032562696187295258 -0.00023290901250299625 0 0.032318093302198585 -8.1399466918066844e-05 0 0.030357806540832245 -9.3414806609865174e-05 0 0.030724747984941757 8.622823432611323e-05 0 0.030183643118416318 0.0002386306427803821 0 0.034316565050969944 -0.00062878043936468689 0 0.034392633352501152 -0.00056721132191658993 0 0.034415066703133379 -0.00041965524162164241 0 0.034392633352501152 -0.00056721132191658993 0 0.034422369054476536 -0.0003846086410858458 0 0.034415066703133379 -0.00041965524162164241 0 0.034479075823076168 -0.00031787348987429129 0 0.034422369054476536 -0.0003846086410858458 0 0.034415066703133379 -0.00041965524162164241 0 0.030036627902887105 2.2114061441982502e-05 0 0.030357806540832245 -9.3414806609865174e-05 0 0.030183643118416318 0.0002386306427803821 0 0.034316565050969944 -0.00062878043936468689 0 0.034415066703133379 -0.00041965524162164241 0 0.034420763264879292 -0.00034289506799819921 0 0.034513833088566391 -0.00029357423263447321 0 0.034497870812256283 -0.00030965817105608985 0 0.034415066703133379 -0.00041965524162164241 0 0.034513833088566391 -0.00029357423263447321 0 0.034479075823076168 -0.00031787348987429129 0 0.034415066703133379 -0.00041965524162164241 0 0.034497870812256283 -0.00030965817105608985 0 0.034420763264879292 -0.00034289506799819921 0 0.034519828876699139 -0.00031111163681288133 0 0.034497870812256283 -0.00030965817105608985 0 0.034415066703133379 -0.00041965524162164241 0 0.034420763264879292 -0.00034289506799819921 0 0.034316565050969944 -0.00062878043936468689 0 0.034420763264879292 -0.00034289506799819921 0 0.034552332248822828 -0.00041966504662542173 0 0.034844629563455611 -0.00013380525771948307 0 0.034552332248822828 -0.00041966504662542173 0 0.034806360300552328 -0.00015487946473130264 0 0.034637699831382221 -0.00025896036089791314 0 0.03458920217286026 -0.00040155326848935469 0 0.034795145913937224 -0.0006035097914774127 0 0.034373138662973576 -0.0006631140597929202 0 0.034552332248822828 -0.00041966504662542173 0 0.034552332248822828 -0.00041966504662542173 0 0.034753610794695057 -0.00024447810075773848 0 0.03482975349173846 -0.00028133399059310189 0 0.034552332248822828 -0.00041966504662542173 0 0.034806360300552328 -0.00015487946473130264 0 0.034753610794695057 -0.00024447810075773848 0 0.034806360300552328 -0.00015487946473130264 0 0.034753610794695057 -0.00024447810075773848 0 0.034850919023529214 -0.00016242269140762732 0 0.034806360300552328 -0.00015487946473130264 0 0.034918431589544718 -7.69173216005942e-05 0 0.034850919023529214 -0.00016242269140762732 0 0.034806360300552328 -0.00015487946473130264 0 0.034918431589544718 -7.69173216005942e-05 0 0.034929265821183705 -6.5939672141196576e-05 0 0.034918431589544718 -7.69173216005942e-05 0 0.034929265821183705 -6.5939672141196576e-05 0 0.034999866024735919 -3.9392546871485579e-08 0 0.034929265821183705 -6.5939672141196576e-05 0 0.034999965730063344 -7.5762628625228836e-08 0 0.034999866024735919 -3.9392546871485579e-08 0 0.034929265821183705 -6.5939672141196576e-05 0 0.034999965730063344 -7.5762628625228836e-08 0 0.03492926375067576 -0.00010133824881250097 0 0.034806360300552328 -0.00015487946473130264 0 0.034929265821183705 -6.5939672141196576e-05 0 0.03492926375067576 -0.00010133824881250097 0 0.034844629563455611 -0.00013380525771948307 0 0.034806360300552328 -0.00015487946473130264 0 0.03492926375067576 -0.00010133824881250097 0 0.034844629563455611 -0.00013380525771948307 0 0.03492926375067576 -0.00010133824881250097 0 0.034960193476891041 -0.00012481837513365909 0 0.034637699831382221 -0.00025896036089791314 0 0.0347230164841194 -0.0002113416155792501 0 0.034999965730063344 -7.5762628625228836e-08 0 0.03492926375067576 -0.00010133824881250097 0 0.034999543398897048 -1.2627608326973033e-07 0 0.03492926375067576 -0.00010133824881250097 0 0.034999543398897048 -1.2627608326973033e-07 0 0.034960193476891041 -0.00012481837513365909 0 0.034684550723621588 -0.00016992710804077338 0 0.034999543398897048 -1.2627608326973033e-07 0 0.034960193476891041 -0.00012481837513365909 0 0.034671663350505998 -0.00016006527088673788 0 0.0347230164841194 -0.0002113416155792501 0 0.034571460520756492 -0.00027552724011296284 0 0.034497870812256283 -0.00030965817105608985 0 0.034519828876699139 -0.00031111163681288133 0 0.034571460520756492 -0.00027552724011296284 0 0.034684550723621588 -0.00016992710804077338 0 0.034519828876699139 -0.00031111163681288133 0 0.035058967738478601 0.00023845137341937928 0 0.035038375291428829 0.00026549159280366165 0 0.035047962422614778 0.00024109935655756688 0 0.033378169118724259 -0.00052125198999714364 0 0.035416319227888918 0.00022604928876132044 0 0.032016724418659916 0.00048729512473944274 0 0.032194909563315527 -0.000719056857674797 0 0.035058967738478601 0.00023845137341937928 0 0.035046742690220498 0.00024383707061285755 0 0.035090676949845065 0.00020414991269311137 0 0.035058967738478601 0.00023845137341937928 0 0.035038375291428829 0.00026549159280366165 0 0.035043542117596548 0.00023502235601237598 0 0.035038375291428829 0.00026549159280366165 0 0.035043542117596548 0.00023502235601237598 0 0.035009531723831533 0.00027467285838314403 0 0.029329226359794337 0.00049465979620186556 0 0.029213034218433392 -0.00097840990749651865 0 0.028827299331699051 -0.00065208318294500487 0 0.029329226359794337 0.00049465979620186556 0 0.029213034218433392 -0.00097840990749651865 0 0.030317355981477348 -0.00023643264615855973 0 0.028777252842743874 -0.0011166844672550527 0 0.029213034218433392 -0.00097840990749651865 0 0.028827299331699051 -0.00065208318294500487 0 0.029273463025683562 -0.0018305147675894021 0 0.032194909563315527 -0.000719056857674797 0 0.028777252842743874 -0.0011166844672550527 0 0.028489881655046283 -0.00019716749743885523 0 0.027585203708866027 0.00015411307615249164 0 0.028777252842743874 -0.0011166844672550527 0 0.028827299331699051 -0.00065208318294500487 0 0.028489881655046283 -0.00019716749743885523 0 0.029329226359794337 0.00049465979620186556 0 0.028489881655046283 -0.00019716749743885523 0 0.027585203708866027 0.00015411307615249164 0 0.030542935267030856 -0.0024412143452826793 0 0.031534607542207674 -0.0031848724223943049 0 0.031497988102198018 -0.003682388215788241 0 0.031460892158682745 -0.0025352186556563345 0 0.030542935267030856 -0.0024412143452826793 0 0.031534607542207674 -0.0031848724223943049 0 0.029329226359794337 0.00049465979620186556 0 0.028827299331699051 -0.00065208318294500487 0 0.028489881655046283 -0.00019716749743885523 0 0.033710783592437024 -0.0017303800358866449 0 0.032845477092632816 -0.0010446473566278148 0 0.032593753418607756 -0.002677068252059251 0 0.031534607542207674 -0.0031848724223943049 0 0.031654902739603794 -0.0036672442559811131 0 0.034795145913937224 -0.0006035097914774127 0 0.03505534424300432 -0.00031674956935543781 0 0.034935949970875665 -0.00032474180664591231 0 0.032593753418607756 -0.002677068252059251 0 0.031460892158682745 -0.0025352186556563345 0 0.031534607542207674 -0.0031848724223943049 0 0.031534607542207674 -0.0031848724223943049 0 0.031497988102198018 -0.003682388215788241 0 0.031654902739603794 -0.0036672442559811131 0 0.034795145913937224 -0.0006035097914774127 0 0.03482975349173846 -0.00028133399059310189 0 0.034935949970875665 -0.00032474180664591231 0 0.034795145913937224 -0.0006035097914774127 0 0.034552332248822828 -0.00041966504662542173 0 0.03482975349173846 -0.00028133399059310189 0 0.03482975349173846 -0.00028133399059310189 0 0.034935949970875665 -0.00032474180664591231 0 0.034956666939592346 -0.00022103281447161964 0 0.03482975349173846 -0.00028133399059310189 0 0.034926367040366939 -0.00017579905047120122 0 0.034956666939592346 -0.00022103281447161964 0 0.03482975349173846 -0.00028133399059310189 0 0.034926367040366939 -0.00017579905047120122 0 0.034850919023529214 -0.00016242269140762732 0 0.034753610794695057 -0.00024447810075773848 0 0.03482975349173846 -0.00028133399059310189 0 0.034850919023529214 -0.00016242269140762732 0 0.035036179062284255 -0.00026094337277423311 0 0.035016992107687987 -0.00016442171644680346 0 0.03514093468376403 -0.00010039991346010699 0 0.035058967738478601 0.00023845137341937928 0 0.035047962422614778 0.00024109935655756688 0 0.035046742690220498 0.00024383707061285755 0 0.03507210108467617 -0.00029066854191325993 0 0.035029623946790205 -0.00027592609032982393 0 0.035015311157655465 -0.0002349215979996525 0 0.033378169118724259 -0.00052125198999714364 0 0.033964362378841997 -0.00071843890742648167 0 0.032194909563315527 -0.000719056857674797 0 0.032845477092632816 -0.0010446473566278148 0 0.033308233625998961 -0.0011206851384603707 0 0.033235867585985547 -0.0010332839804021578 0 0.033155800338190759 -0.0011352947973736003 0 0.032194909563315527 -0.000719056857674797 0 0.033378169118724259 -0.00052125198999714364 0 0.03507210108467617 -0.00029066854191325993 0 0.03505534424300432 -0.00031674956935543781 0 0.035029623946790205 -0.00027592609032982393 0 0.033378169118724259 -0.00052125198999714364 0 0.032845477092632816 -0.0010446473566278148 0 0.03505534424300432 -0.00031674956935543781 0 0.035006124759183202 -0.00029553276959425442 0 0.034935949970875665 -0.00032474180664591231 0 0.034935949970875665 -0.00032474180664591231 0 0.03498111681305266 -0.00026521565631528555 0 0.034956666939592346 -0.00022103281447161964 0 0.035006124759183202 -0.00029553276959425442 0 0.035029623946790205 -0.00027592609032982393 0 0.03498111681305266 -0.00026521565631528555 0 0.03505534424300432 -0.00031674956935543781 0 0.035006124759183202 -0.00029553276959425442 0 0.035029623946790205 -0.00027592609032982393 0 0.035006124759183202 -0.00029553276959425442 0 0.034935949970875665 -0.00032474180664591231 0 0.03498111681305266 -0.00026521565631528555 0 0.03498111681305266 -0.00026521565631528555 0 0.035015311157655465 -0.0002349215979996525 0 0.034956666939592346 -0.00022103281447161964 0 0.035029623946790205 -0.00027592609032982393 0 0.03498111681305266 -0.00026521565631528555 0 0.035015311157655465 -0.0002349215979996525 0 0.034926367040366939 -0.00017579905047120122 0 0.035016992107687987 -0.00016442171644680346 0 0.034956666939592346 -0.00022103281447161964 0 0.035015311157655465 -0.0002349215979996525 0 0.035016992107687987 -0.00016442171644680346 0 0.034956666939592346 -0.00022103281447161964 0 0.035036179062284255 -0.00026094337277423311 0 0.035015311157655465 -0.0002349215979996525 0 0.035016992107687987 -0.00016442171644680346 0 0.035016992107687987 -0.00016442171644680346 0 0.035047691313305013 -8.1007792528094196e-05 0 0.03514093468376403 -0.00010039991346010699 0 0.035016992107687987 -0.00016442171644680346 0 0.035047691313305013 -8.1007792528094196e-05 0 0.034963631326472365 -9.6474143957466605e-05 0 0.035047691313305013 -8.1007792528094196e-05 0 0.034963631326472365 -9.6474143957466605e-05 0 0.035015588807504029 -4.6520315009697589e-05 0 0.034918431589544718 -7.69173216005942e-05 0 0.034850919023529214 -0.00016242269140762732 0 0.034963631326472365 -9.6474143957466605e-05 0 0.034926367040366939 -0.00017579905047120122 0 0.034850919023529214 -0.00016242269140762732 0 0.034963631326472365 -9.6474143957466605e-05 0 0.034926367040366939 -0.00017579905047120122 0 0.035016992107687987 -0.00016442171644680346 0 0.034963631326472365 -9.6474143957466605e-05 0 0.034918431589544718 -7.69173216005942e-05 0 0.034963631326472365 -9.6474143957466605e-05 0 0.034979856871347241 -2.8537405314936011e-05 0 0.034999866024735919 -3.9392546871485579e-08 0 0.034979856871347241 -2.8537405314936011e-05 0 0.035000036224640679 1.9352080880543343e-09 0 0.034918431589544718 -7.69173216005942e-05 0 0.034999866024735919 -3.9392546871485579e-08 0 0.034979856871347241 -2.8537405314936011e-05 0 0.034963631326472365 -9.6474143957466605e-05 0 0.034979856871347241 -2.8537405314936011e-05 0 0.035015588807504029 -4.6520315009697589e-05 0 0.034979856871347241 -2.8537405314936011e-05 0 0.03499947017961174 3.3911586113988765e-07 0 0.035000036224640679 1.9352080880543343e-09 0 0.034979856871347241 -2.8537405314936011e-05 0 0.035015588807504029 -4.6520315009697589e-05 0 0.035086499013795215 -9.7542734562086422e-06 0 0.034974970942714317 -2.8660236264744609e-05 0 0.03505704417272535 4.1067620585011356e-06 0 0.035047691313305013 -8.1007792528094196e-05 0 0.035062954500989049 -4.7908673701228962e-05 0 0.035015588807504029 -4.6520315009697589e-05 0 0.035062954500989049 -4.7908673701228962e-05 0 0.035015588807504029 -4.6520315009697589e-05 0 0.035086499013795215 -9.7542734562086422e-06 0 0.035047691313305013 -8.1007792528094196e-05 0 0.035062954500989049 -4.7908673701228962e-05 0 0.035096321946425493 -5.3438681047058523e-05 0 0.03499947017961174 3.3911586113988765e-07 0 0.035000036224640679 1.9352080880543343e-09 0 0.034973030319374855 -2.9001148149243769e-09 0 0.035086499013795215 -9.7542734562086422e-06 0 0.035121099524373658 -3.9249888406362172e-05 0 0.035157266634287684 -1.7919373366409136e-05 0 0.035121099524373658 -3.9249888406362172e-05 0 0.03514093468376403 -0.00010039991346010699 0 0.035157266634287684 -1.7919373366409136e-05 0 0.035062954500989049 -4.7908673701228962e-05 0 0.035086499013795215 -9.7542734562086422e-06 0 0.035096321946425493 -5.3438681047058523e-05 0 0.035086499013795215 -9.7542734562086422e-06 0 0.035121099524373658 -3.9249888406362172e-05 0 0.035096321946425493 -5.3438681047058523e-05 0 0.035047691313305013 -8.1007792528094196e-05 0 0.035096321946425493 -5.3438681047058523e-05 0 0.03514093468376403 -0.00010039991346010699 0 0.035121099524373658 -3.9249888406362172e-05 0 0.035096321946425493 -5.3438681047058523e-05 0 0.03514093468376403 -0.00010039991346010699 0 0.035058967738478601 0.00023845137341937928 0 0.035090676949845065 0.00020414991269311137 0 0.035043542117596548 0.00023502235601237598 0 0.035043542117596548 0.00023502235601237598 0 0.035026798476375298 0.00015119953488986995 0 0.03500675661383891 0.00018852898160225435 0 0.035090676949845065 0.00020414991269311137 0 0.035043542117596548 0.00023502235601237598 0 0.035026798476375298 0.00015119953488986995 0 0.035026798476375298 0.00015119953488986995 0 0.035000902914652236 8.8923065907307703e-05 0 0.03500675661383891 0.00018852898160225435 0 0.03505704417272535 4.1067620585011356e-06 0 0.03503903526134329 -6.3844032720170141e-05 0 0.035416319227888918 0.00022604928876132044 0 0.03503903526134329 -6.3844032720170141e-05 0 0.03514093468376403 -0.00010039991346010699 0 0.035157266634287684 -1.7919373366409136e-05 0 0.035227709599251929 1.7374556307654084e-05 0 0.035090676949845065 0.00020414991269311137 0 0.035026798476375298 0.00015119953488986995 0 0.034973444440067503 8.3809668726545946e-08 0 0.035086499013795215 -9.7542734562086422e-06 0 0.035157266634287684 -1.7919373366409136e-05 0 0.035227709599251929 1.7374556307654084e-05 0 0.035026798476375298 0.00015119953488986995 0 0.034973444440067503 8.3809668726545946e-08 0 0.035000902914652236 8.8923065907307703e-05 0 0.034999789315530432 -1.0471574240045293e-08 0 0.034973444440067503 8.3809668726545946e-08 0 0.035000902914652236 8.8923065907307703e-05 0 0.034999789315530432 -1.0471574240045293e-08 0 0.034984024759870738 0.00011110074773462902 0 0.035000215801833393 2.6843152079330812e-07 0 0.034999789315530432 -1.0471574240045293e-08 0 0.034984024759870738 0.00011110074773462902 0 0.035000902914652236 8.8923065907307703e-05 0 0.034984024759870738 0.00011110074773462902 0 0.035000215801833393 2.6843152079330812e-07 0 0.034857691425648686 0.00021727929870937716 0 0.035000215801833393 2.6843152079330812e-07 0 0.034857691425648686 0.00021727929870937716 0 0.034858215212634415 0.00011778016179434913 0 0.034984024759870738 0.00011110074773462902 0 0.034857691425648686 0.00021727929870937716 0 0.03495281674584759 0.00025513595580992299 0 0.034857691425648686 0.00021727929870937716 0 0.03495281674584759 0.00025513595580992299 0 0.034787828545480508 0.00033716680088654053 0 0.034984024759870738 0.00011110074773462902 0 0.035000902914652236 8.8923065907307703e-05 0 0.03500675661383891 0.00018852898160225435 0 0.034984024759870738 0.00011110074773462902 0 0.03495281674584759 0.00025513595580992299 0 0.03500675661383891 0.00018852898160225435 0 0.03495281674584759 0.00025513595580992299 0 0.03500675661383891 0.00018852898160225435 0 0.035009531723831533 0.00027467285838314403 0 0.035043542117596548 0.00023502235601237598 0 0.03500675661383891 0.00018852898160225435 0 0.035009531723831533 0.00027467285838314403 0 0.035038375291428829 0.00026549159280366165 0 0.035009531723831533 0.00027467285838314403 0 0.034962020289965909 0.00039702023223995968 0 0.029329226359794337 0.00049465979620186556 0 0.032083162450228513 0.00081278316094482558 0 0.030317355981477348 -0.00023643264615855973 0 0.032016724418659916 0.00048729512473944274 0 0.033543632491161324 0.00056953537806976237 0 0.03495281674584759 0.00025513595580992299 0 0.035009531723831533 0.00027467285838314403 0 0.034962020289965909 0.00039702023223995968 0 0.03495281674584759 0.00025513595580992299 0 0.034787828545480508 0.00033716680088654053 0 0.034962020289965909 0.00039702023223995968 0 0.033543632491161324 0.00056953537806976237 0 0.034324758601028356 0.0005904107893693999 0 0.034787828545480508 0.00033716680088654053 0 0.034962020289965909 0.00039702023223995968 0 0.034424650730880968 0.00057033416105959451 0 0.032083162450228513 0.00081278316094482558 0 0.031773134661505921 -0.00050928825020181651 0 0.034086460747428382 0.00019767359176949914 0 0.029978551096654572 -0.00053458649969469023 0 0.029391156276172961 -0.00059254227864033936 0 0.029595995872282538 -0.00088821215176505841 0 0.029978551096654572 -0.00053458649969469023 0 0.029391156276172961 -0.00059254227864033936 0 0.030318230294237077 7.8146975305417828e-05 0 0.030602768781153127 -0.00052611827448380689 0 0.032180894052052635 0.00014097994482613831 0 0.029391156276172961 -0.00059254227864033936 0 0.029305768168810021 -0.0010201767309147543 0 0.029595995872282538 -0.00088821215176505841 0 0.029213034218433392 -0.00097840990749651865 0 0.029391156276172961 -0.00059254227864033936 0 0.029305768168810021 -0.0010201767309147543 0 0.029213034218433392 -0.00097840990749651865 0 0.030317355981477348 -0.00023643264615855973 0 0.031773134661505921 -0.00050928825020181651 0 0.029332946392811681 -0.0009478765677359346 0 0.030602768781153127 -0.00052611827448380689 0 0.032083162450228513 0.00081278316094482558 0 0.030317355981477348 -0.00023643264615855973 0 0.031773134661505921 -0.00050928825020181651 0 0.031117473052241544 -9.0335108361519405e-05 0 0.031711804922101315 -0.00011386483451582623 0 0.031294368610594633 -0.0005327486430152117 0 0.031711804922101315 -0.00011386483451582623 0 0.031294368610594633 -0.0005327486430152117 0 0.031955345862468669 -0.00048946599584494483 0 0.031117473052241544 -9.0335108361519405e-05 0 0.031294368610594633 -0.0005327486430152117 0 0.030601703043275578 -0.00043429944702253083 0 0.029978551096654572 -0.00053458649969469023 0 0.030601703043275578 -0.00043429944702253083 0 0.030183862407281877 -0.00086207912788379922 0 0.029978551096654572 -0.00053458649969469023 0 0.030601703043275578 -0.00043429944702253083 0 0.030318230294237077 7.8146975305417828e-05 0 0.031117473052241544 -9.0335108361519405e-05 0 0.030601703043275578 -0.00043429944702253083 0 0.030318230294237077 7.8146975305417828e-05 0 0.032083162450228513 0.00081278316094482558 0 0.034086460747428382 0.00019767359176949914 0 0.034424650730880968 0.00057033416105959451 0 0.034787828545480508 0.00033716680088654053 0 0.034424650730880968 0.00057033416105959451 0 0.034665637264167798 0.00035187582299543669 0 0.034424650730880968 0.00057033416105959451 0 0.034505357093274472 0.00051133239541585748 0 0.034665637264167798 0.00035187582299543669 0 0.031117473052241544 -9.0335108361519405e-05 0 0.030318230294237077 7.8146975305417828e-05 0 0.031671731375045732 0.00051083288352982527 0 0.034086460747428382 0.00019767359176949914 0 0.034424650730880968 0.00057033416105959451 0 0.034440618913649593 0.00078364888763911799 0 0.034424650730880968 0.00057033416105959451 0 0.034440618913649593 0.00078364888763911799 0 0.034505357093274472 0.00051133239541585748 0 0.032180894052052635 0.00014097994482613831 0 0.033014947091884052 0.00059008790569268783 0 0.031117473052241544 -9.0335108361519405e-05 0 0.031711804922101315 -0.00011386483451582623 0 0.031671731375045732 0.00051083288352982527 0 0.034505357093274472 0.00051133239541585748 0 0.034577666742384897 0.00025031851073878039 0 0.034010094423980071 0.00036392078217183918 0 0.034440618913649593 0.00078364888763911799 0 0.034505357093274472 0.00051133239541585748 0 0.034010094423980071 0.00036392078217183918 0 0.034505357093274472 0.00051133239541585748 0 0.034577666742384897 0.00025031851073878039 0 0.034665637264167798 0.00035187582299543669 0 0.034857691425648686 0.00021727929870937716 0 0.034787828545480508 0.00033716680088654053 0 0.034665637264167798 0.00035187582299543669 0 0.034577666742384897 0.00025031851073878039 0 0.034665637264167798 0.00035187582299543669 0 0.034858215212634415 0.00011778016179434913 0 0.034857691425648686 0.00021727929870937716 0 0.034665637264167798 0.00035187582299543669 0 0.034858215212634415 0.00011778016179434913 0 0.035000215801833393 2.6843152079330812e-07 0 0.034858215212634415 0.00011778016179434913 0 0.03499850600896949 -6.2117674743211885e-07 0 0.034577666742384897 0.00025031851073878039 0 0.03499850600896949 -6.2117674743211885e-07 0 0.033908902810264353 -0.00011549841979381903 0 0.034999612616130563 -1.0989901357717842e-08 0 0.034590851664810122 8.9723027283754772e-06 0 0.034577666742384897 0.00025031851073878039 0 0.034858215212634415 0.00011778016179434913 0 0.03499850600896949 -6.2117674743211885e-07 0 0.034577666742384897 0.00025031851073878039 0 0.033607034718164099 -4.6143908822518302e-05 0 0.033908902810264353 -0.00011549841979381903 0 0.034999998638618406 -4.943413460541974e-10 0 0.034999996755616741 5.5694626164601767e-10 0 0.034999156702875289 6.2395323817578294e-08 0 0.034170457452155294 3.7295299721945364e-05 0 0.034590851664810122 8.9723027283754772e-06 0 0.034999996755616741 5.5694626164601767e-10 0 0.034999156702875289 6.2395323817578294e-08 0 0.034999902226435425 9.5944934209452734e-08 0 0.034816213348714986 1.9567949343639525e-05 0 0.034782221215982172 3.0558821281898745e-05 0 0.034889643455660077 4.5166521860733549e-05 0 0.034999996755616741 5.5694626164601767e-10 0 0.034999902226435425 9.5944934209452734e-08 0 0.035000000372340412 7.8524782613836979e-11 0 0.034816213348714986 1.9567949343639525e-05 0 0.034889643455660077 4.5166521860733549e-05 0 0.034953020845272534 -9.5735343025618649e-06 0 0.034170457452155294 3.7295299721945364e-05 0 0.03432034560901253 0.00016681031413813302 0 0.034590851664810122 8.9723027283754772e-06 0 0.035002275767555775 2.7086959272077802e-05 0 0.033607034718164099 -4.6143908822518302e-05 0 0.033161833388475503 0.00052714059852181159 0 0.033105569181980529 0.00029729021754805609 0 0.033607034718164099 -4.6143908822518302e-05 0 0.033161833388475503 0.00052714059852181159 0 0.034010094423980071 0.00036392078217183918 0 0.034577666742384897 0.00025031851073878039 0 0.033607034718164099 -4.6143908822518302e-05 0 0.034010094423980071 0.00036392078217183918 0 0.034972377782134356 1.4864227441959753e-05 0 0.035000002632608974 9.9265923077185406e-09 0 0.034987503571810727 1.4843112248151971e-05 0 0.034973242788215064 3.5191912955298148e-05 0 0.034999995676417789 6.4006673138870341e-08 0 0.034999989448559088 2.9272585301349272e-09 0 0.035000000372340412 7.8524782613836979e-11 0 0.034999999649174281 3.021053038186782e-11 0 0.03498436137397655 1.0959115466283796e-05 0 0.034987503571810727 1.4843112248151971e-05 0 0.034995529559551451 1.2747706713577807e-05 0 0.034987503571810727 1.4843112248151971e-05 0 0.034973242788215064 3.5191912955298148e-05 0 0.034962093831250908 1.3241603059829602e-05 0 0.03498436137397655 1.0959115466283796e-05 0 0.034987503571810727 1.4843112248151971e-05 0 0.034962093831250908 1.3241603059829602e-05 0 0.03498436137397655 1.0959115466283796e-05 0 0.034962093831250908 1.3241603059829602e-05 0 0.034953020845272534 -9.5735343025618649e-06 0 0.034999902226435425 9.5944934209452734e-08 0 0.034999989448559088 2.9272585301349272e-09 0 0.035000000372340412 7.8524782613836979e-11 0 0.034889643455660077 4.5166521860733549e-05 0 0.034962093831250908 1.3241603059829602e-05 0 0.034953020845272534 -9.5735343025618649e-06 0 0.034889643455660077 4.5166521860733549e-05 0 0.034973242788215064 3.5191912955298148e-05 0 0.034962093831250908 1.3241603059829602e-05 0 0.035002275767555775 2.7086959272077802e-05 0 0.034972377782134356 1.4864227441959753e-05 0 0.033161833388475503 0.00052714059852181159 0 0.033105569181980529 0.00029729021754805609 0 0.03319128734875304 0.00022739637332759029 0 0.03498436137397655 1.0959115466283796e-05 0 0.034953020845272534 -9.5735343025618649e-06 0 0.034997621773721919 2.3322277653537428e-05 0 0.034973003629544537 3.2402971144052117e-05 0 0.034997621773721919 2.3322277653537428e-05 0 0.034999505607723864 3.3072359110435932e-05 0 0.03432034560901253 0.00016681031413813302 0 0.034119366886541116 6.813643779926849e-05 0 0.033105569181980529 0.00029729021754805609 0 0.03319128734875304 0.00022739637332759029 0 0.033337728337002714 9.1094146756187395e-05 0 0.03432034560901253 0.00016681031413813302 0 0.035264412575427395 -5.5527516444300626e-05 0 0.033304535624887117 6.7723136760276472e-05 0 0.03319128734875304 0.00022739637332759029 0 0.033337728337002714 9.1094146756187395e-05 0 0.0333339507877125 0.00011232449948891144 0 0.033304535624887117 6.7723136760276472e-05 0 0.033337728337002714 9.1094146756187395e-05 0 0.033161833388475503 0.00052714059852181159 0 0.03319128734875304 0.00022739637332759029 0 0.033136631855875044 0.00020383227001557564 0 0.033304535624887117 6.7723136760276472e-05 0 0.033221253608183794 0.00010136699748960841 0 0.03319128734875304 0.00022739637332759029 0 0.033221253608183794 0.00010136699748960841 0 0.033177222707714032 -2.4121766625075082e-05 0 0.033136631855875044 0.00020383227001557564 0 0.033221253608183794 0.00010136699748960841 0 0.03319128734875304 0.00022739637332759029 0 0.033136631855875044 0.00020383227001557564 0 0.033177222707714032 -2.4121766625075082e-05 0 0.033136631855875044 0.00020383227001557564 0 0.033001272136232142 -0.00015664063043198089 0 0.033177222707714032 -2.4121766625075082e-05 0 0.033224384703570149 -0.00024166457921342014 0 0.033001272136232142 -0.00015664063043198089 0 0.033224384703570149 -0.00024166457921342014 0 0.033001272136232142 -0.00015664063043198089 0 0.033039820489796271 -0.0004386557535152466 0 0.033224384703570149 -0.00024166457921342014 0 0.033398803323424923 -0.000228347786760928 0 0.033346051102264629 -0.00045585509492298599 0 0.033224384703570149 -0.00024166457921342014 0 0.033275752063403809 -6.1820116577440424e-05 0 0.033398803323424923 -0.000228347786760928 0 0.033177222707714032 -2.4121766625075082e-05 0 0.033224384703570149 -0.00024166457921342014 0 0.033275752063403809 -6.1820116577440424e-05 0 0.033304535624887117 6.7723136760276472e-05 0 0.033221253608183794 0.00010136699748960841 0 0.033275752063403809 -6.1820116577440424e-05 0 0.033221253608183794 0.00010136699748960841 0 0.033177222707714032 -2.4121766625075082e-05 0 0.033275752063403809 -6.1820116577440424e-05 0 0.0333339507877125 0.00011232449948891144 0 0.033396003161777002 0.00031586695093314065 0 0.033305176512843648 0.00026303972346644508 0 0.0333339507877125 0.00011232449948891144 0 0.033304535624887117 6.7723136760276472e-05 0 0.033398803323424923 -0.000228347786760928 0 0.033356223355154348 7.4079833467775299e-05 0 0.033181176597775502 0.00015339924604711766 0 0.033304535624887117 6.7723136760276472e-05 0 0.033275752063403809 -6.1820116577440424e-05 0 0.033398803323424923 -0.000228347786760928 0 0.033305176512843648 0.00026303972346644508 0 0.033282637405773821 0.0003758044673784211 0 0.033202176780741291 0.00025839938232330879 0 0.033396003161777002 0.00031586695093314065 0 0.033305176512843648 0.00026303972346644508 0 0.033282637405773821 0.0003758044673784211 0 0.0333339507877125 0.00011232449948891144 0 0.033305176512843648 0.00026303972346644508 0 0.033202176780741291 0.00025839938232330879 0 0.031711804922101315 -0.00011386483451582623 0 0.031671731375045732 0.00051083288352982527 0 0.032535162646774356 -8.0749528286511537e-05 0 0.033014947091884052 0.00059008790569268783 0 0.033126033631957263 0.00055517991609287814 0 0.031671731375045732 0.00051083288352982527 0 0.033161833388475503 0.00052714059852181159 0 0.032535162646774356 -8.0749528286511537e-05 0 0.034440618913649593 0.00078364888763911799 0 0.033161833388475503 0.00052714059852181159 0 0.034010094423980071 0.00036392078217183918 0 0.033161833388475503 0.00052714059852181159 0 0.033136631855875044 0.00020383227001557564 0 0.032535162646774356 -8.0749528286511537e-05 0 0.033136631855875044 0.00020383227001557564 0 0.033001272136232142 -0.00015664063043198089 0 0.032535162646774356 -8.0749528286511537e-05 0 0.032781426116291069 -0.00045949152141477829 0 0.032535162646774356 -8.0749528286511537e-05 0 0.03242467660884004 -0.00076357248152733408 0 0.033001272136232142 -0.00015664063043198089 0 0.032781426116291069 -0.00045949152141477829 0 0.033039820489796271 -0.0004386557535152466 0 0.033001272136232142 -0.00015664063043198089 0 0.032781426116291069 -0.00045949152141477829 0 0.032535162646774356 -8.0749528286511537e-05 0 0.032535162646774356 -8.0749528286511537e-05 0 0.031955345862468669 -0.00048946599584494483 0 0.03242467660884004 -0.00076357248152733408 0 0.031711804922101315 -0.00011386483451582623 0 0.032535162646774356 -8.0749528286511537e-05 0 0.031955345862468669 -0.00048946599584494483 0 0.031955345862468669 -0.00048946599584494483 0 0.031628008111853616 -0.00091851716472434678 0 0.03242467660884004 -0.00076357248152733408 0 0.029767312090626188 -0.0012386537514246247 0 0.028745082451658559 -0.0021313980172476023 0 0.03242467660884004 -0.00076357248152733408 0 0.033018307347921265 -0.0010974088960736793 0 0.031698973973336278 -0.0015822606874707295 0 0.031628008111853616 -0.00091851716472434678 0 0.03242467660884004 -0.00076357248152733408 0 0.031698973973336278 -0.0015822606874707295 0 0.03279457970477731 -0.0014052950367125377 0 0.029767312090626188 -0.0012386537514246247 0 0.032781426116291069 -0.00045949152141477829 0 0.03242467660884004 -0.00076357248152733408 0 0.032830594565527581 -0.0008217038508841378 0 0.032781426116291069 -0.00045949152141477829 0 0.032830594565527581 -0.0008217038508841378 0 0.033039820489796271 -0.0004386557535152466 0 0.027182109236719959 -0.0013889556139573076 0 0.024881131078686385 -0.0012934177687416741 0 0.025166063140370308 -0.0027470924114728571 0 0.025196989154976979 -0.0022296068909390737 0 0.025644216397985815 -0.0020520213610952932 0 0.025196989154976979 -0.0022296068909390737 0 0.024732037566277235 -0.0025024094432581538 0 0.025217292617606697 -0.0016380525314325389 0 0.025166063140370308 -0.0027470924114728571 0 0.025196989154976979 -0.0022296068909390737 0 0.024732037566277235 -0.0025024094432581538 0 0.025196989154976979 -0.0022296068909390737 0 0.025644216397985815 -0.0020520213610952932 0 0.025217292617606697 -0.0016380525314325389 0 0.025644216397985815 -0.0020520213610952932 0 0.026105645023424138 -0.0024852161635315752 0 0.026074334018973924 -0.0015516213075179668 0 0.025166063140370308 -0.0027470924114728571 0 0.025644216397985815 -0.0020520213610952932 0 0.026105645023424138 -0.0024852161635315752 0 0.03327080426452083 0.00052592833610342899 0 0.033282637405773821 0.0003758044673784211 0 0.033101722262430473 0.00047702628612211149 0 0.03327080426452083 0.00052592833610342899 0 0.033282637405773821 0.0003758044673784211 0 0.033380853461718228 0.00045381989802270958 0 0.033396003161777002 0.00031586695093314065 0 0.033282637405773821 0.0003758044673784211 0 0.033380853461718228 0.00045381989802270958 0 0.033396003161777002 0.00031586695093314065 0 0.033380853461718228 0.00045381989802270958 0 0.033453882169306531 0.00041574840305103603 0 0.033181176597775502 0.00015339924604711766 0 0.032554779071686066 0.00029368956039134636 0 0.033380853461718228 0.00045381989802270958 0 0.033331999885145583 0.0005660698259294547 0 0.033533067391180373 0.00053718539739805275 0 0.03327080426452083 0.00052592833610342899 0 0.033380853461718228 0.00045381989802270958 0 0.033331999885145583 0.0005660698259294547 0 0.028828688565025115 -0.00068567658808082609 0 0.031153440838025973 0.00011716864496094464 0 0.029554485237534935 -0.00058124337111272817 0 0.029767312090626188 -0.0012386537514246247 0 0.032554779071686066 0.00029368956039134636 0 0.032830594565527581 -0.0008217038508841378 0 0.033346051102264629 -0.00045585509492298599 0 0.033039820489796271 -0.0004386557535152466 0 0.029990744326713462 -0.00057428440451529853 0 0.032554779071686066 0.00029368956039134636 0 0.033380853461718228 0.00045381989802270958 0 0.033533067391180373 0.00053718539739805275 0 0.033453882169306531 0.00041574840305103603 0 0.033224384703570149 -0.00024166457921342014 0 0.033346051102264629 -0.00045585509492298599 0 0.033039820489796271 -0.0004386557535152466 0 0.0304638303417155 -0.00093491965828864927 0 0.031153440838025973 0.00011716864496094464 0 0.029554485237534935 -0.00058124337111272817 0 0.029767312090626188 -0.0012386537514246247 0 0.027182109236719959 -0.0013889556139573076 0 0.028828688565025115 -0.00068567658808082609 0 0.029554485237534935 -0.00058124337111272817 0 0.030136052131749861 -0.0013912213170490253 0 0.029990744326713462 -0.00057428440451529853 0 0.02988549770219863 -0.00061765793066392383 0 0.030434074341536953 -0.00093268394995884749 0 0.029554485237534935 -0.00058124337111272817 0 0.030136052131749861 -0.0013912213170490253 0 0.029990744326713462 -0.00057428440451529853 0 0.027182109236719959 -0.0013889556139573076 0 0.025263419724871606 -0.0003333774483942314 0 0.025324065523343205 -0.0004576522965882254 0 0.025545089692515597 -0.000405277610587126 0 0.028358543258713925 -0.0013528340319299685 0 0.02844963782157521 -0.0012107014667509732 0 0.027653194064023622 -0.00079023527005132367 0 0.025263419724871606 -0.0003333774483942314 0 0.025324065523343205 -0.0004576522965882254 0 0.025126559382949325 -0.00075661026785550861 0 0.028358543258713925 -0.0013528340319299685 0 0.027653194064023622 -0.00079023527005132367 0 0.02740901676739025 -0.00098133648600529479 0 0.025324065523343205 -0.0004576522965882254 0 0.025545089692515597 -0.000405277610587126 0 0.025412007464998172 -0.0004825903750358493 0 0.029990744326713462 -0.00057428440451529853 0 0.030452485798979821 -0.00012060442904459587 0 0.027182109236719959 -0.0013889556139573076 0 0.026516949021828665 -0.00050086794363287854 0 0.033331999885145583 0.0005660698259294547 0 0.033533067391180373 0.00053718539739805275 0 0.033141107374676668 0.00075427008813330808 0 0.03327080426452083 0.00052592833610342899 0 0.033331999885145583 0.0005660698259294547 0 0.033141107374676668 0.00075427008813330808 0 0.025454489241767797 -0.00051861285061050543 0 0.025569699440429527 -0.00057295324513401374 0 0.025646617232313523 -0.00047531898828913013 0 0.025545089692515597 -0.000405277610587126 0 0.025454489241767797 -0.00051861285061050543 0 0.025646617232313523 -0.00047531898828913013 0 0.025412007464998172 -0.0004825903750358493 0 0.025454489241767797 -0.00051861285061050543 0 0.025309253021542702 -0.0005696607001894554 0 0.025545089692515597 -0.000405277610587126 0 0.025412007464998172 -0.0004825903750358493 0 0.025454489241767797 -0.00051861285061050543 0 0.025454489241767797 -0.00051861285061050543 0 0.025298404763353242 -0.0006452105345879399 0 0.025569699440429527 -0.00057295324513401374 0 0.025324065523343205 -0.0004576522965882254 0 0.025309253021542702 -0.0005696607001894554 0 0.025126559382949325 -0.00075661026785550861 0 0.025042330778688688 -0.000819249764675002 0 0.025298404763353242 -0.0006452105345879399 0 0.025126559382949325 -0.00075661026785550861 0 0.025309253021542702 -0.0005696607001894554 0 0.025298404763353242 -0.0006452105345879399 0 0.025126559382949325 -0.00075661026785550861 0 0.025454489241767797 -0.00051861285061050543 0 0.025309253021542702 -0.0005696607001894554 0 0.025298404763353242 -0.0006452105345879399 0 0.025324065523343205 -0.0004576522965882254 0 0.025412007464998172 -0.0004825903750358493 0 0.025309253021542702 -0.0005696607001894554 0 0.025001804471769241 -0.00082457458415413252 0 0.024495891947827659 -0.00069219679469759003 0 0.025042330778688688 -0.000819249764675002 0 0.025298404763353242 -0.0006452105345879399 0 0.025595253749251538 -0.00077704414819415352 0 0.025298404763353242 -0.0006452105345879399 0 0.025569699440429527 -0.00057295324513401374 0 0.025595253749251538 -0.00077704414819415352 0 0.026074334018973924 -0.0015516213075179668 0 0.025217292617606697 -0.0016380525314325389 0 0.025692822749810783 -0.00068363838250088023 0 0.025644216397985815 -0.0020520213610952932 0 0.026074334018973924 -0.0015516213075179668 0 0.025217292617606697 -0.0016380525314325389 0 0.025042330778688688 -0.000819249764675002 0 0.025126559382949325 -0.00075661026785550861 0 0.025692822749810783 -0.00068363838250088023 0 0.025042330778688688 -0.000819249764675002 0 0.025692822749810783 -0.00068363838250088023 0 0.02516944795645381 -0.00030693066090287352 0 0.024881131078686385 -0.0012934177687416741 0 0.025759508943744142 -0.00060697591937688262 0 0.026074334018973924 -0.0015516213075179668 0 0.025692822749810783 -0.00068363838250088023 0 0.026503166184532304 -0.00039529696923377359 0 0.026074334018973924 -0.0015516213075179668 0 0.027225173728763603 -0.0010372467621678381 0 0.026503166184532304 -0.00039529696923377359 0 0.026074334018973924 -0.0015516213075179668 0 0.027225173728763603 -0.0010372467621678381 0 0.027234815020875186 -0.0022092938756165001 0 0.027225173728763603 -0.0010372467621678381 0 0.028090645699824487 -0.0013148574917358053 0 0.027234815020875186 -0.0022092938756165001 0 0.027225173728763603 -0.0010372467621678381 0 0.027458340862497935 -0.00035005972303589391 0 0.026503166184532304 -0.00039529696923377359 0 0.027225173728763603 -0.0010372467621678381 0 0.028199076711203398 -0.00079057694842427659 0 0.027458340862497935 -0.00035005972303589391 0 0.028199076711203398 -0.00079057694842427659 0 0.02926054204883306 -0.00059320477127249624 0 0.02831679168189908 -0.00027554792906022888 0 0.027225173728763603 -0.0010372467621678381 0 0.028199076711203398 -0.00079057694842427659 0 0.028090645699824487 -0.0013148574917358053 0 0.028199076711203398 -0.00079057694842427659 0 0.02831679168189908 -0.00027554792906022888 0 0.027458340862497935 -0.00035005972303589391 0 0.028199076711203398 -0.00079057694842427659 0 0.02926054204883306 -0.00059320477127249624 0 0.028901042465420898 -0.0012012997402195548 0 0.02926054204883306 -0.00059320477127249624 0 0.029698122314751409 0.00018511383800243227 0 0.02831679168189908 -0.00027554792906022888 0 0.029816561609894689 -0.00037614289555294082 0 0.02926054204883306 -0.00059320477127249624 0 0.029698122314751409 0.00018511383800243227 0 0.02926054204883306 -0.00059320477127249624 0 0.02950578798435748 -0.0010796862287008617 0 0.028901042465420898 -0.0012012997402195548 0 0.030035852482767647 -0.00082132907746315837 0 0.02926054204883306 -0.00059320477127249624 0 0.02950578798435748 -0.0010796862287008617 0 0.029540326821749282 -0.0015561338166974834 0 0.028931886203465679 -0.0011730371498833577 0 0.029229734670233161 -0.0015180242829435811 0 0.028901042465420898 -0.0012012997402195548 0 0.028948860030548529 -0.0016099147215974177 0 0.02981401889224693 -0.0015781401273158976 0 0.02950578798435748 -0.0010796862287008617 0 0.028901042465420898 -0.0012012997402195548 0 0.028972351325837822 -0.0016825732877392226 0 0.028858636319453769 -0.0019637751788655834 0 0.028090645699824487 -0.0013148574917358053 0 0.028948860030548529 -0.0016099147215974177 0 0.027234815020875186 -0.0022092938756165001 0 0.028199076711203398 -0.00079057694842427659 0 0.028090645699824487 -0.0013148574917358053 0 0.028901042465420898 -0.0012012997402195548 0 0.028090645699824487 -0.0013148574917358053 0 0.028901042465420898 -0.0012012997402195548 0 0.028948860030548529 -0.0016099147215974177 0 0.028948860030548529 -0.0016099147215974177 0 0.029456652172243386 -0.0014610395833717985 0 0.030350840629864977 -0.0018537043430497076 0 0.028948860030548529 -0.0016099147215974177 0 0.029456652172243386 -0.0014610395833717985 0 0.029223056045017314 -0.0014516143132061732 0 0.029456652172243386 -0.0014610395833717985 0 0.029223056045017314 -0.0014516143132061732 0 0.029424526861637549 -0.0012219574108893534 0 0.029456652172243386 -0.0014610395833717985 0 0.029424526861637549 -0.0012219574108893534 0 0.029903539962798455 -0.0012056005278632976 0 0.029229734670233161 -0.0015180242829435811 0 0.028948860030548529 -0.0016099147215974177 0 0.029223056045017314 -0.0014516143132061732 0 0.029223056045017314 -0.0014516143132061732 0 0.02925316224292435 -0.0013041871961495658 0 0.029424526861637549 -0.0012219574108893534 0 0.029198481260998034 -0.001184848040263208 0 0.029229734670233161 -0.0015180242829435811 0 0.02925316224292435 -0.0013041871961495658 0 0.029229734670233161 -0.0015180242829435811 0 0.029223056045017314 -0.0014516143132061732 0 0.02925316224292435 -0.0013041871961495658 0 0.029198481260998034 -0.001184848040263208 0 0.02925316224292435 -0.0013041871961495658 0 0.029305768168810021 -0.0010201767309147543 0 0.02925316224292435 -0.0013041871961495658 0 0.029305768168810021 -0.0010201767309147543 0 0.029424526861637549 -0.0012219574108893534 0 0.029424526861637549 -0.0012219574108893534 0 0.029595995872282538 -0.00088821215176505841 0 0.029903539962798455 -0.0012056005278632976 0 0.029305768168810021 -0.0010201767309147543 0 0.029424526861637549 -0.0012219574108893534 0 0.029595995872282538 -0.00088821215176505841 0 0.029978551096654572 -0.00053458649969469023 0 0.029595995872282538 -0.00088821215176505841 0 0.030183862407281877 -0.00086207912788379922 0 0.029595995872282538 -0.00088821215176505841 0 0.030183862407281877 -0.00086207912788379922 0 0.029903539962798455 -0.0012056005278632976 0 0.030183862407281877 -0.00086207912788379922 0 0.029903539962798455 -0.0012056005278632976 0 0.030788269997149686 -0.0011122779416279267 0 0.030601703043275578 -0.00043429944702253083 0 0.030183862407281877 -0.00086207912788379922 0 0.030788269997149686 -0.0011122779416279267 0 0.031294368610594633 -0.0005327486430152117 0 0.030601703043275578 -0.00043429944702253083 0 0.030788269997149686 -0.0011122779416279267 0 0.031628008111853616 -0.00091851716472434678 0 0.031698973973336278 -0.0015822606874707295 0 0.030788269997149686 -0.0011122779416279267 0 0.031294368610594633 -0.0005327486430152117 0 0.031955345862468669 -0.00048946599584494483 0 0.031628008111853616 -0.00091851716472434678 0 0.031294368610594633 -0.0005327486430152117 0 0.031628008111853616 -0.00091851716472434678 0 0.030788269997149686 -0.0011122779416279267 0 0.031698973973336278 -0.0015822606874707295 0 0.030788269997149686 -0.0011122779416279267 0 0.030350840629864977 -0.0018537043430497076 0 0.026105645023424138 -0.0024852161635315752 0 0.026074334018973924 -0.0015516213075179668 0 0.027234815020875186 -0.0022092938756165001 0 0.028745082451658559 -0.0021313980172476023 0 0.028858636319453769 -0.0019637751788655834 0 0.029903539962798455 -0.0012056005278632976 0 0.030788269997149686 -0.0011122779416279267 0 0.030350840629864977 -0.0018537043430497076 0 0.029456652172243386 -0.0014610395833717985 0 0.029903539962798455 -0.0012056005278632976 0 0.030350840629864977 -0.0018537043430497076 0 0.031401365288085778 5.8819501506756818e-05 0 0.034997736554224217 -9.137622328522396e-07 0 0.029301680867308187 1.4204026438695693e-06 0 0.031401365288085778 5.8819501506756818e-05 0 0.033218404931672482 1.7690851380401005e-05 0 0.034997736554224217 -9.137622328522396e-07 0 0.0311222366322676 0.00048455494517729049 0 0.0342518413436197 -0.00021649055574347401 0 0.03464490101017461 0.00012706797355961077 0 0.034739505600072031 5.1487408881504884e-05 0 0.034762189640411091 0.00010735330939066691 0 0.034997736554224217 -9.137622328522396e-07 0 0.034395466197898981 -3.8445836634625045e-05 0 0.034999506072390794 4.0387128385767425e-07 0 0.033218404931672482 1.7690851380401005e-05 0 0.034997736554224217 -9.137622328522396e-07 0 0.034395466197898981 -3.8445836634625045e-05 0 0.0342518413436197 -0.00021649055574347401 0 0.034584548672844155 -8.9005515317275331e-06 0 0.034584548672844155 -8.9005515317275331e-06 0 0.034999943292872662 -1.5684747596778737e-07 0 0.034856518711415797 1.6478213080884659e-06 0 0.034999776544907678 -6.0389940240346586e-08 0 0.034941477561165696 7.7784581629432794e-06 0 0.034999776544907678 -6.0389940240346586e-08 0 0.034941477561165696 7.7784581629432794e-06 0 0.034999986425042089 1.8978945821052349e-08 0 0.034856518711415797 1.6478213080884659e-06 0 0.034941477561165696 7.7784581629432794e-06 0 0.03484850778624439 5.4871514534105024e-05 0 0.034941477561165696 7.7784581629432794e-06 0 0.03484850778624439 5.4871514534105024e-05 0 0.034924994309114082 4.6664000348316291e-05 0 0.034739505600072031 5.1487408881504884e-05 0 0.03484850778624439 5.4871514534105024e-05 0 0.034762189640411091 0.00010735330939066691 0 0.034739505600072031 5.1487408881504884e-05 0 0.034856518711415797 1.6478213080884659e-06 0 0.03484850778624439 5.4871514534105024e-05 0 0.03484850778624439 5.4871514534105024e-05 0 0.034762189640411091 0.00010735330939066691 0 0.034822716593014003 0.00012324326887286881 0 0.03484850778624439 5.4871514534105024e-05 0 0.034924994309114082 4.6664000348316291e-05 0 0.034822716593014003 0.00012324326887286881 0 0.034901908204679484 0.00011004725781200521 0 0.034924994309114082 4.6664000348316291e-05 0 0.034822716593014003 0.00012324326887286881 0 0.034901908204679484 0.00011004725781200521 0 0.034954597168743419 5.9923399288241246e-05 0 0.034981127987490208 9.943613417759723e-05 0 0.034901908204679484 0.00011004725781200521 0 0.034954597168743419 5.9923399288241246e-05 0 0.034924994309114082 4.6664000348316291e-05 0 0.034954597168743419 5.9923399288241246e-05 0 0.034924994309114082 4.6664000348316291e-05 0 0.034976834949097022 2.2161671805024632e-05 0 0.034941477561165696 7.7784581629432794e-06 0 0.034924994309114082 4.6664000348316291e-05 0 0.034971995765847572 9.5818935609935748e-06 0 0.034941477561165696 7.7784581629432794e-06 0 0.034971995765847572 9.5818935609935748e-06 0 0.034999986425042089 1.8978945821052349e-08 0 0.034971995765847572 9.5818935609935748e-06 0 0.034976834949097022 2.2161671805024632e-05 0 0.034999972085725958 -1.6561213188122117e-08 0 0.034971995765847572 9.5818935609935748e-06 0 0.034999986425042089 1.8978945821052349e-08 0 0.034999972085725958 -1.6561213188122117e-08 0 0.034924994309114082 4.6664000348316291e-05 0 0.034971995765847572 9.5818935609935748e-06 0 0.034976834949097022 2.2161671805024632e-05 0 0.034976834949097022 2.2161671805024632e-05 0 0.034988825932679359 2.3634596400941987e-05 0 0.034984348248076357 4.2903119535415833e-05 0 0.034976834949097022 2.2161671805024632e-05 0 0.034988825932679359 2.3634596400941987e-05 0 0.034993145387871398 1.0599559727436353e-05 0 0.034999972085725958 -1.6561213188122117e-08 0 0.034993145387871398 1.0599559727436353e-05 0 0.034999995676417789 6.4006673138870341e-08 0 0.034976834949097022 2.2161671805024632e-05 0 0.034999972085725958 -1.6561213188122117e-08 0 0.034993145387871398 1.0599559727436353e-05 0 0.034993145387871398 1.0599559727436353e-05 0 0.034999995676417789 6.4006673138870341e-08 0 0.034995529559551451 1.2747706713577807e-05 0 0.034987503571810727 1.4843112248151971e-05 0 0.034999995676417789 6.4006673138870341e-08 0 0.034995529559551451 1.2747706713577807e-05 0 0.03498436137397655 1.0959115466283796e-05 0 0.034995529559551451 1.2747706713577807e-05 0 0.034997621773721919 2.3322277653537428e-05 0 0.034988825932679359 2.3634596400941987e-05 0 0.034993145387871398 1.0599559727436353e-05 0 0.034995529559551451 1.2747706713577807e-05 0 0.034988825932679359 2.3634596400941987e-05 0 0.034995529559551451 1.2747706713577807e-05 0 0.034997621773721919 2.3322277653537428e-05 0 0.034988825932679359 2.3634596400941987e-05 0 0.034997621773721919 2.3322277653537428e-05 0 0.034984348248076357 4.2903119535415833e-05 0 0.034997621773721919 2.3322277653537428e-05 0 0.034999505607723864 3.3072359110435932e-05 0 0.034984348248076357 4.2903119535415833e-05 0 0.034999505607723864 3.3072359110435932e-05 0 0.034984348248076357 4.2903119535415833e-05 0 0.034981127987490208 9.943613417759723e-05 0 0.0333339507877125 0.00011232449948891144 0 0.033337728337002714 9.1094146756187395e-05 0 0.033202176780741291 0.00025839938232330879 0 0.034954597168743419 5.9923399288241246e-05 0 0.034976834949097022 2.2161671805024632e-05 0 0.034984348248076357 4.2903119535415833e-05 0 0.034954597168743419 5.9923399288241246e-05 0 0.034984348248076357 4.2903119535415833e-05 0 0.034981127987490208 9.943613417759723e-05 0 0.033337728337002714 9.1094146756187395e-05 0 0.032848829961727159 0.00027638620537293745 0 0.033202176780741291 0.00025839938232330879 0 0.034119366886541116 6.813643779926849e-05 0 0.033820603368605859 0.00022682290796913323 0 0.032848829961727159 0.00027638620537293745 0 0.033202176780741291 0.00025839938232330879 0 0.033101722262430473 0.00047702628612211149 0 0.03327080426452083 0.00052592833610342899 0 0.033101722262430473 0.00047702628612211149 0 0.033141107374676668 0.00075427008813330808 0 0.033282637405773821 0.0003758044673784211 0 0.033202176780741291 0.00025839938232330879 0 0.033101722262430473 0.00047702628612211149 0 0.033820603368605859 0.00022682290796913323 0 0.034131009054763475 0.00037034442698622447 0 0.032848829961727159 0.00027638620537293745 0 0.032805635739680816 0.00063299479223975275 0 0.032305083491095586 0.0006624428206187578 0 0.032848829961727159 0.00027638620537293745 0 0.033101722262430473 0.00047702628612211149 0 0.032805635739680816 0.00063299479223975275 0 0.030452485798979821 -0.00012060442904459587 0 0.029639992993292431 0.00024927843898750126 0 0.032805635739680816 0.00063299479223975275 0 0.033141107374676668 0.00075427008813330808 0 0.032566637526678377 0.0010253802359400811 0 0.032805635739680816 0.00063299479223975275 0 0.032566637526678377 0.0010253802359400811 0 0.032305083491095586 0.0006624428206187578 0 0.027653194064023622 -0.00079023527005132367 0 0.02740901676739025 -0.00098133648600529479 0 0.026904414027426611 -0.00044429517183633822 0 0.033101722262430473 0.00047702628612211149 0 0.032805635739680816 0.00063299479223975275 0 0.033141107374676668 0.00075427008813330808 0 0.025646617232313523 -0.00047531898828913013 0 0.025779518902140086 -0.00052856079609265303 0 0.025881249703308001 -0.0003650651528676359 0 0.026516949021828665 -0.00050086794363287854 0 0.026433249254145079 -0.00043589752153672578 0 0.025545089692515597 -0.000405277610587126 0 0.025646617232313523 -0.00047531898828913013 0 0.025881249703308001 -0.0003650651528676359 0 0.025569699440429527 -0.00057295324513401374 0 0.025646617232313523 -0.00047531898828913013 0 0.025779518902140086 -0.00052856079609265303 0 0.025779518902140086 -0.00052856079609265303 0 0.025935553324364813 -0.0005899182788716038 0 0.025595253749251538 -0.00077704414819415352 0 0.025569699440429527 -0.00057295324513401374 0 0.025779518902140086 -0.00052856079609265303 0 0.025595253749251538 -0.00077704414819415352 0 0.02601047660457945 -0.00046851153223247208 0 0.025881249703308001 -0.0003650651528676359 0 0.026325321811435404 -0.00033098245659355654 0 0.026433249254145079 -0.00043589752153672578 0 0.026335402418354432 -0.00034161346541219034 0 0.02601047660457945 -0.00046851153223247208 0 0.026168472471814523 -0.0005066946108365566 0 0.025935553324364813 -0.0005899182788716038 0 0.025779518902140086 -0.00052856079609265303 0 0.02601047660457945 -0.00046851153223247208 0 0.025935553324364813 -0.0005899182788716038 0 0.025779518902140086 -0.00052856079609265303 0 0.02601047660457945 -0.00046851153223247208 0 0.025881249703308001 -0.0003650651528676359 0 0.026904414027426611 -0.00044429517183633822 0 0.026584384877961977 -0.00062983423788562202 0 0.026325321811435404 -0.00033098245659355654 0 0.02740901676739025 -0.00098133648600529479 0 0.026904414027426611 -0.00044429517183633822 0 0.026584384877961977 -0.00062983423788562202 0 0.026584384877961977 -0.00062983423788562202 0 0.026325321811435404 -0.00033098245659355654 0 0.026306722545084985 -0.00031443870837518745 0 0.026584384877961977 -0.00062983423788562202 0 0.026306722545084985 -0.00031443870837518745 0 0.026212672228126919 -0.00039470383238406618 0 0.029639992993292431 0.00024927843898750126 0 0.028504365228480086 2.7895254624834241e-05 0 0.032566637526678377 0.0010253802359400811 0 0.032161800508752038 0.0010318007665162012 0 0.03184343897731861 0.0013057962378833635 0 0.02601047660457945 -0.00046851153223247208 0 0.026325321811435404 -0.00033098245659355654 0 0.026168472471814523 -0.0005066946108365566 0 0.026325321811435404 -0.00033098245659355654 0 0.026344323954016636 -0.00039260561521054584 0 0.026306722545084985 -0.00031443870837518745 0 0.026325321811435404 -0.00033098245659355654 0 0.026344323954016636 -0.00039260561521054584 0 0.026168472471814523 -0.0005066946108365566 0 0.026439483803932382 -0.00031917114452554814 0 0.026344323954016636 -0.00039260561521054584 0 0.026472578244666402 -0.00037647176306791308 0 0.026439483803932382 -0.00031917114452554814 0 0.026344323954016636 -0.00039260561521054584 0 0.026306722545084985 -0.00031443870837518745 0 0.026306722545084985 -0.00031443870837518745 0 0.026420826371022887 -0.00026163825139138798 0 0.026426611984445798 -0.00018145807367528463 0 0.026636761298069085 -0.00074322678458706225 0 0.028504365228480086 2.7895254624834241e-05 0 0.026439483803932382 -0.00031917114452554814 0 0.026420826371022887 -0.00026163825139138798 0 0.026498516882318721 -0.00021769048859789656 0 0.026439483803932382 -0.00031917114452554814 0 0.026306722545084985 -0.00031443870837518745 0 0.026420826371022887 -0.00026163825139138798 0 0.027410866103574898 0.00023170986406792805 0 0.028504365228480086 2.7895254624834241e-05 0 0.032161800508752038 0.0010318007665162012 0 0.03184343897731861 0.0013057962378833635 0 0.031697467913738654 0.001182852151762649 0 0.026498516882318721 -0.00021769048859789656 0 0.026484865735501576 -0.0002069130372167809 0 0.026507928588548644 -0.00017911763424988044 0 0.026420826371022887 -0.00026163825139138798 0 0.026498516882318721 -0.00021769048859789656 0 0.026426611984445798 -0.00018145807367528463 0 0.028504365228480086 2.7895254624834241e-05 0 0.03030772450313703 0.00033235413558489713 0 0.034793795497794627 0.000260633697064424 0 0.034833676395432576 0.0001748545288810737 0 0.034909320020683414 0.00018259842358226008 0 0.03030772450313703 0.00033235413558489713 0 0.034131009054763475 0.00037034442698622447 0 0.032161800508752038 0.0010318007665162012 0 0.031697467913738654 0.001182852151762649 0 0.032305083491095586 0.0006624428206187578 0 0.032566637526678377 0.0010253802359400811 0 0.032161800508752038 0.0010318007665162012 0 0.032305083491095586 0.0006624428206187578 0 0.034901908204679484 0.00011004725781200521 0 0.034981127987490208 9.943613417759723e-05 0 0.034909320020683414 0.00018259842358226008 0 0.034901908204679484 0.00011004725781200521 0 0.034833676395432576 0.0001748545288810737 0 0.034822716593014003 0.00012324326887286881 0 0.034901908204679484 0.00011004725781200521 0 0.034833676395432576 0.0001748545288810737 0 0.034909320020683414 0.00018259842358226008 0 0.034833676395432576 0.0001748545288810737 0 0.034822716593014003 0.00012324326887286881 0 0.034754928764027422 0.00020679862160929375 0 0.034762189640411091 0.00010735330939066691 0 0.034822716593014003 0.00012324326887286881 0 0.034714281795872583 0.00016975740757216187 0 0.034822716593014003 0.00012324326887286881 0 0.034754928764027422 0.00020679862160929375 0 0.034714281795872583 0.00016975740757216187 0 0.030917983463088109 0.00012951114357383233 0 0.031113107121595294 0.00044083791353330398 0 0.026970564479074303 4.4366220241170985e-05 0 0.027196283826047767 -0.00013736092604486178 0 0.027306975574504615 0.00058410754492394337 0 0.034793795497794627 0.000260633697064424 0 0.034833676395432576 0.0001748545288810737 0 0.034754928764027422 0.00020679862160929375 0 0.03030772450313703 0.00033235413558489713 0 0.030917983463088109 0.00012951114357383233 0 0.02690210276578716 -0.00015992828242599548 0 0.027007592110958895 -0.00024211700141045536 0 0.027017347817324022 -0.00017831886595033548 0 0.02690210276578716 -0.00015992828242599548 0 0.026970564479074303 4.4366220241170985e-05 0 0.027017347817324022 -0.00017831886595033548 0 0.026498516882318721 -0.00021769048859789656 0 0.026547360355361073 -0.00030344088620457444 0 0.026634790670165786 -0.00026450575861440415 0 0.026498516882318721 -0.00021769048859789656 0 0.026507928588548644 -0.00017911763424988044 0 0.026634790670165786 -0.00026450575861440415 0 0.026439483803932382 -0.00031917114452554814 0 0.026498516882318721 -0.00021769048859789656 0 0.026547360355361073 -0.00030344088620457444 0 0.03030772450313703 0.00033235413558489713 0 0.0262858551095933 -0.00010158938574823944 0 0.026439483803932382 -0.00031917114452554814 0 0.026547360355361073 -0.00030344088620457444 0 0.026472578244666402 -0.00037647176306791308 0 0.027007592110958895 -0.00024211700141045536 0 0.027017347817324022 -0.00017831886595033548 0 0.027050417745065888 -0.00025768897704140655 0 0.027007592110958895 -0.00024211700141045536 0 0.027050417745065888 -0.00025768897704140655 0 0.026796077899384183 -0.00016244320921679609 0 0.027017347817324022 -0.00017831886595033548 0 0.027196283826047767 -0.00013736092604486178 0 0.027050417745065888 -0.00025768897704140655 0 0.026970564479074303 4.4366220241170985e-05 0 0.027017347817324022 -0.00017831886595033548 0 0.027196283826047767 -0.00013736092604486178 0 0.027196283826047767 -0.00013736092604486178 0 0.027050417745065888 -0.00025768897704140655 0 0.027761914758883476 -0.00015905132670681761 0 0.027050417745065888 -0.00025768897704140655 0 0.027226048681566226 -1.7801715335600543e-06 0 0.026457033843926052 -0.00024383090992759429 0 0.027050417745065888 -0.00025768897704140655 0 0.027226048681566226 -1.7801715335600543e-06 0 0.027761914758883476 -0.00015905132670681761 0 0.027226048681566226 -1.7801715335600543e-06 0 0.02929341240967083 1.9644844080423489e-06 0 0.027761914758883476 -0.00015905132670681761 0 0.02929341240967083 1.9644844080423489e-06 0 0.027761914758883476 -0.00015905132670681761 0 0.027306975574504615 0.00058410754492394337 0 0.027196283826047767 -0.00013736092604486178 0 0.027761914758883476 -0.00015905132670681761 0 0.027306975574504615 0.00058410754492394337 0 0.03464490101017461 0.00012706797355961077 0 0.034762189640411091 0.00010735330939066691 0 0.034714281795872583 0.00016975740757216187 0 0.0311222366322676 0.00048455494517729049 0 0.031113107121595294 0.00044083791353330398 0 0.028494846648767884 0.0014803402757986237 0 0.02929341240967083 1.9644844080423489e-06 0 0.027306975574504615 0.00058410754492394337 0 0.0311222366322676 0.00048455494517729049 0 0.029296353565014924 7.0692294988035754e-07 0 0.023416559596218519 -9.2675749160060822e-07 0 0.021372469417848396 -0.00023302630859893379 0 0.021677533015492356 -1.6174038363267909e-07 0 0.021847912000478534 -0.00015691398679707971 0 0.023416559596218519 -9.2675749160060822e-07 0 0.021372469417848396 -0.00023302630859893379 0 0.021847912000478534 -0.00015691398679707971 0 0.021309516396670048 -0.00014737455336484104 0 0.021372469417848396 -0.00023302630859893379 0 0.021847912000478534 -0.00015691398679707971 0 0.022586167307600886 3.3361415346826337e-05 0 0.021860142564835018 0.0001049697448793934 0 0.021847912000478534 -0.00015691398679707971 0 0.022586167307600886 3.3361415346826337e-05 0 0.023416559596218519 -9.2675749160060822e-07 0 0.022586167307600886 3.3361415346826337e-05 0 0.023416559596218519 -9.2675749160060822e-07 0 0.025152112685529558 2.3656016657612322e-06 0 0.025154953933506322 1.3277192114540633e-07 0 0.02452689207088889 0.00025305463904419051 0 0.022586167307600886 3.3361415346826337e-05 0 0.025152112685529558 2.3656016657612322e-06 0 0.02241565878243177 0.00067917021909130423 0 0.025158438934288149 1.1660488744564929e-06 0 0.026457033843926052 -0.00024383090992759429 0 0.02679934337088128 5.1801373650162254e-06 0 0.027226048681566226 -1.7801715335600543e-06 0 0.025158438934288149 1.1660488744564929e-06 0 0.026457033843926052 -0.00024383090992759429 0 0.027050417745065888 -0.00025768897704140655 0 0.026457033843926052 -0.00024383090992759429 0 0.026796077899384183 -0.00016244320921679609 0 0.026457033843926052 -0.00024383090992759429 0 0.026796077899384183 -0.00016244320921679609 0 0.02679934337088128 5.1801373650162254e-06 0 0.022586167307600886 3.3361415346826337e-05 0 0.02241565878243177 0.00067917021909130423 0 0.021860142564835018 0.0001049697448793934 0 0.02679934337088128 5.1801373650162254e-06 0 0.026666989495058246 -0.00030088860300827983 0 0.026607488090527421 -0.00046991570343751896 0 0.02241565878243177 0.00067917021909130423 0 0.02145584821485292 0.00033809065885386457 0 0.021860142564835018 0.0001049697448793934 0 0.02452689207088889 0.00025305463904419051 0 0.024153443173238483 -2.5085823263432199e-05 0 0.026796077899384183 -0.00016244320921679609 0 0.02679934337088128 5.1801373650162254e-06 0 0.026666989495058246 -0.00030088860300827983 0 0.026634790670165786 -0.00026450575861440415 0 0.026796077899384183 -0.00016244320921679609 0 0.026666989495058246 -0.00030088860300827983 0 0.0262858551095933 -0.00010158938574823944 0 0.02698239669000824 -0.00029178961956014129 0 0.026547360355361073 -0.00030344088620457444 0 0.026666989495058246 -0.00030088860300827983 0 0.026472578244666402 -0.00037647176306791308 0 0.026666989495058246 -0.00030088860300827983 0 0.026455414041435241 -0.0004687547227571247 0 0.026472578244666402 -0.00037647176306791308 0 0.026547360355361073 -0.00030344088620457444 0 0.026634790670165786 -0.00026450575861440415 0 0.026666989495058246 -0.00030088860300827983 0 0.026666989495058246 -0.00030088860300827983 0 0.026607488090527421 -0.00046991570343751896 0 0.026455414041435241 -0.0004687547227571247 0 0.024153443173238483 -2.5085823263432199e-05 0 0.023057887080880069 -0.00028452653705302207 0 0.02145584821485292 0.00033809065885386457 0 0.021395412250217825 -0.00010115847959098084 0 0.020911679917635231 0.00016559492140766596 0 0.021395412250217825 -0.00010115847959098084 0 0.021860142564835018 0.0001049697448793934 0 0.021592542446226774 -9.143058735533502e-05 0 0.02145584821485292 0.00033809065885386457 0 0.021395412250217825 -0.00010115847959098084 0 0.021860142564835018 0.0001049697448793934 0 0.021847912000478534 -0.00015691398679707971 0 0.021860142564835018 0.0001049697448793934 0 0.021592542446226774 -9.143058735533502e-05 0 0.021395412250217825 -0.00010115847959098084 0 0.021592542446226774 -9.143058735533502e-05 0 0.021309516396670048 -0.00014737455336484104 0 0.021847912000478534 -0.00015691398679707971 0 0.021592542446226774 -9.143058735533502e-05 0 0.021309516396670048 -0.00014737455336484104 0 0.021309516396670048 -0.00014737455336484104 0 0.021625353645757427 -5.2257435278706862e-05 0 0.021563575928979544 8.856498611706519e-05 0 0.021395412250217825 -0.00010115847959098084 0 0.021309516396670048 -0.00014737455336484104 0 0.021625353645757427 -5.2257435278706862e-05 0 0.021625353645757427 -5.2257435278706862e-05 0 0.022060052804489076 0.00011777071264453042 0 0.021563575928979544 8.856498611706519e-05 0 0.022060052804489076 0.00011777071264453042 0 0.021757466794519006 -0.00034899628650227564 0 0.022455289887481716 -8.1649059736047371e-05 0 0.023057887080880069 -0.00028452653705302207 0 0.021978778291481666 -0.00014434210394887183 0 0.021395412250217825 -0.00010115847959098084 0 0.021625353645757427 -5.2257435278706862e-05 0 0.021757466794519006 -0.00034899628650227564 0 0.02075888647513844 9.3602096436122572e-05 0 0.023057887080880069 -0.00028452653705302207 0 0.021625353645757427 -5.2257435278706862e-05 0 0.022060052804489076 0.00011777071264453042 0 0.021757466794519006 -0.00034899628650227564 0 0.026324519012646048 -0.0006840747984157773 0 0.026455414041435241 -0.0004687547227571247 0 0.026279228926473108 -0.00053861803488105967 0 0.026607488090527421 -0.00046991570343751896 0 0.026324519012646048 -0.0006840747984157773 0 0.026455414041435241 -0.0004687547227571247 0 0.026455414041435241 -0.0004687547227571247 0 0.026389573242342042 -0.000444494214570017 0 0.026279228926473108 -0.00053861803488105967 0 0.026455414041435241 -0.0004687547227571247 0 0.026389573242342042 -0.000444494214570017 0 0.026472578244666402 -0.00037647176306791308 0 0.026344323954016636 -0.00039260561521054584 0 0.026389573242342042 -0.000444494214570017 0 0.026279228926473108 -0.00053861803488105967 0 0.026344323954016636 -0.00039260561521054584 0 0.026389573242342042 -0.000444494214570017 0 0.026472578244666402 -0.00037647176306791308 0 0.026168472471814523 -0.0005066946108365566 0 0.026279228926473108 -0.00053861803488105967 0 0.026013851195182534 -0.00071014208967560351 0 0.026344323954016636 -0.00039260561521054584 0 0.026168472471814523 -0.0005066946108365566 0 0.026279228926473108 -0.00053861803488105967 0 0.023057887080880069 -0.00028452653705302207 0 0.024526217371581345 -0.00059243394037798063 0 0.022153019520558617 -0.00015861840009887283 0 0.022535180643717841 -0.00035264855120725763 0 0.022455289887481716 -8.1649059736047371e-05 0 0.026324519012646048 -0.0006840747984157773 0 0.026279228926473108 -0.00053861803488105967 0 0.026013851195182534 -0.00071014208967560351 0 0.022535180643717841 -0.00035264855120725763 0 0.022870802166546744 -8.049003391555218e-05 0 0.022455289887481716 -8.1649059736047371e-05 0 0.026168472471814523 -0.0005066946108365566 0 0.026013851195182534 -0.00071014208967560351 0 0.025935553324364813 -0.0005899182788716038 0 0.024526217371581345 -0.00059243394037798063 0 0.024495891947827659 -0.00069219679469759003 0 0.026013851195182534 -0.00071014208967560351 0 0.025935553324364813 -0.0005899182788716038 0 0.025595253749251538 -0.00077704414819415352 0 0.022870802166546744 -8.049003391555218e-05 0 0.023537510784172166 -0.0006986302787055299 0 0.023268961861005279 0.00015844180812164517 0 0.022535180643717841 -0.00035264855120725763 0 0.022870802166546744 -8.049003391555218e-05 0 0.023537510784172166 -0.0006986302787055299 0 0.022870802166546744 -8.049003391555218e-05 0 0.022896019535856807 0.00016529403565187107 0 0.023268961861005279 0.00015844180812164517 0 0.022870802166546744 -8.049003391555218e-05 0 0.022896019535856807 0.00016529403565187107 0 0.022455289887481716 -8.1649059736047371e-05 0 0.022896019535856807 0.00016529403565187107 0 0.022455289887481716 -8.1649059736047371e-05 0 0.022533457684741732 0.00019765400075669789 0 0.022060052804489076 0.00011777071264453042 0 0.022533457684741732 0.00019765400075669789 0 0.022381248066927373 0.00040587588191773994 0 0.022533457684741732 0.00019765400075669789 0 0.022877715721747245 0.00037850501667811203 0 0.022381248066927373 0.00040587588191773994 0 0.022060052804489076 0.00011777071264453042 0 0.022455289887481716 -8.1649059736047371e-05 0 0.022533457684741732 0.00019765400075669789 0 0.022896019535856807 0.00016529403565187107 0 0.022877715721747245 0.00037850501667811203 0 0.023273001326423431 0.00034380785016965056 0 0.022896019535856807 0.00016529403565187107 0 0.022533457684741732 0.00019765400075669789 0 0.022877715721747245 0.00037850501667811203 0 0.022877715721747245 0.00037850501667811203 0 0.022714531094981824 0.00057710718515571529 0 0.022381248066927373 0.00040587588191773994 0 0.022877715721747245 0.00037850501667811203 0 0.022714531094981824 0.00057710718515571529 0 0.023014996751668359 0.00061611205001706713 0 0.022714531094981824 0.00057710718515571529 0 0.022381248066927373 0.00040587588191773994 0 0.022460548548734728 0.00064030466222881818 0 0.022460548548734728 0.00064030466222881818 0 0.022793602440184663 0.00088974467797604665 0 0.021962213806120508 0.00070001503195921849 0 0.021679109879134021 -3.2410411689980884e-06 0 0.021339543266193382 0.00031493021096669539 0 0.021066018710477925 0.00020623931419628028 0 0.022381248066927373 0.00040587588191773994 0 0.022460548548734728 0.00064030466222881818 0 0.021962213806120508 0.00070001503195921849 0 0.022250695814957481 0.00044424351309177077 0 0.021538892181485813 0.00043060796480075053 0 0.021679109879134021 -3.2410411689980884e-06 0 0.021706522679453968 0.00014600498888325307 0 0.021557784804283518 0.00022970599394964204 0 0.022714531094981824 0.00057710718515571529 0 0.022460548548734728 0.00064030466222881818 0 0.022793602440184663 0.00088974467797604665 0 0.022714531094981824 0.00057710718515571529 0 0.023014996751668359 0.00061611205001706713 0 0.022793602440184663 0.00088974467797604665 0 0.021679109879134021 -3.2410411689980884e-06 0 0.021706522679453968 0.00014600498888325307 0 0.022393557624948733 0.00022251054142778982 0 0.021706522679453968 0.00014600498888325307 0 0.021665936129409601 0.00027648970099583136 0 0.021782523014932807 0.00033935843643146052 0 0.021706522679453968 0.00014600498888325307 0 0.021782523014932807 0.00033935843643146052 0 0.021925610801051442 0.00039026603943933142 0 0.021557784804283518 0.00022970599394964204 0 0.02161327241833768 0.00038899478482793732 0 0.021339543266193382 0.00031493021096669539 0 0.021557784804283518 0.00022970599394964204 0 0.021665936129409601 0.00027648970099583136 0 0.02161327241833768 0.00038899478482793732 0 0.021679109879134021 -3.2410411689980884e-06 0 0.021557784804283518 0.00022970599394964204 0 0.021339543266193382 0.00031493021096669539 0 0.021706522679453968 0.00014600498888325307 0 0.021557784804283518 0.00022970599394964204 0 0.021665936129409601 0.00027648970099583136 0 0.02161327241833768 0.00038899478482793732 0 0.021782523014932807 0.00033935843643146052 0 0.021791223834934578 0.00049660655670289778 0 0.021665936129409601 0.00027648970099583136 0 0.02161327241833768 0.00038899478482793732 0 0.021782523014932807 0.00033935843643146052 0 0.021414149659936977 0.0006005886143537495 0 0.02128160358232831 0.00051644836851601249 0 0.02161327241833768 0.00038899478482793732 0 0.021791223834934578 0.00049660655670289778 0 0.021752320460607228 0.00068040787510499179 0 0.02161327241833768 0.00038899478482793732 0 0.021752320460607228 0.00068040787510499179 0 0.021260713949456875 0.00049618525035198015 0 0.021146269723701445 0.00053815177843041036 0 0.021260713949456875 0.00049618525035198015 0 0.021143819516165206 0.00054171825210018942 0 0.021113996706232561 0.00051607051016418031 0 0.021260713949456875 0.00049618525035198015 0 0.021143819516165206 0.00054171825210018942 0 0.021113996706232561 0.00051607051016418031 0 0.021260713949456875 0.00049618525035198015 0 0.021095861389760783 0.00041286610877894507 0 0.021260713949456875 0.00049618525035198015 0 0.021339543266193382 0.00031493021096669539 0 0.021095861389760783 0.00041286610877894507 0 0.021339543266193382 0.00031493021096669539 0 0.021095861389760783 0.00041286610877894507 0 0.021066018710477925 0.00020623931419628028 0 0.02161327241833768 0.00038899478482793732 0 0.021260713949456875 0.00049618525035198015 0 0.021339543266193382 0.00031493021096669539 0 0.021095861389760783 0.00041286610877894507 0 0.020981331922128945 0.00035536292300301735 0 0.021066018710477925 0.00020623931419628028 0 0.021095861389760783 0.00041286610877894507 0 0.020981331922128945 0.00035536292300301735 0 0.021011449019470298 0.00052261749494154507 0 0.021113996706232561 0.00051607051016418031 0 0.021095861389760783 0.00041286610877894507 0 0.021011449019470298 0.00052261749494154507 0 0.020981331922128945 0.00035536292300301735 0 0.020842335736529785 0.0005156721754104068 0 0.021011449019470298 0.00052261749494154507 0 0.020981331922128945 0.00035536292300301735 0 0.021066018710477925 0.00020623931419628028 0 0.021081784814745513 0.00026371797137324249 0 0.021962213806120508 0.00070001503195921849 0 0.021563575928979544 8.856498611706519e-05 0 0.021205356925942609 6.3081941018090911e-05 0 0.021962213806120508 0.00070001503195921849 0 0.021205356925942609 6.3081941018090911e-05 0 0.021081784814745513 0.00026371797137324249 0 0.021538892181485813 0.00043060796480075053 0 0.021133394691543562 0.00030187021176585256 0 0.022060052804489076 0.00011777071264453042 0 0.021991642346930389 0.0003139323253356761 0 0.021563575928979544 8.856498611706519e-05 0 0.021962213806120508 0.00070001503195921849 0 0.021991642346930389 0.0003139323253356761 0 0.021563575928979544 8.856498611706519e-05 0 0.022381248066927373 0.00040587588191773994 0 0.021962213806120508 0.00070001503195921849 0 0.021991642346930389 0.0003139323253356761 0 0.022060052804489076 0.00011777071264453042 0 0.022381248066927373 0.00040587588191773994 0 0.021991642346930389 0.0003139323253356761 0 0.021309516396670048 -0.00014737455336484104 0 0.021563575928979544 8.856498611706519e-05 0 0.021205356925942609 6.3081941018090911e-05 0 0.021309516396670048 -0.00014737455336484104 0 0.020833076456973302 -0.00016331954034054316 0 0.021372469417848396 -0.00023302630859893379 0 0.021309516396670048 -0.00014737455336484104 0 0.021205356925942609 6.3081941018090911e-05 0 0.020833076456973302 -0.00016331954034054316 0 0.021205356925942609 6.3081941018090911e-05 0 0.020577039863028633 8.4222354772390753e-05 0 0.020833076456973302 -0.00016331954034054316 0 0.021205356925942609 6.3081941018090911e-05 0 0.021081784814745513 0.00026371797137324249 0 0.020577039863028633 8.4222354772390753e-05 0 0.021081784814745513 0.00026371797137324249 0 0.020715288310787377 0.00038196841496423653 0 0.020577039863028633 8.4222354772390753e-05 0 0.020981331922128945 0.00035536292300301735 0 0.021081784814745513 0.00026371797137324249 0 0.020715288310787377 0.00038196841496423653 0 0.020981331922128945 0.00035536292300301735 0 0.020715288310787377 0.00038196841496423653 0 0.020842335736529785 0.0005156721754104068 0 0.020715288310787377 0.00038196841496423653 0 0.020259542479488357 0.00039706867283967112 0 0.020577039863028633 8.4222354772390753e-05 0 0.020259542479488357 0.00039706867283967112 0 0.020577039863028633 8.4222354772390753e-05 0 0.019670417356039926 0.00016885538971466902 0 0.020259542479488357 0.00039706867283967112 0 0.019670417356039926 0.00016885538971466902 0 0.01973116583525901 0.00047714556645867901 0 0.020577039863028633 8.4222354772390753e-05 0 0.019897759355050389 -8.8293608801327225e-05 0 0.019670417356039926 0.00016885538971466902 0 0.020577039863028633 8.4222354772390753e-05 0 0.019897759355050389 -8.8293608801327225e-05 0 0.020833076456973302 -0.00016331954034054316 0 0.019897759355050389 -8.8293608801327225e-05 0 0.019670417356039926 0.00016885538971466902 0 0.018200508430871048 -1.0538685924841524e-06 0 0.019670417356039926 0.00016885538971466902 0 0.018200508430871048 -1.0538685924841524e-06 0 0.018641322375961177 0.00032366156906331729 0 0.019897759355050389 -8.8293608801327225e-05 0 0.018200508430871048 -1.0538685924841524e-06 0 0.019939626834227099 -2.5022619862824731e-07 0 0.019939626834227099 -2.5022619862824731e-07 0 0.020833076456973302 -0.00016331954034054316 0 0.021372469417848396 -0.00023302630859893379 0 0.019897759355050389 -8.8293608801327225e-05 0 0.019939626834227099 -2.5022619862824731e-07 0 0.020833076456973302 -0.00016331954034054316 0 0.019939626834227099 -2.5022619862824731e-07 0 0.021372469417848396 -0.00023302630859893379 0 0.021677533015492356 -1.6174038363267909e-07 0 0.023117302352591813 0.0013762391627283163 0 0.022518863791042284 0.0013074178239313339 0 0.022446301273561738 0.0017461358280054789 0 0.024438787483217601 0.0012158122267056416 0 0.025107773078507204 0.0011809890051906638 0 0.023117302352591813 0.0013762391627283163 0 0.022733690781980908 0.00090376667075370125 0 0.023189611329599267 0.00069045454106404173 0 0.023117302352591813 0.0013762391627283163 0 0.023822906318974515 0.00099526570292576507 0 0.023189611329599267 0.00069045454106404173 0 0.023117302352591813 0.0013762391627283163 0 0.022733690781980908 0.00090376667075370125 0 0.022518863791042284 0.0013074178239313339 0 0.022733690781980908 0.00090376667075370125 0 0.022234822521443039 0.0011438054953690656 0 0.022518863791042284 0.0013074178239313339 0 0.022733690781980908 0.00090376667075370125 0 0.022234822521443039 0.0011438054953690656 0 0.022382975274333583 0.00046637216623600218 0 0.022234822521443039 0.0011438054953690656 0 0.021659329441107059 0.0010379057086751962 0 0.021818903238949083 0.0014319876968754831 0 0.022234822521443039 0.0011438054953690656 0 0.021659329441107059 0.0010379057086751962 0 0.022382975274333583 0.00046637216623600218 0 0.022234822521443039 0.0011438054953690656 0 0.021818903238949083 0.0014319876968754831 0 0.022217704381748249 0.001501278333386456 0 0.021818903238949083 0.0014319876968754831 0 0.022217704381748249 0.001501278333386456 0 0.022051370558781983 0.0018113515818802672 0 0.021525869085229465 0.0016878672537797845 0 0.021818903238949083 0.0014319876968754831 0 0.022051370558781983 0.0018113515818802672 0 0.022217704381748249 0.001501278333386456 0 0.022446301273561738 0.0017461358280054789 0 0.022051370558781983 0.0018113515818802672 0 0.022234822521443039 0.0011438054953690656 0 0.022518863791042284 0.0013074178239313339 0 0.022217704381748249 0.001501278333386456 0 0.022518863791042284 0.0013074178239313339 0 0.022217704381748249 0.001501278333386456 0 0.022446301273561738 0.0017461358280054789 0 0.025107773078507204 0.0011809890051906638 0 0.024840185148251145 0.0012154471498268446 0 0.027580538955160234 0.00073474690364538366 0 0.028577067442008199 0.00025415339581687083 0 0.02792777123251677 0.00010464984294269939 0 0.022142974538389835 0.0018962428112042208 0 0.022022931852149121 0.0018791020301870064 0 0.022051370558781983 0.0018113515818802672 0 0.022446301273561738 0.0017461358280054789 0 0.022022931852149121 0.0018791020301870064 0 0.022051370558781983 0.0018113515818802672 0 0.028577067442008199 0.00025415339581687083 0 0.028389858366968002 -4.2304731332015922e-05 0 0.02792777123251677 0.00010464984294269939 0 0.028577067442008199 0.00025415339581687083 0 0.028389858366968002 -4.2304731332015922e-05 0 0.028664363529319871 -0.00014841293409416766 0 0.028389858366968002 -4.2304731332015922e-05 0 0.028664363529319871 -0.00014841293409416766 0 0.02831679168189908 -0.00027554792906022888 0 0.029514981838306861 5.5730437946568519e-05 0 0.028284424302805589 -0.00024049406488933965 0 0.028389858366968002 -4.2304731332015922e-05 0 0.02792777123251677 0.00010464984294269939 0 0.02831679168189908 -0.00027554792906022888 0 0.02792777123251677 0.00010464984294269939 0 0.02831679168189908 -0.00027554792906022888 0 0.027458340862497935 -0.00035005972303589391 0 0.02792777123251677 0.00010464984294269939 0 0.027458340862497935 -0.00035005972303589391 0 0.026677080492641978 8.9675929490832011e-05 0 0.027458340862497935 -0.00035005972303589391 0 0.026677080492641978 8.9675929490832011e-05 0 0.026503166184532304 -0.00039529696923377359 0 0.027580538955160234 0.00073474690364538366 0 0.02792777123251677 0.00010464984294269939 0 0.026677080492641978 8.9675929490832011e-05 0 0.025780566330141766 0.0011188256276565233 0 0.027580538955160234 0.00073474690364538366 0 0.026677080492641978 8.9675929490832011e-05 0 0.025780566330141766 0.0011188256276565233 0 0.026677080492641978 8.9675929490832011e-05 0 0.024452628167953818 -3.5373522822549415e-05 0 0.026677080492641978 8.9675929490832011e-05 0 0.026503166184532304 -0.00039529696923377359 0 0.025785438272200863 0.00025531539678762553 0 0.026551473619033723 6.5833517769634179e-05 0 0.025147020028658693 0.00012945416342303868 0 0.025692822749810783 -0.00068363838250088023 0 0.02516944795645381 -0.00030693066090287352 0 0.025785438272200863 0.00025531539678762553 0 0.025692822749810783 -0.00068363838250088023 0 0.026503166184532304 -0.00039529696923377359 0 0.025785438272200863 0.00025531539678762553 0 0.025147020028658693 0.00012945416342303868 0 0.024091328078443171 0.00021151600739984942 0 0.02516944795645381 -0.00030693066090287352 0 0.025785438272200863 0.00025531539678762553 0 0.024704775736783573 0.00033983752352409463 0 0.025042330778688688 -0.000819249764675002 0 0.023537510784172166 -0.0006986302787055299 0 0.024384236401913225 -0.00034422355071169592 0 0.025042330778688688 -0.000819249764675002 0 0.02516944795645381 -0.00030693066090287352 0 0.024384236401913225 -0.00034422355071169592 0 0.02516944795645381 -0.00030693066090287352 0 0.024384236401913225 -0.00034422355071169592 0 0.024704775736783573 0.00033983752352409463 0 0.024384236401913225 -0.00034422355071169592 0 0.024704775736783573 0.00033983752352409463 0 0.023268961861005279 0.00015844180812164517 0 0.023537510784172166 -0.0006986302787055299 0 0.024384236401913225 -0.00034422355071169592 0 0.023268961861005279 0.00015844180812164517 0 0.024091328078443171 0.00021151600739984942 0 0.023339381160902492 0.00018784412014527044 0 0.022896019535856807 0.00016529403565187107 0 0.023273001326423431 0.00034380785016965056 0 0.023268961861005279 0.00015844180812164517 0 0.02347866646355444 0.00012772084445903791 0 0.023273001326423431 0.00034380785016965056 0 0.023268961861005279 0.00015844180812164517 0 0.02347866646355444 0.00012772084445903791 0 0.023273001326423431 0.00034380785016965056 0 0.023547001016741346 0.00058365673159687693 0 0.02340209783845262 0.0005377089147495139 0 0.023547001016741346 0.00058365673159687693 0 0.023530997134997178 0.00070791039343731036 0 0.02340209783845262 0.0005377089147495139 0 0.023273244323311962 0.00057395193702162973 0 0.023530997134997178 0.00070791039343731036 0 0.023273001326423431 0.00034380785016965056 0 0.02340209783845262 0.0005377089147495139 0 0.023547001016741346 0.00058365673159687693 0 0.023273001326423431 0.00034380785016965056 0 0.02340209783845262 0.0005377089147495139 0 0.023273244323311962 0.00057395193702162973 0 0.022877715721747245 0.00037850501667811203 0 0.023273001326423431 0.00034380785016965056 0 0.023273244323311962 0.00057395193702162973 0 0.025780566330141766 0.0011188256276565233 0 0.024452628167953818 -3.5373522822549415e-05 0 0.023822906318974515 0.00099526570292576507 0 0.024452628167953818 -3.5373522822549415e-05 0 0.023547001016741346 0.00058365673159687693 0 0.023822906318974515 0.00099526570292576507 0 0.024452628167953818 -3.5373522822549415e-05 0 0.02347866646355444 0.00012772084445903791 0 0.023547001016741346 0.00058365673159687693 0 0.023547001016741346 0.00058365673159687693 0 0.023822906318974515 0.00099526570292576507 0 0.023530997134997178 0.00070791039343731036 0 0.024438787483217601 0.0012158122267056416 0 0.023940193105970047 0.001046249980887658 0 0.023822906318974515 0.00099526570292576507 0 0.023406643741176063 0.00050828998111565366 0 0.023189611329599267 0.00069045454106404173 0 0.023822906318974515 0.00099526570292576507 0 0.023406643741176063 0.00050828998111565366 0 0.023530997134997178 0.00070791039343731036 0 0.023406643741176063 0.00050828998111565366 0 0.023530997134997178 0.00070791039343731036 0 0.023420632646387812 0.00079033474262552093 0 0.023406643741176063 0.00050828998111565366 0 0.023195251254714291 0.00040607818799933527 0 0.023150395286260658 0.00040538377993142927 0 0.023406643741176063 0.00050828998111565366 0 0.02289248343121849 4.7473673029841803e-05 0 0.023150395286260658 0.00040538377993142927 0 0.023359719566331514 0.00049362916157789536 0 0.023115099609341671 0.00042868601098900746 0 0.023406643741176063 0.00050828998111565366 0 0.023195251254714291 0.00040607818799933527 0 0.023078309924471511 0.00040164613207728473 0 0.023406643741176063 0.00050828998111565366 0 0.023078309924471511 0.00040164613207728473 0 0.023189611329599267 0.00069045454106404173 0 0.022877715721747245 0.00037850501667811203 0 0.023014996751668359 0.00061611205001706713 0 0.023273244323311962 0.00057395193702162973 0 0.023014996751668359 0.00061611205001706713 0 0.023273244323311962 0.00057395193702162973 0 0.023420632646387812 0.00079033474262552093 0 0.023273244323311962 0.00057395193702162973 0 0.023530997134997178 0.00070791039343731036 0 0.023420632646387812 0.00079033474262552093 0 0.02289248343121849 4.7473673029841803e-05 0 0.02285257862219333 0.00036964300164375963 0 0.023150395286260658 0.00040538377993142927 0 0.022250695814957481 0.00044424351309177077 0 0.023115099609341671 0.00042868601098900746 0 0.021679109879134021 -3.2410411689980884e-06 0 0.02289248343121849 4.7473673029841803e-05 0 0.022393557624948733 0.00022251054142778982 0 0.023014996751668359 0.00061611205001706713 0 0.022793602440184663 0.00088974467797604665 0 0.023420632646387812 0.00079033474262552093 0 0.02289248343121849 4.7473673029841803e-05 0 0.022393557624948733 0.00022251054142778982 0 0.02285257862219333 0.00036964300164375963 0 0.021706522679453968 0.00014600498888325307 0 0.022393557624948733 0.00022251054142778982 0 0.022674608436335664 0.00063061101295078378 0 0.021751847899230257 0.00016103819303318962 0 0.022307815857725767 0.00048477172442707426 0 0.021706522679453968 0.00014600498888325307 0 0.021925610801051442 0.00039026603943933142 0 0.022003729231728886 0.00041640275487422163 0 0.021782523014932807 0.00033935843643146052 0 0.021791223834934578 0.00049660655670289778 0 0.021925610801051442 0.00039026603943933142 0 0.022393557624948733 0.00022251054142778982 0 0.022674608436335664 0.00063061101295078378 0 0.02285257862219333 0.00036964300164375963 0 0.022674608436335664 0.00063061101295078378 0 0.022959465286553071 0.00050430420777855165 0 0.02285257862219333 0.00036964300164375963 0 0.022959465286553071 0.00050430420777855165 0 0.02285257862219333 0.00036964300164375963 0 0.023150395286260658 0.00040538377993142927 0 0.022959465286553071 0.00050430420777855165 0 0.023150395286260658 0.00040538377993142927 0 0.023102320383480906 0.00046097225356424911 0 0.022003729231728886 0.00041640275487422163 0 0.022289635179915401 0.00062434702870349057 0 0.022074716594106064 0.00066844800827940958 0 0.022674608436335664 0.00063061101295078378 0 0.022959465286553071 0.00050430420777855165 0 0.023122779403848288 0.00048146425985377708 0 0.022307815857725767 0.00048477172442707426 0 0.022712116605000523 0.00058116669337470643 0 0.022959465286553071 0.00050430420777855165 0 0.023122779403848288 0.00048146425985377708 0 0.023102320383480906 0.00046097225356424911 0 0.021925610801051442 0.00039026603943933142 0 0.022003729231728886 0.00041640275487422163 0 0.022074716594106064 0.00066844800827940958 0 0.021146269723701445 0.00053815177843041036 0 0.021148397636360498 0.00056432132977813417 0 0.021178930313036512 0.00055028443095287685 0 0.022006418521745178 0.00054005877550930862 0 0.021908937404268209 0.00042732503257208451 0 0.021414149659936977 0.0006005886143537495 0 0.021908937404268209 0.00042732503257208451 0 0.021791223834934578 0.00049660655670289778 0 0.021925610801051442 0.00039026603943933142 0 0.022131730010227287 0.0008080171043087736 0 0.021791223834934578 0.00049660655670289778 0 0.021752320460607228 0.00068040787510499179 0 0.022131730010227287 0.0008080171043087736 0 0.023080141673082116 0.00036538161680833934 0 0.022955745926741121 0.00032240863546128027 0 0.023078309924471511 0.00040164613207728473 0 0.023080141673082116 0.00036538161680833934 0 0.023195251254714291 0.00040607818799933527 0 0.023136616530446956 0.00041802867194620552 0 0.023080141673082116 0.00036538161680833934 0 0.023195251254714291 0.00040607818799933527 0 0.023078309924471511 0.00040164613207728473 0 0.023195251254714291 0.00040607818799933527 0 0.023150395286260658 0.00040538377993142927 0 0.023136616530446956 0.00041802867194620552 0 0.023150395286260658 0.00040538377993142927 0 0.023136616530446956 0.00041802867194620552 0 0.023102320383480906 0.00046097225356424911 0 0.023136616530446956 0.00041802867194620552 0 0.023108935657047393 0.00042855546673008552 0 0.023070958045742516 0.0003674954564588029 0 0.023136616530446956 0.00041802867194620552 0 0.023108935657047393 0.00042855546673008552 0 0.023102320383480906 0.00046097225356424911 0 0.023122779403848288 0.00048146425985377708 0 0.023108935657047393 0.00042855546673008552 0 0.023102320383480906 0.00046097225356424911 0 0.023122779403848288 0.00048146425985377708 0 0.023108935657047393 0.00042855546673008552 0 0.023096501243254922 0.00040056730687272781 0 0.023122779403848288 0.00048146425985377708 0 0.023096501243254922 0.00040056730687272781 0 0.02308044662797358 0.00034430256507110677 0 0.023108935657047393 0.00042855546673008552 0 0.023063243407714838 0.00035187939475370437 0 0.023070958045742516 0.0003674954564588029 0 0.023108935657047393 0.00042855546673008552 0 0.023096501243254922 0.00040056730687272781 0 0.023063243407714838 0.00035187939475370437 0 0.023096501243254922 0.00040056730687272781 0 0.023063243407714838 0.00035187939475370437 0 0.02308044662797358 0.00034430256507110677 0 0.023063243407714838 0.00035187939475370437 0 0.023015382945912551 0.00032062947799739694 0 0.023070958045742516 0.0003674954564588029 0 0.023063243407714838 0.00035187939475370437 0 0.023015382945912551 0.00032062947799739694 0 0.023009698530642924 0.00029176608586874056 0 0.023080141673082116 0.00036538161680833934 0 0.023136616530446956 0.00041802867194620552 0 0.023070958045742516 0.0003674954564588029 0 0.023080141673082116 0.00036538161680833934 0 0.023070958045742516 0.0003674954564588029 0 0.022985360154589539 0.00031767641448832211 0 0.023080141673082116 0.00036538161680833934 0 0.022985360154589539 0.00031767641448832211 0 0.022955745926741121 0.00032240863546128027 0 0.023015382945912551 0.00032062947799739694 0 0.022985360154589539 0.00031767641448832211 0 0.022939997265537245 0.00026772542898393595 0 0.023015382945912551 0.00032062947799739694 0 0.023070958045742516 0.0003674954564588029 0 0.022985360154589539 0.00031767641448832211 0 0.022985360154589539 0.00031767641448832211 0 0.022890136899270198 0.00026983936994155592 0 0.022939997265537245 0.00026772542898393595 0 0.022890136899270198 0.00026983936994155592 0 0.022805127064167596 0.00022719846863874721 0 0.022833309251025773 0.00027145511645133987 0 0.022890136899270198 0.00026983936994155592 0 0.022833309251025773 0.00027145511645133987 0 0.022955745926741121 0.00032240863546128027 0 0.022985360154589539 0.00031767641448832211 0 0.022890136899270198 0.00026983936994155592 0 0.022955745926741121 0.00032240863546128027 0 0.022737270965579131 0.00021836601465025199 0 0.022805127064167596 0.00022719846863874721 0 0.022833309251025773 0.00027145511645133987 0 0.022737270965579131 0.00021836601465025199 0 0.022833309251025773 0.00027145511645133987 0 0.022759409003653131 0.0002832157856668093 0 0.022737270965579131 0.00021836601465025199 0 0.022759409003653131 0.0002832157856668093 0 0.022699287450903691 0.00026045479839951579 0 0.022759409003653131 0.0002832157856668093 0 0.022732191115487108 0.00034018146380114013 0 0.022698697032981944 0.00029823446932135975 0 0.022759409003653131 0.0002832157856668093 0 0.022698697032981944 0.00029823446932135975 0 0.022699287450903691 0.00026045479839951579 0 0.022833309251025773 0.00027145511645133987 0 0.022759409003653131 0.0002832157856668093 0 0.022865236167846151 0.00033344081191472025 0 0.022759409003653131 0.0002832157856668093 0 0.022865236167846151 0.00033344081191472025 0 0.022732191115487108 0.00034018146380114013 0 0.022865236167846151 0.00033344081191472025 0 0.022955745926741121 0.00032240863546128027 0 0.023078309924471511 0.00040164613207728473 0 0.022833309251025773 0.00027145511645133987 0 0.022865236167846151 0.00033344081191472025 0 0.022955745926741121 0.00032240863546128027 0 0.022865236167846151 0.00033344081191472025 0 0.023078309924471511 0.00040164613207728473 0 0.022845044224187993 0.00047230912722440795 0 0.023078309924471511 0.00040164613207728473 0 0.022845044224187993 0.00047230912722440795 0 0.023189611329599267 0.00069045454106404173 0 0.022865236167846151 0.00033344081191472025 0 0.022732191115487108 0.00034018146380114013 0 0.022845044224187993 0.00047230912722440795 0 0.022732191115487108 0.00034018146380114013 0 0.022845044224187993 0.00047230912722440795 0 0.022382975274333583 0.00046637216623600218 0 0.022733690781980908 0.00090376667075370125 0 0.022845044224187993 0.00047230912722440795 0 0.022382975274333583 0.00046637216623600218 0 0.022733690781980908 0.00090376667075370125 0 0.022845044224187993 0.00047230912722440795 0 0.023189611329599267 0.00069045454106404173 0 0.021168192731962961 0.0004727935815856323 0 0.022382975274333583 0.00046637216623600218 0 0.021843022440416988 -0.00015134147855440922 0 0.021168192731962961 0.0004727935815856323 0 0.021659329441107059 0.0010379057086751962 0 0.022382975274333583 0.00046637216623600218 0 0.022732191115487108 0.00034018146380114013 0 0.022382975274333583 0.00046637216623600218 0 0.02260587567099628 0.00032038003573730232 0 0.022404615034772046 0.00042582406104644751 0 0.022409164225565298 -0.00012869092942379722 0 0.022382975274333583 0.00046637216623600218 0 0.021843022440416988 -0.00015134147855440922 0 0.022311760414265459 -0.00068864790607042433 0 0.021843022440416988 -0.00015134147855440922 0 0.022064920776018057 -0.00065798022895730847 0 0.022311760414265459 -0.00068864790607042433 0 0.021237364820222478 -0.00033819864106950976 0 0.021843022440416988 -0.00015134147855440922 0 0.022064920776018057 -0.00065798022895730847 0 0.021168192731962961 0.0004727935815856323 0 0.021237364820222478 -0.00033819864106950976 0 0.021843022440416988 -0.00015134147855440922 0 0.018494461997397911 -0.00057807793556623167 0 0.023055184202282777 -0.00068354412171628756 0 0.021237364820222478 -0.00033819864106950976 0 0.021081625179968928 -0.00082423573617838625 0 0.022064920776018057 -0.00065798022895730847 0 0.021441951918380098 -0.00085814684189432493 0 0.021918768933973921 -0.00084250210508994051 0 0.02185585036869098 -0.00097765333625532218 0 0.021441951918380098 -0.00085814684189432493 0 0.022064920776018057 -0.00065798022895730847 0 0.021918768933973921 -0.00084250210508994051 0 0.022064920776018057 -0.00065798022895730847 0 0.021918768933973921 -0.00084250210508994051 0 0.022088255711125885 -0.00078220395841267819 0 0.021918768933973921 -0.00084250210508994051 0 0.022093109816603909 -0.00092247204993128418 0 0.022088255711125885 -0.00078220395841267819 0 0.021918768933973921 -0.00084250210508994051 0 0.022093109816603909 -0.00092247204993128418 0 0.02185585036869098 -0.00097765333625532218 0 0.022409164225565298 -0.00012869092942379722 0 0.022778079756052071 -0.00051163621609282852 0 0.022311760414265459 -0.00068864790607042433 0 0.022093109816603909 -0.00092247204993128418 0 0.022109258224107527 -0.0011382105371023502 0 0.022732191115487108 0.00034018146380114013 0 0.02260587567099628 0.00032038003573730232 0 0.022698697032981944 0.00029823446932135975 0 0.022064920776018057 -0.00065798022895730847 0 0.022311760414265459 -0.00068864790607042433 0 0.022088255711125885 -0.00078220395841267819 0 0.022311760414265459 -0.00068864790607042433 0 0.022093109816603909 -0.00092247204993128418 0 0.022088255711125885 -0.00078220395841267819 0 0.02260587567099628 0.00032038003573730232 0 0.022698697032981944 0.00029823446932135975 0 0.022699287450903691 0.00026045479839951579 0 0.02260587567099628 0.00032038003573730232 0 0.022699287450903691 0.00026045479839951579 0 0.022682623909511142 0.00021882251246192115 0 0.022093109816603909 -0.00092247204993128418 0 0.022109258224107527 -0.0011382105371023502 0 0.021976181333410876 -0.0010687754779708648 0 0.022737270965579131 0.00021836601465025199 0 0.022699287450903691 0.00026045479839951579 0 0.022682623909511142 0.00021882251246192115 0 0.022109258224107527 -0.0011382105371023502 0 0.021976181333410876 -0.0010687754779708648 0 0.021842637836921589 -0.0012110596663296573 0 0.021441951918380098 -0.00085814684189432493 0 0.02185585036869098 -0.00097765333625532218 0 0.021842637836921589 -0.0012110596663296573 0 0.022093109816603909 -0.00092247204993128418 0 0.02185585036869098 -0.00097765333625532218 0 0.021976181333410876 -0.0010687754779708648 0 0.02185585036869098 -0.00097765333625532218 0 0.021976181333410876 -0.0010687754779708648 0 0.021842637836921589 -0.0012110596663296573 0 0.017291160236975162 -0.00063829685285851352 0 0.017965365040147847 -0.00043453841276635239 0 0.013186152383155595 -0.00013842541545338899 0 0.01329032470309403 -0.00024753203401976011 0 0.013194742656656776 -0.00029177288539561336 0 0.022109258224107527 -0.0011382105371023502 0 0.021842637836921589 -0.0012110596663296573 0 0.022049157438233127 -0.0014322938577013406 0 0.022737270965579131 0.00021836601465025199 0 0.022682623909511142 0.00021882251246192115 0 0.022690382156242469 0.0001458002796821562 0 0.022778079756052071 -0.00051163621609282852 0 0.017965365040147847 -0.00043453841276635239 0 0.01329032470309403 -0.00024753203401976011 0 0.013194742656656776 -0.00029177288539561336 0 0.013288142658709869 -0.00033372001181215848 0 0.01332223228657424 -0.00023435894594926442 0 0.013288142658709869 -0.00033372001181215848 0 0.013399766074184079 -0.00033299322101930465 0 0.017965365040147847 -0.00043453841276635239 0 0.018379842641819695 -0.00025297296230635506 0 0.017965365040147847 -0.00043453841276635239 0 0.014110272697787852 -0.00021333480627361249 0 0.013186152383155595 -0.00013842541545338899 0 0.013194742656656776 -0.00029177288539561336 0 0.013083288156729125 -0.00028929444061627486 0 0.013194742656656776 -0.00029177288539561336 0 0.013176095755854239 -0.00040028489594490788 0 0.013083288156729125 -0.00028929444061627486 0 0.013176095755854239 -0.00040028489594490788 0 0.013083288156729125 -0.00028929444061627486 0 0.012962846190989806 -0.00044439534329548475 0 0.013176095755854239 -0.00040028489594490788 0 0.013328795825592724 -0.00040863699874134905 0 0.013318220338909906 -0.00050944238274667347 0 0.013176095755854239 -0.00040028489594490788 0 0.013288142658709869 -0.00033372001181215848 0 0.013328795825592724 -0.00040863699874134905 0 0.013194742656656776 -0.00029177288539561336 0 0.013176095755854239 -0.00040028489594490788 0 0.013288142658709869 -0.00033372001181215848 0 0.013288142658709869 -0.00033372001181215848 0 0.013328795825592724 -0.00040863699874134905 0 0.013399766074184079 -0.00033299322101930465 0 0.0077690013949822511 0.00085148208429846716 0 0.0071826313943482052 0.00064712491293537043 0 0.0077558736151866229 0.00038911908766303926 0 0.013176095755854239 -0.00040028489594490788 0 0.013318220338909906 -0.00050944238274667347 0 0.01312054014375467 -0.00054981806450711426 0 0.010587506443069626 0.00015643786665394381 0 0.0061909079201931403 0.00059026522874137521 0 0.013176095755854239 -0.00040028489594490788 0 0.01312054014375467 -0.00054981806450711426 0 0.012962846190989806 -0.00044439534329548475 0 0.00068861808554326854 0.0008717089774781323 0 0.00068734705503257772 0.00087165623729351508 0 0.00071641148202494006 0.00074621930573516711 0 0.0061909079201931403 0.00059026522874137521 0 0.0068314586795916767 8.8344945817818007e-05 0 0.0061909079201931403 0.00059026522874137521 0 0.00053322904390287176 -8.2176862514399862e-05 0 0.014882745262552699 0.00017109328603530437 0 0.014231614598363756 0.00089129519907708398 0 0.0150371693944593 0.0011859317862097424 0 0.0086625715038304799 0.00063750653777941153 0 0.0081689747658604782 0.00061043236838626317 0 0.0083378071390857282 0.0010337218153110028 0 0.011451674598217715 0.0007170555109448927 0 0.014447190647226091 0.00037743325336853957 0 0.0077690013949822511 0.00085148208429846716 0 0.0081689747658604782 0.00061043236838626317 0 0.0083378071390857282 0.0010337218153110028 0 0.010587506443069626 0.00015643786665394381 0 0.014447190647226091 0.00037743325336853957 0 0.0077690013949822511 0.00085148208429846716 0 0.0081689747658604782 0.00061043236838626317 0 0.0077558736151866229 0.00038911908766303926 0 0.018379842641819695 -0.00025297296230635506 0 0.014447190647226091 0.00037743325336853957 0 0.013328795825592724 -0.00040863699874134905 0 0.013399766074184079 -0.00033299322101930465 0 0.013515331224461351 -0.00044718156830793999 0 0.013328795825592724 -0.00040863699874134905 0 0.013318220338909906 -0.00050944238274667347 0 0.013515331224461351 -0.00044718156830793999 0 0.022795430142624713 0.00020494637670236075 0 0.022079188255282635 0.0011122961533404118 0 0.02260955244424882 0.00016838293115029992 0 0.021992339303073628 0.00046916530074336295 0 0.021311222100166925 0.00024908069403914543 0 0.02260955244424882 0.00016838293115029992 0 0.022360276621691402 0.00018905401256678683 0 0.022431213380029912 0.00018393251427101665 0 0.021992339303073628 0.00046916530074336295 0 0.022079188255282635 0.0011122961533404118 0 0.02260955244424882 0.00016838293115029992 0 0.014447190647226091 0.00037743325336853957 0 0.018367618320782059 0.0010957237855467269 0 0.021992339303073628 0.00046916530074336295 0 0.022079188255282635 0.0011122961533404118 0 0.021042103101197699 0.00078587440602210796 0 0.021992339303073628 0.00046916530074336295 0 0.021311222100166925 0.00024908069403914543 0 0.021042103101197699 0.00078587440602210796 0 0.0227675926171612 0.00018807319783258885 0 0.022757983867851304 0.00016544421812287203 0 0.022741208638849569 0.00017162436676586399 0 0.0227675926171612 0.00018807319783258885 0 0.022741208638849569 0.00017162436676586399 0 0.02260955244424882 0.00016838293115029992 0 0.022741208638849569 0.00017162436676586399 0 0.02276226256229422 0.00016442998734285681 0 0.022708345476055325 0.00016270316857605884 0 0.022757983867851304 0.00016544421812287203 0 0.022741208638849569 0.00017162436676586399 0 0.022802776791460477 0.00013366542095156054 0 0.022741208638849569 0.00017162436676586399 0 0.02276226256229422 0.00016442998734285681 0 0.022802776791460477 0.00013366542095156054 0 0.022690382156242469 0.0001458002796821562 0 0.022728068118876271 0.0001491901701183637 0 0.022746021277518066 0.0001736172858367277 0 0.022795430142624713 0.00020494637670236075 0 0.02260955244424882 0.00016838293115029992 0 0.022728068118876271 0.0001491901701183637 0 0.022690382156242469 0.0001458002796821562 0 0.022795430142624713 0.00020494637670236075 0 0.022728068118876271 0.0001491901701183637 0 0.022741208638849569 0.00017162436676586399 0 0.02260955244424882 0.00016838293115029992 0 0.022708345476055325 0.00016270316857605884 0 0.02260955244424882 0.00016838293115029992 0 0.022708345476055325 0.00016270316857605884 0 0.022728068118876271 0.0001491901701183637 0 0.022708345476055325 0.00016270316857605884 0 0.022728068118876271 0.0001491901701183637 0 0.022746021277518066 0.0001736172858367277 0 0.02276226256229422 0.00016442998734285681 0 0.022708345476055325 0.00016270316857605884 0 0.022746021277518066 0.0001736172858367277 0 0.022737270965579131 0.00021836601465025199 0 0.022690382156242469 0.0001458002796821562 0 0.022746021277518066 0.0001736172858367277 0 0.022737270965579131 0.00021836601465025199 0 0.022805127064167596 0.00022719846863874721 0 0.022746021277518066 0.0001736172858367277 0 0.02276226256229422 0.00016442998734285681 0 0.022802776791460477 0.00013366542095156054 0 0.022824190912064168 0.00020549777263796052 0 0.022802776791460477 0.00013366542095156054 0 0.022824190912064168 0.00020549777263796052 0 0.022911751349950587 0.0002071815117172896 0 0.02276226256229422 0.00016442998734285681 0 0.022746021277518066 0.0001736172858367277 0 0.022824190912064168 0.00020549777263796052 0 0.022805127064167596 0.00022719846863874721 0 0.022746021277518066 0.0001736172858367277 0 0.022824190912064168 0.00020549777263796052 0 0.022890136899270198 0.00026983936994155592 0 0.022805127064167596 0.00022719846863874721 0 0.022824190912064168 0.00020549777263796052 0 0.022824190912064168 0.00020549777263796052 0 0.022939997265537245 0.00026772542898393595 0 0.022911751349950587 0.0002071815117172896 0 0.022890136899270198 0.00026983936994155592 0 0.022824190912064168 0.00020549777263796052 0 0.022939997265537245 0.00026772542898393595 0 0.022939997265537245 0.00026772542898393595 0 0.022911751349950587 0.0002071815117172896 0 0.022989888891471983 0.00024739586256874882 0 0.023015382945912551 0.00032062947799739694 0 0.022939997265537245 0.00026772542898393595 0 0.023009698530642924 0.00029176608586874056 0 0.022939997265537245 0.00026772542898393595 0 0.022989888891471983 0.00024739586256874882 0 0.023009698530642924 0.00029176608586874056 0 0.022802776791460477 0.00013366542095156054 0 0.022911751349950587 0.0002071815117172896 0 0.023053422474813866 0.00018769836505402071 0 0.022802776791460477 0.00013366542095156054 0 0.022603036591387821 3.0400148591459123e-06 0 0.022657432113492457 6.4023089869856288e-05 0 0.022816163411716304 0.0001319166740534248 0 0.022700874497861141 0.00032959289659832821 0 0.022911751349950587 0.0002071815117172896 0 0.023053422474813866 0.00018769836505402071 0 0.022989888891471983 0.00024739586256874882 0 0.023053422474813866 0.00018769836505402071 0 0.02304063041311874 0.0002898052508682002 0 0.022989888891471983 0.00024739586256874882 0 0.022600578067262334 1.3763279448050461e-05 0 0.022657432113492457 6.4023089869856288e-05 0 0.022594056383718798 7.9988731744382217e-05 0 0.022600578067262334 1.3763279448050461e-05 0 0.022524592315189076 6.2843084156217241e-05 0 0.022594056383718798 7.9988731744382217e-05 0 0.022700874497861141 0.00032959289659832821 0 0.022614793346393644 0.00020525423501785697 0 0.023053422474813866 0.00018769836505402071 0 0.02304063041311874 0.0002898052508682002 0 0.02308044662797358 0.00034430256507110677 0 0.02304063041311874 0.0002898052508682002 0 0.022989888891471983 0.00024739586256874882 0 0.023009698530642924 0.00029176608586874056 0 0.023063243407714838 0.00035187939475370437 0 0.02304063041311874 0.0002898052508682002 0 0.023009698530642924 0.00029176608586874056 0 0.022289635179915401 0.00062434702870349057 0 0.02256070916098445 0.00082073812014348978 0 0.022321562533828131 0.00074520225729508155 0 0.022600578067262334 1.3763279448050461e-05 0 0.022368461100727304 -6.584896143831096e-05 0 0.022455806948067494 3.2575517761000827e-05 0 0.023122779403848288 0.00048146425985377708 0 0.023053422474813866 0.00018769836505402071 0 0.02308044662797358 0.00034430256507110677 0 0.022700874497861141 0.00032959289659832821 0 0.02235323322405328 0.00034124936707204644 0 0.022712116605000523 0.00058116669337470643 0 0.022700874497861141 0.00032959289659832821 0 0.023063243407714838 0.00035187939475370437 0 0.02304063041311874 0.0002898052508682002 0 0.02308044662797358 0.00034430256507110677 0 0.022368461100727304 -6.584896143831096e-05 0 0.022455806948067494 3.2575517761000827e-05 0 0.022372981293339176 4.980571598432344e-05 0 0.022600578067262334 1.3763279448050461e-05 0 0.022455806948067494 3.2575517761000827e-05 0 0.022524592315189076 6.2843084156217241e-05 0 0.022524592315189076 6.2843084156217241e-05 0 0.022547877080308771 0.00012438887631646009 0 0.022594056383718798 7.9988731744382217e-05 0 0.022469888142478182 0.00018144138329357289 0 0.022323965396672925 0.00023051954517893465 0 0.022548401505654726 0.00029455348445367994 0 0.022524592315189076 6.2843084156217241e-05 0 0.022547877080308771 0.00012438887631646009 0 0.022446196675055499 9.5836126831782241e-05 0 0.022455806948067494 3.2575517761000827e-05 0 0.022524592315189076 6.2843084156217241e-05 0 0.022446196675055499 9.5836126831782241e-05 0 0.022547877080308771 0.00012438887631646009 0 0.022446196675055499 9.5836126831782241e-05 0 0.022469888142478182 0.00018144138329357289 0 0.022372981293339176 4.980571598432344e-05 0 0.022446196675055499 9.5836126831782241e-05 0 0.022366844279970415 0.00012674804508641804 0 0.022455806948067494 3.2575517761000827e-05 0 0.022372981293339176 4.980571598432344e-05 0 0.022446196675055499 9.5836126831782241e-05 0 0.022446196675055499 9.5836126831782241e-05 0 0.022366844279970415 0.00012674804508641804 0 0.022469888142478182 0.00018144138329357289 0 0.022366844279970415 0.00012674804508641804 0 0.022469888142478182 0.00018144138329357289 0 0.022323965396672925 0.00023051954517893465 0 0.022547877080308771 0.00012438887631646009 0 0.022469888142478182 0.00018144138329357289 0 0.022577939860202654 0.00018174709378129307 0 0.022469888142478182 0.00018144138329357289 0 0.022577939860202654 0.00018174709378129307 0 0.022548401505654726 0.00029455348445367994 0 0.022577939860202654 0.00018174709378129307 0 0.022677409406828802 0.00018290127484994133 0 0.022548401505654726 0.00029455348445367994 0 0.022577939860202654 0.00018174709378129307 0 0.022677409406828802 0.00018290127484994133 0 0.022638290617346256 0.00013125635941253679 0 0.0227675926171612 0.00018807319783258885 0 0.022757983867851304 0.00016544421812287203 0 0.022677409406828802 0.00018290127484994133 0 0.022757983867851304 0.00016544421812287203 0 0.022677409406828802 0.00018290127484994133 0 0.022709893717497966 0.00013897940687854348 0 0.022677409406828802 0.00018290127484994133 0 0.022709893717497966 0.00013897940687854348 0 0.022638290617346256 0.00013125635941253679 0 0.022802776791460477 0.00013366542095156054 0 0.022709893717497966 0.00013897940687854348 0 0.022657432113492457 6.4023089869856288e-05 0 0.022757983867851304 0.00016544421812287203 0 0.022802776791460477 0.00013366542095156054 0 0.022709893717497966 0.00013897940687854348 0 0.022657432113492457 6.4023089869856288e-05 0 0.022594056383718798 7.9988731744382217e-05 0 0.022638290617346256 0.00013125635941253679 0 0.022547877080308771 0.00012438887631646009 0 0.022594056383718798 7.9988731744382217e-05 0 0.022638290617346256 0.00013125635941253679 0 0.022547877080308771 0.00012438887631646009 0 0.022577939860202654 0.00018174709378129307 0 0.022638290617346256 0.00013125635941253679 0 0.022709893717497966 0.00013897940687854348 0 0.022657432113492457 6.4023089869856288e-05 0 0.022638290617346256 0.00013125635941253679 0 0.021168142202209181 0.00058444454157565774 0 0.021210455503873966 0.00060090387456811494 0 0.021131825170172709 0.00062742437157990694 0 0.021148397636360498 0.00056432132977813417 0 0.021131825170172709 0.00062742437157990694 0 0.021117014501841311 0.00057109467463039459 0 0.021148397636360498 0.00056432132977813417 0 0.021168142202209181 0.00058444454157565774 0 0.021131825170172709 0.00062742437157990694 0 0.021148397636360498 0.00056432132977813417 0 0.021178930313036512 0.00055028443095287685 0 0.021168142202209181 0.00058444454157565774 0 0.022368461100727304 -6.584896143831096e-05 0 0.022144103628793238 -0.00013913244966648128 0 0.022235764532507651 4.2625539363895383e-05 0 0.02235323322405328 0.00034124936707204644 0 0.021908937404268209 0.00042732503257208451 0 0.022289635179915401 0.00062434702870349057 0 0.022321562533828131 0.00074520225729508155 0 0.022074716594106064 0.00066844800827940958 0 0.021178930313036512 0.00055028443095287685 0 0.021168142202209181 0.00058444454157565774 0 0.021210455503873966 0.00060090387456811494 0 0.021908937404268209 0.00042732503257208451 0 0.021683226699095587 0.00028685486896603543 0 0.022368461100727304 -6.584896143831096e-05 0 0.022372981293339176 4.980571598432344e-05 0 0.022235764532507651 4.2625539363895383e-05 0 0.021210455503873966 0.00060090387456811494 0 0.021241651049961452 0.00066947826095729228 0 0.021131825170172709 0.00062742437157990694 0 0.021128417156653582 0.00067902746447342957 0 0.021130301084539036 0.00067203291041975969 0 0.021131825170172709 0.00062742437157990694 0 0.020943082598699096 0.00086883346720559632 0 0.021213214365867157 0.00060078535373824741 0 0.021683226699095587 0.00028685486896603543 0 0.020943082598699096 0.00086883346720559632 0 0.022366844279970415 0.00012674804508641804 0 0.022235764532507651 4.2625539363895383e-05 0 0.022323965396672925 0.00023051954517893465 0 0.022372981293339176 4.980571598432344e-05 0 0.022366844279970415 0.00012674804508641804 0 0.022235764532507651 4.2625539363895383e-05 0 0.021131825170172709 0.00062742437157990694 0 0.021124713724524968 0.00070778389587139337 0 0.021038893917867795 0.00065078317492079968 0 0.021130301084539036 0.00067203291041975969 0 0.021131825170172709 0.00062742437157990694 0 0.021124713724524968 0.00070778389587139337 0 0.019528043372159107 0.00099383900500818836 0 0.017800868884777783 0.0007686882218612091 0 0.017843970085814911 0.0012022957565281825 0 0.016108619696181346 -0.00013596081056210471 0 0.014838290345882554 0.001565321116821316 0 0.021128417156653582 0.00067902746447342957 0 0.021130301084539036 0.00067203291041975969 0 0.021121458737344164 0.00067314001476293211 0 0.021130301084539036 0.00067203291041975969 0 0.021124713724524968 0.00070778389587139337 0 0.021121458737344164 0.00067314001476293211 0 0.020943082598699096 0.00086883346720559632 0 0.017800868884777783 0.0007686882218612091 0 0.016108619696181346 -0.00013596081056210471 0 0.016319630951631154 -0.0020382377053324587 0 0.018819414425672462 -0.0007569043685973849 0 0.017843970085814911 0.0012022957565281825 0 0.016108619696181346 -0.00013596081056210471 0 0.018819414425672462 -0.0007569043685973849 0 0.0227675926171612 0.00018807319783258885 0 0.022677409406828802 0.00018290127484994133 0 0.022548401505654726 0.00029455348445367994 0 0.021311222100166925 0.00024908069403914543 0 0.021042103101197699 0.00078587440602210796 0 0.019960485596709449 0.00040055881494877569 0 0.022360276621691402 0.00018905401256678683 0 0.019532888442566235 0.00059503415195741988 0 0.015598295590998684 0.00088053265931228549 0 0.0150371693944593 0.0011859317862097424 0 0.015851116801659768 0.001482547421988994 0 0.018367618320782059 0.0010957237855467269 0 0.019532888442566235 0.00059503415195741988 0 0.020943082598699096 0.00086883346720559632 0 0.019532888442566235 0.00059503415195741988 0 0.017800868884777783 0.0007686882218612091 0 0.014985072771823682 4.2659205008963669e-05 0 0.019532888442566235 0.00059503415195741988 0 0.017800868884777783 0.0007686882218612091 0 0.015598295590998684 0.00088053265931228549 0 0.015851116801659768 0.001482547421988994 0 0.016546245624145334 0.0014017919408186128 0 0.019695426626350421 0.00071155524050744827 0 0.0192230264982883 0.00053451827661551478 0 0.019588614996209848 0.00049593761342677195 0 0.015598295590998684 0.00088053265931228549 0 0.016546245624145334 0.0014017919408186128 0 0.016037692250129871 0.00041740118537523727 0 0.016108619696181346 -0.00013596081056210471 0 0.014838290345882554 0.001565321116821316 0 0.013875965985880957 -0.00035824483706614629 0 0.016108619696181346 -0.00013596081056210471 0 0.013875965985880957 -0.00035824483706614629 0 0.014566941559743371 -0.0016796065907243086 0 0.014882745262552699 0.00017109328603530437 0 0.015598295590998684 0.00088053265931228549 0 0.016037692250129871 0.00041740118537523727 0 0.014882745262552699 0.00017109328603530437 0 0.015598295590998684 0.00088053265931228549 0 0.0150371693944593 0.0011859317862097424 0 0.0086625715038304799 0.00063750653777941153 0 0.0086723864726337505 0.00023168214052668464 0 0.0089864437791025171 0.00025785800174794838 0 0.011451674598217715 0.0007170555109448927 0 0.011691584513338453 -0.00062744148401408539 0 0.014882745262552699 0.00017109328603530437 0 0.016037692250129871 0.00041740118537523727 0 0.015530894724355081 -0.00055478073878651878 0 0.0086723864726337505 0.00023168214052668464 0 0.0089864437791025171 0.00025785800174794838 0 0.0087967026576552185 -8.1959235357267955e-05 0 0.014985072771823682 4.2659205008963669e-05 0 0.011691584513338453 -0.00062744148401408539 0 0.014566941559743371 -0.0016796065907243086 0 0.013854399170206337 -0.0032924913223170379 0 0.016319630951631154 -0.0020382377053324587 0 0.013875965985880957 -0.00035824483706614629 0 0.012914722357544288 -0.002259712505226196 0 0.014566941559743371 -0.0016796065907243086 0 0.012914722357544288 -0.002259712505226196 0 0.014566941559743371 -0.0016796065907243086 0 0.013854399170206337 -0.0032924913223170379 0 0.0080859069507088644 0.0011366019086164439 0 0.0046583334912893137 0.0013393270723166231 0 0.011691584513338453 -0.00062744148401408539 0 0.0080859069507088644 0.0011366019086164439 0 0.0020972104206560889 0.0027311482593637255 0 0.0019637290315601469 0.0024319051648000693 0 0.0021831541623656176 0.002214801493855494 0 0.0020972104206560889 0.0027311482593637255 0 0.0019637290315601469 0.0024319051648000693 0 0.0017366614982864716 0.002536160941007966 0 0.0017366614982864716 0.002536160941007966 0 0.0016439656294244462 0.0024857214291988399 0 0.0018377446612165261 0.0022417377320230916 0 0.0019637290315601469 0.0024319051648000693 0 0.0017366614982864716 0.002536160941007966 0 0.0018377446612165261 0.0022417377320230916 0 0.0017391168026586407 0.0025317637018683367 0 0.0016439656294244462 0.0024857214291988399 0 0.0015403370627804207 0.0026225357521215379 0 0.0046583334912893137 0.0013393270723166231 0 0.0046671631037408486 0.00096032604361177148 0 0.0046583334912893137 0.0013393270723166231 0 0.0040938685423710331 0.0012459905655361262 0 0.011691584513338453 -0.00062744148401408539 0 0.0046671631037408486 0.00096032604361177148 0 0.0078001008470473983 0.00078903491243895944 0 0.007768695651665501 0.00055890044785510346 0 0.0076836059405566391 0.00059756976957721472 0 0.0078001008470473983 0.00078903491243895944 0 0.0079305693895778857 0.00064133951246668074 0 0.007768695651665501 0.00055890044785510346 0 0.0088259646707548444 0.0019489091827059335 0 0.0090522336065750192 0.0018124715352831741 0 0.0092109041700514354 0.0022152467366654042 0 0.0088259646707548444 0.0019489091827059335 0 0.0088942614555795555 0.0017865445562048781 0 0.0090522336065750192 0.0018124715352831741 0 0.013109496380400503 -0.00016968482233431812 0 0.013928314824871222 0.00073695238473939391 0 0.016108619696181346 -0.00013596081056210471 0 0.014566941559743371 -0.0016796065907243086 0 0.016319630951631154 -0.0020382377053324587 0 0.0080859069507088644 0.0011366019086164439 0 0.013109496380400503 -0.00016968482233431812 0 0.0088259646707548444 0.0019489091827059335 0 0.0087721307331813467 0.0017342004662748098 0 0.0088942614555795555 0.0017865445562048781 0 0.0085463131110196516 0.0017786821024032052 0 0.0088259646707548444 0.0019489091827059335 0 0.0087721307331813467 0.0017342004662748098 0 0.0085463131110196516 0.0017786821024032052 0 0.0087721307331813467 0.0017342004662748098 0 0.0087778785083338536 0.0015435691045138577 0 0.0089324901092994857 0.0016744866753425883 0 0.0090522336065750192 0.0018124715352831741 0 0.0090879877612721153 0.001660295467168764 0 0.0088942614555795555 0.0017865445562048781 0 0.0089324901092994857 0.0016744866753425883 0 0.0090522336065750192 0.0018124715352831741 0 0.0087721307331813467 0.0017342004662748098 0 0.0088942614555795555 0.0017865445562048781 0 0.0089324901092994857 0.0016744866753425883 0 0.0089324901092994857 0.0016744866753425883 0 0.0089871594703839434 0.0015420718834834746 0 0.0087778785083338536 0.0015435691045138577 0 0.0089324901092994857 0.0016744866753425883 0 0.0089871594703839434 0.0015420718834834746 0 0.0090879877612721153 0.001660295467168764 0 0.0028893918762784195 0.0020040916138835884 0 0.0021831541623656176 0.002214801493855494 0 0.0023514596167944187 0.0018619373676218196 0 0.0087721307331813467 0.0017342004662748098 0 0.0089324901092994857 0.0016744866753425883 0 0.0087778785083338536 0.0015435691045138577 0 0.0028893918762784195 0.0020040916138835884 0 0.0025755256914318687 0.0015246756505369616 0 0.0023514596167944187 0.0018619373676218196 0 0.0028893918762784195 0.0020040916138835884 0 0.0025755256914318687 0.0015246756505369616 0 0.0030788374875564697 0.00081778851324559171 0 0.0053657559858979083 0.0020475764764471089 0 0.006234145085640074 0.0011833510091307272 0 0.0089871594703839434 0.0015420718834834746 0 0.0087778785083338536 0.0015435691045138577 0 0.0089701486239452781 0.0013282864397725681 0 0.0028893918762784195 0.0020040916138835884 0 0.0041184714312009875 0.0008362187890838612 0 0.0030788374875564697 0.00081778851324559171 0 0.0015403370627804207 0.0026225357521215379 0 0.0015319395960961262 0.001886739265648115 0 0.0010415907108752753 0.0016593691044187037 0 0.0016439656294244462 0.0024857214291988399 0 0.0015319395960961262 0.001886739265648115 0 0.0018377446612165261 0.0022417377320230916 0 0.0016439656294244462 0.0024857214291988399 0 0.0015403370627804207 0.0026225357521215379 0 0.0015319395960961262 0.001886739265648115 0 0.0015319395960961262 0.001886739265648115 0 0.0019754874716841437 0.0019102870583463368 0 0.0017794033091019974 0.0015955713467881991 0 0.0015319395960961262 0.001886739265648115 0 0.0018377446612165261 0.0022417377320230916 0 0.0019754874716841437 0.0019102870583463368 0 0.0080859069507088644 0.0011366019086164439 0 0.0053657559858979083 0.0020475764764471089 0 0.0018377446612165261 0.0022417377320230916 0 0.0021831541623656176 0.002214801493855494 0 0.0019754874716841437 0.0019102870583463368 0 0.0020972104206560889 0.0027311482593637255 0 0.0028893918762784195 0.0020040916138835884 0 0.0021831541623656176 0.002214801493855494 0 0.0019637290315601469 0.0024319051648000693 0 0.0018377446612165261 0.0022417377320230916 0 0.0021831541623656176 0.002214801493855494 0 0.0023514596167944187 0.0018619373676218196 0 0.0019754874716841437 0.0019102870583463368 0 0.002188725614564424 0.0016458711747253027 0 0.0021831541623656176 0.002214801493855494 0 0.0023514596167944187 0.0018619373676218196 0 0.0019754874716841437 0.0019102870583463368 0 0.0025755256914318687 0.0015246756505369616 0 0.0020239480072911189 0.0013468804904174371 0 0.0023874036076940558 0.00099655264892107415 0 0.002188725614564424 0.0016458711747253027 0 0.0020239480072911189 0.0013468804904174371 0 0.0017794033091019974 0.0015955713467881991 0 0.0019754874716841437 0.0019102870583463368 0 0.002188725614564424 0.0016458711747253027 0 0.0017794033091019974 0.0015955713467881991 0 0.0025755256914318687 0.0015246756505369616 0 0.002188725614564424 0.0016458711747253027 0 0.0020239480072911189 0.0013468804904174371 0 0.0025755256914318687 0.0015246756505369616 0 0.0023514596167944187 0.0018619373676218196 0 0.002188725614564424 0.0016458711747253027 0 0.0015319395960961262 0.001886739265648115 0 0.0017794033091019974 0.0015955713467881991 0 0.0014348281639711895 0.0012194556500577129 0 0.0020239480072911189 0.0013468804904174371 0 0.0017794033091019974 0.0015955713467881991 0 0.0014348281639711895 0.0012194556500577129 0 0.0015319395960961262 0.001886739265648115 0 0.0010415907108752753 0.0016593691044187037 0 0.0014348281639711895 0.0012194556500577129 0 0.00082507227693044531 0.0010612387188093904 0 0.00075535255496946886 0.0011022309296657891 0 0.00090182276367828406 0.0010201006546236855 0 0.00082507227693044531 0.0010612387188093904 0 0.00077359755758711808 0.001060717352775409 0 0.00075535255496946886 0.0011022309296657891 0 0.0046671631037408486 0.00096032604361177148 0 0.0004084829431818184 0.0014313091868768384 0 0.00085979847473846821 0.0010706405384057645 0 0.00082507227693044531 0.0010612387188093904 0 0.00077359755758711808 0.001060717352775409 0 0.00075535255496946886 0.0011022309296657891 0 0.00065914505393025 0.0011434181796240331 0 0.00057431872888014926 0.0012131749491467217 0 0.00075535255496946886 0.0011022309296657891 0 0.00062395289593231498 0.0011048777570730635 0 0.00057431872888014926 0.0012131749491467217 0 0.00062395289593231498 0.0011048777570730635 0 0.00070546732478118847 0.001071972265866098 0 0.00064106395842466145 0.0010166260737462609 0 0.00077359755758711808 0.001060717352775409 0 0.00075535255496946886 0.0011022309296657891 0 0.00070546732478118847 0.001071972265866098 0 0.00075535255496946886 0.0011022309296657891 0 0.00062395289593231498 0.0011048777570730635 0 0.00070546732478118847 0.001071972265866098 0 0.00070546732478118847 0.001071972265866098 0 0.00068546575100748028 0.001007499196056373 0 0.00073619177809277475 0.0010443433163587917 0 0.00070546732478118847 0.001071972265866098 0 0.00068546575100748028 0.001007499196056373 0 0.00064106395842466145 0.0010166260737462609 0 0.00062395289593231498 0.0011048777570730635 0 0.00064106395842466145 0.0010166260737462609 0 0.00060305868567771064 0.00096993485760018302 0 0.00068546575100748028 0.001007499196056373 0 0.00064106395842466145 0.0010166260737462609 0 0.00065501611342184106 0.00093160797481031839 0 0.00068546575100748028 0.001007499196056373 0 0.00065501611342184106 0.00093160797481031839 0 0.00068364446626464827 0.00094762041494227958 0 0.00070234221309733124 0.00093758678795655679 0 0.00068364446626464827 0.00094762041494227958 0 0.00068734705503257772 0.00087165623729351508 0 0.00065501611342184106 0.00093160797481031839 0 0.00068364446626464827 0.00094762041494227958 0 0.00068734705503257772 0.00087165623729351508 0 0.00068546575100748028 0.001007499196056373 0 0.00068364446626464827 0.00094762041494227958 0 0.00073597130506205155 0.0010266833848859211 0 0.0061909079201931403 0.00059026522874137521 0 0.0038465971060227242 0.00085032848358417294 0 0.00070234221309733124 0.00093758678795655679 0 0.00068364446626464827 0.00094762041494227958 0 0.00073597130506205155 0.0010266833848859211 0 0.00068546575100748028 0.001007499196056373 0 0.00073597130506205155 0.0010266833848859211 0 0.00073619177809277475 0.0010443433163587917 0 0.0081689747658604782 0.00061043236838626317 0 0.0077558736151866229 0.00038911908766303926 0 0.0082920942124882005 0.00015225140296482416 0 0.0038465971060227242 0.00085032848358417294 0 0.0046733598671111262 0.00052944443178442214 0 0.00073597130506205155 0.0010266833848859211 0 0.00080550866135503576 0.0010688439018038968 0 0.00073619177809277475 0.0010443433163587917 0 0.0086625715038304799 0.00063750653777941153 0 0.0081689747658604782 0.00061043236838626317 0 0.0082920942124882005 0.00015225140296482416 0 0.0086625715038304799 0.00063750653777941153 0 0.0086723864726337505 0.00023168214052668464 0 0.0082920942124882005 0.00015225140296482416 0 0.0086723864726337505 0.00023168214052668464 0 0.0087967026576552185 -8.1959235357267955e-05 0 0.0082920942124882005 0.00015225140296482416 0 0.0046671631037408486 0.00096032604361177148 0 0.0046733598671111262 0.00052944443178442214 0 0.00085979847473846821 0.0010706405384057645 0 0.00077359755758711808 0.001060717352775409 0 0.00080550866135503576 0.0010688439018038968 0 0.00077359755758711808 0.001060717352775409 0 0.00080550866135503576 0.0010688439018038968 0 0.00073619177809277475 0.0010443433163587917 0 0.00077359755758711808 0.001060717352775409 0 0.00070546732478118847 0.001071972265866098 0 0.00073619177809277475 0.0010443433163587917 0 0.012835022644751174 0.00066353175460715636 0 0.012079543898806028 0.00044669544230122049 0 0.013586226456841989 5.3243622809946379e-08 0 0.013776230158679683 3.6239344937458652e-05 0 0.012166605374039687 -8.2543077283767611e-06 0 0.011721949777704029 0.0015070760351210246 0 0.011505706270199556 0.0013487306237310696 0 0.011628906667632275 0.0011960732429693072 0 0.012149342794129192 0.0015490388760298973 0 0.011721949777704029 0.0015070760351210246 0 0.01200549521736991 0.00104837140302529 0 0.011707943281668874 0.0014718377211349405 0 0.011667366140324409 0.0011264448476963175 0 0.012149342794129192 0.0015490388760298973 0 0.011721949777704029 0.0015070760351210246 0 0.011912007143425619 0.0017868531941072209 0 0.011721949777704029 0.0015070760351210246 0 0.011912007143425619 0.0017868531941072209 0 0.01153119078614526 0.001856138902461316 0 0.012149342794129192 0.0015490388760298973 0 0.011912007143425619 0.0017868531941072209 0 0.012289559153521024 0.0019893237422672345 0 0.013776230158679683 3.6239344937458652e-05 0 0.01558537054787771 4.1220718700121483e-07 0 0.015454938605636777 3.8566576994015016e-05 0 0.013586226456841989 5.3243622809946379e-08 0 0.013776230158679683 3.6239344937458652e-05 0 0.01558537054787771 4.1220718700121483e-07 0 0.012835022644751174 0.00066353175460715636 0 0.015081597111805402 0.00095000176672629922 0 0.015081597111805402 0.00095000176672629922 0 0.015305170251002262 0.0018279170547291607 0 0.01697107140609504 0.0018361427351795878 0 0.017894395894431127 0.00086834550504986095 0 0.019171913207845535 0.001378318824894523 0 0.015586301936227832 2.5848350126839467e-06 0 0.015081597111805402 0.00095000176672629922 0 0.015587339780763342 6.6227078261091217e-09 0 0.015636874933978379 1.0267778971859174e-06 0 0.016461016624625752 -1.0038176370833516e-10 0 0.015081597111805402 0.00095000176672629922 0 0.016460958917889977 4.5880790286526827e-07 0 0.01697107140609504 0.0018361427351795878 0 0.017894395894431127 0.00086834550504986095 0 0.016465061039629268 3.5638335422177302e-06 0 0.018200508430871048 -1.0538685924841524e-06 0 0.016465061039629268 3.5638335422177302e-06 0 0.018641322375961177 0.00032366156906331729 0 0.017894395894431127 0.00086834550504986095 0 0.016465061039629268 3.5638335422177302e-06 0 0.018641322375961177 0.00032366156906331729 0 0.019670417356039926 0.00016885538971466902 0 0.01973116583525901 0.00047714556645867901 0 0.018641322375961177 0.00032366156906331729 0 0.018641322375961177 0.00032366156906331729 0 0.019637614356289471 0.0008636922861171147 0 0.019171913207845535 0.001378318824894523 0 0.01973116583525901 0.00047714556645867901 0 0.018641322375961177 0.00032366156906331729 0 0.019637614356289471 0.0008636922861171147 0 0.011912007143425619 0.0017868531941072209 0 0.012289559153521024 0.0019893237422672345 0 0.011871011791968573 0.0020760351582695051 0 0.011912007143425619 0.0017868531941072209 0 0.011871011791968573 0.0020760351582695051 0 0.01153119078614526 0.001856138902461316 0 0.017894395894431127 0.00086834550504986095 0 0.018641322375961177 0.00032366156906331729 0 0.019171913207845535 0.001378318824894523 0 0.011871011791968573 0.0020760351582695051 0 0.011494823135231411 0.0021539957986274707 0 0.01153119078614526 0.001856138902461316 0 0.019637614356289471 0.0008636922861171147 0 0.019171913207845535 0.001378318824894523 0 0.020213009039385964 0.0010241973908434922 0 0.011494823135231411 0.0021539957986274707 0 0.011350223323981723 0.0020779816434656827 0 0.01153119078614526 0.001856138902461316 0 0.019171913207845535 0.001378318824894523 0 0.020397155930160792 0.0011282004599880689 0 0.020213009039385964 0.0010241973908434922 0 0.015305170251002262 0.0018279170547291607 0 0.016415428745218667 0.0014943303009959375 0 0.016415428745218667 0.0014943303009959375 0 0.017604139223658898 0.0018377625359941522 0 0.01973116583525901 0.00047714556645867901 0 0.019637614356289471 0.0008636922861171147 0 0.020122561124279202 0.00071152697697487522 0 0.019637614356289471 0.0008636922861171147 0 0.020122561124279202 0.00071152697697487522 0 0.020213009039385964 0.0010241973908434922 0 0.020331279507008932 0.0010752996628538706 0 0.020213009039385964 0.0010241973908434922 0 0.020425358481222386 0.00076478183553818743 0 0.020122561124279202 0.00071152697697487522 0 0.020213009039385964 0.0010241973908434922 0 0.020425358481222386 0.00076478183553818743 0 0.020715288310787377 0.00038196841496423653 0 0.020259542479488357 0.00039706867283967112 0 0.020425358481222386 0.00076478183553818743 0 0.020259542479488357 0.00039706867283967112 0 0.020122561124279202 0.00071152697697487522 0 0.020425358481222386 0.00076478183553818743 0 0.020259542479488357 0.00039706867283967112 0 0.01973116583525901 0.00047714556645867901 0 0.020122561124279202 0.00071152697697487522 0 0.020715288310787377 0.00038196841496423653 0 0.020425358481222386 0.00076478183553818743 0 0.020610555392053736 0.00098170987463331574 0 0.020874314487838771 0.00042304979203792715 0 0.018123403477000356 0.00067204739787851513 0 0.020715288310787377 0.00038196841496423653 0 0.020698067565964037 0.00060878165115051705 0 0.020842335736529785 0.0005156721754104068 0 0.020331279507008932 0.0010752996628538706 0 0.020425358481222386 0.00076478183553818743 0 0.020610555392053736 0.00098170987463331574 0 0.020698067565964037 0.00060878165115051705 0 0.020794852758625908 0.00058696970320063478 0 0.020842335736529785 0.0005156721754104068 0 0.020794852758625908 0.00058696970320063478 0 0.020690748950253208 0.00066502289863272957 0 0.020837716444137549 0.00062876390297617122 0 0.016365730965515374 0.0017802429322396264 0 0.016155508279232133 0.0018266946335056143 0 0.016159189524652565 0.0016698639937778898 0 0.020698067565964037 0.00060878165115051705 0 0.020794852758625908 0.00058696970320063478 0 0.020690748950253208 0.00066502289863272957 0 0.016415428745218667 0.0014943303009959375 0 0.018123403477000356 0.00067204739787851513 0 0.016415428745218667 0.0014943303009959375 0 0.014740484211138835 0.0021134047114865552 0 0.018123403477000356 0.00067204739787851513 0 0.014740484211138835 0.0021134047114865552 0 0.010899503828467112 0.0031858782599367662 0 0.010880421795253187 0.0025688796513312013 0 0.010288406242225904 0.0028745068523162733 0 0.011350223323981723 0.0020779816434656827 0 0.011321419644820403 0.0016169034860584268 0 0.01153119078614526 0.001856138902461316 0 0.014740484211138835 0.0021134047114865552 0 0.010724025874588639 0.0022244614426297901 0 0.011721949777704029 0.0015070760351210246 0 0.011321419644820403 0.0016169034860584268 0 0.01153119078614526 0.001856138902461316 0 0.011321419644820403 0.0016169034860584268 0 0.011505706270199556 0.0013487306237310696 0 0.011292264961644019 0.001213826391634888 0 0.011721949777704029 0.0015070760351210246 0 0.011321419644820403 0.0016169034860584268 0 0.011505706270199556 0.0013487306237310696 0 0.010880421795253187 0.0025688796513312013 0 0.010293056400521021 0.0023219226132260148 0 0.010890297512186439 0.0019570423767964269 0 0.010724025874588639 0.0022244614426297901 0 0.011131312265952514 0.001552481217889205 0 0.010293056400521021 0.0023219226132260148 0 0.0097024339230446406 0.0025342554289809302 0 0.0097839177080947248 0.0020813414815141818 0 0.020912805648641175 0.00072465305739767322 0 0.020989479344757721 0.00068777517721092948 0 0.021072163497342648 0.00057432960993521035 0 0.010293056400521021 0.0023219226132260148 0 0.010288406242225904 0.0028745068523162733 0 0.0097024339230446406 0.0025342554289809302 0 0.015800009473005017 0.0018092841723284221 0 0.015326643701155288 0.0015305344779287685 0 0.010880421795253187 0.0025688796513312013 0 0.010293056400521021 0.0023219226132260148 0 0.010288406242225904 0.0028745068523162733 0 0.014740484211138835 0.0021134047114865552 0 0.015800009473005017 0.0018092841723284221 0 0.020690748950253208 0.00066502289863272957 0 0.020912805648641175 0.00072465305739767322 0 0.020837716444137549 0.00062876390297617122 0 0.020912805648641175 0.00072465305739767322 0 0.020940672590688096 0.00062729921760845133 0 0.020837716444137549 0.00062876390297617122 0 0.020940672590688096 0.00062729921760845133 0 0.020837716444137549 0.00062876390297617122 0 0.020842335736529785 0.0005156721754104068 0 0.020940672590688096 0.00062729921760845133 0 0.020842335736529785 0.0005156721754104068 0 0.021011449019470298 0.00052261749494154507 0 0.020794852758625908 0.00058696970320063478 0 0.020837716444137549 0.00062876390297617122 0 0.020842335736529785 0.0005156721754104068 0 0.021113996706232561 0.00051607051016418031 0 0.021011449019470298 0.00052261749494154507 0 0.021063368418519825 0.00057660211837984017 0 0.020940672590688096 0.00062729921760845133 0 0.021011449019470298 0.00052261749494154507 0 0.021000110520925205 0.00062923079291697908 0 0.021011449019470298 0.00052261749494154507 0 0.021000110520925205 0.00062923079291697908 0 0.021063368418519825 0.00057660211837984017 0 0.021000110520925205 0.00062923079291697908 0 0.021018928872410574 0.00063863744428048865 0 0.021063368418519825 0.00057660211837984017 0 0.020940672590688096 0.00062729921760845133 0 0.021000110520925205 0.00062923079291697908 0 0.020989479344757721 0.00068777517721092948 0 0.020912805648641175 0.00072465305739767322 0 0.020940672590688096 0.00062729921760845133 0 0.020989479344757721 0.00068777517721092948 0 0.021000110520925205 0.00062923079291697908 0 0.020989479344757721 0.00068777517721092948 0 0.021018928872410574 0.00063863744428048865 0 0.020989479344757721 0.00068777517721092948 0 0.020987482968457458 0.00066576113460709474 0 0.021018928872410574 0.00063863744428048865 0 0.020987482968457458 0.00066576113460709474 0 0.021038893917867795 0.00065078317492079968 0 0.020958863915918828 0.00068619787243402557 0 0.020987482968457458 0.00066576113460709474 0 0.021066749578799341 0.00060222187929243607 0 0.021069155410325977 0.00061308015879489705 0 0.020987482968457458 0.00066576113460709474 0 0.021018928872410574 0.00063863744428048865 0 0.021066749578799341 0.00060222187929243607 0 0.021018928872410574 0.00063863744428048865 0 0.021063368418519825 0.00057660211837984017 0 0.021066749578799341 0.00060222187929243607 0 0.021063368418519825 0.00057660211837984017 0 0.021066749578799341 0.00060222187929243607 0 0.021143819516165206 0.00054171825210018942 0 0.021066749578799341 0.00060222187929243607 0 0.021143819516165206 0.00054171825210018942 0 0.021117014501841311 0.00057109467463039459 0 0.021113996706232561 0.00051607051016418031 0 0.021063368418519825 0.00057660211837984017 0 0.021143819516165206 0.00054171825210018942 0 0.021146269723701445 0.00053815177843041036 0 0.021148397636360498 0.00056432132977813417 0 0.021117014501841311 0.00057109467463039459 0 0.021146269723701445 0.00053815177843041036 0 0.021143819516165206 0.00054171825210018942 0 0.021117014501841311 0.00057109467463039459 0 0.021066749578799341 0.00060222187929243607 0 0.021117014501841311 0.00057109467463039459 0 0.021069155410325977 0.00061308015879489705 0 0.021131825170172709 0.00062742437157990694 0 0.021117014501841311 0.00057109467463039459 0 0.021069155410325977 0.00061308015879489705 0 0.021131825170172709 0.00062742437157990694 0 0.021069155410325977 0.00061308015879489705 0 0.021038893917867795 0.00065078317492079968 0 0.020987482968457458 0.00066576113460709474 0 0.021069155410325977 0.00061308015879489705 0 0.021038893917867795 0.00065078317492079968 0 0.021124713724524968 0.00070778389587139337 0 0.020958863915918828 0.00068619787243402557 0 0.020818681030244365 0.00073945872657443323 0 0.019528043372159107 0.00099383900500818836 0 0.020734468358402078 0.00074749993532242411 0 0.021124713724524968 0.00070778389587139337 0 0.021038893917867795 0.00065078317492079968 0 0.020958863915918828 0.00068619787243402557 0 0.020958863915918828 0.00068619787243402557 0 0.020929288391372061 0.00071517841282986525 0 0.020818681030244365 0.00073945872657443323 0 0.020987482968457458 0.00066576113460709474 0 0.020958863915918828 0.00068619787243402557 0 0.020929288391372061 0.00071517841282986525 0 0.020989479344757721 0.00068777517721092948 0 0.020987482968457458 0.00066576113460709474 0 0.020929288391372061 0.00071517841282986525 0 0.020989479344757721 0.00068777517721092948 0 0.020929288391372061 0.00071517841282986525 0 0.021072163497342648 0.00057432960993521035 0 0.020929288391372061 0.00071517841282986525 0 0.020818681030244365 0.00073945872657443323 0 0.021072163497342648 0.00057432960993521035 0 0.0097024339230446406 0.0025342554289809302 0 0.0092109041700514354 0.0022152467366654042 0 0.0097839177080947248 0.0020813414815141818 0 0.015326643701155288 0.0015305344779287685 0 0.013928314824871222 0.00073695238473939391 0 0.020818681030244365 0.00073945872657443323 0 0.021072163497342648 0.00057432960993521035 0 0.018819414425672462 -0.0007569043685973849 0 0.017843970085814911 0.0012022957565281825 0 0.020818681030244365 0.00073945872657443323 0 0.018819414425672462 -0.0007569043685973849 0 0.0090522336065750192 0.0018124715352831741 0 0.0092109041700514354 0.0022152467366654042 0 0.0094764015025647109 0.0018061780950590098 0 0.0092109041700514354 0.0022152467366654042 0 0.0094764015025647109 0.0018061780950590098 0 0.0097839177080947248 0.0020813414815141818 0 0.0094764015025647109 0.0018061780950590098 0 0.0098727863204821301 0.001706920176682816 0 0.0097839177080947248 0.0020813414815141818 0 0.0094764015025647109 0.0018061780950590098 0 0.0092437797962304762 0.0015149971180195856 0 0.0096556258459101676 0.0014932209908242089 0 0.0094764015025647109 0.0018061780950590098 0 0.0096556258459101676 0.0014932209908242089 0 0.0098727863204821301 0.001706920176682816 0 0.0090522336065750192 0.0018124715352831741 0 0.0094764015025647109 0.0018061780950590098 0 0.0092437797962304762 0.0015149971180195856 0 0.0090345429261093867 0.0018210941464925773 0 0.0092348228748944435 0.0014850046814853838 0 0.0089871594703839434 0.0015420718834834746 0 0.0090879877612721153 0.001660295467168764 0 0.0091617742530272304 0.0015187657352225396 0 0.0092348228748944435 0.0014850046814853838 0 0.0084494552456760314 0.0017322793524596478 0 0.0084494552456760314 0.0017322793524596478 0 0.006234145085640074 0.0011833510091307272 0 0.0089871594703839434 0.0015420718834834746 0 0.0091617742530272304 0.0015187657352225396 0 0.0089701486239452781 0.0013282864397725681 0 0.0065155042082483241 0.0017907409672548076 0 0.0067041493840025845 0.0033474467149476701 0 0.0049754538156606834 0.001462256123044852 0 0.0088368078076574881 0.00079514584376842918 0 0.009543319534306989 0.00071830990541639668 0 0.009247027045395614 7.0603311683648063e-05 0 0.0065155042082483241 0.0017907409672548076 0 0.0067041493840025845 0.0033474467149476701 0 0.0080525931633199134 0.0013528539533048641 0 0.0084494552456760314 0.0017322793524596478 0 0.0085456107051513422 0.00077919109646464968 0 0.0092437797962304762 0.0015149971180195856 0 0.009419905157938278 0.0012443849403528952 0 0.0096556258459101676 0.0014932209908242089 0 0.0088368078076574881 0.00079514584376842918 0 0.0093010803587617527 0.0012598399614891557 0 0.009543319534306989 0.00071830990541639668 0 0.0084494552456760314 0.0017322793524596478 0 0.0094875744640836885 0.0013585479463369347 0 0.0093010803587617527 0.0012598399614891557 0 0.0098661945211658952 0.0011791182288941775 0 0.009543319534306989 0.00071830990541639668 0 0.0098661945211658952 0.0011791182288941775 0 0.009543319534306989 0.00071830990541639668 0 0.010127688130976019 0.00077912238406963237 0 0.009543319534306989 0.00071830990541639668 0 0.009867748642784115 0.00022975716083574929 0 0.010127688130976019 0.00077912238406963237 0 0.009543319534306989 0.00071830990541639668 0 0.009867748642784115 0.00022975716083574929 0 0.009247027045395614 7.0603311683648063e-05 0 0.009867748642784115 0.00022975716083574929 0 0.010127688130976019 0.00077912238406963237 0 0.010471420405405258 0.00031213964813970457 0 0.010127688130976019 0.00077912238406963237 0 0.010590983561272133 0.00081533890925849248 0 0.010471420405405258 0.00031213964813970457 0 0.010127688130976019 0.00077912238406963237 0 0.010391434555178226 0.0013805771031175857 0 0.010590983561272133 0.00081533890925849248 0 0.0098661945211658952 0.0011791182288941775 0 0.010127688130976019 0.00077912238406963237 0 0.010391434555178226 0.0013805771031175857 0 0.010391434555178226 0.0013805771031175857 0 0.0098727863204821301 0.001706920176682816 0 0.010268518059867568 0.0018696803906770958 0 0.0098661945211658952 0.0011791182288941775 0 0.010391434555178226 0.0013805771031175857 0 0.0098727863204821301 0.001706920176682816 0 0.0094875744640836885 0.0013585479463369347 0 0.009815152051441919 0.0016770752226174536 0 0.0093010803587617527 0.0012598399614891557 0 0.0098661945211658952 0.0011791182288941775 0 0.0098727863204821301 0.001706920176682816 0 0.0098727863204821301 0.001706920176682816 0 0.0097839177080947248 0.0020813414815141818 0 0.010268518059867568 0.0018696803906770958 0 0.010293056400521021 0.0023219226132260148 0 0.0097839177080947248 0.0020813414815141818 0 0.010268518059867568 0.0018696803906770958 0 0.010293056400521021 0.0023219226132260148 0 0.010268518059867568 0.0018696803906770958 0 0.010890297512186439 0.0019570423767964269 0 0.011505706270199556 0.0013487306237310696 0 0.011292264961644019 0.001213826391634888 0 0.011416613884939962 0.0010438629630871888 0 0.011505706270199556 0.0013487306237310696 0 0.011416613884939962 0.0010438629630871888 0 0.011628906667632275 0.0011960732429693072 0 0.011292264961644019 0.001213826391634888 0 0.011416613884939962 0.0010438629630871888 0 0.011199626704985486 0.00084147400813376237 0 0.011416613884939962 0.0010438629630871888 0 0.011397641279047835 0.00087000337466623559 0 0.011582218069382321 0.00088019672393628351 0 0.011416613884939962 0.0010438629630871888 0 0.011397641279047835 0.00087000337466623559 0 0.011199626704985486 0.00084147400813376237 0 0.010391434555178226 0.0013805771031175857 0 0.010890297512186439 0.0019570423767964269 0 0.010958411859394624 0.0012256593391149436 0 0.011131312265952514 0.001552481217889205 0 0.011070799960220618 0.0010163327200128647 0 0.010391434555178226 0.0013805771031175857 0 0.010268518059867568 0.0018696803906770958 0 0.010890297512186439 0.0019570423767964269 0 0.010958411859394624 0.0012256593391149436 0 0.010590983561272133 0.00081533890925849248 0 0.011039201167795529 0.00032740944580355772 0 0.010391434555178226 0.0013805771031175857 0 0.010958411859394624 0.0012256593391149436 0 0.010590983561272133 0.00081533890925849248 0 0.011070799960220618 0.0010163327200128647 0 0.011053877257033112 0.00035973695701684168 0 0.010590983561272133 0.00081533890925849248 0 0.010471420405405258 0.00031213964813970457 0 0.011039201167795529 0.00032740944580355772 0 0.011039201167795529 0.00032740944580355772 0 0.011343850194802801 0.00044826353218226279 0 0.011554961032143141 0.00029337795527466454 0 0.011039201167795529 0.00032740944580355772 0 0.011343850194802801 0.00044826353218226279 0 0.011380192632993134 0.00067703730852160509 0 0.011343850194802801 0.00044826353218226279 0 0.011380192632993134 0.00067703730852160509 0 0.011580047655144705 0.00047211200441925539 0 0.011199626704985486 0.00084147400813376237 0 0.011039201167795529 0.00032740944580355772 0 0.011380192632993134 0.00067703730852160509 0 0.011397641279047835 0.00087000337466623559 0 0.011199626704985486 0.00084147400813376237 0 0.011380192632993134 0.00067703730852160509 0 0.011397641279047835 0.00087000337466623559 0 0.011380192632993134 0.00067703730852160509 0 0.011582218069382321 0.00088019672393628351 0 0.0097239288590062253 0.00058501959412852458 0 0.011529501431553141 0.00014650532742642851 0 0.0097239288590062253 0.00058501959412852458 0 0.011755910519861915 0.00063252535867623129 0 0.011380192632993134 0.00067703730852160509 0 0.011580047655144705 0.00047211200441925539 0 0.011582218069382321 0.00088019672393628351 0 0.011668580448312281 7.8038851710679916e-05 0 0.011842887301781976 0.00054282136134076371 0 0.011702257943439806 0.00052377616491201524 0 0.010751322544579075 0.00048038930883241798 0 0.0098362806859653394 0.00012716460735270912 0 0.010891328112344667 -0.00015373944313073641 0 0.0072832558003030979 0.001271796114374966 0 0.010223961719685795 0.00026412532803886439 0 0.011343850194802801 0.00044826353218226279 0 0.011580047655144705 0.00047211200441925539 0 0.011554961032143141 0.00029337795527466454 0 0.010751322544579075 0.00048038930883241798 0 0.010737524803981038 0.00079481000253510588 0 0.0098362806859653394 0.00012716460735270912 0 0.0097239288590062253 0.00058501959412852458 0 0.0072832558003030979 0.001271796114374966 0 0.0097239288590062253 0.00058501959412852458 0 0.0071954410182328721 0.0012508935755808828 0 0.008407793988953324 0.00089816097611564692 0 0.0084156010463254452 0.00096913304689495033 0 0.0083995110029554138 0.00095710030353325691 0 0.0071954410182328721 0.0012508935755808828 0 0.0072832558003030979 0.001271796114374966 0 0.0095860905475894601 6.6230511247578403e-07 0 0.0084915177099738771 -2.6611929834644511e-06 0 0.0098362806859653394 0.00012716460735270912 0 0.0079122734313971099 0.00019432669284324722 0 0.0084915177099738771 -2.6611929834644511e-06 0 0.0098362806859653394 0.00012716460735270912 0 0.0095860905475894601 6.6230511247578403e-07 0 0.0098362806859653394 0.00012716460735270912 0 0.011586085047272916 -4.0974187078584013e-07 0 0.0098362806859653394 0.00012716460735270912 0 0.011586085047272916 -4.0974187078584013e-07 0 0.010891328112344667 -0.00015373944313073641 0 0.011586085047272916 -4.0974187078584013e-07 0 0.010891328112344667 -0.00015373944313073641 0 0.012166605374039687 -8.2543077283767611e-06 0 0.011529501431553141 0.00014650532742642851 0 0.012079543898806028 0.00044669544230122049 0 0.011842887301781976 0.00054282136134076371 0 0.011702257943439806 0.00052377616491201524 0 0.011712286859793962 0.0010064269066081396 0 0.011416613884939962 0.0010438629630871888 0 0.011582218069382321 0.00088019672393628351 0 0.011628906667632275 0.0011960732429693072 0 0.011755910519861915 0.00063252535867623129 0 0.011667366140324409 0.0011264448476963175 0 0.011842887301781976 0.00054282136134076371 0 0.011712286859793962 0.0010064269066081396 0 0.01200549521736991 0.00104837140302529 0 0.011721949777704029 0.0015070760351210246 0 0.011712286859793962 0.0010064269066081396 0 0.01200549521736991 0.00104837140302529 0 0.013586226456841989 5.3243622809946379e-08 0 0.011586085047272916 -4.0974187078584013e-07 0 0.012166605374039687 -8.2543077283767611e-06 0 0.005585855127459011 -7.2117962556072834e-08 0 0.0040235336082119853 -2.0696233641607339e-05 0 0.0035858464391810146 -1.5050436109740099e-08 0 0.00036086434072025579 0.0017333198994695703 0 5.11892923320768e-05 0.0013655343753449587 0 0.00028610284717411606 0.0011183198042140771 0 0.0056529644720324729 -3.6188845378812187e-05 0 0.005585855127459011 -7.2117962556072834e-08 0 0.0040235336082119853 -2.0696233641607339e-05 0 0.0030310435889181185 0.00075690411015255914 0 0.0021474081995448962 0.00045505712079670568 0 0.0030310435889181185 0.00075690411015255914 0 0.0034177595098220902 0.0011512397341644778 0 0.0056529644720324729 -3.6188845378812187e-05 0 0.0064605761466520854 -7.1568332875901244e-05 0 0.0070556928429511669 -0.00014208562287685542 0 0.0056529644720324729 -3.6188845378812187e-05 0 0.005585855127459011 -7.2117962556072834e-08 0 0.0064605761466520854 -7.1568332875901244e-05 0 0.005585855127459011 -7.2117962556072834e-08 0 0.0064605761466520854 -7.1568332875901244e-05 0 0.0075858087875406406 -4.0384005203342267e-07 0 0.0064605761466520854 -7.1568332875901244e-05 0 0.0075858087875406406 -4.0384005203342267e-07 0 0.0070556928429511669 -0.00014208562287685542 0 0.0084915177099738771 -2.6611929834644511e-06 0 0.0075858087875406406 -4.0384005203342267e-07 0 0.0070556928429511669 -0.00014208562287685542 0 0.0095860905475894601 6.6230511247578403e-07 0 0.0084915177099738771 -2.6611929834644511e-06 0 0.0075858087875406406 -4.0384005203342267e-07 0 0.00045402760525711122 0.0030363390805676722 0 0.0005149132644434194 0.003069645423564697 0 0.00044418746378044631 0.0023847424796000446 0 0.0072832558003030979 0.001271796114374966 0 0.0034177595098220902 0.0011512397341644778 0 0.0079122734313971099 0.00019432669284324722 0 0.0084915177099738771 -2.6611929834644511e-06 0 0.0070556928429511669 -0.00014208562287685542 0 0.00036086434072025579 0.0017333198994695703 0 0.00044418746378044631 0.0023847424796000446 0 -5.8604320084549249e-05 0.0021614871693412699 0 0.00044418746378044631 0.0023847424796000446 0 -5.8604320084549249e-05 0.0021614871693412699 0 -0.00026277549768992712 0.0026213105200560949 0 0.0071954410182328721 0.0012508935755808828 0 0.0050831547596097565 0.0012069290173568044 0 0.011039201167795529 0.00032740944580355772 0 0.011554961032143141 0.00029337795527466454 0 0.010873488292857779 -0.00020988300172552777 0 0.00045402760525711122 0.0030363390805676722 0 0.00044418746378044631 0.0023847424796000446 0 -0.00026277549768992712 0.0026213105200560949 0 0.010471420405405258 0.00031213964813970457 0 0.011039201167795529 0.00032740944580355772 0 0.010873488292857779 -0.00020988300172552777 0 0.010471420405405258 0.00031213964813970457 0 0.010873488292857779 -0.00020988300172552777 0 0.010267484700250896 -4.7369625864174586e-05 0 -5.8604320084549249e-05 0.0021614871693412699 0 -0.00049828564144818645 0.0021898123910867998 0 -0.00034219310704552909 0.0019001834602749494 0 -0.00026277549768992712 0.0026213105200560949 0 -0.00049828564144818645 0.0021898123910867998 0 -0.00098579223126029811 0.0021742411333246199 0 -5.8604320084549249e-05 0.0021614871693412699 0 -0.00026277549768992712 0.0026213105200560949 0 -0.00049828564144818645 0.0021898123910867998 0 -0.00034219310704552909 0.0019001834602749494 0 -0.00030839420067089313 0.0014952692254904037 0 -0.00076788458790725178 0.0016370754725969097 0 -0.00049828564144818645 0.0021898123910867998 0 -0.00034219310704552909 0.0019001834602749494 0 -0.00071905747641127116 0.0019602389750987452 0 -0.00034219310704552909 0.0019001834602749494 0 -0.00076788458790725178 0.0016370754725969097 0 -0.00071905747641127116 0.0019602389750987452 0 0.00036086434072025579 0.0017333198994695703 0 -5.8604320084549249e-05 0.0021614871693412699 0 -0.00034219310704552909 0.0019001834602749494 0 0.00036086434072025579 0.0017333198994695703 0 -0.00034219310704552909 0.0019001834602749494 0 -0.00030839420067089313 0.0014952692254904037 0 0.00036086434072025579 0.0017333198994695703 0 5.11892923320768e-05 0.0013655343753449587 0 -0.00030839420067089313 0.0014952692254904037 0 5.11892923320768e-05 0.0013655343753449587 0 -0.00030839420067089313 0.0014952692254904037 0 -0.0002670818948593533 0.0011342202305301041 0 -0.00030839420067089313 0.0014952692254904037 0 -0.00076788458790725178 0.0016370754725969097 0 -0.00067094654189215567 0.0012138406926854963 0 -0.00030839420067089313 0.0014952692254904037 0 -0.00067094654189215567 0.0012138406926854963 0 -0.0002670818948593533 0.0011342202305301041 0 -0.00076788458790725178 0.0016370754725969097 0 -0.0011097098406615098 0.0012613639917461871 0 -0.00067094654189215567 0.0012138406926854963 0 -0.00076788458790725178 0.0016370754725969097 0 -0.0012235502940026758 0.0015484229072186214 0 -0.0011097098406615098 0.0012613639917461871 0 -0.0012235502940026758 0.0015484229072186214 0 -0.0015280965448248927 0.0012590244406561566 0 -0.0011097098406615098 0.0012613639917461871 0 -0.0012235502940026758 0.0015484229072186214 0 -0.0016702908664276127 0.0017249405486369478 0 -0.0015280965448248927 0.0012590244406561566 0 0.0098968851270552268 -0.0010230558151876048 0 0.009486097577264728 -0.00074330432628948282 0 0.0073996399106711257 -0.0027471502498798376 0 -0.0010290552697353348 0.0018639709650339214 0 -0.00098579223126029811 0.0021742411333246199 0 -0.0016702908664276127 0.0017249405486369478 0 -0.0012235502940026758 0.0015484229072186214 0 -0.0010290552697353348 0.0018639709650339214 0 -0.0016702908664276127 0.0017249405486369478 0 0.0045233708834886239 0.00058646457297053796 0 0.0026384280555378156 -0.00055624301218288122 0 -0.00076788458790725178 0.0016370754725969097 0 -0.0012235502940026758 0.0015484229072186214 0 -0.0010290552697353348 0.0018639709650339214 0 -0.0010290552697353348 0.0018639709650339214 0 -0.00071905747641127116 0.0019602389750987452 0 -0.00098579223126029811 0.0021742411333246199 0 -0.00076788458790725178 0.0016370754725969097 0 -0.0010290552697353348 0.0018639709650339214 0 -0.00071905747641127116 0.0019602389750987452 0 0.0050831547596097565 0.0012069290173568044 0 0.0045233708834886239 0.00058646457297053796 0 0.010873488292857779 -0.00020988300172552777 0 0.0098968851270552268 -0.0010230558151876048 0 0.009921080756979974 -0.00033701902629460352 0 -0.00049828564144818645 0.0021898123910867998 0 -0.00071905747641127116 0.0019602389750987452 0 -0.00098579223126029811 0.0021742411333246199 0 0.0098968851270552268 -0.0010230558151876048 0 0.009921080756979974 -0.00033701902629460352 0 0.009486097577264728 -0.00074330432628948282 0 0.009867748642784115 0.00022975716083574929 0 0.010471420405405258 0.00031213964813970457 0 0.010267484700250896 -4.7369625864174586e-05 0 0.010873488292857779 -0.00020988300172552777 0 0.009921080756979974 -0.00033701902629460352 0 0.010267484700250896 -4.7369625864174586e-05 0 0.009867748642784115 0.00022975716083574929 0 0.009921080756979974 -0.00033701902629460352 0 0.010267484700250896 -4.7369625864174586e-05 0 0.009867748642784115 0.00022975716083574929 0 0.009921080756979974 -0.00033701902629460352 0 0.009247027045395614 7.0603311683648063e-05 0 0.0094947263300554467 -0.00069981476376091204 0 0.0085456107051513422 0.00077919109646464968 0 0.009921080756979974 -0.00033701902629460352 0 0.009486097577264728 -0.00074330432628948282 0 0.009247027045395614 7.0603311683648063e-05 0 0.009486097577264728 -0.00074330432628948282 0 0.0076734676384834196 -0.00045543137028013138 0 0.0080525931633199134 0.0013528539533048641 0 0.009486097577264728 -0.00074330432628948282 0 0.0076734676384834196 -0.00045543137028013138 0 0.0073996399106711257 -0.0027471502498798376 0 0.0076734676384834196 -0.00045543137028013138 0 0.0061172377114882374 0.00018255095811298125 0 0.0063889790466796301 -0.0013143408615576594 0 0.0076734676384834196 -0.00045543137028013138 0 0.0080525931633199134 0.0013528539533048641 0 0.0061172377114882374 0.00018255095811298125 0 0.0065155042082483241 0.0017907409672548076 0 0.0080525931633199134 0.0013528539533048641 0 0.0061172377114882374 0.00018255095811298125 0 0.0065155042082483241 0.0017907409672548076 0 0.0061172377114882374 0.00018255095811298125 0 0.0049754538156606834 0.001462256123044852 0 0.0057257215061617935 0.00060625661229099081 0 0.006234145085640074 0.0011833510091307272 0 0.0061172377114882374 0.00018255095811298125 0 0.0048541201163062753 0.00156792199537763 0 0.0048906891098177523 1.1408713391603186e-05 0 0.0061172377114882374 0.00018255095811298125 0 0.0052139680492997373 -0.0011533369792518437 0 0.0048906891098177523 1.1408713391603186e-05 0 0.0061172377114882374 0.00018255095811298125 0 0.0063889790466796301 -0.0013143408615576594 0 0.0052139680492997373 -0.0011533369792518437 0 0.0063889790466796301 -0.0013143408615576594 0 0.0052139680492997373 -0.0011533369792518437 0 0.0055299661378670189 -0.0023915321214645173 0 0.0063889790466796301 -0.0013143408615576594 0 0.0055299661378670189 -0.0023915321214645173 0 0.0073996399106711257 -0.0027471502498798376 0 0.0052139680492997373 -0.0011533369792518437 0 0.0055299661378670189 -0.0023915321214645173 0 0.0041919409001016771 -0.0028396197263742301 0 0.0076734676384834196 -0.00045543137028013138 0 0.0063889790466796301 -0.0013143408615576594 0 0.0073996399106711257 -0.0027471502498798376 0 -0.0016702908664276127 0.0017249405486369478 0 -0.0018593336439816611 0.0013058539116543501 0 -0.0015280965448248927 0.0012590244406561566 0 0.0026384280555378156 -0.00055624301218288122 0 0.0022889006503767949 -0.0015016224162956492 0 -0.0016702908664276127 0.0017249405486369478 0 -0.0018593336439816611 0.0013058539116543501 0 -0.0022836379541453442 0.0012986388450824241 0 0.0055299661378670189 -0.0023915321214645173 0 0.0073996399106711257 -0.0027471502498798376 0 0.0047603638779653602 -0.0044070568202154185 0 -0.0018593336439816611 0.0013058539116543501 0 -0.00208700243782823 0.0011696206560254942 0 -0.0022836379541453442 0.0012986388450824241 0 -0.0018593336439816611 0.0013058539116543501 0 -0.0020061216548566711 0.0010903881229708712 0 -0.001867919625052057 0.00092794568334185034 0 -0.0021986582118915495 0.0010336333243338256 0 -0.0020061216548566711 0.0010903881229708712 0 -0.001867919625052057 0.00092794568334185034 0 -0.00069999885050778417 0.00055265347662849205 0 0.0022889006503767949 -0.0015016224162956492 0 -0.0022229065186247609 0.0011237202661585339 0 -0.00208700243782823 0.0011696206560254942 0 -0.0022836379541453442 0.0012986388450824241 0 -0.0021986582118915495 0.0010336333243338256 0 -0.0022229065186247609 0.0011237202661585339 0 -0.00208700243782823 0.0011696206560254942 0 -0.0021986582118915495 0.0010336333243338256 0 -0.00208700243782823 0.0011696206560254942 0 -0.0020061216548566711 0.0010903881229708712 0 -0.0016603323575481955 0.0011308136010366797 0 -0.00069999885050778417 0.00055265347662849205 0 -0.0018593336439816611 0.0013058539116543501 0 -0.00208700243782823 0.0011696206560254942 0 -0.0020061216548566711 0.0010903881229708712 0 -0.0015280965448248927 0.0012590244406561566 0 -0.001867919625052057 0.00092794568334185034 0 -0.0014501985597116811 0.00089216662627742945 0 -0.0018593336439816611 0.0013058539116543501 0 -0.0015280965448248927 0.0012590244406561566 0 -0.001867919625052057 0.00092794568334185034 0 -0.001867919625052057 0.00092794568334185034 0 -0.0016881761378318109 0.00065848063600250275 0 -0.0020921730925016744 0.00040488878714092677 0 -0.001867919625052057 0.00092794568334185034 0 -0.0016881761378318109 0.00065848063600250275 0 -0.0014501985597116811 0.00089216662627742945 0 -0.0016603323575481955 0.0011308136010366797 0 -0.0022780061391474509 0.00046990502456576046 0 -0.0021986582118915495 0.0010336333243338256 0 -0.001867919625052057 0.00092794568334185034 0 -0.0020921730925016744 0.00040488878714092677 0 -0.0023849503072589481 0.0012486901460604849 0 -0.0020921730925016744 0.00040488878714092677 0 -0.0027902957365023538 0.00082092515239877005 0 -0.0020921730925016744 0.00040488878714092677 0 -0.0023225855828525963 5.1466034395490191e-05 0 -0.0017932642827952327 6.1540919697943979e-05 0 -0.0020921730925016744 0.00040488878714092677 0 -0.0023225855828525963 5.1466034395490191e-05 0 -0.0027280761388054739 0.00044193687130443841 0 -0.0025916121296775496 -0.00031312827295543709 0 -0.0019343180453950406 -0.00036747533342475192 0 -0.0023225855828525963 5.1466034395490191e-05 0 -0.0019343180453950406 -0.00036747533342475192 0 -0.0023225855828525963 5.1466034395490191e-05 0 -0.0017932642827952327 6.1540919697943979e-05 0 -0.0019343180453950406 -0.00036747533342475192 0 -0.0017932642827952327 6.1540919697943979e-05 0 -0.0014123639673650032 -0.00014190758365692252 0 -0.0020921730925016744 0.00040488878714092677 0 -0.0017932642827952327 6.1540919697943979e-05 0 -0.0014772064568424918 0.00037809396519735615 0 -0.0016881761378318109 0.00065848063600250275 0 -0.0020921730925016744 0.00040488878714092677 0 -0.0014772064568424918 0.00037809396519735615 0 -0.0014772064568424918 0.00037809396519735615 0 -0.0014123639673650032 -0.00014190758365692252 0 -0.00094971690890067084 0.00026237164492535169 0 -0.0017932642827952327 6.1540919697943979e-05 0 -0.0014772064568424918 0.00037809396519735615 0 -0.0014123639673650032 -0.00014190758365692252 0 -0.0014123639673650032 -0.00014190758365692252 0 -0.00085822652258623765 -0.00025241736570997273 0 -0.00094971690890067084 0.00026237164492535169 0 -0.0014772064568424918 0.00037809396519735615 0 -0.00094971690890067084 0.00026237164492535169 0 -0.00098979056909615664 0.00077279223700685079 0 -0.00094971690890067084 0.00026237164492535169 0 -0.00098979056909615664 0.00077279223700685079 0 -0.00070181846915166998 0.00054520474200181674 0 -0.0014772064568424918 0.00037809396519735615 0 -0.00098979056909615664 0.00077279223700685079 0 -0.0014501985597116811 0.00089216662627742945 0 -0.0016881761378318109 0.00065848063600250275 0 -0.0014772064568424918 0.00037809396519735615 0 -0.0014501985597116811 0.00089216662627742945 0 -0.00098979056909615664 0.00077279223700685079 0 -0.0014501985597116811 0.00089216662627742945 0 -0.0011097098406615098 0.0012613639917461871 0 -0.0015280965448248927 0.0012590244406561566 0 -0.0014501985597116811 0.00089216662627742945 0 -0.0011097098406615098 0.0012613639917461871 0 -0.00098979056909615664 0.00077279223700685079 0 -0.00067094654189215567 0.0012138406926854963 0 -0.00053974849365890862 0.00084728895886571152 0 -0.00098979056909615664 0.00077279223700685079 0 -0.0011097098406615098 0.0012613639917461871 0 -0.00067094654189215567 0.0012138406926854963 0 -0.0002670818948593533 0.0011342202305301041 0 -0.00018308991265264602 0.00081090585913274943 0 -0.00053974849365890862 0.00084728895886571152 0 -0.00067094654189215567 0.0012138406926854963 0 -0.0002670818948593533 0.0011342202305301041 0 -0.00053974849365890862 0.00084728895886571152 0 5.11892923320768e-05 0.0013655343753449587 0 5.6769811210996912e-06 0.0010468166021883136 0 0.00028610284717411606 0.0011183198042140771 0 5.11892923320768e-05 0.0013655343753449587 0 -0.0002670818948593533 0.0011342202305301041 0 5.6769811210996912e-06 0.0010468166021883136 0 5.6769811210996912e-06 0.0010468166021883136 0 -0.00018308991265264602 0.00081090585913274943 0 0.0001479335741666261 0.00079567629412210681 0 -0.0002670818948593533 0.0011342202305301041 0 5.6769811210996912e-06 0.0010468166021883136 0 -0.00018308991265264602 0.00081090585913274943 0 -0.00018308991265264602 0.00081090585913274943 0 -7.8299438701542274e-05 0.00055319921348563302 0 0.0001479335741666261 0.00079567629412210681 0 -0.00018308991265264602 0.00081090585913274943 0 -7.8299438701542274e-05 0.00055319921348563302 0 -0.00037588961649950316 0.00051943418950142501 0 -0.00037588961649950316 0.00051943418950142501 0 -0.00053974849365890862 0.00084728895886571152 0 -0.00070181846915166998 0.00054520474200181674 0 -0.00098979056909615664 0.00077279223700685079 0 -0.00053974849365890862 0.00084728895886571152 0 -0.00070181846915166998 0.00054520474200181674 0 -0.00018308991265264602 0.00081090585913274943 0 -0.00037588961649950316 0.00051943418950142501 0 -0.00053974849365890862 0.00084728895886571152 0 -0.00094971690890067084 0.00026237164492535169 0 -0.00070181846915166998 0.00054520474200181674 0 -0.00057509647943084885 0.00020900273165453277 0 -0.00037588961649950316 0.00051943418950142501 0 -0.00070181846915166998 0.00054520474200181674 0 -0.00057509647943084885 0.00020900273165453277 0 -0.00039289037420057408 -0.000502957278183641 0 -0.00085822652258623765 -0.00025241736570997273 0 -0.00038157149367429538 -6.6436873289320468e-05 0 -0.00085822652258623765 -0.00025241736570997273 0 -0.00057509647943084885 0.00020900273165453277 0 -0.00038157149367429538 -6.6436873289320468e-05 0 -0.00085822652258623765 -0.00025241736570997273 0 -0.00094971690890067084 0.00026237164492535169 0 -0.00057509647943084885 0.00020900273165453277 0 -0.00039289037420057408 -0.000502957278183641 0 -0.00038157149367429538 -6.6436873289320468e-05 0 0.00012825082929853916 -0.00010701964145787189 0 -0.00038157149367429538 -6.6436873289320468e-05 0 -0.00018833917282503013 0.00024613319880110578 0 0.00012825082929853916 -0.00010701964145787189 0 -0.00057509647943084885 0.00020900273165453277 0 -0.00038157149367429538 -6.6436873289320468e-05 0 -0.00018833917282503013 0.00024613319880110578 0 -7.8299438701542274e-05 0.00055319921348563302 0 -0.00037588961649950316 0.00051943418950142501 0 -0.00018833917282503013 0.00024613319880110578 0 -0.00037588961649950316 0.00051943418950142501 0 -0.00057509647943084885 0.00020900273165453277 0 -0.00018833917282503013 0.00024613319880110578 0 -7.8299438701542274e-05 0.00055319921348563302 0 -0.00018833917282503013 0.00024613319880110578 0 0.00012220001806538278 0.00034930338781807092 0 0.00016953439477185466 0.00037994946839234805 0 -0.00033849700709339786 -0.00057452121343950569 0 -0.00018833917282503013 0.00024613319880110578 0 0.00012220001806538278 0.00034930338781807092 0 0.00012825082929853916 -0.00010701964145787189 0 -0.00033849700709339786 -0.00057452121343950569 0 0.0014163332350078603 0.00019578956341798919 0 0.00020293360819222925 0.00026599993955788852 0 0.0002642831928671331 -0.00027759282688432128 0 0.00026382444669756822 0.00043857379515146723 0 0.00080372651882530178 -3.0826942023729312e-05 0 0.0015857088626053165 -1.1590041078772062e-07 0 0.0023853883797840549 -2.3803862332708308e-05 0 -0.00041415890032977718 5.0389373086475763e-08 0 6.1455690391501767e-05 -2.9664536478275933e-05 0 0.0015857088626053165 -1.1590041078772062e-07 0 6.1455690391501767e-05 -2.9664536478275933e-05 0 0.00080372651882530178 -3.0826942023729312e-05 0 0.0015857088626053165 -1.1590041078772062e-07 0 0.0015857088626053165 -1.1590041078772062e-07 0 0.0023853883797840549 -2.3803862332708308e-05 0 0.0035858464391810146 -1.5050436109740099e-08 0 0.0014163332350078603 0.00019578956341798919 0 0.0021474081995448962 0.00045505712079670568 0 0.00020293360819222925 0.00026599993955788852 0 0.00026382444669756822 0.00043857379515146723 0 0.0001479335741666261 0.00079567629412210681 0 -7.8299438701542274e-05 0.00055319921348563302 0 0.00012220001806538278 0.00034930338781807092 0 0.0001479335741666261 0.00079567629412210681 0 0.00026382444669756822 0.00043857379515146723 0 0.0001479335741666261 0.00079567629412210681 0 0.00028610284717411606 0.0011183198042140771 0 0.00016953439477185466 0.00037994946839234805 0 0.00014112796282959836 0.00072796002003244558 0 0.0023853883797840549 -2.3803862332708308e-05 0 0.0040235336082119853 -2.0696233641607339e-05 0 0.0035858464391810146 -1.5050436109740099e-08 0 5.6769811210996912e-06 0.0010468166021883136 0 0.0001479335741666261 0.00079567629412210681 0 0.00028610284717411606 0.0011183198042140771 0 0.00087143053080477022 -0.00016936863000122741 0 0.0001018762571462867 -8.7906034830183749e-05 0 0.00058690819886163487 0.00078040412183871951 0 0.00087143053080477022 -0.00016936863000122741 0 0.0012928011853881977 -0.00077151419599930896 0 0.00075415561242378536 -0.00090526384469791872 0 0.00087143053080477022 -0.00016936863000122741 0 0.00025935620035966931 -0.00065177886743677193 0 0.00075415561242378536 -0.00090526384469791872 0 0.00087143053080477022 -0.00016936863000122741 0 0.00025935620035966931 -0.00065177886743677193 0 0.0001018762571462867 -8.7906034830183749e-05 0 0.00055824140520566612 0.00028368307696856776 0 0.00027155324679770072 -0.00045844492737488919 0 0.00025935620035966931 -0.00065177886743677193 0 0.0001018762571462867 -8.7906034830183749e-05 0 -0.00035843626912779916 -0.00098909596569851372 0 0.0006516557625866477 0.00050631424671521619 0 0.0010429664973924428 0.00070435614420152025 0 0.0010005584825319509 2.5679254219056748e-05 0 0.0006516557625866477 0.00050631424671521619 0 0.0010429664973924428 0.00070435614420152025 0 0.00065950915754875547 0.0009504196850235935 0 0.0010429664973924428 0.00070435614420152025 0 0.00083391307189331122 0.0010037236908280462 0 0.00090182276367828406 0.0010201006546236855 0 0.0010429664973924428 0.00070435614420152025 0 0.00083391307189331122 0.0010037236908280462 0 0.00065950915754875547 0.0009504196850235935 0 0.00083391307189331122 0.0010037236908280462 0 0.00065950915754875547 0.0009504196850235935 0 0.00065914505393025 0.0011434181796240331 0 0.00075535255496946886 0.0011022309296657891 0 0.00083391307189331122 0.0010037236908280462 0 0.00065914505393025 0.0011434181796240331 0 0.00075535255496946886 0.0011022309296657891 0 0.00083391307189331122 0.0010037236908280462 0 0.00090182276367828406 0.0010201006546236855 0 0.00055824140520566612 0.00028368307696856776 0 0.00082527999957150721 0.00089103488377459666 0 0.00087143053080477022 -0.00016936863000122741 0 0.00058690819886163487 0.00078040412183871951 0 0.0013791781940496019 0.00050886145861855957 0 0.0010415907108752753 0.0016593691044187037 0 0.00058690819886163487 0.00078040412183871951 0 0.0014348281639711895 0.0012194556500577129 0 0.00058690819886163487 0.00078040412183871951 0 0.0014348281639711895 0.0012194556500577129 0 0.0013791781940496019 0.00050886145861855957 0 0.0004084829431818184 0.0014313091868768384 0 0.00082527999957150721 0.00089103488377459666 0 0.0020239480072911189 0.0013468804904174371 0 0.0014348281639711895 0.0012194556500577129 0 0.0017977415673779637 0.00087100919848691252 0 0.0014348281639711895 0.0012194556500577129 0 0.0017977415673779637 0.00087100919848691252 0 0.0013791781940496019 0.00050886145861855957 0 0.0020239480072911189 0.0013468804904174371 0 0.0017977415673779637 0.00087100919848691252 0 0.0020821445623115226 0.0010479952114703624 0 0.0020239480072911189 0.0013468804904174371 0 0.0020821445623115226 0.0010479952114703624 0 0.0023874036076940558 0.00099655264892107415 0 0.0020821445623115226 0.0010479952114703624 0 0.0021812186539908094 0.00076587955869038759 0 0.0023874036076940558 0.00099655264892107415 0 0.0017977415673779637 0.00087100919848691252 0 0.0020821445623115226 0.0010479952114703624 0 0.0021812186539908094 0.00076587955869038759 0 0.0017977415673779637 0.00087100919848691252 0 0.0021812186539908094 0.00076587955869038759 0 0.0019348974748381587 0.00044027896009324704 0 0.0021812186539908094 0.00076587955869038759 0 0.0019348974748381587 0.00044027896009324704 0 0.002289106961891915 0.00047650983560050032 0 0.0019348974748381587 0.00044027896009324704 0 0.002289106961891915 0.00047650983560050032 0 0.0022376335369694083 8.6414804448544822e-05 0 0.0019348974748381587 0.00044027896009324704 0 0.0013791781940496019 0.00050886145861855957 0 0.0016690910589322145 -4.0352191105857033e-05 0 0.0017977415673779637 0.00087100919848691252 0 0.0019348974748381587 0.00044027896009324704 0 0.0013791781940496019 0.00050886145861855957 0 0.0041184714312009875 0.0008362187890838612 0 0.0030788374875564697 0.00081778851324559171 0 0.0034334062241314208 4.7422941155439055e-06 0 0.0043343625814477177 0.00022366841392703536 0 0.0048541201163062753 0.00156792199537763 0 0.0034334062241314208 4.7422941155439055e-06 0 0.006234145085640074 0.0011833510091307272 0 0.0031588731418372229 -0.00013482658770405656 0 0.0043343625814477177 0.00022366841392703536 0 0.0048541201163062753 0.00156792199537763 0 0.0048906891098177523 1.1408713391603186e-05 0 0.0025827161383196384 0.0014609197167194093 0 0.0029190615427782825 0.0003469461204388678 0 0.0025755256914318687 0.0015246756505369616 0 0.0030788374875564697 0.00081778851324559171 0 0.0031767400810453401 -4.664411310404487e-05 0 0.0025755256914318687 0.0015246756505369616 0 0.0023874036076940558 0.00099655264892107415 0 0.0026842220182860706 0.00063975300810622279 0 0.0030788374875564697 0.00081778851324559171 0 0.0031767400810453401 -4.664411310404487e-05 0 0.0034334062241314208 4.7422941155439055e-06 0 0.0021812186539908094 0.00076587955869038759 0 0.0023874036076940558 0.00099655264892107415 0 0.002417474135890438 0.00068666762805234664 0 0.0023874036076940558 0.00099655264892107415 0 0.002417474135890438 0.00068666762805234664 0 0.0026842220182860706 0.00063975300810622279 0 0.0024945416357692774 0.0003565300516244993 0 0.0026842220182860706 0.00063975300810622279 0 0.0025735814726275965 0.00010909141350717029 0 0.0021812186539908094 0.00076587955869038759 0 0.002417474135890438 0.00068666762805234664 0 0.002289106961891915 0.00047650983560050032 0 0.002417474135890438 0.00068666762805234664 0 0.0024728293611844415 0.000540257477051205 0 0.002289106961891915 0.00047650983560050032 0 0.002289106961891915 0.00047650983560050032 0 0.0024945416357692774 0.0003565300516244993 0 0.0022376335369694083 8.6414804448544822e-05 0 0.0024728293611844415 0.000540257477051205 0 0.002289106961891915 0.00047650983560050032 0 0.0024945416357692774 0.0003565300516244993 0 0.0024728293611844415 0.000540257477051205 0 0.0024945416357692774 0.0003565300516244993 0 0.0026842220182860706 0.00063975300810622279 0 0.002417474135890438 0.00068666762805234664 0 0.0024728293611844415 0.000540257477051205 0 0.0026842220182860706 0.00063975300810622279 0 0.0031767400810453401 -4.664411310404487e-05 0 0.0041635990977822125 -0.00065893688840200284 0 0.0041919409001016771 -0.0028396197263742301 0 0.0029190615427782825 0.0003469461204388678 0 0.0035724479770875414 -0.0016793789633725732 0 0.0043343625814477177 0.00022366841392703536 0 0.0034334062241314208 4.7422941155439055e-06 0 0.0041635990977822125 -0.00065893688840200284 0 0.0031767400810453401 -4.664411310404487e-05 0 0.0034334062241314208 4.7422941155439055e-06 0 0.0041635990977822125 -0.00065893688840200284 0 0.0043343625814477177 0.00022366841392703536 0 0.0041635990977822125 -0.00065893688840200284 0 0.0048906891098177523 1.1408713391603186e-05 0 0.0052139680492997373 -0.0011533369792518437 0 0.0041635990977822125 -0.00065893688840200284 0 0.0048906891098177523 1.1408713391603186e-05 0 0.0052139680492997373 -0.0011533369792518437 0 0.0041635990977822125 -0.00065893688840200284 0 0.0041919409001016771 -0.0028396197263742301 0 0.0026842220182860706 0.00063975300810622279 0 0.0028573090701429931 -0.00015964569721988898 0 0.0025735814726275965 0.00010909141350717029 0 0.0022376335369694083 8.6414804448544822e-05 0 0.0024640638959390212 -0.00026201784330897324 0 0.0019791763877057473 -0.00040765320262517365 0 0.0028573090701429931 -0.00015964569721988898 0 0.0025735814726275965 0.00010909141350717029 0 0.0024640638959390212 -0.00026201784330897324 0 0.0024945416357692774 0.0003565300516244993 0 0.0025735814726275965 0.00010909141350717029 0 0.0022376335369694083 8.6414804448544822e-05 0 0.0025735814726275965 0.00010909141350717029 0 0.0022376335369694083 8.6414804448544822e-05 0 0.0024640638959390212 -0.00026201784330897324 0 0.0024640638959390212 -0.00026201784330897324 0 0.0019791763877057473 -0.00040765320262517365 0 0.0023254135281428282 -0.00067231953472340759 0 0.0024640638959390212 -0.00026201784330897324 0 0.0026736415434866767 -0.00055126757178538199 0 0.0023254135281428282 -0.00067231953472340759 0 0.0055299661378670189 -0.0023915321214645173 0 0.0041919409001016771 -0.0028396197263742301 0 0.0047603638779653602 -0.0044070568202154185 0 0.0028573090701429931 -0.00015964569721988898 0 0.0024640638959390212 -0.00026201784330897324 0 0.0026736415434866767 -0.00055126757178538199 0 0.0028573090701429931 -0.00015964569721988898 0 0.0026736415434866767 -0.00055126757178538199 0 0.0029593643835065485 -0.0005621248174474757 0 0.0035724479770875414 -0.0016793789633725732 0 0.0022889006503767949 -0.0015016224162956492 0 0.00087143053080477022 -0.00016936863000122741 0 0.0013791781940496019 0.00050886145861855957 0 0.0016690910589322145 -4.0352191105857033e-05 0 0.0019348974748381587 0.00044027896009324704 0 0.0022376335369694083 8.6414804448544822e-05 0 0.0016690910589322145 -4.0352191105857033e-05 0 0.0022376335369694083 8.6414804448544822e-05 0 0.0016690910589322145 -4.0352191105857033e-05 0 0.0019791763877057473 -0.00040765320262517365 0 0.00087143053080477022 -0.00016936863000122741 0 0.0016690910589322145 -4.0352191105857033e-05 0 0.0012928011853881977 -0.00077151419599930896 0 0.0016690910589322145 -4.0352191105857033e-05 0 0.0019791763877057473 -0.00040765320262517365 0 0.0013717871220382499 -0.00060076416948804192 0 0.0015958925484953594 -0.00011819246475469603 0 0.0015277538586367359 -0.00062719095068133706 0 0.0013717871220382499 -0.00060076416948804192 0 0.0017948138821714556 -0.00090561511418016274 0 0.0010695051657861907 -0.0011647456052584308 0 0.0019791763877057473 -0.00040765320262517365 0 0.0013717871220382499 -0.00060076416948804192 0 0.0017948138821714556 -0.00090561511418016274 0 0.0017948138821714556 -0.00090561511418016274 0 0.0023254135281428282 -0.00067231953472340759 0 0.0022766481110854139 -0.0011435732424839933 0 0.0019791763877057473 -0.00040765320262517365 0 0.0017948138821714556 -0.00090561511418016274 0 0.0023254135281428282 -0.00067231953472340759 0 0.0017948138821714556 -0.00090561511418016274 0 0.0017395562623287826 -0.0014367360123488178 0 0.0022766481110854139 -0.0011435732424839933 0 -0.00079892862339000755 -0.0012438251626612543 0 -0.00067438287049022977 -0.0011668147951264926 0 -0.0034446529107376137 -0.00086215761315286876 0 -0.0033694069087317458 -0.00083861908347385291 0 -0.0033132978036418447 -0.00092126153510962744 0 0.0017948138821714556 -0.00090561511418016274 0 0.0017395562623287826 -0.0014367360123488178 0 0.0010695051657861907 -0.0011647456052584308 0 -0.00069999885050778417 0.00055265347662849205 0 0.00011701490223859326 -0.00018301693277995639 0 -0.0023849503072589481 0.0012486901460604849 0 -0.0024233618712232374 0.0013737064197746262 0 -0.0027902957365023538 0.00082092515239877005 0 0.0030205919780957012 -0.00076083887745931615 0 0.0025985932091789907 -0.00087374191525704846 0 0.0026990197964936839 -0.0012362884482655196 0 0.0030205919780957012 -0.00076083887745931615 0 0.0026736415434866767 -0.00055126757178538199 0 0.0025985932091789907 -0.00087374191525704846 0 0.0030205919780957012 -0.00076083887745931615 0 0.0026736415434866767 -0.00055126757178538199 0 0.0029593643835065485 -0.0005621248174474757 0 0.0025985932091789907 -0.00087374191525704846 0 0.0023254135281428282 -0.00067231953472340759 0 0.0022766481110854139 -0.0011435732424839933 0 0.0026736415434866767 -0.00055126757178538199 0 0.0025985932091789907 -0.00087374191525704846 0 0.0023254135281428282 -0.00067231953472340759 0 0.0017395562623287826 -0.0014367360123488178 0 0.0022766481110854139 -0.0011435732424839933 0 0.0023839618120047841 -0.0017007219811751644 0 0.0025985932091789907 -0.00087374191525704846 0 0.0022766481110854139 -0.0011435732424839933 0 0.0026990197964936839 -0.0012362884482655196 0 0.0022766481110854139 -0.0011435732424839933 0 0.0026990197964936839 -0.0012362884482655196 0 0.0023839618120047841 -0.0017007219811751644 0 -0.0023225855828525963 5.1466034395490191e-05 0 -0.0027280761388054739 0.00044193687130443841 0 -0.002835346859407408 3.2689015797442657e-05 0 -0.0020921730925016744 0.00040488878714092677 0 -0.0027902957365023538 0.00082092515239877005 0 -0.0027280761388054739 0.00044193687130443841 0 -0.0027902957365023538 0.00082092515239877005 0 -0.0027280761388054739 0.00044193687130443841 0 -0.0031344448418870541 0.00028718961272153137 0 0.00011701490223859326 -0.00018301693277995639 0 -0.0011892528099017015 -0.00048026521396361344 0 -0.0027280761388054739 0.00044193687130443841 0 -0.0030716590962443476 0.00026162040754141918 0 -0.002835346859407408 3.2689015797442657e-05 0 -0.0027280761388054739 0.00044193687130443841 0 -0.0031344448418870541 0.00028718961272153137 0 -0.0030716590962443476 0.00026162040754141918 0 -0.0031392912551313841 0.00028861536515805217 0 -0.0030716590962443476 0.00026162040754141918 0 -0.0031388659557385875 -8.1064778507812406e-06 0 -0.0011892528099017015 -0.00048026521396361344 0 -0.0015583250107980202 -0.00032716806085028534 0 -0.0031392912551313841 0.00028861536515805217 0 -0.0031388659557385875 -8.1064778507812406e-06 0 -0.0034659968170552636 -0.00027851750123319318 0 -0.0035426392686823635 -0.00080511848409318802 0 -0.0034889368063378647 -0.00078903388674722509 0 -0.0035289145359055645 -0.00072644635478484446 0 -0.0011892528099017015 -0.00048026521396361344 0 -0.0037148264137804058 -0.00058979273841308893 0 -0.0030427028082983241 -0.00027484176993728039 0 -0.0031388659557385875 -8.1064778507812406e-06 0 -0.0034659968170552636 -0.00027851750123319318 0 -0.0030716590962443476 0.00026162040754141918 0 -0.0031388659557385875 -8.1064778507812406e-06 0 -0.002835346859407408 3.2689015797442657e-05 0 -0.0025916121296775496 -0.00031312827295543709 0 -0.0023225855828525963 5.1466034395490191e-05 0 -0.002835346859407408 3.2689015797442657e-05 0 -0.0030427028082983241 -0.00027484176993728039 0 -0.0025916121296775496 -0.00031312827295543709 0 -0.002835346859407408 3.2689015797442657e-05 0 -0.0030427028082983241 -0.00027484176993728039 0 -0.0031388659557385875 -8.1064778507812406e-06 0 -0.002835346859407408 3.2689015797442657e-05 0 -0.0034446529107376137 -0.00086215761315286876 0 -0.0034337373868521676 -0.00076099903780870609 0 -0.0033694069087317458 -0.00083861908347385291 0 -0.00079892862339000755 -0.0012438251626612543 0 -0.0011892528099017015 -0.00048026521396361344 0 -0.0034446529107376137 -0.00086215761315286876 0 -0.0034889368063378647 -0.00078903388674722509 0 -0.0034337373868521676 -0.00076099903780870609 0 -0.0034446529107376137 -0.00086215761315286876 0 -0.0035426392686823635 -0.00080511848409318802 0 -0.0034889368063378647 -0.00078903388674722509 0 -0.0034889368063378647 -0.00078903388674722509 0 -0.0035289145359055645 -0.00072644635478484446 0 -0.0034337373868521676 -0.00076099903780870609 0 -0.0033852826319229175 -0.00066526266785577233 0 -0.0034337373868521676 -0.00076099903780870609 0 -0.0032821947465838932 -0.00080977401450957841 0 -0.0033852826319229175 -0.00066526266785577233 0 -0.0032396311977646117 -0.00069369499953783836 0 -0.0032821947465838932 -0.00080977401450957841 0 -0.0016411073289317477 -0.00073869519278264286 0 -0.0020628143486549348 -0.00082193191194346348 0 -0.0034337373868521676 -0.00076099903780870609 0 -0.0032821947465838932 -0.00080977401450957841 0 -0.0033694069087317458 -0.00083861908347385291 0 -0.0020628143486549348 -0.00082193191194346348 0 -0.00067438287049022977 -0.0011668147951264926 0 -0.0032821947465838932 -0.00080977401450957841 0 -0.0033694069087317458 -0.00083861908347385291 0 -0.0033132978036418447 -0.00092126153510962744 0 -0.00050232787133123178 -0.0008165522517965309 0 -0.00044299474247698072 -0.00097780764856756144 0 -0.00036979294911377306 -0.00090381043358407035 0 -0.00050232787133123178 -0.0008165522517965309 0 -0.00054985376728673555 -0.00094138556619931268 0 -0.00044299474247698072 -0.00097780764856756144 0 -0.00067438287049022977 -0.0011668147951264926 0 8.1304313051321661e-05 -0.001168103987639481 0 0.00025935620035966931 -0.00065177886743677193 0 0.00033677605489407068 -0.0012647520995592214 0 0.00075415561242378536 -0.00090526384469791872 0 0.00091132424137472016 -0.0015084902748888772 0 0.00033677605489407068 -0.0012647520995592214 0 0.00075415561242378536 -0.00090526384469791872 0 0.0015277538586367359 -0.00062719095068133706 0 -0.00067438287049022977 -0.0011668147951264926 0 0.0012928011853881977 -0.00077151419599930896 0 0.00091132424137472016 -0.0015084902748888772 0 0.00075415561242378536 -0.00090526384469791872 0 0.0010005584825319509 2.5679254219056748e-05 0 0.000715356021977863 -0.00076667819609037161 0 0.0001902344356430369 -0.00023659771535846611 0 0.00025935620035966931 -0.00065177886743677193 0 -0.00026927178714899737 -0.00098681846458434537 0 -0.00035843626912779916 -0.00098909596569851372 0 -0.00044299474247698072 -0.00097780764856756144 0 -0.00026927178714899737 -0.00098681846458434537 0 -0.00033568830192212625 -0.00096812177603418728 0 0.00025935620035966931 -0.00065177886743677193 0 0.00033677605489407068 -0.0012647520995592214 0 -0.00026927178714899737 -0.00098681846458434537 0 -0.00035843626912779916 -0.00098909596569851372 0 -0.00033568830192212625 -0.00096812177603418728 0 -0.00036979294911377306 -0.00090381043358407035 0 8.1304313051321661e-05 -0.001168103987639481 0 -0.00029861385809580972 -0.00098830438765239864 0 -0.00026927178714899737 -0.00098681846458434537 0 -0.00035843626912779916 -0.00098909596569851372 0 -0.00033568830192212625 -0.00096812177603418728 0 -0.00044299474247698072 -0.00097780764856756144 0 -0.00033568830192212625 -0.00096812177603418728 0 -0.00036979294911377306 -0.00090381043358407035 0 0.00027155324679770072 -0.00045844492737488919 0 0.000532762243896473 -0.00094959344236254285 0 -0.00035843626912779916 -0.00098909596569851372 0 -0.00036979294911377306 -0.00090381043358407035 0 -0.00030148427283237125 -0.00086971089867404782 0 -0.00036979294911377306 -0.00090381043358407035 0 -0.00030148427283237125 -0.00086971089867404782 0 -0.00035878114286583247 -0.00076739655683793627 0 -0.00050232787133123178 -0.0008165522517965309 0 -0.00036979294911377306 -0.00090381043358407035 0 -0.00035878114286583247 -0.00076739655683793627 0 -0.0004764114267235109 -0.00069849475772966734 0 -0.00050232787133123178 -0.0008165522517965309 0 -0.00035878114286583247 -0.00076739655683793627 0 -0.00030148427283237125 -0.00086971089867404782 0 -0.00035878114286583247 -0.00076739655683793627 0 -0.00026524157833113455 -0.00072187796647000244 0 -0.00034798010822836985 -0.00064691257202709391 0 -0.00035878114286583247 -0.00076739655683793627 0 -0.00026524157833113455 -0.00072187796647000244 0 -0.0022208643652676867 -0.00014566119531950715 0 -0.0024194177136690419 -0.000141757173769637 0 -0.0046898831500225332 0.0011421691198109432 0 -0.0049348951052621305 0.0010671273795463143 0 -0.0047324638918440527 0.00084409847192674719 0 0.000532762243896473 -0.00094959344236254285 0 -0.0022208643652676867 -0.00014566119531950715 0 0.000715356021977863 -0.00076667819609037161 0 0.00034672183870736368 -0.0014923419748018841 0 -9.2176421028892312e-05 -0.0011070906911326201 0 -0.0044497232481446828 0.0010009542800703522 0 -0.0039032276818889585 0.0006195142753235059 0 -0.0043115932153283435 0.0011370663278477192 0 -0.0046898831500225332 0.0011421691198109432 0 -0.0047324638918440527 0.00084409847192674719 0 -0.0044497232481446828 0.0010009542800703522 0 -0.0024194177136690419 -0.000141757173769637 0 -0.0024775391307479706 -0.00014799333035845914 0 -0.0047324638918440527 0.00084409847192674719 0 -0.0044497232481446828 0.0010009542800703522 0 -0.004380527606930678 0.00048479261995928454 0 -0.0044497232481446828 0.0010009542800703522 0 -0.004380527606930678 0.00048479261995928454 0 -0.0039032276818889585 0.0006195142753235059 0 -0.0024775391307479706 -0.00014799333035845914 0 -0.0025129255014107537 -0.00015917641426382959 0 -0.004380527606930678 0.00048479261995928454 0 -0.0037205729030082347 0.00011611315615217073 0 -0.0039032276818889585 0.0006195142753235059 0 -0.00056254113557012929 -0.0007860861057261896 0 -0.00040375170349383859 -0.0001222929882344081 0 0.0001902344356430369 -0.00023659771535846611 0 -0.00056254113557012929 -0.0007860861057261896 0 -0.00040375170349383859 -0.0001222929882344081 0 -0.0012577416682436049 -0.0005510771927649806 0 -0.00040375170349383859 -0.0001222929882344081 0 -0.0012577416682436049 -0.0005510771927649806 0 -0.00078685212766309938 0.00049604400886733044 0 0.000715356021977863 -0.00076667819609037161 0 -9.2176421028892312e-05 -0.0011070906911326201 0 0.0001902344356430369 -0.00023659771535846611 0 0.0006516557625866477 0.00050631424671521619 0 0.0010005584825319509 2.5679254219056748e-05 0 0.0001902344356430369 -0.00023659771535846611 0 -9.2176421028892312e-05 -0.0011070906911326201 0 -0.00056254113557012929 -0.0007860861057261896 0 0.0001902344356430369 -0.00023659771535846611 0 0.0006516557625866477 0.00050631424671521619 0 0.0001902344356430369 -0.00023659771535846611 0 0.00019641057872178233 0.00064391995433645661 0 0.0006516557625866477 0.00050631424671521619 0 0.00065950915754875547 0.0009504196850235935 0 0.00019641057872178233 0.00064391995433645661 0 -0.00040375170349383859 -0.0001222929882344081 0 0.0001902344356430369 -0.00023659771535846611 0 0.00019641057872178233 0.00064391995433645661 0 -0.00040375170349383859 -0.0001222929882344081 0 0.00019641057872178233 0.00064391995433645661 0 -0.00078685212766309938 0.00049604400886733044 0 -0.00078685212766309938 0.00049604400886733044 0 -6.5950085370577351e-05 0.0012285801254952587 0 -0.001322260484070491 0.0014605407511056059 0 0.00019641057872178233 0.00064391995433645661 0 -0.00078685212766309938 0.00049604400886733044 0 -6.5950085370577351e-05 0.0012285801254952587 0 -6.5950085370577351e-05 0.0012285801254952587 0 0.00032793864385096322 0.0018858179998305687 0 -0.001322260484070491 0.0014605407511056059 0 0.00022049659282438153 0.0019021610825098807 0 7.6160677466702788e-05 0.0021874593888069191 0 0.00032793864385096322 0.0018858179998305687 0 0.00041102316410675748 0.0013865491609408118 0 0.00053216892871898189 0.0014979456692166082 0 -6.5950085370577351e-05 0.0012285801254952587 0 0.00032793864385096322 0.0018858179998305687 0 0.00041102316410675748 0.0013865491609408118 0 0.00065950915754875547 0.0009504196850235935 0 0.00019641057872178233 0.00064391995433645661 0 0.00041102316410675748 0.0013865491609408118 0 0.00019641057872178233 0.00064391995433645661 0 -6.5950085370577351e-05 0.0012285801254952587 0 0.00041102316410675748 0.0013865491609408118 0 0.00065914505393025 0.0011434181796240331 0 0.00041102316410675748 0.0013865491609408118 0 0.00057431872888014926 0.0012131749491467217 0 0.00065950915754875547 0.0009504196850235935 0 0.00065914505393025 0.0011434181796240331 0 0.00041102316410675748 0.0013865491609408118 0 0.0030153483712646867 0.0029461541160827748 0 0.0025007764554116976 0.0026107157247889719 0 0.0025371638733585064 0.0032275762119717711 0 0.0023492876189228277 0.0030236998102311377 0 0.0025007764554116976 0.0026107157247889719 0 0.0024689171703834159 0.0031786339230519115 0 0.0024609746411762665 0.0028224032453158928 0 0.0028987822822732186 0.0027453613151304009 0 0.0030153483712646867 0.0029461541160827748 0 0.0024778918967708788 0.002474080029571126 0 0.0025007764554116976 0.0026107157247889719 0 0.0023272257908280199 0.0026778601688909262 0 0.0022656547091033387 0.0028874838152723203 0 0.0025007764554116976 0.0026107157247889719 0 0.0022656547091033387 0.0028874838152723203 0 0.0023492876189228277 0.0030236998102311377 0 0.0025007764554116976 0.0026107157247889719 0 0.0023272257908280199 0.0026778601688909262 0 0.0022656547091033387 0.0028874838152723203 0 0.0021727509248359793 0.0025631683831788894 0 0.0022656547091033387 0.0028874838152723203 0 0.0023492876189228277 0.0030236998102311377 0 0.002192992130417308 0.0031557426021818053 0 0.004464022456405905 0.0027240967089484942 0 0.0028987822822732186 0.0027453613151304009 0 0.004464022456405905 0.0027240967089484942 0 0.0028952890044551889 0.0031619911996697632 0 0.0045911990953690701 0.0048012468867109958 0 0.0040082663965395667 0.0033523216456267002 0 0.0033467831271940152 0.0036464495173801712 0 0.0045911990953690701 0.0048012468867109958 0 0.0047502688120704536 0.0035515196166133372 0 0.0040082663965395667 0.0033523216456267002 0 0.0047502688120704536 0.0035515196166133372 0 0.0052673700974436872 0.0029492445202594637 0 0.0041640409805408923 0.0027024484245495471 0 0.0040082663965395667 0.0033523216456267002 0 0.0033446943474792941 0.0027911598881332858 0 0.0041640409805408923 0.0027024484245495471 0 0.0047502688120704536 0.0035515196166133372 0 0.0040082663965395667 0.0033523216456267002 0 0.0041640409805408923 0.0027024484245495471 0 0.0033467831271940152 0.0036464495173801712 0 0.0021633664182098109 0.0021028053378932795 0 0.0033446943474792941 0.0027911598881332858 0 0.0028952890044551889 0.0031619911996697632 0 0.0022008060078432482 0.0021722558215784412 0 0.0040082663965395667 0.0033523216456267002 0 0.0033467831271940152 0.0036464495173801712 0 0.0033446943474792941 0.0027911598881332858 0 0.0023272257908280199 0.0026778601688909262 0 0.0024778918967708788 0.002474080029571126 0 0.0021727509248359793 0.0025631683831788894 0 0.0023272257908280199 0.0026778601688909262 0 0.0024778918967708788 0.002474080029571126 0 0.0025007764554116976 0.0026107157247889719 0 0.0021727509248359793 0.0025631683831788894 0 0.0016375977619473253 0.0023125491348363341 0 0.0021633664182098109 0.0021028053378932795 0 0.0021727509248359793 0.0025631683831788894 0 0.0016375977619473253 0.0023125491348363341 0 0.0019570208213780639 0.0029232993733576389 0 0.0024778918967708788 0.002474080029571126 0 0.0021727509248359793 0.0025631683831788894 0 0.0021633664182098109 0.0021028053378932795 0 0.00032793864385096322 0.0018858179998305687 0 0.0016375977619473253 0.0023125491348363341 0 0.0013936515930848348 0.0029860557347836307 0 0.0016375977619473253 0.0023125491348363341 0 0.0013936515930848348 0.0029860557347836307 0 0.0019570208213780639 0.0029232993733576389 0 0.0013936515930848348 0.0029860557347836307 0 0.0019570208213780639 0.0029232993733576389 0 0.0020301735820738129 0.0034103153518761564 0 0.0022656547091033387 0.0028874838152723203 0 0.0021727509248359793 0.0025631683831788894 0 0.0019570208213780639 0.0029232993733576389 0 0.0022656547091033387 0.0028874838152723203 0 0.0019570208213780639 0.0029232993733576389 0 0.002192992130417308 0.0031557426021818053 0 0.0019570208213780639 0.0029232993733576389 0 0.0020301735820738129 0.0034103153518761564 0 0.002192992130417308 0.0031557426021818053 0 0.0020301735820738129 0.0034103153518761564 0 0.0022943160995251956 0.0033545396990995744 0 0.002192992130417308 0.0031557426021818053 0 7.6160677466702788e-05 0.0021874593888069191 0 -0.00058271443691597477 0.0019029606168660662 0 -0.001322260484070491 0.0014605407511056059 0 -0.0026931885515072691 0.00057866167460151154 0 -0.0017445830118497595 0.00064049136013056304 0 -0.00078685212766309938 0.00049604400886733044 0 -0.001322260484070491 0.0014605407511056059 0 -0.0017445830118497595 0.00064049136013056304 0 -0.00078685212766309938 0.00049604400886733044 0 -0.0017445830118497595 0.00064049136013056304 0 -0.002532654201248625 3.6160268148752951e-05 0 -0.0012577416682436049 -0.0005510771927649806 0 -0.00078685212766309938 0.00049604400886733044 0 -0.002532654201248625 3.6160268148752951e-05 0 -0.0026931885515072691 0.00057866167460151154 0 -0.002532654201248625 3.6160268148752951e-05 0 -0.0028151882187502329 0.00012750194381866618 0 -0.0026931885515072691 0.00057866167460151154 0 -0.0017445830118497595 0.00064049136013056304 0 -0.002532654201248625 3.6160268148752951e-05 0 0.0022943160995251956 0.0033545396990995744 0 0.0024332455106969662 0.0031901258111758281 0 0.0024176004345143583 0.0037683860508172969 0 0.0028987822822732186 0.0027453613151304009 0 0.001312305677313805 0.0019883691321630798 0 -0.00058271443691597477 0.0019029606168660662 0 0.001312305677313805 0.0019883691321630798 0 0.0020301735820738129 0.0034103153518761564 0 0.0022943160995251956 0.0033545396990995744 0 0.0024176004345143583 0.0037683860508172969 0 -0.0026931885515072691 0.00057866167460151154 0 -0.0029103420651111537 0.00011258505415523236 0 -0.0028151882187502329 0.00012750194381866618 0 0.0028987822822732186 0.0027453613151304009 0 0.0027071393837250603 0.0028771926462222296 0 0.0023492876189228277 0.0030236998102311377 0 0.0024689171703834159 0.0031786339230519115 0 0.0023747820480447216 0.0032250418320360322 0 0.0022943160995251956 0.0033545396990995744 0 0.002192992130417308 0.0031557426021818053 0 0.0023747820480447216 0.0032250418320360322 0 0.0023492876189228277 0.0030236998102311377 0 0.002192992130417308 0.0031557426021818053 0 0.0023747820480447216 0.0032250418320360322 0 0.0022943160995251956 0.0033545396990995744 0 0.0024332455106969662 0.0031901258111758281 0 0.0023747820480447216 0.0032250418320360322 0 0.0040196383948768333 0.00071722494824975598 0 0.0031643688722631574 0.0012189529061486558 0 0.0038195085983509353 0.001344913628412381 0 0.0031643688722631574 0.0012189529061486558 0 0.0038195085983509353 0.001344913628412381 0 0.004005130257652212 0.0019800613554480213 0 0.0031643688722631574 0.0012189529061486558 0 0.004005130257652212 0.0019800613554480213 0 0.0032085754833871918 0.0028078913173128894 0 0.004005130257652212 0.0019800613554480213 0 0.0042171430603600603 0.0027792550658985791 0 0.0032085754833871918 0.0028078913173128894 0 0.0035429688808698459 0.0031925350355687084 0 0.0026278576334891265 0.0022226216798097512 0 0.0027309662195317791 0.0043178156017674519 0 0.0042171430603600603 0.0027792550658985791 0 0.0038724065584196392 0.0035226680556949027 0 0.0047706806529985149 0.0034981659864068799 0 0.0042171430603600603 0.0027792550658985791 0 0.0038724065584196392 0.0035226680556949027 0 0.0032085754833871918 0.0028078913173128894 0 0.0039042663086639477 0.0035696501605406604 0 0.001312305677313805 0.0019883691321630798 0 -0.0029103420651111537 0.00011258505415523236 0 -0.0028151882187502329 0.00012750194381866618 0 -0.003038744823832392 0.00021302802881770339 0 -0.0029103420651111537 0.00011258505415523236 0 -0.0029078245979350507 0.00041752509402051053 0 -0.003038744823832392 0.00021302802881770339 0 0.001312305677313805 0.0019883691321630798 0 -7.459274637089397e-05 0.0024225459987982996 0 -0.0029078245979350507 0.00041752509402051053 0 -0.003038744823832392 0.00021302802881770339 0 -0.0032933004306162318 0.00050547371073106275 0 0.0035429688808698459 0.0031925350355687084 0 0.0027309662195317791 0.0043178156017674519 0 0.0036287144365975466 0.0044856339101324236 0 0.0035429688808698459 0.0031925350355687084 0 0.0036287144365975466 0.0044856339101324236 0 0.0044552240207333992 0.0042169736193578824 0 0.0039042663086639477 0.0035696501605406604 0 0.0043156777342746372 0.004048807432373157 0 -0.0037205729030082347 0.00011611315615217073 0 -0.002532654201248625 3.6160268148752951e-05 0 -0.0034256956997734405 0.00033965794615698213 0 -0.0025129255014107537 -0.00015917641426382959 0 -0.0025965041590303552 4.2210205573093227e-05 0 -0.002532654201248625 3.6160268148752951e-05 0 -0.003038744823832392 0.00021302802881770339 0 -0.0034256956997734405 0.00033965794615698213 0 -0.002532654201248625 3.6160268148752951e-05 0 -0.0028151882187502329 0.00012750194381866618 0 -0.003038744823832392 0.00021302802881770339 0 -0.003038744823832392 0.00021302802881770339 0 -0.0034256956997734405 0.00033965794615698213 0 -0.0032933004306162318 0.00050547371073106275 0 -0.0034256956997734405 0.00033965794615698213 0 -0.0039032276818889585 0.0006195142753235059 0 -0.0032933004306162318 0.00050547371073106275 0 -0.0037205729030082347 0.00011611315615217073 0 -0.0034256956997734405 0.00033965794615698213 0 -0.0039032276818889585 0.0006195142753235059 0 -0.0039032276818889585 0.0006195142753235059 0 -0.0032933004306162318 0.00050547371073106275 0 -0.0036211273259258588 0.00088281222192212962 0 -0.0032933004306162318 0.00050547371073106275 0 -0.0036211273259258588 0.00088281222192212962 0 -0.0031639333932630535 0.00073532392920909169 0 -0.0034396360865464153 0.0010829878019420547 0 -0.0036211273259258588 0.00088281222192212962 0 -0.0031822993160717768 0.0009676846713087587 0 -0.0036211273259258588 0.00088281222192212962 0 -0.0031639333932630535 0.00073532392920909169 0 -0.0031822993160717768 0.0009676846713087587 0 -0.0039874098804146187 0.0011867318405804539 0 -0.0034396360865464153 0.0010829878019420547 0 -0.0036211273259258588 0.00088281222192212962 0 -0.0039874098804146187 0.0011867318405804539 0 -0.0036211273259258588 0.00088281222192212962 0 -0.0043115932153283435 0.0011370663278477192 0 -0.0039032276818889585 0.0006195142753235059 0 -0.0036211273259258588 0.00088281222192212962 0 -0.0043115932153283435 0.0011370663278477192 0 0.003250855232739859 0.0052874082879551532 0 0.0036287144365975466 0.0044856339101324236 0 0.0041861543418637796 0.0051865557995157113 0 0.0036287144365975466 0.0044856339101324236 0 0.0041861543418637796 0.0051865557995157113 0 0.0044552240207333992 0.0042169736193578824 0 0.0027309662195317791 0.0043178156017674519 0 0.003250855232739859 0.0052874082879551532 0 0.0036287144365975466 0.0044856339101324236 0 0.0027309662195317791 0.0043178156017674519 0 0.003250855232739859 0.0052874082879551532 0 0.0027764119156046948 0.0062860243967035054 0 -7.459274637089397e-05 0.0024225459987982996 0 -0.0016616934078977498 0.00260805080747988 0 -0.0029078245979350507 0.00041752509402051053 0 -0.0032933004306162318 0.00050547371073106275 0 -0.0031639333932630535 0.00073532392920909169 0 -0.0029078245979350507 0.00041752509402051053 0 -0.0031639333932630535 0.00073532392920909169 0 -0.0029365166422220396 0.0010710288448573014 0 -0.0034644995278894724 0.0012431678430511854 0 -0.0034396360865464153 0.0010829878019420547 0 -0.0029365166422220396 0.0010710288448573014 0 -0.0034396360865464153 0.0010829878019420547 0 -0.0031822993160717768 0.0009676846713087587 0 -0.0029365166422220396 0.0010710288448573014 0 -0.0031639333932630535 0.00073532392920909169 0 -0.0031822993160717768 0.0009676846713087587 0 -0.0029365166422220396 0.0010710288448573014 0 -0.0036354281949053388 0.00070875759932370011 0 -0.0035451375485174553 0.00068092139942910678 0 -0.0035383122753062414 0.00062619197435753845 0 0.003250855232739859 0.0052874082879551532 0 0.0027764119156046948 0.0062860243967035054 0 0.0041861543418637796 0.0051865557995157113 0 -0.0016616934078977498 0.00260805080747988 0 0.00048343987002796369 0.0029718479220935982 0 -0.0036421180074042519 0.00077528414837850523 0 -0.0036354281949053388 0.00070875759932370011 0 -0.0035451375485174553 0.00068092139942910678 0 -0.0061964158066728069 0.0017344076144311213 0 -0.0054693433011101401 0.0012346433168205836 0 -0.0055872938129234474 0.0017646971210668141 0 -0.0048395688566169794 0.0011612634399863131 0 -0.0045179645464764441 0.00093210825388446734 0 -0.0058503954151438425 0.0021566695776401639 0 -0.0061964158066728069 0.0017344076144311213 0 -0.0055872938129234474 0.0017646971210668141 0 -0.0035451375485174553 0.00068092139942910678 0 -0.0035383122753062414 0.00062619197435753845 0 -0.0035452813063354227 0.00059640254033822631 0 0.0041861543418637796 0.0051865557995157113 0 0.0044552240207333992 0.0042169736193578824 0 0.0054581149193401656 0.0041680870625139324 0 0.00048343987002796369 0.0029718479220935982 0 0.00093567178763655494 0.0023791177431512975 0 -0.0035383122753062414 0.00062619197435753845 0 -0.0035452813063354227 0.00059640254033822631 0 -0.003538693763073069 0.00060668171707668739 0 -0.0035452813063354227 0.00059640254033822631 0 -0.0036043631870414233 0.00059267246934066153 0 -0.003538693763073069 0.00060668171707668739 0 -0.0054693433011101401 0.0012346433168205836 0 -0.0055872938129234474 0.0017646971210668141 0 -0.0049717730755974568 0.0016437283108053436 0 -0.0053865484971341764 0.0020441448557367583 0 -0.0055872938129234474 0.0017646971210668141 0 -0.0049717730755974568 0.0016437283108053436 0 -0.0043575082061814135 0.0019391442880680649 0 -0.0043528827522381214 0.0014309240965780198 0 -0.0038012864794795117 0.0016531045682548506 0 -0.0043575082061814135 0.0019391442880680649 0 -0.0049717730755974568 0.0016437283108053436 0 -0.0043528827522381214 0.0014309240965780198 0 -0.0043528827522381214 0.0014309240965780198 0 -0.0039362493252945111 0.0011044756404061063 0 -0.0038012864794795117 0.0016531045682548506 0 -0.0043528827522381214 0.0014309240965780198 0 -0.0039362493252945111 0.0011044756404061063 0 -0.0046255858063280163 0.00083617702443359568 0 -0.0054693433011101401 0.0012346433168205836 0 -0.0049717730755974568 0.0016437283108053436 0 -0.0046255858063280163 0.00083617702443359568 0 -0.0049717730755974568 0.0016437283108053436 0 -0.0043528827522381214 0.0014309240965780198 0 -0.0046255858063280163 0.00083617702443359568 0 -0.0045179645464764441 0.00093210825388446734 0 -0.0041316939341177446 0.00071509894141871539 0 -0.0035452813063354227 0.00059640254033822631 0 -0.003639367357342826 0.00056458649237181178 0 -0.0036043631870414233 0.00059267246934066153 0 -0.0036043631870414233 0.00059267246934066153 0 -0.0036496000410580383 0.00061016847358471844 0 -0.003538693763073069 0.00060668171707668739 0 -0.003639367357342826 0.00056458649237181178 0 -0.0036043631870414233 0.00059267246934066153 0 -0.003667055358959176 0.00059606362109679192 0 -0.0036043631870414233 0.00059267246934066153 0 -0.003667055358959176 0.00059606362109679192 0 -0.0036496000410580383 0.00061016847358471844 0 -0.0039362493252945111 0.0011044756404061063 0 -0.0046255858063280163 0.00083617702443359568 0 -0.0037492097561666496 0.00060403072681846596 0 -0.0041316939341177446 0.00071509894141871539 0 -0.0037998078210638065 0.00060270889320848306 0 -0.003639367357342826 0.00056458649237181178 0 -0.003667055358959176 0.00059606362109679192 0 -0.0037492097561666496 0.00060403072681846596 0 -0.003667055358959176 0.00059606362109679192 0 -0.0036825123254467808 0.00056700235148544529 0 -0.0037492097561666496 0.00060403072681846596 0 0.0014098771725338348 0.0019289509380247514 0 0.0016845309123835754 0.001640489720618475 0 -0.0036825123254467808 0.00056700235148544529 0 -0.0036496000410580383 0.00061016847358471844 0 -0.0036295723646894954 0.00047790924816298191 0 0.0065160654843718184 0.0032231158997834816 0 0.0064038131458956909 0.0029146134306602491 0 0.0056902644539759684 0.0032959749602502874 0 0.0065160654843718184 0.0032231158997834816 0 0.0064038131458956909 0.0029146134306602491 0 0.0068106293315246076 0.0028508826708400297 0 -0.003667055358959176 0.00059606362109679192 0 -0.0036825123254467808 0.00056700235148544529 0 -0.0036496000410580383 0.00061016847358471844 0 0.0064038131458956909 0.0029146134306602491 0 0.0056902644539759684 0.0032959749602502874 0 0.0055707525558069577 0.0027528163022925217 0 0.0065160654843718184 0.0032231158997834816 0 0.0056902644539759684 0.0032959749602502874 0 0.0054581149193401656 0.0041680870625139324 0 0.0056902644539759684 0.0032959749602502874 0 0.0050334599732794714 0.0030191351208893407 0 0.0055707525558069577 0.0027528163022925217 0 0.0042171430603600603 0.0027792550658985791 0 0.0050334599732794714 0.0030191351208893407 0 0.0047706806529985149 0.0034981659864068799 0 0.0056902644539759684 0.0032959749602502874 0 0.0050334599732794714 0.0030191351208893407 0 0.0047706806529985149 0.0034981659864068799 0 0.0038724065584196392 0.0035226680556949027 0 0.0047706806529985149 0.0034981659864068799 0 0.0044552240207333992 0.0042169736193578824 0 0.0047706806529985149 0.0034981659864068799 0 0.0044552240207333992 0.0042169736193578824 0 0.0054581149193401656 0.0041680870625139324 0 0.0056902644539759684 0.0032959749602502874 0 0.0047706806529985149 0.0034981659864068799 0 0.0054581149193401656 0.0041680870625139324 0 0.0014098771725338348 0.0019289509380247514 0 0.00093567178763655494 0.0023791177431512975 0 -0.0021490728356290327 0.0023674123498018907 0 -0.0016254510522548764 0.0022653188927058343 0 -0.001527787755454381 0.0026137038414911036 0 -0.0021490728356290327 0.0023674123498018907 0 -0.001527787755454381 0.0026137038414911036 0 -0.0018923110715844849 0.0028279493988876566 0 -0.0016255063938839854 0.0023916469491160929 0 -0.0016233108896161917 0.0028244786566389746 0 -0.0019833015049288286 0.0019746234558054077 0 -0.0021490728356290327 0.0023674123498018907 0 -0.0016254510522548764 0.0022653188927058343 0 -0.001527787755454381 0.0026137038414911036 0 -0.0011065253604175252 0.0027174329586132349 0 -0.0012800433626121318 0.0027369954195289418 0 -0.0016254510522548764 0.0022653188927058343 0 -0.001527787755454381 0.0026137038414911036 0 -0.0011065253604175252 0.0027174329586132349 0 -0.0012513122520030964 0.002016656822313554 0 -0.0016254510522548764 0.0022653188927058343 0 -0.0011065253604175252 0.0027174329586132349 0 -0.0031736648199455781 0.0019829196175103238 0 -0.0033218080427975662 0.0010187916129897189 0 -0.0038012864794795117 0.0016531045682548506 0 -0.0018312150930937614 0.0020440746839236615 0 -0.0021994280593580768 0.0018876123315426496 0 -0.0039362493252945111 0.0011044756404061063 0 -0.0033218080427975662 0.0010187916129897189 0 -0.0038012864794795117 0.0016531045682548506 0 -0.0039362493252945111 0.0011044756404061063 0 -0.0033218080427975662 0.0010187916129897189 0 -0.0037492097561666496 0.00060403072681846596 0 -0.0033218080427975662 0.0010187916129897189 0 -0.0037492097561666496 0.00060403072681846596 0 -0.0034933530983072116 0.00051259857276186979 0 -0.0036825123254467808 0.00056700235148544529 0 -0.0034933530983072116 0.00051259857276186979 0 -0.0036295723646894954 0.00047790924816298191 0 -0.0036825123254467808 0.00056700235148544529 0 -0.0037492097561666496 0.00060403072681846596 0 -0.0034933530983072116 0.00051259857276186979 0 -0.0010288105893053573 0.0026862281347788779 0 -0.0010129290303582679 0.0027505862931532965 0 -0.00079031954570391179 0.0023673090519139815 0 -0.0010129290303582679 0.0027505862931532965 0 -0.00052785416344113955 0.0023575730001552742 0 -0.0005826195942971751 0.0020315260082135688 0 -0.00091845658413639225 0.0026924684389142946 0 -0.00088791271405381286 0.002294053504226273 0 -0.0010129290303582679 0.0027505862931532965 0 -0.0010939845776463029 0.0027952689199113936 0 -0.00059105117821196004 0.0026074485236080467 0 -0.0011065253604175252 0.0027174329586132349 0 -0.0010129290303582679 0.0027505862931532965 0 -0.0010939845776463029 0.0027952689199113936 0 -0.0011065253604175252 0.0027174329586132349 0 -0.0010288105893053573 0.0026862281347788779 0 -0.0010129290303582679 0.0027505862931532965 0 -0.0010095944806172512 0.0027529089570362732 0 -0.0010487543165781732 0.003045555376392057 0 -0.0021994280593580768 0.0018876123315426496 0 -0.0027544450703317173 0.0014995302037849106 0 -0.0011065253604175252 0.0027174329586132349 0 -0.0010939845776463029 0.0027952689199113936 0 -0.0012800433626121318 0.0027369954195289418 0 -0.0010939845776463029 0.0027952689199113936 0 -0.0014542527447063997 0.0028710918628514744 0 -0.0013544265037410625 0.0032420973141685282 0 -0.001527787755454381 0.0026137038414911036 0 -0.0014542527447063997 0.0028710918628514744 0 -0.0018923110715844849 0.0028279493988876566 0 -0.0010939845776463029 0.0027952689199113936 0 -0.0012800433626121318 0.0027369954195289418 0 -0.0014542527447063997 0.0028710918628514744 0 -0.001527787755454381 0.0026137038414911036 0 -0.0012800433626121318 0.0027369954195289418 0 -0.0014542527447063997 0.0028710918628514744 0 -0.00059105117821196004 0.0026074485236080467 0 -0.00052785416344113955 0.0023575730001552742 0 -7.1117101780504804e-05 0.0021706185683957558 0 -0.0010487543165781732 0.003045555376392057 0 -0.00029375721034402704 0.0020220000631290726 0 -0.0010129290303582679 0.0027505862931532965 0 -0.00059105117821196004 0.0026074485236080467 0 -0.00052785416344113955 0.0023575730001552742 0 -0.0013544265037410625 0.0032420973141685282 0 -0.0015287079945849903 0.0033664766517895505 0 -0.0015427690243115595 0.0035589104453207215 0 -0.0015287079945849903 0.0033664766517895505 0 -0.0016603719567221805 0.003295891014015815 0 -0.0015427690243115595 0.0035589104453207215 0 -0.0013544265037410625 0.0032420973141685282 0 -0.0015287079945849903 0.0033664766517895505 0 -0.0015346432096679801 0.0032773191803169644 0 -0.0015287079945849903 0.0033664766517895505 0 -0.0015346432096679801 0.0032773191803169644 0 -0.0016603719567221805 0.003295891014015815 0 -0.0013544265037410625 0.0032420973141685282 0 -0.0015346432096679801 0.0032773191803169644 0 -0.0015861630611125814 0.0031390647885803564 0 -0.0014542527447063997 0.0028710918628514744 0 -0.0013544265037410625 0.0032420973141685282 0 -0.0015861630611125814 0.0031390647885803564 0 -0.0015346432096679801 0.0032773191803169644 0 -0.0015861630611125814 0.0031390647885803564 0 -0.0016603719567221805 0.003295891014015815 0 0.0014115962988369151 0.0017223018660169865 0 0.0013584936510186013 0.0013565284567455236 0 0.00098028449705868121 0.0014197028397903895 0 0.0013584936510186013 0.0013565284567455236 0 0.00098028449705868121 0.0014197028397903895 0 0.0011677301406859163 0.0011794307002870137 0 2.9149479026259616e-05 0.0021874809938863472 0 -0.00063276546035637214 0.0027046792650130781 0 -0.0015861630611125814 0.0031390647885803564 0 -0.0016603719567221805 0.003295891014015815 0 -0.0018923110715844849 0.0028279493988876566 0 -0.0013574554269856632 0.0028148619293342368 0 -0.0010921932698043457 0.0029979198008001193 0 -0.0012118627681954343 0.0027249026763635038 0 -0.0014542527447063997 0.0028710918628514744 0 -0.0015861630611125814 0.0031390647885803564 0 -0.0018923110715844849 0.0028279493988876566 0 -0.00063276546035637214 0.0027046792650130781 0 -0.0016233108896161917 0.0028244786566389746 0 -0.00029375721034402704 0.0020220000631290726 0 0.0011682787256541906 0.00070207547920606559 0 0.00027240477584853414 0.0012971538942730867 0 6.4687877004721109e-05 0.0017608256841116394 0 0.00083340331585616038 0.001105789878341041 0 -4.1026225870275252e-05 0.0021948074325079327 0 6.4687877004721109e-05 0.0017608256841116394 0 0.00083340331585616038 0.001105789878341041 0 0.0011045681530296504 0.00098149889352127165 0 0.00086169453078753077 0.0011357432214774781 0 0.0012140716969710258 0.000542205239533511 0 0.0012852292792037915 0.00092560941932105702 0 0.0011045681530296504 0.00098149889352127165 0 0.0012140716969710258 0.000542205239533511 0 0.0012852292792037915 0.00092560941932105702 0 0.0011677301406859163 0.0011794307002870137 0 0.0011045681530296504 0.00098149889352127165 0 0.00098028449705868121 0.0014197028397903895 0 0.001001479141400358 0.0012461650121000538 0 0.00086169453078753077 0.0011357432214774781 0 0.00098028449705868121 0.0014197028397903895 0 0.0011677301406859163 0.0011794307002870137 0 0.001001479141400358 0.0012461650121000538 0 0.0011677301406859163 0.0011794307002870137 0 0.001001479141400358 0.0012461650121000538 0 0.0010344924166639433 0.0011360829391346547 0 0.001001479141400358 0.0012461650121000538 0 0.0010344924166639433 0.0011360829391346547 0 0.00086169453078753077 0.0011357432214774781 0 0.0010344924166639433 0.0011360829391346547 0 0.0011045681530296504 0.00098149889352127165 0 0.00086169453078753077 0.0011357432214774781 0 0.0011677301406859163 0.0011794307002870137 0 0.0010344924166639433 0.0011360829391346547 0 0.0011045681530296504 0.00098149889352127165 0 -7.155523615374966e-05 0.0021072592993863215 0 -4.1026225870275252e-05 0.0021948074325079327 0 6.4687877004721109e-05 0.0017608256841116394 0 -7.155523615374966e-05 0.0021072592993863215 0 -0.00021325382991418238 0.0019207536146779963 0 6.4687877004721109e-05 0.0017608256841116394 0 -7.155523615374966e-05 0.0021072592993863215 0 -0.00031004619154929392 0.002171340867665171 0 -0.00021325382991418238 0.0019207536146779963 0 -0.00027640124066343353 0.0020454695375301778 0 -0.00029375721034402704 0.0020220000631290726 0 -0.00063276546035637214 0.0027046792650130781 0 -0.00029375721034402704 0.0020220000631290726 0 -7.155523615374966e-05 0.0021072592993863215 0 -7.1117101780504804e-05 0.0021706185683957558 0 -0.00031004619154929392 0.002171340867665171 0 -0.00052785416344113955 0.0023575730001552742 0 -0.00031004619154929392 0.002171340867665171 0 -0.0005826195942971751 0.0020315260082135688 0 -0.00052785416344113955 0.0023575730001552742 0 -7.1117101780504804e-05 0.0021706185683957558 0 -0.00031004619154929392 0.002171340867665171 0 -0.00031004619154929392 0.002171340867665171 0 -0.00021325382991418238 0.0019207536146779963 0 -0.0005826195942971751 0.0020315260082135688 0 -0.00088791271405381286 0.002294053504226273 0 0.000856166677536643 0.00099773565452481176 0 -0.00021325382991418238 0.0019207536146779963 0 -0.00014706551251389831 0.0014916311486918 0 -0.0005826195942971751 0.0020315260082135688 0 -0.00014706551251389831 0.0014916311486918 0 -0.0005826195942971751 0.0020315260082135688 0 -0.00026195646601981972 0.00083822493630976165 0 0.00027240477584853414 0.0012971538942730867 0 6.4687877004721109e-05 0.0017608256841116394 0 -0.00014706551251389831 0.0014916311486918 0 -0.00021325382991418238 0.0019207536146779963 0 6.4687877004721109e-05 0.0017608256841116394 0 -0.00014706551251389831 0.0014916311486918 0 0.00027240477584853414 0.0012971538942730867 0 -0.00014706551251389831 0.0014916311486918 0 0.00030788810034027372 0.000889543182833665 0 -0.00079031954570391179 0.0023673090519139815 0 -0.0010801654004768187 0.0021411772737577679 0 -0.00063390796914978718 0.0017591752941380494 0 0.0012357466699357378 0.0015702649911727899 0 0.000856166677536643 0.00099773565452481176 0 -0.0027544450703317173 0.0014995302037849106 0 0.0012357466699357378 0.0015702649911727899 0 -0.0010288105893053573 0.0026862281347788779 0 -0.00079031954570391179 0.0023673090519139815 0 -0.0010801654004768187 0.0021411772737577679 0 0.0012357466699357378 0.0015702649911727899 0 0.0016845309123835754 0.001640489720618475 0 -0.0034933530983072116 0.00051259857276186979 0 -0.003464044705029722 0.00037964716604918758 0 -0.0036295723646894954 0.00047790924816298191 0 0.0069684092033693986 0.002696334273081706 0 0.0068106293315246076 0.0028508826708400297 0 0.0068533746209896405 0.0026127991544948534 0 0.0069943894718971396 0.0024797299238226533 0 0.0068533746209896405 0.0026127991544948534 0 0.0069478551510334316 0.0024643543297552827 0 0.0012357466699357378 0.0015702649911727899 0 0.0057018042918767706 0.002132667819394246 0 0.0069684092033693986 0.002696334273081706 0 0.0069943894718971396 0.0024797299238226533 0 0.0068533746209896405 0.0026127991544948534 0 0.0069943894718971396 0.0024797299238226533 0 0.0069478551510334316 0.0024643543297552827 0 0.0069777075235723128 0.0023639392670728827 0 0.0035852056786146846 0.0013838438476596118 0 0.0035658919342836152 0.0014048223278757773 0 0.0035169341754679576 0.0013606728374508975 0 0.003541915971666042 0.00133785536791634 0 0.0035852056786146846 0.0013838438476596118 0 0.0035169341754679576 0.0013606728374508975 0 -0.00014706551251389831 0.0014916311486918 0 -0.00026195646601981972 0.00083822493630976165 0 0.00030788810034027372 0.000889543182833665 0 0.000856166677536643 0.00099773565452481176 0 0.00093928140751561764 0.00010723271917899186 0 -0.00026195646601981972 0.00083822493630976165 0 0.00054436208543200951 0.00029104889169880851 0 0.00030788810034027372 0.000889543182833665 0 0.000856166677536643 0.00099773565452481176 0 0.0024023391315935324 0.00067889668276474883 0 0.0035658919342836152 0.0014048223278757773 0 0.0035169341754679576 0.0013606728374508975 0 0.0035233630388981189 0.0013924536454496964 0 0.0012115734628121994 8.6809788761096424e-05 0 0.0012509409542559859 -9.4096679570993298e-05 0 0.0013484786058556987 -4.6513570356573094e-05 0 0.0012509409542559859 -9.4096679570993298e-05 0 0.0013484786058556987 -4.6513570356573094e-05 0 0.0013543049380254368 -0.00015487981279241943 0 0.0016351095020422099 -5.2298463199694583e-06 0 0.00054436208543200951 0.00029104889169880851 0 0.00083340331585616038 0.001105789878341041 0 0.0016351095020422099 -5.2298463199694583e-06 0 0.0014159412752176301 -0.00014761540815387287 0 0.00054436208543200951 0.00029104889169880851 0 0.0014159412752176301 -0.00014761540815387287 0 0.0013484786058556987 -4.6513570356573094e-05 0 0.0013543049380254368 -0.00015487981279241943 0 0.0013443027952894837 -0.00012096290488118737 0 0.00093928140751561764 0.00010723271917899186 0 0.00054436208543200951 0.00029104889169880851 0 0.00030788810034027372 0.000889543182833665 0 0.00083340331585616038 0.001105789878341041 0 0.00027240477584853414 0.0012971538942730867 0 0.00030788810034027372 0.000889543182833665 0 0.00083340331585616038 0.001105789878341041 0 0.0064126211463934107 0.0027684383543193978 0 0.0066631122643790557 0.002649310661639669 0 0.0066000638876677628 0.0025613528275568028 0 0.0040196383948768333 0.00071722494824975598 0 0.0038195085983509353 0.001344913628412381 0 0.0051494015831431402 0.0017369371538758329 0 0.004464022456405905 0.0027240967089484942 0 0.0058535998658703686 0.0021080436188385581 0 0.0038195085983509353 0.001344913628412381 0 0.004005130257652212 0.0019800613554480213 0 0.0051494015831431402 0.0017369371538758329 0 0.004005130257652212 0.0019800613554480213 0 0.0042171430603600603 0.0027792550658985791 0 0.0051494015831431402 0.0017369371538758329 0 0.0042171430603600603 0.0027792550658985791 0 0.0050334599732794714 0.0030191351208893407 0 0.0051494015831431402 0.0017369371538758329 0 0.0063721152939011996 0.0029277284856806963 0 0.0058535998658703686 0.0021080436188385581 0 0.0064038131458956909 0.0029146134306602491 0 0.0064126211463934107 0.0027684383543193978 0 0.0066145008747384134 0.0027665859220492067 0 0.0064038131458956909 0.0029146134306602491 0 0.0051494015831431402 0.0017369371538758329 0 0.0055707525558069577 0.0027528163022925217 0 0.0050334599732794714 0.0030191351208893407 0 0.0051494015831431402 0.0017369371538758329 0 0.0055707525558069577 0.0027528163022925217 0 0.0064038131458956909 0.0029146134306602491 0 0.0066145008747384134 0.0027665859220492067 0 0.0068106293315246076 0.0028508826708400297 0 0.0066145008747384134 0.0027665859220492067 0 0.0068106293315246076 0.0028508826708400297 0 0.0068533746209896405 0.0026127991544948534 0 0.0064126211463934107 0.0027684383543193978 0 0.0066145008747384134 0.0027665859220492067 0 0.0066631122643790557 0.002649310661639669 0 0.0066145008747384134 0.0027665859220492067 0 0.0066631122643790557 0.002649310661639669 0 0.0068533746209896405 0.0026127991544948534 0 0.0066631122643790557 0.002649310661639669 0 0.0068029758083550593 0.0025314445194223119 0 0.0068533746209896405 0.0026127991544948534 0 0.0066631122643790557 0.002649310661639669 0 0.0068029758083550593 0.0025314445194223119 0 0.0066000638876677628 0.0025613528275568028 0 0.0068029758083550593 0.0025314445194223119 0 0.0068533746209896405 0.0026127991544948534 0 0.0069478551510334316 0.0024643543297552827 0 0.0069478551510334316 0.0024643543297552827 0 0.0069215516760954866 0.002466970293040137 0 0.0071545579775179977 0.002468702090320751 0 0.0068029758083550593 0.0025314445194223119 0 0.0069478551510334316 0.0024643543297552827 0 0.0069215516760954866 0.002466970293040137 0 0.0069215516760954866 0.002466970293040137 0 0.0066984631796357863 0.0024013546090849956 0 0.0071545579775179977 0.002468702090320751 0 0.0068029758083550593 0.0025314445194223119 0 0.0066984631796357863 0.0024013546090849956 0 0.0066000638876677628 0.0025613528275568028 0 0.0068029758083550593 0.0025314445194223119 0 0.0069215516760954866 0.002466970293040137 0 0.0066984631796357863 0.0024013546090849956 0 0.0066984631796357863 0.0024013546090849956 0 0.0066000638876677628 0.0025613528275568028 0 0.0064270865831924512 0.0024973892966620457 0 0.0068693845630021086 0.0027641136411911309 0 0.0062844348541677038 0.0032849947070174154 0 0.0071639778261174195 0.0030980228821438174 0 0.005940125523448447 0.0039831454664315761 0 0.0061531686289412703 0.0027173518904743095 0 0.0064126211463934107 0.0027684383543193978 0 0.0066000638876677628 0.0025613528275568028 0 0.0064270865831924512 0.0024973892966620457 0 0.004464022456405905 0.0027240967089484942 0 0.0062844348541677038 0.0032849947070174154 0 0.0045911990953690701 0.0048012468867109958 0 0.0047502688120704536 0.0035515196166133372 0 0.005940125523448447 0.0039831454664315761 0 0.0062242658920722812 0.0025978393735456525 0 0.0064126211463934107 0.0027684383543193978 0 0.0064270865831924512 0.0024973892966620457 0 0.0047502688120704536 0.0035515196166133372 0 0.005940125523448447 0.0039831454664315761 0 0.0052673700974436872 0.0029492445202594637 0 0.005940125523448447 0.0039831454664315761 0 0.0052673700974436872 0.0029492445202594637 0 0.0061531686289412703 0.0027173518904743095 0 0.0052673700974436872 0.0029492445202594637 0 0.0061531686289412703 0.0027173518904743095 0 0.0048385024213964938 0.0022615078742644584 0 0.0059956114134088667 0.0017236048820779293 0 0.0061531686289412703 0.0027173518904743095 0 0.0048385024213964938 0.0022615078742644584 0 0.0059956114134088667 0.0017236048820779293 0 0.0051478910574223663 0.0014717488256203006 0 0.0048385024213964938 0.0022615078742644584 0 0.0059956114134088667 0.0017236048820779293 0 0.0051478910574223663 0.0014717488256203006 0 0.0054073339257144255 0.00035680475648723799 0 0.0051478910574223663 0.0014717488256203006 0 0.0054073339257144255 0.00035680475648723799 0 0.0044155921393934598 0.0011406528803856286 0 0.0074036671937995841 0.0023196889587618337 0 0.0079066524407950135 0.0010160124025647174 0 0.00658602638053391 0.00085794160673474608 0 0.0059956114134088667 0.0017236048820779293 0 0.0074036671937995841 0.0023196889587618337 0 0.00658602638053391 0.00085794160673474608 0 0.0059956114134088667 0.0017236048820779293 0 0.0061531686289412703 0.0027173518904743095 0 0.0074036671937995841 0.0023196889587618337 0 0.0071639778261174195 0.0030980228821438174 0 0.0061531686289412703 0.0027173518904743095 0 0.0074036671937995841 0.0023196889587618337 0 0.0068693845630021086 0.0027641136411911309 0 0.0071136418186946715 0.0025316017303323849 0 0.0071639778261174195 0.0030980228821438174 0 0.0072845310000955628 0.0025283806655463062 0 0.0074036671937995841 0.0023196889587618337 0 0.0072845310000955628 0.0025283806655463062 0 0.0071819672426819319 0.0025708981575256412 0 0.0074036671937995841 0.0023196889587618337 0 0.0071639778261174195 0.0030980228821438174 0 0.0072845310000955628 0.0025283806655463062 0 0.0071545579775179977 0.002468702090320751 0 0.0069478551510334316 0.0024643543297552827 0 0.0071033206412046794 0.0024991141473702182 0 0.0070876151927884235 0.0025092219668118106 0 0.0066775151904156539 0.0027000766921639612 0 0.0079739589936015619 0.0019835396833957986 0 0.0069478551510334316 0.0024643543297552827 0 0.0071545579775179977 0.002468702090320751 0 0.0071033206412046794 0.0024991141473702182 0 0.0071033206412046794 0.0024991141473702182 0 0.0071819672426819319 0.0025708981575256412 0 0.0070876151927884235 0.0025092219668118106 0 0.0071545579775179977 0.002468702090320751 0 0.0071033206412046794 0.0024991141473702182 0 0.0071819672426819319 0.0025708981575256412 0 0.0072845310000955628 0.0025283806655463062 0 0.0071545579775179977 0.002468702090320751 0 0.0071819672426819319 0.0025708981575256412 0 0.008495420379347569 0.0024711180426796727 0 0.0079739589936015619 0.0019835396833957986 0 0.010467612969589883 0.0018956559196091351 0 0.0095564284930902167 0.0024427180041020672 0 0.010866754569855851 0.0023434030689913226 0 0.010467612969589883 0.0018956559196091351 0 0.0095564284930902167 0.0024427180041020672 0 0.010128203238750315 0.0015933827095594203 0 0.0095564284930902167 0.0024427180041020672 0 0.010128203238750315 0.0015933827095594203 0 0.009287478342997044 0.0014104897770534093 0 0.010128203238750315 0.0015933827095594203 0 0.009287478342997044 0.0014104897770534093 0 0.010303547493391784 0.00084730823992688778 0 0.010128203238750315 0.0015933827095594203 0 0.010303547493391784 0.00084730823992688778 0 0.010583105932354984 0.0013916772098532975 0 0.010467612969589883 0.0018956559196091351 0 0.010128203238750315 0.0015933827095594203 0 0.010583105932354984 0.0013916772098532975 0 0.0095564284930902167 0.0024427180041020672 0 0.0074036671937995841 0.0023196889587618337 0 0.009287478342997044 0.0014104897770534093 0 0.008495420379347569 0.0024711180426796727 0 0.0074447998441360451 0.0023672339055080993 0 0.0074036671937995841 0.0023196889587618337 0 0.009287478342997044 0.0014104897770534093 0 0.0079066524407950135 0.0010160124025647174 0 0.0079066524407950135 0.0010160124025647174 0 0.009710961661819879 0.00044201562324375004 0 0.0071404280020469666 -0.00051522290567753359 0 0.0096837710757640381 0.00039053966690711029 0 0.008758941286843713 -8.7453380859286279e-05 0 0.009287478342997044 0.0014104897770534093 0 0.0079066524407950135 0.0010160124025647174 0 0.009710961661819879 0.00044201562324375004 0 0.009287478342997044 0.0014104897770534093 0 0.010303547493391784 0.00084730823992688778 0 0.009710961661819879 0.00044201562324375004 0 0.010303547493391784 0.00084730823992688778 0 0.009710961661819879 0.00044201562324375004 0 0.01028475093661194 0.00042760643810150248 0 0.010303547493391784 0.00084730823992688778 0 0.01028475093661194 0.00042760643810150248 0 0.010714995951868922 0.0005991372644299505 0 0.01028475093661194 0.00042760643810150248 0 0.01018028900323591 0.00039802865514367708 0 0.010444590598073702 0.00044124236747445473 0 0.01028475093661194 0.00042760643810150248 0 0.010682193867975335 0.00058848485561136487 0 0.010444590598073702 0.00044124236747445473 0 0.009710961661819879 0.00044201562324375004 0 0.01028475093661194 0.00042760643810150248 0 0.01018028900323591 0.00039802865514367708 0 0.009710961661819879 0.00044201562324375004 0 0.01018028900323591 0.00039802865514367708 0 0.01035539894925259 0.0002706862302541105 0 0.01018028900323591 0.00039802865514367708 0 0.010441444467119903 0.00032001723837708052 0 0.010380618482399412 0.00037396880432771144 0 0.01018028900323591 0.00039802865514367708 0 0.010441444467119903 0.00032001723837708052 0 0.01035539894925259 0.0002706862302541105 0 0.010441444467119903 0.00032001723837708052 0 0.01035539894925259 0.0002706862302541105 0 0.010539000718148792 0.00026022413174905636 0 0.008758941286843713 -8.7453380859286279e-05 0 0.0080739257415722611 -0.00040833443167808905 0 0.0053356624101653363 -0.0010997917822280141 0 0.0054073339257144255 0.00035680475648723799 0 0.0045922637847089255 -0.00076523539870301165 0 0.0071404280020469666 -0.00051522290567753359 0 0.0053356624101653363 -0.0010997917822280141 0 0.0054073339257144255 0.00035680475648723799 0 0.0059956114134088667 0.0017236048820779293 0 0.0054073339257144255 0.00035680475648723799 0 0.00658602638053391 0.00085794160673474608 0 0.0053782812906972679 0.00038659996456863731 0 0.0043568991245751566 -0.00072648260157296882 0 0.0054073339257144255 0.00035680475648723799 0 0.0045318082279320188 0.0004100012595264329 0 0.0044981853963456751 -0.00018218597163218724 0 0.0071404280020469666 -0.00051522290567753359 0 0.0054073339257144255 0.00035680475648723799 0 0.00658602638053391 0.00085794160673474608 0 0.0079066524407950135 0.0010160124025647174 0 0.0071404280020469666 -0.00051522290567753359 0 0.00658602638053391 0.00085794160673474608 0 0.0014499907066888389 -0.00057244874367321581 0 0.0014396913017676999 -0.00025775768522018008 0 0.001066077083118729 -0.00026247704081022033 0 0.0014499907066888389 -0.00057244874367321581 0 0.001066077083118729 -0.00026247704081022033 0 0.0011549123866595734 -0.00088535295682585146 0 0.00072712922891660201 -0.0002868611952336544 0 0.0032758169667391058 4.7946449546614552e-05 0 0.0014396913017676999 -0.00025775768522018008 0 0.0013543049380254368 -0.00015487981279241943 0 0.0012849152072499485 -0.00025701672729593907 0 0.0014159412752176301 -0.00014761540815387287 0 0.0014396913017676999 -0.00025775768522018008 0 0.0013543049380254368 -0.00015487981279241943 0 0.0032758169667391058 4.7946449546614552e-05 0 0.0050767789149711402 0.00066339529238886269 0 0.0024023391315935324 0.00067889668276474883 0 0.0032758169667391058 4.7946449546614552e-05 0 0.0012509409542559859 -9.4096679570993298e-05 0 0.0013543049380254368 -0.00015487981279241943 0 0.0012849152072499485 -0.00025701672729593907 0 0.0035233630388981189 0.0013924536454496964 0 0.0035227101239278693 0.0014314824554353212 0 0.0035701426063999816 0.0014418405947570702 0 0.0032758169667391058 4.7946449546614552e-05 0 0.0037344488637418654 -0.00063485875738253492 0 0.0063941497543620841 -0.00013435837538962805 0 0.0064336684838605671 -0.00010980464106798808 0 0.0064360018564578857 -0.00013161462182656518 0 0.0063941497543620841 -0.00013435837538962805 0 0.0064336684838605671 -0.00010980464106798808 0 0.0064126938145813933 -0.00010446992214967314 0 0.0064572455128870119 -0.00011295682860377328 0 0.0064360018564578857 -0.00013161462182656518 0 0.0064745956774525815 -0.00012228260275533984 0 0.0064336684838605671 -0.00010980464106798808 0 0.0064572455128870119 -0.00011295682860377328 0 0.0064360018564578857 -0.00013161462182656518 0 0.0035658919342836152 0.0014048223278757773 0 0.0035233630388981189 0.0013924536454496964 0 0.0035701426063999816 0.0014418405947570702 0 0.0050767789149711402 0.00066339529238886269 0 0.0062613815998411766 0.0015640922625984534 0 0.0035658919342836152 0.0014048223278757773 0 0.0035701426063999816 0.0014418405947570702 0 0.0036305424727613432 0.0014486978090529877 0 0.0069943894718971396 0.0024797299238226533 0 0.0069915131089928568 0.0023637137215113489 0 0.0069777075235723128 0.0023639392670728827 0 0.0035852056786146846 0.0013838438476596118 0 0.0035658919342836152 0.0014048223278757773 0 0.0036305424727613432 0.0014486978090529877 0 0.0057018042918767706 0.002132667819394246 0 0.0062613815998411766 0.0015640922625984534 0 0.0062613815998411766 0.0015640922625984534 0 0.0079739589936015619 0.0019835396833957986 0 0.010467612969589883 0.0018956559196091351 0 0.010866754569855851 0.0023434030689913226 0 0.011069358167091561 0.0018049995256261739 0 0.0064572455128870119 -0.00011295682860377328 0 0.006477896302231962 -0.00011206386562608835 0 0.0064687543755721699 -9.5004508831847073e-05 0 0.0079739589936015619 0.0019835396833957986 0 0.0087075336643407126 0.0010734994536676305 0 0.0080604848270845221 0.0021862604117207792 0 0.0075188092643572561 0.0021576794599845739 0 0.0079514239100652896 0.0011856197553087411 0 0.0062613815998411766 0.0015640922625984534 0 0.0087075336643407126 0.0010734994536676305 0 0.0064572455128870119 -0.00011295682860377328 0 0.0064745956774525815 -0.00012228260275533984 0 0.006477896302231962 -0.00011206386562608835 0 0.010467612969589883 0.0018956559196091351 0 0.011069358167091561 0.0018049995256261739 0 0.010583105932354984 0.0013916772098532975 0 0.0087075336643407126 0.0010734994536676305 0 0.010286535961782429 0.0013195797736345455 0 0.011069358167091561 0.0018049995256261739 0 0.010583105932354984 0.0013916772098532975 0 0.010836556703849918 0.00095833369522877105 0 0.010880468565022307 0.0013984224080596727 0 0.010836556703849918 0.00095833369522877105 0 0.011180831448683409 0.0006330938041075421 0 0.0087075336643407126 0.0010734994536676305 0 0.0087890732363163498 0.00015263530251761174 0 0.010303547493391784 0.00084730823992688778 0 0.010583105932354984 0.0013916772098532975 0 0.010836556703849918 0.00095833369522877105 0 0.010303547493391784 0.00084730823992688778 0 0.010836556703849918 0.00095833369522877105 0 0.010714995951868922 0.0005991372644299505 0 0.010714995951868922 0.0005991372644299505 0 0.010926198831231125 0.00013700091345306047 0 0.011180831448683409 0.0006330938041075421 0 0.010836556703849918 0.00095833369522877105 0 0.010714995951868922 0.0005991372644299505 0 0.011180831448683409 0.0006330938041075421 0 0.010326270449201929 0.00047216210356857145 0 0.01099645778981095 0.00024632301925705673 0 0.01028475093661194 0.00042760643810150248 0 0.010714995951868922 0.0005991372644299505 0 0.010926198831231125 0.00013700091345306047 0 0.0064659653456688622 -8.2099786074851005e-05 0 0.0064687543755721699 -9.5004508831847073e-05 0 0.0064448071254449308 -9.4241934762347802e-05 0 0.010926198831231125 0.00013700091345306047 0 0.011486596376332927 -0.00013371440902029328 0 0.011180831448683409 0.0006330938041075421 0 0.0098819667814375144 0.00041104748918312391 0 0.0087890732363163498 0.00015263530251761174 0 0.010682193867975335 0.00058848485561136487 0 0.010986602634607091 0.00061051716807986381 0 0.010933908984217701 0.00054561918511901821 0 0.01099645778981095 0.00024632301925705673 0 0.0098819667814375144 0.00041104748918312391 0 0.0064659653456688622 -8.2099786074851005e-05 0 0.0064448071254449308 -9.4241934762347802e-05 0 0.0064493179708764638 -8.7659865845828502e-05 0 0.0064336684838605671 -0.00010980464106798808 0 0.0064572455128870119 -0.00011295682860377328 0 0.0064687543755721699 -9.5004508831847073e-05 0 0.0064336684838605671 -0.00010980464106798808 0 0.0064687543755721699 -9.5004508831847073e-05 0 0.0064448071254449308 -9.4241934762347802e-05 0 0.0064336684838605671 -0.00010980464106798808 0 0.0064126938145813933 -0.00010446992214967314 0 0.0064448071254449308 -9.4241934762347802e-05 0 0.0064126938145813933 -0.00010446992214967314 0 0.0064448071254449308 -9.4241934762347802e-05 0 0.0064347390354677972 -8.7982500661203304e-05 0 0.0064448071254449308 -9.4241934762347802e-05 0 0.0064493179708764638 -8.7659865845828502e-05 0 0.0064347390354677972 -8.7982500661203304e-05 0 0.0064659653456688622 -8.2099786074851005e-05 0 0.0064493179708764638 -8.7659865845828502e-05 0 0.0064431536847823281 -8.9362099655579852e-05 0 0.0064347390354677972 -8.7982500661203304e-05 0 0.0064418275170177843 -9.1084670187455076e-05 0 0.0064431536847823281 -8.9362099655579852e-05 0 0.0064493179708764638 -8.7659865845828502e-05 0 0.0064347390354677972 -8.7982500661203304e-05 0 0.0064431536847823281 -8.9362099655579852e-05 0 0.0017398042747826291 -0.0014162289394618974 0 0.0011549123866595734 -0.00088535295682585146 0 0.001304305534071803 -0.0016448946100085682 0 0.0037344488637418654 -0.00063485875738253492 0 0.0049565478145098289 -0.0003784554661318712 0 0.0017686288741124369 -0.0019486820930243341 0 0.0017398042747826291 -0.0014162289394618974 0 0.001304305534071803 -0.0016448946100085682 0 0.0064126938145813933 -0.00010446992214967314 0 0.0064347390354677972 -8.7982500661203304e-05 0 0.0064245523141836618 -8.5294489671340016e-05 0 0.006000378156292817 -0.00054706808637406681 0 0.0049565478145098289 -0.0003784554661318712 0 0.0017398042747826291 -0.0014162289394618974 0 0.0017906316820629721 -0.00094561477735365909 0 0.0011549123866595734 -0.00088535295682585146 0 0.0017906316820629721 -0.00094561477735365909 0 0.0014499907066888389 -0.00057244874367321581 0 0.0011549123866595734 -0.00088535295682585146 0 0.0097962461065200183 0.00024914413374194848 0 0.011979692305675879 0.00082248457348746949 0 0.01055950091475575 0.00064778230857159521 0 0.010890350773629324 0.00051902718177224355 0 0.010882328401615441 0.00067927278745866259 0 0.012931429002936413 0.00084436045582991141 0 0.012712449377314564 0.00070491639036679063 0 0.012336877312738108 0.00093860043728918939 0 0.012712449377314564 0.00070491639036679063 0 0.012336877312738108 0.00093860043728918939 0 0.012741306229748671 0.00040702243367415507 0 0.012931429002936413 0.00084436045582991141 0 0.012939992311479593 0.00060274919649378205 0 0.012712449377314564 0.00070491639036679063 0 0.0097962461065200183 0.00024914413374194848 0 0.0082584945313118156 0.00031423114785738903 0 0.0064496352948249271 -0.0001075410912504788 0 0.0064435541170849353 -9.3173926588569988e-05 0 0.0064478699627942594 -9.1746557449699776e-05 0 0.0064573702040499129 -0.00011005119183165379 0 0.0064496352948249271 -0.0001075410912504788 0 0.0064478699627942594 -9.1746557449699776e-05 0 0.0039423480353407911 -0.00091507424829394019 0 0.0049565478145098289 -0.0003784554661318712 0 0.0064496352948249271 -0.0001075410912504788 0 0.0064415197976308838 -8.9998988787043483e-05 0 0.0064435541170849353 -9.3173926588569988e-05 0 0.0064418275170177843 -9.1084670187455076e-05 0 0.0064435541170849353 -9.3173926588569988e-05 0 0.0064431536847823281 -8.9362099655579852e-05 0 0.0049565478145098289 -0.0003784554661318712 0 0.0050973153620603217 -0.00034849626720482175 0 0.010890350773629324 0.00051902718177224355 0 0.011007816642617938 0.00058095444243995073 0 0.011041250207151162 0.00053704425700342633 0 0.0064659653456688622 -8.2099786074851005e-05 0 0.0064478699627942594 -9.1746557449699776e-05 0 0.0064431536847823281 -8.9362099655579852e-05 0 0.01106502832393182 0.0004859711871035215 0 0.010890350773629324 0.00051902718177224355 0 0.011041250207151162 0.00053704425700342633 0 0.0098819667814375144 0.00041104748918312391 0 0.0082584945313118156 0.00031423114785738903 0 0.010890350773629324 0.00051902718177224355 0 0.011007816642617938 0.00058095444243995073 0 0.010882328401615441 0.00067927278745866259 0 0.0064435541170849353 -9.3173926588569988e-05 0 0.0064478699627942594 -9.1746557449699776e-05 0 0.0064431536847823281 -8.9362099655579852e-05 0 0.011007816642617938 0.00058095444243995073 0 0.010882328401615441 0.00067927278745866259 0 0.011196484141762142 0.00062106823830881442 0 0.012336877312738108 0.00093860043728918939 0 0.011813109976423094 0.00053141177599546664 0 0.011196484141762142 0.00062106823830881442 0 0.011979692305675879 0.00082248457348746949 0 0.011104761220180668 0.00065642281256391571 0 0.012336877312738108 0.00093860043728918939 0 0.011813109976423094 0.00053141177599546664 0 0.012741306229748671 0.00040702243367415507 0 0.011196484141762142 0.00062106823830881442 0 0.010766845388401211 0.00030250037116847294 0 0.01124821560311425 0.00020095343060200864 0 0.011813109976423094 0.00053141177599546664 0 0.011196484141762142 0.00062106823830881442 0 0.01124821560311425 0.00020095343060200864 0 0.011196484141762142 0.00062106823830881442 0 0.010933908984217701 0.00054561918511901821 0 0.010765980280350206 0.00048456113471960071 0 0.011007816642617938 0.00058095444243995073 0 0.011196484141762142 0.00062106823830881442 0 0.011041250207151162 0.00053704425700342633 0 0.011196484141762142 0.00062106823830881442 0 0.011041250207151162 0.00053704425700342633 0 0.010933908984217701 0.00054561918511901821 0 0.010986602634607091 0.00061051716807986381 0 0.011041250207151162 0.00053704425700342633 0 0.010933908984217701 0.00054561918511901821 0 0.0098819667814375144 0.00041104748918312391 0 0.010460012480113646 0.00030674982208964694 0 0.010682193867975335 0.00058848485561136487 0 0.010933908984217701 0.00054561918511901821 0 0.010765980280350206 0.00048456113471960071 0 0.010682193867975335 0.00058848485561136487 0 0.010765980280350206 0.00048456113471960071 0 0.010444590598073702 0.00044124236747445473 0 0.010765980280350206 0.00048456113471960071 0 0.010766845388401211 0.00030250037116847294 0 0.01055527370997612 0.00036376455607185808 0 0.011196484141762142 0.00062106823830881442 0 0.010765980280350206 0.00048456113471960071 0 0.010766845388401211 0.00030250037116847294 0 0.010766845388401211 0.00030250037116847294 0 0.010911782495062566 -0.00031423920205936871 0 0.010562646503974409 0.00022533820054017936 0 0.010766845388401211 0.00030250037116847294 0 0.010911782495062566 -0.00031423920205936871 0 0.01124821560311425 0.00020095343060200864 0 0.010911782495062566 -0.00031423920205936871 0 0.01160655794365604 -0.00025004468584615785 0 0.01124821560311425 0.00020095343060200864 0 0.01196427971963902 -0.0009887255701905471 0 0.010911782495062566 -0.00031423920205936871 0 0.01160655794365604 -0.00025004468584615785 0 0.013610073336618152 -0.00049535012795575686 0 0.010316031022621384 0.00010852001623031417 0 0.01160655794365604 -0.00025004468584615785 0 0.01124821560311425 0.00020095343060200864 0 0.011793892184416101 0.00015627057543891271 0 0.011813109976423094 0.00053141177599546664 0 0.01124821560311425 0.00020095343060200864 0 0.011793892184416101 0.00015627057543891271 0 0.011813109976423094 0.00053141177599546664 0 0.011793892184416101 0.00015627057543891271 0 0.012741306229748671 0.00040702243367415507 0 0.011793892184416101 0.00015627057543891271 0 0.012475840137223089 -0.00044457147254614452 0 0.012741306229748671 0.00040702243367415507 0 0.01160655794365604 -0.00025004468584615785 0 0.011793892184416101 0.00015627057543891271 0 0.012475840137223089 -0.00044457147254614452 0 0.01196427971963902 -0.0009887255701905471 0 0.01160655794365604 -0.00025004468584615785 0 0.012475840137223089 -0.00044457147254614452 0 0.011956045054711616 -0.0012956716495175085 0 0.012695367844211335 -0.0010720372510555642 0 0.012475840137223089 -0.00044457147254614452 0 0.013610073336618152 -0.00049535012795575686 0 0.012209401529848486 -0.00092106729322905543 0 0.012695367844211335 -0.0010720372510555642 0 0.012475840137223089 -0.00044457147254614452 0 0.013400731081513823 -0.0008481660562016511 0 0.012475840137223089 -0.00044457147254614452 0 0.013400731081513823 -0.0008481660562016511 0 0.013470563758414832 -0.00021782994681855932 0 0.012475840137223089 -0.00044457147254614452 0 0.013470563758414832 -0.00021782994681855932 0 0.012741306229748671 0.00040702243367415507 0 0.012939992311479593 0.00060274919649378205 0 0.012712449377314564 0.00070491639036679063 0 0.012741306229748671 0.00040702243367415507 0 0.010562410229237474 0.0002797912802393976 0 0.010470361659640706 0.00032682282922601277 0 0.010488401439425086 0.00031704426112745716 0 0.010562410229237474 0.0002797912802393976 0 0.010567498759097025 0.00028174983878849713 0 0.010470361659640706 0.00032682282922601277 0 0.010562410229237474 0.0002797912802393976 0 0.010488401439425086 0.00031704426112745716 0 0.010563971432545586 0.0002901511802144936 0 0.010562410229237474 0.0002797912802393976 0 0.010567498759097025 0.00028174983878849713 0 0.010700320380198218 0.00019180210010799373 0 0.010539000718148792 0.00026022413174905636 0 0.010567498759097025 0.00028174983878849713 0 0.010580291422047389 0.00026847686583977186 0 0.010441444467119903 0.00032001723837708052 0 0.010539000718148792 0.00026022413174905636 0 0.010567498759097025 0.00028174983878849713 0 0.010441444467119903 0.00032001723837708052 0 0.010470361659640706 0.00032682282922601277 0 0.010380618482399412 0.00037396880432771144 0 0.010441444467119903 0.00032001723837708052 0 0.010567498759097025 0.00028174983878849713 0 0.010470361659640706 0.00032682282922601277 0 0.010470361659640706 0.00032682282922601277 0 0.010380618482399412 0.00037396880432771144 0 0.010488401439425086 0.00031704426112745716 0 0.01018028900323591 0.00039802865514367708 0 0.010380618482399412 0.00037396880432771144 0 0.010444590598073702 0.00044124236747445473 0 0.010765980280350206 0.00048456113471960071 0 0.010444590598073702 0.00044124236747445473 0 0.01055527370997612 0.00036376455607185808 0 0.010380618482399412 0.00037396880432771144 0 0.010444590598073702 0.00044124236747445473 0 0.01055527370997612 0.00036376455607185808 0 0.010380618482399412 0.00037396880432771144 0 0.01055527370997612 0.00036376455607185808 0 0.010488401439425086 0.00031704426112745716 0 0.01055527370997612 0.00036376455607185808 0 0.010488401439425086 0.00031704426112745716 0 0.010562646503974409 0.00022533820054017936 0 0.010562646503974409 0.00022533820054017936 0 0.010623498297159405 0.00032381257575494744 0 0.010563971432545586 0.0002901511802144936 0 0.010488401439425086 0.00031704426112745716 0 0.010562646503974409 0.00022533820054017936 0 0.010563971432545586 0.0002901511802144936 0 0.010766845388401211 0.00030250037116847294 0 0.01055527370997612 0.00036376455607185808 0 0.010562646503974409 0.00022533820054017936 0 0.010634667305968824 0.0003339349328172299 0 0.010675931167126326 0.00033630985739996816 0 0.010562646503974409 0.00022533820054017936 0 0.010316031022621384 0.00010852001623031417 0 0.010800122993611933 0.00013529982244104679 0 0.010634667305968824 0.0003339349328172299 0 0.010562646503974409 0.00022533820054017936 0 0.010623498297159405 0.00032381257575494744 0 0.010623498297159405 0.00032381257575494744 0 0.010563971432545586 0.0002901511802144936 0 0.010672020710511022 0.00036749472659787388 0 0.010673082583576032 0.00038707067554945572 0 0.010623498297159405 0.00032381257575494744 0 0.010672020710511022 0.00036749472659787388 0 0.010562410229237474 0.0002797912802393976 0 0.010563971432545586 0.0002901511802144936 0 0.010652155797146354 0.00028469226091775183 0 0.010563971432545586 0.0002901511802144936 0 0.010652155797146354 0.00028469226091775183 0 0.010672020710511022 0.00036749472659787388 0 0.010562410229237474 0.0002797912802393976 0 0.010652155797146354 0.00028469226091775183 0 0.010700320380198218 0.00019180210010799373 0 0.010786724833400894 0.00045002511769686435 0 0.010672020710511022 0.00036749472659787388 0 0.010874343869190388 0.00036042165972432089 0 0.010652155797146354 0.00028469226091775183 0 0.010672020710511022 0.00036749472659787388 0 0.010874343869190388 0.00036042165972432089 0 0.010786724833400894 0.00045002511769686435 0 0.010964406026106299 0.0005473572707878991 0 0.010874343869190388 0.00036042165972432089 0 0.010964406026106299 0.0005473572707878991 0 0.010874343869190388 0.00036042165972432089 0 0.011118419541479733 0.00037717802794855145 0 0.011525195322369289 -0.00034382618080071249 0 0.01306738237966242 -0.00025143428017893353 0 0.011505397487856003 0.0003622869953887614 0 0.010964406026106299 0.0005473572707878991 0 0.011118419541479733 0.00037717802794855145 0 0.011505397487856003 0.0003622869953887614 0 0.012029928625644894 9.8617957176254159e-05 0 0.011586536127706281 0.00034617733407148383 0 0.011118419541479733 0.00037717802794855145 0 0.011164795191702563 0.00027082729231312982 0 0.011505397487856003 0.0003622869953887614 0 0.010874343869190388 0.00036042165972432089 0 0.011118419541479733 0.00037717802794855145 0 0.011164795191702563 0.00027082729231312982 0 0.010874343869190388 0.00036042165972432089 0 0.011164795191702563 0.00027082729231312982 0 0.010700320380198218 0.00019180210010799373 0 0.010652155797146354 0.00028469226091775183 0 0.010874343869190388 0.00036042165972432089 0 0.010700320380198218 0.00019180210010799373 0 0.010567498759097025 0.00028174983878849713 0 0.010700320380198218 0.00019180210010799373 0 0.010618389575900803 0.00025172387928415994 0 0.010700320380198218 0.00019180210010799373 0 0.010504624491671449 0.00021775065061155056 0 0.010618389575900803 0.00025172387928415994 0 0.010931676493653399 7.4027445025133621e-05 0 0.010370392370262783 0.00045928382298380518 0 0.011164795191702563 0.00027082729231312982 0 0.010700320380198218 0.00019180210010799373 0 0.011239883872369074 1.5049188956339642e-05 0 0.0071315915928907604 9.7715038728047064e-05 0 0.007126535350107841 -0.00016513026060830161 0 0.0067680383416253735 -0.00032436164364491033 0 0.010370392370262783 0.00045928382298380518 0 0.0064238325844970445 -0.00045465648716493421 0 0.010504624491671449 0.00021775065061155056 0 0.01058139534925588 0.0002758052960747962 0 0.010618389575900803 0.00025172387928415994 0 0.0045972558123590756 -0.00065449967550478255 0 0.0064238325844970445 -0.00045465648716493421 0 0.002950442869194905 -0.00076758225504984902 0 0.0038056803039493705 -0.00063641951471113325 0 0.0032450785619318368 -0.00035989173749768568 0 0.002950442869194905 -0.00076758225504984902 0 0.0032450785619318368 -0.00035989173749768568 0 0.0027467795260639441 -0.00028931309647695238 0 0.010539000718148792 0.00026022413174905636 0 0.01058139534925588 0.0002758052960747962 0 0.010580291422047389 0.00026847686583977186 0 0.010567498759097025 0.00028174983878849713 0 0.010580291422047389 0.00026847686583977186 0 0.010618389575900803 0.00025172387928415994 0 0.01058139534925588 0.0002758052960747962 0 0.010580291422047389 0.00026847686583977186 0 0.010618389575900803 0.00025172387928415994 0 0.001950783425861864 -0.00047970074909563931 0 0.0021390493242688722 -0.00062951866644110122 0 0.0019637406923042693 -0.00080293317529381487 0 0.001950783425861864 -0.00047970074909563931 0 0.0021390493242688722 -0.00062951866644110122 0 0.002144305838061493 -0.00043202137017130256 0 0.0021390493242688722 -0.00062951866644110122 0 0.0022181163128998948 -0.00090752421521134792 0 0.0019637406923042693 -0.00080293317529381487 0 0.001950783425861864 -0.00047970074909563931 0 0.001611993060530613 -0.00027068825394363391 0 0.0019637406923042693 -0.00080293317529381487 0 0.001950783425861864 -0.00047970074909563931 0 0.001611993060530613 -0.00027068825394363391 0 0.0018606862009957399 -0.00015292049878743368 0 0.0018606862009957399 -0.00015292049878743368 0 0.002144305838061493 -0.00043202137017130256 0 0.0022725575303537381 -0.00020363961479582786 0 0.001950783425861864 -0.00047970074909563931 0 0.0018606862009957399 -0.00015292049878743368 0 0.002144305838061493 -0.00043202137017130256 0 0.0024085707113268621 -0.00054629079260613996 0 0.0027467795260639441 -0.00028931309647695238 0 0.0022725575303537381 -0.00020363961479582786 0 0.002950442869194905 -0.00076758225504984902 0 0.0024085707113268621 -0.00054629079260613996 0 0.0022181163128998948 -0.00090752421521134792 0 0.0045972558123590756 -0.00065449967550478255 0 0.0065957217087586678 0.00018083763034929578 0 0.002144305838061493 -0.00043202137017130256 0 0.0024085707113268621 -0.00054629079260613996 0 0.0022725575303537381 -0.00020363961479582786 0 0.002950442869194905 -0.00076758225504984902 0 0.0024085707113268621 -0.00054629079260613996 0 0.0027467795260639441 -0.00028931309647695238 0 0.0021390493242688722 -0.00062951866644110122 0 0.0024085707113268621 -0.00054629079260613996 0 0.0022181163128998948 -0.00090752421521134792 0 0.0021390493242688722 -0.00062951866644110122 0 0.002144305838061493 -0.00043202137017130256 0 0.0024085707113268621 -0.00054629079260613996 0 0.010370392370262783 0.00045928382298380518 0 0.0065957217087586678 0.00018083763034929578 0 0.0071315915928907604 9.7715038728047064e-05 0 0.007126535350107841 -0.00016513026060830161 0 0.0074753576235418737 4.2701497716648931e-06 0 0.012069642031742144 0.001641459323125318 0 0.011078686052367507 0.0019465582602390256 0 0.011188360198043808 0.0014555039977688213 0 0.012069642031742144 0.001641459323125318 0 0.011188360198043808 0.0014555039977688213 0 0.011330902317183001 0.00078250910613752674 0 0.010370392370262783 0.00045928382298380518 0 0.011505496741463631 0.00069413530579777861 0 0.011188360198043808 0.0014555039977688213 0 0.010976968030341797 0.0011793916237540073 0 0.011330902317183001 0.00078250910613752674 0 0.010976968030341797 0.0011793916237540073 0 0.010741062464239799 0.0015620703977585369 0 0.010535140822118034 0.0011106150889243877 0 0.011188360198043808 0.0014555039977688213 0 0.010976968030341797 0.0011793916237540073 0 0.010741062464239799 0.0015620703977585369 0 0.011188360198043808 0.0014555039977688213 0 0.010741062464239799 0.0015620703977585369 0 0.010735947055722261 0.0020772287546167579 0 0.011078686052367507 0.0019465582602390256 0 0.011188360198043808 0.0014555039977688213 0 0.010735947055722261 0.0020772287546167579 0 0.0065957217087586678 0.00018083763034929578 0 0.0062853378605036659 0.00053793842026843861 0 0.010741062464239799 0.0015620703977585369 0 0.010735947055722261 0.0020772287546167579 0 0.0098429106247624621 0.0017741565368657366 0 0.010741062464239799 0.0015620703977585369 0 0.010535140822118034 0.0011106150889243877 0 0.0098429106247624621 0.0017741565368657366 0 0.011022904159466031 0.00044834770735820053 0 0.010705786376408941 0.0003307287425370611 0 0.010445655747001461 0.00066208114114270952 0 0.010535140822118034 0.0011106150889243877 0 0.011022904159466031 0.00044834770735820053 0 0.0094662938582469221 0.00085818268258589642 0 0.010865882683204495 0.00045570719481547887 0 0.010132516051265517 0.00082107598875625818 0 0.010976968030341797 0.0011793916237540073 0 0.010535140822118034 0.0011106150889243877 0 0.010979702980933894 0.00088715486026765195 0 0.010979702980933894 0.00088715486026765195 0 0.011022904159466031 0.00044834770735820053 0 0.011330902317183001 0.00078250910613752674 0 0.010535140822118034 0.0011106150889243877 0 0.010979702980933894 0.00088715486026765195 0 0.011022904159466031 0.00044834770735820053 0 0.011505496741463631 0.00069413530579777861 0 0.010938472318989687 0.0001376130044577544 0 0.011022904159466031 0.00044834770735820053 0 0.011330902317183001 0.00078250910613752674 0 0.010949301379878998 0.00018343950081079258 0 0.011164795191702563 0.00027082729231312982 0 0.011421888464677175 0.00035391320982770168 0 0.011505397487856003 0.0003622869953887614 0 0.011164795191702563 0.00027082729231312982 0 0.011239883872369074 1.5049188956339642e-05 0 0.011421888464677175 0.00035391320982770168 0 0.010976968030341797 0.0011793916237540073 0 0.010979702980933894 0.00088715486026765195 0 0.011330902317183001 0.00078250910613752674 0 0.011421888464677175 0.00035391320982770168 0 0.011267012898848532 0.00014221911996484458 0 0.010949301379878998 0.00018343950081079258 0 0.011421888464677175 0.00035391320982770168 0 0.011505397487856003 0.0003622869953887614 0 0.011267012898848532 0.00014221911996484458 0 0.011525195322369289 -0.00034382618080071249 0 0.011505397487856003 0.0003622869953887614 0 0.011267012898848532 0.00014221911996484458 0 0.011140234880887714 -0.00025050751983607563 0 0.011525195322369289 -0.00034382618080071249 0 0.011267012898848532 0.00014221911996484458 0 0.011022904159466031 0.00044834770735820053 0 0.010705786376408941 0.0003307287425370611 0 0.010949301379878998 0.00018343950081079258 0 0.010705786376408941 0.0003307287425370611 0 0.010949301379878998 0.00018343950081079258 0 0.010644945964010864 8.1822474063176969e-05 0 0.011267012898848532 0.00014221911996484458 0 0.010949301379878998 0.00018343950081079258 0 0.010926601262099793 -3.636929823876767e-05 0 0.011140234880887714 -0.00025050751983607563 0 0.011267012898848532 0.00014221911996484458 0 0.010926601262099793 -3.636929823876767e-05 0 0.010949301379878998 0.00018343950081079258 0 0.010926601262099793 -3.636929823876767e-05 0 0.010644945964010864 8.1822474063176969e-05 0 0.010246093845557393 -0.00028857423651473666 0 0.010644945964010864 8.1822474063176969e-05 0 0.010420644959040621 0.00023896098920137695 0 0.010246093845557393 -0.00028857423651473666 0 0.010926601262099793 -3.636929823876767e-05 0 0.010644945964010864 8.1822474063176969e-05 0 0.010705786376408941 0.0003307287425370611 0 0.010644945964010864 8.1822474063176969e-05 0 0.010420644959040621 0.00023896098920137695 0 0.012882724834800239 -0.00011955408156316758 0 0.012852858000395847 -0.00023314697587732206 0 0.012941266308662576 -0.00014167349868936396 0 0.010246093845557393 -0.00028857423651473666 0 0.010420644959040621 0.00023896098920137695 0 0.010049501169934145 0.00032362729247620948 0 0.013578340400140547 -0.00069565278941114436 0 0.011572170707731718 8.9578851606220941e-05 0 0.012882724834800239 -0.00011955408156316758 0 0.012852954965839365 -0.00011301677060303355 0 0.012852858000395847 -0.00023314697587732206 0 0.010049501169934145 0.00032362729247620948 0 0.010445655747001461 0.00066208114114270952 0 0.0098488815864903045 0.00093351966778357904 0 0.011572170707731718 8.9578851606220941e-05 0 0.0077849521745906531 0.00027901695758568185 0 0.010705786376408941 0.0003307287425370611 0 0.010420644959040621 0.00023896098920137695 0 0.010445655747001461 0.00066208114114270952 0 0.010420644959040621 0.00023896098920137695 0 0.010049501169934145 0.00032362729247620948 0 0.010445655747001461 0.00066208114114270952 0 0.013186152383155595 -0.00013842541545338899 0 0.013047657458624733 -0.00020411095953233488 0 0.013083288156729125 -0.00028929444061627486 0 0.01304139520074196 -0.00012036205143663853 0 0.013186152383155595 -0.00013842541545338899 0 0.013047657458624733 -0.00020411095953233488 0 0.012852858000395847 -0.00023314697587732206 0 0.012970459715059659 -0.00019124874142726592 0 0.012941266308662576 -0.00014167349868936396 0 0.013047657458624733 -0.00020411095953233488 0 0.012970459715059659 -0.00019124874142726592 0 0.012957188756132687 -0.00028289454888187512 0 0.01304139520074196 -0.00012036205143663853 0 0.012970459715059659 -0.00019124874142726592 0 0.012941266308662576 -0.00014167349868936396 0 0.01304139520074196 -0.00012036205143663853 0 0.013047657458624733 -0.00020411095953233488 0 0.012970459715059659 -0.00019124874142726592 0 0.012852858000395847 -0.00023314697587732206 0 0.012970459715059659 -0.00019124874142726592 0 0.012957188756132687 -0.00028289454888187512 0 0.012852858000395847 -0.00023314697587732206 0 0.012957188756132687 -0.00028289454888187512 0 0.012839811170144775 -0.00036062970416419175 0 0.013047657458624733 -0.00020411095953233488 0 0.012957188756132687 -0.00028289454888187512 0 0.013083288156729125 -0.00028929444061627486 0 0.012957188756132687 -0.00028289454888187512 0 0.013083288156729125 -0.00028929444061627486 0 0.012962846190989806 -0.00044439534329548475 0 0.00074744053604354163 0.00075201942196890766 0 0.00071641148202494006 0.00074621930573516711 0 0.00088922373139877235 0.00064902909206309713 0 0.0068314586795916767 8.8344945817818007e-05 0 0.0077849521745906531 0.00027901695758568185 0 0.012957188756132687 -0.00028289454888187512 0 0.012962846190989806 -0.00044439534329548475 0 0.012839811170144775 -0.00036062970416419175 0 0.00074320482155793845 0.00077607274962909463 0 0.00074744053604354163 0.00075201942196890766 0 0.00088922373139877235 0.00064902909206309713 0 0.0033893497635088064 0.0020986886388702202 0 0.0077849521745906531 0.00027901695758568185 0 0.00074320482155793845 0.00077607274962909463 0 0.00073112139550214237 0.00076558614227662837 0 0.00074744053604354163 0.00075201942196890766 0 0.00074320482155793845 0.00077607274962909463 0 0.00073112139550214237 0.00076558614227662837 0 0.00070262294417524512 0.00074673088411676355 0 0.00073112139550214237 0.00076558614227662837 0 0.00071090370733110648 0.00078075868884142801 0 0.00070262294417524512 0.00074673088411676355 0 0.00073112139550214237 0.00076558614227662837 0 0.00074744053604354163 0.00075201942196890766 0 0.00071090370733110648 0.00078075868884142801 0 0.00068734705503257772 0.00087165623729351508 0 0.00071641148202494006 0.00074621930573516711 0 0.00068490521806788512 0.00082716232099525142 0 0.00071641148202494006 0.00074621930573516711 0 0.00071090370733110648 0.00078075868884142801 0 0.00068490521806788512 0.00082716232099525142 0 0.00074744053604354163 0.00075201942196890766 0 0.00071641148202494006 0.00074621930573516711 0 0.00071090370733110648 0.00078075868884142801 0 0.0098429106247624621 0.0017741565368657366 0 0.0079226183313427633 0.0015161969568021441 0 0.0091414957565932268 0.0025787076879588656 0 0.0094662938582469221 0.00085818268258589642 0 0.0098429106247624621 0.0017741565368657366 0 0.0079226183313427633 0.0015161969568021441 0 0.010535140822118034 0.0011106150889243877 0 0.0094662938582469221 0.00085818268258589642 0 0.0098429106247624621 0.0017741565368657366 0 0.010132516051265517 0.00082107598875625818 0 0.0077849521745906531 0.00027901695758568185 0 0.0074279193252400344 0.0030339896300584698 0 0.0079226183313427633 0.0015161969568021441 0 0.0091414957565932268 0.0025787076879588656 0 0.00060558180563027441 0.00026127468831192431 0 0.0011438075330342334 -0.00024544465434190606 0 0.00079157873989489495 0.00037201188048509878 0 0.0033893497635088064 0.0020986886388702202 0 0.0053116467632698342 0.0011031603472788575 0 0.001611993060530613 -0.00027068825394363391 0 0.0019637406923042693 -0.00080293317529381487 0 0.0011438075330342334 -0.00024544465434190606 0 0.010735947055722261 0.0020772287546167579 0 0.0098429106247624621 0.0017741565368657366 0 0.0091414957565932268 0.0025787076879588656 0 0.0062853378605036659 0.00053793842026843861 0 0.0053116467632698342 0.0011031603472788575 0 0.001611993060530613 -0.00027068825394363391 0 0.0011438075330342334 -0.00024544465434190606 0 0.0014080561997505921 0.00026426600769402769 0 0.0014080561997505921 0.00026426600769402769 0 0.00095961530929486775 0.00038760588808838426 0 0.00090784243695515095 0.00073007459907346243 0 0.0011438075330342334 -0.00024544465434190606 0 0.0014080561997505921 0.00026426600769402769 0 0.00095961530929486775 0.00038760588808838426 0 0.0011438075330342334 -0.00024544465434190606 0 0.00095961530929486775 0.00038760588808838426 0 0.00079157873989489495 0.00037201188048509878 0 0.00095961530929486775 0.00038760588808838426 0 0.00079157873989489495 0.00037201188048509878 0 0.00072149073534330955 0.00066917783964060636 0 0.00095961530929486775 0.00038760588808838426 0 0.00072149073534330955 0.00066917783964060636 0 0.00090784243695515095 0.00073007459907346243 0 0.00090784243695515095 0.00073007459907346243 0 0.00062015776027443128 0.00097365697190528796 0 0.00076103334725571262 0.0010864623202715693 0 0.00072149073534330955 0.00066917783964060636 0 0.00090784243695515095 0.00073007459907346243 0 0.00062015776027443128 0.00097365697190528796 0 0.0014080561997505921 0.00026426600769402769 0 0.00090784243695515095 0.00073007459907346243 0 0.0012314413851989394 0.0008314318263311155 0 0.00090784243695515095 0.00073007459907346243 0 0.0012314413851989394 0.0008314318263311155 0 0.00076103334725571262 0.0010864623202715693 0 0.00065501611342184106 0.00093160797481031839 0 0.00068490521806788512 0.00082716232099525142 0 0.00064577930392672707 0.0008638850914691852 0 0.00065501611342184106 0.00093160797481031839 0 0.00068734705503257772 0.00087165623729351508 0 0.00068490521806788512 0.00082716232099525142 0 0.00071090370733110648 0.00078075868884142801 0 0.00068490521806788512 0.00082716232099525142 0 0.00067271172249329673 0.00076897731119380879 0 0.00068490521806788512 0.00082716232099525142 0 0.00064577930392672707 0.0008638850914691852 0 0.00067271172249329673 0.00076897731119380879 0 0.00064577930392672707 0.0008638850914691852 0 0.00062566793590817572 0.00080669495876364036 0 0.00067271172249329673 0.00076897731119380879 0 0.00062566793590817572 0.00080669495876364036 0 0.00067271172249329673 0.00076897731119380879 0 0.00063097013847083832 0.00064013655529456556 0 0.00067271172249329673 0.00076897731119380879 0 0.00070262294417524512 0.00074673088411676355 0 0.00063097013847083832 0.00064013655529456556 0 0.00071090370733110648 0.00078075868884142801 0 0.00067271172249329673 0.00076897731119380879 0 0.00070262294417524512 0.00074673088411676355 0 0.00079157873989489495 0.00037201188048509878 0 0.00072149073534330955 0.00066917783964060636 0 0.00063097013847083832 0.00064013655529456556 0 0.00074320482155793845 0.00077607274962909463 0 0.00070262294417524512 0.00074673088411676355 0 0.00063097013847083832 0.00064013655529456556 0 0.00060558180563027441 0.00026127468831192431 0 0.00079157873989489495 0.00037201188048509878 0 0.00063097013847083832 0.00064013655529456556 0 0.0033893497635088064 0.0020986886388702202 0 0.0019442654383036581 0.00089757857562080743 0 0.00072149073534330955 0.00066917783964060636 0 0.00062566793590817572 0.00080669495876364036 0 0.00063097013847083832 0.00064013655529456556 0 0.00062566793590817572 0.00080669495876364036 0 0.00062015776027443128 0.00097365697190528796 0 0.00060305868567771064 0.00096993485760018302 0 0.00062015776027443128 0.00097365697190528796 0 0.00060305868567771064 0.00096993485760018302 0 0.0005652624709293582 0.0011292698275029258 0 0.00072149073534330955 0.00066917783964060636 0 0.00062566793590817572 0.00080669495876364036 0 0.00062015776027443128 0.00097365697190528796 0 0.00064577930392672707 0.0008638850914691852 0 0.00062566793590817572 0.00080669495876364036 0 0.00060305868567771064 0.00096993485760018302 0 0.00065501611342184106 0.00093160797481031839 0 0.00064577930392672707 0.0008638850914691852 0 0.00060305868567771064 0.00096993485760018302 0 0.00064106395842466145 0.0010166260737462609 0 0.00065501611342184106 0.00093160797481031839 0 0.00060305868567771064 0.00096993485760018302 0 0.00062395289593231498 0.0011048777570730635 0 0.00060305868567771064 0.00096993485760018302 0 0.0005652624709293582 0.0011292698275029258 0 0.00062395289593231498 0.0011048777570730635 0 0.0005652624709293582 0.0011292698275029258 0 0.00057431872888014926 0.0012131749491467217 0 0.0005652624709293582 0.0011292698275029258 0 0.00051531267618727108 0.0013018621435965181 0 0.00057431872888014926 0.0012131749491467217 0 0.00062015776027443128 0.00097365697190528796 0 0.0005652624709293582 0.0011292698275029258 0 0.00051531267618727108 0.0013018621435965181 0 0.00041102316410675748 0.0013865491609408118 0 0.00051531267618727108 0.0013018621435965181 0 0.00053216892871898189 0.0014979456692166082 0 0.00041102316410675748 0.0013865491609408118 0 0.00051531267618727108 0.0013018621435965181 0 0.00057431872888014926 0.0012131749491467217 0 0.00076103334725571262 0.0010864623202715693 0 0.00053216892871898189 0.0014979456692166082 0 0.0012949841188697813 0.0014075705902148884 0 0.0012314413851989394 0.0008314318263311155 0 0.00076103334725571262 0.0010864623202715693 0 0.0012949841188697813 0.0014075705902148884 0 0.00051531267618727108 0.0013018621435965181 0 0.00076103334725571262 0.0010864623202715693 0 0.00053216892871898189 0.0014979456692166082 0 0.00062015776027443128 0.00097365697190528796 0 0.00051531267618727108 0.0013018621435965181 0 0.00076103334725571262 0.0010864623202715693 0 0.00032793864385096322 0.0018858179998305687 0 0.00053216892871898189 0.0014979456692166082 0 0.0012949841188697813 0.0014075705902148884 0 0.0016375977619473253 0.0023125491348363341 0 0.0012949841188697813 0.0014075705902148884 0 0.0021633664182098109 0.0021028053378932795 0 0.00032793864385096322 0.0018858179998305687 0 0.0016375977619473253 0.0023125491348363341 0 0.0012949841188697813 0.0014075705902148884 0 0.0012949841188697813 0.0014075705902148884 0 0.0023220811706698105 0.0012183160287106132 0 0.0018469169328273326 0.0006677058264086403 0 0.0023220811706698105 0.0012183160287106132 0 0.0021633664182098109 0.0021028053378932795 0 0.0030325364420638171 0.0015124108753225844 0 0.0012949841188697813 0.0014075705902148884 0 0.0023220811706698105 0.0012183160287106132 0 0.0021633664182098109 0.0021028053378932795 0 0.0021633664182098109 0.0021028053378932795 0 0.0033446943474792941 0.0027911598881332858 0 0.0030444319754901169 0.0021260972134053914 0 0.0033446943474792941 0.0027911598881332858 0 0.0030444319754901169 0.0021260972134053914 0 0.0041640409805408923 0.0027024484245495471 0 0.0030444319754901169 0.0021260972134053914 0 0.0041640409805408923 0.0027024484245495471 0 0.0037671590234665555 0.0017370428665079685 0 0.0021633664182098109 0.0021028053378932795 0 0.0030444319754901169 0.0021260972134053914 0 0.0030325364420638171 0.0015124108753225844 0 0.0052673700974436872 0.0029492445202594637 0 0.0041640409805408923 0.0027024484245495471 0 0.0048385024213964938 0.0022615078742644584 0 0.0041640409805408923 0.0027024484245495471 0 0.0048385024213964938 0.0022615078742644584 0 0.0037671590234665555 0.0017370428665079685 0 0.0048385024213964938 0.0022615078742644584 0 0.0037671590234665555 0.0017370428665079685 0 0.0044155921393934598 0.0011406528803856286 0 0.0037671590234665555 0.0017370428665079685 0 0.0044155921393934598 0.0011406528803856286 0 0.0032965248473399659 0.00098476127340310117 0 0.0051478910574223663 0.0014717488256203006 0 0.0048385024213964938 0.0022615078742644584 0 0.0044155921393934598 0.0011406528803856286 0 0.0023220811706698105 0.0012183160287106132 0 0.0030325364420638171 0.0015124108753225844 0 0.0032965248473399659 0.00098476127340310117 0 0.0030444319754901169 0.0021260972134053914 0 0.0037671590234665555 0.0017370428665079685 0 0.0030325364420638171 0.0015124108753225844 0 0.0037671590234665555 0.0017370428665079685 0 0.0030325364420638171 0.0015124108753225844 0 0.0032965248473399659 0.00098476127340310117 0 0.0032965248473399659 0.00098476127340310117 0 0.0031908751036419454 0.00050358606242400128 0 0.0026309455840473552 0.00063624633018515139 0 0.0032965248473399659 0.00098476127340310117 0 0.0031908751036419454 0.00050358606242400128 0 0.003794735878457297 0.00032414831011466449 0 0.0031908751036419454 0.00050358606242400128 0 0.003794735878457297 0.00032414831011466449 0 0.0030611278957777548 8.6048492266305505e-05 0 0.0031908751036419454 0.00050358606242400128 0 0.0030611278957777548 8.6048492266305505e-05 0 0.0026309455840473552 0.00063624633018515139 0 0.0044155921393934598 0.0011406528803856286 0 0.0032965248473399659 0.00098476127340310117 0 0.003794735878457297 0.00032414831011466449 0 0.0044155921393934598 0.0011406528803856286 0 0.003794735878457297 0.00032414831011466449 0 0.0045318082279320188 0.0004100012595264329 0 0.0054073339257144255 0.00035680475648723799 0 0.0044155921393934598 0.0011406528803856286 0 0.0045318082279320188 0.0004100012595264329 0 0.003794735878457297 0.00032414831011466449 0 0.0045318082279320188 0.0004100012595264329 0 0.0044981853963456751 -0.00018218597163218724 0 0.0053356624101653363 -0.0010997917822280141 0 0.0038082581077547076 -0.0016886886579530838 0 0.0045922637847089255 -0.00076523539870301165 0 0.0080739257415722611 -0.00040833443167808905 0 0.0064238325844970445 -0.00045465648716493421 0 0.003794735878457297 0.00032414831011466449 0 0.0044981853963456751 -0.00018218597163218724 0 0.0036820120762550883 -0.00016202804758551028 0 0.0038056803039493705 -0.00063641951471113325 0 0.0044981853963456751 -0.00018218597163218724 0 0.0036820120762550883 -0.00016202804758551028 0 0.0064238325844970445 -0.00045465648716493421 0 0.0043568991245751566 -0.00072648260157296882 0 0.003794735878457297 0.00032414831011466449 0 0.0030611278957777548 8.6048492266305505e-05 0 0.0036820120762550883 -0.00016202804758551028 0 0.0030611278957777548 8.6048492266305505e-05 0 0.0036820120762550883 -0.00016202804758551028 0 0.0032450785619318368 -0.00035989173749768568 0 0.0038056803039493705 -0.00063641951471113325 0 0.0036820120762550883 -0.00016202804758551028 0 0.0032450785619318368 -0.00035989173749768568 0 0.0030611278957777548 8.6048492266305505e-05 0 0.0032450785619318368 -0.00035989173749768568 0 0.0027467795260639441 -0.00028931309647695238 0 0.0030611278957777548 8.6048492266305505e-05 0 0.0023821731966529374 0.00017793003268603351 0 0.0026309455840473552 0.00063624633018515139 0 0.0030611278957777548 8.6048492266305505e-05 0 0.0027467795260639441 -0.00028931309647695238 0 0.0023821731966529374 0.00017793003268603351 0 0.0027467795260639441 -0.00028931309647695238 0 0.0023821731966529374 0.00017793003268603351 0 0.0022725575303537381 -0.00020363961479582786 0 0.0023821731966529374 0.00017793003268603351 0 0.0022725575303537381 -0.00020363961479582786 0 0.0018889823133096857 0.00016799982929069707 0 0.0018606862009957399 -0.00015292049878743368 0 0.0022725575303537381 -0.00020363961479582786 0 0.0018889823133096857 0.00016799982929069707 0 0.001611993060530613 -0.00027068825394363391 0 0.0018606862009957399 -0.00015292049878743368 0 0.0014080561997505921 0.00026426600769402769 0 0.0018606862009957399 -0.00015292049878743368 0 0.0014080561997505921 0.00026426600769402769 0 0.0018889823133096857 0.00016799982929069707 0 0.0014080561997505921 0.00026426600769402769 0 0.0018889823133096857 0.00016799982929069707 0 0.0018469169328273326 0.0006677058264086403 0 0.0023821731966529374 0.00017793003268603351 0 0.0018889823133096857 0.00016799982929069707 0 0.0018469169328273326 0.0006677058264086403 0 0.0012314413851989394 0.0008314318263311155 0 0.0012949841188697813 0.0014075705902148884 0 0.0018469169328273326 0.0006677058264086403 0 0.0014080561997505921 0.00026426600769402769 0 0.0012314413851989394 0.0008314318263311155 0 0.0018469169328273326 0.0006677058264086403 0 0.0023220811706698105 0.0012183160287106132 0 0.0018469169328273326 0.0006677058264086403 0 0.0026309455840473552 0.00063624633018515139 0 0.0023220811706698105 0.0012183160287106132 0 0.0032965248473399659 0.00098476127340310117 0 0.0026309455840473552 0.00063624633018515139 0 0.0023821731966529374 0.00017793003268603351 0 0.0018469169328273326 0.0006677058264086403 0 0.0026309455840473552 0.00063624633018515139 0 
</DataArray>
</PointData>
<CellData Scalars="region_id,cross_section_updated," Vectors="" Tensors="stress,">
<DataArray type="Float64" Name="region_id" format="ascii">
5 5 5 5 5 6 5 5 5 5 5 5 5 5 5 5 6 5 5 5 5 6 5 6 5 5 6 5 5 5 5 6 5 5 6 6 5 5 5 5 5 5 6 5 5 5 6 5 6 5 6 5 5 5 5 5 6 5 5 5 5 5 5 5 5 5 5 5 5 6 5 5 5 5 5 5 5 5 6 5 5 5 5 5 5 5 5 5 5 5 5 5 5 5 5 5 5 5 5 6 5 5 5 5 5 5 5 5 5 6 6 5 5 5 5 5 5 5 5 5 6 5 5 5 5 6 5 6 5 5 5 6 5 5 6 6 5 5 5 5 6 6 6 5 5 5 5 5 6 5 5 5 5 5 6 5 5 5 6 5 5 5 5 5 5 5 5 5 5 5 5 5 5 5 5 5 5 5 5 5 6 5 5 5 5 5 5 5 5 6 5 5 6 5 6 6 5 5 5 5 5 6 6 5 6 5 5 5 6 5 5 6 5 5 5 5 6 5 6 5 5 6 6 5 5 5 5 5 5 5 5 6 5 5 6 5 5 5 5 5 5 5 6 5 5 5 5 5 6 5 5 6 5 6 5 5 5 5 6 5 5 5 5 5 6 5 5 5 5 5 5 5 5 6 5 5 6 5 5 6 5 5 6 5 5 6 5 5 5 5 5 5 6 5 6 5 5 5 6 5 5 5 5 5 5 5 5 5 5 5 6 5 5 5 5 5 5 5 5 5 5 6 5 6 5 5 5 6 5 5 5 6 5 5 5 5 5 5 6 6 5 5 5 6 5 5 6 6 5 5 6 5 5 5 5 5 6 5 5 5 5 6 5 5 6 5 5 5 6 6 5 5 5 6 5 5 5 5 5 6 5 6 5 5 5 5 5 5 5 5 5 5 5 6 6 5 5 5 5 5 5 5 5 5 5 5 5 5 6 5 5 5 5 5 5 5 5 6 5 5 6 5 5 5 5 5 6 5 5 6 5 5 5 5 5 6 5 6 5 5 5 5 5 5 5 5 5 5 5 5 5 5 5 6 5 5 5 5 6 5 5 5 5 6 5 5 6 6 5 5 5 5 5 6 5 6 5 5 5 6 6 5 5 5 5 6 5 5 5 5 5 5 5 5 5 5 6 5 5 5 5 5 5 5 6 6 5 5 5 5 5 5 5 5 5 5 5 6 5 5 5 5 5 5 5 5 5 5 5 5 5 5 5 5 5 5 5 5 5 5 5 6 5 5 5 6 5 5 6 5 5 5 5 5 5 5 5 5 6 5 5 5 5 5 6 5 5 6 5 5 6 5 5 6 5 5 5 5 5 5 5 5 5 5 5 5 5 5 5 5 5 5 5 5 5 5 5 5 5 6 5 5 5 5 5 6 5 5 5 5 5 6 5 6 5 5 5 5 5 5 5 5 5 5 5 5 5 5 5 5 5 5 5 5 5 5 5 5 5 5 5 5 5 5 5 5 5 5 5 5 5 5 5 5 5 5 5 5 5 5 5 5 5 5 5 5 5 5 5 5 5 5 5 5 5 5 5 5 5 5 5 5 5 5 5 5 5 5 5 5 5 5 5 5 5 5 6 5 5 5 5 5 5 5 5 5 5 5 5 5 5 5 6 5 5 6 5 5 5 5 5 5 6 5 5 6 5 5 5 5 5 5 5 5 5 5 6 5 5 6 5 5 6 5 6 5 5 5 5 5 5 5 5 5 5 5 6 5 5 5 5 5 5 5 5 6 5 6 5 5 5 5 5 5 5 5 5 5 5 5 5 5 5 5 5 5 5 5 5 5 5 5 5 6 5 5 5 5 6 5 5 5 5 6 6 5 5 5 5 6 5 5 6 5 6 5 5 5 5 6 6 5 6 6 5 5 6 5 5 6 5 5 5 5 5 5 5 5 5 6 5 6 5 5 5 5 6 6 5 5 5 5 6 5 5 6 6 5 5 6 5 5 5 5 5 5 5 5 5 5 5 5 5 5 5 5 5 5 5 5 6 5 5 5 5 5 5 5 5 5 5 5 5 5 5 6 5 5 5 5 5 5 5 6 5 5 5 6 5 5 5 5 6 5 5 5 5 5 5 6 5 5 6 6 5 6 5 5 5 6 5 5 5 6 6 5 5 5 5 5 5 5 5 6 5 5 5 5 5 5 5 5 5 5 5 5 5 5 5 5 5 6 5 5 5 6 5 5 5 5 5 5 5 5 6 5 5 5 5 5 5 5 5 5 5 5 5 5 5 5 5 5 5 6 5 5 5 5 5 5 5 5 5 5 5 5 5 5 5 5 5 5 5 5 5 5 5 6 5 6 5 5 5 5 6 6 5 5 5 5 5 5 5 5 5 5 5 5 5 5 5 5 5 6 5 5 6 5 5 5 5 5 5 5 5 5 5 5 5 5 6 6 5 6 5 5 5 5 5 5 5 5 6 5 5 5 6 5 5 5 6 5 5 5 5 5 5 5 5 5 6 5 5 5 5 5 5 5 5 5 5 6 5 5 5 5 5 5 5 5 5 5 5 6 5 6 5 6 5 5 5 6 5 6 5 5 5 6 5 5 5 5 5 5 5 5 5 5 5 5 5 5 5 6 5 5 5 5 5 5 5 5 6 5 6 5 6 5 6 6 6 5 5 5 5 5 5 5 5 5 5 5 6 5 5 5 5 5 5 5 5 5 5 5 5 5 5 5 5 5 5 5 5 5 5 5 5 5 6 5 5 5 5 5 6 5 5 5 5 5 5 5 5 5 5 5 5 5 5 6 5 5 5 5 6 5 5 5 5 5 5 5 5 5 5 5 5 6 5 5 5 5 5 5 6 5 5 5 5 5 5 5 5 5 5 5 6 6 5 5 5 6 6 5 5 5 5 5 5 5 5 5 5 5 5 5 5 5 5 5 5 5 5 5 5 5 5 5 5 5 5 5 5 5 5 5 5 5 5 5 5 5 5 5 5 5 5 5 5 5 5 5 5 6 5 5 6 5 5 6 6 5 6 5 5 5 5 5 5 6 5 5 5 5 5 5 5 5 5 5 6 5 5 5 5 5 5 5 5 5 5 5 5 6 5 5 5 5 5 5 5 5 5 6 5 5 5 5 5 5 5 5 5 5 5 5 6 5 5 6 5 6 5 5 5 5 5 6 6 5 6 5 5 5 5 5 5 5 5 5 5 5 5 6 5 5 5 5 5 5 6 5 5 5 5 5 5 5 5 5 5 5 5 6 5 5 6 5 6 6 5 5 5 5 5 5 5 6 5 6 5 5 5 5 5 5 5 5 5 5 5 5 5 5 5 5 5 5 5 5 5 5 5 5 5 5 5 5 5 5 5 5 5 5 5 5 5 5 5 5 5 5 5 5 5 5 5 6 5 5 5 5 5 5 5 5 5 6 5 5 6 5 6 5 6 5 5 5 5 5 5 6 5 5 5 5 5 5 5 5 5 5 5 5 5 5 5 5 5 6 5 5 5 5 5 5 6 5 5 5 5 5 5 5 5 5 5 5 5 6 5 5 5 5 5 5 5 5 5 5 5 5 5 5 5 5 5 5 5 5 5 5 5 5 5 5 5 5 5 5 5 5 5 5 5 6 5 5 5 5 6 5 5 5 5 5 6 5 5 5 6 5 5 5 5 6 5 5 5 5 5 5 5 5 5 5 5 6 5 5 6 5 5 6 6 5 5 6 5 5 5 5 5 5 5 5 6 5 6 5 5 5 5 5 5 6 5 5 5 5 6 5 5 5 5 5 5 5 5 5 5 5 5 5 5 5 5 6 5 5 5 6 5 5 5 5 5 5 5 5 5 5 6 5 5 5 6 5 5 5 6 5 6 5 5 5 5 5 5 5 5 5 5 5 5 5 5 5 5 5 5 5 5 5 5 5 5 5 5 5 5 6 5 5 5 5 5 5 5 5 5 5 5 6 5 5 5 6 5 5 5 5 5 5 5 5 5 6 6 5 6 5 6 5 6 5 5 5 5 6 5 5 6 5 5 5 5 5 5 6 5 5 5 5 6 5 5 5 5 5 5 5 5 5 5 5 5 5 5 5 6 5 5 5 5 5 5 5 5 5 5 5 5 6 5 5 5 5 5 5 6 5 5 5 5 5 6 5 6 5 5 5 5 5 5 5 5 6 5 6 6 5 5 5 6 5 5 6 5 5 6 5 5 6 5 6 6 5 5 5 5 5 5 5 5 5 5 5 5 5 5 5 5 5 5 5 5 5 5 5 5 5 5 5 5 6 5 5 5 5 5 5 5 5 6 5 5 5 5 5 5 5 6 5 5 5 6 5 5 6 5 5 5 5 5 5 5 5 5 5 5 5 6 5 5 5 5 6 5 5 5 5 5 5 5 5 6 5 5 5 6 5 5 5 5 5 5 5 5 5 5 5 6 5 5 5 5 6 5 5 5 6 6 5 5 5 5 5 6 5 6 5 5 6 5 6 5 5 5 5 5 5 5 5 5 5 5 5 5 5 5 5 6 5 5 6 5 5 5 6 5 6 6 5 5 5 6 5 5 6 5 6 5 5 5 5 5 5 5 5 5 5 5 6 5 6 5 5 5 5 5 5 5 5 5 6 5 5 5 5 5 5 5 5 5 6 5 5 5 5 5 5 5 5 6 5 5 6 5 5 5 5 6 5 5 5 5 6 5 5 5 5 5 5 5 5 5 5 5 5 5 5 5 6 5 5 5 5 6 5 5 6 5 5 5 5 5 5 5 5 5 5 5 5 5 5 5 5 5 6 5 5 5 5 5 5 5 6 5 5 5 6 5 5 6 5 5 5 5 5 5 5 5 5 6 5 5 6 5 5 5 5 5 5 5 6 5 5 5 6 5 6 5 5 5 5 5 5 5 5 5 5 6 5 5 5 5 6 6 5 5 5 5 5 5 5 5 5 5 5 5 6 5 5 6 5 5 5 6 5 5 6 5 5 5 6 5 5 5 5 6 5 5 5 5 5 5 5 5 5 5 5 5 5 5 5 6 5 5 5 5 6 5 5 5 5 5 5 5 5 5 5 5 5 6 5 5 5 5 5 5 6 5 5 5 5 5 5 6 5 5 5 5 5 5 5 5 5 5 5 5 5 6 5 6 5 5 5 5 6 5 5 5 6 6 5 5 6 5 5 5 5 5 5 5 5 5 5 5 5 5 5 5 5 6 6 5 5 6 5 5 5 5 5 5 5 5 5 5 5 5 5 5 5 6 5 5 5 5 5 5 5 6 5 5 5 5 5 5 5 5 5 6 5 5 6 5 5 5 5 5 5 5 6 5 5 5 5 5 5 6 5 6 5 5 5 5 5 6 5 5 6 5 6 5 6 6 5 5 5 5 5 5 5 5 5 5 5 5 6 5 5 5 5 5 5 6 5 5 5 5 5 5 5 6 5 5 5 5 5 6 6 5 5 6 5 5 5 5 6 6 5 5 5 5 6 6 5 5 5 6 5 5 5 5 5 5 5 5 6 6 5 5 6 5 5 6 6 5 6 6 5 5 5 5 5 5 5 5 5 5 5 5 5 5 5 5 5 5 6 5 5 5 6 5 6 5 5 5 6 6 5 5 5 6 5 5 6 6 5 6 5 5 6 5 6 5 5 5 5 5 5 5 5 5 6 5 6 5 5 5 5 5 5 5 5 5 6 5 5 5 5 5 6 5 5 5 6 5 5 5 5 6 5 6 6 5 6 5 5 6 6 6 5 5 5 6 5 6 6 5 5 5 5 6 5 5 5 6 6 5 5 5 5 5 5 5 6 5 5 5 5 5 5 5 5 5 5 5 6 5 5 5 5 5 5 5 5 5 5 5 5 5 5 5 5 6 6 5 5 6 5 5 5 5 5 5 5 5 5 6 5 5 5 6 5 5 5 5 5 5 5 5 6 6 5 5 5 5 5 5 5 6 5 5 5 5 5 5 5 5 6 5 5 5 5 5 5 5 5 5 5 5 5 5 5 5 5 5 5 5 5 5 5 5 5 5 5 5 5 5 5 6 6 5 5 5 5 5 5 6 6 5 5 5 5 5 5 5 5 6 5 5 5 5 5 6 5 5 5 5 5 5 6 5 5 5 6 5 5 6 5 5 5 5 5 5 5 5 5 5 6 6 5 5 5 5 5 5 6 5 5 5 5 6 5 5 5 5 5 5 5 5 5 5 5 6 5 5 6 6 5 5 6 5 6 6 5 5 5 5 5 5 5 5 6 5 5 5 6 5 5 5 5 5 6 5 5 5 5 6 5 6 6 5 6 5 6 6 5 6 5 6 5 5 5 5 5 6 5 5 5 5 6 5 5 5 5 5 5 5 6 5 5 5 5 5 6 5 5 5 5 5 6 5 6 5 6 5 5 6 5 6 6 5 5 5 5 5 5 5 5 5 5 5 5 5 5 5 5 5 5 5 5 5 5 5 5 5 6 5 5 5 5 5 5 6 5 5 5 5 5 6 5 6 5 5 6 5 5 5 6 5 6 5 5 5 5 6 5 5 5 5 5 5 5 5 5 5 5 5 6 5 5 5 6 5 5 5 5 5 5 5 5 5 5 6 5 5 6 5 5 5 5 5 5 5 5 5 5 5 5 6 5 5 5 5 6 5 5 6 5 5 5 5 5 5 5 6 5 5 6 5 5 5 5 5 5 5 5 5 5 5 5 5 5 5 5 5 5 5 5 5 6 6 5 5 5 5 5 5 6 5 5 5 5 5 5 5 5 5 5 5 5 5 6 6 5 5 5 5 5 5 5 5 6 5 5 5 5 6 5 5 5 5 5 5 5 5 5 5 5 5 5 5 5 5 5 5 5 5 5 5 5 5 5 5 5 5 5 6 5 5 5 5 5 5 5 6 5 5 6 5 5 5 5 5 5 5 5 5 5 5 5 5 5 5 5 5 5 5 5 5 5 6 5 5 5 5 5 6 5 5 5 5 5 5 5 5 6 5 5 5 5 5 5 5 5 5 5 5 5 5 5 5 5 5 5 6 5 5 5 5 5 5 5 5 5 5 5 5 6 5 6 5 6 5 6 5 5 5 5 6 5 6 5 5 5 6 5 5 5 6 5 5 5 6 5 5 5 5 5 6 5 5 6 5 6 5 6 5 6 6 5 5 5 5 5 5 5 5 5 5 6 5 5 5 5 6 5 5 5 5 5 5 5 5 5 5 5 5 5 6 5 5 5 5 6 5 5 5 5 5 5 5 5 5 5 6 5 5 5 6 5 5 6 5 6 5 5 5 5 6 5 5 5 5 5 5 5 5 5 5 5 5 5 5 5 5 5 6 5 5 5 6 5 6 5 5 6 5 5 5 5 5 6 5 5 5 5 5 5 5 5 5 5 5 5 5 5 5 6 5 5 5 6 5 5 5 5 5 5 6 5 6 5 5 5 5 5 5 5 5 5 5 5 6 5 5 5 6 5 6 5 5 5 5 5 6 5 5 6 5 5 5 6 5 5 5 5 5 5 5 6 5 5 5 5 5 5 5 5 5 5 5 5 6 6 5 5 5 5 6 5 5 6 5 6 5 5 5 5 5 5 5 5 5 6 5 5 5 5 5 6 5 5 5 5 5 5 5 5 5 5 5 5 6 5 5 5 5 5 5 5 5 5 5 5 6 5 6 5 6 5 6 5 5 5 6 5 5 5 5 5 5 6 6 6 5 5 5 5 5 5 5 5 6 5 5 5 5 5 5 5 5 5 5 5 5 5 5 5 6 5 5 5 6 5 5 5 5 5 6 5 5 5 6 5 6 6 6 5 5 6 5 6 5 5 6 5 5 6 5 5 5 5 5 6 5 5 5 5 5 5 5 5 5 5 5 5 5 5 5 6 5 5 5 5 6 5 5 6 5 5 5 5 5 5 5 5 5 5 5 5 5 5 5 5 5 5 5 6 5 5 5 5 5 5 5 5 5 6 5 5 5 5 5 5 5 6 5 6 6 5 5 5 5 5 5 5 5 5 5 5 5 5 5 5 5 6 6 5 6 5 6 5 5 6 5 6 5 5 5 6 5 6 6 5 5 5 5 5 6 5 5 6 5 5 5 5 5 5 5 5 5 5 5 5 5 6 5 5 6 5 5 5 5 5 5 5 5 5 6 5 5 5 5 5 6 5 5 6 5 5 5 5 5 5 6 5 5 6 5 6 5 5 5 5 5 5 5 5 5 6 5 5 5 5 5 5 5 5 5 6 6 5 5 5 5 6 5 5 5 5 6 5 5 6 6 5 6 6 5 6 5 6 5 5 5 5 5 5 6 5 5 5 5 5 6 5 5 5 5 5 5 5 5 5 5 5 5 5 6 6 5 5 6 5 6 6 5 5 5 5 5 5 5 6 5 6 6 5 5 5 5 5 5 5 5 5 5 5 5 5 5 5 5 6 5 5 5 6 5 5 5 5 5 5 5 6 5 5 6 5 5 6 5 5 5 5 5 5 5 5 6 5 5 5 6 5 5 5 6 5 5 6 6 5 6 5 5 5 5 5 5 5 5 5 5 5 5 5 5 5 5 5 5 5 5 5 5 5 6 5 6 6 5 5 5 5 5 5 5 5 5 6 5 5 5 5 5 5 6 5 6 5 6 5 6 6 5 5 5 5 5 6 6 6 5 5 5 6 6 5 5 6 5 5 5 5 5 5 5 5 5 5 5 6 5 5 5 6 5 5 5 6 6 5 5 5 5 6 5 6 5 5 5 5 5 5 5 5 5 5 5 5 5 5 5 5 5 6 5 5 5 5 5 5 5 5 5 6 5 5 5 5 5 6 5 5 5 5 5 5 5 5 5 5 5 5 5 5 5 5 5 5 5 5 5 5 5 5 5 5 5 5 5 5 5 5 5 5 5 5 5 5 5 5 5 5 5 5 5 5 5 5 5 5 5 5 5 5 5 5 5 5 5 5 6 5 5 6 5 5 5 5 5 5 5 5 5 5 5 6 5 5 6 5 6 5 5 5 5 5 5 5 5 6 5 5 6 5 5 5 6 5 5 5 5 6 5 6 5 6 6 6 5 5 6 6 5 5 5 5 6 5 6 5 5 5 5 6 5 5 5 5 5 5 5 5 5 5 5 5 5 5 5 5 5 5 5 5 5 5 5 5 5 5 5 5 5 5 5 5 5 5 5 5 5 6 5 6 5 5 5 5 5 5 5 6 5 6 5 5 6 5 5 5 5 5 6 5 5 5 5 5 5 5 5 5 5 5 5 5 5 6 5 6 5 5 5 5 5 6 5 5 5 5 5 5 5 5 5 5 5 5 5 5 5 5 5 5 5 5 6 6 5 5 5 6 5 5 5 5 5 5 5 5 5 5 6 5 5 5 5 5 5 5 5 5 5 5 5 5 5 6 5 5 6 5 5 5 5 5 5 5 5 5 5 6 5 5 5 5 5 5 5 5 5 5 5 5 5 5 5 6 5 6 5 5 5 5 6 5 5 5 5 5 5 6 5 5 5 5 5 5 5 5 6 5 5 6 5 5 5 5 5 5 5 5 5 5 5 5 5 5 5 5 5 5 5 5 5 5 6 5 5 5 5 5 5 5 5 5 5 5 5 5 5 5 5 5 5 5 5 5 5 5 5 5 5 5 5 5 5 5 5 5 5 5 5 5 5 6 5 5 5 5 5 6 5 5 5 5 5 5 5 5 5 5 5 5 5 5 5 5 5 5 5 5 5 5 5 5 5 5 5 5 5 5 5 5 5 5 5 5 5 5 5 5 6 5 6 5 5 5 5 5 6 5 5 5 6 5 5 5 6 5 5 6 5 6 5 5 5 5 5 5 5 5 5 5 5 5 5 5 5 5 5 5 5 5 6 5 5 5 5 5 5 5 5 5 5 5 5 5 5 5 5 5 5 5 5 5 5 5 5 5 5 5 5 5 5 5 5 5 5 5 5 5 5 5 5 5 5 5 5 5 5 5 5 5 5 5 5 5 5 5 5 5 5 5 5 5 5 5 5 5 5 5 5 5 5 5 5 5 5 5 5 5 5 5 5 5 5 5 5 5 6 6 5 6 6 5 5 5 5 5 5 5 5 5 6 6 6 5 5 5 6 5 5 5 5 5 5 5 5 5 6 5 5 5 5 5 5 5 5 5 5 5 5 5 5 5 5 5 5 5 5 5 5 5 5 5 5 5 5 5 5 5 5 5 5 5 6 5 6 5 5 5 5 5 5 5 5 5 5 5 5 5 5 5 5 5 5 5 5 5 5 5 5 5 5 5 5 5 5 5 5 5 5 5 5 5 5 5 5 5 5 5 5 5 5 5 5 5 5 5 5 5 5 5 5 5 5 5 5 5 5 5 5 5 5 5 5 5 6 5 5 5 5 5 6 5 5 5 5 5 5 5 5 5 6 5 5 6 5 6 5 5 5 6 5 5 5 5 5 6 5 5 5 5 5 5 5 5 5 5 5 5 6 5 5 5 6 5 5 5 5 5 5 5 5 5 5 5 5 5 5 5 5 5 5 5 5 5 5 5 5 5 5 5 5 6 5 5 6 5 5 5 6 5 5 5 5 5 5 5 5 6 5 5 5 5 5 5 5 5 5 5 5 5 5 5 6 5 5 6 5 5 6 5 5 5 5 5 5 5 5 5 5 5 5 5 5 5 5 5 5 6 5 5 5 5 5 6 5 6 5 5 5 5 5 6 5 5 5 5 5 5 5 5 5 5 5 5 5 5 6 5 5 5 5 5 5 6 5 5 6 5 5 5 5 5 5 5 5 5 5 5 5 5 5 5 5 5 5 5 5 6 5 5 5 5 5 6 5 6 5 5 6 5 6 6 5 5 5 5 6 5 5 5 6 5 5 6 5 5 5 5 5 5 6 5 6 5 5 6 5 5 5 5 6 5 5 6 6 5 5 5 5 5 5 5 5 5 6 5 6 5 6 6 5 5 5 5 5 5 5 6 6 5 5 6 5 5 5 6 5 5 5 6 5 5 5 5 5 5 5 5 5 5 5 5 5 5 5 5 5 5 5 5 5 5 5 5 5 5 5 5 6 5 5 5 5 5 5 5 5 5 6 6 5 5 5 6 5 5 5 6 5 5 5 5 5 5 5 6 5 5 6 5 5 6 6 5 5 6 5 5 5 6 6 6 5 5 6 5 5 5 5 5 5 5 5 5 5 5 6 5 5 6 5 5 5 6 5 5 6 5 6 5 5 5 5 6 5 5 5 5 5 5 5 5 5 5 6 5 5 6 6 5 6 5 5 5 5 5 5 5 5 6 6 5 6 5 5 5 5 5 6 6 5 5 5 5 5 5 6 5 5 5 6 5 5 5 5 5 5 6 5 6 6 5 5 5 6 5 5 5 5 5 5 6 5 5 5 5 6 5 6 6 5 5 5 5 5 6 5 6 5 5 6 5 6 5 5 5 5 5 5 5 5 5 6 5 6 5 6 6 6 5 5 5 5 5 6 5 5 6 6 5 5 6 5 5 5 5 5 5 5 5 5 5 5 5 5 5 5 5 5 5 5 5 5 5 5 5 5 5 6 5 5 5 5 6 5 5 5 5 5 5 6 5 5 5 5 5 6 6 5 5 6 5 5 5 6 5 5 6 6 5 6 5 5 5 5 5 5 5 6 6 5 6 5 5 5 5 5 6 5 5 5 5 5 5 5 5 5 5 5 5 5 5 5 5 5 5 5 5 5 6 5 5 5 5 5 5 5 5 5 5 5 6 5 5 5 6 5 5 6 5 6 5 5 5 5 6 6 5 5 5 5 5 6 6 5 5 5 5 6 5 5 5 5 5 5 5 5 5 5 5 5 5 5 5 5 5 5 5 5 5 5 5 5 5 5 5 5 5 5 5 5 6 5 5 5 6 5 5 6 5 5 6 5 5 5 5 6 5 5 5 5 5 5 5 5 6 6 5 5 5 5 5 5 6 5 5 6 5 5 5 5 6 5 5 5 6 5 5 5 5 5 5 5 5 5 5 5 5 5 5 5 5 5 5 6 5 5 6 5 5 5 5 5 5 5 5 5 5 5 5 5 6 6 5 6 5 5 5 5 5 5 6 5 6 5 5 5 5 6 5 5 5 5 5 5 5 5 5 5 5 6 5 5 5 5 5 5 5 5 6 5 5 5 5 5 5 5 5 5 5 6 5 5 5 6 6 5 5 5 5 5 5 5 5 5 5 5 5 5 5 5 5 5 5 5 5 5 5 5 5 5 5 5 5 5 5 5 5 5 5 5 5 5 5 5 5 5 6 5 5 5 5 6 6 5 6 5 6 5 5 5 5 5 5 5 5 5 6 5 5 6 5 5 5 5 5 5 5 5 5 5 5 5 5 5 5 5 5 5 5 5 5 5 5 6 5 5 5 5 5 5 6 5 5 5 5 5 5 5 5 5 5 5 6 5 5 6 5 5 6 6 5 5 5 6 5 6 5 5 6 6 5 5 5 5 5 5 6 5 5 6 6 5 6 5 5 5 5 5 5 5 5 5 5 5 5 5 6 5 5 5 5 5 5 5 5 5 5 5 5 5 5 5 5 5 5 5 5 5 5 5 5 5 5 5 5 5 5 5 5 5 5 5 5 5 5 5 5 5 5 5 5 5 5 5 5 5 5 5 5 5 5 5 6 5 5 5 5 5 5 5 5 5 5 5 5 5 5 5 5 5 5 5 5 5 5 5 5 5 5 5 5 5 5 5 5 5 5 5 5 5 5 5 5 5 5 5 5 5 5 5 5 5 5 5 6 6 5 5 5 5 5 5 5 5 5 5 5 5 5 5 6 5 5 5 5 5 5 5 5 6 5 5 5 5 5 5 5 6 5 5 5 5 6 5 5 6 5 6 5 5 6 5 5 6 5 5 5 5 5 5 5 5 5 5 6 5 5 6 5 5 5 5 5 6 5 5 5 5 5 5 5 5 6 5 6 5 5 5 6 5 5 5 5 5 5 5 6 5 5 5 6 5 5 5 5 5 5 5 6 5 5 6 5 5 5 5 6 5 5 5 5 6 5 5 5 5 6 5 5 5 6 5 5 6 5 5 5 5 5 6 5 5 5 5 6 5 5 6 5 5 6 5 6 6 5 5 5 5 5 6 5 5 5 5 5 5 6 5 5 5 6 6 5 5 6 5 5 6 5 5 5 5 6 6 5 5 6 5 5 5 5 5 5 5 5 5 5 5 5 5 5 5 5 5 5 5 5 5 5 5 5 5 5 5 5 5 5 5 5 6 5 6 5 5 5 6 5 5 5 5 5 5 5 5 5 5 5 5 5 5 5 5 5 5 5 5 5 5 5 5 6 5 5 5 5 5 5 5 5 5 5 5 5 5 5 5 6 5 5 6 5 6 5 6 5 5 6 5 5 5 6 5 5 6 5 5 6 5 5 5 5 5 6 5 5 5 5 5 5 5 5 5 5 6 6 5 5 5 5 5 5 5 5 5 6 5 5 5 5 5 5 5 5 5 5 5 5 5 5 5 5 5 5 5 5 5 5 5 5 5 5 5 5 5 5 5 5 5 5 5 5 5 5 5 6 5 5 5 6 5 5 5 6 5 6 5 6 5 5 5 6 5 6 5 5 5 5 5 5 6 5 5 6 6 6 5 5 6 5 5 5 5 5 5 5 5 5 5 5 5 5 5 5 5 6 5 5 5 6 5 5 6 6 5 5 6 6 5 5 5 5 5 6 5 5 5 5 5 5 6 5 5 5 5 5 5 5 5 5 5 5 5 5 5 5 5 5 5 5 5 5 5 5 6 5 5 5 5 5 5 5 5 6 5 5 5 5 6 5 5 5 5 5 5 5 5 5 6 5 5 5 5 5 5 5 5 5 5 5 5 5 5 5 5 5 5 5 5 5 6 5 5 6 5 5 6 6 5 5 5 5 6 5 5 5 5 5 6 5 6 5 5 5 5 5 5 5 5 5 5 5 5 5 5 5 5 5 6 5 5 5 5 5 5 5 5 5 5 5 5 5 5 6 5 5 5 5 5 5 5 5 5 5 5 5 5 6 5 5 5 5 5 5 6 5 5 5 5 6 5 5 5 5 5 5 5 5 5 5 5 5 6 5 5 6 5 6 5 6 5 5 6 5 5 6 5 5 6 5 6 5 5 5 5 5 5 6 5 5 6 6 5 5 5 6 6 6 5 5 6 5 5 5 5 5 5 5 5 6 5 5 6 5 5 5 5 5 6 5 5 6 5 6 5 5 5 5 5 5 5 5 6 5 5 5 5 6 6 5 5 5 5 5 5 5 5 6 5 5 5 5 5 5 5 6 5 5 5 5 6 5 5 5 5 5 5 5 5 5 6 5 6 5 5 6 5 5 6 5 5 5 5 5 5 6 5 5 6 5 5 5 6 5 5 5 5 5 5 5 5 5 5 5 5 5 5 5 5 6 5 5 5 5 5 5 5 5 5 5 5 5 5 5 5 5 6 5 6 5 5 5 5 5 5 5 5 5 5 5 5 5 5 5 5 5 5 5 5 5 5 5 5 5 5 5 5 6 5 5 5 5 6 5 6 5 6 5 5 6 5 5 5 5 6 6 6 6 5 5 5 5 5 6 5 6 6 6 5 5 5 5 5 5 5 5 5 5 5 5 5 5 6 5 5 5 5 5 5 5 6 5 5 5 5 5 6 5 5 6 6 5 5 5 5 5 5 5 5 6 5 5 5 5 5 6 5 5 5 5 5 5 5 5 6 5 6 5 5 6 6 5 5 5 5 6 5 5 5 5 5 5 5 6 5 5 5 5 5 5 6 5 5 5 5 5 5 6 5 6 5 6 6 5 5 6 6 5 5 5 5 5 5 5 5 5 5 6 5 5 6 5 5 5 6 5 5 5 5 6 6 5 6 5 5 5 5 5 5 5 5 5 5 5 5 5 5 5 5 5 5 5 5 5 5 5 5 5 5 5 5 5 5 5 5 5 5 5 5 5 5 5 5 5 5 5 5 5 5 5 5 5 5 5 5 5 5 5 5 5 5 5 5 5 5 5 5 5 5 5 5 5 5 5 5 5 5 5 5 5 6 5 5 5 5 5 5 5 5 5 6 5 5 5 6 5 5 6 6 5 5 5 6 5 5 6 6 5 5 5 5 5 5 6 5 5 6 5 6 5 5 5 6 5 5 5 5 5 5 5 5 5 5 5 5 5 6 5 6 5 5 6 5 6 5 5 5 5 5 5 5 5 6 5 5 5 5 5 5 5 5 5 5 5 5 6 5 6 5 5 5 5 5 5 5 5 6 5 5 5 6 5 6 5 6 5 5 5 5 5 5 5 6 6 5 5 5 5 5 5 5 5 5 5 5 5 5 5 5 5 5 5 5 5 5 5 5 5 5 5 5 5 5 5 5 6 5 5 5 5 5 6 5 6 5 6 5 5 6 5 6 5 5 5 5 5 5 5 5 5 5 5 5 6 5 5 5 5 5 5 5 5 5 5 5 5 5 5 6 5 5 5 5 5 5 5 5 5 6 5 5 5 5 6 6 5 5 6 5 5 5 5 5 5 6 5 5 5 5 5 5 5 5 5 5 5 5 5 5 5 5 5 5 5 5 5 5 5 5 5 6 5 6 5 6 5 5 6 5 5 5 5 5 5 5 5 5 5 5 5 5 5 5 5 6 5 5 5 5 6 5 5 5 6 5 5 6 5 5 5 5 5 6 5 5 6 5 5 5 6 6 5 5 5 5 6 6 5 5 5 6 5 5 5 6 5 5 5 6 5 6 5 6 5 5 5 5 5 5 6 5 5 6 6 5 6 5 5 5 5 5 6 5 5 5 5 5 5 6 6 5 5 5 5 6 5 5 5 5 5 5 5 5 5 5 5 5 5 5 5 5 5 6 5 5 5 5 6 5 5 5 6 6 5 5 5 5 6 5 6 5 5 5 6 5 6 5 5 6 5 5 5 5 5 5 6 5 6 5 5 5 6 5 5 5 5 5 6 5 5 5 5 5 5 5 6 5 5 5 5 6 5 5 5 6 5 5 5 5 5 5 5 5 6 5 5 5 6 5 5 5 5 5 6 5 5 5 5 5 5 5 5 5 5 6 5 5 5 6 5 5 5 5 5 5 6 5 5 6 5 5 6 5 6 6 5 5 6 6 5 6 5 5 6 5 5 6 5 6 5 6 5 6 5 6 5 6 5 5 6 5 6 5 5 5 5 6 5 5 5 5 5 5 5 5 5 6 5 5 5 5 5 5 5 5 5 5 5 5 5 5 5 5 5 5 5 5 5 5 5 5 5 5 5 5 6 6 5 5 5 5 5 5 5 5 5 5 5 6 5 5 6 5 5 5 6 5 5 5 5 5 5 5 5 5 5 5 5 5 5 5 5 5 5 5 6 5 5 5 5 5 5 5 5 5 6 5 5 5 6 5 6 5 5 5 5 5 5 5 5 6 6 5 5 5 5 5 6 5 5 5 5 5 5 5 5 6 5 5 5 5 6 5 5 6 6 5 6 5 5 5 5 5 5 5 6 5 5 6 5 5 6 6 5 5 5 5 5 5 5 5 5 5 5 5 5 5 5 5 5 5 5 5 5 5 5 5 5 5 5 5 5 5 5 5 5 6 5 5 5 5 5 5 5 5 5 5 5 5 5 6 6 5 5 5 5 5 5 6 5 5 5 5 5 6 5 5 5 6 5 5 6 5 6 6 5 5 5 5 6 5 5 5 5 5 5 5 5 5 5 5 5 5 5 5 5 5 5 5 5 5 5 5 5 5 5 5 6 5 5 5 5 6 5 6 5 5 6 5 5 5 5 6 5 6 5 5 5 5 5 5 5 5 6 6 5 5 5 6 5 5 5 5 5 5 5 5 5 5 5 5 5 5 5 5 6 5 5 5 5 5 5 5 5 5 6 5 5 5 5 5 5 5 5 5 5 5 5 5 5 5 5 5 5 5 6 6 5 5 5 6 6 6 5 5 5 6 5 5 5 5 6 5 5 5 5 5 5 5 5 6 5 5 5 5 5 6 5 5 5 5 5 5 5 5 5 5 5 5 5 5 5 5 5 5 5 5 6 5 5 5 6 6 5 5 5 5 5 5 5 5 5 5 5 5 5 5 5 5 5 5 5 5 5 5 6 5 5 5 5 5 5 5 5 6 6 5 5 5 5 5 5 5 5 5 5 5 5 5 5 5 5 5 5 5 5 5 5 5 5 5 5 5 5 5 5 5 5 5 5 5 5 5 5 5 6 5 5 5 5 6 5 5 5 5 5 5 5 5 5 5 5 5 5 5 5 5 5 5 5 6 5 5 5 5 6 5 5 5 5 6 5 5 5 5 5 5 5 5 5 6 5 5 6 5 5 5 5 6 5 5 5 6 5 5 5 5 5 5 5 5 5 5 5 5 5 6 5 5 5 6 5 5 5 5 5 5 5 5 5 5 6 5 5 5 5 5 5 5 5 5 5 5 5 5 5 5 5 5 5 5 5 5 5 5 5 5 6 5 5 5 5 5 5 6 5 5 6 5 5 5 5 6 5 5 5 5 5 5 5 5 5 5 6 5 6 6 6 5 5 5 5 6 5 5 5 5 5 5 5 5 5 5 5 5 5 6 5 6 5 6 5 5 5 5 6 5 6 6 5 5 5 5 5 5 5 6 5 5 6 5 6 5 5 6 5 5 6 5 5 6 5 6 5 5 6 5 6 6 5 5 6 5 6 5 5 6 5 5 5 5 5 5 5 5 5 6 5 5 5 6 5 5 5 5 5 5 5 5 5 5 5 6 5 5 5 5 5 5 6 5 6 5 5 5 6 5 5 6 6 5 6 5 5 5 5 6 5 5 6 5 5 6 5 6 5 5 6 5 5 6 6 5 5 5 5 6 5 5 6 5 5 5 5 5 6 6 6 5 6 5 5 6 5 5 5 5 5 5 5 5 6 5 5 5 5 5 5 5 6 5 5 6 5 5 5 6 5 5 5 5 6 5 5 6 5 6 5 5 5 5 5 5 5 5 5 5 5 6 5 5 5 5 5 5 5 5 5 5 6 5 5 5 6 5 5 5 5 5 5 5 5 5 5 5 6 5 5 6 5 5 5 6 5 5 6 5 5 5 6 5 5 5 5 5 5 5 5 5 5 5 5 5 5 5 5 5 5 5 5 5 5 5 5 5 5 5 5 5 5 5 5 5 6 5 5 5 5 5 5 5 5 5 5 5 5 5 5 5 5 5 5 6 5 5 5 5 5 6 5 5 5 5 5 5 5 5 5 5 5 5 5 5 5 5 5 5 5 5 5 5 5 5 5 6 5 6 5 6 5 5 6 5 5 5 5 5 5 6 5 5 5 5 5 6 5 5 5 5 6 5 5 5 5 5 5 5 5 5 5 5 5 5 5 5 5 5 5 5 5 5 5 5 5 6 5 5 5 5 5 5 5 5 5 5 5 5 5 5 5 5 5 5 5 5 5 5 5 5 5 6 5 5 6 5 5 5 5 5 5 5 5 6 5 5 6 5 5 5 5 5 6 5 5 5 5 5 5 5 5 5 5 5 6 5 5 5 5 5 5 6 5 5 5 5 5 6 5 6 5 5 5 5 5 5 5 5 5 5 5 5 5 5 5 6 5 6 5 5 6 5 5 6 6 5 5 5 5 5 5 6 5 5 5 6 5 5 5 6 6 5 5 5 6 5 6 5 6 5 5 5 6 5 5 5 5 5 5 5 5 5 5 5 5 5 5 5 5 5 5 5 5 6 5 5 5 5 6 5 5 5 5 5 5 5 5 5 5 5 5 5 5 5 5 5 5 5 5 5 5 5 5 5 5 5 5 6 5 5 5 5 5 5 6 5 5 5 5 5 5 6 5 5 6 5 6 5 5 5 5 6 5 5 5 5 5 5 5 5 5 5 5 5 5 5 5 5 5 6 5 5 5 6 5 5 6 5 6 6 5 5 5 5 6 5 6 5 5 6 5 5 5 5 5 6 5 5 5 6 5 6 5 6 6 5 5 5 5 5 5 6 6 5 5 5 6 5 5 5 5 6 5 5 5 5 5 5 6 5 5 5 5 5 5 5 5 5 5 5 5 6 5 5 5 5 5 5 5 5 5 5 5 5 5 5 5 5 5 5 5 5 5 6 6 5 5 5 5 6 5 5 6 5 6 5 5 5 5 5 5 5 5 6 5 5 5 5 5 5 5 5 5 6 5 5 5 5 5 6 5 5 5 5 5 5 5 5 5 5 5 5 6 5 5 5 5 5 5 5 5 6 5 5 5 5 5 5 5 5 5 5 5 5 5 5 5 5 5 5 5 5 5 5 5 5 5 5 5 5 5 5 5 5 5 5 5 5 6 5 5 5 6 5 6 5 5 6 5 6 5 5 6 5 5 6 5 5 6 5 6 5 5 5 6 5 6 5 5 5 5 5 5 5 5 5 6 5 5 5 6 5 5 5 5 5 5 5 5 5 5 5 5 5 6 6 6 5 6 5 5 5 5 5 5 5 5 5 5 5 5 5 6 6 5 5 6 5 5 5 5 5 5 5 5 5 5 5 5 5 6 5 5 5 5 5 5 5 5 5 5 5 6 5 5 5 5 5 5 5 5 5 5 6 5 5 5 5 5 5 5 6 5 5 5 6 5 5 5 5 6 5 5 5 5 5 5 5 5 5 5 5 5 5 5 5 5 6 5 5 5 6 5 5 6 5 6 5 5 5 5 5 5 5 5 5 5 5 5 5 5 5 5 5 5 5 5 5 5 5 6 6 5 6 5 6 5 5 5 5 6 5 5 5 5 5 5 5 5 5 5 5 6 5 6 5 5 6 5 6 5 5 5 5 5 5 5 6 5 5 5 5 5 5 6 5 5 5 5 5 6 5 5 5 5 5 5 5 5 5 5 5 5 5 6 5 5 5 6 5 5 5 5 6 5 5 5 5 5 5 5 5 5 5 5 5 5 5 5 5 5 6 6 5 5 5 5 5 5 5 5 5 5 5 5 5 5 5 5 5 5 5 5 5 5 5 5 5 5 6 5 6 6 5 5 5 5 5 6 6 5 5 6 5 5 5 5 5 5 5 5 5 5 6 6 5 5 5 5 5 5 5 6 5 5 5 5 5 6 5 5 5 5 5 6 5 5 5 5 5 5 5 5 6 5 5 5 5 5 5 5 5 5 5 5 5 5 5 5 5 5 5 6 5 5 5 5 5 5 5 6 5 5 5 5 6 5 5 5 5 5 5 5 5 5 5 5 5 5 5 6 5 5 5 5 5 5 5 5 5 6 5 6 5 5 5 5 5 5 5 5 5 5 6 5 5 5 5 5 5 5 5 5 5 5 6 5 5 5 5 5 6 5 6 5 6 5 5 6 6 5 6 5 6 5 6 5 5 5 5 5 5 5 5 5 5 6 5 5 5 5 5 6 5 5 5 5 5 6 5 5 5 5 5 5 5 5 6 5 5 5 5 5 6 5 5 5 5 5 5 5 5 5 5 5 5 5 5 5 5 5 6 6 5 5 5 5 5 6 5 5 5 5 5 5 5 5 6 5 5 5 5 5 5 5 5 5 5 5 5 5 6 6 5 5 5 5 5 5 5 5 5 5 5 5 6 5 5 5 5 5 5 5 5 5 5 5 5 6 5 5 5 6 5 5 5 6 6 5 5 5 5 5 5 6 5 5 5 5 5 5 6 5 5 5 5 5 5 5 5 5 5 5 5 5 6 6 5 6 5 6 5 5 5 5 5 5 5 5 5 5 5 5 5 5 5 5 5 5 5 5 5 5 6 5 5 5 5 5 5 5 5 5 5 5 5 5 5 6 6 5 5 5 5 5 5 5 5 5 5 5 5 5 5 5 5 5 6 5 5 6 5 5 5 5 6 5 5 5 6 5 5 5 5 5 5 5 5 5 5 5 5 5 6 5 5 5 5 5 5 5 5 5 6 5 5 5 6 5 5 5 5 6 6 5 5 5 6 5 5 5 5 5 5 5 5 5 6 5 5 5 6 5 6 5 5 5 5 5 5 5 5 5 5 5 5 5 5 5 5 6 5 5 5 5 5 6 5 5 5 5 5 5 5 5 5 5 6 5 5 6 5 5 6 5 5 5 5 5 5 5 5 5 5 6 5 5 5 6 5 6 5 5 5 6 5 6 5 6 5 5 5 5 5 6 6 5 5 5 5 5 5 5 5 5 5 5 5 6 5 5 5 5 5 5 6 5 5 5 5 5 5 5 5 5 5 5 5 5 5 6 5 5 6 5 5 5 5 5 5 5 5 5 5 5 5 5 5 5 5 5 5 5 5 5 5 5 5 5 6 5 5 5 5 6 5 5 5 6 6 5 5 5 5 5 5 5 5 5 5 5 5 5 5 5 5 5 5 5 5 5 5 5 5 5 5 5 5 5 5 5 5 5 6 5 5 5 6 5 5 6 5 5 5 5 5 6 5 5 5 5 5 6 5 5 5 5 5 5 5 6 5 5 5 5 5 5 5 6 5 5 6 5 5 5 6 5 6 5 5 5 5 5 5 5 5 6 5 5 6 5 5 5 5 5 6 5 5 5 5 5 5 5 5 5 5 5 5 6 5 6 5 5 5 5 5 5 6 5 5 5 5 5 5 5 5 6 5 5 6 5 5 5 5 6 5 5 5 5 5 5 5 5 5 5 6 5 6 5 5 5 5 5 5 5 5 5 6 5 5 5 5 6 5 5 5 5 5 5 5 5 5 5 5 5 5 5 5 5 5 6 5 5 5 5 5 5 5 5 5 5 5 5 6 5 5 5 5 5 5 5 5 5 5 5 5 5 5 5 6 5 5 5 5 5 5 5 5 5 5 5 5 5 5 5 5 5 5 5 5 5 5 5 5 6 5 5 5 5 5 5 5 5 5 5 5 5 5 6 5 5 5 5 5 5 6 5 5 5 5 5 5 5 5 6 5 5 6 5 5 5 5 5 5 6 5 5 5 5 5 5 5 5 5 5 5 5 6 5 5 5 5 5 6 5 5 5 5 5 5 6 5 5 5 5 6 5 5 5 5 5 5 5 5 6 5 5 5 6 6 5 5 5 5 5 5 5 5 5 5 5 5 5 5 5 5 5 5 5 5 5 5 5 5 5 5 5 5 5 5 5 5 5 5 5 5 5 5 5 5 5 5 5 5 6 5 5 5 5 6 5 5 5 5 5 5 6 5 5 5 5 5 5 5 5 5 5 5 5 6 5 5 5 6 5 5 6 6 5 5 5 5 5 5 5 5 5 6 5 5 6 6 5 5 6 5 6 5 6 5 5 5 5 6 5 6 5 5 5 5 5 5 5 5 5 5 5 5 5 5 5 5 5 5 5 5 5 5 5 5 5 5 5 5 6 5 5 5 5 6 5 5 5 5 5 5 6 6 5 5 5 5 5 5 5 5 5 5 5 5 5 5 5 5 5 5 5 5 5 5 5 5 5 5 5 5 5 5 6 5 5 6 5 5 5 6 6 5 5 5 5 6 5 5 5 6 5 5 5 5 6 5 6 6 6 6 5 5 5 5 5 5 5 5 6 5 5 6 5 5 5 6 6 5 5 5 5 5 6 6 6 5 5 5 5 6 5 6 5 5 5 5 5 5 5 5 5 5 5 5 6 5 5 5 5 5 5 5 6 5 5 5 5 5 5 5 5 5 5 5 5 5 5 5 6 5 5 5 5 5 5 5 5 5 5 5 5 5 5 6 5 5 5 6 5 5 5 5 6 5 5 5 6 5 5 5 6 5 5 5 5 5 6 6 5 6 5 6 5 5 5 5 5 5 5 5 5 5 5 5 5 6 6 5 5 5 5 5 5 5 5 6 5 5 5 5 5 5 6 6 6 5 5 6 5 5 5 5 6 5 5 5 6 5 6 5 5 5 5 5 5 5 5 5 5 5 5 5 5 5 5 5 5 5 5 5 5 5 5 5 5 5 6 5 5 5 5 5 5 5 6 5 5 5 5 5 5 5 5 6 5 6 6 5 5 5 5 6 5 5 6 5 5 5 5 5 5 5 5 5 5 6 5 5 5 5 5 5 5 5 5 5 6 5 5 5 6 5 5 5 5 5 5 5 6 6 5 5 5 6 5 5 6 6 5 6 5 5 5 5 5 6 5 5 6 5 5 5 5 5 5 6 6 5 5 5 5 5 5 5 6 5 5 5 6 5 5 5 5 5 5 5 5 5 5 5 5 5 5 5 5 5 5 5 5 5 5 5 6 5 5 5 6 5 5 5 5 5 5 5 6 5 5 5 5 5 5 5 6 5 5 5 5 5 5 5 5 6 5 5 5 5 5 6 5 5 5 6 5 5 5 5 5 6 5 5 5 5 5 5 5 5 5 5 5 5 5 5 5 5 5 5 5 5 5 5 5 5 5 5 5 5 5 5 5 5 5 5 5 5 5 5 5 5 5 5 6 5 6 5 5 5 5 5 6 5 5 5 6 5 5 5 5 5 5 6 5 5 5 5 5 5 5 5 6 5 5 5 6 5 5 5 5 5 5 5 5 5 5 5 5 5 6 5 6 5 5 5 5 5 5 5 5 5 5 5 5 5 6 5 5 5 5 5 5 5 5 5 5 5 5 5 5 5 6 5 5 5 5 5 6 5 5 5 5 5 6 5 5 6 5 5 5 5 5 5 5 5 5 5 5 5 6 5 5 5 6 5 5 6 5 5 5 5 5 5 6 5 5 5 5 5 6 5 6 5 5 5 6 5 5 6 5 5 5 5 5 5 6 5 5 6 5 5 5 5 5 5 6 5 6 5 5 5 6 5 5 6 5 5 5 5 5 5 5 5 5 5 5 5 5 5 6 5 5 5 5 5 5 5 5 6 5 5 5 5 5 6 6 5 5 5 5 5 5 6 5 5 5 5 5 5 5 5 5 5 5 5 5 6 5 5 5 5 5 5 5 6 6 5 5 6 5 5 5 5 5 5 5 5 5 5 5 6 5 5 6 5 5 5 6 5 6 5 5 5 5 5 5 5 5 5 5 5 5 5 5 5 5 6 5 5 5 5 5 5 5 6 5 5 6 5 5 5 6 5 5 5 5 5 5 5 5 5 5 6 5 5 5 5 5 6 5 5 6 5 5 5 5 5 5 5 5 5 5 5 5 6 5 5 6 5 5 5 5 5 6 5 5 5 5 5 5 5 6 5 5 5 6 6 5 5 5 5 5 5 6 5 5 5 5 5 5 5 5 5 5 6 5 5 5 6 6 5 5 5 5 5 5 5 5 5 5 5 5 5 5 6 6 5 5 5 5 6 5 5 5 5 5 5 6 6 5 6 5 5 5 6 5 5 5 5 5 6 5 6 5 5 5 5 5 5 6 5 5 5 5 6 5 5 5 6 5 5 5 5 5 5 5 5 5 5 5 5 5 5 5 5 6 5 5 6 5 5 5 5 5 5 5 5 5 5 5 5 5 6 5 5 5 5 6 5 5 5 5 6 5 5 5 5 5 5 5 6 5 5 6 5 5 5 5 5 5 5 5 5 5 5 6 5 5 5 6 5 5 5 5 5 6 5 5 6 6 5 5 6 5 5 5 5 5 6 5 5 5 6 6 5 5 6 5 6 5 5 6 5 5 6 5 5 5 5 6 5 5 5 6 5 6 5 5 5 5 5 5 5 5 5 5 6 5 5 6 5 5 6 5 5 5 5 6 5 5 6 5 5 6 5 5 5 6 5 5 5 5 6 5 5 5 5 5 5 5 6 5 5 5 5 5 5 5 5 6 5 5 5 5 5 5 5 6 5 5 5 5 5 5 5 5 5 5 5 5 5 5 5 5 5 5 5 5 5 5 6 5 5 5 5 5 5 5 5 5 5 5 5 6 5 5 5 5 5 5 6 5 5 6 5 6 5 5 5 5 5 5 5 5 5 5 5 5 5 5 6 5 5 5 5 6 5 5 5 6 5 5 5 5 5 6 5 5 5 5 6 5 5 5 6 5 5 5 5 5 5 5 5 5 5 5 5 5 5 5 5 5 5 6 5 5 6 5 5 5 5 5 5 5 5 5 5 5 5 5 6 5 5 6 5 5 5 5 5 5 5 5 5 5 6 5 5 6 5 5 6 5 5 5 5 5 5 5 5 5 5 5 5 5 5 5 5 5 5 5 5 5 6 5 5 5 5 5 5 5 5 5 5 5 5 5 5 5 5 5 5 5 5 5 5 5 5 5 5 5 5 5 5 5 5 5 5 5 5 5 5 5 5 5 5 5 5 6 5 5 6 5 5 5 5 5 5 5 5 5 5 5 5 5 5 5 5 5 5 
</DataArray>
<DataArray type="Float64" Name="stress" NumberOfComponents="9" format="ascii">
370.95246631252667 17.365876689387726 0 17.365876689387726 1.22649323669378 0 0 0 0 3476.6694791996129 -1139.2974088657231 0 -1139.2974088657231 24.965819194543442 0 0 0 0 126.80394533416256 400.85177559973533 0 400.85177559973533 503.18733830074081 0 0 0 0 34.8414223232121 -267.59229567979548 0 -267.59229567979548 50.456853949123655 0 0 0 0 1717.3036996914598 1066.9452198045176 0 1066.9452198045176 354.2775577909145 0 0 0 0 11.827745503531958 0.56982896762681534 0 0.56982896762681534 0.23024405393458264 0 0 0 0 3493.8270274101378 488.46636453228717 0 488.46636453228717 -558.0622712324913 0 0 0 0 3496.3099916381616 -797.94372717728584 0 -797.94372717728584 -561.04400763813123 0 0 0 0 1799.3347543574473 2.7764859906720538 0 2.7764859906720538 -113.36693584726015 0 0 0 0 1774.3296018084366 -204.12144173011635 0 -204.12144173011635 -555.74252238430677 0 0 0 0 433.33706620245357 -86.133890155084345 0 -86.133890155084345 346.6008824604113 0 0 0 0 -109.13926474134496 18.51804425259364 0 18.51804425259364 412.58567980734813 0 0 0 0 426.40860492510626 152.47627411216328 0 152.47627411216328 47.170018757289512 0 0 0 0 421.27788895279969 -190.30993935691185 0 -190.30993935691185 -7.1137113299511583 0 0 0 0 -6.5206415384600405 -42.603125457547208 0 -42.603125457547208 39.862582634579127 0 0 0 0 403.43060003683786 -8.2680027829324558 0 -8.2680027829324558 -358.85989327418667 0 0 0 0 -13.588549519787307 -4.6575435343560905 0 -4.6575435343560905 1.2279152737363348 0 0 0 0 -272.19133556052111 -228.51610377197744 0 -228.51610377197744 -107.41566427482576 0 0 0 0 610.23090085294098 105.65756399319929 0 105.65756399319929 -106.97752467566178 0 0 0 0 -128.0633436938806 -28.46885133217792 0 -28.46885133217792 4.4211441191233121 0 0 0 0 62.857719290956084 -293.61831899862295 0 -293.61831899862295 1397.7393196648688 0 0 0 0 0.47837907444936434 -0.98741192478786388 0 -0.98741192478786388 -0.76796218882184819 0 0 0 0 1592.1969997636625 1218.9434709282639 0 1218.9434709282639 23.462355434765744 0 0 0 0 10.983910403507764 -4.3295062558956143 0 -4.3295062558956143 -0.96436280115341122 0 0 0 0 588.30567287385929 50.877579039493497 0 50.877579039493497 -110.1844588946083 0 0 0 0 1539.0880360913798 -1730.915170641998 0 -1730.915170641998 748.49087704992075 0 0 0 0 0.47013748959136592 -2.1421331228826475 0 -2.1421331228826475 -0.091084199748637434 0 0 0 0 -4.9284274153469596 -20.640056475673987 0 -20.640056475673987 -23.591591667719172 0 0 0 0 -42.90584800162469 -7.7127402249493571 0 -7.7127402249493571 170.1212776506996 0 0 0 0 32.241605521044903 -68.122528668623602 0 -68.122528668623602 215.80007519576407 0 0 0 0 -18.377979650511406 -80.054864670398047 0 -80.054864670398047 155.41272726351929 0 0 0 0 -14.473569056309543 -1.6559606965494709 0 -1.6559606965494709 1.2290440181282618 0 0 0 0 -7.699696381285321 16.228331464476696 0 16.228331464476696 125.21519413272841 0 0 0 0 -29.398691788781434 115.76566370586552 0 115.76566370586552 -142.48768972514767 0 0 0 0 -1.3104916801334081 -0.58696659931280237 0 -0.58696659931280237 0.17064351498766861 0 0 0 0 -2.5663053715747788 -7.2164670345115951 0 -7.2164670345115951 2.7304725198095423 0 0 0 0 -181.40081965606078 54.46605341978352 0 54.46605341978352 108.78669659994939 0 0 0 0 -112.09079303103499 -33.119892393499811 0 -33.119892393499811 -13.404555331642015 0 0 0 0 -21.537672037171433 -5.7237299621393163 0 -5.7237299621393163 4.9571723085873032 0 0 0 0 -0.12077071458043065 -6.3995941293050089 0 -6.3995941293050089 1.4712570725739624 0 0 0 0 -21.426946536299056 -2.0868148489488556 0 -2.0868148489488556 39.043997971332033 0 0 0 0 -5.0923127549031051 9.930503220745635 0 9.930503220745635 -13.506811196563405 0 0 0 0 7.3731552390253796 -1.6059434294166905 0 -1.6059434294166905 0.27924580638956298 0 0 0 0 2.1409682138764765 -1.8973322923581577 0 -1.8973322923581577 3.2546080285179997 0 0 0 0 8.7205466738087125 -18.326993731635888 0 -18.326993731635888 -20.63755028709749 0 0 0 0 -149.04448793223537 -77.651194658905467 0 -77.651194658905467 55.125768376477708 0 0 0 0 24.09889338793505 -1.9397500227702498 0 -1.9397500227702498 -0.66189197537036915 0 0 0 0 22.531015903165098 -144.90157200000237 0 -144.90157200000237 -222.15070340522618 0 0 0 0 4.6802658768347136 -7.7534998679540195 0 -7.7534998679540195 0.6804890827633453 0 0 0 0 61.115847500084783 -51.717685793808904 0 -51.717685793808904 65.46818492114987 0 0 0 0 4.5112636726703252 -0.28740428110876337 0 -0.28740428110876337 -0.28176113776873069 0 0 0 0 0.50323252573275568 -12.288102289463916 0 -12.288102289463916 -9.3662304583640257 0 0 0 0 0.59001297422219068 -18.828834140680627 0 -18.828834140680627 0.13630948054619299 0 0 0 0 8.7383054850797635 -24.100529191378275 0 -24.100529191378275 -10.351965666180085 0 0 0 0 41.216491316779866 105.26467691383353 0 105.26467691383353 102.56055647917597 0 0 0 0 267.56779408003058 27.548982509600876 0 27.548982509600876 -0.044222276412951969 0 0 0 0 3.0866541339828473 -0.10527285645435747 0 -0.10527285645435747 0.054718167911145157 0 0 0 0 225.1850464867166 136.83271107149457 0 136.83271107149457 68.0346048869405 0 0 0 0 190.85325298033422 -102.44132341704261 0 -102.44132341704261 32.056296394969451 0 0 0 0 -20.97303415989154 20.795738957271681 0 20.795738957271681 12.836045929998988 0 0 0 0 241.27579872615752 32.50626919049477 0 32.50626919049477 -0.13897202943414638 0 0 0 0 476.75516391593555 79.23556921909406 0 79.23556921909406 -27.329660491352094 0 0 0 0 400.77178108150838 -73.579761619942829 0 -73.579761619942829 38.733044433806754 0 0 0 0 223.69683421008813 40.816270130294015 0 40.816270130294015 115.31364483430409 0 0 0 0 418.39012787648244 40.60820652503287 0 40.60820652503287 -47.50552860593082 0 0 0 0 462.50833689175488 55.653751070551607 0 55.653751070551607 -45.195666538881142 0 0 0 0 317.79839276042912 126.40231966788588 0 126.40231966788588 318.7094180393542 0 0 0 0 553.46752666789689 110.72413368351476 0 110.72413368351476 -5.5117296468866925 0 0 0 0 430.01807849166653 23.438146266633908 0 23.438146266633908 -23.963817822759438 0 0 0 0 4.2918129104190825 0.74680892908743601 0 0.74680892908743601 -0.11030510055514697 0 0 0 0 437.26230295079949 -91.733469060826792 0 -91.733469060826792 -22.970700392792651 0 0 0 0 230.44574112274131 -105.31137212133785 0 -105.31137212133785 11.734536968299835 0 0 0 0 -26.48009796081169 -32.236776168326287 0 -32.236776168326287 13.644307999476609 0 0 0 0 -27.654212847410236 -29.66960844005888 0 -29.66960844005888 65.039661425503567 0 0 0 0 -19.547267241647205 29.520860866714919 0 29.520860866714919 66.213901251005268 0 0 0 0 480.56304378601999 1.3651157643984604 0 1.3651157643984604 -77.880683837018864 0 0 0 0 400.80654206797044 -27.761165739712993 0 -27.761165739712993 -69.25919843878637 0 0 0 0 195.47126107082295 76.470929834163513 0 76.470929834163513 -20.472627621455445 0 0 0 0 0.43715096380498153 -0.33661649407713057 0 -0.33661649407713057 0.064714092530692602 0 0 0 0 143.13988715068263 -72.340510667707463 0 -72.340510667707463 174.57321414694707 0 0 0 0 31.533328425750369 -129.25663354519259 0 -129.25663354519259 155.82903472178552 0 0 0 0 -7.2773905613212264 -31.897918277721658 0 -31.897918277721658 122.98187465714057 0 0 0 0 0.88129989736444259 -1.3679552932873236 0 -1.3679552932873236 196.35452136912681 0 0 0 0 129.45581868346744 -102.93919579565913 0 -102.93919579565913 52.101252908936658 0 0 0 0 112.60801935073141 -12.53406236733386 0 -12.53406236733386 177.56000728362937 0 0 0 0 28.736098398803733 -116.01115053583578 0 -116.01115053583578 75.42825250425949 0 0 0 0 56.624092737314641 -129.96913281920718 0 -129.96913281920718 -40.127891571385135 0 0 0 0 -3.2080035530379973 -77.760012531222571 0 -77.760012531222571 79.87357079661956 0 0 0 0 188.03581774738268 167.3254679536318 0 167.3254679536318 235.01005439226299 0 0 0 0 530.96904855090543 237.15773724765347 0 237.15773724765347 82.713449688291348 0 0 0 0 352.68155044443847 -96.945011159507885 0 -96.945011159507885 183.74140853641308 0 0 0 0 130.89851362312038 -134.08688520964301 0 -134.08688520964301 48.748261750937047 0 0 0 0 174.55296702242049 134.15790174715315 0 134.15790174715315 255.87068701914575 0 0 0 0 340.68659832973208 237.10116364973271 0 237.10116364973271 120.71241312412235 0 0 0 0 185.3073675120977 -145.24949249726893 0 -145.24949249726893 -28.974646662013015 0 0 0 0 71.58454622154386 -165.30381452203423 0 -165.30381452203423 -239.58430160455555 0 0 0 0 -75.205931352611515 99.586242020298812 0 99.586242020298812 -163.31420465007812 0 0 0 0 348.97844836852892 234.65717045101022 0 234.65717045101022 -508.27987601828545 0 0 0 0 61.379112656155485 -53.588966686516301 0 -53.588966686516301 19.454365814190055 0 0 0 0 29.715057217556364 3.582781481695644 0 3.582781481695644 -0.22771002412337416 0 0 0 0 13.314139556503505 -98.386041370409544 0 -98.386041370409544 -59.513422471987724 0 0 0 0 17.520403164722666 -84.809073550852588 0 -84.809073550852588 -142.27826916146455 0 0 0 0 25.740752515790518 -115.71101450000913 0 -115.71101450000913 -69.62078242819976 0 0 0 0 113.18382755556377 -59.391415198108461 0 -59.391415198108461 -63.301790810852367 0 0 0 0 68.300129062890846 -124.5975160184487 0 -124.5975160184487 -154.5577213964998 0 0 0 0 55.227270259871148 -46.639591954520711 0 -46.639591954520711 -208.57930393042614 0 0 0 0 94.767999155970756 -14.434263727690791 0 -14.434263727690791 -374.51451526262531 0 0 0 0 119.96025283023482 -122.71465528781096 0 -122.71465528781096 -329.88988585210143 0 0 0 0 42.576649909722619 24.00586236296931 0 24.00586236296931 -76.78241535479583 0 0 0 0 43.045929404601907 3.8900649907649658 0 3.8900649907649658 -0.81732542019050025 0 0 0 0 42.486393907204047 -12.58580808194894 0 -12.58580808194894 0.2409391645404666 0 0 0 0 -1.4502009669668041 -49.179028386159644 0 -49.179028386159644 -208.32621348446747 0 0 0 0 -2.8932804283685982 -81.757734002077996 0 -81.757734002077996 -98.999859230705624 0 0 0 0 58.908836447157228 -102.29125480525818 0 -102.29125480525818 -100.71928810206055 0 0 0 0 25.934024229325587 -102.72592723736039 0 -102.72592723736039 -151.12666176031496 0 0 0 0 0.63888289371971041 -17.060357944286238 0 -17.060357944286238 -5.9212775730245539 0 0 0 0 63.002470863197232 6.6010575338233934 0 6.6010575338233934 -48.305642697340318 0 0 0 0 -19.414385338488501 -108.82588489717131 0 -108.82588489717131 -10.532971935201658 0 0 0 0 1.5997399203333771 -118.29700834771279 0 -118.29700834771279 -121.16832387712122 0 0 0 0 39.72869420025927 -9.6436548972088332 0 -9.6436548972088332 -0.27418429116630705 0 0 0 0 44.479430995665894 -14.41341945178921 0 -14.41341945178921 0.81446198271945702 0 0 0 0 41.985194020991912 -3.9511331169803725 0 -3.9511331169803725 2.3720711471059985 0 0 0 0 48.299408987382776 -42.805675992051533 0 -42.805675992051533 -56.605858391984043 0 0 0 0 76.405245405767346 9.5002948415557285 0 9.5002948415557285 3.0958688069331401 0 0 0 0 74.980143665416108 14.9616737102358 0 14.9616737102358 -6.036774877039079 0 0 0 0 7.6416210414797732 -0.3515763956123692 0 -0.3515763956123692 8.4785175080120609 0 0 0 0 87.093041501240805 21.338679946143827 0 21.338679946143827 2.4124790112534029 0 0 0 0 13.704999379995371 -8.0634598572177936 0 -8.0634598572177936 -3.5224062791914568 0 0 0 0 3495.0647903161007 317.04016127857636 0 317.04016127857636 -286.9747370825832 0 0 0 0 3454.7557327144968 317.86993016426993 0 317.86993016426993 -282.05902616325426 0 0 0 0 141.8395270968831 50.893346135652294 0 50.893346135652294 3.8893725667493015 0 0 0 0 3.1672078251569431 -4.00343230398488 0 -4.00343230398488 -1.1781897286464917 0 0 0 0 3499.0642032411852 417.25842653928396 0 417.25842653928396 -240.62808937423594 0 0 0 0 106.97803968013613 -20.838617976394829 0 -20.838617976394829 -2.6353257308082938 0 0 0 0 41.524152496666943 -18.562710806393142 0 -18.562710806393142 1.4244952593022044 0 0 0 0 5.6772839980308092 -0.96416652089990862 0 -0.96416652089990862 2.6345480247340163 0 0 0 0 62.889579727328965 -13.38608284622212 0 -13.38608284622212 -15.881467638213644 0 0 0 0 54.553106324339751 14.53818052692457 0 14.53818052692457 35.387857353668053 0 0 0 0 -21.788511017550263 -41.644567078661247 0 -41.644567078661247 54.442674785918939 0 0 0 0 15.656630813406082 -92.516623219400913 0 -92.516623219400913 -21.283895553301932 0 0 0 0 0.57743506849629966 -10.066743078624789 0 -10.066743078624789 0.60622477696414467 0 0 0 0 24.498253170177783 -26.294576889176511 0 -26.294576889176511 2.6062193585220248 0 0 0 0 10.91543454678424 -5.1831438214465777 0 -5.1831438214465777 1.0269111418068424 0 0 0 0 66.97605373247643 219.57189420913926 0 219.57189420913926 576.31212122161116 0 0 0 0 69.313199627315043 26.231876001031551 0 26.231876001031551 11.976446899040127 0 0 0 0 53.561898325278889 93.53829628710028 0 93.53829628710028 58.176669522580397 0 0 0 0 -37.022901834570803 29.636879936413749 0 29.636879936413749 82.991330361140911 0 0 0 0 -16.095862142596161 -55.844019968703407 0 -55.844019968703407 -33.562034167748195 0 0 0 0 -9.2606462682466031 -3.9944442920540268 0 -3.9944442920540268 4.958164600077434 0 0 0 0 2.4004731558998174 -111.31253038210117 0 -111.31253038210117 212.23087730023531 0 0 0 0 2100.2617941427161 1120.8018589709029 0 1120.8018589709029 319.67159511452542 0 0 0 0 3486.9393930530409 63.265215384767899 0 63.265215384767899 -685.70867963577484 0 0 0 0 75.803977308631147 -154.10617341813 0 -154.10617341813 725.55096531792765 0 0 0 0 1902.360216559362 -1063.7279465194124 0 -1063.7279465194124 11.17453615152376 0 0 0 0 6.4817204289868862 -17.169547001612841 0 -17.169547001612841 2.7874764018135743 0 0 0 0 7.3202103787280066 -30.89581039766027 0 -30.89581039766027 8.1502936975150533 0 0 0 0 13.126522581718746 -45.198500673501997 0 -45.198500673501997 -40.750633944589936 0 0 0 0 0.045359830837696791 -36.058140092258895 0 -36.058140092258895 20.615217337960758 0 0 0 0 -0.95573801469555519 0.80612769701651743 0 0.80612769701651743 0.26287363455053248 0 0 0 0 22.147507548230351 -34.31758270763396 0 -34.31758270763396 -182.9373976916221 0 0 0 0 -54.155448672536295 -10.86631069093437 0 -10.86631069093437 81.068576448717295 0 0 0 0 -2.788873907586094 -52.641487361480699 0 -52.641487361480699 16.762309248003504 0 0 0 0 -54.17091845482355 -142.21942337946723 0 -142.21942337946723 11.887121965838361 0 0 0 0 36.086930288700387 -77.009033869926327 0 -77.009033869926327 7.7136083387283634 0 0 0 0 71.688701851293445 -83.318185268207117 0 -83.318185268207117 3.7372972651961618 0 0 0 0 -44.068501992340316 13.357144822680937 0 13.357144822680937 77.649222731738405 0 0 0 0 -92.879284921276849 -48.749721573728607 0 -48.749721573728607 81.610725167235159 0 0 0 0 -25.199120855802903 18.102297023660185 0 18.102297023660185 133.3445439430667 0 0 0 0 -14.279239760677228 -116.92321476696421 0 -116.92321476696421 27.735723234229908 0 0 0 0 -41.984300103591522 -82.669056034689561 0 -82.669056034689561 -14.174299406669206 0 0 0 0 -43.514072406805099 -98.171187048646686 0 -98.171187048646686 145.07228836676234 0 0 0 0 -7.2327490303869126 -30.782375787934683 0 -30.782375787934683 12.833961045068691 0 0 0 0 209.92071965285868 23.428782257399689 0 23.428782257399689 -35.058309441639722 0 0 0 0 1.0873387244791957 -0.68077805452685425 0 -0.68077805452685425 29.574378551561949 0 0 0 0 31.394848320051096 37.869590426576906 0 37.869590426576906 14.385510399106352 0 0 0 0 71.620603382372792 29.695777084261408 0 29.695777084261408 -9.3284478581208532 0 0 0 0 85.175009511262033 -7.1784157351519298 0 -7.1784157351519298 25.668382952795582 0 0 0 0 276.63954975595698 -73.129982734483747 0 -73.129982734483747 -92.107427082629329 0 0 0 0 -70.453098720128764 59.095413934914177 0 59.095413934914177 217.49393961384339 0 0 0 0 -24.446236617186514 -82.190152974477314 0 -82.190152974477314 -74.264551102593032 0 0 0 0 9.0678425795850615 5.8291429784046613 0 5.8291429784046613 -5.8287508633769818 0 0 0 0 23.863453236306668 25.6898926119311 0 25.6898926119311 4.2455668620114011 0 0 0 0 35.503127308809781 36.177065704371671 0 36.177065704371671 -10.353577293602939 0 0 0 0 18.299324474166497 15.907825647833761 0 15.907825647833761 -11.16582790274515 0 0 0 0 27.756854066334199 25.38582892235172 0 25.38582892235172 2.7684531588220125 0 0 0 0 62.594558770171716 23.10395846188112 0 23.10395846188112 -1.9418296334933984 0 0 0 0 62.943554175195459 27.176053331343837 0 27.176053331343837 19.212656436455291 0 0 0 0 35.07247675943654 13.897221170918897 0 13.897221170918897 -1.7345542620896595 0 0 0 0 34.962023439101358 11.568726160681464 0 11.568726160681464 1.0800658117191233 0 0 0 0 38.530784236180466 10.613947250770412 0 10.613947250770412 1.5639148423490123 0 0 0 0 73.266722080901673 -0.14571239531596802 0 -0.14571239531596802 -27.376347659814201 0 0 0 0 34.549898015351573 14.660902862559936 0 14.660902862559936 1.7933791010827917 0 0 0 0 22.646245907533057 -4.1544495114649322 0 -4.1544495114649322 -4.7661614710816602 0 0 0 0 17.007261726103025 1.8996600682927518 0 1.8996600682927518 -0.0035816033038203032 0 0 0 0 7.6675334553767414 4.130186128830303 0 4.130186128830303 1.2437466244901279 0 0 0 0 7.3044619661625632 -2.7115749666033651 0 -2.7115749666033651 -1.2650021057561676 0 0 0 0 93.626104365393985 17.952642837590911 0 17.952642837590911 -0.078630605263917172 0 0 0 0 21.479030370544933 14.4118260258638 0 14.4118260258638 3.469189155976661 0 0 0 0 50.584974011377199 22.269133436020585 0 22.269133436020585 0.0062984277813849434 0 0 0 0 36.114570524689043 21.557157306479269 0 21.557157306479269 6.3828496255017484 0 0 0 0 32.121799534666934 11.651382893783989 0 11.651382893783989 1.4924686449776345 0 0 0 0 32.346701194908178 14.103472889657088 0 14.103472889657088 2.3018631079011387 0 0 0 0 24.309281637739389 14.212700917351128 0 14.212700917351128 5.1249401077401249 0 0 0 0 26.059302785200998 17.175648082691623 0 17.175648082691623 1.3046114573298837 0 0 0 0 43.497160170732698 26.473040700298583 0 26.473040700298583 2.5429232379117259 0 0 0 0 64.342814682982862 34.02006797421263 0 34.02006797421263 13.943896602120461 0 0 0 0 66.663343109743437 30.574492280473947 0 30.574492280473947 16.202014535989861 0 0 0 0 62.713509448149125 29.707459043511033 0 29.707459043511033 14.134757758020726 0 0 0 0 12.129898805203737 5.0662948848201097 0 5.0662948848201097 1.9918968462237197 0 0 0 0 69.01318835793063 33.815313132303139 0 33.815313132303139 12.13783230724151 0 0 0 0 52.498472614424827 38.970205618824288 0 38.970205618824288 10.603824030042801 0 0 0 0 0.62727106197372962 0.25013472416526383 0 0.25013472416526383 0.035725394112536377 0 0 0 0 55.305972887319513 37.207209663261601 0 37.207209663261601 0.021281920100671266 0 0 0 0 49.382991581365786 32.931010371951011 0 32.931010371951011 7.7280371114356505 0 0 0 0 51.789534809533507 37.237953369370594 0 37.237953369370594 14.745880386731372 0 0 0 0 49.047432459439733 34.789354173162153 0 34.789354173162153 18.652374772626544 0 0 0 0 49.928218426032402 28.474505292568018 0 28.474505292568018 12.704349768522206 0 0 0 0 183.08801750313432 9.341028938182717 0 9.341028938182717 -108.05536311164178 0 0 0 0 6.4161984192417663 -1.3437078797118858 0 -1.3437078797118858 -4.2690714416277231 0 0 0 0 40.672837318322763 181.86848373518828 0 181.86848373518828 -73.580445212481209 0 0 0 0 22.900581658788724 -47.333964168326929 0 -47.333964168326929 -113.70318757098266 0 0 0 0 25.417389813983846 15.374353120893204 0 15.374353120893204 1.7385551418789849 0 0 0 0 36.322987984572052 20.667559854339089 0 20.667559854339089 3.6730361682258845 0 0 0 0 216.97300054886728 196.91461350985446 0 196.91461350985446 -78.627493815518392 0 0 0 0 273.13423055423482 286.65556231487244 0 286.65556231487244 48.798083772180689 0 0 0 0 -27.128404967545066 46.837175575792571 0 46.837175575792571 92.829693445884914 0 0 0 0 41.638147281453712 6.0405682023601912 0 6.0405682023601912 57.877760747790489 0 0 0 0 -40.831455980587634 76.834100836973448 0 76.834100836973448 180.73295891875568 0 0 0 0 -32.471009015644086 13.802958451555241 0 13.802958451555241 163.93079216217484 0 0 0 0 23.626390817953506 97.028095595390369 0 97.028095595390369 -13.875174550200427 0 0 0 0 -28.62837641320948 125.7887531279639 0 125.7887531279639 115.64349454248759 0 0 0 0 -2.2627888199163522 6.9452877819636001 0 6.9452877819636001 22.328062107799418 0 0 0 0 20.311494110093918 23.712191192516457 0 23.712191192516457 11.654759966044367 0 0 0 0 6.2543499304447323 4.7304230189633927 0 4.7304230189633927 35.313850321900645 0 0 0 0 35.964379618087207 24.335074699804075 0 24.335074699804075 11.74901967441418 0 0 0 0 40.248073169175768 28.689484404450194 0 28.689484404450194 8.3075912924883202 0 0 0 0 35.694291929830797 24.311320441886814 0 24.311320441886814 9.7075442868921158 0 0 0 0 47.897620910342084 33.574916887749609 0 33.574916887749609 10.721528079256863 0 0 0 0 41.885698779507948 26.35861032856041 0 26.35861032856041 11.613012785470694 0 0 0 0 44.130981069378322 27.217679214190976 0 27.217679214190976 0.00084798677903795785 0 0 0 0 43.843338926475553 24.654174001517436 0 24.654174001517436 9.6921643002397957 0 0 0 0 43.579017329953786 21.868606368699847 0 21.868606368699847 0.029049895389335056 0 0 0 0 -0.60125045003854893 -0.12931663017772621 0 -0.12931663017772621 -0.43017703340734414 0 0 0 0 49.257484217916499 -69.47773489981455 0 -69.47773489981455 59.354586376195449 0 0 0 0 220.81870402331015 -1.1287023760850534 0 -1.1287023760850534 -3.4062112206436552 0 0 0 0 0.77929933459381573 45.217007344848298 0 45.217007344848298 41.242984144054901 0 0 0 0 -10.692045324030914 11.951273925468229 0 11.951273925468229 58.049077881097048 0 0 0 0 -7.3014852698179311 10.939713313468985 0 10.939713313468985 17.612593904361574 0 0 0 0 3.3585851432676463 4.085885570476421 0 4.085885570476421 0.9359337456092498 0 0 0 0 -16.300474615971325 -14.001431551173027 0 -14.001431551173027 38.662038944294636 0 0 0 0 4.7530346577696037 37.701096186207053 0 37.701096186207053 -7.6993949700058124 0 0 0 0 9.4063520708832584 4.0523167956775126 0 4.0523167956775126 4.2006235939224981 0 0 0 0 -35.716708764717623 -44.508060983915243 0 -44.508060983915243 99.824746709029 0 0 0 0 6.9157413965783121 6.9131809415171475 0 6.9131809415171475 6.6511038872000974 0 0 0 0 -61.649147701711627 -3.4795481379268267 0 -3.4795481379268267 37.641413084815554 0 0 0 0 -17.589118746305758 27.761332020727025 0 27.761332020727025 11.851368330992955 0 0 0 0 -61.110860258186221 109.2357365920668 0 109.2357365920668 -20.954403835330368 0 0 0 0 105.23091634952289 82.413573474894974 0 82.413573474894974 -64.970060847287641 0 0 0 0 3.387848042144924 2.0931689507117213 0 2.0931689507117213 1.0039530934679584 0 0 0 0 -67.158464224718045 78.100173756170193 0 78.100173756170193 324.91769699289176 0 0 0 0 315.26840055226967 126.78812432567248 0 126.78812432567248 -57.059602641965057 0 0 0 0 -182.2723093960667 -23.36403602573705 0 -23.36403602573705 -140.92490592932182 0 0 0 0 369.26553504252843 389.87823904968775 0 389.87823904968775 63.906727813622297 0 0 0 0 219.79719543119427 -293.77398461512729 0 -293.77398461512729 304.41810242476055 0 0 0 0 10.680313964050185 1.5075247526121771 0 1.5075247526121771 0.34093897865378159 0 0 0 0 208.82039132027421 238.82151206305946 0 238.82151206305946 40.92479100967364 0 0 0 0 79.468976414143981 303.82110908485032 0 303.82110908485032 8.4011313554026259 0 0 0 0 -225.62198309878295 -234.26638618781408 0 -234.26638618781408 558.72431162443513 0 0 0 0 381.81956343480124 -9.2793148206829983 0 -9.2793148206829983 -114.98941235338089 0 0 0 0 463.97948460359476 266.11608632776392 0 266.11608632776392 -353.96001175764582 0 0 0 0 560.03605637683359 -138.1858079934164 0 -138.1858079934164 -197.96925734341085 0 0 0 0 -239.33543202727742 375.50205004748699 0 375.50205004748699 429.58054032328226 0 0 0 0 -463.1863765475282 323.89804510235945 0 323.89804510235945 -138.63096266607658 0 0 0 0 24.195681981814118 19.886543673224125 0 19.886543673224125 8.7198544416675681 0 0 0 0 -173.01839660562109 248.70683482048076 0 248.70683482048076 -218.68241235849382 0 0 0 0 48.013157115041395 7.7529693401959321 0 7.7529693401959321 12.889864462290689 0 0 0 0 12.848197571453994 0.36987897074254761 0 0.36987897074254761 -1.0064920435740239 0 0 0 0 -233.2123656674521 393.61600583416322 0 393.61600583416322 123.55967541773691 0 0 0 0 7.6604614161151403 8.5945685627447119 0 8.5945685627447119 -1.0983618855320856 0 0 0 0 0.18846122379392227 6.8910207491090603 0 6.8910207491090603 8.0099481857161265 0 0 0 0 -220.64889813303307 -219.9855721930827 0 -219.9855721930827 31.656196399950659 0 0 0 0 14.687248579924926 0.88465059638792809 0 0.88465059638792809 -2.9015143417127547 0 0 0 0 -3.525106255337306 2.4861995379746418 0 2.4861995379746418 10.6346045870461 0 0 0 0 -34.665838948087185 -101.37727515891288 0 -101.37727515891288 -127.02730494225722 0 0 0 0 -3.931882875986048 -2.7992989609786036 0 -2.7992989609786036 25.666296305848846 0 0 0 0 -2.805908719037518 3.5288651403383184 0 3.5288651403383184 6.2805491211178746 0 0 0 0 1.3607834272115724 28.174480281235446 0 28.174480281235446 7.362408167018657 0 0 0 0 5.4105412325880025 -21.824076552007682 0 -21.824076552007682 36.667673241942339 0 0 0 0 13.436962981926627 70.2022215413092 0 70.2022215413092 153.50591283485119 0 0 0 0 61.02573751701857 178.7784660847592 0 178.7784660847592 271.00360988025568 0 0 0 0 1.7008114575291984 0.86568952400239141 0 0.86568952400239141 222.23912311502374 0 0 0 0 273.4182343661887 181.17606299564295 0 181.17606299564295 110.66713580305077 0 0 0 0 -0.17482279231677467 1.4082406602677366 0 1.4082406602677366 4.3500254625609358 0 0 0 0 138.57734031735163 -59.38268564951295 0 -59.38268564951295 33.119275749780172 0 0 0 0 2.195602435393937 3.4055377400434566 0 3.4055377400434566 10.503403184661323 0 0 0 0 -2.9875517275359016 13.057749891906042 0 13.057749891906042 23.307738952606087 0 0 0 0 55.686876653620857 -11.337177977544115 0 -11.337177977544115 -7.3249420857978293 0 0 0 0 6.7661403738893569 -28.241706839328572 0 -28.241706839328572 31.051147642610886 0 0 0 0 15.020255801900447 -8.0446664631809597 0 -8.0446664631809597 7.2995042259971434 0 0 0 0 50.516366159456084 -6.8176262758161101 0 -6.8176262758161101 17.189586920834699 0 0 0 0 102.47288510590442 -15.352590399779729 0 -15.352590399779729 9.9018148079500179 0 0 0 0 139.23372928118624 9.6574684862930553 0 9.6574684862930553 15.604935389954335 0 0 0 0 14.275793023458391 -32.811764379475107 0 -32.811764379475107 70.726067828853047 0 0 0 0 115.65815761998238 14.542039323220251 0 14.542039323220251 33.77446996605704 0 0 0 0 165.80336728827388 17.488341082799707 0 17.488341082799707 23.225844869152752 0 0 0 0 106.81774773176585 32.820870933278002 0 32.820870933278002 28.42112177355375 0 0 0 0 136.36200567858759 27.541156153420161 0 27.541156153420161 13.227669328578486 0 0 0 0 82.341961838654242 8.1290481529476892 0 8.1290481529476892 15.504756321549507 0 0 0 0 -204.14659878673774 -70.533171482511534 0 -70.533171482511534 45.355259168471093 0 0 0 0 179.11577052701614 79.867113608526779 0 79.867113608526779 22.143347493315559 0 0 0 0 10.30042963852236 -0.8240587255151155 0 -0.8240587255151155 6.6295286030294136 0 0 0 0 104.48746991174994 61.485972299236892 0 61.485972299236892 42.523177424122196 0 0 0 0 113.34018412890146 76.227415286522046 0 76.227415286522046 44.011862333372846 0 0 0 0 -221.01502720154895 0.62341066354019858 0 0.62341066354019858 4.2752542477501265 0 0 0 0 -105.67094643098244 -7.231836696897517 0 -7.231836696897517 -10.33988138624045 0 0 0 0 -95.586125548259588 -78.374797632755872 0 -78.374797632755872 27.063096828822381 0 0 0 0 -179.70831967284903 -95.180091979777217 0 -95.180091979777217 67.429451999119919 0 0 0 0 2.6413977373158559 27.258770489295785 0 27.258770489295785 36.210152276137478 0 0 0 0 -83.203741254183115 -27.730978077605869 0 -27.730978077605869 85.900144602610453 0 0 0 0 -132.48994296725141 125.1244012409179 0 125.1244012409179 268.31325578202177 0 0 0 0 9.4021049563525594 145.96989261620865 0 145.96989261620865 192.18128897316092 0 0 0 0 0.14304053148887874 -0.29516407713191484 0 -0.29516407713191484 0.319492775147733 0 0 0 0 285.759786369832 53.586708006220306 0 53.586708006220306 17.70869518767131 0 0 0 0 0.83623184230403069 -1.7556800987314602 0 -1.7556800987314602 1.7628846038664747 0 0 0 0 253.7077911759261 211.94117659690164 0 211.94117659690164 62.720405606907661 0 0 0 0 230.04899094339635 -55.758028413451143 0 -55.758028413451143 -100.5368702744745 0 0 0 0 -199.11619770818652 -188.88566778252516 0 -188.88566778252516 93.860176076876087 0 0 0 0 -0.421880936536013 -0.52500292278875804 0 -0.52500292278875804 -1.9337140684436562 0 0 0 0 74.819044207921252 109.36606375559609 0 109.36606375559609 8.2167875207978796 0 0 0 0 82.259332010609796 -9.0997391093833357 0 -9.0997391093833357 -11.146950331874223 0 0 0 0 14.634469611393797 3.7759049468709236 0 3.7759049468709236 -17.075887496223913 0 0 0 0 30.494054382837817 16.720618348550005 0 16.720618348550005 8.4599549399605021 0 0 0 0 41.956734147839597 66.663252047012065 0 66.663252047012065 -13.405387841884362 0 0 0 0 3.4026047923994156 13.646869566746119 0 13.646869566746119 56.121714351884748 0 0 0 0 1.3619496494779924 46.101822982844091 0 46.101822982844091 5.611695600866824 0 0 0 0 19.544666940426396 11.278904523653182 0 11.278904523653182 12.445635741773458 0 0 0 0 103.66630328432075 28.294994287470331 0 28.294994287470331 2.3071695493867992 0 0 0 0 93.397797384648584 49.028178018810081 0 49.028178018810081 -21.845471054390828 0 0 0 0 -0.41668864433279396 19.562705009767583 0 19.562705009767583 9.8612239022830739 0 0 0 0 51.082393435783843 9.7084477748837976 0 9.7084477748837976 1.2811416913619693 0 0 0 0 74.538721659046132 -27.552239389204942 0 -27.552239389204942 -12.740545483481583 0 0 0 0 53.669512162610772 14.460691732031023 0 14.460691732031023 20.116129227898455 0 0 0 0 50.521682623697416 -18.775517272685306 0 -18.775517272685306 36.841095930952861 0 0 0 0 10.678293427102517 2.0464654343064552 0 2.0464654343064552 0.50328283402441265 0 0 0 0 99.726768350104976 8.1787338138026371 0 8.1787338138026371 -3.6696732637848157 0 0 0 0 64.895749963441631 -11.724823308193891 0 -11.724823308193891 -31.751109184368033 0 0 0 0 53.387748547432153 1.9737436025233492 0 1.9737436025233492 0.03656941023135446 0 0 0 0 21.416582828110535 -6.2530404827443675 0 -6.2530404827443675 5.5183706249931443 0 0 0 0 45.008729262000998 5.5029356398372329 0 5.5029356398372329 10.702944554543592 0 0 0 0 43.17179755885445 -20.695274488799214 0 -20.695274488799214 -3.6627956931947665 0 0 0 0 37.961464616534698 4.6971623467847925 0 4.6971623467847925 2.3738170867956625 0 0 0 0 45.426205141615355 8.361506286617896 0 8.361506286617896 14.216574122031034 0 0 0 0 49.13511120622934 19.588490077192773 0 19.588490077192773 41.435158045072512 0 0 0 0 37.385610676763463 -10.881747640008371 0 -10.881747640008371 57.502679362243271 0 0 0 0 64.893676487088669 -21.865937209639185 0 -21.865937209639185 19.843737398790495 0 0 0 0 68.754962439837982 -20.08595508084079 0 -20.08595508084079 15.848475111364564 0 0 0 0 -0.66340441577893383 -0.24455237343023839 0 -0.24455237343023839 8.9356004085259375 0 0 0 0 108.85571235007228 13.332359533971442 0 13.332359533971442 13.766226126870095 0 0 0 0 91.997740715882173 5.863931732476054 0 5.863931732476054 14.093785129724552 0 0 0 0 38.396728744568463 -10.937558237086478 0 -10.937558237086478 16.003048198733268 0 0 0 0 41.318329989298945 2.9989378907112041 0 2.9989378907112041 28.778519108339424 0 0 0 0 7.5209404946871565 -0.078117050572672042 0 -0.078117050572672042 15.315496836162254 0 0 0 0 44.630140235996805 6.1067012617659202 0 6.1067012617659202 10.223912079505723 0 0 0 0 43.6643980537483 5.5915275113047755 0 5.5915275113047755 12.418342789736244 0 0 0 0 31.550648166460054 2.1456441677192117 0 2.1456441677192117 3.1817653202140361 0 0 0 0 42.70388290056826 6.6846987503449391 0 6.6846987503449391 11.575127925912966 0 0 0 0 36.589033519572695 85.678891702664941 0 85.678891702664941 -145.67079283883839 0 0 0 0 38.316065285122022 217.23224472060349 0 217.23224472060349 -129.2583597099632 0 0 0 0 37.222794465025942 13.768875558543286 0 13.768875558543286 -0.95948634972073021 0 0 0 0 38.725873985750184 5.673645008626278 0 5.673645008626278 6.3536663301652787 0 0 0 0 40.288020803685868 4.3322204192018532 0 4.3322204192018532 3.2219324661382416 0 0 0 0 94.534197915447294 10.064550915762482 0 10.064550915762482 18.45385818996283 0 0 0 0 87.722322645677195 4.2750835230582425 0 4.2750835230582425 17.003039917286117 0 0 0 0 20.420177651833086 -2.7229988493321144 0 -2.7229988493321144 -5.0737523509628861 0 0 0 0 68.131991803646088 -1.7192476653196991 0 -1.7192476653196991 13.26228315910371 0 0 0 0 93.89540624234678 -0.28274046336685821 0 -0.28274046336685821 18.87164658310212 0 0 0 0 80.189048056367028 -2.9970870108992358 0 -2.9970870108992358 21.541120413889587 0 0 0 0 94.381788130387577 2.1181101897036285 0 2.1181101897036285 18.326660483725732 0 0 0 0 232.86967450413067 -23.192043981770439 0 -23.192043981770439 -191.33780292765846 0 0 0 0 80.851768220724949 -5.8116503278711695 0 -5.8116503278711695 -0.71760773210016171 0 0 0 0 50.527483756799484 -11.630124675868842 0 -11.630124675868842 34.369938551907353 0 0 0 0 75.039720690227568 -7.7607581922245945 0 -7.7607581922245945 0.2933416606745135 0 0 0 0 77.062198276094932 -67.091168569262209 0 -67.091168569262209 -39.501396550513391 0 0 0 0 67.882592470621603 -3.0020755624309459 0 -3.0020755624309459 33.226372082331181 0 0 0 0 76.331254479755444 0.9904331679883569 0 0.9904331679883569 24.252695072911877 0 0 0 0 63.560666923731333 5.887095771255872 0 5.887095771255872 26.870518200932267 0 0 0 0 78.843562636742718 3.2041459554118177 0 3.2041459554118177 25.408547887686915 0 0 0 0 79.50650443136692 4.0263790361385077 0 4.0263790361385077 17.597802048288365 0 0 0 0 92.881653638471107 8.564409337708323 0 8.564409337708323 17.876532245376296 0 0 0 0 73.586278470269463 13.465892997407153 0 13.465892997407153 21.34128643189834 0 0 0 0 86.903718395216856 12.090610960216765 0 12.090610960216765 17.189869593527987 0 0 0 0 57.060260244081292 -7.3167516033709887 0 -7.3167516033709887 40.867841290678825 0 0 0 0 67.659549278090708 -5.8403560827859451 0 -5.8403560827859451 -14.420385244548584 0 0 0 0 75.947521602955874 -2.8705038400938694 0 -2.8705038400938694 -0.27256184950154649 0 0 0 0 7.0526775563313322 1.100494853691421 0 1.100494853691421 0.016928627787266962 0 0 0 0 597.44181579681026 512.85238250150337 0 512.85238250150337 -75.844720844440189 0 0 0 0 173.52729643378552 -16.060891188972164 0 -16.060891188972164 -144.03460832150535 0 0 0 0 305.13146366951696 120.16758172417758 0 120.16758172417758 -36.977053692303798 0 0 0 0 76.449180095791235 -45.011302097263069 0 -45.011302097263069 55.782857861104503 0 0 0 0 102.74655612328934 -47.924535954152589 0 -47.924535954152589 141.29515498343181 0 0 0 0 184.02969215877238 74.258532900064665 0 74.258532900064665 188.01192851959604 0 0 0 0 167.151620677756 196.88428082945677 0 196.88428082945677 326.81137789547188 0 0 0 0 173.99904122720181 122.29157051467098 0 122.29157051467098 65.995318868624281 0 0 0 0 423.02002473446191 108.95499361353109 0 108.95499361353109 171.90347400301457 0 0 0 0 -240.33609077777965 -225.54855720174285 0 -225.54855720174285 132.52978632221834 0 0 0 0 408.82471714689018 266.26371032265013 0 266.26371032265013 106.02288611457925 0 0 0 0 -410.65513216958789 475.84023539602697 0 475.84023539602697 1041.0874302632551 0 0 0 0 78.395174820718239 -45.506537001560162 0 -45.506537001560162 -79.947768702967352 0 0 0 0 80.837433666039487 -5.4087926110197859 0 -5.4087926110197859 0.048186294888297065 0 0 0 0 291.26275169496512 -179.64754771044875 0 -179.64754771044875 -330.25317725706958 0 0 0 0 -50.672121796531428 -38.268905683674575 0 -38.268905683674575 624.53010915462949 0 0 0 0 322.03143845167506 -263.44318654967037 0 -263.44318654967037 264.80689809361752 0 0 0 0 52.565596548200119 63.187687814847777 0 63.187687814847777 9.65044457974426 0 0 0 0 -5.0296851028761012 -46.89820228301005 0 -46.89820228301005 176.35830669692928 0 0 0 0 10.991243264907098 9.7086260991109157 0 9.7086260991109157 314.75851566922677 0 0 0 0 -61.473987942634267 -132.54139486177201 0 -132.54139486177201 250.71118458327035 0 0 0 0 4.7458098031420377 -125.17082493078328 0 -125.17082493078328 136.66326932359141 0 0 0 0 0.35112468307896805 -0.14209646537969434 0 -0.14209646537969434 2.851883142603135 0 0 0 0 139.81409491379145 -27.472708097768805 0 -27.472708097768805 -73.49518423743757 0 0 0 0 83.318460928856439 282.72835029614703 0 282.72835029614703 169.90870453195896 0 0 0 0 33.739091533298392 11.350528775926684 0 11.350528775926684 8.2860820545759903 0 0 0 0 -77.533490432928375 -71.630920141983339 0 -71.630920141983339 307.89163505933539 0 0 0 0 173.23907926805259 50.197668851667288 0 50.197668851667288 14.171782150820547 0 0 0 0 86.653074001966161 13.621835073661416 0 13.621835073661416 21.494931531456018 0 0 0 0 20.83312847113848 -29.514266519500609 0 -29.514266519500609 24.697174672936342 0 0 0 0 18.829630710642959 26.619848290670234 0 26.619848290670234 -24.701024562711325 0 0 0 0 28.309994642899113 17.267397243251551 0 17.267397243251551 8.4950503781193412 0 0 0 0 4.7235443539179869 17.446848321188938 0 17.446848321188938 22.73612552424629 0 0 0 0 31.382197202226962 2.609943858726183 0 2.609943858726183 26.934736066164987 0 0 0 0 36.911336851078659 -2.8862963182433798 0 -2.8862963182433798 2.691616529603519 0 0 0 0 30.891839733274537 3.6598287045665074 0 3.6598287045665074 24.964995868243932 0 0 0 0 7.3326106882959721 -60.602914921722004 0 -60.602914921722004 189.0443217446732 0 0 0 0 -24.663244305884291 -58.730316041958758 0 -58.730316041958758 353.32587041782665 0 0 0 0 35.799381163431462 -7.4585032840400345 0 -7.4585032840400345 168.03076385467102 0 0 0 0 10.073069273737929 -3.5317942095509807 0 -3.5317942095509807 36.01145455744836 0 0 0 0 20.718655151584386 -5.517664550324147 0 -5.517664550324147 1.0090451254812312 0 0 0 0 77.264023867523065 1.9937168878316243 0 1.9937168878316243 180.15330793385283 0 0 0 0 6.8786265365607164 -1.3256149198418523 0 -1.3256149198418523 0.78474747523642741 0 0 0 0 -4.9877499612412066 -104.22083751702678 0 -104.22083751702678 662.99989576222333 0 0 0 0 176.99842232315132 35.332974085114529 0 35.332974085114529 25.664809070282899 0 0 0 0 29.326384836112993 30.180563010497281 0 30.180563010497281 70.159161658096309 0 0 0 0 5.2611180294680935 6.7879774853870529 0 6.7879774853870529 49.240218054119396 0 0 0 0 6.2461490051136934 -2.5838242883520479 0 -2.5838242883520479 41.33345326304152 0 0 0 0 -5.521712949310313 61.438709690601854 0 61.438709690601854 11.016953310865119 0 0 0 0 74.294792797241826 -17.569518928529249 0 -17.569518928529249 40.616105171167874 0 0 0 0 -25.422922995916451 -44.339659485432207 0 -44.339659485432207 315.17177390936411 0 0 0 0 298.38973252903088 -144.50169841993983 0 -144.50169841993983 108.75825428670628 0 0 0 0 332.49959063059214 164.69885227133358 0 164.69885227133358 78.016098258387586 0 0 0 0 1487.6379549988342 -487.40751714432338 0 -487.40751714432338 131.60276526582749 0 0 0 0 1531.2919440746045 -235.85806923955809 0 -235.85806923955809 -422.57410667540194 0 0 0 0 3501.4630000360517 502.83148901634075 0 502.83148901634075 -539.79439570534953 0 0 0 0 2662.1689310377551 549.63189722152106 0 549.63189722152106 -383.44110009316466 0 0 0 0 -6.2563279161258833 35.020718527273743 0 35.020718527273743 29.059064560356376 0 0 0 0 0.93223190395756461 2.5940734245833283 0 2.5940734245833283 -0.80875280912453462 0 0 0 0 70.222630857282638 25.345185370593981 0 25.345185370593981 -25.446384718433819 0 0 0 0 108.43996373554546 69.255459917303142 0 69.255459917303142 -18.721198744175638 0 0 0 0 73.628083849060204 21.207290096306195 0 21.207290096306195 -69.083909156311506 0 0 0 0 3495.146064538174 1362.8779456642465 0 1362.8779456642465 -138.10468787967096 0 0 0 0 11.368342047906296 6.1441473312589636 0 6.1441473312589636 -4.423405692044291 0 0 0 0 1051.7354367263324 735.51866742185166 0 735.51866742185166 765.44039432853174 0 0 0 0 2875.0678194581851 726.3735869912324 0 726.3735869912324 -263.25661304855322 0 0 0 0 2482.5259313089045 -922.40285006620809 0 -922.40285006620809 343.31515320873478 0 0 0 0 2101.50153404499 1834.5434497324536 0 1834.5434497324536 1395.7863552376946 0 0 0 0 8.7236314746871813 0.54108197646110456 0 0.54108197646110456 1.010316499879977 0 0 0 0 63.824172288914269 12.963214782967157 0 12.963214782967157 35.790878863078433 0 0 0 0 78.097053972327558 5.3516504469477582 0 5.3516504469477582 6.1179493136114615 0 0 0 0 58.420220533604805 -2.2960350936507199 0 -2.2960350936507199 0.56478011597576161 0 0 0 0 56.13033014040272 -6.4072129591091693 0 -6.4072129591091693 -0.29400977244300125 0 0 0 0 77.752695143455639 8.0242445043213593 0 8.0242445043213593 1.0413347112273357 0 0 0 0 88.677933030823624 -63.414040032214885 0 -63.414040032214885 11.688460564440902 0 0 0 0 88.738798820530064 -20.19201629114491 0 -20.19201629114491 -80.485869921052995 0 0 0 0 36.462954509835981 12.896392827993736 0 12.896392827993736 88.011450689221874 0 0 0 0 97.896299864878529 48.802426197354634 0 48.802426197354634 -9.2566406327527631 0 0 0 0 60.38158272704905 -6.6161580296855034 0 -6.6161580296855034 0.22247363427073868 0 0 0 0 151.21513974364279 -38.037220884488676 0 -38.037220884488676 -105.87882614754767 0 0 0 0 63.556663339427644 -6.9394474738803416 0 -6.9394474738803416 0.31780702247240622 0 0 0 0 -76.499980689754011 14.373492907934406 0 14.373492907934406 129.83569958747665 0 0 0 0 -4.7217499935941305 -104.73945480585735 0 -104.73945480585735 -66.640454509037227 0 0 0 0 33.433500716229901 -32.994905490149904 0 -32.994905490149904 -110.85424019602578 0 0 0 0 2.8525700175156317 -6.7771014389390558 0 -6.7771014389390558 -2.123043123975731 0 0 0 0 8.6962499597367469 5.4593783543306813 0 5.4593783543306813 -5.4878800582315979 0 0 0 0 148.73687673640961 -10.658085201876133 0 -10.658085201876133 -106.31228568131064 0 0 0 0 59.25509641242752 -21.666892376904741 0 -21.666892376904741 42.213086085540908 0 0 0 0 57.52137808065163 -33.515939194761813 0 -33.515939194761813 -2.2938539272833047 0 0 0 0 51.558295554106735 -39.237619280596519 0 -39.237619280596519 32.790934279510395 0 0 0 0 68.687546518905293 -7.4091899024057817 0 -7.4091899024057817 0.28238025730168054 0 0 0 0 24.972099474776769 -18.562590149140647 0 -18.562590149140647 37.316219296766576 0 0 0 0 57.840960364410421 -16.581092354571354 0 -16.581092354571354 30.342058604572429 0 0 0 0 70.677746235738596 -6.3142618035839462 0 -6.3142618035839462 35.292244720241342 0 0 0 0 64.764672799791697 2.1149632204446438 0 2.1149632204446438 22.928380849681375 0 0 0 0 46.725190992052376 1.1359414664319587 0 1.1359414664319587 33.158225041421062 0 0 0 0 49.772242174508392 -13.055799502644984 0 -13.055799502644984 47.587602800727325 0 0 0 0 78.010244562910884 -62.366950290969221 0 -62.366950290969221 43.26863427543168 0 0 0 0 21.924844441156893 4.37869971443304 0 4.37869971443304 36.744033319328295 0 0 0 0 19.695184069823881 -21.171450172191385 0 -21.171450172191385 119.19583595644912 0 0 0 0 41.240816982128308 24.20366219758732 0 24.20366219758732 12.108038155754286 0 0 0 0 47.285344255191262 -1.7665782651524626 0 -1.7665782651524626 0.04336868289879009 0 0 0 0 50.35286458797782 32.310492499114844 0 32.310492499114844 -92.112894983383853 0 0 0 0 47.455701069906354 11.178586625718651 0 11.178586625718651 18.185245241850168 0 0 0 0 46.914581078730407 1.6028704813618617 0 1.6028704813618617 27.888467421639689 0 0 0 0 63.041655231805635 9.642522995210868 0 9.642522995210868 -36.600751720626135 0 0 0 0 62.52599597680819 -4.624989695117165 0 -4.624989695117165 7.2503596062386748 0 0 0 0 0.53493561447248794 1.339784372877034 0 1.339784372877034 302.9080014811251 0 0 0 0 27.812058601157332 -14.852533120578755 0 -14.852533120578755 -151.23864095699582 0 0 0 0 20.198130339766095 2.0399660073652193 0 2.0399660073652193 -0.10540259490846218 0 0 0 0 61.081124959713179 -1.7982874464516119 0 -1.7982874464516119 -0.02403678152948252 0 0 0 0 10.582366777656716 162.72338621453719 0 162.72338621453719 299.77460440547554 0 0 0 0 17.943157918230099 36.605516441995128 0 36.605516441995128 248.37590018488345 0 0 0 0 -1.850840449144016 -38.266880886605122 0 -38.266880886605122 -77.229185603506039 0 0 0 0 -33.696367528333212 -27.894070288834769 0 -27.894070288834769 27.184930809170964 0 0 0 0 -15.615994624240557 -54.503648039564041 0 -54.503648039564041 28.107162603896612 0 0 0 0 -11.042122783721425 -53.49784719226443 0 -53.49784719226443 23.453016586531703 0 0 0 0 -54.547757681175426 45.51398588115353 0 45.51398588115353 -45.963617384939084 0 0 0 0 -11.36861719704757 -27.793136140731008 0 -27.793136140731008 42.929252497074685 0 0 0 0 -28.75841729145759 -71.527777617617517 0 -71.527777617617517 131.62710230981941 0 0 0 0 74.338515147825319 -9.1639242718760023 0 -9.1639242718760023 40.54511826410976 0 0 0 0 -49.456674513792677 -67.958233346945235 0 -67.958233346945235 12.852115861446464 0 0 0 0 30.249608475217286 2.2109692491473583 0 2.2109692491473583 -0.50992317983662394 0 0 0 0 73.872861059942807 -74.025345300464551 0 -74.025345300464551 -299.19346978548037 0 0 0 0 -65.02490790032607 79.151795697711691 0 79.151795697711691 293.74641561770096 0 0 0 0 -106.36240148288198 -119.29329841519916 0 -119.29329841519916 -159.62554792396622 0 0 0 0 111.33803239834469 -126.29487924452883 0 -126.29487924452883 150.87944281366902 0 0 0 0 -16.961183330757194 -48.045203580508314 0 -48.045203580508314 -78.319799467546318 0 0 0 0 -35.962279916071566 -7.1084333403437086 0 -7.1084333403437086 -99.628566922817299 0 0 0 0 17.885618641841575 6.852684849896832 0 6.852684849896832 -215.0737583641544 0 0 0 0 -18.692270856234245 -40.825204405505133 0 -40.825204405505133 -51.886365463992661 0 0 0 0 -23.621045345069433 -41.354046681601631 0 -41.354046681601631 9.8279883930099459 0 0 0 0 2.924552852215129 -66.872370165327993 0 -66.872370165327993 -90.080321658972821 0 0 0 0 -11.313097522652242 -74.958991644495427 0 -74.958991644495427 21.226083012868543 0 0 0 0 -24.883402771396504 -47.876727594002318 0 -47.876727594002318 79.24383506617869 0 0 0 0 8.2737288868956966 -101.02818593403663 0 -101.02818593403663 -15.912306180833866 0 0 0 0 -6.2774160845438018 -119.35670667118825 0 -119.35670667118825 107.91817029712206 0 0 0 0 54.541139606146317 -122.77199093367398 0 -122.77199093367398 -42.535985678316763 0 0 0 0 12.871813635046237 -49.071832748599562 0 -49.071832748599562 -36.414018995104016 0 0 0 0 -5.8206003748855437 -87.844719206417381 0 -87.844719206417381 -55.840364149684774 0 0 0 0 22.384083024968277 -94.277325013778182 0 -94.277325013778182 -156.28272215110326 0 0 0 0 51.34726285191573 -49.573349154279299 0 -49.573349154279299 -138.41548044329625 0 0 0 0 33.794269403122598 3.7850075767819362 0 3.7850075767819362 73.617575822847471 0 0 0 0 132.87222607885633 -104.32466218684226 0 -104.32466218684226 -205.82910341242564 0 0 0 0 348.55611758610758 58.491052255598106 0 58.491052255598106 16.296176584278442 0 0 0 0 117.01175097760279 62.942204084544755 0 62.942204084544755 29.875725968720189 0 0 0 0 3.2686232893934175 -2.501255905264216 0 -2.501255905264216 -0.8024904120575399 0 0 0 0 29.481578149840061 -169.45054367148398 0 -169.45054367148398 -181.21944719770545 0 0 0 0 209.06793527680566 -62.003829575405007 0 -62.003829575405007 -494.98626591638686 0 0 0 0 128.559231338877 20.059153643139439 0 20.059153643139439 -5.3997587676956584 0 0 0 0 35.454554678077642 4.8805706936832962 0 4.8805706936832962 -0.053623958452549469 0 0 0 0 1.0942851653671823 67.741439302652907 0 67.741439302652907 -245.99018374706452 0 0 0 0 67.139352912068716 -79.019163034808457 0 -79.019163034808457 266.7073404889934 0 0 0 0 35.121170508191796 -2.2924333083321766 0 -2.2924333083321766 0.2137540219559193 0 0 0 0 -6.5687307272019098 -18.625810632746493 0 -18.625810632746493 330.74737280489796 0 0 0 0 116.91885530812215 -12.848560000666708 0 -12.848560000666708 -304.53330260755706 0 0 0 0 86.463438379592844 12.40104074795488 0 12.40104074795488 316.46480784270295 0 0 0 0 144.69925820342178 210.78158796274533 0 210.78158796274533 -11.554275950010208 0 0 0 0 2.3362742501849425 72.02530674554032 0 72.02530674554032 64.298000316125638 0 0 0 0 27.784552731922304 20.041836778367411 0 20.041836778367411 47.554931712142178 0 0 0 0 3491.5216512175393 -770.84877889942663 0 -770.84877889942663 -357.74802764138946 0 0 0 0 -44.421062773471931 -111.97669056580253 0 -111.97669056580253 420.47386710351543 0 0 0 0 -659.53708692843793 198.05822429342396 0 198.05822429342396 699.75986328281863 0 0 0 0 14.3058240883434 -2.2962099455584646 0 -2.2962099455584646 1.3105477952374927 0 0 0 0 1334.6812658576127 -1273.3317395245911 0 -1273.3317395245911 736.36878374948026 0 0 0 0 889.93948430815362 150.39495639726522 0 150.39495639726522 541.30427996443814 0 0 0 0 3476.5181532086863 -184.87200809014422 0 -184.87200809014422 -219.24611411744198 0 0 0 0 1497.9443479604233 -610.00243142396903 0 -610.00243142396903 -120.97348242740358 0 0 0 0 72.090646020660643 249.26099563059705 0 249.26099563059705 482.64887117705604 0 0 0 0 5.6508181821111805 0.30214914302958373 0 0.30214914302958373 0.23113228652540874 0 0 0 0 3479.72346105826 -86.761595711937744 0 -86.761595711937744 -226.52370399105791 0 0 0 0 -123.94844571584326 175.5019690110727 0 175.5019690110727 11.210797297104577 0 0 0 0 24.282336614470978 7.8934945499769675 0 7.8934945499769675 3.0751047467812889 0 0 0 0 72.090646020616987 26.475036943772665 0 26.475036943772665 3.0605072246902196 0 0 0 0 187.76382214866953 298.38421382357694 0 298.38421382357694 -573.35906825611664 0 0 0 0 11.156728356368291 4.6738580877265861 0 4.6738580877265861 1.2872745389626921 0 0 0 0 -73.664411521138391 -175.94759317675999 0 -175.94759317675999 55.29823842431783 0 0 0 0 559.51003269152716 1455.9818242852662 0 1455.9818242852662 1248.8126424833106 0 0 0 0 9.4181782705961155 5.8838655585707826 0 5.8838655585707826 3.8580272447878885 0 0 0 0 3491.1703215993402 1847.1238980060871 0 1847.1238980060871 164.15223246984459 0 0 0 0 1608.2682964141786 625.95562725417813 0 625.95562725417813 -147.75662598580223 0 0 0 0 1037.046727474386 894.86234600185378 0 894.86234600185378 714.68121955391825 0 0 0 0 1396.121852888482 31.926906592999678 0 31.926906592999678 185.71949136577786 0 0 0 0 1906.3534902018655 601.1274621672917 0 601.1274621672917 -164.09984934753544 0 0 0 0 3504.3115571320559 114.05132309573665 0 114.05132309573665 -481.8562344938814 0 0 0 0 125.69749924929783 -116.42610668266929 0 -116.42610668266929 200.97456395467725 0 0 0 0 207.40784076121781 81.701320127800244 0 81.701320127800244 285.78832253002298 0 0 0 0 263.85499983229602 75.98266372104473 0 75.98266372104473 308.22968735831034 0 0 0 0 378.64805316042111 -35.901798015208996 0 -35.901798015208996 331.22360095141738 0 0 0 0 810.34157065465843 422.11023361940181 0 422.11023361940181 402.98127397563997 0 0 0 0 374.75528091975139 106.30248995131156 0 106.30248995131156 414.80341542882894 0 0 0 0 61.489649949577142 -71.470019793115654 0 -71.470019793115654 329.34290526059414 0 0 0 0 104.08934761359706 62.584874656473886 0 62.584874656473886 349.32541442447155 0 0 0 0 120.26451277636079 138.80841531183924 0 138.80841531183924 466.34627648048581 0 0 0 0 216.80138190657453 -53.401123139446234 0 -53.401123139446234 415.30695230665981 0 0 0 0 994.53911916267316 -19.075898756401699 0 -19.075898756401699 287.68748364617932 0 0 0 0 445.59348850019887 -92.47102875928698 0 -92.47102875928698 445.06813989774957 0 0 0 0 144.54924400321033 169.0980889222198 0 169.0980889222198 413.02341439560865 0 0 0 0 283.05134291138893 148.98024668907453 0 148.98024668907453 59.702321963796749 0 0 0 0 1775.4884977764159 -363.0542151660315 0 -363.0542151660315 -277.96468663298685 0 0 0 0 1091.9692581907802 161.00675062852926 0 161.00675062852926 197.03438100580431 0 0 0 0 3487.1917771347544 -834.16003085870182 0 -834.16003085870182 -169.35230285321501 0 0 0 0 477.08658327127796 193.51563124473518 0 193.51563124473518 -31.804473449868283 0 0 0 0 101.82985031003045 -1073.3103209641531 0 -1073.3103209641531 488.73260265706705 0 0 0 0 18.697619034912236 -6.5422936757979713 0 -6.5422936757979713 2.1805527774544355 0 0 0 0 3494.8042773237516 1892.3407856880203 0 1892.3407856880203 860.9253547645859 0 0 0 0 1684.8826215941335 1040.2807805237944 0 1040.2807805237944 559.11439134592661 0 0 0 0 132.75550895415654 90.918944566178652 0 90.918944566178652 -49.672984653324647 0 0 0 0 130.41772595874136 -279.87037245507992 0 -279.87037245507992 -505.2161788651855 0 0 0 0 107.18274469981407 45.492960638568491 0 45.492960638568491 26.778187661487323 0 0 0 0 41.789940087902039 -20.054053208291993 0 -20.054053208291993 3.6801959818370915 0 0 0 0 1200.3669779659249 452.09233866512341 0 452.09233866512341 -150.21701720379838 0 0 0 0 1851.4265962952377 477.48707984354314 0 477.48707984354314 -234.98573314223546 0 0 0 0 72.237534169798892 -129.59561577626744 0 -129.59561577626744 -273.57401453408988 0 0 0 0 137.03744467758952 17.667839022687417 0 17.667839022687417 -229.1197594927246 0 0 0 0 514.54529814048146 -329.80498480657099 0 -329.80498480657099 -130.49876558407391 0 0 0 0 49.817508436388593 -25.987691122376123 0 -25.987691122376123 6.4792934155846833 0 0 0 0 510.6355507000917 -329.05114308142481 0 -329.05114308142481 176.15989919491972 0 0 0 0 1.9693025300460327 -0.09328014167000731 0 -0.09328014167000731 -1.5418440010599941 0 0 0 0 1809.8806796272656 306.91920628561832 0 306.91920628561832 -538.98814157147228 0 0 0 0 3501.5209302990315 948.24938136782532 0 948.24938136782532 -470.49590542956429 0 0 0 0 1056.0670223507614 887.37915715956126 0 887.37915715956126 10.672693295373506 0 0 0 0 1329.9682778150272 353.28529762723531 0 353.28529762723531 -117.29256991603057 0 0 0 0 120.40532435801288 54.985028572527881 0 54.985028572527881 -49.115811340578006 0 0 0 0 97.362008449279529 13.575362282643539 0 13.575362282643539 -38.390067554812845 0 0 0 0 99.450967908283928 17.843149607844282 0 17.843149607844282 -7.2258142532709826 0 0 0 0 106.53756477370189 27.297611785046797 0 27.297611785046797 -7.0741839235475084 0 0 0 0 115.28470883194677 6.1267076150173807 0 6.1267076150173807 -7.2926769650804619 0 0 0 0 109.91222720961377 11.085715570482307 0 11.085715570482307 -8.7820068194332634 0 0 0 0 109.4603882624142 6.8314370206950343 0 6.8314370206950343 -31.00774587998481 0 0 0 0 112.51587728271625 27.453076775555019 0 27.453076775555019 -27.669357110081819 0 0 0 0 102.07742620322097 13.547528441537338 0 13.547528441537338 -47.81789549793865 0 0 0 0 49.055168688394588 -48.299482978997631 0 -48.299482978997631 -114.34213312056727 0 0 0 0 116.49127910777861 92.563357989838778 0 92.563357989838778 19.187712575902651 0 0 0 0 126.76124651869759 103.99490427513214 0 103.99490427513214 -82.646108143573656 0 0 0 0 113.98843046637921 61.577440600568593 0 61.577440600568593 -6.1829395964912237 0 0 0 0 164.7568511393074 141.18560620746837 0 141.18560620746837 29.332185185252911 0 0 0 0 80.251344268959656 96.521154682168742 0 96.521154682168742 141.43166929664676 0 0 0 0 80.94700515117438 94.716033742095874 0 94.716033742095874 95.263551446046222 0 0 0 0 84.581178409869608 63.122010820148603 0 63.122010820148603 67.055426200154784 0 0 0 0 86.866783582061544 65.973842663732142 0 65.973842663732142 42.825850147529536 0 0 0 0 101.27254635021018 45.772759919036389 0 45.772759919036389 30.533126532631286 0 0 0 0 91.293116238746734 47.265440030089735 0 47.265440030089735 36.060040745124979 0 0 0 0 96.49724751416943 29.353035630463182 0 29.353035630463182 47.438697405000994 0 0 0 0 101.76659422933881 41.922476979801672 0 41.922476979801672 -3.9500799661331172 0 0 0 0 78.927001962940267 38.984025306235253 0 38.984025306235253 64.46493417162219 0 0 0 0 76.139557440437784 39.632325089704239 0 39.632325089704239 104.38927404415358 0 0 0 0 54.337766491415096 6.6451442574369821 0 6.6451442574369821 164.62446678881861 0 0 0 0 54.713229091830726 6.620142492784197 0 6.620142492784197 118.24535724975294 0 0 0 0 49.04391077796754 44.452494503398725 0 44.452494503398725 116.52322493316717 0 0 0 0 50.358912238385528 53.107721037568027 0 53.107721037568027 165.81005602916343 0 0 0 0 14.358601670544886 2.0042026043069541 0 2.0042026043069541 211.34644990820243 0 0 0 0 1.7653171834172099 14.198685825712516 0 14.198685825712516 228.23638140857202 0 0 0 0 -15.198716476661502 -27.425433025230632 0 -27.425433025230632 199.32330775576855 0 0 0 0 48.287423440862767 -35.606294018188407 0 -35.606294018188407 181.75338681178891 0 0 0 0 70.869976354966639 -24.964367106788927 0 -24.964367106788927 141.26033229010932 0 0 0 0 16.634092644646444 -6.652349376752511 0 -6.652349376752511 159.95957866549998 0 0 0 0 81.832519875541038 147.35197956889948 0 147.35197956889948 302.68809387885278 0 0 0 0 82.032934275977823 127.45371427761833 0 127.45371427761833 159.24994144738992 0 0 0 0 29.882243919470056 64.072530224578941 0 64.072530224578941 186.43872192752451 0 0 0 0 31.222417268400022 78.983356318897847 0 78.983356318897847 260.38067793142528 0 0 0 0 -9.8119142092764378 7.3664529131102654 0 7.3664529131102654 224.20505657929823 0 0 0 0 -3.6521353927309974 35.307939729730833 0 35.307939729730833 301.3688240853898 0 0 0 0 110.93372752519645 94.058656791317645 0 94.058656791317645 276.22638727915546 0 0 0 0 30.000641476697638 61.147471698413995 0 61.147471698413995 248.19500836654595 0 0 0 0 40.131460954456998 98.919030494201763 0 98.919030494201763 365.82816092896689 0 0 0 0 39.580369458068162 -13.425173991594363 0 -13.425173991594363 346.89984684603604 0 0 0 0 18.05470080359737 19.939312708885723 0 19.939312708885723 296.44817580081155 0 0 0 0 -11.180728011240717 -63.203611258585511 0 -63.203611258585511 291.7336003939742 0 0 0 0 -9.468056044603145 -20.614502712920654 0 -20.614502712920654 267.53771751309057 0 0 0 0 -27.534046017281071 -39.054572849694665 0 -39.054572849694665 221.84136269197552 0 0 0 0 -12.511703337608196 -7.9386439696212392 0 -7.9386439696212392 244.71790582751942 0 0 0 0 -43.779470039437001 -52.282517062824581 0 -52.282517062824581 235.80838666624098 0 0 0 0 -30.395618734532036 -100.91670730755618 0 -100.91670730755618 145.83248019531959 0 0 0 0 -7.9850330650442629 -35.84470623600663 0 -35.84470623600663 182.24116472210903 0 0 0 0 5.4808061437215656 -23.648347352868541 0 -23.648347352868541 175.31644990885866 0 0 0 0 60.658811937799328 -42.405949522128793 0 -42.405949522128793 181.40451374838244 0 0 0 0 47.042691184899013 -70.767435660121464 0 -70.767435660121464 171.77174513656428 0 0 0 0 3.6681631190331245 -53.223566491849567 0 -53.223566491849567 175.63171343717841 0 0 0 0 7.6605890827304393 -41.512697338665419 0 -41.512697338665419 203.76178091213706 0 0 0 0 -8.1277786930804723 -7.0242144374307145 0 -7.0242144374307145 245.126860288942 0 0 0 0 -20.343025931084412 -32.685349801872576 0 -32.685349801872576 211.52117290098352 0 0 0 0 -31.834156554818037 -64.440324089575029 0 -64.440324089575029 191.05876602774288 0 0 0 0 -14.672799227788346 -51.119407024681095 0 -51.119407024681095 170.9965189569316 0 0 0 0 -28.085308607031038 -74.511309410770821 0 -74.511309410770821 170.77714988487151 0 0 0 0 -42.263032355876931 -69.889273489638981 0 -69.889273489638981 120.08219013183407 0 0 0 0 -30.304863416633452 -40.275299502758912 0 -40.275299502758912 135.5869984024406 0 0 0 0 -19.089033495496551 -75.012516441562241 0 -75.012516441562241 128.44971131946636 0 0 0 0 -29.978590474616794 -46.469845510513665 0 -46.469845510513665 119.74229373738535 0 0 0 0 43.470703700935701 -62.125921404788528 0 -62.125921404788528 125.46093338352682 0 0 0 0 -12.904058497490496 -79.767418752793247 0 -79.767418752793247 176.84797136659131 0 0 0 0 43.355112329118128 -57.579089444090073 0 -57.579089444090073 206.34388342503939 0 0 0 0 97.696410116841435 -93.646480372912606 0 -93.646480372912606 163.00165616520565 0 0 0 0 46.670853323337269 -75.37237296238365 0 -75.37237296238365 162.17656180368158 0 0 0 0 135.57455177751035 -62.476825995705667 0 -62.476825995705667 132.69623462343964 0 0 0 0 110.03388108200306 -12.25990718409264 0 -12.25990718409264 82.211996059759258 0 0 0 0 244.50506587224663 -76.525650194391687 0 -76.525650194391687 99.755240085281685 0 0 0 0 109.10708588248235 -4.1901167673503323 0 -4.1901167673503323 430.18733008869572 0 0 0 0 279.51627400317739 -119.12323620007231 0 -119.12323620007231 149.00139747532421 0 0 0 0 207.76587236110936 -148.60261616046978 0 -148.60261616046978 264.89369496933773 0 0 0 0 105.70225672926972 -58.949705855210766 0 -58.949705855210766 194.92734174670204 0 0 0 0 3.9084902604505487 -2.2679579368151295 0 -2.2679579368151295 1.5664108499019771 0 0 0 0 213.58212744070624 84.854557176869093 0 84.854557176869093 49.724132649001831 0 0 0 0 32.643748307731585 16.483829944039968 0 16.483829944039968 96.575082648638954 0 0 0 0 61.454698399465997 64.232807459737614 0 64.232807459737614 94.789526543857463 0 0 0 0 112.39832364546965 46.092722859339631 0 46.092722859339631 84.800169383492062 0 0 0 0 33.695150835177628 44.636585236054827 0 44.636585236054827 109.8650946689238 0 0 0 0 53.149152729513844 31.037988470232889 0 31.037988470232889 87.132808632315346 0 0 0 0 51.860632997169432 42.951110738933785 0 42.951110738933785 107.51208914023755 0 0 0 0 64.265855508070672 34.812841395669238 0 34.812841395669238 82.062953494123235 0 0 0 0 91.736927956346335 14.242078608729514 0 14.242078608729514 77.570169208861785 0 0 0 0 79.763789471315249 1.8921126397824537 0 1.8921126397824537 92.523150697488404 0 0 0 0 88.825978759621648 -10.09986462723316 0 -10.09986462723316 108.2409724320122 0 0 0 0 70.70639584831406 -19.413493377118272 0 -19.413493377118272 104.63049853332973 0 0 0 0 114.58336182353196 -4.7396277489577319 0 -4.7396277489577319 91.529821150077851 0 0 0 0 4.7770914166540024 4.9918623077794564 0 4.9918623077794564 -78.490496082161371 0 0 0 0 33.236417107007583 -23.341070030302944 0 -23.341070030302944 17.64278668660404 0 0 0 0 25.577693581845665 -7.9802327862993572 0 -7.9802327862993572 9.4619008060007062 0 0 0 0 109.4313687718568 -62.873847559909564 0 -62.873847559909564 -128.02219932795379 0 0 0 0 27.890737059060484 82.365867212458397 0 82.365867212458397 12.408186951022799 0 0 0 0 0.45120527476072425 1.3401347983237244 0 1.3401347983237244 3.6344636323993882 0 0 0 0 175.41323673191073 -26.118041690376458 0 -26.118041690376458 -90.015025879909444 0 0 0 0 53.654705672979617 -117.13176809620757 0 -117.13176809620757 179.25089718749541 0 0 0 0 -1.675770586291037 21.870979273361627 0 21.870979273361627 2.2166933128305573 0 0 0 0 4.9418653209359036 -15.948773371498305 0 -15.948773371498305 62.921673611564074 0 0 0 0 45.327723219728796 -39.745771132354776 0 -39.745771132354776 35.946589714129004 0 0 0 0 56.285945785755757 -2.4790586945362065 0 -2.4790586945362065 4.9121384907006131 0 0 0 0 19.202660312259553 -8.5563045779730302 0 -8.5563045779730302 2.8231640645194722 0 0 0 0 -36.568568831142329 4.5430283800096731 0 4.5430283800096731 166.0561250308823 0 0 0 0 39.914908545120852 -105.77552262217301 0 -105.77552262217301 -1.1723256694617703 0 0 0 0 11.974340830870574 -5.8410096007092278 0 -5.8410096007092278 2.8614290850575803 0 0 0 0 -3.863142445567064 -53.067190494666875 0 -53.067190494666875 170.58327444934343 0 0 0 0 51.925934980283273 7.6425512320843154 0 7.6425512320843154 18.22188170930167 0 0 0 0 12.105613340849231 29.318513437130434 0 29.318513437130434 73.055036316376231 0 0 0 0 49.396902220911215 28.1342355392363 0 28.1342355392363 66.023776887587701 0 0 0 0 36.269010478179553 25.251836274072616 0 25.251836274072616 92.115439096773457 0 0 0 0 36.520042708303663 30.173426648409247 0 30.173426648409247 145.54718171046795 0 0 0 0 74.661938300159818 68.296537100589262 0 68.296537100589262 103.71385792692206 0 0 0 0 89.109666726825253 -9.9504961986396623 0 -9.9504961986396623 51.717425133942243 0 0 0 0 30.673062502144603 -34.144719111066934 0 -34.144719111066934 55.294313473449506 0 0 0 0 4.0581589531066129 -15.186249334045669 0 -15.186249334045669 138.85924387449947 0 0 0 0 0.34220892610292708 -1.334664663454582 0 -1.334664663454582 6.2621405634036602 0 0 0 0 -1.4000246867872193 -36.556723809935647 0 -36.556723809935647 79.897973936393953 0 0 0 0 -42.796540254836145 -14.599975097646166 0 -14.599975097646166 71.928066955060785 0 0 0 0 0.83843437258801146 -12.647290441411855 0 -12.647290441411855 41.426085895670624 0 0 0 0 -27.923320354762836 10.694000469113234 0 10.694000469113234 50.652489598775901 0 0 0 0 1.7147441959532443 11.311681292243975 0 11.311681292243975 37.495658796407042 0 0 0 0 -3.4938152740328405 5.2076737946144789 0 5.2076737946144789 8.6023162562465618 0 0 0 0 -3.5391471321199788 5.5631029559954186 0 5.5631029559954186 83.8390045301594 0 0 0 0 5.0061515240285814 13.409741832693143 0 13.409741832693143 30.75948790398725 0 0 0 0 -9.5005985468160361 12.008559178604628 0 12.008559178604628 45.146393852184701 0 0 0 0 -21.008742210426135 15.69726819097923 0 15.69726819097923 51.971675489632617 0 0 0 0 -60.600532862736145 26.481134660451062 0 26.481134660451062 52.320119902578881 0 0 0 0 -27.686729967223073 24.083622195199496 0 24.083622195199496 52.37936301449372 0 0 0 0 34.28828636795879 23.750408301874707 0 23.750408301874707 53.319139341902655 0 0 0 0 222.05317323474083 -417.95200563836283 0 -417.95200563836283 278.9753763125791 0 0 0 0 30.815526646845683 33.468658630127038 0 33.468658630127038 68.081405651568531 0 0 0 0 33.537773022431793 32.879078891252618 0 32.879078891252618 54.112352312916528 0 0 0 0 56.50051862422697 76.412112341011493 0 76.412112341011493 136.50659589671849 0 0 0 0 33.248190263355355 30.911701801248867 0 30.911701801248867 52.925004630534431 0 0 0 0 72.229965862366953 59.374013963442508 0 59.374013963442508 -8.2964827687817433 0 0 0 0 58.113647323177076 22.463712597364278 0 22.463712597364278 6.9187993631002813 0 0 0 0 48.634125121563557 311.90215359057584 0 311.90215359057584 -207.97175940917714 0 0 0 0 42.704201508277038 29.632562467939351 0 29.632562467939351 34.402385851857957 0 0 0 0 74.127778940288408 29.195879024476199 0 29.195879024476199 -46.065704112181265 0 0 0 0 117.15135346514217 40.721689589362427 0 40.721689589362427 33.911944866724753 0 0 0 0 76.728704285460481 -17.136929894468523 0 -17.136929894468523 70.486061247058842 0 0 0 0 46.850874808711524 35.413932191515471 0 35.413932191515471 30.289397636536933 0 0 0 0 59.494366333085054 -76.627269067444558 0 -76.627269067444558 125.84050698950523 0 0 0 0 0.18906822040935367 1.5988075711472902 0 1.5988075711472902 162.13280316132023 0 0 0 0 -0.013626498685809452 0.43095938532399813 0 0.43095938532399813 1.9476015578539645 0 0 0 0 71.983639983132889 49.057329211846991 0 49.057329211846991 77.869819081707192 0 0 0 0 56.43469930325179 21.475730697655496 0 21.475730697655496 7.9165741419018056 0 0 0 0 92.669520234685478 118.16819577358683 0 118.16819577358683 -28.177119478744316 0 0 0 0 -28.587536084989551 -75.128740711400951 0 -75.128740711400951 156.08982578904761 0 0 0 0 36.586864103839616 -77.443006047245035 0 -77.443006047245035 5.0427926289457901 0 0 0 0 25.990926484115334 -50.277338435789716 0 -50.277338435789716 139.13027892248101 0 0 0 0 35.884589426023012 -4.2072018101525828 0 -4.2072018101525828 185.43914725064315 0 0 0 0 124.20801386623498 -75.250038607426632 0 -75.250038607426632 120.9679833002665 0 0 0 0 38.064077050225933 -9.7789872091541383 0 -9.7789872091541383 106.19874857938521 0 0 0 0 144.05144430946166 24.045593675949021 0 24.045593675949021 49.946098501666711 0 0 0 0 104.76662077138462 21.393043330995624 0 21.393043330995624 82.456698087758923 0 0 0 0 371.01437405555043 -42.234154138246595 0 -42.234154138246595 65.391630010271001 0 0 0 0 231.3941492505619 -229.59945878009512 0 -229.59945878009512 230.48401089351137 0 0 0 0 -225.94378595883609 336.96389326205735 0 336.96389326205735 658.51134608644861 0 0 0 0 93.130779905586678 5.0465933155430776 0 5.0465933155430776 48.987694024961939 0 0 0 0 105.11378973622777 51.637896357699333 0 51.637896357699333 52.25871350920422 0 0 0 0 84.839329849790374 29.634363949707733 0 29.634363949707733 78.254114170153571 0 0 0 0 102.56370581130977 19.249534515735775 0 19.249534515735775 62.996842628385139 0 0 0 0 77.500739877938031 5.6676975373807181 0 5.6676975373807181 72.587184676456445 0 0 0 0 71.632511802268709 23.57392103072749 0 23.57392103072749 62.337971044203869 0 0 0 0 57.933552077196509 22.838551032529722 0 22.838551032529722 62.739741816872311 0 0 0 0 42.407628762382956 28.912645921894637 0 28.912645921894637 62.506738426296351 0 0 0 0 51.817051530646495 7.1890917333542106 0 7.1890917333542106 10.924838946506043 0 0 0 0 64.287809093584656 5.0414352304392196 0 5.0414352304392196 34.514097810409794 0 0 0 0 61.09186342798057 38.370749570234238 0 38.370749570234238 20.882499594794183 0 0 0 0 46.348738553322619 10.525633953703959 0 10.525633953703959 -9.7302935197549232 0 0 0 0 68.670983295181941 23.833525498296581 0 23.833525498296581 -36.716862111589307 0 0 0 0 52.316852245656889 20.077324250457043 0 20.077324250457043 7.6030725251078479 0 0 0 0 57.734708740499627 45.330160424467977 0 45.330160424467977 -33.738078969615913 0 0 0 0 44.597176357019634 -4.7930342457011648 0 -4.7930342457011648 69.296718288393095 0 0 0 0 17.183118133349126 30.42110365945075 0 30.42110365945075 43.758063353621765 0 0 0 0 58.101182877679094 7.1065735316415157 0 7.1065735316415157 29.747462778968838 0 0 0 0 46.80455923828319 19.388654636272197 0 19.388654636272197 6.2563415287218405 0 0 0 0 43.500599839335337 1.3642385498010299 0 1.3642385498010299 40.549526753298778 0 0 0 0 67.87154145113891 2.443164934554261 0 2.443164934554261 31.252333577140234 0 0 0 0 53.975829739174515 20.853701522859581 0 20.853701522859581 25.003730754096523 0 0 0 0 50.845130568050081 12.958163057370257 0 12.958163057370257 25.949843664497166 0 0 0 0 14.244569865034663 18.422150016214815 0 18.422150016214815 12.78557168226142 0 0 0 0 10.791216323507129 5.9180229972464247 0 5.9180229972464247 2.6321186929453422 0 0 0 0 37.883194300982723 4.5014465598155766 0 4.5014465598155766 -24.004201084182114 0 0 0 0 86.609999561529548 13.381224151978927 0 13.381224151978927 -22.731407701641501 0 0 0 0 76.219026451770333 26.117773840324901 0 26.117773840324901 8.2126660921248913 0 0 0 0 198.35354919974634 5.2604467696394295 0 5.2604467696394295 -67.149540284390923 0 0 0 0 -1.7166307249108015 0.39983882584428443 0 0.39983882584428443 0.38730198243299885 0 0 0 0 120.76340022090517 -5.1792473112274706 0 -5.1792473112274706 32.64101414804918 0 0 0 0 35.244841492660214 9.742511227452141 0 9.742511227452141 8.469165326275288 0 0 0 0 13.737073501924577 0.092834300851748708 0 0.092834300851748708 1.5924693589419316 0 0 0 0 116.2944383830727 23.192775604500412 0 23.192775604500412 10.955136820942016 0 0 0 0 33.805755635182635 21.123970061449349 0 21.123970061449349 2.5870073623226553 0 0 0 0 121.24597742120449 9.9537072163635347 0 9.9537072163635347 -8.0156455451005968 0 0 0 0 153.28178251822283 4.5088326513352683 0 4.5088326513352683 -8.81833604622949 0 0 0 0 19.679670821979187 11.769938429367407 0 11.769938429367407 2.4503438287347308 0 0 0 0 90.664700551695205 -2.0891481757936958 0 -2.0891481757936958 12.623959278443067 0 0 0 0 43.754550938314232 13.722041454764344 0 13.722041454764344 3.0807010246948883 0 0 0 0 20.278242957491862 -1.447879465364398 0 -1.447879465364398 0.40603784416753452 0 0 0 0 108.49822623831278 6.5551610845408277 0 6.5551610845408277 8.1880892685578601 0 0 0 0 35.906680669314412 23.197959561133171 0 23.197959561133171 1.1998522314939857 0 0 0 0 99.828037159759134 6.1901660302102357 0 6.1901660302102357 -0.43648134805487793 0 0 0 0 86.498897526716064 2.6776309126263413 0 2.6776309126263413 7.8240244162896033 0 0 0 0 77.731994233201476 -10.287131151766403 0 -10.287131151766403 11.93703353253477 0 0 0 0 44.42429235114431 15.268844685798083 0 15.268844685798083 0.59264131237337914 0 0 0 0 39.442355091596255 9.0189605474593009 0 9.0189605474593009 6.7801086654330902 0 0 0 0 78.440933282254264 5.924749350770071 0 5.924749350770071 27.479297207473792 0 0 0 0 38.917862004130306 0.45917718145222608 0 0.45917718145222608 13.854584784812378 0 0 0 0 56.540496446097677 0.39868204638150928 0 0.39868204638150928 31.267034928344401 0 0 0 0 74.851967103454626 -6.3933943369211192 0 -6.3933943369211192 29.621647850633963 0 0 0 0 73.028740313835442 -8.4003568447778889 0 -8.4003568447778889 29.535050404898485 0 0 0 0 58.785954495389888 -9.502063413247015 0 -9.502063413247015 45.696278241263826 0 0 0 0 51.932506536119035 -18.053707114357167 0 -18.053707114357167 37.135707094898862 0 0 0 0 52.688690532482724 -21.84776865018307 0 -21.84776865018307 41.975385915940024 0 0 0 0 31.73171677312348 -30.831589141731001 0 -30.831589141731001 52.041404102374599 0 0 0 0 62.269052456191275 -26.523164788877693 0 -26.523164788877693 20.151638696878308 0 0 0 0 55.359954574258154 -26.289018630821829 0 -26.289018630821829 39.698665302542395 0 0 0 0 24.801568168382488 -31.921532299509739 0 -31.921532299509739 14.140452994868816 0 0 0 0 70.827815328688303 -16.976278401083846 0 -16.976278401083846 30.585540508399845 0 0 0 0 26.64744392664576 -32.375263467785246 0 -32.375263467785246 11.891813699998739 0 0 0 0 94.685058868468332 -25.401864078974995 0 -25.401864078974995 20.182071491906655 0 0 0 0 71.517379309339958 -30.479582229386807 0 -30.479582229386807 16.658479757655385 0 0 0 0 92.254993154580006 -24.812332052228157 0 -24.812332052228157 29.886179655848537 0 0 0 0 59.381107184279244 61.146090864904181 0 61.146090864904181 -2.3190912730424316 0 0 0 0 13.168242350507811 3.319681550865468 0 3.319681550865468 -8.4546515489443053 0 0 0 0 10.963833300714548 -1.6665138133637498 0 -1.6665138133637498 7.4623235961137127 0 0 0 0 35.896560018456512 -33.084184066482521 0 -33.084184066482521 18.145348794508209 0 0 0 0 76.495317063599941 -29.221908401926157 0 -29.221908401926157 33.16822107950793 0 0 0 0 66.672682810448805 -67.909345664549463 0 -67.909345664549463 -16.737524883708147 0 0 0 0 31.471697014774691 -39.201922584357817 0 -39.201922584357817 16.954634130617933 0 0 0 0 44.419559449695633 -27.151511234039369 0 -27.151511234039369 14.558147915177557 0 0 0 0 104.26621227909709 -24.007775795078459 0 -24.007775795078459 12.960496612189871 0 0 0 0 37.269233314103985 26.987908988874437 0 26.987908988874437 -14.144630335747934 0 0 0 0 67.914552461373233 0.83951522431701697 0 0.83951522431701697 -2.0548645773350511 0 0 0 0 16.4895375913372 -3.9591643282881943 0 -3.9591643282881943 -5.5443658250494119 0 0 0 0 55.82134815419704 -15.626194520196577 0 -15.626194520196577 2.1508209518262902 0 0 0 0 94.900514015196677 -23.003113579136595 0 -23.003113579136595 15.210048713540573 0 0 0 0 11.585829398989286 -6.9692872285110088 0 -6.9692872285110088 0.50477701738452663 0 0 0 0 102.78159552527723 -37.757812180446763 0 -37.757812180446763 8.2021253245628714 0 0 0 0 123.05274421987269 -32.844059265789383 0 -32.844059265789383 6.7771542303486285 0 0 0 0 144.77832765459061 9.6527802548542923 0 9.6527802548542923 3.3002030879589199 0 0 0 0 137.84300434661054 10.675383497981834 0 10.675383497981834 7.6969226288040957 0 0 0 0 116.44242087776911 11.764969313831898 0 11.764969313831898 15.553201144006493 0 0 0 0 150.20187301054102 6.6259244567293649 0 6.6259244567293649 0.57911139828874525 0 0 0 0 123.93074359132515 -1.250417016999533 0 -1.250417016999533 2.6340580696388827 0 0 0 0 143.42887334213265 13.21997820104292 0 13.21997820104292 7.1788375241044946 0 0 0 0 95.043580339319305 8.5742530785200302 0 8.5742530785200302 36.888506473034028 0 0 0 0 122.3413528418896 -21.241407413284549 0 -21.241407413284549 3.0786847848590924 0 0 0 0 99.55589414518181 51.619366851637693 0 51.619366851637693 20.638004175562855 0 0 0 0 101.45946762317362 -8.148777855797988 0 -8.148777855797988 12.028866424101686 0 0 0 0 93.845136401714626 2.3704428444673056 0 2.3704428444673056 17.591177612717956 0 0 0 0 81.092130341123266 8.6309849282009736 0 8.6309849282009736 100.48063467449174 0 0 0 0 88.404527871263326 -10.285640334693767 0 -10.285640334693767 53.47877034114299 0 0 0 0 73.143186292476457 5.7354535230915644 0 5.7354535230915644 103.15260766697565 0 0 0 0 60.875975462295173 -26.569194767647332 0 -26.569194767647332 65.030058006344916 0 0 0 0 31.116042738321994 -33.868760459143687 0 -33.868760459143687 44.658567682234661 0 0 0 0 66.170290482117707 -36.759128343577913 0 -36.759128343577913 30.274135227751685 0 0 0 0 69.47183257550796 -15.717261630051496 0 -15.717261630051496 29.508301488552206 0 0 0 0 -0.65940632577927971 2.0439457919524564 0 2.0439457919524564 4.4143120765781276 0 0 0 0 21.247190216643503 -19.471731316963542 0 -19.471731316963542 34.206629104044055 0 0 0 0 35.042211657688767 -28.671978204910602 0 -28.671978204910602 24.082888057318087 0 0 0 0 38.214805859875923 -33.690022347816921 0 -33.690022347816921 31.004006302095036 0 0 0 0 30.062729818731896 -35.037310342448109 0 -35.037310342448109 22.567720195590823 0 0 0 0 39.91197035314508 -29.993241278187952 0 -29.993241278187952 10.35045705378252 0 0 0 0 44.110343259605543 -38.875952168089043 0 -38.875952168089043 28.964362797855756 0 0 0 0 41.227293796319827 -27.991876664590677 0 -27.991876664590677 30.702444984150134 0 0 0 0 65.772891326749232 -38.272283466287263 0 -38.272283466287263 10.860067761387654 0 0 0 0 68.793039864805905 -28.246127257991475 0 -28.246127257991475 7.4466122600879316 0 0 0 0 65.78685827521258 -30.13346430405727 0 -30.13346430405727 19.105740177080406 0 0 0 0 79.845104169369733 -19.539853269853211 0 -19.539853269853211 44.848117779274617 0 0 0 0 85.872883845040633 -45.815156425548594 0 -45.815156425548594 27.367372667196378 0 0 0 0 57.184773304729788 -21.012545438400366 0 -21.012545438400366 -7.167791340641088 0 0 0 0 62.473810906680228 -32.43057790001933 0 -32.43057790001933 -2.8385393895396192 0 0 0 0 11.269016553280611 -4.9384946329700625 0 -4.9384946329700625 2.1251750757391932 0 0 0 0 68.787573455244456 -25.544483187765252 0 -25.544483187765252 -2.4306414527554807 0 0 0 0 69.818131514991137 -35.729173814290561 0 -35.729173814290561 3.409734975801257 0 0 0 0 62.689898914617515 -28.660658711731685 0 -28.660658711731685 -3.1600943634070973 0 0 0 0 68.381075560861063 -25.500479058479868 0 -25.500479058479868 -1.6387265979185486 0 0 0 0 59.482594019756107 -17.860883086706338 0 -17.860883086706338 14.861459620880851 0 0 0 0 -28.591521521581399 -92.313120896844111 0 -92.313120896844111 19.737849550298051 0 0 0 0 58.386951669330301 -28.838793747998352 0 -28.838793747998352 -0.020594572668642286 0 0 0 0 42.229687486935823 -23.436421528494705 0 -23.436421528494705 13.060079700149261 0 0 0 0 -71.339752348196271 -17.329786912073189 0 -17.329786912073189 195.33216130533992 0 0 0 0 62.477279514778274 -27.774691103956457 0 -27.774691103956457 -0.54047161569815216 0 0 0 0 41.168005492279917 -31.781097134428364 0 -31.781097134428364 9.4149265935159292 0 0 0 0 40.303409444401083 -27.260731134309587 0 -27.260731134309587 15.188994609507841 0 0 0 0 20.121811834573236 -111.71242985062531 0 -111.71242985062531 -31.311451865912431 0 0 0 0 39.630012424396909 -42.704228780440047 0 -42.704228780440047 4.8438040929049748 0 0 0 0 159.69761231253324 -32.459632205376124 0 -32.459632205376124 -31.465781517019195 0 0 0 0 10.867408643311137 2.5103698256801863 0 2.5103698256801863 135.56059714351659 0 0 0 0 1.3304700228804762 0.88708250657364718 0 0.88708250657364718 -0.098728269456657358 0 0 0 0 54.939486712964936 -4.6115639539850122 0 -4.6115639539850122 37.96245852905281 0 0 0 0 121.78990588306988 -60.264864222711708 0 -60.264864222711708 68.742104120824933 0 0 0 0 65.484197258376753 5.0607865771534648 0 5.0607865771534648 18.154365699284199 0 0 0 0 68.426240635300928 17.139653430391945 0 17.139653430391945 6.8916089411742405 0 0 0 0 27.955068138848219 -2.4465527828365339 0 -2.4465527828365339 18.137400346452978 0 0 0 0 1.6474234748347953 4.582417460329566 0 4.582417460329566 28.993517614127541 0 0 0 0 0.49240042826189523 -6.4324562765211688 0 -6.4324562765211688 6.521187968614198 0 0 0 0 17.979577764425812 -15.354159619805102 0 -15.354159619805102 9.0973863784072364 0 0 0 0 22.952674365882558 -12.322948635105604 0 -12.322948635105604 9.257130964863336 0 0 0 0 35.72814379783626 -14.14263654638485 0 -14.14263654638485 4.0124147786202684 0 0 0 0 25.814070206693987 -3.5903058203632661 0 -3.5903058203632661 4.7311250777568876 0 0 0 0 20.375380818280973 -9.6377898178079704 0 -9.6377898178079704 -8.2822357244185696 0 0 0 0 60.637432692811394 -23.303715573791958 0 -23.303715573791958 2.8004073363774706 0 0 0 0 69.282125091129217 -14.912463033344295 0 -14.912463033344295 3.5307504206896283 0 0 0 0 53.21663105431719 -8.4644578278360996 0 -8.4644578278360996 9.2923328789320294 0 0 0 0 27.420725922619567 -1.4767375355360457 0 -1.4767375355360457 18.975065370234915 0 0 0 0 19.388350807661659 8.9859385990580662 0 8.9859385990580662 1.4952746471165863 0 0 0 0 32.453758853767795 -8.7376729460876277 0 -8.7376729460876277 2.5268019702014044 0 0 0 0 49.873712623655592 -26.64690488832548 0 -26.64690488832548 6.2260385392205535 0 0 0 0 42.502894602266679 -7.8740796835446645 0 -7.8740796835446645 2.4871293977575988 0 0 0 0 37.104573865526106 -10.014096796761486 0 -10.014096796761486 2.895875250389055 0 0 0 0 35.504152330820858 -15.766712769129601 0 -15.766712769129601 4.087667608008636 0 0 0 0 344.04774437539072 216.52688965965069 0 216.52688965965069 110.74584952788632 0 0 0 0 386.60465242190003 -198.41004038239691 0 -198.41004038239691 16.566375021945987 0 0 0 0 149.59986673677122 40.368195720649226 0 40.368195720649226 -20.294245461989931 0 0 0 0 125.35203876976993 32.409076659469065 0 32.409076659469065 7.1952325993327122 0 0 0 0 154.34442621957714 2.6053522433244325 0 2.6053522433244325 5.8339337663855986 0 0 0 0 123.26082297475295 26.017976003872604 0 26.017976003872604 5.6686272932226984 0 0 0 0 239.9914136704374 -76.350662001798199 0 -76.350662001798199 18.227353999155298 0 0 0 0 201.66232977214349 25.564897465827244 0 25.564897465827244 -16.458525061080081 0 0 0 0 -0.80114452630647293 -0.67212503483509245 0 -0.67212503483509245 0.27311519080743807 0 0 0 0 85.736754737077717 -34.979182406113409 0 -34.979182406113409 -35.059171497067155 0 0 0 0 102.16050819841439 -39.765994772946442 0 -39.765994772946442 -34.465023983765036 0 0 0 0 94.407986797024932 -44.872497234791581 0 -44.872497234791581 -51.483924942559497 0 0 0 0 33.188565690492396 59.595497029045305 0 59.595497029045305 -87.326828600456111 0 0 0 0 101.14004388658213 -33.861970848223564 0 -33.861970848223564 -51.438119675972416 0 0 0 0 46.64353377410589 -9.3866404606127389 0 -9.3866404606127389 -18.482813854944538 0 0 0 0 89.691634833769058 -71.038817239692435 0 -71.038817239692435 49.140584641514579 0 0 0 0 38.354901321037687 -93.73314178139924 0 -93.73314178139924 176.30997326374518 0 0 0 0 -0.88198734891921049 -28.103011864519658 0 -28.103011864519658 70.671614154177007 0 0 0 0 166.29777104904679 -32.222319775233018 0 -32.222319775233018 -90.002648959414358 0 0 0 0 153.43529869290433 -132.7773987873876 0 -132.7773987873876 39.693871887640853 0 0 0 0 -103.25411780569038 -10.830725694721366 0 -10.830725694721366 142.42967262254842 0 0 0 0 33.930379085260938 -238.98354531361309 0 -238.98354531361309 380.27380467780313 0 0 0 0 45.355653153903404 5.1697806175415053 0 5.1697806175415053 34.012158117817194 0 0 0 0 80.136384573545911 18.62616999215993 0 18.62616999215993 21.152738870727831 0 0 0 0 45.130163145814549 387.20622021367711 0 387.20622021367711 82.602124446126794 0 0 0 0 120.95623681224197 -30.770402438759504 0 -30.770402438759504 5.0991629499394548 0 0 0 0 -1.0949263231707391 -0.49260482383316528 0 -0.49260482383316528 -1.8398697112947819 0 0 0 0 195.93828559509575 -262.46400723494958 0 -262.46400723494958 101.15882580162838 0 0 0 0 368.67939651963115 -129.3768376105009 0 -129.3768376105009 -140.15134349543666 0 0 0 0 20.664652274517721 -153.96850706902342 0 -153.96850706902342 180.8392123268344 0 0 0 0 6.3981926760252144 -3.2350781292661015 0 -3.2350781292661015 1.9679452127378334 0 0 0 0 104.17900865806678 -153.01634892598378 0 -153.01634892598378 -7.6445514920096684 0 0 0 0 89.214834321178387 -151.4890565649323 0 -151.4890565649323 99.022609900231146 0 0 0 0 27.059256621849272 -79.866706350608865 0 -79.866706350608865 31.285178067784756 0 0 0 0 72.135203468766576 -54.126743405943557 0 -54.126743405943557 12.662673242206893 0 0 0 0 47.557001582114253 -14.747949680413626 0 -14.747949680413626 15.103501823013403 0 0 0 0 7.7722466506911587 -28.786359008255658 0 -28.786359008255658 4.4922448229242491 0 0 0 0 27.403638569939176 -12.882412039450514 0 -12.882412039450514 -84.083344591141213 0 0 0 0 -44.689197843969851 -33.00237758665088 0 -33.00237758665088 50.561865071189914 0 0 0 0 18.114927253164325 -9.3683415701720385 0 -9.3683415701720385 4.7020779215852295 0 0 0 0 20.03442439272294 -79.790760102425793 0 -79.790760102425793 -99.747628378464469 0 0 0 0 106.7796461022881 55.558552208404535 0 55.558552208404535 15.879441604215231 0 0 0 0 125.88200910174248 40.883651428084846 0 40.883651428084846 13.860806157181742 0 0 0 0 -20.892476903507031 -37.630197954889354 0 -37.630197954889354 -38.946658269927866 0 0 0 0 52.178187218760286 -25.160606783428875 0 -25.160606783428875 -54.135717952099185 0 0 0 0 70.677296558955277 73.66498369383379 0 73.66498369383379 45.465548123148551 0 0 0 0 77.093897479775478 66.822801736894462 0 66.822801736894462 19.272534855392223 0 0 0 0 84.460143138076091 -136.99946571167732 0 -136.99946571167732 171.54425581758369 0 0 0 0 95.433473651144595 48.784331349758531 0 48.784331349758531 36.954434707513045 0 0 0 0 118.10728976150858 21.934150809927218 0 21.934150809927218 19.218623652330507 0 0 0 0 92.51122064367155 40.117184135350271 0 40.117184135350271 14.055111794789354 0 0 0 0 70.165478454132426 -18.336410732401418 0 -18.336410732401418 -46.118511526812654 0 0 0 0 79.751072481512892 -26.251959413340046 0 -26.251959413340046 -43.735198396445014 0 0 0 0 82.773306374527692 -21.480115845757609 0 -21.480115845757609 -37.421065504033322 0 0 0 0 78.657198372361535 -31.107038195475894 0 -31.107038195475894 -31.345433286402113 0 0 0 0 78.848117209924226 -28.585979663617024 0 -28.585979663617024 -44.259046893406776 0 0 0 0 -1.9852417219917697 -4.6996874464366556 0 -4.6996874464366556 -18.25078425645188 0 0 0 0 49.538907210177967 -46.253857263455757 0 -46.253857263455757 -64.1337524078549 0 0 0 0 28.769446144781977 -13.533900646345042 0 -13.533900646345042 6.6290429202573256 0 0 0 0 55.18950777857026 -27.099440761915503 0 -27.099440761915503 -73.037499822016798 0 0 0 0 24.990548193443828 -17.883491185776393 0 -17.883491185776393 0.46174793840395978 0 0 0 0 51.79671393440276 -31.521405142344065 0 -31.521405142344065 -46.647272820844591 0 0 0 0 37.755935949618106 -5.6121444011000676 0 -5.6121444011000676 -64.211145365192124 0 0 0 0 73.51807416326028 -5.1909226537609356 0 -5.1909226537609356 -46.143584589656882 0 0 0 0 51.520050854242982 -22.852402794442696 0 -22.852402794442696 -42.840688587179102 0 0 0 0 77.608445109484819 -17.951249934305224 0 -17.951249934305224 -26.514499831251669 0 0 0 0 92.653167816030418 -1.7976814432017818 0 -1.7976814432017818 -29.982340504184776 0 0 0 0 74.751868744920102 -20.424566170299386 0 -20.424566170299386 -54.094873755132767 0 0 0 0 76.087669107177135 -11.144685629601554 0 -11.144685629601554 -42.724243216976447 0 0 0 0 69.329043356948205 4.346056302493821 0 4.346056302493821 -3.5461194990169815 0 0 0 0 73.271159641233226 -16.027237690881293 0 -16.027237690881293 -19.361489191359397 0 0 0 0 73.024756967949543 -24.440823659898797 0 -24.440823659898797 -11.963026706373512 0 0 0 0 31.490826700115122 -11.937145445025635 0 -11.937145445025635 -15.435286689271379 0 0 0 0 84.30002646218918 -34.028914482110963 0 -34.028914482110963 25.159183083006894 0 0 0 0 77.510692368826597 -0.17111567825135054 0 -0.17111567825135054 31.657408419755825 0 0 0 0 94.672566468162358 -10.719647376055548 0 -10.719647376055548 5.1645690476205743 0 0 0 0 96.000902807430975 9.7067418166834614 0 9.7067418166834614 12.967775004601265 0 0 0 0 110.54680578103215 14.780595134880997 0 14.780595134880997 12.040676706606746 0 0 0 0 112.61707036482528 1.9408161089543228 0 1.9408161089543228 -7.326972770329121 0 0 0 0 88.584390255805829 -0.79542514469017078 0 -0.79542514469017078 -3.5881930790424121 0 0 0 0 3271.8275313678887 358.55978218368949 0 358.55978218368949 -115.76900383093991 0 0 0 0 3244.6443262903026 383.1601667535457 0 383.1601667535457 19.393587874784302 0 0 0 0 8.8330826351635459 -10.256338098256098 0 -10.256338098256098 -16.325067996011171 0 0 0 0 135.30489659437126 15.99205175270653 0 15.99205175270653 7.0445440920469622 0 0 0 0 3.5906040721483428 14.030759964926428 0 14.030759964926428 12.862485551862743 0 0 0 0 3128.9348856150791 279.21347166472873 0 279.21347166472873 14.310980451434204 0 0 0 0 197.3004383952848 232.54522220534272 0 232.54522220534272 186.87961237781315 0 0 0 0 374.63325653467837 -180.4333062400658 0 -180.4333062400658 -279.56064297983698 0 0 0 0 135.53513738280049 9.6555567510433775 0 9.6555567510433775 -8.1642324936124169 0 0 0 0 5.041186034611508 -5.7587476408153382 0 -5.7587476408153382 -13.666102149560206 0 0 0 0 -1.9575468190355281 12.944784933806554 0 12.944784933806554 3.4530470031332339 0 0 0 0 3158.3398868032464 486.39229420388551 0 486.39229420388551 -49.236993144239989 0 0 0 0 3174.385348684048 523.42954321485638 0 523.42954321485638 -130.71485735811859 0 0 0 0 3194.7964682078427 430.95501130164337 0 430.95501130164337 22.975023156091879 0 0 0 0 3500.7826838678311 449.56524163549517 0 449.56524163549517 -135.148087425765 0 0 0 0 3340.6029707140524 614.13500848151443 0 614.13500848151443 -140.44384557273003 0 0 0 0 3297.1223218459463 434.46577865318113 0 434.46577865318113 -22.233275224202686 0 0 0 0 3221.1339705296868 424.43502998823317 0 424.43502998823317 19.483762766377065 0 0 0 0 3168.192567489632 525.64978516602298 0 525.64978516602298 -72.122246384825246 0 0 0 0 3227.0308093536432 513.68228350113191 0 513.68228350113191 -70.61117835072298 0 0 0 0 3173.4633262347215 511.82635389112528 0 511.82635389112528 -119.52517731586755 0 0 0 0 3091.3091239696332 699.15658618505108 0 699.15658618505108 -277.42991853703535 0 0 0 0 2984.7227899704922 732.62559117926298 0 732.62559117926298 -161.56918989852784 0 0 0 0 3182.3348208067946 687.04382642737278 0 687.04382642737278 -158.18158682582973 0 0 0 0 3021.0496537564477 503.56210659321249 0 503.56210659321249 -137.7230793369252 0 0 0 0 3183.2534075688964 524.56485925387847 0 524.56485925387847 -160.80964626716232 0 0 0 0 54.038212984059214 365.05298270064736 0 365.05298270064736 314.52068658416829 0 0 0 0 536.4340628885866 -265.66551951820531 0 -265.66551951820531 -452.67756925426033 0 0 0 0 13.140928978198815 10.453561378318001 0 10.453561378318001 -13.035272444025228 0 0 0 0 -84.784302149677387 299.92288429368682 0 299.92288429368682 592.9391805939872 0 0 0 0 109.240986522312 -5.7802641324453816 0 -5.7802641324453816 -22.019411274019603 0 0 0 0 2.7739288988071218 -2.3807590175235021 0 -2.3807590175235021 -5.715229490864659 0 0 0 0 2175.5024169159533 1233.922230280439 0 1233.922230280439 441.83021437009074 0 0 0 0 1862.9601062975207 586.08660271600547 0 586.08660271600547 286.67719253504561 0 0 0 0 3494.9478212494232 1145.4666206970121 0 1145.4666206970121 -200.08463646621652 0 0 0 0 2773.7566358439772 1707.3230809886984 0 1707.3230809886984 580.87504718932155 0 0 0 0 102.79223700628143 -8.4467919384676406 0 -8.4467919384676406 -24.451597410779414 0 0 0 0 100.07626358245602 14.460967874858852 0 14.460967874858852 -1.9999317314686778 0 0 0 0 94.368189806670102 8.4941869555807443 0 8.4941869555807443 -35.630092705531752 0 0 0 0 77.54599900312769 -23.107792460538349 0 -23.107792460538349 -30.438901741628797 0 0 0 0 89.113883687844009 -10.38720362721142 0 -10.38720362721142 -20.476249044042788 0 0 0 0 84.902432217842488 -22.692844261719529 0 -22.692844261719529 -38.577622558788789 0 0 0 0 85.691294042335358 -18.991168736929012 0 -18.991168736929012 -36.500951088149122 0 0 0 0 83.549838511258713 -19.589517145398645 0 -19.589517145398645 -159.35803504735856 0 0 0 0 92.123508137581666 130.42121223645162 0 130.42121223645162 -79.875962019772203 0 0 0 0 73.709569966174129 -11.939361942619481 0 -11.939361942619481 0.83399177206921915 0 0 0 0 6.5209601259395527 6.0218898611845511 0 6.0218898611845511 -2.9804574785138538 0 0 0 0 181.97811712446855 -62.50286449151838 0 -62.50286449151838 -224.7109003676872 0 0 0 0 72.738227950849563 -7.3582490995780461 0 -7.3582490995780461 -5.2117568438163824 0 0 0 0 84.548480057932466 119.00695635639755 0 119.00695635639755 -61.240002869428167 0 0 0 0 244.67281047558936 -76.098584148249358 0 -76.098584148249358 -239.10610488721738 0 0 0 0 290.62870756347411 165.37282491159809 0 165.37282491159809 155.29834602622941 0 0 0 0 237.87800897287525 14.501700762278915 0 14.501700762278915 -68.833460796616237 0 0 0 0 394.20395083567291 -216.26506544648134 0 -216.26506544648134 143.58329462213669 0 0 0 0 164.92518077700333 122.71825498636105 0 122.71825498636105 -109.4642903948004 0 0 0 0 32.579112560015346 -18.355251777456601 0 -18.355251777456601 25.626834763728993 0 0 0 0 1394.1277419070138 -1480.878552905685 0 -1480.878552905685 1600.5024860238073 0 0 0 0 20.905710449486214 0.58568244400045755 0 0.58568244400045755 -0.29116532384433635 0 0 0 0 634.28004782422067 813.5980936534329 0 813.5980936534329 929.58943771663178 0 0 0 0 3492.8965875937647 -1749.5309757317477 0 -1749.5309757317477 152.21734357353799 0 0 0 0 1043.3717171202952 -1031.1843542155252 0 -1031.1843542155252 1107.2026793725995 0 0 0 0 15.202609338664107 -1.1340394178902145 0 -1.1340394178902145 -1.7122417343063356 0 0 0 0 -240.13277369771095 -182.06184435059265 0 -182.06184435059265 -61.158373444201516 0 0 0 0 1936.6692418036509 -671.63960850425246 0 -671.63960850425246 110.71470859808608 0 0 0 0 1635.9866882900315 -936.46361849355321 0 -936.46361849355321 -510.58213737170809 0 0 0 0 3.5093538982087615 -0.0027621300625710887 0 -0.0027621300625710887 -3.5686885945830831 0 0 0 0 876.95723356503004 52.720138980003867 0 52.720138980003867 199.38617483829694 0 0 0 0 406.39216950714217 -451.37585778874876 0 -451.37585778874876 -100.09439066200048 0 0 0 0 1648.7637377729661 -439.9804920603658 0 -439.9804920603658 -113.64252963454499 0 0 0 0 2208.8654185595342 -1101.4982851965997 0 -1101.4982851965997 -97.46765966038916 0 0 0 0 2871.258315952422 -1083.0859266273064 0 -1083.0859266273064 -141.75181072930758 0 0 0 0 3501.8831402384312 -677.38933703017346 0 -677.38933703017346 -436.17069168353396 0 0 0 0 2501.8725776975243 -496.28250029413812 0 -496.28250029413812 -4.3159563650380619 0 0 0 0 2066.3619769355173 -295.37252922478268 0 -295.37252922478268 -43.560629462714758 0 0 0 0 1312.9529305432407 -270.62354293897255 0 -270.62354293897255 72.538345263946212 0 0 0 0 4.0190749777307175 0.06556821284478076 0 0.06556821284478076 -5.1078552755579523 0 0 0 0 2668.6136614321185 -136.01651946156127 0 -136.01651946156127 -540.52840940486169 0 0 0 0 3497.0594082908483 11.362930654759303 0 11.362930654759303 -579.65582726513639 0 0 0 0 139.342512674707 132.39183280460131 0 132.39183280460131 168.15633990184779 0 0 0 0 229.71780980359472 -114.24507930338848 0 -114.24507930338848 195.31975043144058 0 0 0 0 640.71231810071549 -239.79615876922549 0 -239.79615876922549 486.53363206053461 0 0 0 0 599.28325765954651 92.508823689247265 0 92.508823689247265 144.73676340466227 0 0 0 0 433.34927228036395 -225.76376804526853 0 -225.76376804526853 254.40770579866194 0 0 0 0 785.96336602110023 76.925636170113876 0 76.925636170113876 223.57931347219755 0 0 0 0 263.23592646775069 99.313280679864306 0 99.313280679864306 -64.07788922825776 0 0 0 0 -139.33401758570108 -70.131077936513748 0 -70.131077936513748 189.92364989743578 0 0 0 0 48.325929832989118 -27.072602935841804 0 -27.072602935841804 8.0084642004505469 0 0 0 0 -114.90400270292048 -189.32388602739326 0 -189.32388602739326 15.430609392346469 0 0 0 0 -5.136790337965067 6.3596387133097778 0 6.3596387133097778 20.040891114323934 0 0 0 0 -20.294162152742501 12.673961750612477 0 12.673961750612477 113.70741447163107 0 0 0 0 74.951498990467371 -32.974456217316288 0 -32.974456217316288 -66.297100122722298 0 0 0 0 88.845749727173825 -0.089272270741616921 0 -0.089272270741616921 -5.8595427229254256 0 0 0 0 99.153166731361125 7.5467651623118854 0 7.5467651623118854 -0.39924219544582229 0 0 0 0 99.511942198871111 2.7643161713868949 0 2.7643161713868949 6.5342961009025657 0 0 0 0 111.21327203190594 4.1446941277674796 0 4.1446941277674796 -9.3499028986822594 0 0 0 0 113.10834309124766 10.848779939121187 0 10.848779939121187 5.9647066436423302 0 0 0 0 98.695311908464646 -4.4710559502790375 0 -4.4710559502790375 22.950687774336302 0 0 0 0 106.64305574765604 8.2757811664669134 0 8.2757811664669134 10.387019110200981 0 0 0 0 53.720009122404235 16.422108323761005 0 16.422108323761005 -2.9350893657001933 0 0 0 0 98.813641359294706 -4.0226333908672132 0 -4.0226333908672132 2.2141854022185044 0 0 0 0 52.723180984338356 -21.26229530679047 0 -21.26229530679047 7.2866033296290631 0 0 0 0 14.816981540105189 -25.151033947039025 0 -25.151033947039025 11.421432079291435 0 0 0 0 43.393732524031634 3.4576755715682115 0 3.4576755715682115 2.1776581542093179 0 0 0 0 175.83136253032717 -7.8321023024633973 0 -7.8321023024633973 -56.434951975978322 0 0 0 0 48.654772946516459 -49.318612554207164 0 -49.318612554207164 108.76485759493949 0 0 0 0 93.412873926693464 34.745472993981437 0 34.745472993981437 0.49061090453733414 0 0 0 0 43.402144521603141 10.096580743431819 0 10.096580743431819 1.0330379983541154 0 0 0 0 35.48056675967382 -0.065005665091121045 0 -0.065005665091121045 0.1835844635788817 0 0 0 0 69.749779056752203 9.7283866957590917 0 9.7283866957590917 1.0851630653636395 0 0 0 0 15.986568143345721 -9.88721251020905 0 -9.88721251020905 -1.8011270344200057 0 0 0 0 35.154344208091061 7.2084547053674353 0 7.2084547053674353 3.2857930188763333 0 0 0 0 21.311407325280015 -33.651750790882716 0 -33.651750790882716 -93.181274862778309 0 0 0 0 8.4315068900414261 2.9386446527713943 0 2.9386446527713943 -4.2786524078550041 0 0 0 0 27.090435210382566 17.757374658601293 0 17.757374658601293 -3.4218502065805296 0 0 0 0 94.393259630945977 16.04149557968509 0 16.04149557968509 -38.44082479482455 0 0 0 0 47.979176251526951 -30.570695693234391 0 -30.570695693234391 -7.5935565863367129 0 0 0 0 89.682142145342368 1.3336538875493673 0 1.3336538875493673 12.354789930933393 0 0 0 0 82.236936419580161 -8.3804697015077636 0 -8.3804697015077636 12.898447481549407 0 0 0 0 51.142383704609529 14.706899126510905 0 14.706899126510905 35.298114643568965 0 0 0 0 53.479843760054791 18.197942458433829 0 18.197942458433829 39.996139471058385 0 0 0 0 10.667766316506459 5.7129444406863925 0 5.7129444406863925 38.329444543382721 0 0 0 0 64.196936659725907 43.208012875090049 0 43.208012875090049 36.76393096668788 0 0 0 0 35.145640904083848 28.432681400499291 0 28.432681400499291 53.896957434396995 0 0 0 0 57.202247002813237 47.806896087686027 0 47.806896087686027 56.52946084102291 0 0 0 0 88.715471965671895 23.261932820875046 0 23.261932820875046 36.520566695114326 0 0 0 0 86.634199469212035 17.224347336749133 0 17.224347336749133 19.103019161982758 0 0 0 0 32.745387865958037 22.484413048842043 0 22.484413048842043 43.263242021407905 0 0 0 0 246.66482142051245 -108.45039656779568 0 -108.45039656779568 -36.390550965263856 0 0 0 0 7.1834575577756397 -1.1307545672636294 0 -1.1307545672636294 1.3736806518023827 0 0 0 0 -39.044839745893114 89.100909124573718 0 89.100909124573718 -0.70415121486314547 0 0 0 0 317.40779294978347 -16.275951484999098 0 -16.275951484999098 -128.16481663865716 0 0 0 0 165.05092244986008 -50.142218295909515 0 -50.142218295909515 -57.632585359837194 0 0 0 0 58.065715058585852 63.135056835508344 0 63.135056835508344 71.313593597121894 0 0 0 0 45.529901369083746 46.807814216806889 0 46.807814216806889 70.18473565587442 0 0 0 0 229.27601577272253 182.59140430550826 0 182.59140430550826 -50.219490483101254 0 0 0 0 43.015629728492058 5.7838734920417778 0 5.7838734920417778 8.1966718283633782 0 0 0 0 23.399992840160849 -27.717570670719866 0 -27.717570670719866 18.962187676840585 0 0 0 0 33.356277798136389 8.2970883363876755 0 8.2970883363876755 2.5587718667913535 0 0 0 0 -46.875182117184522 70.611356323275061 0 70.611356323275061 0.66026302855152608 0 0 0 0 -1.2564393271767287 4.5924812083721367 0 4.5924812083721367 3.0071691541308185 0 0 0 0 23.225122932351951 0.88191764539487849 0 0.88191764539487849 -28.247365136255667 0 0 0 0 33.899961842879776 -1.3136490939008061 0 -1.3136490939008061 -2.0233366498192473 0 0 0 0 111.93268912688836 -59.237580849602637 0 -59.237580849602637 -10.927437520967942 0 0 0 0 51.273352547928482 -0.62336636409386159 0 -0.62336636409386159 -0.62892815259517576 0 0 0 0 9.8772544521120604 -6.3898653134504961 0 -6.3898653134504961 -2.3317046827154471 0 0 0 0 20.632222640870442 -14.299916778161069 0 -14.299916778161069 6.1917628083833787 0 0 0 0 80.823383470524277 -13.530189761129805 0 -13.530189761129805 -16.928187419558526 0 0 0 0 26.252830045992596 33.309845565255728 0 33.309845565255728 -7.9993054802185952 0 0 0 0 23.855984523586812 28.747127611712813 0 28.747127611712813 -16.533126514581085 0 0 0 0 29.114768490340794 113.7565717788878 0 113.7565717788878 99.719850088341218 0 0 0 0 17.898108274424885 48.653885707146287 0 48.653885707146287 -19.736892092925018 0 0 0 0 -3.7456354125843063 13.784804958055929 0 13.784804958055929 36.206820902991126 0 0 0 0 17.369841367697518 28.487648454885175 0 28.487648454885175 11.257582037278624 0 0 0 0 13.7147049503983 -23.306692917419923 0 -23.306692917419923 -15.076600343477821 0 0 0 0 22.28998246070114 -30.858278690391217 0 -30.858278690391217 -26.54217055906912 0 0 0 0 16.730378070700681 -25.761041412673421 0 -25.761041412673421 -22.424289465752736 0 0 0 0 21.659986471462616 -46.558682031338549 0 -46.558682031338549 22.550462975671508 0 0 0 0 1.8089375822904117 0.95356103929990343 0 0.95356103929990343 0.52584304070960508 0 0 0 0 52.831873004022782 5.8061745632921884 0 5.8061745632921884 -90.605249041982006 0 0 0 0 139.58188091236661 -44.962617094937741 0 -44.962617094937741 -61.324534089745157 0 0 0 0 51.013416581197816 -183.64741757499314 0 -183.64741757499314 235.26607820882839 0 0 0 0 17.180743779332261 -34.068277960913292 0 -34.068277960913292 -16.067642526335476 0 0 0 0 -29.12674281209911 -13.15198700858241 0 -13.15198700858241 -4.9101525845153446 0 0 0 0 1.0028068697429262 -23.628016307422058 0 -23.628016307422058 -9.9637019461943055 0 0 0 0 14.676042194696493 -34.589454595207826 0 -34.589454595207826 -7.8232024146868753 0 0 0 0 4.3003383401301107 -41.149370000733143 0 -41.149370000733143 -2.1658110404951003 0 0 0 0 -13.638841660667822 -39.416901609091383 0 -39.416901609091383 -1.234389153894881 0 0 0 0 48.445573524237261 -11.568655770497571 0 -11.568655770497571 -0.28156050952748046 0 0 0 0 146.93899592047092 0.75440563730262511 0 0.75440563730262511 -6.9542942982916429 0 0 0 0 111.39367781110195 37.380294857904687 0 37.380294857904687 23.719964027099195 0 0 0 0 46.895143247646047 -10.506888724776218 0 -10.506888724776218 15.535422687206847 0 0 0 0 78.162443509005243 2.4083893301994976 0 2.4083893301994976 -7.297985782149226 0 0 0 0 78.910253638547147 6.3110157399487434 0 6.3110157399487434 12.915137993488315 0 0 0 0 97.535038329777308 -0.59823396329011302 0 -0.59823396329011302 3.254030907059132 0 0 0 0 66.57104844225978 11.051846418929472 0 11.051846418929472 27.174715573748472 0 0 0 0 23.848151538521051 -19.654197239653513 0 -19.654197239653513 45.423817462863553 0 0 0 0 64.47086568918894 -6.3421635903696369 0 -6.3421635903696369 18.255807668472698 0 0 0 0 36.506544647432747 -1.6971572182060299 0 -1.6971572182060299 55.692097465233019 0 0 0 0 58.905669576306536 27.104916964903225 0 27.104916964903225 69.044480482427389 0 0 0 0 43.160282948643726 -7.3911941708197446 0 -7.3911941708197446 43.175483731803979 0 0 0 0 16.030615732510341 -39.328277305506163 0 -39.328277305506163 8.6261528763591286 0 0 0 0 35.844179229759902 -33.510510794830225 0 -33.510510794830225 1.0167552201364742 0 0 0 0 128.28608191286185 85.37726720614819 0 85.37726720614819 62.318594147684962 0 0 0 0 30.853009545283424 -21.704348892921942 0 -21.704348892921942 -12.987423106019126 0 0 0 0 -61.248460712720316 -34.304876977159608 0 -34.304876977159608 22.464293907696629 0 0 0 0 -14.450341484029195 80.904970592820519 0 80.904970592820519 230.73073684723204 0 0 0 0 40.620573218213394 5.2908853489532248 0 5.2908853489532248 65.257479008208975 0 0 0 0 -56.245129136611467 -6.0262690903996372 0 -6.0262690903996372 19.524220397466706 0 0 0 0 210.79515191052997 22.694940148479304 0 22.694940148479304 -330.5808033935291 0 0 0 0 25.348011310260379 -25.40946741517628 0 -25.40946741517628 -12.81825217407839 0 0 0 0 -2.6329604604616179 -14.991708434896282 0 -14.991708434896282 -53.268307933049073 0 0 0 0 -23.688485257342109 -207.20939772621 0 -207.20939772621 -61.418109253908369 0 0 0 0 -136.73852685878228 -217.37889884061497 0 -217.37889884061497 331.9131464697266 0 0 0 0 -3.0110266704868991 -43.305890772146995 0 -43.305890772146995 155.75052941112426 0 0 0 0 63.042427808613866 -40.052552457020511 0 -40.052552457020511 -232.48165638898672 0 0 0 0 21.768131278935471 -43.203297362174908 0 -43.203297362174908 -23.535104431728541 0 0 0 0 24.118715059070382 -52.048640960222656 0 -52.048640960222656 4.8913245895645332 0 0 0 0 33.37048382316425 -60.760103057842798 0 -60.760103057842798 -54.45760265822264 0 0 0 0 -3.7454341793782078 -72.584415566569533 0 -72.584415566569533 43.839217739398983 0 0 0 0 49.945996349510096 -40.579850524758285 0 -40.579850524758285 -47.49762442546762 0 0 0 0 39.544141908649181 -26.012086021906725 0 -26.012086021906725 -66.950218479094929 0 0 0 0 10.677600631008318 15.222612783941088 0 15.222612783941088 -9.1954525442274644 0 0 0 0 18.309547239605308 16.926254675466225 0 16.926254675466225 -64.620738934527708 0 0 0 0 21.443029427871807 5.0994131299905803 0 5.0994131299905803 -31.36196021024341 0 0 0 0 -0.37229453233521426 -0.58140602803852914 0 -0.58140602803852914 -3.2826783837118221 0 0 0 0 41.259972053329875 -10.840553837142863 0 -10.840553837142863 31.229729745598888 0 0 0 0 3.9027932480348682 41.874445498980094 0 41.874445498980094 -87.555408628885971 0 0 0 0 98.462291727428237 -37.814051781148464 0 -37.814051781148464 -15.078879033998419 0 0 0 0 66.069859494047705 -38.062515648023691 0 -38.062515648023691 0.60310102116727649 0 0 0 0 2.4490182816936894 -2.5327117621790194 0 -2.5327117621790194 -9.4464806723625934 0 0 0 0 71.682434573638602 -46.830998744143926 0 -46.830998744143926 -12.803231172618325 0 0 0 0 93.470354509117897 -33.85815471837941 0 -33.85815471837941 -10.50899365360965 0 0 0 0 25.91371820319182 -19.672055556293003 0 -19.672055556293003 -16.084144406062478 0 0 0 0 12.837113342735393 -15.569096644533829 0 -15.569096644533829 1.2146474653053474 0 0 0 0 9.6070907173088926 -4.3039365604165027 0 -4.3039365604165027 -18.007347403721724 0 0 0 0 10.412830583183791 -21.688854144600914 0 -21.688854144600914 -52.231073119643952 0 0 0 0 9.7108075513024232 -7.7386212239875931 0 -7.7386212239875931 -25.175510788314114 0 0 0 0 13.190782503344963 -1.2021971949918679 0 -1.2021971949918679 -31.49858424667309 0 0 0 0 20.445638858216626 -2.6805985052450296 0 -2.6805985052450296 -44.740609526699473 0 0 0 0 1.6462120636206237 -0.051541367194090526 0 -0.051541367194090526 -7.7687064129954706 0 0 0 0 27.605021150237008 -0.26953542019145971 0 -0.26953542019145971 6.5562372966437579 0 0 0 0 15.345362086529349 9.9578241108622478 0 9.9578241108622478 35.408183761940563 0 0 0 0 10.546026641169675 -4.1821399507325197 0 -4.1821399507325197 1.8509691683223393 0 0 0 0 104.59994049671513 82.931050957518437 0 82.931050957518437 91.044160849504578 0 0 0 0 164.75710396091745 61.558176488172649 0 61.558176488172649 28.974483378829973 0 0 0 0 37.740429064459022 48.506400951649312 0 48.506400951649312 73.329662914869004 0 0 0 0 126.90548307735298 25.905379614416688 0 25.905379614416688 3.9018909482747404 0 0 0 0 182.46305112664413 -69.998859827620208 0 -69.998859827620208 -55.334611283858521 0 0 0 0 224.16663968138528 -93.171160095393361 0 -93.171160095393361 -74.343929128680884 0 0 0 0 0.32297778980840874 -0.58507731551218001 0 -0.58507731551218001 -1.1480162093723916 0 0 0 0 203.96480495724973 -102.06476210895175 0 -102.06476210895175 -70.772393814094357 0 0 0 0 269.59154983068584 -14.800151736190855 0 -14.800151736190855 -52.802856850950775 0 0 0 0 636.42579783892143 -87.62103209976658 0 -87.62103209976658 -93.494413623010814 0 0 0 0 273.43103659731219 -133.74997247404463 0 -133.74997247404463 -60.553203475953524 0 0 0 0 206.34487231212916 -57.704666849477007 0 -57.704666849477007 -10.287967861548168 0 0 0 0 220.78190229627944 86.698727197874177 0 86.698727197874177 370.58642900845996 0 0 0 0 206.59424210672296 8.8391187408426504 0 8.8391187408426504 63.526146453697947 0 0 0 0 273.85533952996775 -206.10301007185603 0 -206.10301007185603 295.73004607705298 0 0 0 0 258.47905782979797 162.05397935134533 0 162.05397935134533 9.0854963159699764 0 0 0 0 125.30496492741804 -141.99821945348253 0 -141.99821945348253 32.037752623235974 0 0 0 0 18.625274119654932 -78.915971049714017 0 -78.915971049714017 43.780542528263595 0 0 0 0 3.9106559808281247 -1.4215795682276635 0 -1.4215795682276635 0.45250795744597649 0 0 0 0 8.0382503362905879 -3.2943259143489918 0 -3.2943259143489918 0.68576844174170581 0 0 0 0 7.4370695172592605 -19.429200263230655 0 -19.429200263230655 -1.4039312361619523 0 0 0 0 21.293473838071804 -9.5556250709983033 0 -9.5556250709983033 -52.286679621674466 0 0 0 0 6.8674157825880684 0.3585070561584871 0 0.3585070561584871 -53.975764611198656 0 0 0 0 -0.52222820947336857 -2.1747930587123214 0 -2.1747930587123214 0.5647494701575817 0 0 0 0 -0.64429046740758622 0.065383523883646433 0 0.065383523883646433 0.1688834865776645 0 0 0 0 -7.7965701502107549 18.790290112838193 0 18.790290112838193 19.958380372066131 0 0 0 0 210.75962461355084 -31.06216862920769 0 -31.06216862920769 1.7609803668124187 0 0 0 0 97.026678775808591 -42.936620541929543 0 -42.936620541929543 20.588687734545601 0 0 0 0 96.884713022052892 -46.267334276806196 0 -46.267334276806196 211.59975027207838 0 0 0 0 30.019018082530238 33.159841186293761 0 33.159841186293761 104.67010705828125 0 0 0 0 44.982057782697666 40.790591262018324 0 40.790591262018324 -81.631429742575619 0 0 0 0 7.3225807805793011 -21.083588865584716 0 -21.083588865584716 -27.154423919861983 0 0 0 0 -7.8339412386085314 -3.0797948210804407 0 -3.0797948210804407 18.033804369265454 0 0 0 0 21.904221723321825 16.501222052240337 0 16.501222052240337 20.296126532248081 0 0 0 0 9.0390280454885215 0.78452274981759729 0 0.78452274981759729 35.434883931615332 0 0 0 0 9.8829894569062162 -4.3255739553096646 0 -4.3255739553096646 30.334763740641392 0 0 0 0 24.715647568067652 0.93919062901341022 0 0.93919062901341022 12.423704225972642 0 0 0 0 4.6026757264335174 -5.3776748965760817 0 -5.3776748965760817 12.990661462878109 0 0 0 0 19.017634556133999 -8.9928993418266145 0 -8.9928993418266145 -21.799614410448157 0 0 0 0 6.9546152460097801 -6.2440003377946596 0 -6.2440003377946596 -22.247296606500754 0 0 0 0 56.415125779691152 18.61462606505961 0 18.61462606505961 26.166024715664207 0 0 0 0 22.383699342339241 15.110080074157167 0 15.110080074157167 43.702527031085083 0 0 0 0 35.882674990472879 -8.102771612502238 0 -8.102771612502238 30.88002497866546 0 0 0 0 36.857169204769889 20.725591402413556 0 20.725591402413556 35.195745092002653 0 0 0 0 26.408364263417752 33.347713132319768 0 33.347713132319768 50.367197715139355 0 0 0 0 42.634670546249254 50.689575907807466 0 50.689575907807466 43.672300857291702 0 0 0 0 47.377669858760783 46.88153930496901 0 46.88153930496901 58.757552201589533 0 0 0 0 14.101007295132149 4.151719880030214 0 4.151719880030214 64.874638544205482 0 0 0 0 49.558532474203275 27.418185205280736 0 27.418185205280736 65.126822694175644 0 0 0 0 109.84825387128512 50.647759899673019 0 50.647759899673019 66.832298226603143 0 0 0 0 63.649118978974002 66.156344375395292 0 66.156344375395292 50.958506247893183 0 0 0 0 25.899360543575312 28.416139350194953 0 28.416139350194953 -2.7859433975065713 0 0 0 0 61.676511115954781 51.483797565531859 0 51.483797565531859 8.2986746547385337 0 0 0 0 51.173832108310307 29.443798387592324 0 29.443798387592324 -6.3320463860181917 0 0 0 0 49.149119262083332 49.405019757365466 0 49.405019757365466 13.887983088285182 0 0 0 0 54.832572622326552 40.338428142291377 0 40.338428142291377 21.69367627108295 0 0 0 0 81.906788576154213 40.974023366695064 0 40.974023366695064 -18.917631043224901 0 0 0 0 101.11544062471512 13.558833461436734 0 13.558833461436734 4.4492075247412686 0 0 0 0 56.197252614520494 28.079396688486725 0 28.079396688486725 11.638772117478766 0 0 0 0 187.34442203936487 -122.31545186185554 0 -122.31545186185554 -2.2708898485029749 0 0 0 0 157.24228664492693 -87.821664779424054 0 -87.821664779424054 10.346362600628677 0 0 0 0 393.87208677158196 -21.774262347287049 0 -21.774262347287049 9.7023949651033945 0 0 0 0 98.546579807993112 18.672632554933102 0 18.672632554933102 91.184434778291688 0 0 0 0 242.62822100346966 6.31378896226488 0 6.31378896226488 20.553478942076254 0 0 0 0 88.656364317389489 -37.928355043099486 0 -37.928355043099486 14.834746053082654 0 0 0 0 93.751379650268063 -7.7464463621427058 0 -7.7464463621427058 -14.59231455303393 0 0 0 0 -31.134780441636394 -69.653652532196475 0 -69.653652532196475 -44.274890368249089 0 0 0 0 150.87020119699446 -134.63028323112121 0 -134.63028323112121 16.891991459598557 0 0 0 0 82.651631342000201 -107.45034373061402 0 -107.45034373061402 78.518590893186229 0 0 0 0 136.9134270873692 32.168498639035988 0 32.168498639035988 -24.702832817653643 0 0 0 0 271.05694975266306 -132.5409192759887 0 -132.5409192759887 -74.488589302053242 0 0 0 0 9.6801733381507802 -98.609065900528094 0 -98.609065900528094 -76.772774822809879 0 0 0 0 83.707588383236725 59.082571896156423 0 59.082571896156423 -163.87708139872075 0 0 0 0 108.37396308025927 -23.097697596371745 0 -23.097697596371745 -80.777750029078106 0 0 0 0 110.64817736291297 6.9411690550900857 0 6.9411690550900857 -228.02522847874161 0 0 0 0 28.251063872598582 1.5321335251243227 0 1.5321335251243227 -2.3087089897166493 0 0 0 0 34.865664156379125 6.2952298130524014 0 6.2952298130524014 -7.8274289916407724 0 0 0 0 91.056895977133536 55.502693010488656 0 55.502693010488656 -169.06583962254444 0 0 0 0 58.068601997230175 1.653774841252595 0 1.653774841252595 -4.6276678880299267 0 0 0 0 62.245804175159719 81.320216010524291 0 81.320216010524291 -188.49513039810449 0 0 0 0 -120.20088881847096 -0.91842125154710175 0 -0.91842125154710175 -45.795489822890886 0 0 0 0 -3.655439747983241 19.414345004433219 0 19.414345004433219 -0.46321538606793977 0 0 0 0 106.14190713481815 28.270259290100192 0 28.270259290100192 -14.823131858521302 0 0 0 0 47.543831596689415 21.096708100226351 0 21.096708100226351 -23.871587332677336 0 0 0 0 36.586852286416757 4.4243820090788102 0 4.4243820090788102 -2.9625260722658417 0 0 0 0 124.82035151595483 36.271046959783916 0 36.271046959783916 -34.648978905584954 0 0 0 0 95.081827556357894 -17.382406235817825 0 -17.382406235817825 -101.03400806286436 0 0 0 0 49.093760388641385 60.182721593771703 0 60.182721593771703 -29.414300688308913 0 0 0 0 13.678366771248875 78.45822496086879 0 78.45822496086879 -131.01877519322579 0 0 0 0 48.259341483775643 -33.163587450934756 0 -33.163587450934756 -52.935197509251793 0 0 0 0 56.741528063103033 -73.972769914300443 0 -73.972769914300443 -207.55404465423874 0 0 0 0 109.2310901335191 -13.729212580776435 0 -13.729212580776435 -4.3234514384905971 0 0 0 0 170.57118254899797 -56.183476874844018 0 -56.183476874844018 -142.78948415926698 0 0 0 0 -15.229407191642167 -118.66800164831099 0 -118.66800164831099 -105.45455269445392 0 0 0 0 13.893710301377723 -127.74594974587831 0 -127.74594974587831 -121.97684850979147 0 0 0 0 29.486032362472542 19.251105730157491 0 19.251105730157491 -15.265345200044521 0 0 0 0 -27.213192166585941 -122.2009278516166 0 -122.2009278516166 -36.788732934098675 0 0 0 0 67.625428489271144 -49.719589317827058 0 -49.719589317827058 -80.398513250465385 0 0 0 0 48.162588420476823 -39.986558289670711 0 -39.986558289670711 -16.398333477450251 0 0 0 0 84.685929443599889 -210.73701019685041 0 -210.73701019685041 -21.465098732329352 0 0 0 0 -420.80690607600354 291.45449271448979 0 291.45449271448979 103.44387842444939 0 0 0 0 249.12413094989643 161.02137924350609 0 161.02137924350609 96.465281615245658 0 0 0 0 1.3424201064751351 -2.1543532111898038 0 -2.1543532111898038 2.4743132143769415 0 0 0 0 959.53513248956733 -137.60876646206816 0 -137.60876646206816 -147.08979946112959 0 0 0 0 -212.52467617639741 76.926167215822716 0 76.926167215822716 10.980035763082128 0 0 0 0 31.535023829556849 -119.57220206481293 0 -119.57220206481293 132.91699917577489 0 0 0 0 212.4922732692612 -49.438773817869787 0 -49.438773817869787 -45.575868439128953 0 0 0 0 340.50324356514136 98.693506938484575 0 98.693506938484575 4.7861721546050831 0 0 0 0 327.56029726006602 -20.968648045312676 0 -20.968648045312676 -38.701984612410342 0 0 0 0 225.17443448260565 29.658866426716031 0 29.658866426716031 -30.339033641331298 0 0 0 0 223.82915640197098 33.788063133891683 0 33.788063133891683 -32.198642555987135 0 0 0 0 98.987466351256444 104.14651609030443 0 104.14651609030443 74.920315802020014 0 0 0 0 41.188455385372436 -25.375821263771286 0 -25.375821263771286 -36.628597748197535 0 0 0 0 41.562123489067744 -16.647862712441565 0 -16.647862712441565 -48.584324196651778 0 0 0 0 28.966456811378521 -11.558847742029229 0 -11.558847742029229 -30.012258408517482 0 0 0 0 12.597746306300103 7.9780413451421488 0 7.9780413451421488 -8.397679531882833 0 0 0 0 74.629858081516431 -28.70156200569636 0 -28.70156200569636 -9.8568453647046681 0 0 0 0 69.121608749643201 20.514958133246182 0 20.514958133246182 -3.4298979035206685 0 0 0 0 28.674444477422185 -16.386416942142205 0 -16.386416942142205 -11.909041275554955 0 0 0 0 74.766205689125854 78.174752474252273 0 78.174752474252273 44.370399623867343 0 0 0 0 84.939638883364751 13.034035897233935 0 13.034035897233935 -21.942275092962518 0 0 0 0 130.72976529408334 150.54921496509178 0 150.54921496509178 17.902627610482796 0 0 0 0 117.13028937883428 97.562685827738733 0 97.562685827738733 4.0340807460092947 0 0 0 0 22.806293191923714 4.0632979074961781 0 4.0632979074961781 -16.10421526816026 0 0 0 0 10.650437007352366 91.339990538301265 0 91.339990538301265 151.93889797923293 0 0 0 0 22.70468746069001 2.3492358485364413 0 2.3492358485364413 0.66051514466846895 0 0 0 0 23.279254153927013 23.661646267061997 0 23.661646267061997 -21.906660079852372 0 0 0 0 74.054021158521209 25.309725697227805 0 25.309725697227805 -71.823944695439081 0 0 0 0 48.517044623760739 -30.185753728927011 0 -30.185753728927011 7.2105585112503832 0 0 0 0 31.574145763470824 -21.441887970862354 0 -21.441887970862354 2.7275450534507399 0 0 0 0 46.985880916730821 -30.904660392467576 0 -30.904660392467576 -4.7240867873451862 0 0 0 0 81.412101473928487 -20.024319969524186 0 -20.024319969524186 -0.10351876455570164 0 0 0 0 78.836279842326803 -3.781121052991864 0 -3.781121052991864 -3.2222125143380254 0 0 0 0 33.433724452104798 -21.378221235296223 0 -21.378221235296223 1.8993331220244727 0 0 0 0 -15.884774136491615 108.77283700596175 0 108.77283700596175 -15.802560709716545 0 0 0 0 22.099646251790773 -131.16653692050636 0 -131.16653692050636 -38.354281154364344 0 0 0 0 78.01921187804146 15.324839306499598 0 15.324839306499598 -26.088561121096063 0 0 0 0 185.90302878076909 -154.91486591783359 0 -154.91486591783359 -224.00643171577849 0 0 0 0 55.05890706254209 -5.024089608027964 0 -5.024089608027964 -2.8848015875425355 0 0 0 0 126.68295500560725 69.505334287701999 0 69.505334287701999 -108.61149980720165 0 0 0 0 -20.323654197818541 -15.478128966817621 0 -15.478128966817621 -29.130433895000351 0 0 0 0 6.8054459148285176 -4.5152325799245085 0 -4.5152325799245085 -2.1495445396136539 0 0 0 0 -15.252159782656236 75.272702636624217 0 75.272702636624217 58.889989428287663 0 0 0 0 54.981558553776978 -1.9282629092956078 0 -1.9282629092956078 -3.3802981385030062 0 0 0 0 12.818291972253064 18.989569018305701 0 18.989569018305701 39.329540951111312 0 0 0 0 116.17701332503202 5.9831338488147594 0 5.9831338488147594 -29.059498203921066 0 0 0 0 48.92651138533256 -8.4544854642063001 0 -8.4544854642063001 -15.042617780010232 0 0 0 0 130.01294279081048 14.921517220253918 0 14.921517220253918 -29.04502555799445 0 0 0 0 91.970384930376895 -71.478473393912282 0 -71.478473393912282 19.716979043514584 0 0 0 0 9.1638641845981894 3.2140102411814553 0 3.2140102411814553 -1.3694530369320042 0 0 0 0 9.9524334853830538 -6.3123466334582314 0 -6.3123466334582314 -3.5524380705269589 0 0 0 0 25.391547064355109 -96.309907977969488 0 -96.309907977969488 68.691271484975005 0 0 0 0 81.322019789301379 -29.601719235300827 0 -29.601719235300827 -32.49006703823359 0 0 0 0 23.350544184279443 5.1244167228225024 0 5.1244167228225024 17.960087311261304 0 0 0 0 106.17029079723943 -5.750068278789513 0 -5.750068278789513 9.8317204369923274 0 0 0 0 71.257405288517475 14.482131620396103 0 14.482131620396103 3.2326179083538591 0 0 0 0 -34.928842968249228 -139.11097945548181 0 -139.11097945548181 -10.956512278637092 0 0 0 0 124.61231092059461 -11.659266209981979 0 -11.659266209981979 -17.491132005112377 0 0 0 0 464.01902879259069 -119.82001912072519 0 -119.82001912072519 -99.807156746302098 0 0 0 0 413.19373712960805 362.08317981050277 0 362.08317981050277 118.83256401397648 0 0 0 0 241.80586510309877 241.76001223552157 0 241.76001223552157 52.341190739343801 0 0 0 0 124.73815900851696 333.38316644382485 0 333.38316644382485 384.50997424369962 0 0 0 0 177.81300082696544 -150.6547847394645 0 -150.6547847394645 264.06500128241896 0 0 0 0 107.49627360833983 211.37958323294788 0 211.37958323294788 296.32889822169932 0 0 0 0 -66.46929501249906 -95.339037618307884 0 -95.339037618307884 214.9398513080414 0 0 0 0 7.5862140449311966 1.409620617783272 0 1.409620617783272 0.46772018029046736 0 0 0 0 370.78626265122512 280.22062387227606 0 280.22062387227606 94.395631779801988 0 0 0 0 177.71528697556641 199.31395103466184 0 199.31395103466184 53.919399646543752 0 0 0 0 190.3329289629396 138.77615079513328 0 138.77615079513328 -12.511100082929261 0 0 0 0 140.19935878135948 128.38544437135897 0 128.38544437135897 -2.5255803218351502 0 0 0 0 515.14149320624347 -1.5061638392894565 0 -1.5061638392894565 -72.141643844231112 0 0 0 0 41.006395610318577 2.893982871381013 0 2.893982871381013 -39.053816638316903 0 0 0 0 24.861300297804863 -12.750622092672163 0 -12.750622092672163 4.1203612189509347 0 0 0 0 5.2044011993621098 -173.95293415266678 0 -173.95293415266678 -143.72953245503686 0 0 0 0 65.984833889429865 -237.08098403772738 0 -237.08098403772738 -104.13613321387561 0 0 0 0 -325.94024565727887 -154.2550753938558 0 -154.2550753938558 -76.295111768219613 0 0 0 0 71.725073212364805 29.374790229057908 0 29.374790229057908 -39.193101401207969 0 0 0 0 -146.01594123449831 183.49286566385126 0 183.49286566385126 21.013217430378063 0 0 0 0 34.110739618292882 -132.32879580444455 0 -132.32879580444455 -297.35071976845211 0 0 0 0 37.233186469937209 170.69870879588416 0 170.69870879588416 -2.0909198115432446 0 0 0 0 8.1072947939464939 180.51142858301728 0 180.51142858301728 197.12147408954479 0 0 0 0 31.796360330463358 -38.377779731889405 0 -38.377779731889405 -427.36026903656784 0 0 0 0 -1.2573466540416121 -31.188952016853364 0 -31.188952016853364 -220.65453782047462 0 0 0 0 -51.396657932014932 80.634045112342392 0 80.634045112342392 -11.088025390425173 0 0 0 0 -165.13356611036488 -120.85486096561152 0 -120.85486096561152 -260.2530771740403 0 0 0 0 16.556797579463783 -6.359861578853728 0 -6.359861578853728 0.47953365909136814 0 0 0 0 55.754349912731413 19.295111779847957 0 19.295111779847957 30.494952342135775 0 0 0 0 66.653887855054563 -14.569328323798118 0 -14.569328323798118 95.708399346112856 0 0 0 0 18.950132424691756 -1.0291566169373176 0 -1.0291566169373176 5.2093000300600778 0 0 0 0 19.082424424563214 -40.734732527715096 0 -40.734732527715096 -367.97332535728401 0 0 0 0 8.4608011852907463 -3.3475377721739292 0 -3.3475377721739292 -1.2136053381534389 0 0 0 0 30.881839490988437 6.8999852438905407 0 6.8999852438905407 -9.2573579395491077 0 0 0 0 177.18936116336045 364.90277023430554 0 364.90277023430554 300.78078589982766 0 0 0 0 55.858152670312847 81.538714748137863 0 81.538714748137863 -5.1427450870478424 0 0 0 0 538.52290744981656 869.92200968923726 0 869.92200968923726 536.0120080423203 0 0 0 0 -189.3825593778547 252.72700517423436 0 252.72700517423436 311.36200816797412 0 0 0 0 1861.3356223322153 94.965523664999637 0 94.965523664999637 390.56610870619193 0 0 0 0 1868.8296926491967 522.28119636144402 0 522.28119636144402 -179.7571846051228 0 0 0 0 322.99308782517255 -619.59618091044831 0 -619.59618091044831 -118.56413320184947 0 0 0 0 7.7062416565657017 -3.0924268839981579 0 -3.0924268839981579 -0.90733054124976498 0 0 0 0 1764.7025590045232 -238.43362386400986 0 -238.43362386400986 -80.732893414173304 0 0 0 0 5.7829508414096793 -2.972616150795627 0 -2.972616150795627 1.1948975670644124 0 0 0 0 2143.0477276823549 302.3935149383442 0 302.3935149383442 204.1963132046485 0 0 0 0 2044.7352980567484 43.549910944091607 0 43.549910944091607 -94.056447911183568 0 0 0 0 2154.2028673785662 -26.786756345857981 0 -26.786756345857981 26.918394828393502 0 0 0 0 37.409586857771501 -9.6435855258687297 0 -9.6435855258687297 122.56601513611895 0 0 0 0 -98.394721070144442 148.48767169630628 0 148.48767169630628 -374.59847040356635 0 0 0 0 -325.64983089498128 -319.05048028229248 0 -319.05048028229248 28.276357910977822 0 0 0 0 -290.2233276566476 -196.85726914445877 0 -196.85726914445877 90.867288325403933 0 0 0 0 118.6373552174191 -417.08471831991119 0 -417.08471831991119 48.165772730813842 0 0 0 0 -19.422905604202242 -107.51652228022431 0 -107.51652228022431 -18.290281415045683 0 0 0 0 -206.45568368728345 34.059271682894178 0 34.059271682894178 29.638402245693214 0 0 0 0 -446.92502593017525 64.016543937747201 0 64.016543937747201 -79.477908926342934 0 0 0 0 71.770313651286415 -20.107667190442498 0 -20.107667190442498 24.120808253650466 0 0 0 0 253.64422821914195 -175.06406846703612 0 -175.06406846703612 164.33017946269615 0 0 0 0 -100.77379027678035 -139.72952418375917 0 -139.72952418375917 175.52568296546815 0 0 0 0 179.15548227763065 -267.1843620964155 0 -267.1843620964155 98.710663321117636 0 0 0 0 94.243867751778453 -370.11517642916715 0 -370.11517642916715 135.87592285696519 0 0 0 0 307.71419049045653 -375.31629602607427 0 -375.31629602607427 49.313161290187054 0 0 0 0 543.70064175568405 -387.55781954710437 0 -387.55781954710437 105.49876098406094 0 0 0 0 540.454503223551 -263.36893140346729 0 -263.36893140346729 142.48467466067291 0 0 0 0 200.79575501731233 -235.95470731702426 0 -235.95470731702426 161.96171542914817 0 0 0 0 38.410155047477019 -61.46843118398283 0 -61.46843118398283 211.50915011578945 0 0 0 0 284.81233816011445 -92.210280057084674 0 -92.210280057084674 211.0425987299659 0 0 0 0 1608.1398216023517 97.304830421138831 0 97.304830421138831 -27.653255584913495 0 0 0 0 2047.9405746281409 312.67576105365515 0 312.67576105365515 951.07167935110192 0 0 0 0 2622.3749760894207 675.40506656005891 0 675.40506656005891 276.57133594107654 0 0 0 0 2772.412509287863 -352.66332683590895 0 -352.66332683590895 -389.06455932792596 0 0 0 0 1956.4970256600282 -658.23119385820428 0 -658.23119385820428 -156.75906398027655 0 0 0 0 1923.409070407135 -300.65003553214956 0 -300.65003553214956 -201.50387732850868 0 0 0 0 1896.419282029834 -275.72481066272303 0 -275.72481066272303 -190.97953938637147 0 0 0 0 503.19233616506972 -474.6432530531365 0 -474.6432530531365 115.42585014847464 0 0 0 0 1183.1466778437316 -671.93134651567016 0 -671.93134651567016 -149.97914373708591 0 0 0 0 1106.2234494816712 -549.69060443855415 0 -549.69060443855415 24.425917142929393 0 0 0 0 1125.4390122055629 -596.20430895611753 0 -596.20430895611753 49.557467317416013 0 0 0 0 382.79919131321367 -583.98256417325865 0 -583.98256417325865 45.511391356249078 0 0 0 0 1078.6286783975665 -444.61410439186056 0 -444.61410439186056 23.08351112188393 0 0 0 0 1182.2619522987752 -165.62664910032049 0 -165.62664910032049 -135.21850683278535 0 0 0 0 1079.3039459664287 -204.79327698684665 0 -204.79327698684665 -146.99164645950714 0 0 0 0 549.69079372807755 -245.28608651484501 0 -245.28608651484501 14.34659465025652 0 0 0 0 982.51383085722227 -128.40530517315983 0 -128.40530517315983 -64.940970621690212 0 0 0 0 665.46086758651654 -14.264023065159563 0 -14.264023065159563 -105.98653219325297 0 0 0 0 304.41755106135315 -94.11621970196984 0 -94.11621970196984 169.38494170687954 0 0 0 0 652.94627435955408 28.629527994200544 0 28.629527994200544 53.644496271897879 0 0 0 0 321.25459178666279 -38.280496672188747 0 -38.280496672188747 146.81647405715103 0 0 0 0 287.26834204942861 166.75812702167786 0 166.75812702167786 143.63471999434478 0 0 0 0 303.00677495419222 57.080217519098028 0 57.080217519098028 279.17585346389205 0 0 0 0 137.26493754240073 -9.2466898561579001 0 -9.2466898561579001 264.82322524366305 0 0 0 0 244.92976080048902 -15.136333543629007 0 -15.136333543629007 -19.122961414666406 0 0 0 0 1.3784408600668314 1.7910432977087822 0 1.7910432977087822 0.71520447450073288 0 0 0 0 54.917844728985074 227.38873130588127 0 227.38873130588127 305.09253764352366 0 0 0 0 187.0183733061931 279.83672402811681 0 279.83672402811681 167.12350313089337 0 0 0 0 75.052500857218547 309.35551852303252 0 309.35551852303252 183.39891003034609 0 0 0 0 -11.79107495000062 247.16109260832127 0 247.16109260832127 149.11846512315424 0 0 0 0 23.0490341444347 232.86088823567252 0 232.86088823567252 153.9124945751264 0 0 0 0 21.11981032228141 45.950925599954644 0 45.950925599954644 3.5620287780093349 0 0 0 0 63.157268348757498 -81.002798566417368 0 -81.002798566417368 142.33449549017678 0 0 0 0 47.072907755096821 125.84824550787471 0 125.84824550787471 120.95473329519336 0 0 0 0 258.36752587805404 21.503673893159316 0 21.503673893159316 171.67299525570525 0 0 0 0 36.152441915234931 -7.8381246113713541 0 -7.8381246113713541 3.669870084287119 0 0 0 0 47.100231166954472 -1.8375937253740631 0 -1.8375937253740631 -8.1747216763268398 0 0 0 0 34.624819250214387 -13.673398009150162 0 -13.673398009150162 12.051138877245194 0 0 0 0 12.063033454403765 -5.1349625734812463 0 -5.1349625734812463 11.341246228034249 0 0 0 0 45.255928108235821 -12.000301786776618 0 -12.000301786776618 11.852140216995849 0 0 0 0 31.611788479601479 -16.956901404031015 0 -16.956901404031015 6.4385474057675047 0 0 0 0 15.122683183504705 3.3864738645362422 0 3.3864738645362422 44.113845418698475 0 0 0 0 21.723140718332289 -2.7897478480230387 0 -2.7897478480230387 2.4251071295866078 0 0 0 0 -663.66036330586758 40.886979349425474 0 40.886979349425474 417.39415919964995 0 0 0 0 -105.9777551966763 -227.93765291129785 0 -227.93765291129785 -204.17662952825594 0 0 0 0 42.315095230850602 -19.243573173044865 0 -19.243573173044865 17.213783966513802 0 0 0 0 134.35538476603779 25.661884704570411 0 25.661884704570411 22.049246610793944 0 0 0 0 1037.0690842259137 -602.39711149399659 0 -602.39711149399659 258.98352291808317 0 0 0 0 138.96559757405885 -79.872351271682234 0 -79.872351271682234 136.20306344875235 0 0 0 0 10.392951151295861 -0.60955966298265274 0 -0.60955966298265274 -0.39221350057434456 0 0 0 0 1429.5473043503007 345.27849794105623 0 345.27849794105623 -184.22802655425994 0 0 0 0 1817.0482911650106 291.49168548428315 0 291.49168548428315 -207.09422924410865 0 0 0 0 556.93976375866259 189.50083175752025 0 189.50083175752025 187.31954342565041 0 0 0 0 557.34411735282993 99.687136619684225 0 99.687136619684225 639.88274774971251 0 0 0 0 1463.2257304158557 -52.32545144031792 0 -52.32545144031792 873.24472332889115 0 0 0 0 1029.606339735652 518.96477310372029 0 518.96477310372029 274.48866542278847 0 0 0 0 936.01976510009263 549.440189685105 0 549.440189685105 209.56306621027807 0 0 0 0 1068.4597931010685 256.94431364192576 0 256.94431364192576 182.28013257017847 0 0 0 0 1746.8309120532685 483.28957898122371 0 483.28957898122371 130.67634725234893 0 0 0 0 1085.6771742496348 161.93939315354328 0 161.93939315354328 580.40461666468036 0 0 0 0 1672.3708036159987 643.17370293841032 0 643.17370293841032 909.04069713098943 0 0 0 0 652.58925143594024 410.37859074577227 0 410.37859074577227 163.64450465559639 0 0 0 0 877.20454330331995 127.36789098732334 0 127.36789098732334 -49.824725980978201 0 0 0 0 1272.9063949741394 180.42925786352498 0 180.42925786352498 -45.624723933564383 0 0 0 0 1185.3024589355327 94.473506797410096 0 94.473506797410096 -193.22184291777558 0 0 0 0 639.26155504747112 -10.426740624541253 0 -10.426740624541253 -140.24907853907007 0 0 0 0 283.42203621608314 334.32205472640089 0 334.32205472640089 15.112630330427919 0 0 0 0 3.8248743793364035 6.330585560465817 0 6.330585560465817 6.2510157720018675 0 0 0 0 -301.52219055857495 23.826538707983218 0 23.826538707983218 298.42318959625527 0 0 0 0 571.98891774443018 206.82734772641254 0 206.82734772641254 -71.675248703159014 0 0 0 0 75.964526326906707 -18.671190633752758 0 -18.671190633752758 -10.765284000060547 0 0 0 0 65.290229178513982 -2.367228433383616 0 -2.367228433383616 -24.951929087062126 0 0 0 0 -275.63878319451396 14.297152963752524 0 14.297152963752524 85.717000084748634 0 0 0 0 31.296396343859669 11.30148898418679 0 11.30148898418679 -15.009410716324055 0 0 0 0 8.7901177270833699 3.7682083705824425 0 3.7682083705824425 8.014832930948355 0 0 0 0 59.854548565483128 -26.813881940824103 0 -26.813881940824103 -1.60810594745044 0 0 0 0 34.265002296804596 -12.817303418418078 0 -12.817303418418078 -1.4572328645272137 0 0 0 0 90.988872819496464 -45.889525886008869 0 -45.889525886008869 47.054801337080789 0 0 0 0 82.305655843930481 -20.359974684582113 0 -20.359974684582113 11.410482916669935 0 0 0 0 68.177921881118891 -21.29498881004929 0 -21.29498881004929 11.373979489629164 0 0 0 0 80.291606287271861 -34.651335709849263 0 -34.651335709849263 3.0133001104450159 0 0 0 0 78.355019068745605 -31.105066308424284 0 -31.105066308424284 123.18896143427446 0 0 0 0 25.546452486456474 52.478500975710858 0 52.478500975710858 -56.191693640765152 0 0 0 0 -52.128347412397488 173.64644383845939 0 173.64644383845939 80.8514003016262 0 0 0 0 123.00838089417994 -42.455677548728545 0 -42.455677548728545 -6.0435433700320118 0 0 0 0 1001.7537827153865 -86.0225172945552 0 -86.0225172945552 -157.45031098329673 0 0 0 0 1358.2051896714129 -77.242379483403965 0 -77.242379483403965 -196.09922491232555 0 0 0 0 2.6714267106067027 2.4092300960435971 0 2.4092300960435971 2.5543260774874739 0 0 0 0 928.07196579284027 -69.456155641085161 0 -69.456155641085161 -191.92742864606316 0 0 0 0 878.58066520414832 -196.21347953004056 0 -196.21347953004056 -196.20926888549093 0 0 0 0 669.74686239907714 -258.45178052010692 0 -258.45178052010692 180.84854955250739 0 0 0 0 181.02711927343262 -12.613304683271508 0 -12.613304683271508 149.24795842756066 0 0 0 0 176.38842728310738 -35.804830929410969 0 -35.804830929410969 127.78254009792909 0 0 0 0 722.29288212611209 139.64957403067547 0 139.64957403067547 66.518083981213749 0 0 0 0 139.33987494659596 0.52294635795260547 0 0.52294635795260547 101.22249315198769 0 0 0 0 100.02369001351326 -28.740219603444984 0 -28.740219603444984 192.53003584925318 0 0 0 0 63.807514278929375 9.9893992355600858 0 9.9893992355600858 162.4976937467145 0 0 0 0 67.897813240473624 17.029945639829748 0 17.029945639829748 108.12803822283013 0 0 0 0 64.06810000391124 -34.240998636218592 0 -34.240998636218592 97.529755828835732 0 0 0 0 86.627465286832376 9.9772820056359706 0 9.9772820056359706 94.610176937795586 0 0 0 0 132.02735752807348 -35.004572149517571 0 -35.004572149517571 -7.5859237046433918 0 0 0 0 102.2872688169864 -21.321553119341161 0 -21.321553119341161 57.545638999521543 0 0 0 0 0.74893289360261406 -97.715926946990749 0 -97.715926946990749 -6.5800943004878718 0 0 0 0 40.255294578048051 -77.988507873631988 0 -77.988507873631988 -32.734081480110035 0 0 0 0 35.394661477854243 -65.444206516411214 0 -65.444206516411214 -64.043157882930245 0 0 0 0 45.970622685774288 -45.90911083579249 0 -45.90911083579249 30.298420245597299 0 0 0 0 2.7210280362851336 -9.5953234092272623 0 -9.5953234092272623 74.704091635467194 0 0 0 0 189.7277519133786 -17.411766772539522 0 -17.411766772539522 -2.9677271664163527 0 0 0 0 20.585738507448696 -3.7411659304225395 0 -3.7411659304225395 18.582212143882771 0 0 0 0 6.5642209991128766 -43.868411813580678 0 -43.868411813580678 36.689729768057077 0 0 0 0 -5.4213073455284757 13.87766322796142 0 13.87766322796142 28.624571928830846 0 0 0 0 -16.532298206479027 -38.80139806673742 0 -38.80139806673742 31.907418481718196 0 0 0 0 64.384969265453037 -63.496900693342695 0 -63.496900693342695 55.857245139348379 0 0 0 0 378.23831483212052 42.354145774333119 0 42.354145774333119 68.087090022077064 0 0 0 0 172.96890503962277 77.117887825905882 0 77.117887825905882 116.21899772726647 0 0 0 0 694.2365304400555 142.27845903475827 0 142.27845903475827 -19.252033831844983 0 0 0 0 394.76663608894887 117.58613738899203 0 117.58613738899203 32.02684935648449 0 0 0 0 697.35635603930859 103.69586120451322 0 103.69586120451322 -32.367060216446134 0 0 0 0 915.35547259025589 105.97779428290005 0 105.97779428290005 -82.602363556636192 0 0 0 0 1113.2892217893859 222.40957167520196 0 222.40957167520196 -57.473659095229777 0 0 0 0 331.93411522379756 203.34413171509345 0 203.34413171509345 71.761881511312822 0 0 0 0 833.76928946882072 247.76957571964147 0 247.76957571964147 -287.23546285860084 0 0 0 0 -40.239074756533228 106.96417033400712 0 106.96417033400712 48.242390115196031 0 0 0 0 -1.8421713025518187 0.94739996251659875 0 0.94739996251659875 1.2041650619590847 0 0 0 0 913.91188674611112 49.871517762056101 0 49.871517762056101 85.584535652085833 0 0 0 0 1237.2846853355113 541.60153603065282 0 541.60153603065282 -38.399982958666442 0 0 0 0 1139.4477768816505 -378.96701860199664 0 -378.96701860199664 -109.57391241594269 0 0 0 0 280.54271296188563 -83.62750126375704 0 -83.62750126375704 -141.37559294643825 0 0 0 0 10.951523706938247 -5.9134785287842604 0 -5.9134785287842604 -0.62437646837796024 0 0 0 0 -41.600812665690682 600.08719486196878 0 600.08719486196878 -20.131795649200285 0 0 0 0 67.768493868803489 -12.039608963502815 0 -12.039608963502815 -58.480352541618458 0 0 0 0 117.07289084872355 -44.236864263174084 0 -44.236864263174084 -53.192847619418899 0 0 0 0 13.880886934679438 -47.01514945506915 0 -47.01514945506915 -5.6290781871805393 0 0 0 0 57.328249754089484 -53.210823857622927 0 -53.210823857622927 -7.4211913640165221 0 0 0 0 27.921562982786796 -28.854841744847519 0 -28.854841744847519 -11.074623380485777 0 0 0 0 71.45169087117938 -45.387850882063276 0 -45.387850882063276 -21.813832328420176 0 0 0 0 81.482701249035017 -41.770556895746267 0 -41.770556895746267 5.0955340121818153 0 0 0 0 48.920907143816294 -20.232558043223889 0 -20.232558043223889 -17.325906658693611 0 0 0 0 22.531424464588497 -8.7048196405118219 0 -8.7048196405118219 -18.219301045828267 0 0 0 0 52.73415773159104 -49.157186836673418 0 -49.157186836673418 14.859799319377998 0 0 0 0 64.415079129867081 -30.284077314874594 0 -30.284077314874594 -0.73836638296597812 0 0 0 0 68.259609695274776 -36.605726767489614 0 -36.605726767489614 4.2926662295722053 0 0 0 0 -980.17083716782236 -342.19045389489429 0 -342.19045389489429 410.99051415463236 0 0 0 0 35.024039017401023 -41.179395922717845 0 -41.179395922717845 3.7627619102199077 0 0 0 0 2218.8827093593245 666.58523790102481 0 666.58523790102481 -32.682884179846951 0 0 0 0 2188.3648722692087 -276.67322109747784 0 -276.67322109747784 -104.92268299448529 0 0 0 0 1739.5393201922125 -1292.7949599170697 0 -1292.7949599170697 239.4855337132667 0 0 0 0 2700.7515609435814 1142.2963929441557 0 1142.2963929441557 -231.35846370349464 0 0 0 0 -93.743390387469844 192.67954845795975 0 192.67954845795975 2275.8438060733642 0 0 0 0 -71.002179949064157 330.70562797494586 0 330.70562797494586 44.310774456414947 0 0 0 0 -501.83483353001066 -1389.4427893993543 0 -1389.4427893993543 132.24763717578332 0 0 0 0 -961.90858768740873 -807.6824221515235 0 -807.6824221515235 -598.54921089990967 0 0 0 0 428.23167274642037 -738.24348404049124 0 -738.24348404049124 -1001.310895419263 0 0 0 0 151.8683419977333 -155.2762988863451 0 -155.2762988863451 -467.70713048206017 0 0 0 0 -496.22077044222533 -777.45430294145626 0 -777.45430294145626 -719.98041309372275 0 0 0 0 22.313957543392625 3.6116686509437983 0 3.6116686509437983 -2.2271476507451666 0 0 0 0 -249.95688152913135 357.69313311863425 0 357.69313311863425 -431.63578153790513 0 0 0 0 951.40949795132474 -143.64276626077572 0 -143.64276626077572 -1010.3530484650546 0 0 0 0 60.504675456998896 30.988862126544824 0 30.988862126544824 15.346061067967028 0 0 0 0 667.86870946353156 -120.5114624166772 0 -120.5114624166772 62.795801038744685 0 0 0 0 205.5262290046885 59.394026641546589 0 59.394026641546589 -1058.4266715726844 0 0 0 0 36.084641750904524 -5.6885867724518988 0 -5.6885867724518988 -16.450579313427276 0 0 0 0 47.076291106091951 -20.330013478047505 0 -20.330013478047505 -24.263247815010956 0 0 0 0 54.057365626642422 -130.58374921184804 0 -130.58374921184804 -232.63100820592445 0 0 0 0 79.536493027371762 -0.59930088206237997 0 -0.59930088206237997 -9.8198457521939417 0 0 0 0 58.006574836046696 -0.48535945509647505 0 -0.48535945509647505 -14.603122897117082 0 0 0 0 44.049818139789863 -10.773422506630226 0 -10.773422506630226 -10.09742507826013 0 0 0 0 56.483750278996013 -9.6766659259646985 0 -9.6766659259646985 -14.226855235320727 0 0 0 0 56.377855820999457 -8.0004804016401181 0 -8.0004804016401181 8.8491541775929363 0 0 0 0 65.024004817692912 -29.078629999742589 0 -29.078629999742589 1.383821048972095 0 0 0 0 69.213513832568424 -26.321675387640425 0 -26.321675387640425 -1.0888615155181469 0 0 0 0 60.338535728675197 -22.485228101712892 0 -22.485228101712892 -7.4907985399840982 0 0 0 0 60.091161616059253 -24.848626405600953 0 -24.848626405600953 -23.34837242336107 0 0 0 0 54.21008850603539 -34.290535764134802 0 -34.290535764134802 -0.40221805692817725 0 0 0 0 34.664818856276 -35.618616610103167 0 -35.618616610103167 -14.678164415488972 0 0 0 0 54.246243654633872 -35.047012879312206 0 -35.047012879312206 -11.271084166673973 0 0 0 0 4.8750621082701002 0.86977847569718136 0 0.86977847569718136 -0.19705152431402606 0 0 0 0 194.48345296086336 141.44812256596379 0 141.44812256596379 104.36220439673525 0 0 0 0 20.816633314170758 8.8389296059776825 0 8.8389296059776825 68.699012302598931 0 0 0 0 51.331488677165908 81.789104279459934 0 81.789104279459934 103.28116092934215 0 0 0 0 100.27075957332272 47.416027412318726 0 47.416027412318726 126.70317059096305 0 0 0 0 61.568132754742692 51.863213377883767 0 51.863213377883767 177.79313807279118 0 0 0 0 44.037039164304588 6.7445691585890017 0 6.7445691585890017 102.60297030602305 0 0 0 0 10.480378780856199 -10.625240837695516 0 -10.625240837695516 6.6299272322387282 0 0 0 0 61.442851339659683 33.841474685189951 0 33.841474685189951 -55.486767000946202 0 0 0 0 -3.9334126442299748 -57.279071624997869 0 -57.279071624997869 -10.06182403582352 0 0 0 0 -16.897040660682251 75.075794963848239 0 75.075794963848239 42.633088345668511 0 0 0 0 -638.18823098212306 306.72703967489724 0 306.72703967489724 40.665629832819832 0 0 0 0 72.034838407390538 -10.188018004004224 0 -10.188018004004224 -2.1705748381033079 0 0 0 0 273.5105127003917 -1.8247800247354462 0 -1.8247800247354462 -247.89123153006949 0 0 0 0 1472.9474288067286 -997.473939339352 0 -997.473939339352 -1606.7366160256397 0 0 0 0 -86.459696941252332 279.33862365258574 0 279.33862365258574 -582.68839419321012 0 0 0 0 423.802321825322 -241.93222098222031 0 -241.93222098222031 -397.38169524645855 0 0 0 0 1615.3191913299088 -2164.7973604307444 0 -2164.7973604307444 -58.547340728928248 0 0 0 0 247.17817493615439 190.56027939591422 0 190.56027939591422 -132.88480467155568 0 0 0 0 116.49181120394496 -74.821597616537474 0 -74.821597616537474 -154.64723153227897 0 0 0 0 46.577371981416945 35.085709979361127 0 35.085709979361127 113.32480992168348 0 0 0 0 183.42980003533012 30.087909415940885 0 30.087909415940885 -93.012122466156143 0 0 0 0 184.97385134221622 -27.441006765277052 0 -27.441006765277052 109.5061032389367 0 0 0 0 167.67882836005265 -119.73300232600525 0 -119.73300232600525 239.53951149940985 0 0 0 0 174.83694574118817 81.297576175064023 0 81.297576175064023 188.02836732029573 0 0 0 0 161.00840933866857 -137.83760774697657 0 -137.83760774697657 209.29157579790763 0 0 0 0 1161.4025184550774 -756.64614241272375 0 -756.64614241272375 400.88552613233878 0 0 0 0 852.05268219232676 1955.7013081855202 0 1955.7013081855202 475.04011924106953 0 0 0 0 82.304135528225743 -429.86671826760357 0 -429.86671826760357 744.49164892059343 0 0 0 0 32.320973500240413 1.3116432959762321 0 1.3116432959762321 -0.032926034826050277 0 0 0 0 347.44776498067222 1657.9667807776514 0 1657.9667807776514 311.85370862519449 0 0 0 0 322.66580867175799 1678.653912239351 0 1678.653912239351 304.99438140336133 0 0 0 0 2301.3963118897809 -1127.7232975004454 0 -1127.7232975004454 457.20868172694645 0 0 0 0 17.736302106828788 13.475511567164249 0 13.475511567164249 10.7009794824056 0 0 0 0 1135.0898180351883 -264.05270919581392 0 -264.05270919581392 -93.979086783878302 0 0 0 0 724.73231556009705 -324.24926758791753 0 -324.24926758791753 85.154654149976523 0 0 0 0 1137.5927537461976 -67.339484513151547 0 -67.339484513151547 -215.30148560042289 0 0 0 0 299.56558063753619 488.37270563353923 0 488.37270563353923 -203.10171381381534 0 0 0 0 2432.8175437143123 626.74526126533669 0 626.74526126533669 -37.817915001774963 0 0 0 0 -400.7397291264715 214.35641353154824 0 214.35641353154824 636.15654869040554 0 0 0 0 450.62896381132305 -567.49219216614438 0 -567.49219216614438 2079.8773736621624 0 0 0 0 781.76597889258119 959.43900996989396 0 959.43900996989396 1548.6154249886822 0 0 0 0 565.97934105389868 260.4915829408933 0 260.4915829408933 393.73590806202265 0 0 0 0 -542.52590531743772 6.5590127578652755 0 6.5590127578652755 844.03492910675413 0 0 0 0 45.620275316985413 -31.207890744946454 0 -31.207890744946454 20.492636338600256 0 0 0 0 58.189651352593501 -82.251853755347838 0 -82.251853755347838 47.956100862893095 0 0 0 0 -896.17104870475305 -179.40222433070676 0 -179.40222433070676 300.97677714416932 0 0 0 0 -393.85010442361931 299.05927576902985 0 299.05927576902985 -185.52928720481395 0 0 0 0 -0.9418016688630928 -9.6074137889288327 0 -9.6074137889288327 11.874400983997706 0 0 0 0 55.962395516064134 -9.821938163091545 0 -9.821938163091545 -22.557727470128157 0 0 0 0 106.22313151186245 -90.296127666604661 0 -90.296127666604661 94.06624449211813 0 0 0 0 2.2507512592383137 -82.501400240914336 0 -82.501400240914336 55.326835762476549 0 0 0 0 8.5336625066056939 -15.30516145451616 0 -15.30516145451616 43.279820568826707 0 0 0 0 16.315810564545245 20.859189646059292 0 20.859189646059292 57.488043030049653 0 0 0 0 57.902679644098697 13.627401311664833 0 13.627401311664833 14.168822243456034 0 0 0 0 86.211356209216319 -21.478872546955245 0 -21.478872546955245 -124.29687944273428 0 0 0 0 -31.060497906939418 5.4640317406101531 0 5.4640317406101531 20.088373394479277 0 0 0 0 -44.854662208643276 22.742101066556643 0 22.742101066556643 69.171694717098717 0 0 0 0 -8.0622788828768535 29.02136565960609 0 29.02136565960609 37.430035595451045 0 0 0 0 -14.225726446362387 20.25909993984169 0 20.25909993984169 94.304956251646217 0 0 0 0 23.531707438225567 2.5236847630785633 0 2.5236847630785633 70.001660311219894 0 0 0 0 -12.804535925824894 25.890411137404953 0 25.890411137404953 89.490417352324584 0 0 0 0 -27.878947697521653 8.1944070202152943 0 8.1944070202152943 68.722524240955522 0 0 0 0 -42.096200126439726 -4.7331580384380914 0 -4.7331580384380914 104.08172418113099 0 0 0 0 25.589484931886545 -1.1974019451354252 0 -1.1974019451354252 46.586279587949321 0 0 0 0 59.516812461260997 -50.391144179935509 0 -50.391144179935509 109.26279091809556 0 0 0 0 128.90332682900771 49.47265583171793 0 49.47265583171793 145.76810480773202 0 0 0 0 41.827543669562147 43.803339209071055 0 43.803339209071055 139.71937238499459 0 0 0 0 153.73651092442378 -28.814390152058877 0 -28.814390152058877 102.43718949782851 0 0 0 0 458.64524188417272 -114.98099767487702 0 -114.98099767487702 78.846997246586398 0 0 0 0 219.65300768122688 50.773266626374607 0 50.773266626374607 134.4665043021314 0 0 0 0 1149.6968720524528 1.7490131314843893 0 1.7490131314843893 -117.36635251403641 0 0 0 0 276.06291513606266 -44.912982800340615 0 -44.912982800340615 116.8610598495743 0 0 0 0 489.46862023076392 133.16464865895341 0 133.16464865895341 -83.691564685777848 0 0 0 0 924.07173237317329 -228.30021127731652 0 -228.30021127731652 85.985119901959479 0 0 0 0 1032.1276553220669 -206.33516803893053 0 -206.33516803893053 -122.79796503645412 0 0 0 0 798.61137125707364 -220.2836483148061 0 -220.2836483148061 473.87801893618598 0 0 0 0 810.57474327173259 -96.833374874340734 0 -96.833374874340734 34.219996376266863 0 0 0 0 554.05473628408072 -4.6517723093961649 0 -4.6517723093961649 104.364796561189 0 0 0 0 495.20447033973323 -96.98446963686547 0 -96.98446963686547 134.31411740696694 0 0 0 0 792.14571087603053 -24.86416645510144 0 -24.86416645510144 -43.896375144562626 0 0 0 0 779.97858072441886 -203.01575345461879 0 -203.01575345461879 -36.221147923663011 0 0 0 0 479.32115779185551 -56.446909749517545 0 -56.446909749517545 -18.87572912343785 0 0 0 0 6.5142349837900753 4.6167199703022987 0 4.6167199703022987 -2.3665309529101748 0 0 0 0 178.55864092460251 56.114676262459398 0 56.114676262459398 50.29648940396018 0 0 0 0 418.54401440193033 -141.7006290230388 0 -141.7006290230388 22.531210643095619 0 0 0 0 213.71478361007757 -126.52048692688913 0 -126.52048692688913 50.332278967172897 0 0 0 0 462.41685560600854 20.555197185334009 0 20.555197185334009 54.867385767996893 0 0 0 0 181.24214474361361 72.064817045422387 0 72.064817045422387 23.419287954457104 0 0 0 0 44.937661086369189 52.209166151351383 0 52.209166151351383 129.69804223821666 0 0 0 0 59.229412463355402 40.983647227742949 0 40.983647227742949 60.237863095935609 0 0 0 0 81.548437523379107 -2.3015895169182841 0 -2.3015895169182841 -29.602896345963018 0 0 0 0 -55.930400880009984 60.509604141920136 0 60.509604141920136 69.728939340038778 0 0 0 0 48.502535142419219 47.132317427168346 0 47.132317427168346 -44.469038510916562 0 0 0 0 -69.086241793602312 330.31182735961067 0 330.31182735961067 -53.50046094015579 0 0 0 0 18.87240400819087 19.595394072525714 0 19.595394072525714 20.64293349224868 0 0 0 0 84.904248657678181 -76.553293809295951 0 -76.553293809295951 -130.2738766635257 0 0 0 0 45.248218762586475 18.132269799001733 0 18.132269799001733 99.024742923775648 0 0 0 0 -11.582183481645188 104.00869517817046 0 104.00869517817046 21.480855661502574 0 0 0 0 23.472689044932338 19.229923738737462 0 19.229923738737462 22.968921441040763 0 0 0 0 45.516442227657535 134.76845865906444 0 134.76845865906444 -181.45497253470694 0 0 0 0 -4.4512515267997514 77.129131397450692 0 77.129131397450692 74.427080239783209 0 0 0 0 3.8805895533878356 61.24782736630732 0 61.24782736630732 -1.0148620329600817 0 0 0 0 -48.218463308468927 21.228370764243664 0 21.228370764243664 -23.682327471384269 0 0 0 0 52.066341620283765 -4.8988149097286282 0 -4.8988149097286282 -2.6563059437830816 0 0 0 0 57.071265507678618 -2.3901225062763842 0 -2.3901225062763842 -2.1907255635142064 0 0 0 0 52.952258498167794 9.4729990060359341 0 9.4729990060359341 -8.9494004445041355 0 0 0 0 71.543621921846352 0.58650625716836657 0 0.58650625716836657 -4.805107148161369 0 0 0 0 78.678988619092706 -11.212352092880337 0 -11.212352092880337 3.4663533187622306 0 0 0 0 42.499970601413224 6.4998481670840498 0 6.4998481670840498 -6.7042473980258706 0 0 0 0 17.510691207527017 -26.091467685350082 0 -26.091467685350082 7.088484934321805 0 0 0 0 60.430098773365899 -9.1557825557792967 0 -9.1557825557792967 -3.8894550062832423 0 0 0 0 34.789728627945706 5.1111876444846693 0 5.1111876444846693 -10.066103311686465 0 0 0 0 71.560102809722594 -10.427357449672854 0 -10.427357449672854 11.54177109331431 0 0 0 0 8.8474519123909463 -0.73701396896882443 0 -0.73701396896882443 -3.0888460724934319 0 0 0 0 128.17553187044541 -20.928174132969616 0 -20.928174132969616 -28.033083970198277 0 0 0 0 21.202544827682857 -0.6931114246505814 0 -0.6931114246505814 10.486093437620227 0 0 0 0 528.5228882377487 -123.17506688907815 0 -123.17506688907815 75.976863316572235 0 0 0 0 902.45726444879983 -24.929773515094894 0 -24.929773515094894 -34.478766942211223 0 0 0 0 4.8734958938621276 -41.119176946577682 0 -41.119176946577682 73.459550785690226 0 0 0 0 1705.6049604592044 -138.86957349595104 0 -138.86957349595104 -68.450767349854686 0 0 0 0 0.56880125832590522 -1.2135008035379542 0 -1.2135008035379542 4.5042049157892947 0 0 0 0 444.14873602890657 -169.08094621719238 0 -169.08094621719238 83.148612556869921 0 0 0 0 50.135145190129606 -1.5576253953363448 0 -1.5576253953363448 10.448812875409203 0 0 0 0 -0.84179128059480979 1.6068165549584847 0 1.6068165549584847 -0.62234443300106079 0 0 0 0 782.43565254789428 -405.95381892205751 0 -405.95381892205751 147.99734860412127 0 0 0 0 807.06670110329787 -136.20078636399512 0 -136.20078636399512 -90.955864461157034 0 0 0 0 1013.8176862520195 -23.686116357919673 0 -23.686116357919673 -29.930419111704396 0 0 0 0 861.05230693879275 -121.23014395314476 0 -121.23014395314476 -105.65340034476867 0 0 0 0 788.78528152193394 -64.440322229042977 0 -64.440322229042977 18.174918297203476 0 0 0 0 687.73417170505854 -226.17878909516003 0 -226.17878909516003 -25.4086073872204 0 0 0 0 -1.4772540774580918 1.2561290881813107 0 1.2561290881813107 0.60178692455249205 0 0 0 0 221.36285564769787 -77.927067253014684 0 -77.927067253014684 47.085403127757672 0 0 0 0 51.735607434384292 -4.512223386945152 0 -4.512223386945152 15.851575075381334 0 0 0 0 60.65613468004085 -8.7323127264853611 0 -8.7323127264853611 9.0141354155621229 0 0 0 0 -5.6569377702107886 -49.798947297247651 0 -49.798947297247651 -62.726787850420806 0 0 0 0 5.5124477329227304 0.85567590870527965 0 0.85567590870527965 -0.98340898718873859 0 0 0 0 -92.726471612881141 -9.8328473636456692 0 -9.8328473636456692 5.6936720210414933 0 0 0 0 -116.17990855983226 -22.853160375973857 0 -22.853160375973857 33.080449056348016 0 0 0 0 -96.651563247600279 -65.630130405381806 0 -65.630130405381806 126.6900332461646 0 0 0 0 -118.51329627766972 -111.85550193522522 0 -111.85550193522522 40.03329013095572 0 0 0 0 275.12716563444701 122.21434297788073 0 122.21434297788073 578.46041163452173 0 0 0 0 28.027354653386283 -348.47725660024298 0 -348.47725660024298 266.40685132865565 0 0 0 0 196.47818620440376 -133.30094180604101 0 -133.30094180604101 -200.44278372683948 0 0 0 0 256.24932075865217 -123.5520221227307 0 -123.5520221227307 -217.47825172586454 0 0 0 0 525.12138820435212 -323.76060134419822 0 -323.76060134419822 -132.73159848607975 0 0 0 0 -34.996324632345932 -93.221556800526741 0 -93.221556800526741 6.4701660257665026 0 0 0 0 175.47518099760964 -60.532590783874639 0 -60.532590783874639 -197.86703559172383 0 0 0 0 -3.2317419511164189 -165.13766107626998 0 -165.13766107626998 63.869345063466426 0 0 0 0 58.446430304327805 -8.6225107062155075 0 -8.6225107062155075 -5.8881425058639252 0 0 0 0 60.510010519923526 -1.8316650922665758 0 -1.8316650922665758 -12.469045055266179 0 0 0 0 63.902606433373876 -11.483006304430091 0 -11.483006304430091 1.4444791139883364 0 0 0 0 0.85520687242942017 11.769248034932673 0 11.769248034932673 -6.9047930784379261 0 0 0 0 57.998411068055248 -6.238467465941369 0 -6.238467465941369 -11.45854842769586 0 0 0 0 309.4248593354132 -24.140643544448722 0 -24.140643544448722 -143.13861233328862 0 0 0 0 57.761591792150284 -6.0220501595531459 0 -6.0220501595531459 -10.819430286137504 0 0 0 0 50.371078891461366 -1.811437554785698 0 -1.811437554785698 -12.378972445199906 0 0 0 0 49.720408151391894 1.7868368430608825 0 1.7868368430608825 -16.200921804178961 0 0 0 0 58.105301841724213 -4.6941885595817894 0 -4.6941885595817894 -17.599931235363329 0 0 0 0 31.573149047457264 13.422708686655824 0 13.422708686655824 -20.991929618839094 0 0 0 0 49.652262828674793 7.3017341783430538 0 7.3017341783430538 -31.856021130060981 0 0 0 0 46.016998453385895 -2.2706625191722196 0 -2.2706625191722196 -20.574666417409389 0 0 0 0 58.648244457770488 -3.5379122274953261 0 -3.5379122274953261 -21.514483329501672 0 0 0 0 48.66746107441395 2.5567743895676358 0 2.5567743895676358 -16.225352867098991 0 0 0 0 70.479300501479884 -8.2954977280569437 0 -8.2954977280569437 -27.254551838979751 0 0 0 0 8.332103279642423 9.0439855084475056 0 9.0439855084475056 -18.55774851956517 0 0 0 0 81.107146046328126 7.4618237624736139 0 7.4618237624736139 -24.857344962615571 0 0 0 0 167.66185557049448 -25.878459875217004 0 -25.878459875217004 -28.82289619022049 0 0 0 0 77.57987733997652 13.505167135517922 0 13.505167135517922 -22.038561352917895 0 0 0 0 62.446386564493878 4.4246503128561017 0 4.4246503128561017 -8.9981082610736394 0 0 0 0 46.282227629970293 16.384002654178403 0 16.384002654178403 -38.745587280323086 0 0 0 0 91.639581481053028 -5.0697949970717673 0 -5.0697949970717673 -38.872606630149676 0 0 0 0 3.5769823127470488 0.81046367154755217 0 0.81046367154755217 -3.2447346038499205 0 0 0 0 29.269924803680624 29.462543520003237 0 29.462543520003237 -41.004101485732463 0 0 0 0 30.554376133259211 2.5245261096270042 0 2.5245261096270042 -10.487454886417254 0 0 0 0 26.0460174225027 29.50176335936635 0 29.50176335936635 -36.553585072997521 0 0 0 0 43.864775829613791 -99.654364410450398 0 -99.654364410450398 -76.84270986708907 0 0 0 0 36.562517185411707 15.489666068701808 0 15.489666068701808 -16.066066770959878 0 0 0 0 6.2746637689650981 -5.3345768717164503 0 -5.3345768717164503 -1.3461400934097547 0 0 0 0 135.8608927309906 -15.10590913194892 0 -15.10590913194892 83.463855136838902 0 0 0 0 -1.4411981152099216 0.69141009128489372 0 0.69141009128489372 -3.4106105178643631 0 0 0 0 258.39682480797637 -50.582539119117428 0 -50.582539119117428 -209.87297626965483 0 0 0 0 324.24838591023581 -61.45902962643413 0 -61.45902962643413 -199.29937648027408 0 0 0 0 167.6077196436454 53.973240921318393 0 53.973240921318393 96.335705975594465 0 0 0 0 97.422774215461686 -96.522618758948738 0 -96.522618758948738 100.34785738156279 0 0 0 0 -6.0953713986236835 -55.863126353720872 0 -55.863126353720872 49.590872005648635 0 0 0 0 52.260726818105468 -3.7868546588751997 0 -3.7868546588751997 25.218084993826778 0 0 0 0 164.09736537798017 -28.700623176654517 0 -28.700623176654517 -31.594629668714333 0 0 0 0 164.20452191650111 -41.486599167416443 0 -41.486599167416443 -1.3261784301521402 0 0 0 0 19.403951042397992 -29.379888041157713 0 -29.379888041157713 11.316506301163123 0 0 0 0 81.170791479282343 -44.834252036187081 0 -44.834252036187081 14.216219331785396 0 0 0 0 49.695243948419204 17.142053211241937 0 17.142053211241937 -28.194198013098827 0 0 0 0 15.68320500962777 -17.432803433704009 0 -17.432803433704009 -2.1236696247073716 0 0 0 0 52.710009228223498 -8.4132626869115938 0 -8.4132626869115938 -7.1071692108343996 0 0 0 0 46.296491825356497 -0.16107277558558053 0 -0.16107277558558053 -12.695253254516501 0 0 0 0 61.741860255300708 -1.3315782725039753 0 -1.3315782725039753 -17.363900910372649 0 0 0 0 37.566252423066175 16.712429015569619 0 16.712429015569619 -20.615649894329525 0 0 0 0 83.941145801334642 0.81112996705633122 0 0.81112996705633122 2.7734110805613454 0 0 0 0 129.34951348976392 -22.284141793964409 0 -22.284141793964409 0.46163230429829127 0 0 0 0 12.130135816139447 -4.9883687649842727 0 -4.9883687649842727 -7.1002578345836653 0 0 0 0 94.304504528205143 -4.3684365086555772 0 -4.3684365086555772 -19.987767403117687 0 0 0 0 199.34105674597959 -84.00886085167167 0 -84.00886085167167 -11.128460156201982 0 0 0 0 23.729794517765946 -21.66016982066175 0 -21.66016982066175 -3.0522417218118356 0 0 0 0 34.273724868056888 -47.689648069946543 0 -47.689648069946543 24.350176283267501 0 0 0 0 8.1750896671292139 18.131318297186226 0 18.131318297186226 -23.512716430241198 0 0 0 0 34.855784804084408 7.7371898904583416 0 7.7371898904583416 -0.87894641739807255 0 0 0 0 39.43531528164749 20.962297514593956 0 20.962297514593956 -32.326635859960334 0 0 0 0 3.872670932844045 -6.2698224667195896 0 -6.2698224667195896 -1.8013558686576756 0 0 0 0 7.7576564882321879 -2.2822749397679871 0 -2.2822749397679871 0.24174339147139534 0 0 0 0 110.01841025968315 13.745968274221013 0 13.745968274221013 15.444946533110851 0 0 0 0 41.329846462529531 11.876577096634492 0 11.876577096634492 -20.042402363746078 0 0 0 0 46.11191344825238 25.750103993344055 0 25.750103993344055 -22.048123963139005 0 0 0 0 90.975450132453261 43.387110555250501 0 43.387110555250501 -24.128175550780725 0 0 0 0 66.890898330893833 11.915141145975213 0 11.915141145975213 -14.870085368095715 0 0 0 0 36.896021260785346 4.0516301940788253 0 4.0516301940788253 -19.745698977825668 0 0 0 0 35.651361896525486 22.98678496913999 0 22.98678496913999 -26.471014076707434 0 0 0 0 26.060628278744844 13.417110130620131 0 13.417110130620131 -17.31118888646597 0 0 0 0 46.655356841132743 9.8642573255365278 0 9.8642573255365278 -17.549404230052403 0 0 0 0 35.70124049478909 15.34240655440135 0 15.34240655440135 -10.420011484856332 0 0 0 0 40.653653286361077 13.422663766978985 0 13.422663766978985 -5.2140530902725004 0 0 0 0 43.849191835166494 10.231695354606927 0 10.231695354606927 -3.8637384763042064 0 0 0 0 45.449180691153742 13.455903055353701 0 13.455903055353701 -10.159889507756134 0 0 0 0 55.551173730884329 17.410181775465389 0 17.410181775465389 -16.387829816890417 0 0 0 0 45.253576464787329 13.023869349874985 0 13.023869349874985 -7.7145267535852327 0 0 0 0 43.273199618975923 10.243080273448413 0 10.243080273448413 -7.7413709706134313 0 0 0 0 47.140660613291402 3.5195991573864376 0 3.5195991573864376 -2.0607831625602557 0 0 0 0 42.601202440106135 12.186273221676402 0 12.186273221676402 0.3064240493804391 0 0 0 0 37.951074568351032 9.6738585443267766 0 9.6738585443267766 -0.39416131833831969 0 0 0 0 36.033654316062893 8.5907453757561143 0 8.5907453757561143 5.47429000214197 0 0 0 0 30.496920825906273 2.6348561018380678 0 2.6348561018380678 -0.39558791635136004 0 0 0 0 52.418820340906677 20.061268245287465 0 20.061268245287465 3.1628232227553781 0 0 0 0 54.496470855403459 14.138964688153919 0 14.138964688153919 -2.5636160459894199 0 0 0 0 38.994380785625253 13.638748909758306 0 13.638748909758306 0.90391214704823142 0 0 0 0 36.469761316864606 13.410649670787734 0 13.410649670787734 7.2830168176860752 0 0 0 0 62.146215923756245 33.020098259544284 0 33.020098259544284 18.931720187469409 0 0 0 0 14.551087752701278 1.4257174217912052 0 1.4257174217912052 7.0122214052826166 0 0 0 0 29.968248088240216 16.957519730152399 0 16.957519730152399 13.256027669263403 0 0 0 0 14.636741271916449 -8.5930020196387815 0 -8.5930020196387815 1.2447080320025545 0 0 0 0 24.192710483986957 -9.9700308519210239 0 -9.9700308519210239 -2.0369151536160643 0 0 0 0 30.290387043278315 -6.7446315701918138 0 -6.7446315701918138 -0.58735084841464413 0 0 0 0 21.113793884360348 -13.700614705476255 0 -13.700614705476255 -20.944994845627605 0 0 0 0 98.532017653638377 -32.450506312346576 0 -32.450506312346576 -2.3569605732100172 0 0 0 0 99.090562330973626 -45.193951336733335 0 -45.193951336733335 -19.573761921584264 0 0 0 0 100.59720369489514 -19.281134183260292 0 -19.281134183260292 30.738053775878143 0 0 0 0 92.453806694873492 -55.493505907510553 0 -55.493505907510553 -4.2024728901214985 0 0 0 0 208.63496415701229 -31.766099427455629 0 -31.766099427455629 -3.8779260116007208 0 0 0 0 -1.9614571003064327 -1.949135273509377 0 -1.949135273509377 -0.11240957785958727 0 0 0 0 156.49065109530784 -24.502028591230555 0 -24.502028591230555 -3.8833334573137108 0 0 0 0 187.44486965384567 -87.258380602128454 0 -87.258380602128454 16.203675912227482 0 0 0 0 138.13892037615005 -53.901037538675155 0 -53.901037538675155 9.9608681294193957 0 0 0 0 137.57191495511506 -51.408522826976878 0 -51.408522826976878 -0.34001038599126332 0 0 0 0 108.92871355469833 -33.609824738697171 0 -33.609824738697171 5.3017498339850135 0 0 0 0 148.25320483679388 -24.416931980451182 0 -24.416931980451182 -3.1636200051725609 0 0 0 0 111.28044697421137 -29.331305702071404 0 -29.331305702071404 -0.16493710874215139 0 0 0 0 16.60252146095236 -7.5597997058861708 0 -7.5597997058861708 -12.463612958753277 0 0 0 0 87.328809536818881 -39.506462966714025 0 -39.506462966714025 6.9233998854615493 0 0 0 0 130.11791345311212 -27.85633611666708 0 -27.85633611666708 -6.7591519879515545 0 0 0 0 122.42147925842801 -57.577872386746094 0 -57.577872386746094 6.3812698844267288 0 0 0 0 7.8278369822440439 -6.3407221565676224 0 -6.3407221565676224 -4.1116572793873445 0 0 0 0 32.471130703590461 -7.8255112390334034 0 -7.8255112390334034 -7.1125015102534235 0 0 0 0 29.781805577924388 -7.7025089735211623 0 -7.7025089735211623 -2.1825972642636771 0 0 0 0 -0.89642030315759413 -11.880397899741638 0 -11.880397899741638 -3.785028034931667 0 0 0 0 34.11263873716598 -5.3876035839987253 0 -5.3876035839987253 -3.5509594952654879 0 0 0 0 64.871656916635402 -85.250397256958649 0 -85.250397256958649 1.7674747405155813 0 0 0 0 42.611235903867055 -41.995620919267935 0 -41.995620919267935 -73.450364715713931 0 0 0 0 268.43754282193549 -179.97291517089684 0 -179.97291517089684 45.407083561378386 0 0 0 0 -146.11201496981084 5.5131924859281298 0 5.5131924859281298 -56.88489557235107 0 0 0 0 -43.247703854562133 -122.45631461802589 0 -122.45631461802589 96.228336124126599 0 0 0 0 -29.867692453044583 -32.45352493427572 0 -32.45352493427572 14.856857196778947 0 0 0 0 -20.702009349020955 -117.47331440042672 0 -117.47331440042672 -78.935338728019815 0 0 0 0 -108.14707872332656 -29.465508396269797 0 -29.465508396269797 67.136246016375708 0 0 0 0 56.633250695726019 -217.24648797499776 0 -217.24648797499776 48.715196804027983 0 0 0 0 -141.26401254010852 -90.908372258074451 0 -90.908372258074451 -5.8605983557717991 0 0 0 0 -21.51582828176106 -76.883708129630293 0 -76.883708129630293 235.52332938461223 0 0 0 0 2.8059432320004589 -1.2067845420384806 0 -1.2067845420384806 0.66859902598064114 0 0 0 0 250.7750699475655 80.372595419826666 0 80.372595419826666 29.549022900397404 0 0 0 0 -41.315418959860835 72.338627722912634 0 72.338627722912634 250.26894250251053 0 0 0 0 449.64032008689537 -89.86299860490999 0 -89.86299860490999 -88.93914033374449 0 0 0 0 70.499623314259225 14.62818907460678 0 14.62818907460678 1.6835594525302895 0 0 0 0 0.19430546294198514 0.024513615068357808 0 0.024513615068357808 -4.8556703269136836 0 0 0 0 74.698358432007808 16.883043423556501 0 16.883043423556501 -2.2640554360077658 0 0 0 0 51.255386134311266 9.6500331013339746 0 9.6500331013339746 -3.4022712967173447 0 0 0 0 60.92003877262141 9.1572210282271271 0 9.1572210282271271 -3.6227367345545645 0 0 0 0 293.31633011820668 30.916540618685531 0 30.916540618685531 -63.517708077383759 0 0 0 0 137.2884337320138 53.912099361449236 0 53.912099361449236 -66.718897955967861 0 0 0 0 192.49120983857938 -17.992661208968912 0 -17.992661208968912 -83.708187984373581 0 0 0 0 93.922869255467958 15.029677608712063 0 15.029677608712063 -28.316343718313419 0 0 0 0 86.644210355632822 32.050777472720483 0 32.050777472720483 -53.742660009083693 0 0 0 0 -0.62280111971913144 0.99004130795081835 0 0.99004130795081835 -10.869591218137561 0 0 0 0 53.768710365646257 5.3255048425819496 0 5.3255048425819496 -10.789836858471972 0 0 0 0 61.40545507398565 10.584670759581968 0 10.584670759581968 -8.9301838994597347 0 0 0 0 51.841406021165312 10.295022949106624 0 10.295022949106624 -21.9718419482233 0 0 0 0 7.7456703355708267 0.86966109675191205 0 0.86966109675191205 -17.475769534105105 0 0 0 0 39.81096127607816 6.7022589633213556 0 6.7022589633213556 -10.517734964839292 0 0 0 0 47.046379617051571 10.680515434871268 0 10.680515434871268 -15.417262245896382 0 0 0 0 45.335925799969118 -29.854395422421248 0 -29.854395422421248 -27.832606977034175 0 0 0 0 82.241294739826117 -13.781449610284426 0 -13.781449610284426 -27.681979127311934 0 0 0 0 37.787548577889538 -20.882057413136408 0 -20.882057413136408 -35.271343568318116 0 0 0 0 65.421022189111682 -71.289407938793147 0 -71.289407938793147 -53.924861588495787 0 0 0 0 -59.842506031527591 -33.464957423372425 0 -33.464957423372425 -26.805542311212776 0 0 0 0 -25.808405154215507 -79.00003497785201 0 -79.00003497785201 -29.412338508896937 0 0 0 0 52.82957794257527 -26.5230806252614 0 -26.5230806252614 -68.717677730704509 0 0 0 0 -93.564873757961323 -131.90240891369376 0 -131.90240891369376 -23.261231281424898 0 0 0 0 356.608751998152 34.502472297278473 0 34.502472297278473 71.285490073900291 0 0 0 0 5.0229664682697432 -7.3088198446779131 0 -7.3088198446779131 8.8491862669794532 0 0 0 0 315.9157268318304 107.52233071558044 0 107.52233071558044 8.2315733014729631 0 0 0 0 -3.8059120926773176 -119.21297433182644 0 -119.21297433182644 -75.514165765112296 0 0 0 0 440.2514681693392 6.1891620728492853 0 6.1891620728492853 -30.640005479775027 0 0 0 0 165.66814507399613 -9.7596170570150207 0 -9.7596170570150207 -31.560884448132128 0 0 0 0 -0.38427920251773173 0.253041417146882 0 0.253041417146882 1.2136618298365782 0 0 0 0 202.29931081287941 -82.097611915804009 0 -82.097611915804009 40.668035374397732 0 0 0 0 12.581512398108316 -41.701624449558949 0 -41.701624449558949 -18.366393257641676 0 0 0 0 126.29713104187613 -27.140025738862505 0 -27.140025738862505 7.1758954097558671 0 0 0 0 9.8913559490737413 -12.03936557635361 0 -12.03936557635361 14.291871108742436 0 0 0 0 2.5413786682427713 -0.18978157258269235 0 -0.18978157258269235 3.428306628969219 0 0 0 0 17.356929488345486 -1.8951671606464515 0 -1.8951671606464515 13.203292208921994 0 0 0 0 65.378772477437451 72.814877438925578 0 72.814877438925578 97.712850321970109 0 0 0 0 217.50416198018547 97.812034075615372 0 97.812034075615372 67.797944816267773 0 0 0 0 224.85847162896698 -76.308383276728705 0 -76.308383276728705 2.1759737132815644 0 0 0 0 48.101788728723477 6.052022267301254 0 6.052022267301254 -25.132518038108174 0 0 0 0 32.044735984025522 8.0658405649777727 0 8.0658405649777727 -1.6712435822592031 0 0 0 0 7.6053998065035557 30.599392864776746 0 30.599392864776746 -39.752237464292193 0 0 0 0 10.588941035986686 -4.0670406887890636 0 -4.0670406887890636 -0.85505527666605019 0 0 0 0 32.111148702137143 -18.100452020600301 0 -18.100452020600301 -3.8049021727581476 0 0 0 0 27.953343318935367 3.7143749706638118 0 3.7143749706638118 -9.808064265836947 0 0 0 0 28.31386908458191 -5.1179206715858321 0 -5.1179206715858321 -4.79045192930983 0 0 0 0 17.091476825902646 17.478137766267537 0 17.478137766267537 -18.522916263872503 0 0 0 0 5.3222413029670008 -1.1794543237876525 0 -1.1794543237876525 -3.2649469246195295 0 0 0 0 24.232093334328965 26.353811632856377 0 26.353811632856377 -23.061117639736949 0 0 0 0 44.440316601860104 7.1015764402554851 0 7.1015764402554851 -54.376906821515149 0 0 0 0 27.729271885058552 24.803771841556227 0 24.803771841556227 -23.771152552882995 0 0 0 0 27.896234866326267 6.2940116188856337 0 6.2940116188856337 -31.060443619147009 0 0 0 0 37.572617596772034 13.62451344391684 0 13.62451344391684 -26.391819819196826 0 0 0 0 35.630536009033676 24.515048078783366 0 24.515048078783366 -52.498522288301501 0 0 0 0 57.299079308344517 0.35431549050645117 0 0.35431549050645117 -21.319020685977648 0 0 0 0 45.530693574291945 25.104292986390647 0 25.104292986390647 -31.148104377042728 0 0 0 0 33.06468895287253 58.424460303933756 0 58.424460303933756 27.000626608434686 0 0 0 0 46.281763705150297 0.59646583211463167 0 0.59646583211463167 -11.425116486105253 0 0 0 0 56.549027702967578 21.813354807703035 0 21.813354807703035 18.988470800419066 0 0 0 0 110.54181749993586 59.373473909829045 0 59.373473909829045 -41.850845718954588 0 0 0 0 200.84990429916616 91.712050323655774 0 91.712050323655774 -11.995587903900741 0 0 0 0 106.7796731992421 53.329972366675065 0 53.329972366675065 -27.605776759238324 0 0 0 0 101.76527166898086 51.845018263057682 0 51.845018263057682 2.003995207403932 0 0 0 0 94.31734566668456 68.682817766524749 0 68.682817766524749 -35.973374368645182 0 0 0 0 7.6151414975231688 -1.6562094087148012 0 -1.6562094087148012 -1.3747325455342789 0 0 0 0 80.546456282878353 31.421254143657279 0 31.421254143657279 41.872286365563923 0 0 0 0 120.45854504330055 58.504749219556288 0 58.504749219556288 -7.53609171584867 0 0 0 0 25.327059616005101 -9.8937299864178243 0 -9.8937299864178243 -1.3139145890550914 0 0 0 0 25.474562251918542 -88.97860450400276 0 -88.97860450400276 -31.256615972609836 0 0 0 0 47.849002318493149 -12.165535481586176 0 -12.165535481586176 -59.86146507268495 0 0 0 0 52.447826523839012 23.686586108446249 0 23.686586108446249 -8.0043561279017013 0 0 0 0 1.6729117993725282 -1.7315518061673743 0 -1.7315518061673743 0.18431821527241254 0 0 0 0 51.187392751751759 8.6028391320596711 0 8.6028391320596711 -26.611213081902747 0 0 0 0 8.85472483168693 -3.5144576920037593 0 -3.5144576920037593 -7.2600668366630714 0 0 0 0 14.997962659278443 -8.937977462739795 0 -8.937977462739795 3.4712162149272885 0 0 0 0 -26.966775165181389 -10.79161102786361 0 -10.79161102786361 14.831010050345867 0 0 0 0 45.426732912423176 -23.376173585289052 0 -23.376173585289052 -38.434990400975948 0 0 0 0 56.886379336792743 28.109306812701107 0 28.109306812701107 -11.116950935256682 0 0 0 0 1.8374233347790323 -2.47562235799127 0 -2.47562235799127 2.5556300252067103 0 0 0 0 -61.758185842230887 -177.12237961985011 0 -177.12237961985011 252.24278400667754 0 0 0 0 229.74110796822788 176.71618858835245 0 176.71618858835245 -3.41373163064236 0 0 0 0 2.5274556705679458 -4.2918443456673288 0 -4.2918443456673288 -2.6355187741933932 0 0 0 0 -16.758995418211271 -8.6702814670989028 0 -8.6702814670989028 28.307910445520974 0 0 0 0 0.49243123244606579 -2.4128187894616531 0 -2.4128187894616531 3.1053027277824512 0 0 0 0 -44.913411575209466 41.963331875333097 0 41.963331875333097 30.377234800260339 0 0 0 0 55.525830968148512 37.387243225860402 0 37.387243225860402 -5.6065846049896209 0 0 0 0 -4.4286533759805025 155.30627346860638 0 155.30627346860638 46.833037141506793 0 0 0 0 74.633220344374422 70.315730914702726 0 70.315730914702726 -23.067090047513318 0 0 0 0 153.45739825734927 78.279666393786101 0 78.279666393786101 -23.237644371919259 0 0 0 0 45.199524899531752 1.5684185527175032 0 1.5684185527175032 32.289054239550751 0 0 0 0 31.587858789294842 -21.423608694583891 0 -21.423608694583891 17.972480298460141 0 0 0 0 34.645916679990478 -72.380514555268746 0 -72.380514555268746 48.495778592914576 0 0 0 0 61.952446843322832 -33.802511888903609 0 -33.802511888903609 13.917118104223846 0 0 0 0 29.877599127532449 -50.489561609434531 0 -50.489561609434531 5.6378915953464457 0 0 0 0 110.55025930161355 8.8627940458354715 0 8.8627940458354715 7.6390676729024563 0 0 0 0 1.6200289900011455 -1.0072686528610433 0 -1.0072686528610433 0.36648112359823415 0 0 0 0 10.475566451117629 -1.9345954525997513 0 -1.9345954525997513 30.351066074112168 0 0 0 0 2.1601793582764515 -5.5976654621072015 0 -5.5976654621072015 1.0203976708054157 0 0 0 0 36.207199510849023 20.803206473747196 0 20.803206473747196 31.812387015488639 0 0 0 0 121.60668938034905 0.23413096021067759 0 0.23413096021067759 2.0359704451038851 0 0 0 0 73.132130894104193 18.325319441977626 0 18.325319441977626 -1.3747145884044585 0 0 0 0 80.258703254701686 27.200165528129219 0 27.200165528129219 -26.272328556013235 0 0 0 0 54.942584898220957 -15.974752508491292 0 -15.974752508491292 -28.458449019915861 0 0 0 0 18.897541627629835 -54.342634293589072 0 -54.342634293589072 -74.956383458626988 0 0 0 0 11.752030482457485 12.320543373926739 0 12.320543373926739 -32.754432538114997 0 0 0 0 -47.088678379732301 -27.506174498189466 0 -27.506174498189466 43.045072006138071 0 0 0 0 117.99549458501133 108.83442680789085 0 108.83442680789085 107.99839680421974 0 0 0 0 9.9195680148810652 -4.8637998391656367 0 -4.8637998391656367 2.1341528392171369 0 0 0 0 -11.600203075082391 -14.303112642110136 0 -14.303112642110136 2.4133037772753596 0 0 0 0 15.788238852837821 29.322071779210091 0 29.322071779210091 5.6574719336367707 0 0 0 0 74.651412812439958 62.703252804206386 0 62.703252804206386 56.774907106150295 0 0 0 0 74.297995143328194 35.872213854766244 0 35.872213854766244 51.618974276902009 0 0 0 0 79.040416579047815 -2.4219271037964063 0 -2.4219271037964063 16.011908365067939 0 0 0 0 99.601405605928448 41.370232120949368 0 41.370232120949368 18.76949780200043 0 0 0 0 61.400020240092999 10.665265738273774 0 10.665265738273774 7.8639396050812138 0 0 0 0 60.70981783161551 4.4125935560441576 0 4.4125935560441576 -8.6074239219833544 0 0 0 0 14.565225877868215 6.5949299201511167 0 6.5949299201511167 34.64626013889756 0 0 0 0 2.3958977532339567 13.061043650892501 0 13.061043650892501 3.8892984023231989 0 0 0 0 687.60105406844377 -179.84729271775086 0 -179.84729271775086 -114.72785906549234 0 0 0 0 529.73201261015947 -56.221006093087681 0 -56.221006093087681 -30.669596368261409 0 0 0 0 437.1800470937269 -69.053624131990091 0 -69.053624131990091 101.57909017945713 0 0 0 0 152.30939288561422 56.261583775014287 0 56.261583775014287 17.860981466925296 0 0 0 0 92.837897691075341 -16.90392795718617 0 -16.90392795718617 -19.05889255420152 0 0 0 0 -262.7385315460233 22.419351695576324 0 22.419351695576324 80.173334590659579 0 0 0 0 753.41364109807182 36.323104219540255 0 36.323104219540255 -41.475406186207692 0 0 0 0 -295.59144559171546 -159.97201906264445 0 -159.97201906264445 167.65682652954501 0 0 0 0 1.809803959786791 -2.8731770191740509 0 -2.8731770191740509 4.934222362945853 0 0 0 0 388.27246010061936 84.543245290391496 0 84.543245290391496 -46.822238606583369 0 0 0 0 -400.39108885314999 -142.49439408187845 0 -142.49439408187845 101.19363803069882 0 0 0 0 4.7692162465364447 -8.4390065058367441 0 -8.4390065058367441 11.879501485492746 0 0 0 0 211.03410021510717 -140.08359947510644 0 -140.08359947510644 -82.018674012553674 0 0 0 0 395.68893736663267 -86.806188166243146 0 -86.806188166243146 -90.899158307141988 0 0 0 0 -108.82234067719037 -302.26423534456944 0 -302.26423534456944 -141.71059553760824 0 0 0 0 267.93577850807196 64.367144809380989 0 64.367144809380989 -77.484115073567409 0 0 0 0 3.7078019398547326 -1.4330899659821057 0 -1.4330899659821057 0.46812860892491415 0 0 0 0 -23.447945050123963 -77.812728036597036 0 -77.812728036597036 138.73230227615204 0 0 0 0 186.91211619332171 248.55898845470074 0 248.55898845470074 123.31916956927989 0 0 0 0 619.03715220377489 -14.918013641699872 0 -14.918013641699872 -154.06856618156326 0 0 0 0 117.31586915583466 11.924147819659993 0 11.924147819659993 507.50684702966828 0 0 0 0 1.8601913282901528 15.544014724717556 0 15.544014724717556 12.030537919574869 0 0 0 0 419.63024186896291 -21.874018529382965 0 -21.874018529382965 0.4772103065479314 0 0 0 0 196.95069867704296 -34.182209105774746 0 -34.182209105774746 -472.18645273433322 0 0 0 0 250.86015980589218 -377.53265042507428 0 -377.53265042507428 -295.43052545257524 0 0 0 0 125.00130547528533 -71.19482158817118 0 -71.19482158817118 -91.963792448717868 0 0 0 0 135.92409069738642 -76.897834624149255 0 -76.897834624149255 -167.45126446789709 0 0 0 0 32.868239067363902 -213.67765171429346 0 -213.67765171429346 160.8709535639573 0 0 0 0 143.99252923912718 -393.42960049858084 0 -393.42960049858084 -67.648279698536498 0 0 0 0 8.7861852355708834 -116.22122882679469 0 -116.22122882679469 -25.093921945795501 0 0 0 0 83.69805814474239 -82.010351570599596 0 -82.010351570599596 -21.449702408559006 0 0 0 0 60.043405700256699 -50.489275285302938 0 -50.489275285302938 -61.859638652746071 0 0 0 0 88.100932250374171 -6.7859349701434439 0 -6.7859349701434439 -25.356764451425988 0 0 0 0 33.953859953660867 46.956964225913907 0 46.956964225913907 -12.256751665878255 0 0 0 0 61.84101155710232 22.272435146096541 0 22.272435146096541 -21.585387375537721 0 0 0 0 66.075957922628731 3.3761412984604249 0 3.3761412984604249 -27.586360698100179 0 0 0 0 82.270363328567328 22.22242803265317 0 22.22242803265317 -147.76544702171668 0 0 0 0 7.3051894424500645 17.825632537278992 0 17.825632537278992 16.937066230504463 0 0 0 0 346.69386523724461 171.84047610708501 0 171.84047610708501 71.6886567943111 0 0 0 0 24.891426790905825 76.754536378049124 0 76.754536378049124 -108.31102673828536 0 0 0 0 534.75774613878457 100.76550041486189 0 100.76550041486189 -49.6895620592245 0 0 0 0 478.74494181675254 -209.97049799811521 0 -209.97049799811521 28.717320159671544 0 0 0 0 5.1992774620730415 2.2690139804765899 0 2.2690139804765899 4.833796972097355 0 0 0 0 502.31880958226247 332.47176296268981 0 332.47176296268981 235.25629562246286 0 0 0 0 33.583187897980679 27.256611642651478 0 27.256611642651478 36.886173911669175 0 0 0 0 48.630433805708662 3.2045580152948929 0 3.2045580152948929 2.0463016099629181 0 0 0 0 52.067799444943375 -1.8099015076340947 0 -1.8099015076340947 1.5007282903206942 0 0 0 0 234.87860698771692 66.3923273964906 0 66.3923273964906 -222.28304426717841 0 0 0 0 713.24635785553983 173.01877202024843 0 173.01877202024843 -106.96779966823306 0 0 0 0 515.24689444493561 21.806322202226511 0 21.806322202226511 -198.34650190593948 0 0 0 0 444.61404810155 -206.83599300860806 0 -206.83599300860806 93.717193863058128 0 0 0 0 608.28421717183664 207.61930486246365 0 207.61930486246365 318.62293236096821 0 0 0 0 332.89960677859563 -52.337996554263555 0 -52.337996554263555 204.76249404886221 0 0 0 0 827.46222130996466 -86.539100652052184 0 -86.539100652052184 201.72282995815272 0 0 0 0 843.44975556399731 97.791748163333978 0 97.791748163333978 -13.044726610833095 0 0 0 0 645.28115242984495 -102.75762159694932 0 -102.75762159694932 -14.952494372837698 0 0 0 0 614.32224223059893 -165.36245793680428 0 -165.36245793680428 126.64594238509562 0 0 0 0 759.15280819333566 -322.87455115689136 0 -322.87455115689136 257.66925904605796 0 0 0 0 729.45649345698621 34.381754822878065 0 34.381754822878065 203.84099345365576 0 0 0 0 753.30155798365013 -129.89142974830975 0 -129.89142974830975 1053.3438209748092 0 0 0 0 1085.4535870846739 -124.14547931969537 0 -124.14547931969537 330.02852868174193 0 0 0 0 625.58678142975259 -185.00337936724463 0 -185.00337936724463 324.27464088808483 0 0 0 0 46.605703776862356 -1.2335746342560014 0 -1.2335746342560014 7.1924000673316186 0 0 0 0 6.555784446336979 2.449288643706069 0 2.449288643706069 10.024265620258717 0 0 0 0 -11.713908160090796 4.2222279515876835 0 4.2222279515876835 142.78266391976922 0 0 0 0 530.22264736235593 60.500553059728418 0 60.500553059728418 -78.775422828428418 0 0 0 0 583.85703452110465 -236.68992941499801 0 -236.68992941499801 -27.428566333855315 0 0 0 0 54.584806873855996 -5.782063273226413 0 -5.782063273226413 9.3650025697197634 0 0 0 0 60.494776047351479 0.015915896036403865 0 0.015915896036403865 4.2415693970051507 0 0 0 0 50.213741358587868 0.11847710211804952 0 0.11847710211804952 5.7799835883088235 0 0 0 0 59.889408757888305 0.89371163689429522 0 0.89371163689429522 5.1123318256043149 0 0 0 0 12.66134599527777 1.3553690610094975 0 1.3553690610094975 -4.0188994322969478 0 0 0 0 15.117047759915295 -54.444586398467436 0 -54.444586398467436 -51.309388351031885 0 0 0 0 71.468063780266675 0.94579012787198735 0 0.94579012787198735 0.30447097386240785 0 0 0 0 68.514403085147023 -17.818718720247148 0 -17.818718720247148 27.095521582838046 0 0 0 0 -1.4301535091223627 0.56504308987592822 0 0.56504308987592822 -0.78377893413050259 0 0 0 0 296.29591183751472 -72.704219392599953 0 -72.704219392599953 -68.658362322894391 0 0 0 0 -139.2377663911393 34.538462485175387 0 34.538462485175387 359.2573716832394 0 0 0 0 4.4705088581840471 -1.7051020893117794 0 -1.7051020893117794 0.42694881605680068 0 0 0 0 81.767592920485185 131.372381821815 0 131.372381821815 201.32077044993275 0 0 0 0 263.96865062089637 146.89939682003842 0 146.89939682003842 41.673728090891018 0 0 0 0 122.04194296205242 43.282787096851735 0 43.282787096851735 -30.013429734888632 0 0 0 0 103.67219284480962 50.174483586160932 0 50.174483586160932 -32.59638971736058 0 0 0 0 56.770015088031869 8.6209075610710215 0 8.6209075610710215 -65.384758495321876 0 0 0 0 73.503642422117991 -98.948509941264092 0 -98.948509941264092 -53.288840446900394 0 0 0 0 162.8612902314344 -20.298384386345788 0 -20.298384386345788 -88.246681505323068 0 0 0 0 78.538684368337272 -48.170129109383197 0 -48.170129109383197 -94.114720606448827 0 0 0 0 61.786980574390327 26.332174503806527 0 26.332174503806527 7.5283641264486505 0 0 0 0 55.837762322379234 7.5063776073775728 0 7.5063776073775728 -3.0488832719918015 0 0 0 0 52.810282189646387 -37.811005819092316 0 -37.811005819092316 -90.895675511604168 0 0 0 0 77.112322658838821 35.327927178508617 0 35.327927178508617 -91.514006413395691 0 0 0 0 61.385512734726262 6.2763604064769325 0 6.2763604064769325 -7.6747026906052644 0 0 0 0 53.257316864590393 -22.711688502233301 0 -22.711688502233301 -156.41821420029009 0 0 0 0 53.16791142643342 8.7094764642979499 0 8.7094764642979499 -44.981359390443686 0 0 0 0 59.161873858342005 19.898710880519502 0 19.898710880519502 -4.9229551783719216 0 0 0 0 64.310691270220559 22.523728153095362 0 22.523728153095362 -37.503722282468971 0 0 0 0 56.674732277115254 48.733841719396878 0 48.733841719396878 -16.633630176496808 0 0 0 0 132.93087712550914 31.28008641787892 0 31.28008641787892 -59.893187727189797 0 0 0 0 62.835400163148734 31.907458504966598 0 31.907458504966598 -1.1998444905439101 0 0 0 0 9.8483967650200128 2.5160078593462742 0 2.5160078593462742 4.6320335816925606 0 0 0 0 59.244137667992618 35.128233720950448 0 35.128233720950448 24.142248123302124 0 0 0 0 -32.65345544898446 -3.9808953996257515 0 -3.9808953996257515 10.428890893344942 0 0 0 0 60.293130041653058 27.813091480125877 0 27.813091480125877 2.7616613394893648 0 0 0 0 16.90967021307355 -3.4894446725365214 0 -3.4894446725365214 4.9512953245589486 0 0 0 0 51.418039951851824 10.035162557658623 0 10.035162557658623 15.590061139082536 0 0 0 0 -1.3552777678986772 0.56864746700138369 0 0.56864746700138369 0.70941195481937314 0 0 0 0 136.6119857829035 19.122944748953159 0 19.122944748953159 -7.1444772487084265 0 0 0 0 113.45041736841085 11.862272520647821 0 11.862272520647821 10.607630912189052 0 0 0 0 72.597339428102714 -1.5495117848513473 0 -1.5495117848513473 10.348004832572769 0 0 0 0 110.84589968614637 -7.959199463859477 0 -7.959199463859477 -11.736921058749431 0 0 0 0 72.944819780954276 -19.916552878736184 0 -19.916552878736184 -14.005279070715915 0 0 0 0 60.046296660410007 16.751378476743412 0 16.751378476743412 -10.044604189370148 0 0 0 0 65.856770895645695 -4.2391026202446938 0 -4.2391026202446938 6.0695109986045281 0 0 0 0 130.01476934929087 6.664260323785129 0 6.664260323785129 -11.523559377759113 0 0 0 0 79.957256543420954 -9.1759692476125565 0 -9.1759692476125565 4.334557479218347 0 0 0 0 62.42760545724741 6.6643782068122164 0 6.6643782068122164 1.7408030963379133 0 0 0 0 55.136870286742152 -0.50844406284096522 0 -0.50844406284096522 -0.65423265350147375 0 0 0 0 18.325022449658718 -29.008485796963214 0 -29.008485796963214 -10.965867771417834 0 0 0 0 105.71423997142119 11.104148728234577 0 11.104148728234577 -10.625132861439852 0 0 0 0 16.37863892148016 -9.0612761876473087 0 -9.0612761876473087 -20.900612034791266 0 0 0 0 73.564828084723558 63.754562572936265 0 63.754562572936265 1.6882990829617484 0 0 0 0 9.3421057228322439 3.2357294115992659 0 3.2357294115992659 1.0205467806838229 0 0 0 0 52.78660752233688 12.046367173163446 0 12.046367173163446 9.723704720971778 0 0 0 0 -39.857158132028417 -16.172971316617804 0 -16.172971316617804 138.09231914818974 0 0 0 0 98.852012067188298 -117.74963968311098 0 -117.74963968311098 77.950409662355014 0 0 0 0 99.373466908742557 -115.13000094664062 0 -115.13000094664062 57.861580059774496 0 0 0 0 144.90379857194785 -88.868001806176835 0 -88.868001806176835 23.655757778582938 0 0 0 0 328.67928068846231 -98.645504947991185 0 -98.645504947991185 -3.5767122016011399 0 0 0 0 424.58761199506989 -214.45622493109136 0 -214.45622493109136 61.885677107595939 0 0 0 0 -66.152480299468152 14.460775997560631 0 14.460775997560631 -79.587567853885957 0 0 0 0 181.23380020405966 318.30140668667696 0 318.30140668667696 290.47965617427963 0 0 0 0 -6.1803525797367911 -48.782641589530613 0 -48.782641589530613 -48.669597762448575 0 0 0 0 91.872430538835033 -289.96828057522714 0 -289.96828057522714 353.0536822063309 0 0 0 0 92.822902861873445 -33.202514486412838 0 -33.202514486412838 -46.979756439870471 0 0 0 0 -340.26857387070777 80.669525298113285 0 80.669525298113285 332.48475014395854 0 0 0 0 4.7271770383780307 6.5410495785739471 0 6.5410495785739471 19.630456914220723 0 0 0 0 -2.2260567743724096 -10.393651030927231 0 -10.393651030927231 11.200166285017986 0 0 0 0 450.86859920627376 -70.181151527343786 0 -70.181151527343786 -5.795746641126243 0 0 0 0 9.0443607007147193 4.5827436000300281 0 4.5827436000300281 5.1354478102087633 0 0 0 0 483.1287457218059 -200.02107497096392 0 -200.02107497096392 28.539839202767325 0 0 0 0 1105.7767629849186 -441.09223797331833 0 -441.09223797331833 121.76207511559733 0 0 0 0 126.46616311043908 215.06019400771766 0 215.06019400771766 231.75563837135815 0 0 0 0 5.1973112117360643 1.5249443990523588 0 1.5249443990523588 -0.31208883349346195 0 0 0 0 849.46477739926195 182.90666074387036 0 182.90666074387036 -50.159109425879251 0 0 0 0 413.49503889153129 -6.1969701299938151 0 -6.1969701299938151 -16.761075722618443 0 0 0 0 0.35360280816844991 2.5926258784491125 0 2.5926258784491125 15.124152538143804 0 0 0 0 -69.803827929106774 -125.91755546821878 0 -125.91755546821878 98.221850677757175 0 0 0 0 140.59546535429399 151.57492216612081 0 151.57492216612081 230.11800741862135 0 0 0 0 229.6163588357158 -281.81150087323613 0 -281.81150087323613 230.13255094840451 0 0 0 0 0.83590525534827265 1.2396870084048714 0 1.2396870084048714 5.523004259243077 0 0 0 0 631.34615254574601 172.3847949943347 0 172.3847949943347 29.00132216771442 0 0 0 0 399.96994683996763 105.75616300373309 0 105.75616300373309 338.78941809132812 0 0 0 0 366.93998626305984 -23.014948688570712 0 -23.014948688570712 0.16500034271030017 0 0 0 0 -105.578294522551 -130.83345001658427 0 -130.83345001658427 191.38131761146781 0 0 0 0 0.99944858888000709 -1.7187722009333868 0 -1.7187722009333868 4.0691054973748777 0 0 0 0 536.92800507786887 -221.4893391165424 0 -221.4893391165424 247.77334900949336 0 0 0 0 608.94035732894554 -235.31472901835104 0 -235.31472901835104 206.59506115843578 0 0 0 0 660.34311032264668 -274.20735539258703 0 -274.20735539258703 221.16371452961721 0 0 0 0 871.11412394782747 52.026555756975426 0 52.026555756975426 189.48188582569401 0 0 0 0 587.11785074235377 -265.12684432176957 0 -265.12684432176957 267.3816482274251 0 0 0 0 570.5297463238312 -165.67030006785808 0 -165.67030006785808 33.699257590232264 0 0 0 0 319.36453691413044 -24.602298015749057 0 -24.602298015749057 46.713365750939374 0 0 0 0 611.21719660050076 -71.875679035083522 0 -71.875679035083522 18.700725134556706 0 0 0 0 122.25921407270653 -15.402034712291879 0 -15.402034712291879 99.329871192282553 0 0 0 0 608.08665506494253 -156.71316056243359 0 -156.71316056243359 17.392380462131769 0 0 0 0 -60.898701398615231 24.292054164095589 0 24.292054164095589 -71.152553921227081 0 0 0 0 51.474188796222734 -124.71193057682922 0 -124.71193057682922 69.902725358213502 0 0 0 0 115.85968614113517 -41.009818014606935 0 -41.009818014606935 -201.59551799868859 0 0 0 0 129.88050991749333 -145.36265665958172 0 -145.36265665958172 315.13793947581689 0 0 0 0 1266.6779382601526 -458.60432275594349 0 -458.60432275594349 -86.938210034328222 0 0 0 0 5.7184133605582161 -10.223788056363631 0 -10.223788056363631 13.314409311942221 0 0 0 0 -32.443920149038604 -477.11300068221772 0 -477.11300068221772 194.08051930568945 0 0 0 0 326.96372754929325 -7.3751099433752643 0 -7.3751099433752643 -136.17848724948817 0 0 0 0 998.36072796814915 -224.35803048579442 0 -224.35803048579442 -135.24115355437334 0 0 0 0 -499.2753094142181 -639.65971057928118 0 -639.65971057928118 345.75014363474838 0 0 0 0 2.6130692418728216 -4.6429923181161996 0 -4.6429923181161996 6.4115169685882165 0 0 0 0 -387.82230485453329 -64.328718091512201 0 -64.328718091512201 273.17426941072517 0 0 0 0 356.82390778802073 -646.91329070806523 0 -646.91329070806523 315.73612719411722 0 0 0 0 256.52467512804287 -363.68380044457399 0 -363.68380044457399 319.81354594371078 0 0 0 0 408.96739125151726 -284.36227639418212 0 -284.36227639418212 214.02641115302322 0 0 0 0 670.74287887159699 -520.6996914836941 0 -520.6996914836941 287.33332334248007 0 0 0 0 320.44599849014048 -597.1994847796359 0 -597.1994847796359 610.09997983063204 0 0 0 0 983.60950908533414 -468.09898984570373 0 -468.09898984570373 292.75082974795112 0 0 0 0 -196.44244572595198 115.76126233550576 0 115.76126233550576 162.39751687376383 0 0 0 0 -316.14016692205041 -199.63743145611761 0 -199.63743145611761 442.1818756289058 0 0 0 0 -7.1641744746775657 376.04174649261699 0 376.04174649261699 277.28693034251592 0 0 0 0 613.74829215904902 -399.84160478365993 0 -399.84160478365993 238.98151484499613 0 0 0 0 -626.45996790183563 18.092886822656965 0 18.092886822656965 496.39316377464729 0 0 0 0 0.48979145740203478 -2.0333714260815725 0 -2.0333714260815725 6.7193663578409044 0 0 0 0 959.11905510113138 -460.25711821879895 0 -460.25711821879895 860.12906876362649 0 0 0 0 1039.8044068907948 -290.00861614477867 0 -290.00861614477867 -270.27674466851022 0 0 0 0 -275.77309897818486 141.25001762597867 0 141.25001762597867 587.39998167380691 0 0 0 0 1204.1811666340909 -156.36037113024281 0 -156.36037113024281 311.05803821113295 0 0 0 0 192.51533221449063 339.97135787143634 0 339.97135787143634 -621.04134262144726 0 0 0 0 -719.66633502513287 -185.67780456169385 0 -185.67780456169385 394.94161573311749 0 0 0 0 7.4176052604044003 0.9031090268866695 0 0.9031090268866695 0.57548946530203504 0 0 0 0 266.39301082806924 -375.24513057057652 0 -375.24513057057652 92.785356028163278 0 0 0 0 461.88552957558204 -579.36374613015619 0 -579.36374613015619 287.38431137366206 0 0 0 0 505.29499088828015 -305.67574884198302 0 -305.67574884198302 -89.937811808707011 0 0 0 0 372.05405904554937 -13.842437057192001 0 -13.842437057192001 -299.696373147457 0 0 0 0 -19.396903972083237 -124.83264793842318 0 -124.83264793842318 -4.4378819515532086 0 0 0 0 282.03676261158398 -736.24589912372448 0 -736.24589912372448 206.36820959285896 0 0 0 0 0.99449974131234953 -4.518378726377108 0 -4.518378726377108 10.652151274958797 0 0 0 0 255.22744488115131 -251.31100943489946 0 -251.31100943489946 -22.639245485940592 0 0 0 0 383.55743995761441 -167.67401573690768 0 -167.67401573690768 -127.25796877878543 0 0 0 0 390.05049317321209 -239.66240180370869 0 -239.66240180370869 252.83193054084495 0 0 0 0 279.8499316896341 230.66746003092067 0 230.66746003092067 230.06659528711407 0 0 0 0 592.54213883818011 54.970595977506036 0 54.970595977506036 -35.154831198477041 0 0 0 0 195.49466315815516 -29.030464863165435 0 -29.030464863165435 -35.037943185221593 0 0 0 0 502.29661454856978 -277.37694644504745 0 -277.37694644504745 56.295699772192165 0 0 0 0 107.74449575174367 -120.12097650764736 0 -120.12097650764736 8.8755660034433959 0 0 0 0 113.84348756289546 -164.94852231943241 0 -164.94852231943241 66.76708923181468 0 0 0 0 -86.054688186610292 135.41520149638473 0 135.41520149638473 232.58437122956815 0 0 0 0 104.84696906170575 44.641965265115005 0 44.641965265115005 -168.92970754247654 0 0 0 0 239.29628741895067 52.499888861738782 0 52.499888861738782 -159.36516651908369 0 0 0 0 160.79517551104072 -51.464830007937508 0 -51.464830007937508 -267.68763994162691 0 0 0 0 22.008206955283953 1.201192620702308 0 1.201192620702308 -0.21836914567442323 0 0 0 0 -18.640894945841865 89.426775202668068 0 89.426775202668068 -2.7883553639858292 0 0 0 0 36.254699703507754 8.5227203732014836 0 8.5227203732014836 1.9765945086523466 0 0 0 0 67.962145970846905 124.38151125998138 0 124.38151125998138 -111.85656940705121 0 0 0 0 46.731423322693445 100.11986913041528 0 100.11986913041528 7.2581984422304231 0 0 0 0 27.983984442835208 43.700038966515876 0 43.700038966515876 95.37925445511064 0 0 0 0 37.375452270178357 33.032502170632597 0 33.032502170632597 -24.117171581635375 0 0 0 0 -2.0916506794639247 19.35230672784742 0 19.35230672784742 8.0900364110258334 0 0 0 0 -4.7841510184080107 38.122257580970654 0 38.122257580970654 55.763025235339228 0 0 0 0 24.044916820821527 15.443564252817168 0 15.443564252817168 16.121130095350054 0 0 0 0 -23.749864180521399 118.11700641315088 0 118.11700641315088 -195.87778390275798 0 0 0 0 27.22260714665012 18.576261775239743 0 18.576261775239743 8.1245559091242079 0 0 0 0 3.4410008124137619 2.7049108617597568 0 2.7049108617597568 1.2093886059575496 0 0 0 0 12.074462389049586 222.79918058523162 0 222.79918058523162 -110.99273886954416 0 0 0 0 -264.30248440775904 215.08185221124268 0 215.08185221124268 -84.7258235495392 0 0 0 0 -6.0327316442068764 2.3854345453236121 0 2.3854345453236121 5.3770457134768748 0 0 0 0 217.11728466226896 187.76474605675401 0 187.76474605675401 -77.819682692550487 0 0 0 0 33.100122840420227 168.06927345789791 0 168.06927345789791 -19.668287587447367 0 0 0 0 43.894889147675713 46.997314981714226 0 46.997314981714226 88.435876662645569 0 0 0 0 45.498132476728642 46.448259119821159 0 46.448259119821159 -159.86132717399687 0 0 0 0 9.5113141036290472 -18.491209642641451 0 -18.491209642641451 92.237619704501412 0 0 0 0 5.6439930553751765 -50.093717162808389 0 -50.093717162808389 449.97293574983132 0 0 0 0 -29.277671825431753 134.16229536693936 0 134.16229536693936 -48.63164912285265 0 0 0 0 -144.83288681570411 112.94532179986709 0 112.94532179986709 116.8063698476617 0 0 0 0 303.92324389348505 34.466043319256642 0 34.466043319256642 -42.905062002155319 0 0 0 0 286.01534776212065 78.39513219665605 0 78.39513219665605 -150.32359075132263 0 0 0 0 84.608503651659703 9.9975626871664645 0 9.9975626871664645 -12.619921733160481 0 0 0 0 146.28486513998359 220.20856984087277 0 220.20856984087277 45.0435277943252 0 0 0 0 228.4854541416571 163.00425770774382 0 163.00425770774382 -115.60574135977913 0 0 0 0 219.09935009765104 133.37877181968747 0 133.37877181968747 95.366801685213431 0 0 0 0 142.55161722149933 106.75568103153819 0 106.75568103153819 107.18951976316566 0 0 0 0 0.80636987835168839 15.819186510193958 0 15.819186510193958 18.695933145583695 0 0 0 0 23.528840297312414 -2.0668384561211042 0 -2.0668384561211042 -6.148464986362054 0 0 0 0 4.1109630428792983 0.66399205131114059 0 0.66399205131114059 -0.67520313804199006 0 0 0 0 365.94930602657041 98.837698202733691 0 98.837698202733691 -76.601604790743295 0 0 0 0 12.944986070069717 -6.4555413178532035 0 -6.4555413178532035 -16.148782069021763 0 0 0 0 29.490607679235211 -2.001810166065372 0 -2.001810166065372 -6.160259224747147 0 0 0 0 54.008075547564658 22.591702884457845 0 22.591702884457845 -33.194137230719207 0 0 0 0 408.29611798816768 -13.032099239049785 0 -13.032099239049785 -37.047542075534835 0 0 0 0 67.395425066484677 42.104987963320127 0 42.104987963320127 -35.521869595051612 0 0 0 0 217.36414026502462 135.43647674298427 0 135.43647674298427 51.054245219088443 0 0 0 0 178.33567298667913 64.082228884955839 0 64.082228884955839 13.730066900610836 0 0 0 0 23.661958237396902 122.51379574306338 0 122.51379574306338 251.14341047133806 0 0 0 0 -21.37871213501785 36.353412708748692 0 36.353412708748692 157.92350588954832 0 0 0 0 -64.162696575825976 89.120049201382699 0 89.120049201382699 251.61574401888356 0 0 0 0 15.407809011147037 180.21630396891533 0 180.21630396891533 572.92031297225185 0 0 0 0 81.060221046674997 -364.07581558932725 0 -364.07581558932725 325.98730010365216 0 0 0 0 -101.76250835537212 -52.20183907986393 0 -52.20183907986393 123.17704870444049 0 0 0 0 -39.175243843143107 56.904656315081638 0 56.904656315081638 136.13394098207755 0 0 0 0 93.597993711940944 -78.987421870323487 0 -78.987421870323487 -90.646294293697792 0 0 0 0 -61.078542854244006 70.412269722012752 0 70.412269722012752 -149.24932649431139 0 0 0 0 78.620431145653129 47.777566963492973 0 47.777566963492973 -51.59018255565843 0 0 0 0 56.318775751411806 6.8501478494148458 0 6.8501478494148458 -0.41855206818284019 0 0 0 0 267.12935817475955 -136.33117631188543 0 -136.33117631188543 -397.61867190900921 0 0 0 0 84.133954766119132 -76.535518428992873 0 -76.535518428992873 62.548286965562511 0 0 0 0 374.60252328967908 -409.20998368292567 0 -409.20998368292567 -176.3760752047001 0 0 0 0 -322.65037977374595 80.929090515157895 0 80.929090515157895 131.9059207479313 0 0 0 0 393.17823574518843 298.25836753973272 0 298.25836753973272 166.14605118785221 0 0 0 0 235.84176952506823 -142.35901729115903 0 -142.35901729115903 21.890398722063765 0 0 0 0 -16.649011808767682 239.36949417269716 0 239.36949417269716 701.09340611496373 0 0 0 0 4.3074637023887874 3.9989818735729799 0 3.9989818735729799 4.0212258047112002 0 0 0 0 878.15343668175046 246.6262251831904 0 246.6262251831904 147.66375338074181 0 0 0 0 53.078053119184915 -124.99416475654471 0 -124.99416475654471 308.62815359293745 0 0 0 0 21.722503833705559 -32.929230234774877 0 -32.929230234774877 117.36368668869 0 0 0 0 -22.917302433867007 -115.67959223579419 0 -115.67959223579419 630.6536993153079 0 0 0 0 48.907587173889624 -93.259464301738262 0 -93.259464301738262 225.35384642799272 0 0 0 0 -44.398493752989452 46.220976438453363 0 46.220976438453363 255.14438450265061 0 0 0 0 -29.644809606616036 37.803644679969693 0 37.803644679969693 193.04670111313317 0 0 0 0 20.6636547067028 184.74394070920425 0 184.74394070920425 224.55579586298518 0 0 0 0 -27.77243840162555 -11.591927373021917 0 -11.591927373021917 420.13567569381121 0 0 0 0 61.456345293965029 6.3387485006317164 0 6.3387485006317164 -0.70484490210358919 0 0 0 0 12.622235369010014 26.050307848072862 0 26.050307848072862 78.538511217123869 0 0 0 0 303.50747054853127 244.8399086234549 0 244.8399086234549 -266.22889464966511 0 0 0 0 58.0333381902621 5.6114203976556958 0 5.6114203976556958 -0.67905037018875736 0 0 0 0 -40.906065397663042 74.220519542964212 0 74.220519542964212 171.28013044265572 0 0 0 0 -46.767097980860854 63.016171687756014 0 63.016171687756014 199.97028447314187 0 0 0 0 3.7655546944297384 80.610072086853961 0 80.610072086853961 149.75809201606125 0 0 0 0 -25.428976148803486 57.742245430437833 0 57.742245430437833 183.17366973096432 0 0 0 0 -32.465464540116955 48.231138324920721 0 48.231138324920721 177.41279223333913 0 0 0 0 5.8204242517713283 36.384370375170079 0 36.384370375170079 81.259858412136964 0 0 0 0 -5.8594624748366186 -3.4560728785991159 0 -3.4560728785991159 56.834760480738623 0 0 0 0 12.397267353283553 11.352408538412199 0 11.352408538412199 9.7115917203341748 0 0 0 0 26.669138916535303 129.69815739071237 0 129.69815739071237 78.547224539375748 0 0 0 0 -36.921755629999097 -154.31076000597932 0 -154.31076000597932 89.249614794010995 0 0 0 0 79.037253425449308 -21.316353385092953 0 -21.316353385092953 82.363454345570062 0 0 0 0 61.76421635846782 -18.573796552371277 0 -18.573796552371277 141.31682478050789 0 0 0 0 95.891667145071551 20.95591174175479 0 20.95591174175479 65.760748282234999 0 0 0 0 89.133137612181599 -13.809348815861995 0 -13.809348815861995 -24.600362476051487 0 0 0 0 6.3562086917590364 0.51652878185585394 0 0.51652878185585394 -0.34969130554859262 0 0 0 0 98.356691047997629 -2.4565048481161966 0 -2.4565048481161966 -14.105767155644571 0 0 0 0 32.294689550835756 8.9615541447194502 0 8.9615541447194502 2.0473857842858711 0 0 0 0 107.88955168498796 8.3336656604924428 0 8.3336656604924428 -20.0032717363556 0 0 0 0 48.156876549168373 8.1209757238366365 0 8.1209757238366365 -10.638950154162558 0 0 0 0 1.9252802659975714 18.979886135505694 0 18.979886135505694 12.909154513139583 0 0 0 0 26.334718340556719 -5.5750064413841756 0 -5.5750064413841756 -11.902464750920899 0 0 0 0 51.924767186050303 45.850676975474926 0 45.850676975474926 -18.67595681999228 0 0 0 0 21.552006292054273 9.1848406178583133 0 9.1848406178583133 1.7249754531023802 0 0 0 0 38.112278529501054 16.461898147353168 0 16.461898147353168 -1.7648218449980959 0 0 0 0 39.186138774530264 14.676801171001898 0 14.676801171001898 1.1668738043190388 0 0 0 0 24.890757869081597 15.155496663716981 0 15.155496663716981 8.2749070559541558 0 0 0 0 63.206009061148507 18.820355921767259 0 18.820355921767259 -31.871210145921395 0 0 0 0 25.896611075600788 8.0368151161575909 0 8.0368151161575909 -2.364612129477667 0 0 0 0 23.703238710644655 8.2335115739660978 0 8.2335115739660978 -10.846183770105199 0 0 0 0 34.357930639079569 12.708916494788241 0 12.708916494788241 -3.9575340224913349 0 0 0 0 28.315618706554147 12.398227454880356 0 12.398227454880356 -3.6011299894226756 0 0 0 0 28.588356302076136 3.1187038935477176 0 3.1187038935477176 -5.2601977937947595 0 0 0 0 64.785794410898234 38.039943989349013 0 38.039943989349013 25.377167923403249 0 0 0 0 51.094263530161697 55.141119996897032 0 55.141119996897032 97.883962545449322 0 0 0 0 60.892822943289502 17.532919487324989 0 17.532919487324989 63.538829896027892 0 0 0 0 40.972605170893075 42.707994538012372 0 42.707994538012372 34.605204425259217 0 0 0 0 22.228877705623745 53.271680571013349 0 53.271680571013349 124.63123119693046 0 0 0 0 39.539379031877615 22.765455229290637 0 22.765455229290637 29.374077826312487 0 0 0 0 -1.8935454785314505 49.357446690401957 0 49.357446690401957 126.49152248667451 0 0 0 0 35.543344200283173 41.48658278618575 0 41.48658278618575 170.0264604013646 0 0 0 0 27.198247207561508 76.226701697937642 0 76.226701697937642 149.89399986970238 0 0 0 0 65.252384565363172 50.219280244508809 0 50.219280244508809 151.50636539912506 0 0 0 0 76.221059077332029 17.061865553033385 0 17.061865553033385 167.30031181498816 0 0 0 0 43.021949793385545 1.833796926280252 0 1.833796926280252 -0.24319665263067303 0 0 0 0 38.290976254895213 35.18982074655105 0 35.18982074655105 315.89943489041252 0 0 0 0 87.980966448114486 93.495809650008141 0 93.495809650008141 211.14497906216593 0 0 0 0 1137.8865239966035 -434.50397302278679 0 -434.50397302278679 -665.81274882117214 0 0 0 0 70.234805474130553 31.033109645227341 0 31.033109645227341 170.4472857163928 0 0 0 0 70.549410543273552 63.503023244131327 0 63.503023244131327 99.948937329299952 0 0 0 0 88.229695385249215 82.770191209070617 0 82.770191209070617 75.982150181143879 0 0 0 0 0.71994039539811183 -1.0627820027158457 0 -1.0627820027158457 -0.3226185585586876 0 0 0 0 66.700790382368723 50.473505542257044 0 50.473505542257044 190.89959027797067 0 0 0 0 80.480542653371231 105.02797994606044 0 105.02797994606044 61.798601112914184 0 0 0 0 82.759150938110906 57.438643309229406 0 57.438643309229406 172.25277949173869 0 0 0 0 127.95558552182047 61.05442686190645 0 61.05442686190645 171.30446826482125 0 0 0 0 112.98911483574375 -2.7763234966978416 0 -2.7763234966978416 223.03806965885997 0 0 0 0 24.669181576144183 279.25815208355925 0 279.25815208355925 742.97851144994047 0 0 0 0 -122.89607128177886 243.30918815806763 0 243.30918815806763 734.39100319419049 0 0 0 0 15.700252812490248 -0.31184411949123358 0 -0.31184411949123358 0.88270568375049219 0 0 0 0 1307.0026727218356 342.72347546861783 0 342.72347546861783 259.72662742366992 0 0 0 0 309.01546276861336 -130.95084882134097 0 -130.95084882134097 50.530734447758732 0 0 0 0 44.40453335998609 7.2592030061771311 0 7.2592030061771311 -3.6751715135196719 0 0 0 0 50.982078137381905 22.383830232721721 0 22.383830232721721 0.026714079236626276 0 0 0 0 64.898260246918653 17.300035634422784 0 17.300035634422784 -9.262078711470167 0 0 0 0 4.7884143751962114 1.1118034077785097 0 1.1118034077785097 -3.6493026864540674 0 0 0 0 31.331529686060833 6.3848227400439477 0 6.3848227400439477 -2.691982505344372 0 0 0 0 55.595818148700346 8.7344994786571988 0 8.7344994786571988 -8.2108776584473162 0 0 0 0 30.197929870497319 0.75532900364214584 0 0.75532900364214584 -5.2942646919218532 0 0 0 0 26.585018320212946 -4.4685705941869855 0 -4.4685705941869855 -8.5052476859532469 0 0 0 0 34.375525996831129 5.2557167638424289 0 5.2557167638424289 -9.6081489178359334 0 0 0 0 33.521125330997165 7.8595253541539023 0 7.8595253541539023 -8.2826329688323312 0 0 0 0 78.708044372744553 -5.2904404320784124 0 -5.2904404320784124 -10.665516560013202 0 0 0 0 31.513347722910112 -0.29023500634048105 0 -0.29023500634048105 -9.2322675519571931 0 0 0 0 20.419629761027636 -1.7749590388688148 0 -1.7749590388688148 -11.165619995376318 0 0 0 0 27.188910961351326 1.388474811973893 0 1.388474811973893 -5.1774869474316425 0 0 0 0 33.279592405393487 -1.3428116324730581 0 -1.3428116324730581 -19.397197465311365 0 0 0 0 29.898743480123812 8.7668420182212685 0 8.7668420182212685 -6.0331845158416399 0 0 0 0 33.532967437466141 -7.9215059960079088 0 -7.9215059960079088 -6.5942194855761045 0 0 0 0 39.62101759394136 12.478575070702846 0 12.478575070702846 -12.166197200385795 0 0 0 0 3.0783017828241839 7.1900283146967183 0 7.1900283146967183 2.1030194659670087 0 0 0 0 30.355138159469846 3.1953559412373167 0 3.1953559412373167 -3.9546821774217777 0 0 0 0 33.59867868051515 11.678914788761631 0 11.678914788761631 -4.5762483137496019 0 0 0 0 34.052542601923051 0.70896492712290637 0 0.70896492712290637 -16.443565273511922 0 0 0 0 -45.591323511282098 -32.192348253765431 0 -32.192348253765431 25.429901753886952 0 0 0 0 9.6076800471857027 7.9743878883487582 0 7.9743878883487582 3.2344401182316709 0 0 0 0 28.773473046123399 5.6208219212144286 0 5.6208219212144286 13.021515020631 0 0 0 0 -65.373109749674768 33.933702118948304 0 33.933702118948304 61.345051145588513 0 0 0 0 46.723517765203724 15.292203165531646 0 15.292203165531646 -0.20134016533097565 0 0 0 0 42.235256339234184 21.348466729101347 0 21.348466729101347 5.7527062359395131 0 0 0 0 35.583564861517516 -6.9439003260504251 0 -6.9439003260504251 16.665634838400365 0 0 0 0 57.9727930672816 5.3594562869811853 0 5.3594562869811853 -8.1883491241133015 0 0 0 0 27.535306576857693 2.3882535681332229 0 2.3882535681332229 -5.156363835510092 0 0 0 0 28.877200992486905 4.914388448416048 0 4.914388448416048 -1.192201326299255 0 0 0 0 20.443917890332045 7.9129322016730868 0 7.9129322016730868 0.81197373210688717 0 0 0 0 6.4791864261836736 6.5552469817212966 0 6.5552469817212966 -1.0983074740159982 0 0 0 0 28.519339941401995 7.319719860218612 0 7.319719860218612 -1.3886946125153372 0 0 0 0 30.139090145536102 15.57410424500614 0 15.57410424500614 -3.1507603055215441 0 0 0 0 29.15058351976927 7.9600767236104844 0 7.9600767236104844 1.4914301386679198 0 0 0 0 30.751084570831154 16.552300898506473 0 16.552300898506473 -1.7233301042703886 0 0 0 0 31.106220399684389 15.86972126695013 0 15.86972126695013 3.4278577868074933 0 0 0 0 26.697989414849985 10.653388971065951 0 10.653388971065951 3.3119791021470597 0 0 0 0 29.650888130006933 12.423027086881639 0 12.423027086881639 3.3107984372023429 0 0 0 0 19.0632914730013 11.115050970741322 0 11.115050970741322 -4.3667120617678847 0 0 0 0 57.63067634943657 14.965761154462399 0 14.965761154462399 -1.9762769728515419 0 0 0 0 9.1806494114604504 1.9401785457874041 0 1.9401785457874041 0.41453859184564451 0 0 0 0 72.625614927535935 19.348947547879138 0 19.348947547879138 -6.7721594657331821 0 0 0 0 29.52927138166342 17.12350665059089 0 17.12350665059089 2.6429769420830524 0 0 0 0 61.569975662787328 23.991359338944534 0 23.991359338944534 -3.1397742977688345 0 0 0 0 50.280590588736231 11.636398149638158 0 11.636398149638158 -0.36874901522024928 0 0 0 0 57.511794009769801 19.510541830027524 0 19.510541830027524 -0.50766588123152445 0 0 0 0 42.563142059312668 15.208999344666733 0 15.208999344666733 0.003032013428972441 0 0 0 0 37.669882897738717 16.061678189237853 0 16.061678189237853 1.7539708409699137 0 0 0 0 33.346411472623004 19.835764282023895 0 19.835764282023895 -0.43920002191303897 0 0 0 0 33.963318266069109 11.134700269739234 0 11.134700269739234 -1.2365630924658575 0 0 0 0 31.140232402547554 15.603865126481033 0 15.603865126481033 1.3233180996399767 0 0 0 0 36.065181142213987 14.6686267373489 0 14.6686267373489 1.500302479509358 0 0 0 0 37.737961689854274 14.719181832983296 0 14.719181832983296 0.50841821451887892 0 0 0 0 41.907883494161069 8.6571382366906597 0 8.6571382366906597 -2.068004757988092 0 0 0 0 56.446028855920304 15.846940035567911 0 15.846940035567911 -2.2969265503110101 0 0 0 0 40.188986759763793 15.436797634664551 0 15.436797634664551 -1.7073404943097259 0 0 0 0 38.998892485047691 13.521262138822944 0 13.521262138822944 0.69841960241661782 0 0 0 0 23.081280496778163 28.605402283905946 0 28.605402283905946 -7.9295560116845678 0 0 0 0 37.530398260554648 14.639031212064886 0 14.639031212064886 -0.016008434533406002 0 0 0 0 2.8181465077295229 0.41079542132672486 0 0.41079542132672486 -1.1190405508475592 0 0 0 0 12.471037851792062 23.348033495977763 0 23.348033495977763 -3.3876785562069642 0 0 0 0 1.2805089774192311 14.263926906130084 0 14.263926906130084 -10.649980760207228 0 0 0 0 60.98570064453088 -1.3842549180231778 0 -1.3842549180231778 -7.5727386594941635 0 0 0 0 2.462579782284223 1.5504256560381009 0 1.5504256560381009 0.93123608183025719 0 0 0 0 22.403078490286134 12.273573090373816 0 12.273573090373816 1.4143134162579827 0 0 0 0 22.093730663709266 2.2948898917401834 0 2.2948898917401834 -1.4598021774714756 0 0 0 0 22.076439178403234 4.4012411373050782 0 4.4012411373050782 0.69060004292032318 0 0 0 0 48.933647716155974 1.7031047666793562 0 1.7031047666793562 -8.0597569736279198 0 0 0 0 18.876782041566912 10.579781819821847 0 10.579781819821847 4.4976486948626189 0 0 0 0 29.045460948231494 11.888226923296472 0 11.888226923296472 2.7558162236694139 0 0 0 0 16.453800288018414 7.4107842285142169 0 7.4107842285142169 2.3146914165960455 0 0 0 0 8.0316297363024205 -6.3539092861876156 0 -6.3539092861876156 3.8764840176155531 0 0 0 0 36.032870355775231 10.004730217401999 0 10.004730217401999 -2.3723565197556127 0 0 0 0 36.939369332409115 11.765936528374894 0 11.765936528374894 -3.3165043324573631 0 0 0 0 21.606180635189844 1.6353282704309819 0 1.6353282704309819 -0.63317601017338188 0 0 0 0 29.212778700675699 6.7056926263824153 0 6.7056926263824153 -1.3933344698962173 0 0 0 0 29.806084855939844 8.7569670685541041 0 8.7569670685541041 -4.9617375557797914 0 0 0 0 21.930113465178721 6.4678613353746925 0 6.4678613353746925 -1.0018389214201324 0 0 0 0 17.290618740741195 2.4787926086139578 0 2.4787926086139578 -1.647457797970052 0 0 0 0 36.740251465438632 16.057250015260252 0 16.057250015260252 2.3676009779519518 0 0 0 0 25.270537486562944 12.343881764868343 0 12.343881764868343 4.8123627256286383 0 0 0 0 35.845191264626919 15.029539123722316 0 15.029539123722316 1.2036930539602508 0 0 0 0 38.094221149483928 19.129719719869172 0 19.129719719869172 0.35264124629702565 0 0 0 0 29.886633613982553 4.7138207853331835 0 4.7138207853331835 -4.327621220429787 0 0 0 0 24.95404595117725 11.895118098490002 0 11.895118098490002 -13.826109994363833 0 0 0 0 35.922219758182791 10.117808185657928 0 10.117808185657928 1.0260092485373797 0 0 0 0 88.486145978895365 72.050536776954914 0 72.050536776954914 -58.933978814752322 0 0 0 0 59.668839910795214 93.024993860003406 0 93.024993860003406 105.99960738689197 0 0 0 0 194.91900297161192 -6.9253247588713407 0 -6.9253247588713407 3.4837315839004077 0 0 0 0 84.436315939296037 36.494801615610299 0 36.494801615610299 34.750945296946838 0 0 0 0 167.70227962269564 57.484251998189166 0 57.484251998189166 12.202348433823545 0 0 0 0 86.594749456911813 32.736386503488475 0 32.736386503488475 17.938960425234882 0 0 0 0 -11.127977618918521 30.354209783726276 0 30.354209783726276 50.002519792979683 0 0 0 0 -0.33307927128043957 14.227338930465294 0 14.227338930465294 33.298384685796123 0 0 0 0 -14.438798183269682 34.430296310691631 0 34.430296310691631 20.710135404057041 0 0 0 0 18.1775263878788 10.957227296928949 0 10.957227296928949 3.9386571882565202 0 0 0 0 4.6514070717676077 -1.3608862952821141 0 -1.3608862952821141 3.5613244804408595 0 0 0 0 0.058883242262083968 2.4984494990494852 0 2.4984494990494852 0.47571812920651546 0 0 0 0 9.4625340455022524 3.6882910530609117 0 3.6882910530609117 -22.579015511715731 0 0 0 0 -11.635153137875022 5.5430371793437772 0 5.5430371793437772 -14.923796204804688 0 0 0 0 10.710692261520308 18.978253912063579 0 18.978253912063579 -24.726211679495655 0 0 0 0 10.367827985308395 15.530668886660209 0 15.530668886660209 -8.9611043418742113 0 0 0 0 23.635084517578434 21.894286578300328 0 21.894286578300328 -11.396923892579956 0 0 0 0 18.045442942260706 20.579712770211891 0 20.579712770211891 0.024232570359173332 0 0 0 0 82.23105497466895 -19.967916704018212 0 -19.967916704018212 -46.587957994755996 0 0 0 0 45.598001168342307 20.781249984108531 0 20.781249984108531 -13.209488950182632 0 0 0 0 107.06102760006615 54.181764972025775 0 54.181764972025775 34.880947964867858 0 0 0 0 -0.60821290654678251 -0.093504921520619177 0 -0.093504921520619177 0.057384477793489833 0 0 0 0 33.409943074155308 -37.213417760678269 0 -37.213417760678269 -51.900552301017626 0 0 0 0 124.61642388039036 40.460499616283983 0 40.460499616283983 35.070540204047035 0 0 0 0 220.38803477422334 100.23337908211226 0 100.23337908211226 16.475671345840055 0 0 0 0 85.8537116444204 -61.621220882637374 0 -61.621220882637374 31.21984526394786 0 0 0 0 245.71028365286475 65.268246319860964 0 65.268246319860964 11.667792657681957 0 0 0 0 2.2421423671029288 -3.007245137796339 0 -3.007245137796339 -1.3266842884039396 0 0 0 0 123.69768953960738 115.62742968586748 0 115.62742968586748 65.23692009145185 0 0 0 0 257.95460348250344 11.395407208164675 0 11.395407208164675 -34.637449894547572 0 0 0 0 135.71394378042896 47.576854985736716 0 47.576854985736716 -0.054675714129083654 0 0 0 0 2.9792904502635764 0.58471819612665854 0 0.58471819612665854 0.1362671707858476 0 0 0 0 52.594849522036384 12.067627420195103 0 12.067627420195103 3.4348108917258244 0 0 0 0 99.392992530338233 34.730825004576914 0 34.730825004576914 -0.23073311491677317 0 0 0 0 165.48270668291661 79.058404963703936 0 79.058404963703936 41.629457820898523 0 0 0 0 82.539915314875543 -1.083891596770485 0 -1.083891596770485 -2.0531412748983939 0 0 0 0 10.164437040323165 1.3270814848367536 0 1.3270814848367536 -0.10341664243255991 0 0 0 0 30.585059204837307 7.6427611497638281 0 7.6427611497638281 2.4783560652259666 0 0 0 0 29.155410624417669 -0.68461843468361394 0 -0.68461843468361394 -1.8024357315476136 0 0 0 0 53.894177423718311 13.245885657982114 0 13.245885657982114 -6.2671204695623421 0 0 0 0 47.284708615276031 -4.1966413356476551 0 -4.1966413356476551 -0.81736450388598314 0 0 0 0 25.141486287238195 -9.1240520566233272 0 -9.1240520566233272 -9.7551477230810555 0 0 0 0 7.5072463525284547 -8.7253915299274922 0 -8.7253915299274922 -7.3097828050143789 0 0 0 0 85.166795507189818 11.142423013168809 0 11.142423013168809 10.021260902948143 0 0 0 0 14.196460784356816 -3.946869014881031 0 -3.946869014881031 -5.3966545154419592 0 0 0 0 25.647811696941744 -15.530415948648738 0 -15.530415948648738 -14.338999826282231 0 0 0 0 50.143640531488643 -3.4905475353800455 0 -3.4905475353800455 -26.355442414463376 0 0 0 0 23.256541298062075 1.5481166370367418 0 1.5481166370367418 -10.695969655734189 0 0 0 0 102.65208566297224 20.195366689297316 0 20.195366689297316 -20.563623996129536 0 0 0 0 123.78278213299927 -18.01626203916237 0 -18.01626203916237 -105.14498310816998 0 0 0 0 12.738077386570705 3.1075496936220475 0 3.1075496936220475 -3.8954083145746345 0 0 0 0 106.15769336263475 3.820186707744142 0 3.820186707744142 8.7926412193592114 0 0 0 0 17.33036276495308 -24.80414336119361 0 -24.80414336119361 -23.854458847889465 0 0 0 0 -5.2639918288299441 -4.3437366614054156 0 -4.3437366614054156 -0.39455561873127998 0 0 0 0 223.29932282566733 89.463421191630005 0 89.463421191630005 5.8735534632887152 0 0 0 0 233.71815496297495 72.441372020624499 0 72.441372020624499 -9.9426072566120069 0 0 0 0 165.30535510688787 60.029203954959883 0 60.029203954959883 13.04088252034262 0 0 0 0 -22.061301520676352 -52.559541383261944 0 -52.559541383261944 1.7689806443652287 0 0 0 0 39.741650336907128 -0.47057760061671772 0 -0.47057760061671772 -6.3576979431090379 0 0 0 0 125.60972765633414 -88.020109941184359 0 -88.020109941184359 -153.52728685386796 0 0 0 0 -16.93910634041822 38.22510886791315 0 38.22510886791315 303.58306155930404 0 0 0 0 142.92346196333528 -140.95608420148437 0 -140.95608420148437 83.97852896690938 0 0 0 0 -1.870391118938187 -10.368926926622855 0 -10.368926926622855 -1.8842668221055154 0 0 0 0 -1.1375661700697091 -0.32131090400753237 0 -0.32131090400753237 -0.94323200002023455 0 0 0 0 144.52430003668997 175.33552936043907 0 175.33552936043907 208.29744915087758 0 0 0 0 107.72610234566218 30.211731933231249 0 30.211731933231249 -29.114958662291428 0 0 0 0 19.376240811456228 -10.524040790432991 0 -10.524040790432991 3.8683501065611381 0 0 0 0 94.264979642437538 -31.506223790754461 0 -31.506223790754461 -13.756416272057322 0 0 0 0 95.011737645239918 111.04835336719179 0 111.04835336719179 -48.097370660196248 0 0 0 0 172.93512581634513 -108.18672306025132 0 -108.18672306025132 -147.62591639007405 0 0 0 0 -66.94199793941516 -86.557509239479714 0 -86.557509239479714 -32.379505106331635 0 0 0 0 -0.18588090625408427 -1.1914732724503807 0 -1.1914732724503807 1.7727226122855626 0 0 0 0 202.49787199218554 73.105096587182572 0 73.105096587182572 -51.690209083609261 0 0 0 0 -48.096352124048281 -137.67802924282569 0 -137.67802924282569 -18.926888113375753 0 0 0 0 -5.0898673452829826 -158.9790387795083 0 -158.9790387795083 -116.9719296805672 0 0 0 0 151.31761028408073 -49.344317497303109 0 -49.344317497303109 -63.929728775223339 0 0 0 0 -37.598859358491609 12.08579212363702 0 12.08579212363702 -60.709553276608858 0 0 0 0 71.43470013332626 32.169910351616636 0 32.169910351616636 -3.9926833855270161 0 0 0 0 78.296883348812116 47.79393525215437 0 47.79393525215437 3.3026145850925559 0 0 0 0 97.966927537243464 60.217248442294249 0 60.217248442294249 -56.258944872940447 0 0 0 0 95.586308568061213 9.3303845953741984 0 9.3303845953741984 -65.994862310906115 0 0 0 0 12.917960601189407 15.978752964805949 0 15.978752964805949 -23.380873476251509 0 0 0 0 48.060554874791706 -57.714120344952789 0 -57.714120344952789 -126.61181059143792 0 0 0 0 1.4546396601131732 -2.1186635888664824 0 -2.1186635888664824 2.056406229068056 0 0 0 0 37.384532615840726 30.505980080148674 0 30.505980080148674 -71.129343748318206 0 0 0 0 113.68426531538717 -26.357170412105006 0 -26.357170412105006 -200.04027535706064 0 0 0 0 304.167463878126 -184.59497137551807 0 -184.59497137551807 53.652158784102539 0 0 0 0 -23.978540267737117 -186.62615961398205 0 -186.62615961398205 251.40238352196866 0 0 0 0 -120.47072600183674 -11.981614712203736 0 -11.981614712203736 -9.3986850622623024 0 0 0 0 233.40084005722201 153.78327371693069 0 153.78327371693069 -5.8270591569089447 0 0 0 0 45.454498800114379 12.768757153259685 0 12.768757153259685 51.549527530343767 0 0 0 0 62.662683345799451 39.141473353880428 0 39.141473353880428 -19.626064437748482 0 0 0 0 38.496412736692946 41.328720700334486 0 41.328720700334486 23.138650581413458 0 0 0 0 64.390248365481966 12.572805930784853 0 12.572805930784853 14.056707339257628 0 0 0 0 70.708086733437085 21.031268489851755 0 21.031268489851755 20.614575148007134 0 0 0 0 52.053736858797492 12.219343025804847 0 12.219343025804847 20.75525262684738 0 0 0 0 58.03352830915901 3.0203444299602324 0 3.0203444299602324 12.651579642639263 0 0 0 0 49.47771025608381 1.70123200160333 0 1.70123200160333 18.502319390224784 0 0 0 0 72.558187861962324 -53.693410750099531 0 -53.693410750099531 235.42223945121077 0 0 0 0 779.43511852742813 30.181094982002833 0 30.181094982002833 -95.667996853409022 0 0 0 0 -0.49577439683428715 0.90263082069660072 0 0.90263082069660072 7.9230019214276091 0 0 0 0 12.812382933919025 3.9362998732857051 0 3.9362998732857051 -0.64702366901975239 0 0 0 0 2086.5384304580498 -2021.4695905839026 0 -2021.4695905839026 1050.6022977905232 0 0 0 0 75.908513114729431 257.74845760638345 0 257.74845760638345 -166.27367596485556 0 0 0 0 0.50284795335330124 1.0040612206670545 0 1.0040612206670545 2.5691262872486149 0 0 0 0 66.97829314415867 9.8346190695938276 0 9.8346190695938276 14.62098608619317 0 0 0 0 103.97222233771026 27.556472228371149 0 27.556472228371149 -3.1522186288702869 0 0 0 0 791.71043302907856 -1345.4246953683969 0 -1345.4246953683969 690.89017361833248 0 0 0 0 882.60782244251459 -612.22322394026742 0 -612.22322394026742 -126.26631558416375 0 0 0 0 1221.2534029013041 -608.06248500869515 0 -608.06248500869515 195.52968262441721 0 0 0 0 927.77265167418227 -774.19713083493389 0 -774.19713083493389 387.52766005888225 0 0 0 0 2233.9391278833646 -360.18266462495194 0 -360.18266462495194 352.79026382339634 0 0 0 0 613.29406750932685 -365.10733898203398 0 -365.10733898203398 746.08142508285073 0 0 0 0 167.12390458632581 -421.4937244104683 0 -421.4937244104683 699.2538198775801 0 0 0 0 10.859280745523989 2.1073569118228335 0 2.1073569118228335 -8.4954621298113722 0 0 0 0 591.88326257796143 -226.95363247058503 0 -226.95363247058503 212.15956953434761 0 0 0 0 776.06795018014964 -155.90816622255397 0 -155.90816622255397 -267.3223850098143 0 0 0 0 72.758819001232041 -13.030894970753252 0 -13.030894970753252 -208.53427621694073 0 0 0 0 48.645180020486237 3.4771362240020736 0 3.4771362240020736 -4.9687316364429899 0 0 0 0 19.472919829939201 -22.341543325014072 0 -22.341543325014072 6.1683864997685305 0 0 0 0 433.12875747287762 -47.993267339554677 0 -47.993267339554677 937.36954308059103 0 0 0 0 -163.78424146199541 147.56821696296902 0 147.56821696296902 160.55444749475737 0 0 0 0 -229.24096427265613 -218.7387941086813 0 -218.7387941086813 88.263753319072748 0 0 0 0 -54.376522772276076 -206.39587770427261 0 -206.39587770427261 -143.24858947712528 0 0 0 0 17.065219437645283 -94.926176775980821 0 -94.926176775980821 -12.379067739776474 0 0 0 0 -125.72244263102766 -122.6143482367961 0 -122.6143482367961 9.1148337350796282 0 0 0 0 -1.3583249684452312 -11.470829239075101 0 -11.470829239075101 -41.704902561374183 0 0 0 0 -0.17378492312730032 -1.5343274051605675 0 -1.5343274051605675 0.028440994160522592 0 0 0 0 27.128569347978669 12.077568402370616 0 12.077568402370616 -0.23397430889106552 0 0 0 0 231.35342031350592 358.13294456808762 0 358.13294456808762 327.91707299266636 0 0 0 0 -80.892646960128332 40.901587209137688 0 40.901587209137688 17.850929056058021 0 0 0 0 50.067592972685816 57.521739737738699 0 57.521739737738699 17.489549483263545 0 0 0 0 274.87342756884209 -264.26278208326301 0 -264.26278208326301 -524.98905043967534 0 0 0 0 1234.2443290424417 -1861.4649987050111 0 -1861.4649987050111 1617.2095347154054 0 0 0 0 794.01688986795307 -1563.6280780480229 0 -1563.6280780480229 1429.6065797844522 0 0 0 0 955.80965245005791 354.92038955143926 0 354.92038955143926 -602.62771011751011 0 0 0 0 21.548296296471307 -0.37759971553853688 0 -0.37759971553853688 -0.47427836759776909 0 0 0 0 744.65196273301262 -143.7455172711343 0 -143.7455172711343 -963.66586750842725 0 0 0 0 2367.8862145036983 -239.72749206122353 0 -239.72749206122353 -359.24486756577244 0 0 0 0 2973.9204804505862 -1735.6544844049549 0 -1735.6544844049549 295.10721150107929 0 0 0 0 -135.86102524209127 -170.39538503792187 0 -170.39538503792187 -443.56875924564383 0 0 0 0 3122.8985691176204 -828.76934288430402 0 -828.76934288430402 -294.15419660732732 0 0 0 0 3360.9054684111034 114.80768212226803 0 114.80768212226803 232.09128341237192 0 0 0 0 6846.6519639742619 -2572.9301587473146 0 -2572.9301587473146 -151.84401767679628 0 0 0 0 2218.1680623301072 -2054.1033375142142 0 -2054.1033375142142 850.84291818959173 0 0 0 0 9.4373738195235433 -2.6137534334208112 0 -2.6137534334208112 -4.4054537441382813 0 0 0 0 1539.6676173757878 -2070.9462637459419 0 -2070.9462637459419 1521.4160487135305 0 0 0 0 1354.9233769736602 -1676.0473136684941 0 -1676.0473136684941 1510.3219578493608 0 0 0 0 1659.7546724811837 -1306.4669198810575 0 -1306.4669198810575 688.4090667298733 0 0 0 0 1131.7865313939401 -1355.7722510984531 0 -1355.7722510984531 1093.7807737377952 0 0 0 0 1060.9447375535965 -757.0173202505448 0 -757.0173202505448 698.89758708350109 0 0 0 0 972.969415765132 -1121.0663111868751 0 -1121.0663111868751 1318.9864417307836 0 0 0 0 783.73654105195601 -592.37279822710025 0 -592.37279822710025 674.18166345667578 0 0 0 0 1419.1062908923195 -1191.5281696499733 0 -1191.5281696499733 958.37954906144296 0 0 0 0 1368.4439862369582 -601.00208748160628 0 -601.00208748160628 346.32662521118073 0 0 0 0 2161.5474149364454 -935.03007468219403 0 -935.03007468219403 334.05020329579202 0 0 0 0 1540.8866394705547 -1268.5487915768481 0 -1268.5487915768481 698.56364729231609 0 0 0 0 1566.966458259325 -680.84590754772034 0 -680.84590754772034 340.09838830975241 0 0 0 0 326.13808719252847 149.27748265846321 0 149.27748265846321 360.64451772810844 0 0 0 0 788.65487668414426 -161.06200585811894 0 -161.06200585811894 222.10468367327121 0 0 0 0 1381.3220742438571 191.5059619899248 0 191.5059619899248 -25.800436864555195 0 0 0 0 960.38982638799644 -140.33652876114411 0 -140.33652876114411 210.08740153697909 0 0 0 0 185.30159190008999 -41.17734173068493 0 -41.17734173068493 392.20632463604352 0 0 0 0 289.49594784556393 198.51867979654889 0 198.51867979654889 94.751405014918419 0 0 0 0 547.01567905189586 27.763083136433124 0 27.763083136433124 -2.7607724672334371 0 0 0 0 810.0219121005648 -683.68366995450583 0 -683.68366995450583 425.5074515968272 0 0 0 0 1171.8388194458093 -786.73522896758641 0 -786.73522896758641 540.40324835667525 0 0 0 0 362.03221430406848 -327.66360911247239 0 -327.66360911247239 480.34780322001461 0 0 0 0 -63.50152390410949 -7.2907229261527391 0 -7.2907229261527391 -6.0312975325095977 0 0 0 0 -68.770859719927103 -12.486311821600907 0 -12.486311821600907 124.92291214500983 0 0 0 0 -74.867518788887537 15.423796494700355 0 15.423796494700355 65.282149357047274 0 0 0 0 -29.799299467646051 93.91367262138192 0 93.91367262138192 198.39090880603896 0 0 0 0 61.077641331823543 -65.969263679216738 0 -65.969263679216738 299.02929099525227 0 0 0 0 -141.46508557430934 -59.186445344712467 0 -59.186445344712467 248.1674459324604 0 0 0 0 -126.43043525422399 200.33058528924857 0 200.33058528924857 164.81664401825537 0 0 0 0 45.307611133001046 236.01988222910563 0 236.01988222910563 -284.17665560424712 0 0 0 0 30.057623079592474 11.470031136653333 0 11.470031136653333 4.0932423413728429 0 0 0 0 39.891959213151182 13.046195565389297 0 13.046195565389297 3.1413225835870593 0 0 0 0 -66.808579219912644 108.52498142546983 0 108.52498142546983 -41.414021493186283 0 0 0 0 -70.311505967605626 111.44678409314793 0 111.44678409314793 136.70468862154848 0 0 0 0 45.502364815969486 21.116249834099506 0 21.116249834099506 -5.3674264447092774 0 0 0 0 46.954753354933928 16.006976931366466 0 16.006976931366466 2.4771756160842351 0 0 0 0 62.396459872565174 11.168057790713693 0 11.168057790713693 0.28064594132318632 0 0 0 0 32.353295568929752 5.5572466539868497 0 5.5572466539868497 -17.971492155759357 0 0 0 0 17.956759784070925 1.3188755118336957 0 1.3188755118336957 -0.12993268304177974 0 0 0 0 57.730843827813317 15.845052348590876 0 15.845052348590876 3.7626803310274823 0 0 0 0 146.87415805659839 -124.24164061373085 0 -124.24164061373085 -119.31058648385442 0 0 0 0 -4.3773905945290608 -4.4452844995365286 0 -4.4452844995365286 -5.2502032878863361 0 0 0 0 20.544667652531643 1.7141503917011223 0 1.7141503917011223 -4.6953326599520135 0 0 0 0 20.25847724997584 0.82697847647359479 0 0.82697847647359479 -6.6092751582145297 0 0 0 0 43.996798111445969 14.539947225314812 0 14.539947225314812 0.00046424987795469323 0 0 0 0 -155.32512585697259 -72.448684572952516 0 -72.448684572952516 160.04594895692935 0 0 0 0 171.30029108529561 -204.38932466110509 0 -204.38932466110509 -146.15134708974983 0 0 0 0 299.53516399729415 70.419039298542316 0 70.419039298542316 -346.54998004895208 0 0 0 0 64.263182304490044 12.369908404236398 0 12.369908404236398 0.40821730218414221 0 0 0 0 331.60484239671496 243.63640303558873 0 243.63640303558873 -584.3481567468225 0 0 0 0 -229.19496150658233 235.75254680348559 0 235.75254680348559 321.36944766765828 0 0 0 0 183.41505694616353 -300.86105492430238 0 -300.86105492430238 123.28768945127476 0 0 0 0 -1.8946181664068718 8.1530615409796443 0 8.1530615409796443 -0.056410218617315294 0 0 0 0 -5.5762065381836692 9.5228849333527545 0 9.5228849333527545 1.4466147078448424 0 0 0 0 2.416863756609871 1.8221054688325466 0 1.8221054688325466 1.0635837891483833 0 0 0 0 145.15392024122411 47.734778391990879 0 47.734778391990879 -45.074506678944729 0 0 0 0 -47.458821491149138 258.33132350881226 0 258.33132350881226 59.530229003366671 0 0 0 0 277.89716795372078 -40.278482514126424 0 -40.278482514126424 0.12670680842050033 0 0 0 0 456.74368133582175 -272.70827038755579 0 -272.70827038755579 -298.80764322786541 0 0 0 0 6.0044421669445001 102.02344178171599 0 102.02344178171599 -205.64646721743355 0 0 0 0 805.95182957350335 57.041902099227173 0 57.041902099227173 -527.48278929463777 0 0 0 0 52.587074567970774 8.3423768305084209 0 8.3423768305084209 -0.36613077517991388 0 0 0 0 1532.4831934788235 -2001.3936370205315 0 -2001.3936370205315 1424.6500425188856 0 0 0 0 10.477006665110821 44.978673079012552 0 44.978673079012552 -0.12173361323661072 0 0 0 0 1001.093756858565 -1498.6892414539598 0 -1498.6892414539598 1073.8287303400366 0 0 0 0 23.181350834085265 -0.87957790981069195 0 -0.87957790981069195 -0.39130800172686958 0 0 0 0 1058.9835459681199 -1327.8062910563667 0 -1327.8062910563667 1321.6448807981478 0 0 0 0 190.07295663425612 140.7201990268286 0 140.7201990268286 106.78702865734977 0 0 0 0 16.052289566376885 -4.5439992019272779 0 -4.5439992019272779 -1.7365466686290238 0 0 0 0 550.87496214866223 349.69316221021404 0 349.69316221021404 946.22196793298008 0 0 0 0 1046.3493782571022 -1423.4435739685846 0 -1423.4435739685846 1274.4960854049718 0 0 0 0 404.24795265549619 -861.82593608448906 0 -861.82593608448906 576.56562738710636 0 0 0 0 827.39584312910301 -993.17684341792483 0 -993.17684341792483 540.70631821388451 0 0 0 0 618.24884674654459 -719.73075747099142 0 -719.73075747099142 381.84519251265738 0 0 0 0 674.10583710274659 -742.34744656559951 0 -742.34744656559951 729.32726540527437 0 0 0 0 997.68937158840708 -823.69627551925078 0 -823.69627551925078 710.27333267058134 0 0 0 0 722.52061195403803 -768.76880549267207 0 -768.76880549267207 851.01729783021528 0 0 0 0 1060.3944651018392 -503.9174961699855 0 -503.9174961699855 154.97236559452767 0 0 0 0 1688.0606856695813 -738.19766130935909 0 -738.19766130935909 96.943929969487726 0 0 0 0 31.788187354618458 8.1689297340570448 0 8.1689297340570448 -1.6797822238955016 0 0 0 0 16.05415260246474 2.976102664840127 0 2.976102664840127 -8.8674787516542786 0 0 0 0 -52.040200151049703 64.345272311614067 0 64.345272311614067 18.636866593634295 0 0 0 0 -10.931096353524481 -80.114667318665624 0 -80.114667318665624 15.837350827030605 0 0 0 0 -50.506873686157633 -43.185929975900763 0 -43.185929975900763 9.5510357337752794 0 0 0 0 21.025860627516522 -77.190288268362565 0 -77.190288268362565 -51.924026919083644 0 0 0 0 76.853676258266205 133.90651436181042 0 133.90651436181042 -14.859519260538946 0 0 0 0 5.2445161436771741 -59.045707417413269 0 -59.045707417413269 -65.019302857603634 0 0 0 0 28.3277226251098 14.925758414693433 0 14.925758414693433 -0.68803409188898357 0 0 0 0 722.67929313406057 -942.64088864615314 0 -942.64088864615314 1682.2978210992369 0 0 0 0 752.96850812458433 -1479.3038574175989 0 -1479.3038574175989 2097.2637685966693 0 0 0 0 56.893416316393996 82.002610581517274 0 82.002610581517274 128.42081841065328 0 0 0 0 133.38918004273728 114.70328748118538 0 114.70328748118538 76.460898880257901 0 0 0 0 3.3259986658822243 -3.908479581582025 0 -3.908479581582025 0.87416903151004055 0 0 0 0 83.04753112506296 53.522806393958945 0 53.522806393958945 2.6467769884557129 0 0 0 0 273.89569042040966 36.180824105152169 0 36.180824105152169 -30.932650003496065 0 0 0 0 4.5675192479648103 -50.774945191218762 0 -50.774945191218762 29.312691408295905 0 0 0 0 226.72972634299367 -137.12578716800658 0 -137.12578716800658 57.366083504456583 0 0 0 0 339.0849240544776 87.690248440958612 0 87.690248440958612 -135.66108478911701 0 0 0 0 111.43644445386599 157.16016980956488 0 157.16016980956488 -136.31227920848701 0 0 0 0 -58.687450897397866 1.2521213138434319 0 1.2521213138434319 257.62300922034592 0 0 0 0 97.644226006508688 -76.843238706309421 0 -76.843238706309421 -55.625957539987894 0 0 0 0 31.581912578651099 -70.093045730896847 0 -70.093045730896847 128.03153041658561 0 0 0 0 75.016438007703982 -77.13981714926831 0 -77.13981714926831 -19.963976997991466 0 0 0 0 222.7315201157071 -150.40115034391215 0 -150.40115034391215 4.8096491460887592 0 0 0 0 51.666715061130844 -7.1385117692026032 0 -7.1385117692026032 -4.0453201828887337 0 0 0 0 72.837949326552916 -34.59616237426394 0 -34.59616237426394 -91.550715201353242 0 0 0 0 37.971991184036597 -6.0190459841728625 0 -6.0190459841728625 -19.835431516363997 0 0 0 0 14.949898161622116 -6.5795796761107113 0 -6.5795796761107113 -4.3537466445579369 0 0 0 0 50.516373201889763 -2.8448101799963013 0 -2.8448101799963013 -10.035104460276628 0 0 0 0 236.80601724638836 53.963623184967219 0 53.963623184967219 -183.92434173565562 0 0 0 0 45.450375253305538 -71.391027100284191 0 -71.391027100284191 18.877857193850076 0 0 0 0 41.89211198592966 6.4904684377971762 0 6.4904684377971762 -9.1019233320325768 0 0 0 0 26.319282393611502 2.2928086798278855 0 2.2928086798278855 -7.7199034710465639 0 0 0 0 29.367716800013369 -5.8508727210190585 0 -5.8508727210190585 -5.2730586862532398 0 0 0 0 43.70213530542452 19.947755804138993 0 19.947755804138993 -15.229444482483551 0 0 0 0 34.161180597056955 669.41273080005135 0 669.41273080005135 -202.10270307569408 0 0 0 0 383.88960987198516 -722.74183528850017 0 -722.74183528850017 779.65329259003829 0 0 0 0 2453.7918217688566 -1761.5617369708661 0 -1761.5617369708661 399.81450446527919 0 0 0 0 281.97486528649461 -303.40309808152006 0 -303.40309808152006 132.25810759254875 0 0 0 0 2564.3549240064312 92.538360035574271 0 92.538360035574271 -280.23602654515798 0 0 0 0 -201.04987702023936 1798.8055951358299 0 1798.8055951358299 26.018534746594653 0 0 0 0 7.5629627028683899 -4.3464412824549559 0 -4.3464412824549559 0.030451198358923074 0 0 0 0 -271.95757868443616 176.67159287487129 0 176.67159287487129 -199.91193548881097 0 0 0 0 -0.80278026043561113 6.0677222204214729 0 6.0677222204214729 -3.2090428679648824 0 0 0 0 -370.6354977672454 -363.2881124287764 0 -363.2881124287764 416.89023458317121 0 0 0 0 31.480055657535559 22.754853592244597 0 22.754853592244597 -1.0068707862696407 0 0 0 0 116.04299279022962 -5.4000236442322835 0 -5.4000236442322835 -0.060107377651970328 0 0 0 0 3.4350233506633003 -0.86881476845705663 0 -0.86881476845705663 -2.5437477564093389 0 0 0 0 98.420456101972377 -58.987276120022045 0 -58.987276120022045 4.8920686607666157 0 0 0 0 124.9829133664316 -30.336364230665975 0 -30.336364230665975 -23.180996318288699 0 0 0 0 86.193807980860583 -1.1327785904254881 0 -1.1327785904254881 -44.511013227031583 0 0 0 0 84.178114340669708 -25.71815640217207 0 -25.71815640217207 -5.6255534168267332 0 0 0 0 70.989885987422895 38.954992891737589 0 38.954992891737589 43.645653719736288 0 0 0 0 3.1883894008649349 -0.68464776605367206 0 -0.68464776605367206 -0.0089271785279773658 0 0 0 0 23.156382184621179 6.071167145599965 0 6.071167145599965 32.009428564229253 0 0 0 0 21.706202219938859 -1.4369642028350427 0 -1.4369642028350427 -0.51677168941614582 0 0 0 0 30.306074598265695 24.241931323038493 0 24.241931323038493 23.687969665901544 0 0 0 0 58.375815456529381 10.618222740795748 0 10.618222740795748 -0.040368265753481208 0 0 0 0 1.3312360358485336 -0.50295729473342021 0 -0.50295729473342021 -0.40382748274934149 0 0 0 0 -4.4073077414941508 -12.100333275795469 0 -12.100333275795469 5.292738135081521 0 0 0 0 16.351065669161954 1.1992044113402756 0 1.1992044113402756 -2.3084443627572075 0 0 0 0 4.2659460094529891 -5.4435335818157284 0 -5.4435335818157284 1.9937787660112156 0 0 0 0 9.2362485308694886 -6.691609698718139 0 -6.691609698718139 0.019669809759761847 0 0 0 0 15.154857588752009 -10.534726814033242 0 -10.534726814033242 1.053858552743604 0 0 0 0 19.618713688803837 -10.849905896047744 0 -10.849905896047744 -4.7863379568354603 0 0 0 0 35.443810099931397 -13.271265702414269 0 -13.271265702414269 -2.0309866879737517 0 0 0 0 27.312264733229284 -7.243340715235945 0 -7.243340715235945 -1.9412725068990233 0 0 0 0 27.718988075561356 -5.1622798088753257 0 -5.1622798088753257 -0.53953876272553813 0 0 0 0 27.882238301068412 -14.354061721385378 0 -14.354061721385378 1.0536298438826202 0 0 0 0 52.003805021820881 -59.32178490497472 0 -59.32178490497472 -16.349012513083608 0 0 0 0 40.246671523788564 -3.6694303066167606 0 -3.6694303066167606 -4.5291162902133912 0 0 0 0 63.961297735513654 -36.40851725550931 0 -36.40851725550931 8.9593102090578824 0 0 0 0 72.617928174127883 -10.068828987764526 0 -10.068828987764526 -22.826885710390172 0 0 0 0 62.126494121650467 -10.789893852552012 0 -10.789893852552012 -14.164940464323404 0 0 0 0 38.242349484266015 22.072156897329847 0 22.072156897329847 -8.2402097022509793 0 0 0 0 50.65965106873773 3.168623559386937 0 3.168623559386937 -11.955239362129134 0 0 0 0 0.2394734559965741 0.04044104720455266 0 0.04044104720455266 -0.075851053988179318 0 0 0 0 119.82079889085435 37.169278564057379 0 37.169278564057379 26.513610917955639 0 0 0 0 105.1945885981695 17.210892966642156 0 17.210892966642156 0.073183247723332123 0 0 0 0 78.831237445876468 35.07725415678442 0 35.07725415678442 11.842947991929851 0 0 0 0 51.343435122616938 30.244389150934044 0 30.244389150934044 33.239049522047047 0 0 0 0 0.6903518904011321 -1.827548792209547 0 -1.827548792209547 0.87069234127914308 0 0 0 0 24.22532569678151 -40.660056258873112 0 -40.660056258873112 33.328080264129973 0 0 0 0 104.13690184155712 21.959707340453591 0 21.959707340453591 9.3590552726356506 0 0 0 0 44.895082270537387 41.533160340058814 0 41.533160340058814 59.32898955120605 0 0 0 0 105.10492680779862 12.635718370143985 0 12.635718370143985 46.138354940298967 0 0 0 0 102.68872434049263 37.368701793160646 0 37.368701793160646 20.977001219353525 0 0 0 0 67.269412602923694 -36.938964181202849 0 -36.938964181202849 8.0526363129809795 0 0 0 0 27.097052251352579 -7.5292472284898508 0 -7.5292472284898508 -10.648277348193744 0 0 0 0 23.343620831419685 -5.5438237737649843 0 -5.5438237737649843 -1.7166449168249809 0 0 0 0 56.674077884308645 -15.04585329409818 0 -15.04585329409818 -43.42270238004096 0 0 0 0 13.486272311885841 -27.786318721537498 0 -27.786318721537498 -25.636238412766602 0 0 0 0 18.104465734417317 -14.516867105519012 0 -14.516867105519012 -4.5434252570573861 0 0 0 0 32.962995104524452 41.653704534904506 0 41.653704534904506 15.456100637665287 0 0 0 0 19.91833797673462 -15.548815624951658 0 -15.548815624951658 -9.799431229842412 0 0 0 0 12.473722736711466 -9.2761833297389558 0 -9.2761833297389558 -6.7324969984065275 0 0 0 0 3.4794076880207285 -12.246224935516238 0 -12.246224935516238 21.434792772482069 0 0 0 0 3.5926536126935389 -15.521915348626408 0 -15.521915348626408 44.635100917241516 0 0 0 0 22.422960169235012 -54.076011234730458 0 -54.076011234730458 47.71570346848975 0 0 0 0 18.179717627717764 -35.982469549614336 0 -35.982469549614336 -19.382212971534273 0 0 0 0 25.462882757688931 -5.4145665071199574 0 -5.4145665071199574 2.9547721962794071 0 0 0 0 9.4271833970049101 -10.687615204432319 0 -10.687615204432319 -0.93617996618054367 0 0 0 0 0.36855917282809969 -27.156958750541861 0 -27.156958750541861 27.405812563169889 0 0 0 0 14.065647341930088 -8.9491968818157943 0 -8.9491968818157943 -0.058158186730942196 0 0 0 0 9.0766969696633168 -17.701338025497876 0 -17.701338025497876 -9.9583887318981397 0 0 0 0 28.2778373910906 -10.732548295927909 0 -10.732548295927909 -5.5316496799716859 0 0 0 0 59.020724071393488 -17.735136250743381 0 -17.735136250743381 -65.12761733905495 0 0 0 0 8.2430910994444275 -19.297144438471605 0 -19.297144438471605 -17.074676492804002 0 0 0 0 35.129321128038555 -2.9336187527374591 0 -2.9336187527374591 -9.0947476719942291 0 0 0 0 -11.753817021963187 -22.583858758103361 0 -22.583858758103361 -6.4805011086941704 0 0 0 0 12.868703963128723 -13.470933341100718 0 -13.470933341100718 -0.1066227198852292 0 0 0 0 -15.32309864461871 -34.745589746817942 0 -34.745589746817942 4.6364571461848074 0 0 0 0 27.242776748127653 36.97695315583087 0 36.97695315583087 -9.8267583109773113 0 0 0 0 59.989752248162404 28.316636961595577 0 28.316636961595577 -45.178538279325949 0 0 0 0 39.200003249192378 -3.5822680136998315 0 -3.5822680136998315 35.348354130526786 0 0 0 0 62.695003960747272 -6.6569040525628225 0 -6.6569040525628225 -18.824873281204418 0 0 0 0 49.592462220229208 9.9194094651929845 0 9.9194094651929845 3.9574330555551569 0 0 0 0 10.317083223897498 -38.73737552464172 0 -38.73737552464172 -8.3412482198573343 0 0 0 0 21.038036645448301 7.8640036865544971 0 7.8640036865544971 16.839683738705389 0 0 0 0 53.023723887570668 21.832974552304222 0 21.832974552304222 10.775687203061807 0 0 0 0 16.591171796957497 4.8106318047139212 0 4.8106318047139212 17.252275398524944 0 0 0 0 40.755591834022198 -6.6612765283753106 0 -6.6612765283753106 -22.610377206430712 0 0 0 0 -13.413569094089326 -31.309881537215006 0 -31.309881537215006 23.778946378801948 0 0 0 0 4.2128474860801362 19.732855607846432 0 19.732855607846432 78.501046430184942 0 0 0 0 46.531229193555191 40.654729085117651 0 40.654729085117651 21.702731274905091 0 0 0 0 60.493037278240081 71.121846292303417 0 71.121846292303417 57.637193468290207 0 0 0 0 -17.15705360996435 -9.2839912622606562 0 -9.2839912622606562 44.447134869988076 0 0 0 0 11.454733947131899 30.408106017538785 0 30.408106017538785 62.161640258134867 0 0 0 0 43.097297010768671 33.183022912699926 0 33.183022912699926 11.622680409655004 0 0 0 0 63.07173210271867 32.008977806490293 0 32.008977806490293 11.602458513255442 0 0 0 0 68.038768360001995 11.850809238057764 0 11.850809238057764 8.7960531607550365 0 0 0 0 43.777088228554931 8.3931836118299543 0 8.3931836118299543 8.5684310927008482 0 0 0 0 77.42199521533621 40.322079170021425 0 40.322079170021425 -17.665434061043925 0 0 0 0 93.475166914762667 11.202150803992481 0 11.202150803992481 -33.676617980248921 0 0 0 0 100.75590027255384 4.413442424578534 0 4.413442424578534 -51.522008372423443 0 0 0 0 87.830045106224134 13.177320681635138 0 13.177320681635138 -34.073271350476261 0 0 0 0 97.742012577073183 1.668916512805481 0 1.668916512805481 -29.605956157233777 0 0 0 0 21.129976940058413 -17.48533794607053 0 -17.48533794607053 -14.968929529313368 0 0 0 0 -59.493340238717792 -83.43574163883909 0 -83.43574163883909 -11.248931936841473 0 0 0 0 100.91350677390437 14.271343663739572 0 14.271343663739572 -19.146731899942097 0 0 0 0 91.083193480575574 4.6441266276358419 0 4.6441266276358419 -13.883343577424966 0 0 0 0 101.68099055397033 -25.647305617208531 0 -25.647305617208531 7.3934628729966789 0 0 0 0 78.080240535840858 14.173148612625482 0 14.173148612625482 -9.8879594064894718 0 0 0 0 134.52037332274631 12.171149667160535 0 12.171149667160535 -21.673226977198283 0 0 0 0 -9.5216087646927292 -3.0565845707443628 0 -3.0565845707443628 0.17094008391255144 0 0 0 0 6.8548113471479155 -15.408442229954744 0 -15.408442229954744 -13.002237260564868 0 0 0 0 12.278338681599962 -1.8571324380724121 0 -1.8571324380724121 -3.7960090237245367 0 0 0 0 13.348576935561141 -14.530568723389251 0 -14.530568723389251 -15.131091100914773 0 0 0 0 8.8901243097498082 -12.871835960601629 0 -12.871835960601629 -15.550245558572897 0 0 0 0 10.681274634043803 -8.5903583338922544 0 -8.5903583338922544 -3.2092739049312513 0 0 0 0 5.6475497086949247 -13.241360977512898 0 -13.241360977512898 -10.729170847248222 0 0 0 0 57.996146310921176 -33.73282885902654 0 -33.73282885902654 -3.4583798039111571 0 0 0 0 6.4829554839144805 -6.0757286801265877 0 -6.0757286801265877 -6.2516146615893753 0 0 0 0 -14.113705956988269 -22.934718223923483 0 -22.934718223923483 -10.889029036519901 0 0 0 0 15.342677078166162 -2.2855036986982213 0 -2.2855036986982213 -10.46313577897854 0 0 0 0 13.886207469507781 -9.6883813934805403 0 -9.6883813934805403 -9.2079151186073034 0 0 0 0 -2.1207418599951779 -16.420114950966877 0 -16.420114950966877 5.744467595966853 0 0 0 0 -13.524719788518269 -35.170971768536674 0 -35.170971768536674 -13.654967391998298 0 0 0 0 22.672960080439225 -0.11986648863057781 0 -0.11986648863057781 -107.61384965364596 0 0 0 0 18.166378984713504 -8.3083917886704342 0 -8.3083917886704342 -8.8431865864905355 0 0 0 0 22.674121018295409 -5.7815117068553263 0 -5.7815117068553263 -9.3435286071571682 0 0 0 0 7.8809108682455218 -5.6938215920494315 0 -5.6938215920494315 -9.6503180356093807 0 0 0 0 -8.1180883271008497 -10.101723191849942 0 -10.101723191849942 19.746502599205087 0 0 0 0 -37.235116503507015 -18.143055184951663 0 -18.143055184951663 76.892824823423325 0 0 0 0 111.92599550355226 -103.45838480806287 0 -103.45838480806287 50.521423451249802 0 0 0 0 -19.811872430160292 -74.93052038816495 0 -74.93052038816495 3.8687048813349065 0 0 0 0 -0.081742572953771742 -1.3930342259263853 0 -1.3930342259263853 1.9858893175504448 0 0 0 0 -27.684808789072122 -258.95388188159723 0 -258.95388188159723 18.94505943515469 0 0 0 0 147.18695311705233 62.020809440404264 0 62.020809440404264 -19.542497067055592 0 0 0 0 202.84808590802277 -17.344955519956102 0 -17.344955519956102 -48.015940928138662 0 0 0 0 36.019647505636385 0.026152358412218746 0 0.026152358412218746 -21.775819475895332 0 0 0 0 127.3278573180869 40.699197642231184 0 40.699197642231184 -124.18807947910295 0 0 0 0 115.23693777642984 -31.089967529311934 0 -31.089967529311934 -42.523411093306095 0 0 0 0 225.19677683030022 -35.942933437586476 0 -35.942933437586476 -83.979480737983408 0 0 0 0 27.620623889059061 25.065448432385892 0 25.065448432385892 -57.986220285209129 0 0 0 0 36.780394068802707 155.21376155665848 0 155.21376155665848 -157.3091122367083 0 0 0 0 114.06777801697899 -6.2804542416670301 0 -6.2804542416670301 -77.831591833393304 0 0 0 0 106.64535919243644 -11.666410415787823 0 -11.666410415787823 -21.603498064017003 0 0 0 0 110.70019171644526 -25.130141216171523 0 -25.130141216171523 -47.580387408916977 0 0 0 0 0.70948561715174208 0.66986708776448722 0 0.66986708776448722 -1.3331713376725212 0 0 0 0 -39.753436378494371 -27.279180858351538 0 -27.279180858351538 4.9578978226613799 0 0 0 0 117.79299853507837 -24.834761326874286 0 -24.834761326874286 -58.964208120950275 0 0 0 0 87.341287446732167 -67.717299858893966 0 -67.717299858893966 -84.086500011562748 0 0 0 0 0.36741103506219019 0.22443966783748692 0 0.22443966783748692 -2.1931816135038176 0 0 0 0 21.601668272705865 -16.002048969633279 0 -16.002048969633279 -10.920009891504378 0 0 0 0 114.76343723788159 -56.758374672246646 0 -56.758374672246646 6.0853925243407048 0 0 0 0 83.90452841638762 -66.274116066434772 0 -66.274116066434772 4.6950261453175699 0 0 0 0 112.04228840727592 -33.597009503445179 0 -33.597009503445179 -44.475168952847753 0 0 0 0 117.57389593386324 -97.939252663665116 0 -97.939252663665116 32.58011258414399 0 0 0 0 19.420353660942055 -1.3046093877807152 0 -1.3046093877807152 -6.4150120600386913 0 0 0 0 8.1127287229537615 -13.162057279120205 0 -13.162057279120205 -1.7557993532395813 0 0 0 0 18.030697414971655 -4.1624969314978841 0 -4.1624969314978841 -4.8595485516696613 0 0 0 0 24.906262035314285 -4.7302390079496774 0 -4.7302390079496774 -6.9984239777808739 0 0 0 0 4.8023943694497575 -16.436550656939858 0 -16.436550656939858 67.721311166698115 0 0 0 0 3.2459163523259917 -0.55979896052235745 0 -0.55979896052235745 -2.9733086685932117 0 0 0 0 112.37772827769368 -126.97281721082328 0 -126.97281721082328 162.66965026987953 0 0 0 0 287.60019858629676 224.77101935047466 0 224.77101935047466 178.26579923344607 0 0 0 0 5.329351537403511 -1.6421578728892072 0 -1.6421578728892072 0.19174388010370655 0 0 0 0 593.17599697303376 160.22330573571924 0 160.22330573571924 62.120925970709493 0 0 0 0 169.56423959314998 -72.732833469237903 0 -72.732833469237903 -31.661960098374124 0 0 0 0 415.01627025847847 -118.89273837918034 0 -118.89273837918034 0.48451528601042071 0 0 0 0 157.01169020358066 -62.465000136614549 0 -62.465000136614549 -11.608330253340455 0 0 0 0 227.31055025616661 35.971154750623953 0 35.971154750623953 -14.013198980738252 0 0 0 0 123.46474659045634 127.8922206498595 0 127.8922206498595 -35.486733684811725 0 0 0 0 193.6075008344942 -74.059050601323037 0 -74.059050601323037 125.63373641517342 0 0 0 0 183.88665564555777 -9.6568090898483518 0 -9.6568090898483518 214.56860810544583 0 0 0 0 348.43004222284071 238.15852540123413 0 238.15852540123413 307.2407980119275 0 0 0 0 468.63647992291953 -272.32072051072021 0 -272.32072051072021 443.3047253720344 0 0 0 0 296.10553979102406 -14.659582048877404 0 -14.659582048877404 -48.777554207677632 0 0 0 0 433.14683896799397 35.928201614308819 0 35.928201614308819 -65.784823666376141 0 0 0 0 0.39490418417753403 0.27082143202230213 0 0.27082143202230213 -0.21105890580615994 0 0 0 0 326.29742572444229 131.66938684518297 0 131.66938684518297 16.858790527795655 0 0 0 0 315.90544830847648 115.93287853081536 0 115.93287853081536 55.434041073283652 0 0 0 0 136.77598253416363 63.71324544715327 0 63.71324544715327 45.299805189169099 0 0 0 0 234.16566462615447 120.69623905519745 0 120.69623905519745 51.448445430856523 0 0 0 0 0.25258303880497124 -0.13763265899838473 0 -0.13763265899838473 -0.1048245613628582 0 0 0 0 291.17939756433771 25.53690843800257 0 25.53690843800257 -119.52586133628449 0 0 0 0 101.54632741536625 -86.166919065803285 0 -86.166919065803285 -33.841159810630913 0 0 0 0 17.039284162625108 -1.5755682311423342 0 -1.5755682311423342 0.091450756314637602 0 0 0 0 46.876888529106509 -0.56417347747546387 0 -0.56417347747546387 -33.977107084884068 0 0 0 0 38.042660877195885 52.035181432169907 0 52.035181432169907 48.358389093029452 0 0 0 0 62.52831401230651 103.83266582777114 0 103.83266582777114 164.76683256517322 0 0 0 0 110.69131247967016 130.47532038911197 0 130.47532038911197 86.973803093420543 0 0 0 0 137.4231490244274 86.039885566653624 0 86.039885566653624 57.059498544776176 0 0 0 0 6.2734048955317121 -11.239852242819694 0 -11.239852242819694 31.553023083701078 0 0 0 0 -24.968079211226723 50.656983433715908 0 50.656983433715908 71.189670132606352 0 0 0 0 3.8720972229727124 -0.37056995113096036 0 -0.37056995113096036 -0.22931889572240594 0 0 0 0 49.238854654482566 33.877907833870211 0 33.877907833870211 76.32340503915745 0 0 0 0 53.653035558541887 67.843377558482871 0 67.843377558482871 65.816292328333958 0 0 0 0 0.36848653260386754 0.18268303631390381 0 0.18268303631390381 -0.32004642596967731 0 0 0 0 62.126814238334191 49.918088967015144 0 49.918088967015144 41.815914215993821 0 0 0 0 29.536956561059924 27.085806558010148 0 27.085806558010148 50.234928363713038 0 0 0 0 145.63824510364793 48.582472960445784 0 48.582472960445784 3.1360277023018059 0 0 0 0 113.76124023483135 35.775278763308009 0 35.775278763308009 15.277945830539426 0 0 0 0 77.271857294188521 29.422864235268502 0 29.422864235268502 -2.1505017415569552 0 0 0 0 49.166851214795315 2.6221183929705725 0 2.6221183929705725 0.038704959312375165 0 0 0 0 148.29903411035775 -10.55045118537503 0 -10.55045118537503 -41.607795344310325 0 0 0 0 249.33129704205203 27.111598573783809 0 27.111598573783809 -27.790507178309422 0 0 0 0 127.91755333493347 1.0353298059126814 0 1.0353298059126814 -0.040038909773110851 0 0 0 0 97.875791609265434 -27.237571269838359 0 -27.237571269838359 -26.216650227144555 0 0 0 0 85.547619806089642 -16.451242421039662 0 -16.451242421039662 -0.040235293472112965 0 0 0 0 23.480797213778715 -58.016168281309668 0 -58.016168281309668 -14.162305434889596 0 0 0 0 -10.870068285410525 -7.4375202137295187 0 -7.4375202137295187 -18.341058452664129 0 0 0 0 -10.297952165088645 -25.988934705525995 0 -25.988934705525995 0.030095258985085145 0 0 0 0 27.831526972920983 -44.286473268445391 0 -44.286473268445391 -0.0023268298746867101 0 0 0 0 21.29640662993188 -94.69298031457754 0 -94.69298031457754 -135.00445206007799 0 0 0 0 -16.168273934355966 -34.035958134920605 0 -34.035958134920605 10.279793765437091 0 0 0 0 -6.7630193619406782 -39.633123466629584 0 -39.633123466629584 -44.719395066724474 0 0 0 0 -14.046880034293281 -7.1483524983647584 0 -7.1483524983647584 -59.982908379946437 0 0 0 0 26.429781489154266 -11.539822432815818 0 -11.539822432815818 -117.66728194259206 0 0 0 0 14.150135008087091 27.104244605454141 0 27.104244605454141 -211.75441211605104 0 0 0 0 -4.0121492536200094 2.7803975480898444 0 2.7803975480898444 -0.87929961533106027 0 0 0 0 33.054177029894305 11.802576420015825 0 11.802576420015825 -6.8260711476201958 0 0 0 0 10.057366980538063 13.030809524896824 0 13.030809524896824 76.756043643637213 0 0 0 0 -7.2233950907902909 2.2777916090529118 0 2.2777916090529118 19.244677799711781 0 0 0 0 -36.099706293462077 35.137325319771833 0 35.137325319771833 13.874882836167238 0 0 0 0 -44.70996803525486 -40.373849602226528 0 -40.373849602226528 -1.0605497687919083 0 0 0 0 -63.79890885995701 47.019151695851718 0 47.019151695851718 101.76465261141425 0 0 0 0 -43.704392956682568 -68.496666579028329 0 -68.496666579028329 54.223630065122734 0 0 0 0 -1.3496756438901798 -0.79658812359737396 0 -0.79658812359737396 0.090427586894834253 0 0 0 0 9.8375942083221162 -23.837331758503563 0 -23.837331758503563 -93.819455607039373 0 0 0 0 1218.9758214632493 53.790042918823545 0 53.790042918823545 11.662920344243503 0 0 0 0 1089.965393431863 -260.58018759559172 0 -260.58018759559172 190.95789442889256 0 0 0 0 1185.9261904939704 175.19251034065084 0 175.19251034065084 0.01253890164694127 0 0 0 0 804.78993167325098 30.623352103394645 0 30.623352103394645 -0.39087694111143206 0 0 0 0 596.30288892369572 248.58289875862823 0 248.58289875862823 97.759424041637885 0 0 0 0 858.1027557987145 60.493068657516375 0 60.493068657516375 -209.28979044071775 0 0 0 0 788.84140497096814 -14.103796392651162 0 -14.103796392651162 -51.303674488419318 0 0 0 0 259.91782681606492 184.03212290885622 0 184.03212290885622 -9.4882660299219879 0 0 0 0 317.59208499742817 -18.992779078300831 0 -18.992779078300831 0.22828531084502976 0 0 0 0 109.26264726683439 100.64403170053838 0 100.64403170053838 47.630310028948969 0 0 0 0 -98.968618068247451 -32.216518313403753 0 -32.216518313403753 95.142803024214828 0 0 0 0 -80.722164416765736 -107.75323493842137 0 -107.75323493842137 -94.079415957311312 0 0 0 0 3.0820395377200782 -2.6283659537287178 0 -2.6283659537287178 -1.8311623543861764 0 0 0 0 30.576084293111194 -2.425260889764786 0 -2.425260889764786 -2.153739673325294 0 0 0 0 164.12858686802792 -74.28336017033746 0 -74.28336017033746 6.3160660633889165 0 0 0 0 226.81135703589825 -496.06689444750521 0 -496.06689444750521 702.79968246922101 0 0 0 0 296.49702930496278 330.83251255538426 0 330.83251255538426 107.59486222801183 0 0 0 0 151.16405055639916 -12.588328121645475 0 -12.588328121645475 101.53617094041226 0 0 0 0 273.68373920151498 130.7676037349807 0 130.7676037349807 -210.37207688278897 0 0 0 0 139.26442623135517 -233.37676256775927 0 -233.37676256775927 -133.54233019104754 0 0 0 0 1051.2070684140199 237.57739593123233 0 237.57739593123233 -172.76363482588346 0 0 0 0 1380.7324987840548 -171.54626772444817 0 -171.54626772444817 -123.18334110914827 0 0 0 0 11.181819023437185 -2.6639674069807686 0 -2.6639674069807686 1.096441053063862 0 0 0 0 842.01158440332802 -532.04301043812484 0 -532.04301043812484 689.61314141022331 0 0 0 0 435.69281416098966 380.44005395704426 0 380.44005395704426 333.73603280460327 0 0 0 0 1326.5598639486707 321.84778025669453 0 321.84778025669453 -84.784300848227105 0 0 0 0 516.20084513199981 -305.21026028559521 0 -305.21026028559521 -569.97909193535838 0 0 0 0 0.20778121423319362 -2.4908223306617074 0 -2.4908223306617074 -0.20770958727488675 0 0 0 0 1173.85544413765 -472.87528194983963 0 -472.87528194983963 100.92114150292787 0 0 0 0 506.77031139826431 -302.1725327013225 0 -302.1725327013225 61.705425736300867 0 0 0 0 1010.5606487520927 9.3575309260470476 0 9.3575309260470476 -41.025168912959998 0 0 0 0 421.17567451380455 -153.54412565179325 0 -153.54412565179325 90.79321729813455 0 0 0 0 88.234805044994573 -112.81225171024886 0 -112.81225171024886 244.60061365601871 0 0 0 0 301.3507369535364 -223.55945627710912 0 -223.55945627710912 183.09492045240884 0 0 0 0 155.25461736355646 -89.275296776047696 0 -89.275296776047696 128.1652403188275 0 0 0 0 303.58809418709961 -124.14557066964005 0 -124.14557066964005 110.88268133005636 0 0 0 0 221.15960158115195 -56.664824920110959 0 -56.664824920110959 120.05829707735484 0 0 0 0 297.35792639078136 53.454911021513453 0 53.454911021513453 -23.913451624813661 0 0 0 0 520.71484272587986 -71.480443529427703 0 -71.480443529427703 -9.7776618651209901 0 0 0 0 302.20941065814986 -145.42055711317266 0 -145.42055711317266 92.010171779838174 0 0 0 0 540.58163700345904 -106.31427113193354 0 -106.31427113193354 -7.2580525875678177 0 0 0 0 418.48844772126904 -7.7800455176748642 0 -7.7800455176748642 -36.363359903670698 0 0 0 0 547.01924526957373 -83.576302326792472 0 -83.576302326792472 -45.710529534006128 0 0 0 0 329.70070276568003 -126.58326477407309 0 -126.58326477407309 -64.252112199420026 0 0 0 0 351.66691883803287 -54.972407423107597 0 -54.972407423107597 -52.481595341320826 0 0 0 0 527.49125676087715 -48.425093455368028 0 -48.425093455368028 -53.108033549177435 0 0 0 0 136.99654928562813 52.25344036758861 0 52.25344036758861 23.662455109315943 0 0 0 0 247.19632141425973 256.44274133315753 0 256.44274133315753 124.09182531205261 0 0 0 0 485.09310368951992 58.866305560032515 0 58.866305560032515 20.748789115245813 0 0 0 0 337.0968984948413 247.63731236628837 0 247.63731236628837 37.600202483853991 0 0 0 0 -10.820475950938999 62.102946355943402 0 62.102946355943402 -46.872775367708037 0 0 0 0 16.45239334240614 152.26251608666473 0 152.26251608666473 244.81407610540191 0 0 0 0 -106.89914261968806 48.962676700540896 0 48.962676700540896 109.6010096161088 0 0 0 0 -110.39143203418644 111.33121591273294 0 111.33121591273294 -35.883995379864359 0 0 0 0 153.39858780020222 -24.575882967633817 0 -24.575882967633817 47.731100729684613 0 0 0 0 125.99067435465986 -116.5956656214056 0 -116.5956656214056 110.19770212254599 0 0 0 0 62.043882310892513 -38.415655989194022 0 -38.415655989194022 108.99171901345267 0 0 0 0 33.802219560863762 16.705867976954138 0 16.705867976954138 -4.7485439522732991 0 0 0 0 105.40521950855327 -94.660950936710606 0 -94.660950936710606 129.50116545863892 0 0 0 0 153.06352824898204 -69.320686483805957 0 -69.320686483805957 138.93263033136554 0 0 0 0 153.47135866901954 -74.432368677945306 0 -74.432368677945306 116.03810549902482 0 0 0 0 50.645329534643679 -76.468723728516125 0 -76.468723728516125 165.26638572486604 0 0 0 0 64.650911750053638 -135.39524548562736 0 -135.39524548562736 121.63365854263566 0 0 0 0 109.42498998050723 -106.48210590117617 0 -106.48210590117617 138.95204177473192 0 0 0 0 106.37566260048334 -98.284246791676765 0 -98.284246791676765 139.03204592708926 0 0 0 0 37.3509177324147 18.794890703315147 0 18.794890703315147 -3.5504228670177884 0 0 0 0 -91.434915644756984 228.10416126639598 0 228.10416126639598 -54.89690137372061 0 0 0 0 27.260337682899262 33.082372925016898 0 33.082372925016898 -105.66793959061488 0 0 0 0 40.12606387987887 20.094373795052718 0 20.094373795052718 -3.8129491779462494 0 0 0 0 157.51923278695176 -100.61231166668586 0 -100.61231166668586 98.479273261441904 0 0 0 0 169.84413787156154 -137.02267258544197 0 -137.02267258544197 102.87286188406188 0 0 0 0 246.27361680382455 -59.51323276209223 0 -59.51323276209223 45.128162855702612 0 0 0 0 209.79907944724982 -137.04521723166386 0 -137.04521723166386 -91.481084338318851 0 0 0 0 130.96597977768397 -127.3672728772226 0 -127.3672728772226 80.956186935028654 0 0 0 0 93.38887074610102 -167.12191607804243 0 -167.12191607804243 69.176460167392634 0 0 0 0 133.83913999703509 -21.625582189682746 0 -21.625582189682746 188.32351795366594 0 0 0 0 -142.08994823504327 -103.75462845738184 0 -103.75462845738184 198.17119450223436 0 0 0 0 -155.55306455555547 -404.62454254485147 0 -404.62454254485147 -162.89317462454983 0 0 0 0 -473.99764506023348 -69.757193114410939 0 -69.757193114410939 261.55680690958616 0 0 0 0 95.006950279930606 -165.57301724863805 0 -165.57301724863805 36.11829704963111 0 0 0 0 133.34197437547118 -153.97637919745557 0 -153.97637919745557 -45.989610894228463 0 0 0 0 100.94763000388048 -32.926518789389775 0 -32.926518789389775 -398.2849234658911 0 0 0 0 71.762085381968063 83.197514225079885 0 83.197514225079885 -70.882160834180468 0 0 0 0 -0.59081710249301977 -14.505952538224847 0 -14.505952538224847 -11.768900560318798 0 0 0 0 -2.5642253835248994 3.7457568471008926 0 3.7457568471008926 -92.298878376932635 0 0 0 0 141.8969195674872 -180.58124818329725 0 -180.58124818329725 0.15886193235201063 0 0 0 0 395.60378034773385 178.09536834115261 0 178.09536834115261 -39.917038304176458 0 0 0 0 549.98346020517056 -151.17292869350922 0 -151.17292869350922 -120.91325696580407 0 0 0 0 218.39383121058927 -73.328495781067431 0 -73.328495781067431 -72.128717119277098 0 0 0 0 48.661665138584794 76.993602250473486 0 76.993602250473486 123.83147672814539 0 0 0 0 112.21568640059559 113.09725382821944 0 113.09725382821944 65.696863720104375 0 0 0 0 25.922657102758933 3.5187490587738246 0 3.5187490587738246 0.87554043510829738 0 0 0 0 76.928158333015745 86.195227438418442 0 86.195227438418442 58.675355175080767 0 0 0 0 -34.943663905338326 9.2923521424620503 0 9.2923521424620503 -12.479546218997712 0 0 0 0 179.80414420067973 21.738950338360837 0 21.738950338360837 -649.38578646348196 0 0 0 0 397.34435720540205 -345.40570949452444 0 -345.40570949452444 -197.52062585716703 0 0 0 0 224.75066762453935 447.8202888821761 0 447.8202888821761 785.52201597715316 0 0 0 0 8.9754362432428252 3.0868777352261709 0 3.0868777352261709 1.07174832544976 0 0 0 0 72.569857557180512 141.84433558118826 0 141.84433558118826 170.58810171770529 0 0 0 0 441.04989821292111 -437.1146154034318 0 -437.1146154034318 267.51578577976818 0 0 0 0 795.41231347196299 -100.80328418783711 0 -100.80328418783711 -214.51788800853228 0 0 0 0 771.75050809893673 281.32142873211518 0 281.32142873211518 84.707090137872456 0 0 0 0 -7.9050733494368615 303.16291889622062 0 303.16291889622062 457.29173433326923 0 0 0 0 130.17814571109193 11.127004140699682 0 11.127004140699682 177.299511847963 0 0 0 0 -517.25026828836417 -539.43936762896942 0 -539.43936762896942 -230.90118530847121 0 0 0 0 257.01975139667047 -20.865618927248761 0 -20.865618927248761 -610.20460886406272 0 0 0 0 -1.8353278706369167 2.1038173216496432 0 2.1038173216496432 -6.08197574636959 0 0 0 0 206.99905281036627 -10.771983514935073 0 -10.771983514935073 -238.87164474202109 0 0 0 0 200.46309488770203 -169.55240903879303 0 -169.55240903879303 -351.80279365789193 0 0 0 0 237.47071612023865 -35.868896644208689 0 -35.868896644208689 -237.12378389711193 0 0 0 0 928.01058403636125 409.22593459740085 0 409.22593459740085 -115.94784364479528 0 0 0 0 456.20420800229476 69.381465787902471 0 69.381465787902471 -330.64460017956753 0 0 0 0 505.66244827399532 327.6899176664478 0 327.6899176664478 -90.719592580510835 0 0 0 0 348.86951515420515 85.212790025082768 0 85.212790025082768 -207.89252132969068 0 0 0 0 269.11617327643035 143.32731677060633 0 143.32731677060633 -154.38009525414782 0 0 0 0 269.83305531679071 148.61871970946913 0 148.61871970946913 -138.90845213804096 0 0 0 0 213.69720413768664 177.74701887987203 0 177.74701887987203 -39.639773823495489 0 0 0 0 250.00314211504883 138.24554136920005 0 138.24554136920005 -76.045807352254087 0 0 0 0 227.51289645158977 197.32131846076982 0 197.32131846076982 -13.782401091633801 0 0 0 0 182.45136120324605 180.96298341425609 0 180.96298341425609 1.558552887579026 0 0 0 0 204.94591344504443 308.90214827259024 0 308.90214827259024 187.88151292421298 0 0 0 0 145.86359324066871 190.0518559261684 0 190.0518559261684 16.91854618281468 0 0 0 0 88.466718821640825 141.08220948549479 0 141.08220948549479 83.506816476425229 0 0 0 0 692.41653206522835 197.98474582270538 0 197.98474582270538 61.997556537751734 0 0 0 0 32.928506587843003 63.059765557410856 0 63.059765557410856 -71.673390313599157 0 0 0 0 14.202616831405402 0.92146027750857229 0 0.92146027750857229 -3.2432621157645105 0 0 0 0 186.61567445895344 35.280358424758219 0 35.280358424758219 -175.84647519055761 0 0 0 0 124.05662998606567 62.842481158625787 0 62.842481158625787 -181.38394849285578 0 0 0 0 144.11461686484108 127.24968984075394 0 127.24968984075394 -11.421803369372356 0 0 0 0 214.89091984055995 79.418733055005305 0 79.418733055005305 -119.40901042190387 0 0 0 0 206.30003187344118 -8.9584803814682346 0 -8.9584803814682346 -228.53966618923164 0 0 0 0 186.76284632834722 -8.1762750505654367 0 -8.1762750505654367 -205.40803309239891 0 0 0 0 154.21277527508937 -30.820210549901617 0 -30.820210549901617 -210.51582823962144 0 0 0 0 126.21886535026715 -72.930089719875468 0 -72.930089719875468 -111.14261562853062 0 0 0 0 164.54752613908204 0.81483991492268615 0 0.81483991492268615 -117.26583635208408 0 0 0 0 92.677051665246836 18.569741759792805 0 18.569741759792805 -119.81984155270379 0 0 0 0 94.948774512115051 -6.8444828172066536 0 -6.8444828172066536 -78.422812118524575 0 0 0 0 153.54127798241097 -40.79971211134648 0 -40.79971211134648 -84.247176500121896 0 0 0 0 70.713816194293202 -5.2829949125384061 0 -5.2829949125384061 -12.084616652239262 0 0 0 0 69.221566770691425 0.99339892047828471 0 0.99339892047828471 11.649527247468995 0 0 0 0 60.56406946680525 -15.965928231419397 0 -15.965928231419397 -13.050422490714565 0 0 0 0 -15.566230495285708 -34.841239744906261 0 -34.841239744906261 -23.17609925234683 0 0 0 0 48.406839891185484 6.3953528165750981 0 6.3953528165750981 -25.107449245974806 0 0 0 0 110.01994697365444 47.480277913740792 0 47.480277913740792 -56.903825590297856 0 0 0 0 -0.26581024180086388 -2.7867284509046897 0 -2.7867284509046897 -9.7062233028071692 0 0 0 0 121.42226458049845 -10.37293854471136 0 -10.37293854471136 -166.04753409872956 0 0 0 0 -57.354627953507588 -51.407085071070014 0 -51.407085071070014 -157.71486637058115 0 0 0 0 169.38334845930876 -109.14865540548601 0 -109.14865540548601 -291.45460476451808 0 0 0 0 -111.9932051923679 -265.03847282798961 0 -265.03847282798961 -222.57006828727754 0 0 0 0 1.9340001901550181 7.6404676159598921 0 7.6404676159598921 -19.897239678152445 0 0 0 0 71.805217280925717 1.8619847396062141 0 1.8619847396062141 -66.490381427800457 0 0 0 0 21.026339891038049 -6.5484226405345112 0 -6.5484226405345112 -3.8022263138038994 0 0 0 0 -23.362967443725211 34.624077707374454 0 34.624077707374454 29.918552188816648 0 0 0 0 -13.284660050834646 63.603540975612759 0 63.603540975612759 6.0607949434670445 0 0 0 0 -10.246144838340115 61.55947676354026 0 61.55947676354026 -23.577634426257646 0 0 0 0 9.7574757214774763 11.664683450854952 0 11.664683450854952 -5.6831599935547814 0 0 0 0 84.67082953548379 -50.796871150643256 0 -50.796871150643256 -59.10879662669322 0 0 0 0 69.378701962399646 -8.5696001246533342 0 -8.5696001246533342 6.7069326810269558 0 0 0 0 59.920520066290919 -1.4039659581671913 0 -1.4039659581671913 7.3545442396916769 0 0 0 0 44.474292361473005 16.054552161801681 0 16.054552161801681 -7.7884904844105733 0 0 0 0 38.162312377811759 7.0020661844027927 0 7.0020661844027927 -6.2014102582406849 0 0 0 0 65.988124460935069 6.3052980657911348 0 6.3052980657911348 -9.2190721854376534 0 0 0 0 68.829396136763535 -1.6034138568295475 0 -1.6034138568295475 0.051754671234448324 0 0 0 0 14.61908207539453 0.60410287375914606 0 0.60410287375914606 2.3475907574659125 0 0 0 0 81.415884768954129 -17.983091974078434 0 -17.983091974078434 10.560576351877899 0 0 0 0 130.95965870180225 40.572794916063685 0 40.572794916063685 -21.497893857866984 0 0 0 0 265.34775815324974 85.87030775186895 0 85.87030775186895 -39.051367919711083 0 0 0 0 141.10846397686691 69.786577225059318 0 69.786577225059318 68.958378159499262 0 0 0 0 159.52674466076678 -20.4437986933101 0 -20.4437986933101 -17.356009315608389 0 0 0 0 0.42078318451797259 1.1545005519409699 0 1.1545005519409699 -2.5971640756078536 0 0 0 0 7.1524545491265599 16.865091370655591 0 16.865091370655591 -22.663627278525382 0 0 0 0 74.224374332239677 22.48880208521382 0 22.48880208521382 -24.793695569435613 0 0 0 0 12.52242960100409 15.567658181630136 0 15.567658181630136 -18.642582152988915 0 0 0 0 69.157628089626087 23.177535496961582 0 23.177535496961582 -23.802665909846382 0 0 0 0 46.871893439531419 19.332650307541812 0 19.332650307541812 -15.717045573987654 0 0 0 0 488.45493193410221 -243.44404967385628 0 -243.44404967385628 -319.80210061759954 0 0 0 0 39.14661149665114 -3.8260426504419627 0 -3.8260426504419627 -18.657571065849382 0 0 0 0 44.563059908555928 15.72618059034183 0 15.72618059034183 -18.758584626141783 0 0 0 0 71.209397847856735 -4.417602030799813 0 -4.417602030799813 -13.128944976561829 0 0 0 0 59.42337918252943 9.1403431012809619 0 9.1403431012809619 -12.0702826812835 0 0 0 0 116.29995702579618 -40.338871977309282 0 -40.338871977309282 -55.337512745012646 0 0 0 0 49.687752596168139 29.511324680591486 0 29.511324680591486 -6.2312606474010863 0 0 0 0 39.649908151011914 -4.8691924373788424 0 -4.8691924373788424 -6.1721819821841564 0 0 0 0 248.97476853261469 130.56060691055154 0 130.56060691055154 23.919451107562963 0 0 0 0 155.03286393083181 50.874860576030642 0 50.874860576030642 -42.813555017768522 0 0 0 0 240.57268136499624 -114.74596938901186 0 -114.74596938901186 3.5220179772350093 0 0 0 0 349.84623149761319 -10.976561375617166 0 -10.976561375617166 -88.619323794091542 0 0 0 0 121.22400607816235 -53.919332808974104 0 -53.919332808974104 -24.817416934806715 0 0 0 0 146.5778387485916 -68.050282552871067 0 -68.050282552871067 34.613579290583402 0 0 0 0 570.33591975689342 -202.01514516324016 0 -202.01514516324016 59.29039303409445 0 0 0 0 4.4104068249694706 -1.8768231669212412 0 -1.8768231669212412 0.90823048547889051 0 0 0 0 358.24512478721408 281.42972862137958 0 281.42972862137958 235.04058717170301 0 0 0 0 112.78778559004422 77.989834555025482 0 77.989834555025482 82.30097757375097 0 0 0 0 7.3147526371831191 0.30181634154359926 0 0.30181634154359926 -109.89740799451283 0 0 0 0 107.45929141357374 48.877763093014778 0 48.877763093014778 44.904999065163793 0 0 0 0 13.216821972685295 -3.9071216704783183 0 -3.9071216704783183 1.7990609288274815 0 0 0 0 66.882208063150756 57.390810958650036 0 57.390810958650036 100.57829416113327 0 0 0 0 40.447979241260327 35.974876212276286 0 35.974876212276286 -8.1045253240245074 0 0 0 0 38.111304659029884 12.483769525838625 0 12.483769525838625 55.281144736112765 0 0 0 0 87.069314471620601 54.499341915826335 0 54.499341915826335 -2.5295961192205141 0 0 0 0 85.95439798766165 47.385528518452702 0 47.385528518452702 45.215924851358977 0 0 0 0 155.74154578305206 56.443316999163812 0 56.443316999163812 -41.992569873425964 0 0 0 0 154.45070176369336 51.55038214653905 0 51.55038214653905 -41.680674763939805 0 0 0 0 91.173891254955379 5.0094319566345575 0 5.0094319566345575 -71.919050328699086 0 0 0 0 33.29496130226471 21.454936924264985 0 21.454936924264985 -22.827002261092275 0 0 0 0 80.968635634679231 52.488404312519378 0 52.488404312519378 -54.422479876372563 0 0 0 0 -25.362753428620636 71.492690020277223 0 71.492690020277223 -35.316312936605755 0 0 0 0 65.432436909301032 -1.7943589857229654 0 -1.7943589857229654 -4.6318090914401182 0 0 0 0 57.890079539371072 1.5603213511030845 0 1.5603213511030845 -4.7041338296996287 0 0 0 0 38.664656160216225 15.946396681108993 0 15.946396681108993 -10.911856257986415 0 0 0 0 196.62911405500199 83.467459559313284 0 83.467459559313284 -44.007785143726096 0 0 0 0 210.76701955703902 5.931781506526022 0 5.931781506526022 -76.34200914823623 0 0 0 0 59.94225062483747 -65.309732183376582 0 -65.309732183376582 -28.128793502186454 0 0 0 0 76.582855536573334 44.014762297162633 0 44.014762297162633 -75.178905816786937 0 0 0 0 14.690794129199844 -9.1795760184693478 0 -9.1795760184693478 -0.82540646639317572 0 0 0 0 79.66256422821607 -45.233968801413539 0 -45.233968801413539 -114.00017912970816 0 0 0 0 181.47678488747624 52.616533466255078 0 52.616533466255078 -90.720138665064951 0 0 0 0 145.23698334241635 47.274967307968836 0 47.274967307968836 -80.773248375622643 0 0 0 0 157.1330987871097 41.471663857010526 0 41.471663857010526 -78.489124492367409 0 0 0 0 136.90404984085762 -19.437484175406098 0 -19.437484175406098 -110.6413676117445 0 0 0 0 205.72038801763119 7.0567252816622386 0 7.0567252816622386 -107.72203838834685 0 0 0 0 171.55500869345269 67.675457615963751 0 67.675457615963751 -42.4341670559661 0 0 0 0 122.69151618529577 -28.772436427683715 0 -28.772436427683715 -115.59867627508356 0 0 0 0 213.63272735917417 -78.412591773677377 0 -78.412591773677377 -92.210478314227657 0 0 0 0 184.2735831636528 11.873869864802145 0 11.873869864802145 -77.411583212377991 0 0 0 0 65.047562122031167 -34.815435848348407 0 -34.815435848348407 6.7979093429200628 0 0 0 0 98.526423973555211 -114.27654660629378 0 -114.27654660629378 -200.60654230995715 0 0 0 0 76.53482073917985 -96.978188058653359 0 -96.978188058653359 -114.13817060604683 0 0 0 0 109.98712935912772 -16.379755031932291 0 -16.379755031932291 -92.820459358072185 0 0 0 0 60.831636331407225 -21.641954736024886 0 -21.641954736024886 4.8610431111549381 0 0 0 0 310.70306862110738 -189.65845095837267 0 -189.65845095837267 -33.045823335917021 0 0 0 0 63.579745285227546 -129.18989271735882 0 -129.18989271735882 70.68160497086501 0 0 0 0 6.1916316410097636 -27.434902189502154 0 -27.434902189502154 -14.489506254311323 0 0 0 0 17.887450375361368 -129.79444246763887 0 -129.79444246763887 -98.167619381612894 0 0 0 0 29.202851570924111 0.089746348079074778 0 0.089746348079074778 -7.9437744483909256 0 0 0 0 138.79647805564309 -72.337445353167823 0 -72.337445353167823 -23.247545622591133 0 0 0 0 119.74849133240059 -93.167973072831046 0 -93.167973072831046 -36.129535541057521 0 0 0 0 107.94187261676416 -131.594532691719 0 -131.594532691719 -145.51615390104962 0 0 0 0 87.482435543148313 -80.22887986560545 0 -80.22887986560545 -119.71695704204421 0 0 0 0 114.70069196215101 -31.718680058735941 0 -31.718680058735941 -5.2381363319775041 0 0 0 0 52.199718564166687 -129.54874352425031 0 -129.54874352425031 -86.007574950446724 0 0 0 0 52.106259464344475 -74.918888974872971 0 -74.918888974872971 -112.42642728355349 0 0 0 0 95.542464681013371 -98.879701109645339 0 -98.879701109645339 -228.92712457454763 0 0 0 0 79.733918498212006 -130.27157407597406 0 -130.27157407597406 -89.25060634305828 0 0 0 0 150.97185282276769 -97.479723093707889 0 -97.479723093707889 -109.27870292741864 0 0 0 0 87.834921632304031 -112.13375300440157 0 -112.13375300440157 -12.713136959049734 0 0 0 0 142.04325317025359 -88.01312799909465 0 -88.01312799909465 -75.737450738285133 0 0 0 0 69.05030493036611 -128.01415880072045 0 -128.01415880072045 60.085182263255774 0 0 0 0 162.82818317229976 -90.461423314622152 0 -90.461423314622152 -8.9406387004028147 0 0 0 0 83.403052455032594 -109.81797855935474 0 -109.81797855935474 67.293563661442931 0 0 0 0 115.19694293040084 -14.562466503859469 0 -14.562466503859469 -79.993877677698038 0 0 0 0 109.44835855954443 -42.323397003598075 0 -42.323397003598075 -34.702875097334982 0 0 0 0 163.24828572539263 -78.760556732881014 0 -78.760556732881014 -69.577496192150647 0 0 0 0 113.82859035213187 -80.59243332868391 0 -80.59243332868391 -96.016333076110641 0 0 0 0 131.57924856113823 -20.216047844477998 0 -20.216047844477998 -133.33689292592135 0 0 0 0 57.062138432294887 -83.306568277825136 0 -83.306568277825136 -21.561568199290377 0 0 0 0 87.180441728487494 17.626637701121581 0 17.626637701121581 -98.524950875044851 0 0 0 0 21.740264796849274 -13.533023868487192 0 -13.533023868487192 -16.936576240016507 0 0 0 0 57.014173645304254 -121.94683690939291 0 -121.94683690939291 -40.485273159169083 0 0 0 0 103.5691086748775 -16.331566469698373 0 -16.331566469698373 -80.263029432222538 0 0 0 0 83.046854426567734 -70.180228864879609 0 -70.180228864879609 -25.463384528751703 0 0 0 0 88.876712817686155 -25.298843225282212 0 -25.298843225282212 -6.6224040274190124 0 0 0 0 119.84594974877837 3.2137527236727692 0 3.2137527236727692 -106.88010373286852 0 0 0 0 25.954826206237627 -11.070207886912101 0 -11.070207886912101 -8.2965759660960003 0 0 0 0 146.54602033370975 -37.464409680085737 0 -37.464409680085737 -13.467720127235225 0 0 0 0 129.80015066958003 -28.054684241780706 0 -28.054684241780706 -59.074420487562747 0 0 0 0 109.94994662423267 -28.019055334667925 0 -28.019055334667925 -7.3941230149941397 0 0 0 0 132.55700302913556 -36.39895386089222 0 -36.39895386089222 -71.039128682195951 0 0 0 0 156.17202421524416 -77.292328258854468 0 -77.292328258854468 -27.601033361832378 0 0 0 0 106.29269442657096 -46.872875447377737 0 -46.872875447377737 -68.818423079746935 0 0 0 0 28.553388086898849 230.2441072186441 0 230.2441072186441 -268.26120437207646 0 0 0 0 155.02634293468873 -15.730096381876137 0 -15.730096381876137 -56.678802057011126 0 0 0 0 -4.4078730623391067 -2.0302671405085135 0 -2.0302671405085135 0.71795977128055455 0 0 0 0 327.0544391723306 -103.01428604768807 0 -103.01428604768807 -19.095949946917244 0 0 0 0 221.96420926848077 45.672676639386736 0 45.672676639386736 -213.32300922639115 0 0 0 0 221.60139554953275 79.532128454292433 0 79.532128454292433 5.5029164579755161 0 0 0 0 127.5755815356024 44.786624665139243 0 44.786624665139243 -2.0191408156006219 0 0 0 0 106.68867422398762 -13.751081473114027 0 -13.751081473114027 -8.2882065515677823 0 0 0 0 136.24667346731076 69.476544754625138 0 69.476544754625138 48.231364095248864 0 0 0 0 169.54040338679624 17.784688093885961 0 17.784688093885961 6.0884175201408652 0 0 0 0 124.69632335556526 -52.063461378766078 0 -52.063461378766078 31.819776925494807 0 0 0 0 106.29400683168933 -31.023953301090842 0 -31.023953301090842 -27.913280866085188 0 0 0 0 114.544134778429 -5.3624484440479137 0 -5.3624484440479137 -105.32705279095353 0 0 0 0 145.90167630928772 66.42506480189877 0 66.42506480189877 31.449283253476096 0 0 0 0 88.085751169084688 75.065068742369476 0 75.065068742369476 31.150444388885717 0 0 0 0 240.9530203175018 132.10335632840997 0 132.10335632840997 38.88835667704916 0 0 0 0 88.232524486025795 22.981312472375066 0 22.981312472375066 30.837820555123471 0 0 0 0 99.252225933072623 129.70439075116337 0 129.70439075116337 99.340733829645615 0 0 0 0 0.88586607232829095 -1.4443809623527812 0 -1.4443809623527812 -0.67912422106563497 0 0 0 0 143.34909957298078 218.03728540264729 0 218.03728540264729 45.459434675023658 0 0 0 0 -6.7121470436322852 30.144893806505934 0 30.144893806505934 -49.657771017593404 0 0 0 0 252.70305655709672 47.180942572234926 0 47.180942572234926 -124.77755311703004 0 0 0 0 -0.25782664943218947 3.5536981140339776 0 3.5536981140339776 4.1278428814039536 0 0 0 0 296.28411470752326 -183.24188792217683 0 -183.24188792217683 113.91271901125219 0 0 0 0 54.775285127696407 157.07682826836026 0 157.07682826836026 145.35994066697276 0 0 0 0 407.21980078861088 21.529571942543043 0 21.529571942543043 -34.602502145688049 0 0 0 0 59.124537786112342 -20.038450107081189 0 -20.038450107081189 -37.590247212145186 0 0 0 0 -26.198944207448221 55.780986209526418 0 55.780986209526418 71.335452823201194 0 0 0 0 36.380283616366796 -86.976452561411861 0 -86.976452561411861 -28.616854498402745 0 0 0 0 62.533860792433444 -9.4937838469823248 0 -9.4937838469823248 -8.8709963822632503 0 0 0 0 60.655354139379597 -70.270753299082799 0 -70.270753299082799 -30.284332164119405 0 0 0 0 18.493708247715944 -2.1290691355716316 0 -2.1290691355716316 -2.8547885094590697 0 0 0 0 -3.124233154594549 -41.320358095475967 0 -41.320358095475967 2.3181639265694685 0 0 0 0 73.255801168030303 -21.749257419679907 0 -21.749257419679907 -4.6894852277473547 0 0 0 0 103.90728822452365 -74.480515307168389 0 -74.480515307168389 81.089637263674376 0 0 0 0 107.90344137902139 4.6740805591434764 0 4.6740805591434764 -58.528806451022319 0 0 0 0 226.28435447750962 23.717064426193247 0 23.717064426193247 -55.730687396133362 0 0 0 0 145.51289483407163 66.697328968756665 0 66.697328968756665 -16.339383462858677 0 0 0 0 113.37917473962625 7.2472174160550367 0 7.2472174160550367 -35.463126992164689 0 0 0 0 87.126717590035696 31.982757404919539 0 31.982757404919539 20.219218360807645 0 0 0 0 78.646544448369241 -15.140606610091709 0 -15.140606610091709 -44.969246955341987 0 0 0 0 86.869128720209119 24.140041069207655 0 24.140041069207655 -73.121386173658721 0 0 0 0 105.42786521161906 -115.70804800220321 0 -115.70804800220321 -33.741201961391198 0 0 0 0 72.367887120423831 -9.1605096829360235 0 -9.1605096829360235 -8.4935996077881661 0 0 0 0 53.645231958813383 -33.657514714087483 0 -33.657514714087483 -42.683789054421936 0 0 0 0 11.647444056754466 -8.3522875602711792 0 -8.3522875602711792 40.098953597247601 0 0 0 0 33.34933259722311 40.122511044336534 0 40.122511044336534 -61.77537472318636 0 0 0 0 21.361808924957785 -10.120954701257908 0 -10.120954701257908 -10.732006116085826 0 0 0 0 7.889789272507187 -60.597796115787787 0 -60.597796115787787 35.220273928745883 0 0 0 0 6.0458815609714662 -3.05315390539036 0 -3.05315390539036 -2.1282899657257062 0 0 0 0 40.947021586172923 78.845273773784356 0 78.845273773784356 99.910099755810734 0 0 0 0 10.09160885255551 0.47780286581564724 0 0.47780286581564724 -10.677544469655913 0 0 0 0 124.41514517975156 -93.579747593167667 0 -93.579747593167667 55.119186252055442 0 0 0 0 31.09754898369647 -7.9451481035271172 0 -7.9451481035271172 -8.2489520097842615 0 0 0 0 -51.978890657992451 -38.698904699918785 0 -38.698904699918785 56.043518014745132 0 0 0 0 6.6775600553910692 -12.367231378194248 0 -12.367231378194248 -6.4614989789535926 0 0 0 0 52.151007858337834 -63.871271608230018 0 -63.871271608230018 -70.858540523837291 0 0 0 0 101.72141891389037 -29.58886986311154 0 -29.58886986311154 -97.638563602184149 0 0 0 0 55.05206929361637 -3.4997576249814841 0 -3.4997576249814841 -7.7958133313284996 0 0 0 0 131.93977762564464 6.3315745560157666 0 6.3315745560157666 -91.094018838197371 0 0 0 0 233.08113999277703 -118.42606019396044 0 -118.42606019396044 -136.38968490931984 0 0 0 0 -109.59839404535887 -47.095634234104182 0 -47.095634234104182 106.50085236508858 0 0 0 0 2.56120516942687 -0.74692268233785342 0 -0.74692268233785342 -0.35325491888157412 0 0 0 0 89.743327078525908 93.736734007113228 0 93.736734007113228 37.305323340502582 0 0 0 0 225.60211055080799 47.96099458411436 0 47.96099458411436 -29.382923503024358 0 0 0 0 95.863496247300645 25.644249647941251 0 25.644249647941251 -32.060792737456723 0 0 0 0 98.951835156185552 78.525122835360889 0 78.525122835360889 -12.788563346917726 0 0 0 0 23.49524631894019 60.686951607363881 0 60.686951607363881 22.611640076487674 0 0 0 0 67.646249738490951 71.982963297927427 0 71.982963297927427 -18.1056985756004 0 0 0 0 13.897222378174774 9.3391149785311427 0 9.3391149785311427 -54.952496602933024 0 0 0 0 4.4636198502022637 -12.129133230168868 0 -12.129133230168868 -3.5150499495108409 0 0 0 0 66.420068758576235 18.34749215106649 0 18.34749215106649 -123.18279635360886 0 0 0 0 76.455648106701119 102.27558696844972 0 102.27558696844972 34.125897062680451 0 0 0 0 45.040123636630597 66.280165704350111 0 66.280165704350111 -1.4798099693634867 0 0 0 0 45.630932548889177 68.425761489227398 0 68.425761489227398 -13.072612665775523 0 0 0 0 67.296951133655966 52.790536977453485 0 52.790536977453485 -5.8656632827878639 0 0 0 0 77.614879795335582 23.727667988867324 0 23.727667988867324 -27.091897615560811 0 0 0 0 52.262858149315434 16.200844466180342 0 16.200844466180342 -26.715343639742059 0 0 0 0 15.928777850524057 -5.5786722967113747 0 -5.5786722967113747 -19.506039800089638 0 0 0 0 27.998251945376978 28.224981918257981 0 28.224981918257981 -3.9891837879157492 0 0 0 0 5.1767506482719909 29.027031950457967 0 29.027031950457967 70.758520670262442 0 0 0 0 206.02643694530707 -14.641401844643042 0 -14.641401844643042 -126.20419631631376 0 0 0 0 33.77364689274691 25.684618462713843 0 25.684618462713843 -11.95646115112504 0 0 0 0 12.991767852544569 -1.5765474534095922 0 -1.5765474534095922 0.32620506873197419 0 0 0 0 9.7938963078125312 -10.255561156683513 0 -10.255561156683513 -7.5109522875074788 0 0 0 0 1.8260319549663109 -32.653247074262254 0 -32.653247074262254 -21.711725791559729 0 0 0 0 68.992132509782095 -47.901085337880431 0 -47.901085337880431 -29.273368767926968 0 0 0 0 46.040286936164193 -18.364271509573427 0 -18.364271509573427 -42.940281776664051 0 0 0 0 1.5549008504895028 30.016387897269624 0 30.016387897269624 -53.861910711766541 0 0 0 0 19.252256888858398 -4.9630182348663965 0 -4.9630182348663965 -2.798463962965104 0 0 0 0 20.76015496947366 -12.223310273006518 0 -12.223310273006518 -8.1495926442366908 0 0 0 0 19.099578774257679 -11.601375986690982 0 -11.601375986690982 -10.070720439565775 0 0 0 0 13.190468967927302 -8.7622142485268935 0 -8.7622142485268935 -6.2930046674152322 0 0 0 0 75.141704647365259 6.7123614467864172 0 6.7123614467864172 8.3038318361823258 0 0 0 0 19.38179063453498 -16.569729075839689 0 -16.569729075839689 -10.107591350807027 0 0 0 0 45.743401070867549 -28.33961670787312 0 -28.33961670787312 47.884886597643344 0 0 0 0 17.423574511252809 -80.268400326686788 0 -80.268400326686788 -17.98734200223771 0 0 0 0 79.93177235982148 -36.021153487808988 0 -36.021153487808988 -40.928984939195402 0 0 0 0 100.34384051870438 -41.916985235496213 0 -41.916985235496213 -40.610868383730121 0 0 0 0 27.93385677972401 -9.4545755557301163 0 -9.4545755557301163 -6.8802979072415837 0 0 0 0 22.192778573553369 -10.056098729243786 0 -10.056098729243786 -6.4295697895322519 0 0 0 0 73.333627572199475 -2.6859256933291817 0 -2.6859256933291817 -11.332997313942542 0 0 0 0 75.999714996432886 10.883984860580767 0 10.883984860580767 -17.628489535673452 0 0 0 0 76.481848905648803 13.944025719762521 0 13.944025719762521 0.3855999759534825 0 0 0 0 44.939082608061597 21.569633667733939 0 21.569633667733939 -5.3702370621123059 0 0 0 0 76.085587485542419 -1.6697531082861019 0 -1.6697531082861019 -15.702522045815385 0 0 0 0 76.179987729687127 -1.2370714358589794 0 -1.2370714358589794 -14.762382565421831 0 0 0 0 84.320064827501483 -17.650819599216504 0 -17.650819599216504 -47.104805646955356 0 0 0 0 102.91675954769198 -22.116572784838866 0 -22.116572784838866 -48.316844034358837 0 0 0 0 67.598483301830129 44.829326843861963 0 44.829326843861963 -83.131661622402135 0 0 0 0 41.590220723384618 20.872175737758582 0 20.872175737758582 -3.6461535717429445 0 0 0 0 62.611860045100912 17.17795507513074 0 17.17795507513074 -42.044530585452321 0 0 0 0 192.49463328878392 -108.74902668434763 0 -108.74902668434763 107.07381020632147 0 0 0 0 186.68104190324084 -68.357768244919498 0 -68.357768244919498 50.788895147129779 0 0 0 0 175.51709260210191 -0.86021564252587268 0 -0.86021564252587268 9.4795016767084235 0 0 0 0 140.19203166722582 -158.36024365344247 0 -158.36024365344247 211.18638268707855 0 0 0 0 71.256204814533703 -74.761705354703736 0 -74.761705354703736 110.53798824844955 0 0 0 0 -219.42263782936789 11.693725562392729 0 11.693725562392729 246.45918924021771 0 0 0 0 329.83322199783288 -220.44757706253404 0 -220.44757706253404 -267.19823020167667 0 0 0 0 200.33238107868237 70.359417004552597 0 70.359417004552597 8.6438506216633826 0 0 0 0 25.851375074074895 240.52961296060357 0 240.52961296060357 -96.30046887658682 0 0 0 0 142.44532713698209 -75.558208018905134 0 -75.558208018905134 -185.61823800030106 0 0 0 0 158.08163728780346 9.8528609347058591 0 9.8528609347058591 250.52715445483454 0 0 0 0 -3.0808632183919258 -1.4088309954371567 0 -1.4088309954371567 -4.9310739369957517 0 0 0 0 18.144926827095333 305.78422202900947 0 305.78422202900947 -276.75883279106529 0 0 0 0 -96.869575735981925 -79.800787398595276 0 -79.800787398595276 86.092818961629519 0 0 0 0 -32.42018599549192 41.189090901940517 0 41.189090901940517 -32.834511083507095 0 0 0 0 311.81506584829185 52.968799539656175 0 52.968799539656175 -195.93310058119187 0 0 0 0 179.23667967057554 -68.733941965690974 0 -68.733941965690974 60.747414360023868 0 0 0 0 187.98782151745399 -301.51058834426931 0 -301.51058834426931 333.8450415861771 0 0 0 0 320.19148808164755 -266.78767469897502 0 -266.78767469897502 -53.550166146758784 0 0 0 0 241.77339839369961 -113.13622023172047 0 -113.13622023172047 -75.610357633273452 0 0 0 0 159.49827399758215 -147.84262047904667 0 -147.84262047904667 12.802090148970819 0 0 0 0 36.455053257290274 -42.148101867040168 0 -42.148101867040168 28.594728435436991 0 0 0 0 115.65632526441186 -60.01669786270395 0 -60.01669786270395 -38.309830792702996 0 0 0 0 7.1363890681225541 -1.4882536337548942 0 -1.4882536337548942 -1.2719802084893246 0 0 0 0 59.150447562544286 -33.186428658675595 0 -33.186428658675595 27.194986937987778 0 0 0 0 23.994213117018887 2.0388299201828204 0 2.0388299201828204 -9.7014773434765846 0 0 0 0 178.33638266086928 -79.871579664459205 0 -79.871579664459205 89.116116819624949 0 0 0 0 27.987224000122126 -15.769123719752713 0 -15.769123719752713 -9.6214579769209969 0 0 0 0 29.5555832250393 -8.8197912593614092 0 -8.8197912593614092 -3.7020491876928645 0 0 0 0 20.318990401778194 -9.117450591283955 0 -9.117450591283955 -7.6363456423681733 0 0 0 0 26.385855927303055 -12.916527788265284 0 -12.916527788265284 -10.623166169034448 0 0 0 0 30.616448847787979 -7.9249868343749768 0 -7.9249868343749768 -14.187916243627114 0 0 0 0 268.99212540912413 -26.298374520852121 0 -26.298374520852121 1.7651598767861287 0 0 0 0 -1.8239500718391071 3.1332556299905079 0 3.1332556299905079 0.40239664692957255 0 0 0 0 241.7320142629469 -328.63932096021563 0 -328.63932096021563 519.91008698572477 0 0 0 0 313.64888515984057 -360.89308282317461 0 -360.89308282317461 93.636542565475338 0 0 0 0 317.61485895817168 -353.6219991603175 0 -353.6219991603175 422.85973972160718 0 0 0 0 -10.046496808179654 -3.0448852023364452 0 -3.0448852023364452 35.009015632564115 0 0 0 0 26.823909676400945 -9.2439475722603675 0 -9.2439475722603675 -2.451924075561692 0 0 0 0 82.038807086646557 -158.62122100031411 0 -158.62122100031411 446.40568472459563 0 0 0 0 20.750143810302916 -0.16732470911016151 0 -0.16732470911016151 -8.9260293510915858 0 0 0 0 3.2620561856170696 -0.16563452279186208 0 -0.16563452279186208 -0.93754982541427978 0 0 0 0 36.310183273235793 13.154793729462995 0 13.154793729462995 -8.7122235663101044 0 0 0 0 2260.8221751373712 -386.16280591496775 0 -386.16280591496775 -429.58989576336182 0 0 0 0 1434.1765561954671 204.62402936967089 0 204.62402936967089 -555.8561554722379 0 0 0 0 3502.0065538495619 -170.45560670087485 0 -170.45560670087485 -934.25558043128819 0 0 0 0 2304.005247543173 146.39834912072783 0 146.39834912072783 -813.68507947548824 0 0 0 0 2226.0767112549365 -191.85723585591029 0 -191.85723585591029 -626.04735424859314 0 0 0 0 689.3881423442399 314.11841182373479 0 314.11841182373479 -131.97050159900573 0 0 0 0 374.36330029068631 -668.89886666454709 0 -668.89886666454709 -627.41082284494541 0 0 0 0 866.86051042576719 231.56213921167208 0 231.56213921167208 -106.23245563444925 0 0 0 0 27.612824029081906 -20.126405514959288 0 -20.126405514959288 5.296800327175883 0 0 0 0 864.48311883821589 207.3736918875245 0 207.3736918875245 146.97492781794642 0 0 0 0 -428.30230482229672 55.132917585156292 0 55.132917585156292 -203.23082035823256 0 0 0 0 606.60899542787229 100.46334587967681 0 100.46334587967681 -814.64264583723025 0 0 0 0 1107.4945814796811 -318.04500924030594 0 -318.04500924030594 -616.07772936035065 0 0 0 0 929.74948153123478 72.108750034656552 0 72.108750034656552 -172.47560678324032 0 0 0 0 839.79794543619505 -1287.7634615918346 0 -1287.7634615918346 -200.35482403071381 0 0 0 0 858.32047058186436 -31.023065558770782 0 -31.023065558770782 339.53488310722776 0 0 0 0 630.2099648875701 -500.4863494956719 0 -500.4863494956719 -177.3415386731939 0 0 0 0 -801.51616107279733 -1513.4969852500144 0 -1513.4969852500144 -67.544376436551886 0 0 0 0 1011.3415207802609 -88.824195820362775 0 -88.824195820362775 647.65121280600533 0 0 0 0 963.37382397389592 -232.51410062357058 0 -232.51410062357058 547.23550131085767 0 0 0 0 1453.9113029928849 -439.4046137479823 0 -439.4046137479823 305.69203517776486 0 0 0 0 1808.0521870507328 -285.83615096522067 0 -285.83615096522067 -444.74915916051538 0 0 0 0 3490.2753666289354 -1533.1570049003928 0 -1533.1570049003928 334.93706054216256 0 0 0 0 2483.4161288880423 2035.6000020257902 0 2035.6000020257902 -1354.4155015653405 0 0 0 0 11.877654886020764 -8.0033491790644433 0 -8.0033491790644433 6.4261642257241558 0 0 0 0 3494.7029251965537 344.89526475673273 0 344.89526475673273 628.65112751523282 0 0 0 0 125.07283666850708 -859.58294807884431 0 -859.58294807884431 776.12315662934884 0 0 0 0 449.56605007891267 215.50006500732033 0 215.50006500732033 616.50679874158186 0 0 0 0 8.6156809016964644 -8.9957906642617189 0 -8.9957906642617189 6.7038908619211055 0 0 0 0 2568.7652039617969 -131.88340117154712 0 -131.88340117154712 -592.29921115934326 0 0 0 0 2287.2676886076952 -162.72819545597872 0 -162.72819545597872 -568.76405644369879 0 0 0 0 3803.4804798012483 413.19964765713729 0 413.19964765713729 -151.97348134031941 0 0 0 0 1497.1769471254665 -72.451480718699145 0 -72.451480718699145 -0.38761481069585263 0 0 0 0 -1840.5160326409969 -1029.2621640983916 0 -1029.2621640983916 -6.3253766818024815 0 0 0 0 15.652133681905696 -8.7713680440509876 0 -8.7713680440509876 4.6842201936524201 0 0 0 0 775.35537276519244 -3664.4161077366134 0 -3664.4161077366134 1638.2756092055115 0 0 0 0 60.174384057259886 -6.9920682942847634 0 -6.9920682942847634 -0.82027025142269849 0 0 0 0 66.473118755807263 -56.377953530091133 0 -56.377953530091133 -61.229178342191517 0 0 0 0 28.599460564757464 17.590249394843354 0 17.590249394843354 -14.238822386828474 0 0 0 0 48.276704141113441 -8.8156627932704836 0 -8.8156627932704836 -0.067547973848005011 0 0 0 0 30.713530756400758 -19.451329080171348 0 -19.451329080171348 6.4622701810437748 0 0 0 0 55.198969500022827 -16.747675778669844 0 -16.747675778669844 1.992344360860987 0 0 0 0 47.565263789104648 -20.381677999511666 0 -20.381677999511666 4.38922577752707 0 0 0 0 22.399089813116007 -16.387284083242321 0 -16.387284083242321 -14.133932072983043 0 0 0 0 45.412160222302191 -19.167438951989556 0 -19.167438951989556 -12.729336492315364 0 0 0 0 53.684255139512032 -8.0129305845913734 0 -8.0129305845913734 -6.1488722192141214 0 0 0 0 2004.0600736250635 -257.22688008178011 0 -257.22688008178011 -1694.6241529512372 0 0 0 0 36.648399147140651 -19.939820482262093 0 -19.939820482262093 11.480004401229053 0 0 0 0 19.31036450774991 -8.2517705871124587 0 -8.2517705871124587 0.003033513901188117 0 0 0 0 823.29829338660056 420.7198614708463 0 420.7198614708463 265.30517794025491 0 0 0 0 2.829552671552733 -7.2814626150821056 0 -7.2814626150821056 6.5791611362032434 0 0 0 0 37.281512506451691 -75.870149248915908 0 -75.870149248915908 80.903538384068156 0 0 0 0 2197.1932472403059 201.36423962293293 0 201.36423962293293 -540.90618928110189 0 0 0 0 15.785597808951032 -8.493333775523439 0 -8.493333775523439 10.885488296285992 0 0 0 0 265.60242658405332 -644.49089846840513 0 -644.49089846840513 962.04697739166841 0 0 0 0 96.134298712669988 -163.37328932712126 0 -163.37328932712126 -32.155980023629127 0 0 0 0 -11.835179624249577 -104.69154165791224 0 -104.69154165791224 -18.144521303451256 0 0 0 0 136.6466971620066 -54.026364260859623 0 -54.026364260859623 -61.715571065496988 0 0 0 0 9.1254091965820407 -237.66363608526126 0 -237.66363608526126 104.11680925657174 0 0 0 0 1.231454816240749 -3.0670918525132436 0 -3.0670918525132436 5.6436977840059779 0 0 0 0 -245.8847659332896 -67.826694412265397 0 -67.826694412265397 47.429618204355506 0 0 0 0 2678.0533803442377 31.124351872788111 0 31.124351872788111 -639.53909841001905 0 0 0 0 740.17995752907882 -528.87572475201978 0 -528.87572475201978 214.98778737761859 0 0 0 0 404.39345395604687 161.34277614809889 0 161.34277614809889 13.586444467011916 0 0 0 0 70.151871855559875 50.531544053739708 0 50.531544053739708 103.73661531009884 0 0 0 0 224.13481173333275 25.80923444237942 0 25.80923444237942 40.041312817573726 0 0 0 0 58.863205003304756 -5.6823260591494318 0 -5.6823260591494318 32.959973557094713 0 0 0 0 58.590391979931155 11.465103619382717 0 11.465103619382717 51.275357495762591 0 0 0 0 124.79807227901983 35.831933401091987 0 35.831933401091987 -12.777073724216734 0 0 0 0 291.00509095198868 36.715395876946445 0 36.715395876946445 -79.075489473787457 0 0 0 0 125.56779995752731 48.172125042377502 0 48.172125042377502 54.060075900356424 0 0 0 0 126.8509008523688 -32.075660701485049 0 -32.075660701485049 -70.083127531889659 0 0 0 0 122.03988611014211 -37.281987302290872 0 -37.281987302290872 -75.674852905743165 0 0 0 0 93.133885072982594 33.036701010836623 0 33.036701010836623 -12.881847176040083 0 0 0 0 79.881693933260976 -0.91532174825734636 0 -0.91532174825734636 -9.6801659146608792 0 0 0 0 77.759519861609306 -7.2991147841031747 0 -7.2991147841031747 -4.7624584388128364 0 0 0 0 99.274721259607759 -28.765212981093782 0 -28.765212981093782 -63.779444514690113 0 0 0 0 86.341759655144415 -12.642790745514867 0 -12.642790745514867 -8.9208090716309396 0 0 0 0 78.48795385111589 -3.3891423271937651 0 -3.3891423271937651 -0.044818280092303861 0 0 0 0 71.051988742980029 28.437496960768613 0 28.437496960768613 -43.131691596550823 0 0 0 0 85.60694073643765 -2.180949574502371 0 -2.180949574502371 -6.4262472137031716 0 0 0 0 82.279800210017129 6.3032995414960729 0 6.3032995414960729 0.026923023580409735 0 0 0 0 93.329818174686807 14.066802354635456 0 14.066802354635456 -66.33902318860271 0 0 0 0 94.83279758779338 -1.2499693349144962 0 -1.2499693349144962 -6.137627140925451 0 0 0 0 87.026866523116041 17.569247455606728 0 17.569247455606728 -45.364267608639238 0 0 0 0 80.77941569100949 23.431583547763921 0 23.431583547763921 -2.6905495417759084 0 0 0 0 74.499731595817138 0.63116337415044654 0 0.63116337415044654 -3.4480627498173959 0 0 0 0 61.568184156302777 1.0038065328093353 0 1.0038065328093353 13.783392740971522 0 0 0 0 75.570952832869807 -2.1492456521290819 0 -2.1492456521290819 -9.8664351957286271 0 0 0 0 82.825489450216992 -23.32500954379941 0 -23.32500954379941 4.143801245400482 0 0 0 0 68.653771903271263 -23.785411513327858 0 -23.785411513327858 4.2556693128203733 0 0 0 0 58.549766077980166 -34.104675949793794 0 -34.104675949793794 4.8742961210326854 0 0 0 0 86.79444170910574 -27.288382111962335 0 -27.288382111962335 -4.244693520541432 0 0 0 0 54.985301456435991 -21.824537732868379 0 -21.824537732868379 4.4539322962687038 0 0 0 0 12.732459469843889 -5.2136990011657645 0 -5.2136990011657645 -3.0286967476710061 0 0 0 0 41.673072420773678 -33.55660079001234 0 -33.55660079001234 -5.325597086089715 0 0 0 0 61.015200020745397 -18.265206348660286 0 -18.265206348660286 23.472093776963391 0 0 0 0 46.014977657308918 -31.469325470990498 0 -31.469325470990498 11.96911599776945 0 0 0 0 43.210040361111169 -7.8365537823739402 0 -7.8365537823739402 40.650930405758118 0 0 0 0 36.169351751843351 -37.020194856940577 0 -37.020194856940577 -17.361853878071997 0 0 0 0 -5.4071953659149585 9.8863500540178961 0 9.8863500540178961 70.709071787262928 0 0 0 0 24.331750781799201 -41.717769012086819 0 -41.717769012086819 11.263490876122887 0 0 0 0 171.45999015375855 172.19287387391637 0 172.19287387391637 88.12922656703563 0 0 0 0 10.207967219061061 2.0674294819932015 0 2.0674294819932015 -0.95900265644156546 0 0 0 0 41.903874181080027 110.72711932796761 0 110.72711932796761 73.442183334004682 0 0 0 0 99.296375332662137 26.143215999247332 0 26.143215999247332 58.804284675842155 0 0 0 0 295.59826475335285 -638.81346742012738 0 -638.81346742012738 1109.4569152931972 0 0 0 0 -40.765415969333844 -31.08139864933446 0 -31.08139864933446 29.37680079032782 0 0 0 0 2986.3850224856324 807.24026319997256 0 807.24026319997256 -103.55128825510758 0 0 0 0 1577.4979635041236 90.262432713754805 0 90.262432713754805 263.82287923089189 0 0 0 0 2054.6371786185191 -2591.9116905107289 0 -2591.9116905107289 362.36737066711339 0 0 0 0 33.213033343985444 14.39500983280584 0 14.39500983280584 -66.194187448202769 0 0 0 0 848.56047341592785 -476.11512045339987 0 -476.11512045339987 313.25826063007293 0 0 0 0 15.812733160445475 3.9491408870908487 0 3.9491408870908487 0.93107403388787158 0 0 0 0 32.713141315121902 -28.154095207834644 0 -28.154095207834644 -49.075456780108198 0 0 0 0 35.261421182281993 -6.3627753119531292 0 -6.3627753119531292 -5.4256975160765251 0 0 0 0 31.758574574050726 -14.829475776157551 0 -14.829475776157551 -8.3850832920062146 0 0 0 0 22.454837680808851 -52.926145834396664 0 -52.926145834396664 -81.811073186702515 0 0 0 0 16.821504378138343 18.182862741811391 0 18.182862741811391 -22.321646856995187 0 0 0 0 209.66172136562091 -109.72594495773028 0 -109.72594495773028 3.6078538555918804 0 0 0 0 482.78268816905802 -354.28105533997319 0 -354.28105533997319 187.82482377933786 0 0 0 0 -2.6123179257371305 1.9938862132462702 0 1.9938862132462702 2.0195835136088793 0 0 0 0 414.30297551254989 54.058464279579269 0 54.058464279579269 -91.17860415137315 0 0 0 0 1.6964146017948671 2.3520998415362442 0 2.3520998415362442 -0.12655110125726932 0 0 0 0 11.901441334151485 -8.759230257702896 0 -8.759230257702896 3.771185438441623 0 0 0 0 -236.00314675527625 381.64127561307953 0 381.64127561307953 160.25125007032159 0 0 0 0 2499.5629686589236 1167.5124786020986 0 1167.5124786020986 213.15608154483607 0 0 0 0 2649.3855259853299 997.66299339212708 0 997.66299339212708 405.59261126005487 0 0 0 0 1037.2051369004184 979.29678977495143 0 979.29678977495143 43.044463445193855 0 0 0 0 979.76882488562842 -274.99097230001689 0 -274.99097230001689 56.04509812288866 0 0 0 0 176.95246792273247 -83.69549742175613 0 -83.69549742175613 -53.279188131582146 0 0 0 0 292.18495243479265 -8.4966993916425224 0 -8.4966993916425224 -187.60013258028778 0 0 0 0 310.1907100930257 -97.498586421975645 0 -97.498586421975645 -78.796156221228614 0 0 0 0 299.25833162010531 -77.336960378666646 0 -77.336960378666646 -102.32632309854966 0 0 0 0 279.57265245300368 -31.127283334438317 0 -31.127283334438317 -72.4205807932384 0 0 0 0 157.59492857336591 -43.97388557303934 0 -43.97388557303934 -14.664524958508627 0 0 0 0 121.88490540390194 -91.161808934990404 0 -91.161808934990404 26.923181927889384 0 0 0 0 201.74077742213558 -47.563417275624403 0 -47.563417275624403 -14.904303685131197 0 0 0 0 89.397246298161917 18.381454972673353 0 18.381454972673353 -9.6407813634598369 0 0 0 0 -18.754536740554613 -92.255786019491893 0 -92.255786019491893 27.437668802589648 0 0 0 0 30.058563226200931 -34.350936912487896 0 -34.350936912487896 -30.436034980823479 0 0 0 0 43.46984885617465 -20.542799132528089 0 -20.542799132528089 -3.0095343625262285 0 0 0 0 34.005628587927262 -30.353742645382106 0 -30.353742645382106 -13.03131646112017 0 0 0 0 13.821327743396978 -27.957096371477746 0 -27.957096371477746 -0.35791695271291246 0 0 0 0 7.2441025636676386 -26.696747452079009 0 -26.696747452079009 3.1707463929177471 0 0 0 0 28.528085523677873 -13.934794397700443 0 -13.934794397700443 10.270250286499504 0 0 0 0 49.209330053120823 -14.141794127638782 0 -14.141794127638782 -7.8734608882054049 0 0 0 0 93.924741154143703 -39.656353028486592 0 -39.656353028486592 13.670372483522897 0 0 0 0 46.868207849929604 -20.369378373248779 0 -20.369378373248779 12.704490438693711 0 0 0 0 -0.63979885446545381 -11.315523877185285 0 -11.315523877185285 -3.1920263202802315 0 0 0 0 48.032864179411263 -19.898592471531899 0 -19.898592471531899 -7.647239603003527 0 0 0 0 18.544762471418068 -3.4871764111738273 0 -3.4871764111738273 -3.7329247396393983 0 0 0 0 136.70947687854641 -99.962505889609247 0 -99.962505889609247 -142.23805550071484 0 0 0 0 -143.67925539759017 -131.22787369910884 0 -131.22787369910884 69.972417270361802 0 0 0 0 113.36517528158947 -6.5947007487194247 0 -6.5947007487194247 7.2984310978297273 0 0 0 0 83.721421907847358 -45.033828503503273 0 -45.033828503503273 -7.0215431059701707 0 0 0 0 34.475510601837414 -21.930871036885549 0 -21.930871036885549 -11.219572496932869 0 0 0 0 -12.694403733358499 -20.665906125322174 0 -20.665906125322174 -3.342934660988329 0 0 0 0 21.624148886621938 -10.611175815962639 0 -10.611175815962639 0.38108208880353711 0 0 0 0 28.708428911115334 -32.971685161058303 0 -32.971685161058303 -10.348993893871011 0 0 0 0 11.490239730366739 -52.520941246017401 0 -52.520941246017401 -23.906802224520789 0 0 0 0 -3.4545263063992024 -73.263020516959614 0 -73.263020516959614 28.078121474426325 0 0 0 0 -4.7812368175782467 -96.219492258422235 0 -96.219492258422235 262.71834298663634 0 0 0 0 421.73572245877585 -166.02409276953676 0 -166.02409276953676 77.441901936125078 0 0 0 0 0.69688416758094718 2.2789581719730361 0 2.2789581719730361 1.7514857563628481 0 0 0 0 138.21370917185413 121.91685064009607 0 121.91685064009607 28.247184567404133 0 0 0 0 590.26140051241237 27.704493802964407 0 27.704493802964407 81.14512256969283 0 0 0 0 1.9638056971752036 2.7148078652549543 0 2.7148078652549543 0.1527927613583886 0 0 0 0 654.67359423726157 -11.010518528001739 0 -11.010518528001739 -1.3574881372499021 0 0 0 0 612.07579490249918 76.701775368235303 0 76.701775368235303 63.415765897027541 0 0 0 0 537.98225077584357 43.352435613502166 0 43.352435613502166 162.10346686613889 0 0 0 0 716.44748658098979 253.30511985137855 0 253.30511985137855 71.153583074303242 0 0 0 0 475.75755984520219 142.06226487165873 0 142.06226487165873 32.565788833149327 0 0 0 0 73.809543447678152 -93.37035531846368 0 -93.37035531846368 94.889535377880179 0 0 0 0 407.65516915213811 5.91840780645839 0 5.91840780645839 69.622306094744999 0 0 0 0 414.55854422623088 -2.0766564264058616 0 -2.0766564264058616 76.134956107565245 0 0 0 0 323.40380600956632 -71.207519191819756 0 -71.207519191819756 -75.875798659740667 0 0 0 0 -23.026164895498368 -4.1551615460098219 0 -4.1551615460098219 0.9842718742102079 0 0 0 0 299.56654809011843 79.92600733118789 0 79.92600733118789 233.11176138420115 0 0 0 0 474.22809066056652 -61.273236092302341 0 -61.273236092302341 -76.748179652114686 0 0 0 0 150.47684799704075 -18.271114414847943 0 -18.271114414847943 -9.2898554862385936 0 0 0 0 70.671085996752268 -31.051220335504595 0 -31.051220335504595 -25.072286494483862 0 0 0 0 165.21000016520338 -175.8400018938064 0 -175.8400018938064 -194.48827923545423 0 0 0 0 91.060101271752501 -13.8440283777079 0 -13.8440283777079 -3.1969147089609748 0 0 0 0 79.761077020231994 -38.560615791939185 0 -38.560615791939185 -16.330772546439135 0 0 0 0 114.92298588692211 -10.220872766812647 0 -10.220872766812647 -2.9018883333631038 0 0 0 0 -72.596232217519628 -296.89382416930266 0 -296.89382416930266 -92.764534406297571 0 0 0 0 94.115446082592825 -30.356480438824065 0 -30.356480438824065 5.416247056952443 0 0 0 0 86.803203697981047 -18.626264544437053 0 -18.626264544437053 15.092755740865584 0 0 0 0 92.522430889774114 -16.75385290398026 0 -16.75385290398026 -4.4589833293516676 0 0 0 0 104.14644636307639 -14.86205907473277 0 -14.86205907473277 -18.422000822664813 0 0 0 0 102.13638268832437 0.69659288459297386 0 0.69659288459297386 -46.407053465976787 0 0 0 0 92.564309566063457 3.093513743422136 0 3.093513743422136 -27.537718763135672 0 0 0 0 92.126828764274251 0.54817599509920001 0 0.54817599509920001 -15.78272971305978 0 0 0 0 101.53803004097176 3.8270772294763375 0 3.8270772294763375 -3.6946588419996242 0 0 0 0 74.009890438450384 118.61341792639487 0 118.61341792639487 -130.95838932974894 0 0 0 0 72.891691680160875 33.459097656670451 0 33.459097656670451 -59.41796757009628 0 0 0 0 55.079916676761059 36.193254738384042 0 36.193254738384042 -0.17922447894903112 0 0 0 0 575.33068340704631 -228.8894207393468 0 -228.8894207393468 -77.592430005830977 0 0 0 0 266.42751053885149 -316.41377807070603 0 -316.41377807070603 266.77207496188862 0 0 0 0 -2.277690263664141 -2.862342917819376 0 -2.862342917819376 -3.5631995678091561 0 0 0 0 1607.9758372815413 -433.20197868140912 0 -433.20197868140912 -408.18718269442087 0 0 0 0 927.85248513838451 792.58356988376079 0 792.58356988376079 -967.81820780967087 0 0 0 0 6.6808051469838006 0.068227038421525776 0 0.068227038421525776 -0.109727271180587 0 0 0 0 447.38327977526933 -680.87934098957271 0 -680.87934098957271 1431.8298880098587 0 0 0 0 397.23901334634866 -5.0792005245075416 0 -5.0792005245075416 -65.269464062555969 0 0 0 0 -154.43221258401172 285.45939971064183 0 285.45939971064183 0.3657686608344291 0 0 0 0 147.97567343985429 67.776603081741129 0 67.776603081741129 -69.839178854105057 0 0 0 0 251.30937694881868 -155.90625135100441 0 -155.90625135100441 -14.777826166130183 0 0 0 0 29.150656529760454 42.966254036306736 0 42.966254036306736 12.157054896979304 0 0 0 0 57.420739293196462 -17.106231260213946 0 -17.106231260213946 -18.714639133289484 0 0 0 0 323.02787626214558 -14.551894947703033 0 -14.551894947703033 -164.14396733169752 0 0 0 0 95.34557219776616 -16.322647180490435 0 -16.322647180490435 -68.551902982353567 0 0 0 0 115.15440622205773 -8.6901510725693996 0 -8.6901510725693996 -14.562705006198545 0 0 0 0 176.51088872373657 38.132615657180395 0 38.132615657180395 -128.25185462236186 0 0 0 0 82.278770011080638 -15.35842512966326 0 -15.35842512966326 -39.051631475042086 0 0 0 0 100.71463834461247 -1.088824989894988 0 -1.088824989894988 -27.537368833976871 0 0 0 0 105.86803947964017 -5.2852746028863464 0 -5.2852746028863464 -31.847701784668061 0 0 0 0 253.40286719877622 8.1014279292658102 0 8.1014279292658102 -131.06246365525658 0 0 0 0 184.05489688458329 20.622784567400231 0 20.622784567400231 -118.39069347304576 0 0 0 0 18.990332615430816 -6.7135825515915712 0 -6.7135825515915712 -99.536636705779529 0 0 0 0 851.34942795805546 -427.27304905280744 0 -427.27304905280744 338.14508623896654 0 0 0 0 395.43094620920601 -58.049579272593292 0 -58.049579272593292 140.43175490693829 0 0 0 0 185.3521036215825 31.535537264102459 0 31.535537264102459 -157.37631175447495 0 0 0 0 1294.6240880807673 -564.25856170763382 0 -564.25856170763382 -141.57205229061492 0 0 0 0 21.40913876903139 90.762755771197604 0 90.762755771197604 29.911417069575617 0 0 0 0 -143.07948583480902 164.37955886122745 0 164.37955886122745 484.30876020578944 0 0 0 0 788.5401489232172 817.24175045394713 0 817.24175045394713 -17.740143491540834 0 0 0 0 1112.5552704887159 -56.886402067070321 0 -56.886402067070321 -9.0624156278827286 0 0 0 0 588.80262816447066 103.7580108000584 0 103.7580108000584 -58.32361076025154 0 0 0 0 1160.3647616267481 -551.48965337568552 0 -551.48965337568552 -168.29138374476042 0 0 0 0 -193.90601561185758 198.0819289346303 0 198.0819289346303 91.900130158891443 0 0 0 0 536.31085051117861 -1022.5087917207055 0 -1022.5087917207055 836.48860385402804 0 0 0 0 571.66063596666208 85.019567485393054 0 85.019567485393054 -39.154412944546493 0 0 0 0 553.88813139723152 99.677490425344786 0 99.677490425344786 -36.650568322373147 0 0 0 0 18.046656015810044 -25.454124482512345 0 -25.454124482512345 -10.436455052344012 0 0 0 0 45.465963273334744 1.6813931409947358 0 1.6813931409947358 1.3990364849935837 0 0 0 0 497.7363806659705 98.921391564308578 0 98.921391564308578 -36.945916368575126 0 0 0 0 174.5751102548893 47.43527015291329 0 47.43527015291329 -141.83301123032288 0 0 0 0 401.29810736639774 96.783994132817497 0 96.783994132817497 34.508243773507274 0 0 0 0 605.19469313681475 77.401418647380524 0 77.401418647380524 -49.786470854371146 0 0 0 0 124.66444871442565 -56.698338566309133 0 -56.698338566309133 -5.6778578465081608 0 0 0 0 189.36625295432896 -39.305505652343982 0 -39.305505652343982 -6.3878753508993213 0 0 0 0 204.53806511097355 -58.715935700553928 0 -58.715935700553928 -46.469279905959411 0 0 0 0 -153.44413698779681 27.321410602694009 0 27.321410602694009 63.539370728117973 0 0 0 0 305.83602883984713 -1.7261367139058166 0 -1.7261367139058166 -74.319395270741381 0 0 0 0 37.203427611364063 89.621060826479379 0 89.621060826479379 24.753828710504955 0 0 0 0 -6.9806901631236542 -0.92858382575207088 0 -0.92858382575207088 -1.8716292666373135 0 0 0 0 77.096309402113548 -43.271558094622378 0 -43.271558094622378 10.34124602664906 0 0 0 0 73.644781143695397 -7.0564484196947888 0 -7.0564484196947888 -5.7300205248105982 0 0 0 0 41.160885941734023 37.793059600534662 0 37.793059600534662 10.855438317297457 0 0 0 0 71.560709660443536 22.740395834980404 0 22.740395834980404 -10.439074351164891 0 0 0 0 40.705951557583205 15.802608900798326 0 15.802608900798326 -6.3981926491272541 0 0 0 0 9.8780978819712004 6.6207018255701229 0 6.6207018255701229 3.8706036445316694 0 0 0 0 37.008408514826442 10.504974402989509 0 10.504974402989509 0.015061148431070065 0 0 0 0 26.529543997255729 -0.4786288896293911 0 -0.4786288896293911 -0.37466438686535891 0 0 0 0 39.437071099411696 12.925348357875645 0 12.925348357875645 2.0674615282282143 0 0 0 0 20.785520187575116 -2.3753807021093962 0 -2.3753807021093962 -0.80820161347961972 0 0 0 0 43.661887691005177 -5.3605875446943214 0 -5.3605875446943214 -21.820518008925745 0 0 0 0 53.481077669479419 -36.279119266091257 0 -36.279119266091257 -0.26922606161190188 0 0 0 0 145.21305516707071 -120.09729188094445 0 -120.09729188094445 -48.014410648928788 0 0 0 0 149.21421476759133 -99.931374159193041 0 -99.931374159193041 52.730266987280345 0 0 0 0 62.084860061506333 50.437756033028698 0 50.437756033028698 0.35136095549861618 0 0 0 0 850.70090523029285 -339.92773355064031 0 -339.92773355064031 30.029697771042542 0 0 0 0 11.039039107320207 5.1020268829177127 0 5.1020268829177127 3.7578494484037619 0 0 0 0 24.168965882301563 26.455383555162566 0 26.455383555162566 -5.9577989208726807 0 0 0 0 -1.1252305898815393 -6.4077675703287866 0 -6.4077675703287866 -30.484147220727237 0 0 0 0 -32.160709655800019 -100.46992341751664 0 -100.46992341751664 90.958996817633107 0 0 0 0 -4.8120860326307593 83.409305273965003 0 83.409305273965003 211.76165127798424 0 0 0 0 280.32565713836811 242.37240062327214 0 242.37240062327214 166.8740125510775 0 0 0 0 5.3576872733154914 0.61654648637697562 0 0.61654648637697562 0.022312935813026374 0 0 0 0 317.28678284544731 18.854221461372447 0 18.854221461372447 170.27506873129084 0 0 0 0 264.86713090557896 153.97790151657756 0 153.97790151657756 63.510411620515868 0 0 0 0 -77.373828307070653 -43.151671039316767 0 -43.151671039316767 108.92657221083311 0 0 0 0 -3.4595630083786091 217.75975647992658 0 217.75975647992658 11.821202978335634 0 0 0 0 -47.597215668414719 40.668726926507588 0 40.668726926507588 183.39966229219306 0 0 0 0 513.20246982026947 60.040606693395233 0 60.040606693395233 76.810590276888092 0 0 0 0 108.92273590057448 3.5870694129455956 0 3.5870694129455956 280.81558010070501 0 0 0 0 -0.098879882050823653 339.28409926000182 0 339.28409926000182 22.155090391919657 0 0 0 0 101.12913306953851 23.900881138803925 0 23.900881138803925 15.246872973126301 0 0 0 0 84.046650364427478 115.53831109269879 0 115.53831109269879 161.30871637829023 0 0 0 0 15.457214235677384 65.068457685392218 0 65.068457685392218 29.464343815327766 0 0 0 0 94.417227061872836 167.91583945954631 0 167.91583945954631 -298.09326910367645 0 0 0 0 14.495663616689853 134.87038423208594 0 134.87038423208594 9.6134235584095222 0 0 0 0 5.8217328215155817 14.479636640303511 0 14.479636640303511 2.6534647214317664 0 0 0 0 -12.656682992177196 188.12259130611864 0 188.12259130611864 24.311330777639451 0 0 0 0 -56.156404376262799 179.69909996577815 0 179.69909996577815 -15.266952628459421 0 0 0 0 -359.44336495645985 -66.655629843204451 0 -66.655629843204451 -26.662798877687827 0 0 0 0 36.305751903737175 91.208157221604949 0 91.208157221604949 22.653709425333822 0 0 0 0 1813.6515248788746 680.26438516587655 0 680.26438516587655 376.57978587175421 0 0 0 0 -29.053948180423973 7.4918169140693465 0 7.4918169140693465 5.4133964246519035 0 0 0 0 -2.9819817827495712 0.16322454708189582 0 0.16322454708189582 5.6452013594297092 0 0 0 0 1612.048464119136 351.62271883461972 0 351.62271883461972 -81.994470743991769 0 0 0 0 160.56529304999276 163.6404099051565 0 163.6404099051565 -33.661480686988398 0 0 0 0 -162.11434672038013 329.29081663538727 0 329.29081663538727 65.752991947010742 0 0 0 0 193.97335144787576 132.43760039714743 0 132.43760039714743 -12.242140745604047 0 0 0 0 659.91351584882068 686.01927227808937 0 686.01927227808937 216.97373283593424 0 0 0 0 670.65945405495222 385.71607479448551 0 385.71607479448551 62.726333205602714 0 0 0 0 709.64454224116344 363.11275717813896 0 363.11275717813896 57.079328477684612 0 0 0 0 14.395522539711806 18.627396597583807 0 18.627396597583807 -1.6545022718341929 0 0 0 0 -320.39443191156897 -157.29061113787975 0 -157.29061113787975 -201.78046541665708 0 0 0 0 -50.275209405846596 78.20334291395848 0 78.20334291395848 24.010573122866088 0 0 0 0 21.237996179363325 41.338025126825698 0 41.338025126825698 -4.9187420449378152 0 0 0 0 -62.004850348341279 56.190035434843594 0 56.190035434843594 -1.6105791429436067 0 0 0 0 217.93601945180126 -59.384732782561969 0 -59.384732782561969 -83.637495427057047 0 0 0 0 -66.073163453856978 162.55344783988528 0 162.55344783988528 40.676008590198308 0 0 0 0 201.9524984120435 100.09400729215258 0 100.09400729215258 -73.702349321779366 0 0 0 0 227.20832559864903 197.69811624290446 0 197.69811624290446 -99.397445678840995 0 0 0 0 666.49581474354636 -25.147376077995887 0 -25.147376077995887 -147.25103253932411 0 0 0 0 826.59328341761648 126.4353859110214 0 126.4353859110214 -146.84444771036351 0 0 0 0 734.45755146550073 -18.196128169891381 0 -18.196128169891381 -126.73615725405676 0 0 0 0 614.13614645448615 79.250677325591482 0 79.250677325591482 -116.9085343117813 0 0 0 0 877.20463751686475 -47.923015738323329 0 -47.923015738323329 -130.35178918040992 0 0 0 0 -34.599398584272421 74.521838766863368 0 74.521838766863368 88.982807390831454 0 0 0 0 -255.14819377560343 29.125221272122417 0 29.125221272122417 -54.922777025716641 0 0 0 0 231.5966102645325 308.56550644215076 0 308.56550644215076 34.303356611544132 0 0 0 0 574.32449904264649 43.791306387054647 0 43.791306387054647 -129.67282318898424 0 0 0 0 -397.85308053624613 195.19442743094069 0 195.19442743094069 30.553546881053762 0 0 0 0 -362.83157244397444 87.993151299109968 0 87.993151299109968 40.742511819275023 0 0 0 0 21.517641429192366 88.384396465591593 0 88.384396465591593 -10.781741027786037 0 0 0 0 -204.36814003088057 41.693740563877839 0 41.693740563877839 56.182550329826881 0 0 0 0 -213.1566899381578 134.75275395327981 0 134.75275395327981 -53.133689378673807 0 0 0 0 418.46525680449849 121.39815544896646 0 121.39815544896646 -30.34815367813917 0 0 0 0 4.2170471635482727 3.3859060876714295 0 3.3859060876714295 5.8281704135719945 0 0 0 0 420.71230870796717 264.6436373617089 0 264.6436373617089 55.611189198609281 0 0 0 0 314.14622720457555 301.24725317411458 0 301.24725317411458 153.3429500687771 0 0 0 0 336.94364304214832 195.68361980995337 0 195.68361980995337 3.226458357113188 0 0 0 0 276.84247755296383 32.833220009996012 0 32.833220009996012 -83.56177978390042 0 0 0 0 228.66625176902744 167.47720948958772 0 167.47720948958772 14.884820240852093 0 0 0 0 -46.883015593150049 -0.49000637531867142 0 -0.49000637531867142 78.066506639898762 0 0 0 0 -254.45474747698972 120.5257955984498 0 120.5257955984498 -38.501380502242682 0 0 0 0 16.342054481794719 91.366530296478032 0 91.366530296478032 -13.041260522718794 0 0 0 0 -254.04458277772937 124.8735979877988 0 124.8735979877988 -31.495414212685773 0 0 0 0 -92.399177363186027 89.355723864588526 0 89.355723864588526 65.427771645439634 0 0 0 0 -12.487515140924472 15.570856192339363 0 15.570856192339363 16.873511460265799 0 0 0 0 -21.739756461192883 79.296208947400245 0 79.296208947400245 5.5504479936492288 0 0 0 0 -106.10736980155343 93.959573000473029 0 93.959573000473029 47.891160515134288 0 0 0 0 35.15485685959316 67.129044615624622 0 67.129044615624622 -31.192878637331422 0 0 0 0 -35.796435792959528 82.517100034736359 0 82.517100034736359 -39.665617606269734 0 0 0 0 -38.843162890465464 81.779478547104191 0 81.779478547104191 31.175927348709592 0 0 0 0 8.2468345246161334 62.018988674323737 0 62.018988674323737 28.051994177469169 0 0 0 0 37.535946692049038 106.63682352012711 0 106.63682352012711 64.265714439916337 0 0 0 0 24.815933250851231 31.448308252737661 0 31.448308252737661 38.201006499625692 0 0 0 0 22.608806419215398 45.268210112017186 0 45.268210112017186 -45.107110592267418 0 0 0 0 348.93348969031649 558.13149100780993 0 558.13149100780993 -608.29758372325432 0 0 0 0 -34.331395236746175 57.029267498062836 0 57.029267498062836 -43.175641682097194 0 0 0 0 23.081520557857175 31.454066373475897 0 31.454066373475897 -4.8159885461282457 0 0 0 0 -270.32721666718135 -186.24250766733439 0 -186.24250766733439 292.19730350454938 0 0 0 0 -159.26623460065457 271.51699317860403 0 271.51699317860403 337.83210086992403 0 0 0 0 576.23504087037873 900.22474027718181 0 900.22474027718181 -203.08627013656769 0 0 0 0 -25.954695563651256 5.3316014771355285 0 5.3316014771355285 -1.3175391906534593 0 0 0 0 -278.92435503230081 28.570611046099884 0 28.570611046099884 -152.00855784891701 0 0 0 0 -444.58501470056945 123.87559351549635 0 123.87559351549635 -25.32669799120049 0 0 0 0 -106.84764016824192 23.305896879333886 0 23.305896879333886 -49.68955474241784 0 0 0 0 17.721618948011312 43.815217241408874 0 43.815217241408874 -21.926224080738475 0 0 0 0 -140.77029749257781 94.369033115526804 0 94.369033115526804 13.466797030743919 0 0 0 0 -149.5178594684694 62.305696928799989 0 62.305696928799989 -2.705565891963488 0 0 0 0 -26.724502584509082 55.209168479122397 0 55.209168479122397 -7.3923312894861395 0 0 0 0 -154.06601862303685 164.71162931629661 0 164.71162931629661 44.852797002568387 0 0 0 0 336.21800104649446 -123.4209105354447 0 -123.4209105354447 82.703524443932793 0 0 0 0 -1.505559564866445 17.281415619899448 0 17.281415619899448 -3.4756537564605465 0 0 0 0 331.25454817784339 304.10968263773896 0 304.10968263773896 204.19978872885827 0 0 0 0 697.62166539336613 -82.407281962085563 0 -82.407281962085563 -76.454646275663663 0 0 0 0 646.74692977247832 152.63293403688778 0 152.63293403688778 218.653648777434 0 0 0 0 674.26976713499971 -121.60434254703512 0 -121.60434254703512 143.81979017500794 0 0 0 0 852.26319966274968 127.31619609747315 0 127.31619609747315 -133.9357979412415 0 0 0 0 731.85026721247777 118.87918056286446 0 118.87918056286446 -203.55970070736902 0 0 0 0 579.09922570909839 60.055990106843865 0 60.055990106843865 -142.0704839399109 0 0 0 0 581.63981175154913 58.943249954876563 0 58.943249954876563 -145.36489078503416 0 0 0 0 442.55980845914746 36.164743914656356 0 36.164743914656356 -144.86522961178224 0 0 0 0 246.28184431664704 -32.538672404031047 0 -32.538672404031047 -49.291837690656848 0 0 0 0 252.26867865329405 -18.08246951703228 0 -18.08246951703228 -65.403522190581157 0 0 0 0 275.06385767096799 123.66562934130781 0 123.66562934130781 -98.075939269586925 0 0 0 0 269.83652088279268 65.920927992480699 0 65.920927992480699 -83.373382822825533 0 0 0 0 405.03843665999011 211.80542553784767 0 211.80542553784767 -89.506681031131961 0 0 0 0 706.08859772955475 156.88868011866185 0 156.88868011866185 -192.29003207998127 0 0 0 0 595.34616081036438 141.41818811297642 0 141.41818811297642 -193.2832029589261 0 0 0 0 599.19258107594578 214.12048907917347 0 214.12048907917347 -91.357917586583426 0 0 0 0 756.20089324205401 360.67467096464657 0 360.67467096464657 30.919029439573706 0 0 0 0 790.25391001214939 155.4479861772956 0 155.4479861772956 -115.93996671694867 0 0 0 0 47.182044765337196 247.07219836514651 0 247.07219836514651 224.23921355635184 0 0 0 0 33.651503955003136 16.987608683207782 0 16.987608683207782 5.3414932555183725 0 0 0 0 -423.66920096847753 184.64280132538761 0 184.64280132538761 -66.256715943442032 0 0 0 0 -0.75104353135247948 167.39038355545202 0 167.39038355545202 39.497372956775948 0 0 0 0 25.088694747177954 0.46356423724517981 0 0.46356423724517981 -16.303126957617479 0 0 0 0 -499.01080700507009 142.66558689154385 0 142.66558689154385 6.5367287014632893 0 0 0 0 -15.483210444608062 13.905899052591963 0 13.905899052591963 7.1871484354277513 0 0 0 0 17.377156520673466 68.951360947442879 0 68.951360947442879 -28.240412670418973 0 0 0 0 -446.71696622273885 115.42146511128522 0 115.42146511128522 -220.05342809242575 0 0 0 0 -74.030249176852521 18.040206220337723 0 18.040206220337723 52.782516657371161 0 0 0 0 56.845498172915541 72.096940953830199 0 72.096940953830199 5.3150751014763955 0 0 0 0 -1.8868331296253018 96.19313485312432 0 96.19313485312432 51.369287920689203 0 0 0 0 52.328758397110505 5.0461097193401656 0 5.0461097193401656 -23.05172058143944 0 0 0 0 142.23370196207543 120.15982989426811 0 120.15982989426811 -21.925304082975344 0 0 0 0 120.04436355934013 115.01083018858481 0 115.01083018858481 23.902598556906014 0 0 0 0 -555.92265038270125 188.80818093843959 0 188.80818093843959 26.738979239677519 0 0 0 0 -541.76490090531661 209.69674103947659 0 209.69674103947659 54.3308845718675 0 0 0 0 5.4998669747705691 5.4200538915251855 0 5.4200538915251855 6.0301939340051192 0 0 0 0 347.46153790804965 88.430200037833629 0 88.430200037833629 -68.332516778913032 0 0 0 0 234.13762929977383 154.03614640725664 0 154.03614640725664 -12.153482360237831 0 0 0 0 183.19050533135305 42.80300741136125 0 42.80300741136125 -19.774933258101385 0 0 0 0 -337.3930834892526 310.16316929371351 0 310.16316929371351 -155.82516813900111 0 0 0 0 291.20208632585127 192.24613808487356 0 192.24613808487356 -53.08976627256925 0 0 0 0 201.51027794013498 183.65783554816153 0 183.65783554816153 15.98014993657489 0 0 0 0 -15.292609153987001 35.138225107353882 0 35.138225107353882 -16.755235077918659 0 0 0 0 18.291725553957804 42.709802756540341 0 42.709802756540341 -11.804500944812844 0 0 0 0 -5.7391699026182508 43.134328296347633 0 43.134328296347633 -9.0485934174517162 0 0 0 0 -6.071508495035232 44.405771865262707 0 44.405771865262707 -11.530804280347411 0 0 0 0 17.664129875707857 27.161159118911485 0 27.161159118911485 3.8028650812346396 0 0 0 0 13.846467827028391 36.395653747732922 0 36.395653747732922 1.1533656203611145 0 0 0 0 28.723638341665151 37.554246154462732 0 37.554246154462732 -13.738941209081521 0 0 0 0 -0.060985405582272278 0.87718526807711328 0 0.87718526807711328 2.8716828671096692 0 0 0 0 -299.32589082456252 -88.036123831491295 0 -88.036123831491295 -73.009123615463466 0 0 0 0 -551.23510574208922 313.58372954145551 0 313.58372954145551 4.7760831550822331 0 0 0 0 870.11279776870651 -247.7257211726866 0 -247.7257211726866 -101.24980808938562 0 0 0 0 -77.253679360110254 242.88054209025944 0 242.88054209025944 -144.98333589223125 0 0 0 0 23.627320097948541 31.463383427957638 0 31.463383427957638 -11.086546745308397 0 0 0 0 28.690758126647555 26.936931192478767 0 26.936931192478767 -3.9534186961328976 0 0 0 0 36.575425533969593 29.419460383812289 0 29.419460383812289 -7.3498342445199549 0 0 0 0 44.604480062315133 36.84568069813335 0 36.84568069813335 -1.6197844736768259 0 0 0 0 68.111653694984852 74.095507328951157 0 74.095507328951157 10.908317476590128 0 0 0 0 54.539121231071476 50.629662893982186 0 50.629662893982186 -13.082838431610753 0 0 0 0 37.537341366776673 24.267521799652059 0 24.267521799652059 -49.808460592495521 0 0 0 0 47.504336245658692 21.857248648943184 0 21.857248648943184 -2.1032651717578021 0 0 0 0 10.763967481200268 12.323007303008021 0 12.323007303008021 -5.8094185604858062 0 0 0 0 26.503543169288605 25.098926878706607 0 25.098926878706607 -15.212485090037944 0 0 0 0 46.045519982581027 107.68745971483395 0 107.68745971483395 -4.303044843232783 0 0 0 0 14.802478505483148 22.046701492128719 0 22.046701492128719 -16.445991735345196 0 0 0 0 33.526604971675624 25.207703881311659 0 25.207703881311659 -36.569832878974012 0 0 0 0 50.513726170996961 28.011058943924695 0 28.011058943924695 -15.805997446444735 0 0 0 0 69.055749869877559 31.80178116753585 0 31.80178116753585 -24.540327991083814 0 0 0 0 163.76894328106573 -23.681663529440812 0 -23.681663529440812 -73.502365651687796 0 0 0 0 117.79911031591473 -207.87207308600318 0 -207.87207308600318 486.00334484961832 0 0 0 0 624.56653151715454 -331.25033976250035 0 -331.25033976250035 101.1226400175351 0 0 0 0 268.13285344625911 -205.82335782807218 0 -205.82335782807218 167.14586578575427 0 0 0 0 602.08455037809654 -396.77500941202379 0 -396.77500941202379 161.14672543442794 0 0 0 0 103.70003094571803 89.046937386793616 0 89.046937386793616 -3.7163362775236237 0 0 0 0 321.3184349297735 -144.73994430851917 0 -144.73994430851917 105.47088447948227 0 0 0 0 -246.68867211053293 -22.980166953513049 0 -22.980166953513049 43.408110659188822 0 0 0 0 -5.4041047779486604 4.7714831341746091 0 4.7714831341746091 -1.459406383403004 0 0 0 0 -40.565591294616752 -104.14181318565261 0 -104.14181318565261 227.66515527955971 0 0 0 0 188.78613920901262 332.68710785910525 0 332.68710785910525 -158.81864278588546 0 0 0 0 -10.117676989742904 40.25952289604561 0 40.25952289604561 -5.6830661378323271 0 0 0 0 36.32054459908808 14.524884927122862 0 14.524884927122862 -7.7650568926228747 0 0 0 0 -31.104598975070985 190.35604617684703 0 190.35604617684703 95.450094681207702 0 0 0 0 -61.354778170294594 79.035339268801181 0 79.035339268801181 163.36325313062298 0 0 0 0 122.60969067175392 -373.98857111239641 0 -373.98857111239641 383.83072003312964 0 0 0 0 11.924025975522724 -4.6587986795234428 0 -4.6587986795234428 4.4829470423384095 0 0 0 0 5.5886834257007365 3.4536313627744235 0 3.4536313627744235 2.7342505413233988 0 0 0 0 2339.7716731210821 591.77880590417374 0 591.77880590417374 -228.33346646756627 0 0 0 0 41.796396015535265 420.51086316766452 0 420.51086316766452 575.96150007605956 0 0 0 0 107.64399948085338 -116.95684268546097 0 -116.95684268546097 96.27369105265052 0 0 0 0 11.246007003072009 29.437037012520932 0 29.437037012520932 -11.366140164354306 0 0 0 0 -0.52877128275562768 11.471716211740883 0 11.471716211740883 -11.569129771661441 0 0 0 0 489.05054304674923 332.95530765578201 0 332.95530765578201 -54.714499217464436 0 0 0 0 -5.4160388776031994 3.9484554060420294 0 3.9484554060420294 -0.42269273097102733 0 0 0 0 984.38505128656107 710.30469589225697 0 710.30469589225697 196.00151497701154 0 0 0 0 461.20654740480313 344.17639571147311 0 344.17639571147311 153.21429075935021 0 0 0 0 1270.8924802156216 -247.10353330698854 0 -247.10353330698854 13.365350237488428 0 0 0 0 1484.3196856622271 359.94211331553271 0 359.94211331553271 -120.36432875526248 0 0 0 0 862.89708450207854 -164.34087163035778 0 -164.34087163035778 393.41800823348012 0 0 0 0 326.43329967962927 -158.62554307455548 0 -158.62554307455548 190.92418859874215 0 0 0 0 774.84246865873502 -446.96996383783085 0 -446.96996383783085 255.15137031544418 0 0 0 0 795.37883721067192 -527.63679819608228 0 -527.63679819608228 257.33170250174771 0 0 0 0 534.06812252735836 -160.38799013846057 0 -160.38799013846057 276.52795008262092 0 0 0 0 61.89058129710611 -380.02159428473124 0 -380.02159428473124 404.31024846661523 0 0 0 0 2485.3532879969171 -47.845887454707167 0 -47.845887454707167 -183.62357618351803 0 0 0 0 1748.2727241402026 88.87311311647818 0 88.87311311647818 317.92162454621314 0 0 0 0 2445.6674359271565 -267.97324769473676 0 -267.97324769473676 390.4272772727661 0 0 0 0 1874.762228619089 -467.60004926847546 0 -467.60004926847546 -39.646139966917872 0 0 0 0 2420.5558725715018 -83.220843278844086 0 -83.220843278844086 239.01767090027215 0 0 0 0 1273.2719888969041 486.60797846546848 0 486.60797846546848 183.53662707339777 0 0 0 0 646.71030259105464 -567.69287011665858 0 -567.69287011665858 21.893905690144948 0 0 0 0 10.966473815875005 -1.9847484815647825 0 -1.9847484815647825 0.3564577801253197 0 0 0 0 -356.25318736131157 -79.364860956815164 0 -79.364860956815164 282.94204994055099 0 0 0 0 -445.04828116875433 238.90264833922765 0 238.90264833922765 398.3955022257735 0 0 0 0 -36.109342274969094 550.90641049150076 0 550.90641049150076 416.88089067355145 0 0 0 0 578.6350895399446 758.15913178827077 0 758.15913178827077 209.611915312375 0 0 0 0 328.87494278297891 342.11251290358052 0 342.11251290358052 97.00747392813264 0 0 0 0 1118.9487242242612 335.88201815880279 0 335.88201815880279 -48.540460715814788 0 0 0 0 2608.0210075508294 109.79255082175177 0 109.79255082175177 -292.97886704656992 0 0 0 0 1607.2500908668226 -961.77819634306252 0 -961.77819634306252 326.07816865827817 0 0 0 0 1410.1036801547416 711.29001284753531 0 711.29001284753531 343.50858801797222 0 0 0 0 0.8620412116308529 0.01623592810978014 0 0.01623592810978014 -0.33857336872637489 0 0 0 0 8.8319940313522238 20.384310496944181 0 20.384310496944181 -283.0309661531428 0 0 0 0 -87.174780183006078 -126.88757546905254 0 -126.88757546905254 -209.68455837254578 0 0 0 0 -123.05048723082291 -73.031146252019994 0 -73.031146252019994 -192.58446706282666 0 0 0 0 -105.93543846280591 -16.99711249186754 0 -16.99711249186754 -220.02996926931064 0 0 0 0 58.771463200428116 -37.191403177145958 0 -37.191403177145958 -244.48478900455211 0 0 0 0 19.312658351998181 -3.9762843039797602 0 -3.9762843039797602 -0.066127999603114773 0 0 0 0 -6.1020546917134197 -239.01085629636259 0 -239.01085629636259 -418.12405684082239 0 0 0 0 217.52242908917833 54.140225330305839 0 54.140225330305839 -399.19758796874385 0 0 0 0 21.568892292154487 290.821798017427 0 290.821798017427 156.91983049204578 0 0 0 0 144.03191724996577 114.23098043822733 0 114.23098043822733 -55.10248958431373 0 0 0 0 -424.44195278290135 -216.18114611272517 0 -216.18114611272517 56.12915708288358 0 0 0 0 113.38195829006145 118.55154975580024 0 118.55154975580024 -115.41969885886147 0 0 0 0 2.5672676350513939 315.87180397167663 0 315.87180397167663 -452.45672756173502 0 0 0 0 -418.58014286886464 298.87113703381874 0 298.87113703381874 30.511301540611839 0 0 0 0 -77.569850722982665 21.6321021005283 0 21.6321021005283 229.34664340667814 0 0 0 0 -69.020804566331208 190.50173834339125 0 190.50173834339125 -34.978129182633666 0 0 0 0 78.849937848892296 8.2029643525791016 0 8.2029643525791016 -222.60237504121756 0 0 0 0 23.84907660218596 32.43027103635086 0 32.43027103635086 -33.719418823512122 0 0 0 0 4.7931918247340946 37.410847226251008 0 37.410847226251008 -33.857769079742411 0 0 0 0 91.238309435102565 84.458639169653679 0 84.458639169653679 -162.77086681243463 0 0 0 0 22.435228583597791 53.335280935174097 0 53.335280935174097 -41.256419985369575 0 0 0 0 11.202648105861954 58.170732165339444 0 58.170732165339444 -42.354004588619318 0 0 0 0 18.997626061012852 81.502677862412611 0 81.502677862412611 52.521468899772799 0 0 0 0 -10.880225284045082 -0.87060991553755684 0 -0.87060991553755684 133.44900555989125 0 0 0 0 57.463708962000965 -14.409498297447044 0 -14.409498297447044 105.50397742380392 0 0 0 0 5.6443754922183871 27.283018355141792 0 27.283018355141792 29.184573533941602 0 0 0 0 85.403905028819281 -15.460654613716997 0 -15.460654613716997 149.73609348705077 0 0 0 0 -14.282821212400449 43.855408034087986 0 43.855408034087986 219.99180528488387 0 0 0 0 38.682471987041936 10.928283930160887 0 10.928283930160887 98.828427879003812 0 0 0 0 74.325610647661961 -148.64971745355547 0 -148.64971745355547 307.46196371923565 0 0 0 0 172.96186915088765 -188.18782602093791 0 -188.18782602093791 203.20726368630903 0 0 0 0 324.14696165530768 -172.51308951627311 0 -172.51308951627311 146.30526406091667 0 0 0 0 162.00572096806718 -137.54968187134659 0 -137.54968187134659 79.088317090748774 0 0 0 0 17.587016421810404 -28.666160550756892 0 -28.666160550756892 43.425585699566 0 0 0 0 20.639872157938953 -66.978980297292765 0 -66.978980297292765 176.07428353819978 0 0 0 0 80.341419763008162 -111.21661489587493 0 -111.21661489587493 89.299211992279879 0 0 0 0 138.11929808516288 -182.26515203189115 0 -182.26515203189115 99.108100371075352 0 0 0 0 131.34963506700296 -175.32595321319644 0 -175.32595321319644 94.095895042848042 0 0 0 0 95.388550227340602 -138.87674872896216 0 -138.87674872896216 107.81040394293177 0 0 0 0 143.23138949228814 -104.91133686824958 0 -104.91133686824958 1.170465748782874 0 0 0 0 197.55280815829929 -82.16346328474998 0 -82.16346328474998 33.063168308237891 0 0 0 0 207.57949183948222 -166.55360178563689 0 -166.55360178563689 55.795994492273167 0 0 0 0 240.23866346353316 -119.19054839571959 0 -119.19054839571959 -0.5449558628812099 0 0 0 0 323.75275590401725 -159.36361651162224 0 -159.36361651162224 52.725742566624376 0 0 0 0 378.21834050798861 -133.29350328486555 0 -133.29350328486555 44.794417770759537 0 0 0 0 562.39704638401599 -307.70105568313716 0 -307.70105568313716 156.74585083594206 0 0 0 0 739.18317106597533 -29.846052498184321 0 -29.846052498184321 -61.839880237778971 0 0 0 0 761.94606071689486 -54.441900239322536 0 -54.441900239322536 -88.824207424814915 0 0 0 0 861.94239954751538 159.17344499706644 0 159.17344499706644 -175.40371383308582 0 0 0 0 679.52518166148366 120.60925163819127 0 120.60925163819127 -183.19435352238361 0 0 0 0 718.78758280006878 105.84581672206878 0 105.84581672206878 -201.0820917456827 0 0 0 0 507.46325666618941 33.973016317696391 0 33.973016317696391 -113.12360692168386 0 0 0 0 530.07091912114993 -36.308864516030127 0 -36.308864516030127 -98.810330253601819 0 0 0 0 335.40793715667678 42.570135039607038 0 42.570135039607038 -94.595310191763815 0 0 0 0 453.77424568800052 185.63120148076126 0 185.63120148076126 -232.11610746916926 0 0 0 0 180.25348246116482 0.28902435355024636 0 0.28902435355024636 -105.97025329066842 0 0 0 0 702.02800298864531 162.84865531228479 0 162.84865531228479 -141.24203054336238 0 0 0 0 588.96962897796766 71.544672699085481 0 71.544672699085481 -200.35917970126854 0 0 0 0 578.19618509396241 87.096341635599686 0 87.096341635599686 -95.564287368593341 0 0 0 0 627.40539699938381 30.119990709257422 0 30.119990709257422 -114.75130995932301 0 0 0 0 575.11559535008564 -98.141333375754584 0 -98.141333375754584 75.96744599032786 0 0 0 0 541.81701017938394 -6.8927016155593037 0 -6.8927016155593037 -271.45707879654162 0 0 0 0 154.65058605700324 -3.5456960113221498 0 -3.5456960113221498 -80.119817507942599 0 0 0 0 512.49630129602156 98.173921670374909 0 98.173921670374909 -55.50083528641062 0 0 0 0 -27.448588771632785 -25.3560409659882 0 -25.3560409659882 46.762614282917639 0 0 0 0 154.28871276452264 -4.8698460731238526 0 -4.8698460731238526 33.050766987692867 0 0 0 0 -2.4403110474065244 -0.41270135001331454 0 -0.41270135001331454 0.68695402460021326 0 0 0 0 48.25681244518637 -48.274520826786315 0 -48.274520826786315 -109.98219162994297 0 0 0 0 59.221102724510274 17.988278026204902 0 17.988278026204902 -165.84381350187988 0 0 0 0 3.5432555132445316 -8.0581888633982501 0 -8.0581888633982501 -1.2236489365488403 0 0 0 0 96.627012383709371 -134.26834588703593 0 -134.26834588703593 -15.009646137628472 0 0 0 0 114.11266210196618 -44.047561519288102 0 -44.047561519288102 -125.311782246449 0 0 0 0 141.2913339781735 -21.323095159729313 0 -21.323095159729313 -95.168379421668931 0 0 0 0 216.99208133180036 -75.363811844377054 0 -75.363811844377054 -212.57103526212384 0 0 0 0 30.750444724122644 163.33324194345343 0 163.33324194345343 -366.65473413266534 0 0 0 0 414.15326818561152 47.984137299920093 0 47.984137299920093 -83.614238407852696 0 0 0 0 -284.99593506330712 -25.128809748400542 0 -25.128809748400542 304.81880460690775 0 0 0 0 93.796832960033498 -151.53499829834229 0 -151.53499829834229 55.749003958911629 0 0 0 0 97.460849333823717 -86.508754706310924 0 -86.508754706310924 6.4024750162109285 0 0 0 0 104.1566083073767 -114.65351622458529 0 -114.65351622458529 -26.913770694605006 0 0 0 0 126.36113908980406 -43.220889608542862 0 -43.220889608542862 -96.512832735299611 0 0 0 0 51.01925933123745 -25.55879088691233 0 -25.55879088691233 -1.8308339796381325 0 0 0 0 81.373540025326292 -57.291516846424521 0 -57.291516846424521 -99.209356109896021 0 0 0 0 82.176801132867695 -160.5412511915215 0 -160.5412511915215 -104.16649378292374 0 0 0 0 86.997738517771282 -43.029309641242001 0 -43.029309641242001 -0.5857580458919649 0 0 0 0 227.05441202060319 22.985268317862051 0 22.985268317862051 -32.263658678011637 0 0 0 0 -4.2319425829049919 -14.51090867496864 0 -14.51090867496864 1.3480976106322311 0 0 0 0 -104.21137601351802 -181.27461722715259 0 -181.27461722715259 190.2121000694487 0 0 0 0 333.61119297936966 -15.702531185370106 0 -15.702531185370106 -76.522663369064531 0 0 0 0 349.24254482983088 -56.339525935501285 0 -56.339525935501285 -97.256207474188642 0 0 0 0 196.04009601809958 -148.35804793866865 0 -148.35804793866865 93.80929899580866 0 0 0 0 187.91929914738284 164.94417094200048 0 164.94417094200048 99.985285101680887 0 0 0 0 41.256324341600703 -16.793243983249653 0 -16.793243983249653 15.167000505633268 0 0 0 0 546.25414379275753 62.956466705410378 0 62.956466705410378 -166.90726379407829 0 0 0 0 902.58679113106564 264.24191775233504 0 264.24191775233504 -53.21937318520304 0 0 0 0 0.81771084543274597 6.4622250887180854 0 6.4622250887180854 -2.0290695210355869 0 0 0 0 70.906374330312246 199.4430224399955 0 199.4430224399955 398.28951527134905 0 0 0 0 60.15723863200401 43.566023974891507 0 43.566023974891507 -12.400059627314988 0 0 0 0 11.551892557884235 5.6889201506508584 0 5.6889201506508584 -7.6415917898909651 0 0 0 0 146.90086794523893 16.603623551829955 0 16.603623551829955 -51.825578317132567 0 0 0 0 -190.32898210319399 -169.49181389335956 0 -169.49181389335956 37.393660842011968 0 0 0 0 144.5695632971765 -131.57271392443215 0 -131.57271392443215 -161.03392382730186 0 0 0 0 86.273687718920598 -45.572708944495311 0 -45.572708944495311 -0.10647864492004244 0 0 0 0 470.56443775935622 -48.652697003247653 0 -48.652697003247653 -188.20174019466947 0 0 0 0 90.331881443206839 -21.542581977124541 0 -21.542581977124541 -7.2010961882060656 0 0 0 0 -50.587072037073085 -80.742648692676369 0 -80.742648692676369 -62.67086804925782 0 0 0 0 83.109063211977627 -44.840476288334685 0 -44.840476288334685 -11.58313899177665 0 0 0 0 13.520578644551847 -24.822865524309897 0 -24.822865524309897 -6.1674865396355649 0 0 0 0 66.456535475389501 -3.6108273619609825 0 -3.6108273619609825 76.371136704442847 0 0 0 0 77.375534983528041 -11.77704589206753 0 -11.77704589206753 -9.1165510149687954 0 0 0 0 59.475882733342587 -21.27944686469209 0 -21.27944686469209 -14.915740411209299 0 0 0 0 47.944020103968157 -28.487577664849205 0 -28.487577664849205 -1.4216135080562182 0 0 0 0 40.092770926664414 -22.424503382414954 0 -22.424503382414954 5.3353248960263651 0 0 0 0 58.050627686837416 -49.697550306934076 0 -49.697550306934076 27.774541499584213 0 0 0 0 142.29230797931791 -113.19372481476304 0 -113.19372481476304 -40.006524887319756 0 0 0 0 24.97570517067652 -48.6596399574114 0 -48.6596399574114 1.1743299760046284 0 0 0 0 18.203353708386722 -4.4610466247953298 0 -4.4610466247953298 -16.375178198983324 0 0 0 0 0.12571528057873493 -1.8638738328232591 0 -1.8638738328232591 -16.378636132390923 0 0 0 0 150.99506528565689 -28.517552836122832 0 -28.517552836122832 -41.800158985546659 0 0 0 0 -9.7855264472727868 -11.749180063817846 0 -11.749180063817846 -20.854184995694368 0 0 0 0 -6.2079881744575687 -10.724531633578465 0 -10.724531633578465 -32.469014056944843 0 0 0 0 92.339395761242486 -92.813747760432193 0 -92.813747760432193 51.692601190157404 0 0 0 0 0.14085521991599137 -0.12527978166058773 0 -0.12527978166058773 -1.6600398779875127 0 0 0 0 205.88061742739592 -112.33962974468413 0 -112.33962974468413 45.644601313114947 0 0 0 0 1.5383217946539567 -2.2811109447850271 0 -2.2811109447850271 1.3183316096934119 0 0 0 0 4.0815067329822341 15.294125375332669 0 15.294125375332669 15.127271431996292 0 0 0 0 125.79936409358197 -163.07288788944152 0 -163.07288788944152 43.117978646947563 0 0 0 0 94.449592905693862 -115.54226748641406 0 -115.54226748641406 128.75848775701377 0 0 0 0 24.908599359434447 0.24459653704411721 0 0.24459653704411721 -144.33585009121725 0 0 0 0 0.075377236677155679 -0.21711668187272082 0 -0.21711668187272082 -0.03391119976239021 0 0 0 0 99.80900751331319 -209.13806132667398 0 -209.13806132667398 225.60238747228993 0 0 0 0 0.64043068084720289 -19.04919029662949 0 -19.04919029662949 -22.514258680175544 0 0 0 0 77.63188337907377 -128.97587361239187 0 -128.97587361239187 -19.044204766893927 0 0 0 0 -11.818245182752435 -22.967795868540406 0 -22.967795868540406 50.67657587808776 0 0 0 0 -18.474829380076699 -39.523785390180592 0 -39.523785390180592 12.415303419472366 0 0 0 0 -26.892411185166566 -0.1850688946972241 0 -0.1850688946972241 33.270583843320424 0 0 0 0 -10.562450983195959 -15.654072750199632 0 -15.654072750199632 -15.381340786840155 0 0 0 0 -11.054033016182075 -18.061792975570143 0 -18.061792975570143 -20.470626130851201 0 0 0 0 -25.647445014416007 -1.5600556872067841 0 -1.5600556872067841 2.7939257830221322 0 0 0 0 -20.236615875677671 1.0128973535295245 0 1.0128973535295245 -8.2603288103744035 0 0 0 0 -21.61680150221946 12.594904807596322 0 12.594904807596322 3.6732759153621828 0 0 0 0 -16.035559317213483 23.085035527709806 0 23.085035527709806 -3.333991254865964 0 0 0 0 -23.674998127827166 17.537295653549251 0 17.537295653549251 -4.4190027746367377 0 0 0 0 -10.81216590092663 15.061546252843755 0 15.061546252843755 -12.595531300855328 0 0 0 0 -17.381161643337691 10.329902954570343 0 10.329902954570343 -8.5834160175642182 0 0 0 0 -23.963332566629106 -1.8115998678895266 0 -1.8115998678895266 87.753247384745237 0 0 0 0 -24.64966963876941 9.6041841577450668 0 9.6041841577450668 19.638140792803824 0 0 0 0 -24.555353689712319 14.684602093308172 0 14.684602093308172 24.220187010753762 0 0 0 0 -22.135260540191666 36.688318707501367 0 36.688318707501367 10.47280535462005 0 0 0 0 -24.1517852343095 30.059461947030059 0 30.059461947030059 31.907079924131608 0 0 0 0 -15.698280159102069 42.9190603209193 0 42.9190603209193 -24.480973197023104 0 0 0 0 -32.341724354526377 -14.54079122701728 0 -14.54079122701728 -97.847613817178853 0 0 0 0 -24.096181756809528 38.901857015395763 0 38.901857015395763 -48.736206689895425 0 0 0 0 -2.8629626065157936 28.229856120263207 0 28.229856120263207 -75.532008973330903 0 0 0 0 -10.946878188056871 22.095621113061952 0 22.095621113061952 -35.616188467845404 0 0 0 0 -15.320451189512823 29.112984108042951 0 29.112984108042951 -24.677819489490503 0 0 0 0 -15.169991799193667 26.11062746080529 0 26.11062746080529 -23.326083041663878 0 0 0 0 -5.3706970320927212 15.060876778985403 0 15.060876778985403 -22.445880231051362 0 0 0 0 -12.934626648100675 19.699530190200221 0 19.699530190200221 -22.672549153572163 0 0 0 0 1.9456176043977393 -1.7638334192126592 0 -1.7638334192126592 -25.330485348667025 0 0 0 0 -2.6434810202845256 12.320310761056589 0 12.320310761056589 -37.669904922298883 0 0 0 0 -4.3547202623885823 20.120738778713985 0 20.120738778713985 -41.645094849595353 0 0 0 0 -5.9652689726135577 22.479731259001937 0 22.479731259001937 -42.251304480406361 0 0 0 0 1.833697108013439 0.3772431221188981 0 0.3772431221188981 -60.99218905277462 0 0 0 0 4.5873371763132127 -1.0031882219225139 0 -1.0031882219225139 -28.275486662018238 0 0 0 0 2.0261167717308126 -11.369787201019392 0 -11.369787201019392 -9.7966797271074029 0 0 0 0 6.9836282794931321 14.327328797505743 0 14.327328797505743 -81.838309429776473 0 0 0 0 12.888741389917882 -2.8077740401922622 0 -2.8077740401922622 0.16015491387999159 0 0 0 0 6.6491998982892255 -120.71380510756399 0 -120.71380510756399 -304.33884271364218 0 0 0 0 2.3390443106179362 0.10005973860271622 0 0.10005973860271622 -0.030124215074591509 0 0 0 0 32.452952034727787 20.3512479963224 0 20.3512479963224 -59.540687950111078 0 0 0 0 -52.10366103184424 -140.52442811603942 0 -140.52442811603942 -227.37408232343296 0 0 0 0 -10.774157393680071 106.10730183676333 0 106.10730183676333 422.19196019195624 0 0 0 0 109.67065369960619 29.060839327752547 0 29.060839327752547 256.20932162501958 0 0 0 0 -36.283578213098735 193.98550681063671 0 193.98550681063671 223.58517277668761 0 0 0 0 156.09381948744704 289.91430565413521 0 289.91430565413521 124.31019105741223 0 0 0 0 -30.708353227750194 95.025788159020067 0 95.025788159020067 150.59941857694594 0 0 0 0 -0.82477988704962968 -1.5226234581235105 0 -1.5226234581235105 -2.1839213688355921 0 0 0 0 -275.57642168874736 50.236482977330525 0 50.236482977330525 158.2104033023752 0 0 0 0 3.0619008338886324 -1.3726402055505815 0 -1.3726402055505815 -5.393551697800973 0 0 0 0 -47.508238686015829 173.59903372022927 0 173.59903372022927 -195.96751576171664 0 0 0 0 2.7197472601692425 -0.23766053684289545 0 -0.23766053684289545 -11.672208310962674 0 0 0 0 3.3921079925823108 -0.53933170501072603 0 -0.53933170501072603 -2.1433360629432241 0 0 0 0 -2.0411959749617381 1.685458917863798 0 1.685458917863798 -15.015725371749795 0 0 0 0 1.5886931291315705 6.0740890529050375 0 6.0740890529050375 -20.961401594694507 0 0 0 0 0.54951744100253563 -3.6924677624090236 0 -3.6924677624090236 -5.5903179073345655 0 0 0 0 4.8061656023928663 -7.1383809301587462 0 -7.1383809301587462 -15.023322077295916 0 0 0 0 3.2665030424541328 5.572350542029767 0 5.572350542029767 -22.15162599778705 0 0 0 0 0.69079607485424077 2.1176414021563019 0 2.1176414021563019 -13.558489972357957 0 0 0 0 -0.25311050100572174 6.0886940775677658 0 6.0886940775677658 -22.321906035282154 0 0 0 0 -0.66591930156573653 5.7762616500463082 0 5.7762616500463082 -20.87556109174443 0 0 0 0 -4.1236463903769618 4.1087065608586499 0 4.1087065608586499 -14.673899113810421 0 0 0 0 2.2385592249374895 3.5791232899955503 0 3.5791232899955503 -22.205077751334102 0 0 0 0 -9.0855789205961628 12.874118572450243 0 12.874118572450243 -24.310242172365861 0 0 0 0 412.74047549017268 320.65993237423686 0 320.65993237423686 -72.300796567114048 0 0 0 0 -156.15827006135623 664.39571401604644 0 664.39571401604644 -133.22303782690324 0 0 0 0 86.643592648957565 95.889243774539182 0 95.889243774539182 124.94302087654432 0 0 0 0 177.92214874257479 162.58549474613801 0 162.58549474613801 35.024051307405898 0 0 0 0 63.852196718660707 -25.278157709205743 0 -25.278157709205743 -198.35476594974898 0 0 0 0 228.27669504373625 105.88586143765042 0 105.88586143765042 -286.58307850677556 0 0 0 0 -136.12201971240211 -374.0849140084897 0 -374.0849140084897 116.57341693878698 0 0 0 0 224.34190217738796 86.526416966148645 0 86.526416966148645 -248.41570929085356 0 0 0 0 242.43053185366443 80.268309191122171 0 80.268309191122171 -320.81668867985718 0 0 0 0 -1.633766794171633 0.91950820766633257 0 0.91950820766633257 -5.690961538280348 0 0 0 0 -19.897768448390707 1.8028825354582523 0 1.8028825354582523 -6.7871704032045272 0 0 0 0 0.95162446168150083 1.2845033955302014 0 1.2845033955302014 -17.623927347296366 0 0 0 0 -16.241134885574866 3.7931080444204781 0 3.7931080444204781 -14.673696473780383 0 0 0 0 97.451765488696765 -95.690531890664261 0 -95.690531890664261 -31.19041754963655 0 0 0 0 315.48648262741335 66.935863527644187 0 66.935863527644187 -88.575709429719609 0 0 0 0 103.49914251548398 64.003869233041314 0 64.003869233041314 16.425739734624585 0 0 0 0 76.608796068248921 -27.790733304046626 0 -27.790733304046626 -154.69874590737163 0 0 0 0 57.492143652153118 -43.526918772483477 0 -43.526918772483477 25.555109000988846 0 0 0 0 674.75533596385503 20.546311296930078 0 20.546311296930078 119.25989723526892 0 0 0 0 -10.136172349986737 -279.48445662952963 0 -279.48445662952963 -462.39877672706007 0 0 0 0 336.49102020562714 36.279679579072763 0 36.279679579072763 -547.4936043576563 0 0 0 0 243.30952533398522 74.881758284538932 0 74.881758284538932 -365.37110893629142 0 0 0 0 174.37747525401937 39.63011482380989 0 39.63011482380989 -275.53534900144041 0 0 0 0 232.06930698311044 108.03764848820538 0 108.03764848820538 -330.54942323487649 0 0 0 0 304.66321631025494 128.60322166178321 0 128.60322166178321 -278.40804827096326 0 0 0 0 166.63676191491686 62.461731367093307 0 62.461731367093307 -66.218115084177043 0 0 0 0 164.04934452466841 180.37817062872955 0 180.37817062872955 135.32655557994167 0 0 0 0 275.75983450781496 207.29733523484174 0 207.29733523484174 -111.73114308906042 0 0 0 0 -62.408192754410265 156.03918715806981 0 156.03918715806981 -128.45776245705747 0 0 0 0 241.95817048074241 -180.71077729988383 0 -180.71077729988383 239.61920354344875 0 0 0 0 697.52123679543729 -417.65465354727348 0 -417.65465354727348 232.41764594902725 0 0 0 0 2061.4426177701571 50.010463727300362 0 50.010463727300362 -62.773059715121917 0 0 0 0 399.41602993609558 -0.81781072966123247 0 -0.81781072966123247 250.85470413168377 0 0 0 0 410.44729834528698 223.17197936268667 0 223.17197936268667 137.19033035161374 0 0 0 0 341.13462414673995 51.467988616712091 0 51.467988616712091 149.18222234946552 0 0 0 0 620.48613315100374 164.09226902809178 0 164.09226902809178 135.27934659864923 0 0 0 0 3497.0099854670771 1782.7417421957712 0 1782.7417421957712 737.51326546820019 0 0 0 0 -1085.7250190138475 -347.18250334806783 0 -347.18250334806783 477.0128511087583 0 0 0 0 17.242734877635129 -10.743624971319313 0 -10.743624971319313 9.056858884678924 0 0 0 0 2.2280909285099995 -4.0198719842925286 0 -4.0198719842925286 6.8848183122533424 0 0 0 0 -1189.5797063588834 -615.47454910326849 0 -615.47454910326849 -209.59195409553521 0 0 0 0 68.056736087814443 -1274.1787834188981 0 -1274.1787834188981 -377.37726459505757 0 0 0 0 1726.5288843233502 394.19133543865456 0 394.19133543865456 150.82102380113056 0 0 0 0 42.737258968826808 -32.642309156435147 0 -32.642309156435147 19.437266123515908 0 0 0 0 1956.5398224133969 1126.8639880386802 0 1126.8639880386802 467.39001019635157 0 0 0 0 3499.7080408975817 796.83750248065451 0 796.83750248065451 -254.09503334686465 0 0 0 0 1878.1934108807036 720.00616901179058 0 720.00616901179058 133.02501695287259 0 0 0 0 674.01845420912241 33.963414302744042 0 33.963414302744042 331.29531004847797 0 0 0 0 3464.0827815491357 68.267117844703463 0 68.267117844703463 -470.91679633534113 0 0 0 0 2153.148088338754 162.32429526824342 0 162.32429526824342 -316.24750369021098 0 0 0 0 3499.3298188186268 -141.68126485546975 0 -141.68126485546975 587.31966913346935 0 0 0 0 4464.3911707566076 1335.2501897502987 0 1335.2501897502987 206.46356341917431 0 0 0 0 4857.284977557676 -37.259329240450938 0 -37.259329240450938 583.96371982018343 0 0 0 0 3501.2045512930927 974.31851884591424 0 974.31851884591424 561.45282132163265 0 0 0 0 13.352313539074316 -6.9248736252602754 0 -6.9248736252602754 2.4249122055309522 0 0 0 0 214.80260259877832 -748.49501309215088 0 -748.49501309215088 180.06981203001556 0 0 0 0 15.203074767443468 145.54606128440014 0 145.54606128440014 223.70681912813365 0 0 0 0 1621.9085756365166 -970.83378596138505 0 -970.83378596138505 201.83457311079269 0 0 0 0 1388.3832768259381 95.42737708531439 0 95.42737708531439 160.02928241765051 0 0 0 0 692.52594405173295 315.59697495686424 0 315.59697495686424 392.46808511222446 0 0 0 0 690.99310913814406 290.97867462320761 0 290.97867462320761 70.549812455467091 0 0 0 0 320.21388447194477 195.11606616198765 0 195.11606616198765 184.78246386679717 0 0 0 0 323.57053255134088 -68.706662664326245 0 -68.706662664326245 36.632169226047836 0 0 0 0 888.54024862458027 366.22640421065444 0 366.22640421065444 -66.221570214206849 0 0 0 0 753.2076989568377 -169.0245892207397 0 -169.0245892207397 21.690037100900554 0 0 0 0 535.28701709622692 346.38523305832427 0 346.38523305832427 1.59108078395127 0 0 0 0 419.25551453098524 523.02873901373289 0 523.02873901373289 47.406897491671089 0 0 0 0 615.28427190426737 501.419657387499 0 501.419657387499 -34.844572112991727 0 0 0 0 236.01322662604798 -249.58597848728238 0 -249.58597848728238 150.26037413568497 0 0 0 0 27.773797759524058 -18.539158706971136 0 -18.539158706971136 4.3044001438126775 0 0 0 0 228.86129695783166 287.79678565108782 0 287.79678565108782 306.19432428849495 0 0 0 0 791.73607156093203 506.06237606892091 0 506.06237606892091 173.56431451772738 0 0 0 0 8.0088282853499777 0.59884465041541546 0 0.59884465041541546 1.5327750730315235 0 0 0 0 960.67891533040529 321.46917996290586 0 321.46917996290586 -108.2019297954098 0 0 0 0 1898.0619714422864 245.48007227764739 0 245.48007227764739 -170.57991327160283 0 0 0 0 3498.549906776374 445.93380073794566 0 445.93380073794566 -750.73490198264005 0 0 0 0 4111.6671493563044 1320.761644157722 0 1320.761644157722 316.94109270082242 0 0 0 0 2044.3018558576296 720.95088259633394 0 720.95088259633394 150.94994709735957 0 0 0 0 1706.5557184704203 105.23664568039017 0 105.23664568039017 -99.144831068015378 0 0 0 0 1752.2997732750446 155.17640751055973 0 155.17640751055973 -255.42217156817097 0 0 0 0 3492.1600438688329 -677.45632031070966 0 -677.45632031070966 -451.28076382553007 0 0 0 0 3145.4123775808184 38.64986400598724 0 38.64986400598724 -250.28424451076791 0 0 0 0 94.603837736067362 161.24677867997423 0 161.24677867997423 241.55695008012424 0 0 0 0 28.632399638436283 -4.434460175850294 0 -4.434460175850294 0.70921372480487843 0 0 0 0 426.11860188710489 -39.273149462023525 0 -39.273149462023525 -206.37350037979832 0 0 0 0 332.25018033804736 4.4688250119930046 0 4.4688250119930046 59.069040524377385 0 0 0 0 62.989949512582825 155.75587149942464 0 155.75587149942464 56.038882401155739 0 0 0 0 856.22142157357302 545.26455283625967 0 545.26455283625967 159.38812034886593 0 0 0 0 984.42827283452425 281.24006608933121 0 281.24006608933121 -66.290930127883939 0 0 0 0 891.58769838411899 113.8621635193993 0 113.8621635193993 -212.10989391621484 0 0 0 0 628.09994576100326 218.34760658805189 0 218.34760658805189 23.211507665493627 0 0 0 0 297.96175095189756 81.067285946632097 0 81.067285946632097 10.285373900336253 0 0 0 0 755.64200684140906 -113.78787227548986 0 -113.78787227548986 -132.41832178524305 0 0 0 0 391.72640911935014 -33.316184120990997 0 -33.316184120990997 -26.566801657251482 0 0 0 0 819.87863053444653 68.257460390530284 0 68.257460390530284 -231.2177194946799 0 0 0 0 1358.630516501009 -205.96203344614975 0 -205.96203344614975 -220.25111037363322 0 0 0 0 -275.35342629042862 -205.90268330693277 0 -205.90268330693277 -279.32503088801508 0 0 0 0 1427.3337127481354 341.9622724314807 0 341.9622724314807 -442.078673666898 0 0 0 0 -121.70388195639498 -684.42695904563971 0 -684.42695904563971 -405.44508538667901 0 0 0 0 5.0543967544030011 -2.9260002980143511 0 -2.9260002980143511 1.0464049143072121 0 0 0 0 868.71975330737041 471.29252107913055 0 471.29252107913055 -340.72054859165826 0 0 0 0 5.5809311586682497 -2.8307910686641193 0 -2.8307910686641193 0.55496872243873363 0 0 0 0 475.02515646737538 -946.05929807165955 0 -946.05929807165955 -257.67196600595804 0 0 0 0 -217.50241965780879 -188.98336282312451 0 -188.98336282312451 -423.5360125807328 0 0 0 0 3476.7139840129385 -345.29817274931389 0 -345.29817274931389 -578.92435159418142 0 0 0 0 3498.945794143423 1305.6710105775589 0 1305.6710105775589 296.65320029318815 0 0 0 0 7.5997817792303266 -4.7168378632503689 0 -4.7168378632503689 1.0791756877752197 0 0 0 0 -230.39608682120888 -269.73461014192264 0 -269.73461014192264 -303.95399299428152 0 0 0 0 -255.27883311941696 -320.23272238808954 0 -320.23272238808954 -141.87234741296959 0 0 0 0 115.4534954823248 -119.51942906737963 0 -119.51942906737963 -52.696663611332269 0 0 0 0 643.74857845241786 -606.12985395170267 0 -606.12985395170267 -399.21976755731259 0 0 0 0 544.0335385627186 -52.014150887528217 0 -52.014150887528217 -167.86495934975005 0 0 0 0 416.53855602790281 -155.5573467881984 0 -155.5573467881984 -56.896825325581915 0 0 0 0 12.140771577722482 -13.531987336151126 0 -13.531987336151126 5.9094319448463519 0 0 0 0 2140.188478326103 -170.41389227978021 0 -170.41389227978021 -460.15260134378013 0 0 0 0 3500.1731439433643 311.94252066856205 0 311.94252066856205 -928.71012364773026 0 0 0 0 2295.5153352021371 869.01205507508087 0 869.01205507508087 218.30638361666175 0 0 0 0 1376.9161991579022 -193.74534192611225 0 -193.74534192611225 -1058.1146074164346 0 0 0 0 2884.9792443747283 -148.95606101954269 0 -148.95606101954269 -1065.3046422004882 0 0 0 0 1017.1356459971648 88.820188951658338 0 88.820188951658338 -45.858879229224385 0 0 0 0 -625.6287819531899 -1590.6560478420072 0 -1590.6560478420072 326.38622681821107 0 0 0 0 937.97105675480998 150.10208986321413 0 150.10208986321413 -88.381153443900757 0 0 0 0 9.0634057085135638 -13.627844282087878 0 -13.627844282087878 10.689723276786271 0 0 0 0 3491.7597047270101 -1194.9184100984658 0 -1194.9184100984658 -1101.9118065224695 0 0 0 0 1180.8348590038149 -1947.951509505576 0 -1947.951509505576 116.35860854424081 0 0 0 0 3.1403847354570615 -2.0035567172968687 0 -2.0035567172968687 -0.20317741463722783 0 0 0 0 492.09463012752531 160.73469311190593 0 160.73469311190593 188.56203989296591 0 0 0 0 206.15913755289512 -161.28066195813722 0 -161.28066195813722 -193.05143077377556 0 0 0 0 1035.3069761472434 -16.460697608901455 0 -16.460697608901455 84.163369083897805 0 0 0 0 931.68420500463981 3.0438829844431439 0 3.0438829844431439 75.043544916009978 0 0 0 0 1011.509257117672 67.874950102561343 0 67.874950102561343 113.91704341521449 0 0 0 0 840.92483329157403 67.386407691430463 0 67.386407691430463 35.888294005819375 0 0 0 0 1006.9476224519076 -26.595903466878667 0 -26.595903466878667 -375.22088130646694 0 0 0 0 776.6659499534544 -335.03743644889812 0 -335.03743644889812 -320.26287465607902 0 0 0 0 330.42817214870593 -80.161585411513101 0 -80.161585411513101 -248.21204307547623 0 0 0 0 404.28039361348783 -204.83625846446694 0 -204.83625846446694 -210.02846362132982 0 0 0 0 726.796125089626 -8.8220534110089375 0 -8.8220534110089375 -272.28580907276898 0 0 0 0 899.90602532989578 -127.35034421491471 0 -127.35034421491471 -353.61102836950971 0 0 0 0 839.59642982036166 -161.17596613917738 0 -161.17596613917738 -296.20863901310531 0 0 0 0 1187.8185567812907 -94.691278973668872 0 -94.691278973668872 -349.92999309487681 0 0 0 0 773.23304213738356 -15.311381110930149 0 -15.311381110930149 34.156935870175317 0 0 0 0 770.24452215762813 -44.10233312305526 0 -44.10233312305526 -227.457547911463 0 0 0 0 461.78681655193941 -89.269797063100029 0 -89.269797063100029 -173.15847639655772 0 0 0 0 387.68785945877903 -91.448377359853311 0 -91.448377359853311 -178.69986861104027 0 0 0 0 104.33086946928233 -76.769247434285262 0 -76.769247434285262 -255.38610023585542 0 0 0 0 466.86414838114752 -54.534760042397956 0 -54.534760042397956 -258.07315652598902 0 0 0 0 183.77873316803743 25.58499435325615 0 25.58499435325615 -158.18281327920474 0 0 0 0 -208.55331133685104 34.236582521134949 0 34.236582521134949 -37.673488135156958 0 0 0 0 12.053792273149696 -7.8058236685605671 0 -7.8058236685605671 -9.8028656945265009 0 0 0 0 -163.77379551273771 -190.25044574085575 0 -190.25044574085575 -169.10954625966224 0 0 0 0 10.473388286365662 46.65950399491939 0 46.65950399491939 -361.18750462188279 0 0 0 0 -370.99529745253676 32.445443577104584 0 32.445443577104584 -209.56030470564315 0 0 0 0 -253.21190917420972 -226.8660882545619 0 -226.8660882545619 -552.8849983660441 0 0 0 0 -15.63650456853793 74.505954384500228 0 74.505954384500228 -560.65932263807304 0 0 0 0 -152.01327864970517 -62.107485598970413 0 -62.107485598970413 -284.94053707487558 0 0 0 0 -8.0501460120285628 142.31272565273935 0 142.31272565273935 -201.95020534260038 0 0 0 0 -77.873774070758373 -77.20927486666028 0 -77.20927486666028 -402.64562995962478 0 0 0 0 18.165838970322511 138.23775050106292 0 138.23775050106292 -442.8874752640827 0 0 0 0 -105.0789536900993 -16.327899944472733 0 -16.327899944472733 -154.07862441637562 0 0 0 0 -227.51737158666219 -59.495180039372201 0 -59.495180039372201 -162.22629667747162 0 0 0 0 -86.254496475594351 -42.666420889994953 0 -42.666420889994953 -279.45099194756017 0 0 0 0 -123.46468475158326 54.348105757051769 0 54.348105757051769 -221.54644172728041 0 0 0 0 -67.525857200162136 -12.074089985226749 0 -12.074089985226749 -153.02670991818695 0 0 0 0 -93.405638974654721 18.199653433509411 0 18.199653433509411 -143.23870349415645 0 0 0 0 -133.99932476275717 2.1693451663621204 0 2.1693451663621204 -142.80273371594785 0 0 0 0 -68.958821718289983 50.088086916925192 0 50.088086916925192 -155.19237008919185 0 0 0 0 -105.02733282152622 -17.554460652603382 0 -17.554460652603382 -158.8559150118158 0 0 0 0 160.60859428927506 -51.238324793816446 0 -51.238324793816446 -155.69104577371684 0 0 0 0 164.09223146601289 3.2131472759516555 0 3.2131472759516555 -199.9160561070172 0 0 0 0 -11.24496793684375 61.943897694190809 0 61.943897694190809 -176.69950480655027 0 0 0 0 -21.403036146402883 -20.065962050277903 0 -20.065962050277903 -127.69325988945729 0 0 0 0 -48.557077408884652 26.937136798191887 0 26.937136798191887 -151.09300585604728 0 0 0 0 281.32142084957013 -9.9656808193949473 0 -9.9656808193949473 -211.21261163591669 0 0 0 0 100.23532841741326 -134.19652135062859 0 -134.19652135062859 -142.1459311450526 0 0 0 0 156.066444973123 -307.82489440191728 0 -307.82489440191728 -201.66738318226226 0 0 0 0 -180.08406489059416 -33.466332887968292 0 -33.466332887968292 -153.90030444265733 0 0 0 0 -110.17794689339644 93.50883455065582 0 93.50883455065582 -289.29391027134329 0 0 0 0 -82.367131219696603 29.272491229358593 0 29.272491229358593 -201.03802383549669 0 0 0 0 -62.837382002420782 8.1997994523700299 0 8.1997994523700299 -174.0822786568433 0 0 0 0 -90.845219834824093 12.051804656652394 0 12.051804656652394 -171.7622157670346 0 0 0 0 -94.669841127724794 2.9739300479054691 0 2.9739300479054691 -175.53861560665109 0 0 0 0 -82.801709905943426 -23.305099300095975 0 -23.305099300095975 -157.36801593805467 0 0 0 0 -43.94776379358882 -16.811645152291192 0 -16.811645152291192 -251.66904366003109 0 0 0 0 -46.756149174292659 -27.197139905450712 0 -27.197139905450712 -206.6327031219671 0 0 0 0 -20.271265343035338 -24.392653200675795 0 -24.392653200675795 -249.93191249782421 0 0 0 0 -23.257704299167926 -0.51895678405719536 0 -0.51895678405719536 -440.53172734993541 0 0 0 0 -40.443800274242676 -78.721911065406516 0 -78.721911065406516 -224.97128918977683 0 0 0 0 4.5743773234510599 -1.749295454201949 0 -1.749295454201949 -0.27076294254735611 0 0 0 0 -62.143994757338078 -110.83344394443975 0 -110.83344394443975 -236.72995398969465 0 0 0 0 -25.747375881030166 -48.029289621491671 0 -48.029289621491671 -274.78830207849751 0 0 0 0 -23.646397865290055 -62.375067223615815 0 -62.375067223615815 -231.32468230522773 0 0 0 0 -130.72120275344059 166.27228104501319 0 166.27228104501319 231.30870411601973 0 0 0 0 -166.16463851863227 143.15459988792463 0 143.15459988792463 -439.34860767074952 0 0 0 0 0.97694442183465924 0.90507186223157277 0 0.90507186223157277 -0.99895795495899975 0 0 0 0 -38.933163852190773 -197.98992363173511 0 -197.98992363173511 -386.21905041959963 0 0 0 0 -6.1734414515813114 -94.925262507265757 0 -94.925262507265757 -200.34521848158556 0 0 0 0 -11.273370347356831 -81.521516853600588 0 -81.521516853600588 -173.02665560076184 0 0 0 0 57.509372824715683 -30.892388219136819 0 -30.892388219136819 -180.25255372797028 0 0 0 0 13.434707267020713 -81.889615416077731 0 -81.889615416077731 -253.6009883931365 0 0 0 0 -5.9561250040278537 -73.209675074859206 0 -73.209675074859206 -254.49799789077633 0 0 0 0 -16.063456150281127 -64.868270524617856 0 -64.868270524617856 -257.70289468865894 0 0 0 0 -35.11511595241609 -79.940315221632545 0 -79.940315221632545 -235.56630131764632 0 0 0 0 -20.545837991405278 -91.557751357803227 0 -91.557751357803227 -227.76415450766626 0 0 0 0 -22.663061986022512 -58.222225787465959 0 -58.222225787465959 -218.59851901881922 0 0 0 0 -14.19883804242636 -75.915027143717396 0 -75.915027143717396 -190.3303753898922 0 0 0 0 -39.253907844038622 -37.194405467483421 0 -37.194405467483421 -196.89407856649689 0 0 0 0 -39.47974638081314 -37.611045264426082 0 -37.611045264426082 -162.60002975583484 0 0 0 0 21.865787529495719 -45.315994721820203 0 -45.315994721820203 -171.87472965735384 0 0 0 0 25.902384279776015 -21.755317866233895 0 -21.755317866233895 -119.8904549598098 0 0 0 0 12.202457430656068 -49.789723284850879 0 -49.789723284850879 -197.34624425225275 0 0 0 0 6.7129126911386265 -53.872212779997994 0 -53.872212779997994 -140.40252705100329 0 0 0 0 87.084751842463447 -33.2061545832251 0 -33.2061545832251 -163.47123354080168 0 0 0 0 106.08923771138507 13.314297140938891 0 13.314297140938891 -146.49172912334569 0 0 0 0 38.309173249966989 -17.965019632634494 0 -17.965019632634494 -114.39002611237936 0 0 0 0 -52.4202097200141 -55.604127372826397 0 -55.604127372826397 -183.43892486581692 0 0 0 0 -29.997052160681051 -18.732013815487051 0 -18.732013815487051 -143.66752534858142 0 0 0 0 33.97166207004193 -1.4321772419563672 0 -1.4321772419563672 -177.34000208321916 0 0 0 0 -19.081420276284916 -18.995459959906213 0 -18.995459959906213 -163.24963423158977 0 0 0 0 -31.958191414312751 0.78782430480015364 0 0.78782430480015364 -193.24900165572748 0 0 0 0 -10.841119848333619 49.865521921266293 0 49.865521921266293 -175.15530505607444 0 0 0 0 2.4813429693022044 73.864107345385719 0 73.864107345385719 -319.67593883900884 0 0 0 0 -29.722366208021413 10.094792714413131 0 10.094792714413131 -247.4773365451606 0 0 0 0 -81.233408924244941 -60.228947486349071 0 -60.228947486349071 -267.81352622302029 0 0 0 0 10.225877553624741 54.459233892534826 0 54.459233892534826 -190.29155114828598 0 0 0 0 -44.135785620354 107.18040260245652 0 107.18040260245652 -137.588204041773 0 0 0 0 76.6557096847514 10.200121364378344 0 10.200121364378344 -72.09597433589056 0 0 0 0 24.755265316587611 18.807907572658735 0 18.807907572658735 -109.5065384961099 0 0 0 0 74.771498389913177 28.579861810532179 0 28.579861810532179 -146.45066857385115 0 0 0 0 18.642234804382497 -120.98717935150933 0 -120.98717935150933 121.42870337551813 0 0 0 0 1.2661888072252623 103.14869969674714 0 103.14869969674714 -105.57588311455038 0 0 0 0 14.607648290972065 -92.646357580720178 0 -92.646357580720178 -36.018086808120415 0 0 0 0 28.434626450312408 -2.9582352188056689 0 -2.9582352188056689 -23.361073399064935 0 0 0 0 97.422240199184671 5.7744897478737585 0 5.7744897478737585 -135.99404459557263 0 0 0 0 -3.9618307628552429 87.780510373075458 0 87.780510373075458 -137.33620199481757 0 0 0 0 42.291980391562937 20.720804864046702 0 20.720804864046702 7.4973392747587084 0 0 0 0 -126.75299053610433 -7.0454716445053975 0 -7.0454716445053975 39.276512730939544 0 0 0 0 1.866790406607703 -25.795208408276075 0 -25.795208408276075 -23.196208352741852 0 0 0 0 -132.34384780202163 -21.822494686722536 0 -21.822494686722536 0.30935922759653067 0 0 0 0 56.817965074889798 -30.336906540285668 0 -30.336906540285668 12.431332289550596 0 0 0 0 56.235651092170883 -41.620900067893899 0 -41.620900067893899 -87.623293397046496 0 0 0 0 87.183014753554744 12.531541795527332 0 12.531541795527332 -33.6695221344728 0 0 0 0 221.02932614519523 -123.01432907767688 0 -123.01432907767688 -44.198416087169363 0 0 0 0 4.8584242936574622 -28.224805320680659 0 -28.224805320680659 -22.208796980296448 0 0 0 0 -61.428234390139551 -68.426401847923501 0 -68.426401847923501 44.31921931722971 0 0 0 0 59.506190647339764 -127.06885988722085 0 -127.06885988722085 -96.338483469900439 0 0 0 0 39.996736336997856 -11.446922958736224 0 -11.446922958736224 -50.169091012259685 0 0 0 0 29.640910689414682 -12.718434245799102 0 -12.718434245799102 -3.3661846331379204 0 0 0 0 31.779657493103514 9.2578335224690136 0 9.2578335224690136 75.996450440523404 0 0 0 0 133.23595264318283 -32.943706858183759 0 -32.943706858183759 -79.119692126744667 0 0 0 0 94.314679705091066 86.170162695943475 0 86.170162695943475 94.947389286829093 0 0 0 0 4.7083242650167563 0.80340633051926247 0 0.80340633051926247 -0.82321893660091749 0 0 0 0 389.44681608047904 141.37010120443756 0 141.37010120443756 -9.0763367219806241 0 0 0 0 28.754403035705877 -64.500967302681516 0 -64.500967302681516 12.148519680320533 0 0 0 0 4.9045771539176002 -9.8723173928387133 0 -9.8723173928387133 -4.7316221327081589 0 0 0 0 -189.98323465583599 530.78993763956987 0 530.78993763956987 498.35996140668948 0 0 0 0 13.335435041916746 6.5501256056062402 0 6.5501256056062402 3.624273839573025 0 0 0 0 395.40507017202435 -4.6637660192368458 0 -4.6637660192368458 299.96335880661172 0 0 0 0 -156.52665271545993 -173.1975179863789 0 -173.1975179863789 261.06044664178808 0 0 0 0 124.22323064352531 162.21456388194656 0 162.21456388194656 202.96557154500397 0 0 0 0 536.75681489364524 684.07180500437983 0 684.07180500437983 481.00698540452322 0 0 0 0 1224.1406190326852 628.76441237689869 0 628.76441237689869 164.45583416491036 0 0 0 0 1397.4154181648864 23.973152103817711 0 23.973152103817711 77.408951238878672 0 0 0 0 699.12982903309967 -220.26540477765957 0 -220.26540477765957 761.913456210238 0 0 0 0 1608.3401712548257 736.94239285228764 0 736.94239285228764 677.81863283171981 0 0 0 0 1418.439948294395 -506.34564492247989 0 -506.34564492247989 148.36578572818598 0 0 0 0 1367.2797209979963 68.182791169317284 0 68.182791169317284 -188.06752741668424 0 0 0 0 784.37144672368595 171.35525008761761 0 171.35525008761761 -53.930180604647489 0 0 0 0 851.895235665992 302.1867735539106 0 302.1867735539106 155.75715228851823 0 0 0 0 825.28196166620546 107.51236596717536 0 107.51236596717536 171.94484696631162 0 0 0 0 676.50667412555049 209.18600383641456 0 209.18600383641456 -51.030663900053241 0 0 0 0 865.14525950691404 218.46053356026025 0 218.46053356026025 -191.67386449294281 0 0 0 0 752.78896826171331 6.0401147448042138 0 6.0401147448042138 -189.08781454114819 0 0 0 0 167.35978799319128 -34.53440503998911 0 -34.53440503998911 53.47100710898826 0 0 0 0 753.97999194785916 4.6343503163110427 0 4.6343503163110427 -188.02680419351941 0 0 0 0 546.90569440958643 -145.3981356669525 0 -145.3981356669525 -42.559801243850188 0 0 0 0 648.04474464325904 -351.16690867579905 0 -351.16690867579905 136.53035869909081 0 0 0 0 32.101018876629396 16.377872070538682 0 16.377872070538682 7.4712821978056958 0 0 0 0 370.15884703103802 288.54388666932778 0 288.54388666932778 -525.32083177781351 0 0 0 0 216.45319806909174 25.930274192345678 0 25.930274192345678 -60.660670820020869 0 0 0 0 224.22164750104639 -20.908023392754302 0 -20.908023392754302 -72.485958029205449 0 0 0 0 230.58446772610478 -8.7707541387686661 0 -8.7707541387686661 -109.27614003169936 0 0 0 0 519.42018174911937 -4.1975383843711143 0 -4.1975383843711143 -159.11625010357483 0 0 0 0 516.66188375726415 8.2937313698858475 0 8.2937313698858475 -186.90721571743552 0 0 0 0 519.03573701764253 104.67872324762047 0 104.67872324762047 -190.82923002488695 0 0 0 0 308.898627454706 -1.182250443434981 0 -1.182250443434981 -146.99122180122615 0 0 0 0 230.33285695967243 59.346371532702932 0 59.346371532702932 -130.19203671312403 0 0 0 0 150.80772161036657 -41.682880928322277 0 -41.682880928322277 -126.29232473489708 0 0 0 0 195.51296130865012 -4.7365176524796198 0 -4.7365176524796198 -139.83238244291982 0 0 0 0 113.24412986036259 41.656847264667249 0 41.656847264667249 -121.94641290959953 0 0 0 0 39.244818839506479 -19.115200705461348 0 -19.115200705461348 -106.27409652420027 0 0 0 0 383.37743924598908 81.826915917067481 0 81.826915917067481 -189.63132708651287 0 0 0 0 280.41028500339416 127.74601607738987 0 127.74601607738987 -128.41707711638696 0 0 0 0 576.17642497458655 193.26126505381225 0 193.26126505381225 -185.20579652659694 0 0 0 0 350.34285789897785 176.14670851990661 0 176.14670851990661 -153.54406180008982 0 0 0 0 367.39107120315748 121.79056976577988 0 121.79056976577988 -154.11447764648949 0 0 0 0 110.1366304912226 88.654012121949108 0 88.654012121949108 -88.572212156185515 0 0 0 0 259.2704735246989 227.42776847446027 0 227.42776847446027 -87.251338139779364 0 0 0 0 4.933461638589506 72.753215400596673 0 72.753215400596673 -7.4773908123966066 0 0 0 0 283.11015387639236 175.1773664789651 0 175.1773664789651 -104.64452307877991 0 0 0 0 0.27754248486598954 -14.56095579933708 0 -14.56095579933708 -139.58166719087876 0 0 0 0 18.671563754833187 -15.871138249098294 0 -15.871138249098294 -220.81498096737545 0 0 0 0 -61.803010797659226 -88.386826367961021 0 -88.386826367961021 -193.16568962201609 0 0 0 0 25.439426911521878 -19.893245082524572 0 -19.893245082524572 -156.08838891623645 0 0 0 0 68.114627938090052 -42.536973482008079 0 -42.536973482008079 -161.06033652671204 0 0 0 0 124.73789678917092 79.394940627674259 0 79.394940627674259 -118.401896276765 0 0 0 0 942.54311020428213 112.36441866844649 0 112.36441866844649 -316.15736148068299 0 0 0 0 1343.81147095497 103.70508719129543 0 103.70508719129543 -285.03213104853774 0 0 0 0 1242.6916213957538 47.519388913528374 0 47.519388913528374 -303.05242654991889 0 0 0 0 1094.98839719846 591.25353674946314 0 591.25353674946314 -47.807060717321484 0 0 0 0 666.59955754534894 279.95691913577377 0 279.95691913577377 -159.15413643234706 0 0 0 0 591.3162777743637 416.67870293133069 0 416.67870293133069 -24.676046419038698 0 0 0 0 605.81418888295593 245.12569471161464 0 245.12569471161464 -158.94834753957014 0 0 0 0 627.55723414081149 317.31292043443682 0 317.31292043443682 -153.71733316176233 0 0 0 0 928.44133776252966 243.40696303538306 0 243.40696303538306 -277.03225288964677 0 0 0 0 626.01040106539949 151.31037220051397 0 151.31037220051397 -256.15350188025184 0 0 0 0 785.8756153440263 238.77239132206478 0 238.77239132206478 -277.14152514659884 0 0 0 0 813.09161022858825 123.0375957174374 0 123.0375957174374 -312.87649257588942 0 0 0 0 837.16603106772527 109.57433970222981 0 109.57433970222981 -305.48238699796048 0 0 0 0 953.10285475571436 123.90780701459477 0 123.90780701459477 -304.56761253413345 0 0 0 0 1048.4044676972699 -93.512590275876761 0 -93.512590275876761 -256.95208378946882 0 0 0 0 823.19508642949017 46.767171163713122 0 46.767171163713122 -282.1615794231999 0 0 0 0 783.37610538991066 99.944239147930489 0 99.944239147930489 -287.94245533876096 0 0 0 0 775.20446306865051 124.67763394384681 0 124.67763394384681 -258.09165994010027 0 0 0 0 558.26406318812587 80.823489195001017 0 80.823489195001017 -238.00516878463804 0 0 0 0 726.29611793624645 146.1697507893569 0 146.1697507893569 -260.16860573275449 0 0 0 0 752.05594707022465 111.34040983636311 0 111.34040983636311 -291.78038398131559 0 0 0 0 712.45650559746355 74.692681476980397 0 74.692681476980397 -239.11527541299728 0 0 0 0 709.59534204439751 86.843207255857308 0 86.843207255857308 -254.04304349653876 0 0 0 0 894.21651205149465 64.557082967985821 0 64.557082967985821 -257.18233308571621 0 0 0 0 697.39551053250761 124.83682934663545 0 124.83682934663545 -243.06535140523408 0 0 0 0 688.53977883885091 171.11169474416715 0 171.11169474416715 -191.7817557484841 0 0 0 0 553.00130744352646 165.36203180313987 0 165.36203180313987 -131.18933711988802 0 0 0 0 568.75984279629847 96.307472070360973 0 96.307472070360973 -216.75318638178373 0 0 0 0 261.80010847699305 172.02246546923402 0 172.02246546923402 -69.366775871282698 0 0 0 0 553.46871918400575 166.96513067943397 0 166.96513067943397 -141.16246711245799 0 0 0 0 466.05818079120945 164.45566936632463 0 164.45566936632463 -131.70397804855088 0 0 0 0 427.52150603790142 109.00341810486771 0 109.00341810486771 -133.54538786429248 0 0 0 0 264.32056695952997 90.524976303120411 0 90.524976303120411 -119.3530969303813 0 0 0 0 471.71157509238401 72.427399114800494 0 72.427399114800494 -147.61786308851879 0 0 0 0 301.01127234027445 56.314210852706594 0 56.314210852706594 -129.31155433882714 0 0 0 0 662.92692567206541 70.456079529947488 0 70.456079529947488 -276.25842497568942 0 0 0 0 649.30979896108693 105.32843001593483 0 105.32843001593483 -220.54683425838994 0 0 0 0 489.16675752666288 28.151774085911846 0 28.151774085911846 -192.64510957223683 0 0 0 0 695.74892323879976 -0.053690773310449913 0 -0.053690773310449913 -273.5647200634034 0 0 0 0 700.4363961551594 -42.675456312820508 0 -42.675456312820508 -200.73492556049388 0 0 0 0 489.25779798312578 -103.99668260604369 0 -103.99668260604369 -114.29705489387618 0 0 0 0 519.18149374474888 27.614911013722804 0 27.614911013722804 -192.90442228148351 0 0 0 0 457.09991448704204 -34.186308192913621 0 -34.186308192913621 -120.51379897812228 0 0 0 0 264.42812256499747 -79.959245905043815 0 -79.959245905043815 -37.573623630761972 0 0 0 0 414.8280480356334 -1.6092130471442943 0 -1.6092130471442943 -116.21596830637773 0 0 0 0 198.37735466521735 -14.729947199597092 0 -14.729947199597092 -55.335910389177343 0 0 0 0 364.28729321184801 -165.78220674560669 0 -165.78220674560669 8.3937708045805266 0 0 0 0 278.03765149432184 -34.352768159089607 0 -34.352768159089607 -56.496745297333746 0 0 0 0 384.26157732533466 -136.89892078152843 0 -136.89892078152843 -4.1407183833662202 0 0 0 0 147.54803876927326 -114.55707486929509 0 -114.55707486929509 110.05080512734753 0 0 0 0 451.26016002990218 -317.8803040779635 0 -317.8803040779635 132.65168139058574 0 0 0 0 661.69367048448476 -182.06577631564164 0 -182.06577631564164 -122.56770130877567 0 0 0 0 766.0386633580456 -221.46797739614112 0 -221.46797739614112 -118.28861633495785 0 0 0 0 1299.2260412965188 -556.53215122212134 0 -556.53215122212134 5.0885051328508553 0 0 0 0 551.69951541251794 -92.140201274746005 0 -92.140201274746005 -117.48220209088711 0 0 0 0 59.408144304499729 16.625842781822257 0 16.625842781822257 -15.01744088939995 0 0 0 0 -35.371575172008306 62.327956126992348 0 62.327956126992348 -42.86226959494843 0 0 0 0 22.653973311593887 22.965485683605849 0 22.965485683605849 -6.3465311041581769 0 0 0 0 48.992061251768071 17.536522158373039 0 17.536522158373039 -18.236839316138401 0 0 0 0 3.0628326616269987 31.884373510517491 0 31.884373510517491 -14.717861905314749 0 0 0 0 25.677017016113183 20.672089210318234 0 20.672089210318234 -6.4889582607945133 0 0 0 0 2.1823514698786823 27.04541798670931 0 27.04541798670931 5.7932573634768501 0 0 0 0 16.058618491464586 86.034644695859214 0 86.034644695859214 -44.486100833916822 0 0 0 0 5.6985374603500532 -13.638868956349384 0 -13.638868956349384 25.71744694885281 0 0 0 0 139.50073553950642 -85.236367649380554 0 -85.236367649380554 -20.034994546599307 0 0 0 0 194.39974567852914 27.555739285028309 0 27.555739285028309 -56.191876332362121 0 0 0 0 154.52193853606877 13.320533847747697 0 13.320533847747697 -46.103076481241374 0 0 0 0 70.431425672846672 74.838877571244495 0 74.838877571244495 -28.965496157456528 0 0 0 0 65.480134452023776 60.828330253892887 0 60.828330253892887 -29.577355952890343 0 0 0 0 -21.954254138578108 52.653487938430885 0 52.653487938430885 5.3330909853046933 0 0 0 0 -33.007993756874384 43.10947287256397 0 43.10947287256397 -17.115627618335566 0 0 0 0 20.284726093391193 33.088856687376797 0 33.088856687376797 -20.289594972053621 0 0 0 0 -0.73399050785806708 12.836076439205385 0 12.836076439205385 2.1642783219939652 0 0 0 0 18.854188203243602 33.408688639024383 0 33.408688639024383 -15.65957003945535 0 0 0 0 -51.446127194099972 24.664625408392908 0 24.664625408392908 3.5878258432738903 0 0 0 0 -25.858948151182631 50.449280000990598 0 50.449280000990598 -141.10407060999205 0 0 0 0 40.919803493100062 150.1421711171092 0 150.1421711171092 -85.590330446735607 0 0 0 0 -6.2360498676325165 4.6049392388868 0 4.6049392388868 -3.1270539130163142 0 0 0 0 184.69533456545469 82.943114448840333 0 82.943114448840333 -75.424193445493756 0 0 0 0 268.73214242665563 11.904513898369032 0 11.904513898369032 -86.749990067884028 0 0 0 0 49.381283651197009 60.17100346930215 0 60.17100346930215 -62.823467934447081 0 0 0 0 9.9836294744927727 157.17864891638351 0 157.17864891638351 -30.06248423813031 0 0 0 0 255.64243539986774 133.57061749338709 0 133.57061749338709 -100.78672289383167 0 0 0 0 162.41223947991966 83.200099990420767 0 83.200099990420767 -95.66875521026094 0 0 0 0 -31.50436393995551 42.64714073848495 0 42.64714073848495 -96.817633280438997 0 0 0 0 -39.673507082583455 108.52107124825409 0 108.52107124825409 -168.33045222586043 0 0 0 0 -242.8623990558026 160.95990288040207 0 160.95990288040207 -2.1679141182257808 0 0 0 0 6.1756892893749828 1.0504040448157852 0 1.0504040448157852 -15.488294077037759 0 0 0 0 -151.34464132914673 -31.827082485355561 0 -31.827082485355561 -118.19967875077054 0 0 0 0 -587.1488066929287 122.21070086472685 0 122.21070086472685 183.34910364377629 0 0 0 0 -128.31577883913269 45.79859143596201 0 45.79859143596201 46.923164632076805 0 0 0 0 -9.1044516885467601 176.03181196523781 0 176.03181196523781 -58.136991905365903 0 0 0 0 126.23871058742225 43.494273876027364 0 43.494273876027364 76.244201315098962 0 0 0 0 38.820504022278328 117.50882793024721 0 117.50882793024721 125.23131721485242 0 0 0 0 4.9187416624481557 43.534485304321606 0 43.534485304321606 5.4211831807933777 0 0 0 0 195.27154475367206 202.56533085712749 0 202.56533085712749 33.749848250123705 0 0 0 0 62.89700919499046 80.231285096569422 0 80.231285096569422 -12.885477664184691 0 0 0 0 180.80520067881662 186.64177139947333 0 186.64177139947333 -76.716521830429429 0 0 0 0 374.14823267585962 211.04002741160593 0 211.04002741160593 -43.09622312247302 0 0 0 0 228.25967285153456 105.50970533356303 0 105.50970533356303 -76.80398944871115 0 0 0 0 401.42975425823533 142.11012886352609 0 142.11012886352609 -70.658464326137619 0 0 0 0 294.18922243608176 106.66935502465594 0 106.66935502465594 -20.286066005149962 0 0 0 0 663.20036672529386 174.44614143101217 0 174.44614143101217 -135.953848036198 0 0 0 0 460.9541805496774 167.63894120634177 0 167.63894120634177 -14.85714269464421 0 0 0 0 522.79174377028176 238.57681916720094 0 238.57681916720094 -21.344299627489818 0 0 0 0 416.62246419446456 176.23674461737437 0 176.23674461737437 177.9893876031781 0 0 0 0 620.10400118484176 311.45357571620093 0 311.45357571620093 101.18580301232578 0 0 0 0 374.94361484645196 223.29507936518462 0 223.29507936518462 103.91171988546648 0 0 0 0 404.15559573089922 133.23093010010871 0 133.23093010010871 56.903883594017771 0 0 0 0 243.97777955692072 193.67985914925157 0 193.67985914925157 244.68122505990414 0 0 0 0 108.92488942778436 -11.578402625711078 0 -11.578402625711078 246.68166308116588 0 0 0 0 737.74863810890838 368.84271818626951 0 368.84271818626951 291.48781252658273 0 0 0 0 285.55321237915632 11.349193532749268 0 11.349193532749268 520.44202560136398 0 0 0 0 649.12298235003618 -34.445098099447023 0 -34.445098099447023 226.48014724358245 0 0 0 0 285.76497412154538 14.216853715918901 0 14.216853715918901 160.48014603138836 0 0 0 0 239.10673610316735 -146.76061928482204 0 -146.76061928482204 175.865729351146 0 0 0 0 132.43391830505425 -13.2190163532523 0 -13.2190163532523 248.10909650067015 0 0 0 0 130.95380348634262 -30.057443270023526 0 -30.057443270023526 68.074222703141459 0 0 0 0 -29.483930988182692 1.0118866726061242 0 1.0118866726061242 172.85639797995054 0 0 0 0 -5.0351554567860148 -46.62316716627106 0 -46.62316716627106 136.42652434898946 0 0 0 0 -124.48344659171198 16.837713683687753 0 16.837713683687753 50.365659977726864 0 0 0 0 -8.0770031274587382 -68.590830358908079 0 -68.590830358908079 24.138749254276661 0 0 0 0 -46.037433403867908 62.907403610932306 0 62.907403610932306 -96.751674288620961 0 0 0 0 -0.37156135690497649 0.56028149107154412 0 0.56028149107154412 -1.0544176540586978 0 0 0 0 -24.263791118166409 17.894658760322272 0 17.894658760322272 -4.6762348569891401 0 0 0 0 -0.60880319571677433 0.90654083760351156 0 0.90654083760351156 -0.54317342781711275 0 0 0 0 -128.1391513959461 -66.008710108163996 0 -66.008710108163996 253.78083465857571 0 0 0 0 -112.56154054506624 127.26592174665257 0 127.26592174665257 11.70322527214131 0 0 0 0 -139.93115657058661 84.750906275110765 0 84.750906275110765 -53.824732531413247 0 0 0 0 -149.93974072921264 34.67943252141913 0 34.67943252141913 275.19613474312155 0 0 0 0 -43.336074280752655 54.716764488757235 0 54.716764488757235 174.66333870782091 0 0 0 0 254.76696687154981 313.42273486849967 0 313.42273486849967 46.722803609097355 0 0 0 0 -162.5092362184414 333.58956150123782 0 333.58956150123782 122.70542228253998 0 0 0 0 -208.10924699083171 -20.734120521093701 0 -20.734120521093701 141.82644999780132 0 0 0 0 -68.912926992265056 17.234586266591464 0 17.234586266591464 174.56085556758535 0 0 0 0 98.945375827977841 37.813633106204179 0 37.813633106204179 145.23442340929137 0 0 0 0 119.15374631578379 -137.94378686174389 0 -137.94378686174389 66.604763067938165 0 0 0 0 83.3478367572352 -113.87137783759385 0 -113.87137783759385 38.424450224178372 0 0 0 0 100.34221644730496 -102.11365610478936 0 -102.11365610478936 13.633834236870371 0 0 0 0 46.703086941652145 -65.346334303067067 0 -65.346334303067067 -3.0365559056770053 0 0 0 0 44.74248810201243 -52.788267299222298 0 -52.788267299222298 24.648091448384605 0 0 0 0 -11.257468833924577 -23.629691558063428 0 -23.629691558063428 18.180613409836951 0 0 0 0 31.989478724539367 -66.640582517368671 0 -66.640582517368671 38.146001645355682 0 0 0 0 -46.101851891594833 19.341466810712433 0 19.341466810712433 2.3252745720037638 0 0 0 0 -54.600952670675952 -43.884708514273967 0 -43.884708514273967 79.240016243076752 0 0 0 0 22.679673000569892 -74.437211392732706 0 -74.437211392732706 66.853802422837362 0 0 0 0 63.046696534480361 -130.73565904022553 0 -130.73565904022553 103.9262933324726 0 0 0 0 131.94034299852865 -97.256621682432524 0 -97.256621682432524 61.781632918138712 0 0 0 0 114.86757866711559 -93.277183573518869 0 -93.277183573518869 67.734135125067496 0 0 0 0 350.22048423260094 -74.932168402923025 0 -74.932168402923025 103.17240784505657 0 0 0 0 116.32434242859927 -82.099696283550088 0 -82.099696283550088 152.88515485445714 0 0 0 0 219.33201606353759 -83.139851227679173 0 -83.139851227679173 141.795188793428 0 0 0 0 189.05199202458243 -150.53590630572944 0 -150.53590630572944 98.793990702116616 0 0 0 0 487.65023346743692 -149.67072989520727 0 -149.67072989520727 116.47135703217964 0 0 0 0 328.87789291906029 -62.34988342972099 0 -62.34988342972099 265.21497839000403 0 0 0 0 222.36694943587281 -78.927714400265018 0 -78.927714400265018 27.892453746436956 0 0 0 0 334.76125370297632 -28.913688815420755 0 -28.913688815420755 39.851124628779417 0 0 0 0 281.24524847427801 -147.38245030821503 0 -147.38245030821503 59.386013804868071 0 0 0 0 177.79110191204381 -101.81497726604539 0 -101.81497726604539 42.223002310743595 0 0 0 0 184.64430348882524 -133.31144435212184 0 -133.31144435212184 0.05003235978392695 0 0 0 0 249.19533675055573 -121.76947200981476 0 -121.76947200981476 -39.742499574904286 0 0 0 0 171.11214708842454 -72.914520984265664 0 -72.914520984265664 -69.271464938114946 0 0 0 0 166.20922195161347 -131.11996630244295 0 -131.11996630244295 -59.032559133876475 0 0 0 0 93.323831669895299 18.166880423502164 0 18.166880423502164 -77.477097564858468 0 0 0 0 379.33263291266667 23.036149109230223 0 23.036149109230223 -77.816622463149997 0 0 0 0 194.32784385321065 -10.869765659747202 0 -10.869765659747202 -191.63703688348511 0 0 0 0 9.5715128706215182 -12.724606007844265 0 -12.724606007844265 -160.81751053784606 0 0 0 0 120.85968836162647 -87.703125440858884 0 -87.703125440858884 -71.700816091582055 0 0 0 0 155.01460750695333 -106.56749677751606 0 -106.56749677751606 -132.69634490175258 0 0 0 0 142.07076586110634 -94.22428874707532 0 -94.22428874707532 -78.786775668340709 0 0 0 0 143.78712966275634 -102.93938594041495 0 -102.93938594041495 -75.723278594680551 0 0 0 0 133.09615275375108 -98.268587007966289 0 -98.268587007966289 -44.402590001969998 0 0 0 0 102.03211594758614 -95.235751403424729 0 -95.235751403424729 -44.694240060371158 0 0 0 0 127.4454071243872 -128.09217242488239 0 -128.09217242488239 -3.6228485857409396 0 0 0 0 133.01188509556596 -111.53405789980241 0 -111.53405789980241 -9.0563104771498502 0 0 0 0 96.393619814323756 -72.226482491385013 0 -72.226482491385013 -31.408845114024643 0 0 0 0 101.65971754722705 -90.599165855373826 0 -90.599165855373826 -6.2672305288283496 0 0 0 0 164.01939848198163 -72.776746772894228 0 -72.776746772894228 -77.553264941418917 0 0 0 0 141.98964025310306 -38.200186427922006 0 -38.200186427922006 -71.689843720770114 0 0 0 0 126.00283252899681 -79.114984176771713 0 -79.114984176771713 -68.622907756735117 0 0 0 0 193.43551424693942 -69.647320183924521 0 -69.647320183924521 -85.430663866727372 0 0 0 0 152.12050950294361 -60.749574393727926 0 -60.749574393727926 -83.257980140281518 0 0 0 0 156.95152668251467 -86.392013680199511 0 -86.392013680199511 -103.66009924306047 0 0 0 0 122.82118924869792 -85.195360868381613 0 -85.195360868381613 -63.225980405700824 0 0 0 0 67.88933751795048 4.4978920121070018 0 4.4978920121070018 -8.9378019649712428 0 0 0 0 159.59320535256484 -93.532009679586608 0 -93.532009679586608 -66.282915207849641 0 0 0 0 186.4613672116202 -59.78455213899916 0 -59.78455213899916 -54.868576340596064 0 0 0 0 342.36076598602813 -61.472566284496395 0 -61.472566284496395 -54.949213753696327 0 0 0 0 396.75484081269678 84.946048222352886 0 84.946048222352886 -30.058983180517259 0 0 0 0 153.53951875206303 -14.330786644057714 0 -14.330786644057714 222.20454935532496 0 0 0 0 152.82644279959322 0.3579459725945533 0 0.3579459725945533 -48.731207580086902 0 0 0 0 43.031023795349029 -11.73836395402509 0 -11.73836395402509 31.018479408209146 0 0 0 0 86.026612373167154 116.73366153515047 0 116.73366153515047 -5.3103787429912188 0 0 0 0 161.78933207961563 15.003789217399913 0 15.003789217399913 -58.04465349135603 0 0 0 0 195.63780333282557 59.527290346855125 0 59.527290346855125 -20.810545848770232 0 0 0 0 7.2317948266834158 6.9334531801850652 0 6.9334531801850652 1.2117297290070368 0 0 0 0 -125.77054715535087 138.93192078486965 0 138.93192078486965 -24.164905641502301 0 0 0 0 -32.286021777391397 9.6025781559612255 0 9.6025781559612255 -24.184085899319712 0 0 0 0 -14.717162131679288 74.15156998261692 0 74.15156998261692 -42.498706288540575 0 0 0 0 -62.366194439204264 28.861801072291996 0 28.861801072291996 -53.819949872746079 0 0 0 0 -204.40020916823141 131.77696593989489 0 131.77696593989489 -65.589496015359373 0 0 0 0 4.1326067418951027 3.7340482166745907 0 3.7340482166745907 -0.76613176324663312 0 0 0 0 -36.900248064403968 70.584521880321432 0 70.584521880321432 -145.21589806128935 0 0 0 0 -56.956625032526063 56.170365564682854 0 56.170365564682854 -90.495380389784543 0 0 0 0 64.114026620901313 -11.397355435494987 0 -11.397355435494987 -74.283781202907903 0 0 0 0 86.036551788813085 -34.722778380384042 0 -34.722778380384042 -130.68273232201193 0 0 0 0 95.289148454026872 -26.133086591957309 0 -26.133086591957309 -126.03956596936271 0 0 0 0 -134.47218489640181 57.280206838370702 0 57.280206838370702 -127.63498644812645 0 0 0 0 18.944412830485817 82.091442636474042 0 82.091442636474042 -224.56016085780192 0 0 0 0 386.98013260874905 -375.04805780913711 0 -375.04805780913711 -114.03423361789154 0 0 0 0 -360.78023584110542 348.88670450694082 0 348.88670450694082 -209.45113143312597 0 0 0 0 1.0185848394831147 0.86400407953636105 0 0.86400407953636105 -0.47318980076255757 0 0 0 0 1436.8804984266262 -418.71827818249983 0 -418.71827818249983 -350.3762929646723 0 0 0 0 -63.43265157870519 448.11265199608039 0 448.11265199608039 -61.991145263353985 0 0 0 0 2.2896240478119321 2.074200213530176 0 2.074200213530176 0.69962951263891204 0 0 0 0 1161.4330087928902 -187.2756583010684 0 -187.2756583010684 -197.63847969798411 0 0 0 0 5.6471726729236398 8.0627512049713026 0 8.0627512049713026 2.8819971991512778 0 0 0 0 50.876450334548281 105.28151240665102 0 105.28151240665102 120.63751656930512 0 0 0 0 297.3790707269045 -183.68146161727134 0 -183.68146161727134 10.704340743254079 0 0 0 0 1175.8645833841892 189.10247863070498 0 189.10247863070498 -137.55353570029092 0 0 0 0 5.0512712297930271 4.2924487941170728 0 4.2924487941170728 3.2482474967849897 0 0 0 0 311.27004932061936 68.505323661031696 0 68.505323661031696 -34.713745260567293 0 0 0 0 356.86105933970066 -579.71352254242004 0 -579.71352254242004 428.666045391414 0 0 0 0 267.70733641591505 355.33246546614805 0 355.33246546614805 61.298486427062699 0 0 0 0 830.59588858981078 174.61503423500628 0 174.61503423500628 -61.618548639545679 0 0 0 0 136.32127093663257 -59.039416137232998 0 -59.039416137232998 123.95330684310852 0 0 0 0 6.0591052899588185 9.0366086152688929 0 9.0366086152688929 1.7651634255926878 0 0 0 0 77.974539275008283 37.751377596774347 0 37.751377596774347 18.894220719187338 0 0 0 0 187.29872401931789 48.579208445980839 0 48.579208445980839 49.819394224244434 0 0 0 0 266.80950533324358 55.310950364264926 0 55.310950364264926 50.314813633023348 0 0 0 0 245.26742636967901 203.96964184058049 0 203.96964184058049 129.9119833205977 0 0 0 0 -15.421939557185397 140.82738566031037 0 140.82738566031037 125.64469317641192 0 0 0 0 153.60010145039632 14.702149105024375 0 14.702149105024375 78.730232717167155 0 0 0 0 -231.90881591811194 -49.032036424145872 0 -49.032036424145872 136.6084115898941 0 0 0 0 -223.66725617819793 383.81537067872932 0 383.81537067872932 97.853890643383011 0 0 0 0 352.50025300597554 -87.209980723959518 0 -87.209980723959518 -28.783638570204403 0 0 0 0 83.312674153059561 237.80295379850315 0 237.80295379850315 -244.49123965793558 0 0 0 0 59.666349891656296 -2.1156571699225424 0 -2.1156571699225424 362.77367470876379 0 0 0 0 605.79408057713499 92.506421361392995 0 92.506421361392995 -112.29849889968023 0 0 0 0 9.5887064019964576 9.2648875186447643 0 9.2648875186447643 7.2087264352401705 0 0 0 0 290.36597015196458 -278.28503693442843 0 -278.28503693442843 383.49876380206354 0 0 0 0 316.56752105949244 405.70408380065811 0 405.70408380065811 -277.96033865050038 0 0 0 0 74.238996544672773 -279.08782876524839 0 -279.08782876524839 -88.731446628194163 0 0 0 0 4.8248007733438207 4.6899877549904687 0 4.6899877549904687 4.2291428770932384 0 0 0 0 -271.85286157806877 548.72966466852313 0 548.72966466852313 369.25118706975513 0 0 0 0 337.15574024857324 328.80841113599087 0 328.80841113599087 139.78829613095058 0 0 0 0 511.75439061402813 621.2822474965094 0 621.2822474965094 375.10420343839678 0 0 0 0 521.56926404439764 184.14082892859187 0 184.14082892859187 135.42501392544207 0 0 0 0 780.54846337680829 289.81503562570401 0 289.81503562570401 124.50305030226986 0 0 0 0 411.51182901595894 389.75973063871288 0 389.75973063871288 -271.51014266260574 0 0 0 0 61.683642162524166 271.43211460041505 0 271.43211460041505 -363.51209697971387 0 0 0 0 294.53329385303005 106.21530234279055 0 106.21530234279055 -303.22163593401791 0 0 0 0 216.01407561560882 139.63983497664157 0 139.63983497664157 -119.88095056761722 0 0 0 0 551.53937050362219 216.61410855302802 0 216.61410855302802 -109.19375960492951 0 0 0 0 564.1244860195693 219.44338281200339 0 219.44338281200339 -120.08253035124699 0 0 0 0 482.70366168745295 310.39073846674677 0 310.39073846674677 23.56313259112676 0 0 0 0 623.95834693299184 317.06470932748562 0 317.06470932748562 -19.790217923171326 0 0 0 0 327.79148345820795 51.435110311243648 0 51.435110311243648 -1.1884788831898732 0 0 0 0 672.37155229098789 118.00917462961479 0 118.00917462961479 10.645399019218473 0 0 0 0 871.62502384191521 412.87470202970883 0 412.87470202970883 7.2342858124775375 0 0 0 0 676.47086926820157 96.252479150123918 0 96.252479150123918 72.033028094381734 0 0 0 0 527.55200672438878 384.7652667625822 0 384.7652667625822 96.5364011158008 0 0 0 0 587.41915364034139 475.93293869588092 0 475.93293869588092 146.48801605544122 0 0 0 0 397.85464214067815 240.44764318727783 0 240.44764318727783 57.0755871189358 0 0 0 0 498.29479406145038 375.57086510738566 0 375.57086510738566 225.34573162734375 0 0 0 0 581.55496721091458 435.00291386342803 0 435.00291386342803 101.9240759385857 0 0 0 0 628.60901556307499 371.64754461681946 0 371.64754461681946 -43.784422475153406 0 0 0 0 591.97970667059053 432.46973560483627 0 432.46973560483627 81.553023955132971 0 0 0 0 181.31492418824291 81.812857572538064 0 81.812857572538064 55.554281712305539 0 0 0 0 438.46188618605811 201.22941595823966 0 201.22941595823966 12.426596586724827 0 0 0 0 253.6307266055951 -53.767919744037329 0 -53.767919744037329 -30.230735102881681 0 0 0 0 3.0270325435336645 -3.1809850008349976 0 -3.1809850008349976 -2.8844551754248755 0 0 0 0 5.8227496701451162 -16.807092033853515 0 -16.807092033853515 -17.78635385257401 0 0 0 0 6.7849705709631962 -4.4994308809380286 0 -4.4994308809380286 67.931927467916182 0 0 0 0 6.2822457953516277 -28.861629039630586 0 -28.861629039630586 -5.7257161499248239 0 0 0 0 -0.94866219156736409 -16.486079777797286 0 -16.486079777797286 -8.8660986075375678 0 0 0 0 -6.1568293863238068 -98.720903103048954 0 -98.720903103048954 -12.66071732563255 0 0 0 0 49.685182853745573 -31.127511325533483 0 -31.127511325533483 -37.394313301459427 0 0 0 0 62.919339742136515 -29.310897399532273 0 -29.310897399532273 -53.213809586026287 0 0 0 0 6.4435364128081289 -15.228925041517261 0 -15.228925041517261 -4.7542948096053816 0 0 0 0 561.53754386873607 412.08525833131409 0 412.08525833131409 272.42690932094536 0 0 0 0 1323.4953738855347 589.70293934717222 0 589.70293934717222 -30.672727773604947 0 0 0 0 -18.728830900467074 60.53346073077455 0 60.53346073077455 353.08687596196251 0 0 0 0 741.24363013044422 -118.80504439913415 0 -118.80504439913415 -45.785813972509345 0 0 0 0 917.56642421123161 514.40407190884355 0 514.40407190884355 13.908674181416245 0 0 0 0 1301.8776940690723 527.37209051375658 0 527.37209051375658 282.32021905112083 0 0 0 0 1186.7526289758962 -103.12992392686294 0 -103.12992392686294 -330.79518303175746 0 0 0 0 1024.1672389063474 -240.05643220609571 0 -240.05643220609571 -301.14722311008927 0 0 0 0 6.5611573845504907 -0.73718057591030495 0 -0.73718057591030495 -0.10148084029347526 0 0 0 0 532.40579658235856 552.48790279278046 0 552.48790279278046 593.11399168867274 0 0 0 0 1388.5210104979242 541.71514552126598 0 541.71514552126598 -112.26149886038797 0 0 0 0 1280.3521961238207 34.081732242433276 0 34.081732242433276 -145.63971365078896 0 0 0 0 601.59848692908781 127.52681180714728 0 127.52681180714728 73.840224602025046 0 0 0 0 853.50365900246288 84.037910416648799 0 84.037910416648799 -106.02658851176375 0 0 0 0 1656.047301343182 432.51822221739076 0 432.51822221739076 -163.95596172924047 0 0 0 0 870.85562725614056 623.26850976779713 0 623.26850976779713 90.387269948035055 0 0 0 0 166.63179013667741 464.65835957897679 0 464.65835957897679 58.726069575279112 0 0 0 0 434.82191455504108 328.93429814021482 0 328.93429814021482 110.728527048736 0 0 0 0 337.2040736835188 103.85301296360691 0 103.85301296360691 -12.820258571018243 0 0 0 0 522.6733562340346 162.74005114904654 0 162.74005114904654 5.1073232848621046 0 0 0 0 423.60084217889835 611.39470195553531 0 611.39470195553531 265.43358438810276 0 0 0 0 166.60721922099765 455.77607435833431 0 455.77607435833431 172.37797955339136 0 0 0 0 -1096.2496191602932 430.27407349984139 0 430.27407349984139 65.945868373327926 0 0 0 0 0.12813686038360539 2.0840458859944118 0 2.0840458859944118 -0.64881094732455935 0 0 0 0 194.26324717169609 750.95823317487702 0 750.95823317487702 -27.211887569647615 0 0 0 0 94.46694420288884 197.57647799030036 0 197.57647799030036 -190.68283166363017 0 0 0 0 10.6521768617334 5.3693216587063395 0 5.3693216587063395 -3.3361683056920501 0 0 0 0 -56.496226037049837 451.6243231443899 0 451.6243231443899 -79.867410335685918 0 0 0 0 -396.6637215199662 283.10399102059012 0 283.10399102059012 -156.06496105658221 0 0 0 0 56.302327715651074 8.5636838251782397 0 8.5636838251782397 -1.8271730787333229 0 0 0 0 -90.555881606753474 316.51939852439034 0 316.51939852439034 -195.83251591884266 0 0 0 0 -38.758360199587514 327.27052891850133 0 327.27052891850133 -342.77660416268554 0 0 0 0 448.57453029432145 144.87607885206552 0 144.87607885206552 -703.36549609563554 0 0 0 0 272.01190610945969 80.227582145439925 0 80.227582145439925 -257.89830065618867 0 0 0 0 1340.4205231132469 -700.9658214164831 0 -700.9658214164831 -296.71989029846401 0 0 0 0 1185.0103100252147 -287.39963306712525 0 -287.39963306712525 -293.52840778260986 0 0 0 0 524.32105334606126 422.04843403987439 0 422.04843403987439 -181.92148621084345 0 0 0 0 367.83269563889507 142.68185896197329 0 142.68185896197329 6.9022105364401796 0 0 0 0 1521.7013217405033 -20.369039061363594 0 -20.369039061363594 -373.00984757328149 0 0 0 0 1401.3945459461877 439.08168565506242 0 439.08168565506242 -13.85099886333478 0 0 0 0 2496.6296453853606 -221.16731937855164 0 -221.16731937855164 -390.09654429172849 0 0 0 0 1352.5793980970261 321.91345603423832 0 321.91345603423832 -35.937311582803602 0 0 0 0 433.99159163677086 378.01086879999116 0 378.01086879999116 118.79790738207237 0 0 0 0 3498.8062341115528 55.814516425424209 0 55.814516425424209 -455.61454214527828 0 0 0 0 2377.8684456189399 -512.59193698076615 0 -512.59193698076615 -650.05954614069606 0 0 0 0 3501.1679450497909 -476.58122461986187 0 -476.58122461986187 -686.78438112724427 0 0 0 0 2302.7464336343055 -1064.7485240219232 0 -1064.7485240219232 -377.99304949976005 0 0 0 0 1349.1624708141308 -687.17263647999926 0 -687.17263647999926 -295.5635665765729 0 0 0 0 21.589831517955758 1.6086346606492512 0 1.6086346606492512 0.98695008018289143 0 0 0 0 3492.9117888160076 -2370.7253639710766 0 -2370.7253639710766 865.9550189073484 0 0 0 0 1576.17973801683 1800.794741355807 0 1800.794741355807 425.42400326415327 0 0 0 0 3492.5023971404171 1327.9053165961623 0 1327.9053165961623 -322.93377805557219 0 0 0 0 96.67099143071664 -217.23634360610959 0 -217.23634360610959 87.701440845978979 0 0 0 0 247.61764288391169 -36.133369412822788 0 -36.133369412822788 -638.44633871209271 0 0 0 0 49.462265090717636 5.3807182876455943 0 5.3807182876455943 -1.0240545420668039 0 0 0 0 92.611196453159209 -41.889586621665373 0 -41.889586621665373 -305.68957615007707 0 0 0 0 56.623515881452036 7.9581917647276033 0 7.9581917647276033 -0.70790076114409772 0 0 0 0 -7.0259524509892799 -67.570044189993126 0 -67.570044189993126 180.75281153670866 0 0 0 0 63.193436329265751 -221.9377147370561 0 -221.9377147370561 -36.968011452179127 0 0 0 0 152.40307271448546 107.14998768780947 0 107.14998768780947 114.65608252432546 0 0 0 0 64.741681141569643 -9.8345623473165915 0 -9.8345623473165915 -41.456416425976272 0 0 0 0 26.531050627125296 -34.956233137616749 0 -34.956233137616749 -53.888255903932361 0 0 0 0 12.681012874556771 -1.3615503069252402 0 -1.3615503069252402 0.42298785880877809 0 0 0 0 1841.797189481118 1205.0919310924296 0 1205.0919310924296 618.81474198049693 0 0 0 0 3502.3845271863356 483.81680056773428 0 483.81680056773428 292.91980108420006 0 0 0 0 2256.497211974428 959.41798421398744 0 959.41798421398744 111.92171274973333 0 0 0 0 2272.3184647188355 541.2412780785196 0 541.2412780785196 166.78227335725657 0 0 0 0 280.00197683935176 -428.84238152952764 0 -428.84238152952764 242.28763905064241 0 0 0 0 874.26513631734997 505.66364563200568 0 505.66364563200568 72.882121374070266 0 0 0 0 238.48879222775213 -136.73641328715803 0 -136.73641328715803 276.18851643768176 0 0 0 0 676.20450773040648 322.51106403493759 0 322.51106403493759 -60.984405400631658 0 0 0 0 944.56552957164695 33.440765534597745 0 33.440765534597745 6.8466102151869563 0 0 0 0 27.003195766406861 93.180908392372203 0 93.180908392372203 7.7055255339018913 0 0 0 0 216.32359696990898 -202.60709083556185 0 -202.60709083556185 536.75907184427342 0 0 0 0 905.60364453133661 490.30305181969743 0 490.30305181969743 252.51745714538401 0 0 0 0 16.395531586917059 -92.821090906555582 0 -92.821090906555582 375.99581391397624 0 0 0 0 766.98155101363955 -388.30413625999608 0 -388.30413625999608 84.984826883851383 0 0 0 0 8.1170633737017823 -2.3311853065602293 0 -2.3311853065602293 0.85300131025411829 0 0 0 0 10.844464671987225 -52.940435462750429 0 -52.940435462750429 87.818016671378246 0 0 0 0 8.076735074597309 -12.601400509253892 0 -12.601400509253892 35.474168597256721 0 0 0 0 39.06193192576211 -44.31606861898797 0 -44.31606861898797 -1.010848428681129 0 0 0 0 22.577866244253528 -42.361694039085705 0 -42.361694039085705 14.539578287872018 0 0 0 0 30.802252670484449 -19.568908255859242 0 -19.568908255859242 -13.776833453759536 0 0 0 0 14.402602304275206 -17.153358982572172 0 -17.153358982572172 9.8680153091277134 0 0 0 0 26.496483527580111 -13.114519525876801 0 -13.114519525876801 3.9021017589998586 0 0 0 0 25.343462931778049 -33.907263757721012 0 -33.907263757721012 12.190273821762275 0 0 0 0 259.92493253715656 -92.828672110994376 0 -92.828672110994376 -111.02831819516905 0 0 0 0 19.240199021564962 -8.2038413447926999 0 -8.2038413447926999 3.5116161345005636 0 0 0 0 -89.541420148612815 57.420995898450656 0 57.420995898450656 181.22600954300833 0 0 0 0 210.35853926507116 63.565767652541695 0 63.565767652541695 104.0226034694233 0 0 0 0 46.215327130841615 -66.034125829354252 0 -66.034125829354252 -51.604034764239259 0 0 0 0 -3.9077782008534996 26.697831783986203 0 26.697831783986203 68.242604899134221 0 0 0 0 64.725714482250623 45.212425348859597 0 45.212425348859597 28.605628817915203 0 0 0 0 32.46249478995378 74.107059106073621 0 74.107059106073621 93.208976970136064 0 0 0 0 117.60903803069959 151.46131979107122 0 151.46131979107122 106.11745626128572 0 0 0 0 147.63112391456161 146.40182360204176 0 146.40182360204176 72.039233591318407 0 0 0 0 81.98189757320506 92.549816368981283 0 92.549816368981283 25.528799811445424 0 0 0 0 109.33367828278278 167.16015862959557 0 167.16015862959557 163.87897677993124 0 0 0 0 244.49219612888373 107.10772159182659 0 107.10772159182659 108.86889064525531 0 0 0 0 253.46891309172497 134.16183224929591 0 134.16183224929591 82.733508824150704 0 0 0 0 151.33632257476711 156.5700555559315 0 156.5700555559315 99.58765867542661 0 0 0 0 295.31079351570952 138.41012892735125 0 138.41012892735125 79.578545627693074 0 0 0 0 372.09235938677739 -60.452214990840275 0 -60.452214990840275 29.815676617681675 0 0 0 0 343.74830801200733 -77.006994023372499 0 -77.006994023372499 25.127917647563663 0 0 0 0 651.76312773683821 255.77129858385706 0 255.77129858385706 125.41974620969404 0 0 0 0 801.71983269287739 -134.94230487076231 0 -134.94230487076231 31.997930041572545 0 0 0 0 144.16352614908647 234.79858566660687 0 234.79858566660687 394.36013470789112 0 0 0 0 538.21870695472535 466.59363333061356 0 466.59363333061356 -211.14042025771323 0 0 0 0 4.0830135207403941 2.4530068439580521 0 2.4530068439580521 1.2655894470547366 0 0 0 0 474.1521244265823 -377.59750817201348 0 -377.59750817201348 261.68615602314412 0 0 0 0 142.80055543956405 -196.52752672957649 0 -196.52752672957649 196.75770880594337 0 0 0 0 391.2848726945158 -147.87281659301243 0 -147.87281659301243 34.187154011007806 0 0 0 0 133.22387502297534 -31.169718655518963 0 -31.169718655518963 25.713582259189025 0 0 0 0 93.750896546989679 -66.897756766876228 0 -66.897756766876228 77.29773159232991 0 0 0 0 9.7857737528613171 -3.6412054063619053 0 -3.6412054063619053 -1.2559054941290091 0 0 0 0 12.051738092872256 -4.7466664472503908 0 -4.7466664472503908 0.2888837733503351 0 0 0 0 4.2662335785265455 -4.3814069143215448 0 -4.3814069143215448 8.4467709795199468 0 0 0 0 27.472382076732174 -8.8458074504519573 0 -8.8458074504519573 -11.353974607288137 0 0 0 0 8.5418920572119532 -7.4193920245816116 0 -7.4193920245816116 5.3874973412025611 0 0 0 0 6.2488418840819051 -8.364444752311357 0 -8.364444752311357 2.2826932577185914 0 0 0 0 -27.361578123731306 -90.748132960924977 0 -90.748132960924977 -142.3926698454361 0 0 0 0 12.521594180897466 2.6463105740784769 0 2.6463105740784769 2.2901187039028637 0 0 0 0 1.9645989536816053 -3.7786509320091284 0 -3.7786509320091284 4.5111104069612757 0 0 0 0 369.55678389388777 -247.33318309919287 0 -247.33318309919287 644.86376034854038 0 0 0 0 -108.32678583149391 -156.68569716959655 0 -156.68569716959655 125.3942591476698 0 0 0 0 400.65894849851611 -592.4097606580026 0 -592.4097606580026 69.811576374102287 0 0 0 0 19.026019420783996 -6.3273954827559464 0 -6.3273954827559464 3.00014617612851 0 0 0 0 12.046020616317051 -0.7383727335495287 0 -0.7383727335495287 -2.8432135860320611 0 0 0 0 15.911022941701958 -8.3001565841727825 0 -8.3001565841727825 5.0860371356174028 0 0 0 0 12.060813663846602 -4.3353040482488439 0 -4.3353040482488439 6.4649255547119537 0 0 0 0 -185.36814873929688 -109.95037372189194 0 -109.95037372189194 97.161229166400517 0 0 0 0 2.0092142306634244 -2.3559442790937197 0 -2.3559442790937197 2.7449968404346219 0 0 0 0 531.7769379118181 251.8118441621275 0 251.8118441621275 -192.22351632474238 0 0 0 0 92.810912732828001 17.837936976269248 0 17.837936976269248 210.34241339553455 0 0 0 0 -0.66723863493226965 -3.0173958942894785 0 -3.0173958942894785 5.9003315497095095 0 0 0 0 53.613864927737268 83.479246404840353 0 83.479246404840353 113.17299396376984 0 0 0 0 64.437683602169272 113.96384849307924 0 113.96384849307924 34.343606789106161 0 0 0 0 52.968091420523706 -47.519001219890924 0 -47.519001219890924 -40.032236664421362 0 0 0 0 12.655212291087082 -5.7026160072730363 0 -5.7026160072730363 4.7911101553772824 0 0 0 0 10.272903701239557 -7.4470707367777322 0 -7.4470707367777322 6.2914336895564702 0 0 0 0 9.3709471337424475 -6.4697367119715636 0 -6.4697367119715636 8.1283769028123061 0 0 0 0 -0.95774422409948201 -2.8805942900029038 0 -2.8805942900029038 4.9250996625160042 0 0 0 0 -15.215469553353614 -20.224854949304245 0 -20.224854949304245 -13.434649924633959 0 0 0 0 0.22633877867556862 0.41396170365961638 0 0.41396170365961638 2.2138930556718499 0 0 0 0 121.51237826637953 60.053777971057571 0 60.053777971057571 51.052909198543603 0 0 0 0 134.28430030077197 -205.40230354303378 0 -205.40230354303378 -62.399541283568396 0 0 0 0 3.1018413665164744 -8.7261662971127691 0 -8.7261662971127691 6.8298995022087112 0 0 0 0 -212.66888126793219 -138.10114536110893 0 -138.10114536110893 139.77996089496264 0 0 0 0 266.60116635516533 -13.764624409857333 0 -13.764624409857333 -116.88259980380462 0 0 0 0 -108.40202616970782 67.300734943762563 0 67.300734943762563 -23.801119746178301 0 0 0 0 32.395698118118162 222.92065168054341 0 222.92065168054341 141.24883323656735 0 0 0 0 2.6770905539282381 -7.947438311029785 0 -7.947438311029785 9.0024275759206347 0 0 0 0 29.445707487713662 2.835763519464308 0 2.835763519464308 6.6443984805482614 0 0 0 0 2.9880872904177522 7.2178462187275727 0 7.2178462187275727 -3.1845099707661575 0 0 0 0 0.65361829407362393 2.4278660948515736 0 2.4278660948515736 1.2654698690748667 0 0 0 0 5.8015827694586335 -2.4399769972422618 0 -2.4399769972422618 7.5146846580718432 0 0 0 0 9.3505802960426081 0.63001301409349253 0 0.63001301409349253 -3.8928997630646336 0 0 0 0 56.756729234359227 18.191487259176938 0 18.191487259176938 9.4436292762611629 0 0 0 0 57.346946675213985 48.621110267062249 0 48.621110267062249 26.037061482713057 0 0 0 0 415.48653791305696 62.215597011514546 0 62.215597011514546 -103.58078640942858 0 0 0 0 254.91726128872688 195.86293012324495 0 195.86293012324495 -130.49462157457128 0 0 0 0 15.398776930760505 31.928724120401057 0 31.928724120401057 25.219616184960614 0 0 0 0 91.297377884602611 47.78299791055133 0 47.78299791055133 -35.333106915727512 0 0 0 0 73.54426083866565 -22.814188609708253 0 -22.814188609708253 -26.573494851675719 0 0 0 0 9.6149805926543195 -5.7300883385723864 0 -5.7300883385723864 7.3569310445186602 0 0 0 0 -0.30595410331071093 -2.6283664346415279 0 -2.6283664346415279 6.2712563633943361 0 0 0 0 3.0591178170143394 8.6239853252523062 0 8.6239853252523062 -1.7428468369871553 0 0 0 0 -0.16193593027885456 -0.82851347304816159 0 -0.82851347304816159 0.065113901320717815 0 0 0 0 9.5044927657509106 -0.58414067321518814 0 -0.58414067321518814 2.8148478437979065 0 0 0 0 9.8219807036531606 -6.4919160945002403 0 -6.4919160945002403 4.8368292062237401 0 0 0 0 9.8370837377846954 -0.90648121479045329 0 -0.90648121479045329 0.94910446458750997 0 0 0 0 -72.570192708968534 13.162811015555235 0 13.162811015555235 44.04805893455341 0 0 0 0 -64.165192746362663 29.818923166994409 0 29.818923166994409 124.06385216130548 0 0 0 0 42.740137287219113 -5.5516964363978332 0 -5.5516964363978332 -30.369523753854082 0 0 0 0 60.586345408803027 -76.125420818848397 0 -76.125420818848397 212.96821677445678 0 0 0 0 16.154696552821406 -83.351409660399895 0 -83.351409660399895 -55.057846034399972 0 0 0 0 5.710821260465309 9.7296241499270764 0 9.7296241499270764 -3.1665680595669983 0 0 0 0 23.644478455280478 -116.48084300769551 0 -116.48084300769551 22.817121556495749 0 0 0 0 25.498085093728506 -10.110151515488191 0 -10.110151515488191 -0.29840124483630248 0 0 0 0 6.1446271838919131 -0.53396685479796702 0 -0.53396685479796702 -1.5098540703565249 0 0 0 0 32.639910737540049 11.074657001920968 0 11.074657001920968 27.490804999462853 0 0 0 0 43.0330480929224 -6.7635617675105095 0 -6.7635617675105095 -57.719942508447275 0 0 0 0 0.3739583785543843 -1.0901430064955804 0 -1.0901430064955804 -0.73530455322620014 0 0 0 0 68.045965124241775 93.776464424408914 0 93.776464424408914 -30.800754701537699 0 0 0 0 -1.3483486257955519 -8.2039907422913529 0 -8.2039907422913529 98.968691207281154 0 0 0 0 -5.830668762595451 -103.95604857666967 0 -103.95604857666967 160.44667237435715 0 0 0 0 1.1220318809217957 2.0441775096470423 0 2.0441775096470423 3.6069976354328723 0 0 0 0 552.2663329574134 -26.386702623822202 0 -26.386702623822202 -12.670634394694162 0 0 0 0 406.28964384393475 131.46798887274645 0 131.46798887274645 -87.30019218002235 0 0 0 0 250.36670305815642 -53.24059462360492 0 -53.24059462360492 -10.875628762736596 0 0 0 0 5.4626027299362647 5.918563165631447 0 5.918563165631447 7.1248333693405428 0 0 0 0 26.617105764133157 19.962684136173266 0 19.962684136173266 -8.6905830050909572 0 0 0 0 11.818262595945271 21.962278381241049 0 21.962278381241049 -5.7340784731568419 0 0 0 0 33.490488533527241 -0.50344870044500567 0 -0.50344870044500567 -6.6448700246492081 0 0 0 0 34.728593768071732 -15.240996689921303 0 -15.240996689921303 15.797532667590531 0 0 0 0 107.46430654593132 103.83103329420192 0 103.83103329420192 69.690352099170923 0 0 0 0 12.543125991207489 -4.8171930480748415 0 -4.8171930480748415 63.105167255229389 0 0 0 0 79.562666461366462 157.71986219600876 0 157.71986219600876 -34.241452679354552 0 0 0 0 346.11101809217507 390.21886101105792 0 390.21886101105792 -100.74208119801324 0 0 0 0 141.25679901164767 303.71413715674862 0 303.71413715674862 295.79570684504688 0 0 0 0 -14.558491266659985 63.384228546853365 0 63.384228546853365 350.50428982640733 0 0 0 0 417.88538263027294 -192.54397666511977 0 -192.54397666511977 -178.85727584760343 0 0 0 0 199.06607372941653 -86.742268035472989 0 -86.742268035472989 -19.39656203185541 0 0 0 0 170.18477970178355 -6.7106892108831744 0 -6.7106892108831744 378.44401488610129 0 0 0 0 159.86023441709403 -79.417350566499408 0 -79.417350566499408 83.53812342949459 0 0 0 0 185.60474248350874 -63.958625718131316 0 -63.958625718131316 -21.625241253110289 0 0 0 0 193.85174215214283 -95.399678557352217 0 -95.399678557352217 49.532516717650651 0 0 0 0 265.09455345664901 13.351180689276589 0 13.351180689276589 117.31976102559565 0 0 0 0 317.32441353771719 38.793626174789097 0 38.793626174789097 0.91491619725638884 0 0 0 0 340.8602703926299 101.16696099634009 0 101.16696099634009 32.143222489413347 0 0 0 0 464.22295590032809 230.33684582011165 0 230.33684582011165 135.69872223493803 0 0 0 0 417.27245816235518 55.396818506291311 0 55.396818506291311 -145.32931560030011 0 0 0 0 437.87635082378256 -2.0134777103485249 0 -2.0134777103485249 -31.985726330224679 0 0 0 0 294.09163181044278 -72.275395187682989 0 -72.275395187682989 54.652297849032038 0 0 0 0 334.96586014267086 -109.81147658883356 0 -109.81147658883356 13.441544763260026 0 0 0 0 85.71038846479496 -96.200482574850867 0 -96.200482574850867 -38.643593947566842 0 0 0 0 389.12289048584353 -228.21886224998525 0 -228.21886224998525 8.2775639640864256 0 0 0 0 620.92735881664703 -285.01132651684838 0 -285.01132651684838 -232.31469874928553 0 0 0 0 -35.451886677281436 97.994554784371758 0 97.994554784371758 -200.36437136960376 0 0 0 0 4.072489844198941 -5.9402520535688836 0 -5.9402520535688836 3.3795565296897045 0 0 0 0 189.52292876195861 -141.93988788898514 0 -141.93988788898514 -206.35291178512853 0 0 0 0 350.18637313978979 124.64101656428556 0 124.64101656428556 27.53115732171409 0 0 0 0 771.30713624072087 47.181838181236117 0 47.181838181236117 -172.48573662895978 0 0 0 0 49.45772452516394 -46.585520749267744 0 -46.585520749267744 -1.35813090991644 0 0 0 0 63.174424421871663 -50.71539874013979 0 -50.71539874013979 -7.8363650980863895 0 0 0 0 74.234778696183639 -34.18369979243198 0 -34.18369979243198 -44.235225795127917 0 0 0 0 69.51291113779007 -149.24969308895197 0 -149.24969308895197 35.107964479389011 0 0 0 0 49.575487323825655 -52.388566190888014 0 -52.388566190888014 -57.003066326578846 0 0 0 0 23.379262995062163 -62.49487155702991 0 -62.49487155702991 64.118005941487354 0 0 0 0 -8.8518315194911139 -5.7934188872743562 0 -5.7934188872743562 19.911146280931675 0 0 0 0 25.47803120764209 -5.3840915840646097 0 -5.3840915840646097 -17.684742605052456 0 0 0 0 38.544057272112696 5.0287131990398848 0 5.0287131990398848 -51.168918125172013 0 0 0 0 41.271700860874262 -28.789789107402612 0 -28.789789107402612 1.2052590426774259 0 0 0 0 75.222139772282389 -10.924943484773394 0 -10.924943484773394 2.3225491442062776 0 0 0 0 41.010752879547709 2.6225833401077416 0 2.6225833401077416 -13.408711348049188 0 0 0 0 75.91818821067136 -12.028033752776537 0 -12.028033752776537 -14.955089569602023 0 0 0 0 67.062507108817954 -59.874743548661627 0 -59.874743548661627 28.214789386134726 0 0 0 0 1.754647837849916 -28.571616957950027 0 -28.571616957950027 35.308345989416921 0 0 0 0 -15.080611620149824 -12.536090422708774 0 -12.536090422708774 2.6192720311912794 0 0 0 0 92.441607627621124 -18.926269408310873 0 -18.926269408310873 15.666108592409728 0 0 0 0 168.06895593099034 -81.830338318245595 0 -81.830338318245595 51.476625143373894 0 0 0 0 142.65238108529593 -109.61803745490806 0 -109.61803745490806 34.134749420756634 0 0 0 0 123.8392055860968 -22.654457232210916 0 -22.654457232210916 32.948738413524552 0 0 0 0 27.491993319650646 5.5666376980188943 0 5.5666376980188943 2.1275404820116819 0 0 0 0 61.782090228756715 -79.558768811109076 0 -79.558768811109076 -0.47707671989701339 0 0 0 0 -7.9647024997102562 -63.477003089235836 0 -63.477003089235836 1.7043681663380994 0 0 0 0 9.3818010895285227 1.9331223796919801 0 1.9331223796919801 1.7962939804554381 0 0 0 0 20.427848532541248 52.641134399738803 0 52.641134399738803 -59.475676247236834 0 0 0 0 206.17325945484481 -23.359083266457674 0 -23.359083266457674 -43.381912135475432 0 0 0 0 27.207414291660115 -16.8498158322462 0 -16.8498158322462 -9.7363525576072156 0 0 0 0 64.425643954014959 -21.421557656155528 0 -21.421557656155528 1.1518337519155466 0 0 0 0 51.681037127382297 -33.422650037634412 0 -33.422650037634412 12.303268967670192 0 0 0 0 14.867822390189289 -23.686348304588918 0 -23.686348304588918 8.540296256504476 0 0 0 0 26.835032097794624 -1.3695803484618239 0 -1.3695803484618239 -12.008224469882524 0 0 0 0 82.02108879203297 -15.803271608937393 0 -15.803271608937393 0.94557923110460251 0 0 0 0 55.076528960918949 -8.4306496587878428 0 -8.4306496587878428 -0.50802691277112899 0 0 0 0 40.072681405846083 5.5895994881107072 0 5.5895994881107072 -7.7045412202012322 0 0 0 0 62.021789737490508 -22.719822597331927 0 -22.719822597331927 -3.1052051908991416 0 0 0 0 62.419921461165359 -18.526344981989496 0 -18.526344981989496 -3.3747694143194167 0 0 0 0 104.94243570828985 -112.07769564277351 0 -112.07769564277351 26.859711592853273 0 0 0 0 67.505380919368349 -19.054478476687393 0 -19.054478476687393 1.4902049109776563 0 0 0 0 49.159769581051876 6.6329173493689666 0 6.6329173493689666 -13.801488712433503 0 0 0 0 50.961723853484671 -3.6685343805808444 0 -3.6685343805808444 -6.4438180714363611 0 0 0 0 52.288911553645448 -3.1173938193237518 0 -3.1173938193237518 -14.737514535145237 0 0 0 0 50.833626454104888 3.3461208066401582 0 3.3461208066401582 -2.2094534816878877 0 0 0 0 38.831765641033826 -8.4457646034424414 0 -8.4457646034424414 -3.4959810522626231 0 0 0 0 58.708997817739146 7.2109181612186148 0 7.2109181612186148 -2.0799506730631947 0 0 0 0 51.561380218920931 7.0114854396921373 0 7.0114854396921373 1.4287052022082207 0 0 0 0 53.986497004225384 -2.9880588851619905 0 -2.9880588851619905 1.3583607403061251 0 0 0 0 70.825656105684175 10.545911356613033 0 10.545911356613033 11.749035437336715 0 0 0 0 56.469083331205184 2.3142445449639126 0 2.3142445449639126 -4.318260745661064 0 0 0 0 59.547213506558364 -11.689267419731664 0 -11.689267419731664 -7.9487416593801754 0 0 0 0 36.573695218889043 2.8379226041365655 0 2.8379226041365655 0.54600918263986387 0 0 0 0 49.059638486141921 -4.2587827086176731 0 -4.2587827086176731 -10.026576769856547 0 0 0 0 45.612078383586777 4.0147459275776782 0 4.0147459275776782 -14.780716899850631 0 0 0 0 48.043490838812431 -7.2375861710361278 0 -7.2375861710361278 -4.5938185979657646 0 0 0 0 51.940215489608818 -9.5206642135008224 0 -9.5206642135008224 -7.8790383936984654 0 0 0 0 7.6980669388308058 -13.217956475366378 0 -13.217956475366378 -4.2949659333333869 0 0 0 0 78.097836090732017 -18.630847063682268 0 -18.630847063682268 -9.7461991330294495 0 0 0 0 53.419666264366242 -6.9456245438886981 0 -6.9456245438886981 0.81161492851424555 0 0 0 0 12.391118885548153 -4.4539224882181472 0 -4.4539224882181472 -2.614216628744515 0 0 0 0 103.65928894375975 -50.061982661189177 0 -50.061982661189177 6.4962207838289032 0 0 0 0 56.529432625684422 -11.748352961019918 0 -11.748352961019918 -8.949408494943782 0 0 0 0 45.767879195647765 -15.648898970772279 0 -15.648898970772279 -6.1032317668559699 0 0 0 0 66.018766040038798 27.488672190719608 0 27.488672190719608 -1.3694374498295758 0 0 0 0 127.69851960493543 67.832817384464306 0 67.832817384464306 -40.210114233081185 0 0 0 0 91.599764716430101 45.965790249015448 0 45.965790249015448 -53.429049519646469 0 0 0 0 28.702418512947837 -1.1630050967261241 0 -1.1630050967261241 -11.924380779345249 0 0 0 0 5.9867982250871137 31.101255186099479 0 31.101255186099479 -15.427761276016099 0 0 0 0 20.218310160964773 17.034771173560785 0 17.034771173560785 -14.292235142611924 0 0 0 0 56.560418014792958 21.349925715762311 0 21.349925715762311 -18.308963769580942 0 0 0 0 226.542399148806 -6.4429698555472896 0 -6.4429698555472896 -47.471712663776998 0 0 0 0 23.283397142564375 13.448960400275615 0 13.448960400275615 51.75119402706332 0 0 0 0 21.052219634497305 -23.945039243313204 0 -23.945039243313204 -3.0041890132670233 0 0 0 0 -0.67358181943085071 -1.3001360624218137 0 -1.3001360624218137 0.39893200733346745 0 0 0 0 62.140771292994032 -23.858428883473607 0 -23.858428883473607 -12.355851163694297 0 0 0 0 100.3158885660032 -11.159009169702585 0 -11.159009169702585 -9.9556136130831874 0 0 0 0 60.553939631026878 6.5969786028790622 0 6.5969786028790622 1.4231444244378508 0 0 0 0 79.680617275182158 -6.1163381756150557 0 -6.1163381756150557 -7.5435016556584742 0 0 0 0 86.354482559290773 18.575414799150167 0 18.575414799150167 6.9788444551149951 0 0 0 0 64.967773049031166 9.4022964680077337 0 9.4022964680077337 -7.8088571791995491 0 0 0 0 64.402018122826121 4.2764556553065631 0 4.2764556553065631 -12.880639918429551 0 0 0 0 63.499379702298029 4.8117088876897469 0 4.8117088876897469 -5.6252293174593433 0 0 0 0 60.187893520000216 4.5343034848797288 0 4.5343034848797288 -5.4348526180340286 0 0 0 0 40.984176586796821 12.519742511052527 0 12.519742511052527 -20.298556747056864 0 0 0 0 41.129065604738557 4.1754160095227348 0 4.1754160095227348 -8.9452985891651586 0 0 0 0 53.308940968479874 -4.34963904887627 0 -4.34963904887627 -14.362899318100062 0 0 0 0 52.230827838557161 11.877900337799019 0 11.877900337799019 -11.656649988825393 0 0 0 0 46.468860133125986 2.3461006185843445 0 2.3461006185843445 -7.9120029033769317 0 0 0 0 71.464101887810372 22.045589957350487 0 22.045589957350487 -0.3023525391693962 0 0 0 0 77.883420148282312 61.526404359812659 0 61.526404359812659 -7.6121784143037416 0 0 0 0 14.967551670871899 6.9934963579862597 0 6.9934963579862597 -3.1866009489415799 0 0 0 0 23.402946118556429 100.30463299635085 0 100.30463299635085 -4.7412906352492428 0 0 0 0 29.4140062880183 1.1180683265490359 0 1.1180683265490359 26.004876812146904 0 0 0 0 73.11298415897727 25.907628940477025 0 25.907628940477025 24.430603278717172 0 0 0 0 20.45347590504025 -12.601706663780874 0 -12.601706663780874 -29.951762453814808 0 0 0 0 215.87188283579144 270.2060497207529 0 270.2060497207529 -224.48938052642552 0 0 0 0 140.38949900820444 211.68830281116789 0 211.68830281116789 197.56708151330622 0 0 0 0 107.86650350166019 134.55323310159474 0 134.55323310159474 190.90524607433326 0 0 0 0 8.3824997892661486 -4.1481915346143978 0 -4.1481915346143978 -0.12552234273789509 0 0 0 0 -0.065511054877589459 -1.3162411173158475 0 -1.3162411173158475 1.6267786406263909 0 0 0 0 38.303742262321521 29.162236201723541 0 29.162236201723541 1.7377066499310487 0 0 0 0 171.62397835010779 -45.477279832259228 0 -45.477279832259228 -107.00204740903064 0 0 0 0 3.7194449122033548 0.52264429582875493 0 0.52264429582875493 -1.5636031015491518 0 0 0 0 130.39549497232926 53.330336967325067 0 53.330336967325067 18.317855904861062 0 0 0 0 225.07655832539604 -0.5428515819075983 0 -0.5428515819075983 -57.080343658560537 0 0 0 0 -108.05688577720139 39.652001778560589 0 39.652001778560589 -5.1308831169462792 0 0 0 0 170.32811326444789 5.8806272640149473 0 5.8806272640149473 5.5066897231563416 0 0 0 0 169.54721914425318 7.3252409713159068 0 7.3252409713159068 47.272287665393378 0 0 0 0 4.0247608165191053 -0.35534071659005662 0 -0.35534071659005662 -2.5653228588628227 0 0 0 0 -1.1881018031223789 -0.4193927368820809 0 -0.4193927368820809 -4.3877468768825079 0 0 0 0 242.86850935509938 -5.5606817291458128 0 -5.5606817291458128 -52.401070574691403 0 0 0 0 85.78826093897078 52.151666598037082 0 52.151666598037082 -16.578696215352466 0 0 0 0 175.83722018963454 -46.638504508590358 0 -46.638504508590358 -30.527592039653427 0 0 0 0 107.47605962276612 40.999295015613484 0 40.999295015613484 -67.513672822576154 0 0 0 0 6.9686322624947934 16.083626774957793 0 16.083626774957793 36.031411158614901 0 0 0 0 50.183244791973266 15.336769395131569 0 15.336769395131569 -44.259005902278204 0 0 0 0 41.57787399064101 20.282033383166642 0 20.282033383166642 1.9558029047569185 0 0 0 0 19.326515401183087 141.30326443363288 0 141.30326443363288 -81.665117574969372 0 0 0 0 83.23134860771097 31.616150259009373 0 31.616150259009373 -91.21023037888682 0 0 0 0 47.00693214689818 2.5767109168441493 0 2.5767109168441493 -2.206869148144051 0 0 0 0 35.182657142809859 16.515296182376435 0 16.515296182376435 -1.7255835549759766 0 0 0 0 48.343426074214221 14.857761566323461 0 14.857761566323461 -9.1277590929958023 0 0 0 0 45.595940274259192 6.7659219328406834 0 6.7659219328406834 -20.496381020074068 0 0 0 0 43.004169377525614 9.932814327035544 0 9.932814327035544 -4.6867732902528587 0 0 0 0 45.133384326953092 -5.3098715800074388 0 -5.3098715800074388 3.1950320624835058 0 0 0 0 6.5142704433601466 10.109180387783454 0 10.109180387783454 -8.1068029711881167 0 0 0 0 -28.201046043898714 55.274524196179001 0 55.274524196179001 -1.5203934578296412 0 0 0 0 -4.4624619617518988 10.013407409738118 0 10.013407409738118 -0.75423773629333013 0 0 0 0 -5.1474473083835619 9.0095578563978052 0 9.0095578563978052 -3.4561603851816471 0 0 0 0 31.531431559111823 10.386648135779183 0 10.386648135779183 -5.8647588289664565 0 0 0 0 -0.6829300193691239 5.9973092513545829 0 5.9973092513545829 1.3731108889764629 0 0 0 0 -3.2424376645649318 15.102472784892598 0 15.102472784892598 -9.3618463975849409 0 0 0 0 1.5061883351099823 4.2711955283479028 0 4.2711955283479028 -9.0260872850863052 0 0 0 0 -23.643121284549125 20.072938822275319 0 20.072938822275319 53.613310981384302 0 0 0 0 -2.6539235307228068 4.7302464165928573 0 4.7302464165928573 0.82297113504283059 0 0 0 0 -37.791612907214585 119.92857126527883 0 119.92857126527883 -42.531213292030316 0 0 0 0 -9.5445957928959615 -0.9925329590097931 0 -0.9925329590097931 -4.2589669187013897 0 0 0 0 -47.658283174124335 41.70448535330749 0 41.70448535330749 23.034915214944704 0 0 0 0 60.545305989408917 53.769651948041599 0 53.769651948041599 54.879105590835934 0 0 0 0 64.362247676675906 82.423656909616511 0 82.423656909616511 26.370611431109864 0 0 0 0 37.803435391962921 56.562767192865067 0 56.562767192865067 185.89061250964778 0 0 0 0 2.8967535054596993 4.1106986919312316 0 4.1106986919312316 -0.44005157540938589 0 0 0 0 1.1486561448473367 -9.7263455609220273 0 -9.7263455609220273 72.514105347612485 0 0 0 0 -7.0918413906765636 7.7115502671540526 0 7.7115502671540526 -8.8198057992485701 0 0 0 0 -3.6690569158599828 7.0316252163725039 0 7.0316252163725039 -14.879697931542694 0 0 0 0 -27.898534207415651 9.4821722399319697 0 9.4821722399319697 5.3749524001186728 0 0 0 0 0.53522240531125931 1.1326523938242383 0 1.1326523938242383 0.78674560478068756 0 0 0 0 86.796682366220921 34.962812496409697 0 34.962812496409697 -39.741231938474812 0 0 0 0 1.5880218477736747 -0.31204862132014455 0 -0.31204862132014455 -2.323837105224297 0 0 0 0 -5.5396344982693932 5.307969735104189 0 5.307969735104189 0.60263232324248539 0 0 0 0 -592.31365009673755 -330.53222457422089 0 -330.53222457422089 187.25175046935419 0 0 0 0 204.32173893916479 113.69993926988718 0 113.69993926988718 79.430209779729466 0 0 0 0 274.15608645746397 2.4870605671949306 0 2.4870605671949306 27.780161144762133 0 0 0 0 187.01735888059193 35.771236597721781 0 35.771236597721781 -28.801199779542003 0 0 0 0 183.80893559018295 35.892821554553848 0 35.892821554553848 15.48084422156262 0 0 0 0 35.10078954731776 3.1964436850245015 0 3.1964436850245015 -11.521017835999816 0 0 0 0 27.67334556105925 -13.156239620303495 0 -13.156239620303495 -10.466928594498313 0 0 0 0 15.147340030812572 -7.1813755906012631 0 -7.1813755906012631 -6.2853876479653046 0 0 0 0 31.326847667667607 -18.32505720137442 0 -18.32505720137442 -6.0492431369530095 0 0 0 0 41.765334629278641 -16.368548870206951 0 -16.368548870206951 -9.6111025450936722 0 0 0 0 9.2597438821241624 -14.139771263495774 0 -14.139771263495774 -4.0259207444172063 0 0 0 0 54.409642375728254 -8.8310680076067456 0 -8.8310680076067456 -4.2885661086666005 0 0 0 0 35.025382847269668 5.5421626505790904 0 5.5421626505790904 -8.3976651639809479 0 0 0 0 43.34194154062061 11.831624174608407 0 11.831624174608407 -18.082898251709594 0 0 0 0 37.441432333878765 2.6663134205796268 0 2.6663134205796268 -12.670296946155304 0 0 0 0 32.614896759856492 11.707498729442705 0 11.707498729442705 -23.159792944155015 0 0 0 0 30.016781227077445 9.6280111301407487 0 9.6280111301407487 -10.554322278903783 0 0 0 0 31.590614756205468 -0.41591354326556029 0 -0.41591354326556029 -9.1575073284930113 0 0 0 0 28.083041077899907 2.1625325273853377 0 2.1625325273853377 -1.2139131523726974 0 0 0 0 37.586760036705527 -1.1566373954783558 0 -1.1566373954783558 5.5401283728847375 0 0 0 0 35.730228618529509 5.5189565058922199 0 5.5189565058922199 -1.4966277268158592 0 0 0 0 37.70061324769631 4.132887184645142 0 4.132887184645142 8.1144449694129435 0 0 0 0 14.830019730389452 6.1381002582078388 0 6.1381002582078388 -4.6422271861271032 0 0 0 0 10.843597798178962 5.6648735693906929 0 5.6648735693906929 -17.105273921662047 0 0 0 0 22.292064329790776 2.3189298140674941 0 2.3189298140674941 -4.8703834917277788 0 0 0 0 10.540951101997052 6.5391147281295616 0 6.5391147281295616 -8.8481505309191562 0 0 0 0 10.94655220276141 -0.45539039850736884 0 -0.45539039850736884 -4.3088866208338779 0 0 0 0 14.93059207113032 -4.1833541188956076 0 -4.1833541188956076 -0.36851223855567738 0 0 0 0 11.059118429613989 -4.1713021578292899 0 -4.1713021578292899 -0.60778312511741572 0 0 0 0 29.715157898152029 0.14181179776687713 0 0.14181179776687713 -2.4166762655049752 0 0 0 0 19.616537310415879 -3.332024211166754 0 -3.332024211166754 -1.6998084129395465 0 0 0 0 30.594274329007021 -2.2825152205427912 0 -2.2825152205427912 3.0839811181563164 0 0 0 0 20.931243815495691 -4.5178595482602759 0 -4.5178595482602759 -6.815309358278455 0 0 0 0 9.1957477938340162 -4.9849790729631422 0 -4.9849790729631422 -5.1047682668455536 0 0 0 0 0.028265195678372379 -1.5773351662608377 0 -1.5773351662608377 -0.52437858997646347 0 0 0 0 30.449384696177731 6.239030488476601 0 6.239030488476601 -40.809943353020373 0 0 0 0 3.3171118338577799 -17.210270327792387 0 -17.210270327792387 7.7107057123957929 0 0 0 0 13.352087771163877 -5.2785319072411028 0 -5.2785319072411028 -3.1977810632780077 0 0 0 0 12.676001846408106 -2.6190457483311036 0 -2.6190457483311036 -8.9031001093150479 0 0 0 0 28.751878098308225 -2.2513385457027653 0 -2.2513385457027653 -14.834920103701052 0 0 0 0 23.784115758739063 -33.548074548779368 0 -33.548074548779368 -11.197428672991009 0 0 0 0 23.562236515693101 -6.3005435395526774 0 -6.3005435395526774 -3.2101995350157218 0 0 0 0 25.149186258340706 -8.7085243057354091 0 -8.7085243057354091 -7.1288825359506518 0 0 0 0 37.411937174583727 6.9563617136273024 0 6.9563617136273024 4.05822767407426 0 0 0 0 68.026978174646501 9.6800212314251439 0 9.6800212314251439 -19.027158571454493 0 0 0 0 86.198590941094153 41.619027741351601 0 41.619027741351601 4.5356959159407779 0 0 0 0 81.239198143455724 77.935231771214148 0 77.935231771214148 55.655025765418486 0 0 0 0 144.03427254308917 117.28466282437307 0 117.28466282437307 2.5455363598612166 0 0 0 0 181.03158892887586 46.26788938509344 0 46.26788938509344 -38.481482435468024 0 0 0 0 111.64096154642903 19.858563209317253 0 19.858563209317253 -26.508233102455961 0 0 0 0 282.70851756918637 20.692648837052047 0 20.692648837052047 -43.707471032029389 0 0 0 0 225.15649770207528 152.53474501792789 0 152.53474501792789 -13.35160604406019 0 0 0 0 212.21186786818726 140.0939327318797 0 140.0939327318797 -25.270082230018488 0 0 0 0 482.44957888069621 165.8353336306277 0 165.8353336306277 -26.012544563690426 0 0 0 0 313.78284191777857 66.262007060403221 0 66.262007060403221 -25.803914678033834 0 0 0 0 183.87110971526999 26.273802131013326 0 26.273802131013326 -23.996620816510585 0 0 0 0 355.24079592670023 -16.415699569745811 0 -16.415699569745811 -23.685859776367579 0 0 0 0 165.02144731473527 -68.60961768171228 0 -68.60961768171228 41.970643770416245 0 0 0 0 304.34752259929883 -61.63313881144245 0 -61.63313881144245 28.537890639965553 0 0 0 0 378.41803030556184 91.105959788800646 0 91.105959788800646 80.032944117850093 0 0 0 0 374.39236933038046 62.25167524738572 0 62.25167524738572 116.06209216755451 0 0 0 0 590.69156614124131 321.17757109715092 0 321.17757109715092 24.221123560422711 0 0 0 0 504.68738111108541 -57.157908451907133 0 -57.157908451907133 210.08605542757323 0 0 0 0 468.79645095393062 341.4716648181693 0 341.4716648181693 574.34069626255769 0 0 0 0 594.39244472467203 -38.70680461517621 0 -38.70680461517621 74.745892312439537 0 0 0 0 547.11853447070462 28.081633616822728 0 28.081633616822728 -19.610417703017902 0 0 0 0 -93.868927642724884 -67.033110042319777 0 -67.033110042319777 71.811828802508899 0 0 0 0 20.776009023225924 -6.1576165875339939 0 -6.1576165875339939 53.881927294543857 0 0 0 0 2.4454100742702849 -1.6521832045614957 0 -1.6521832045614957 0.62821840709956156 0 0 0 0 160.57941822350404 -21.416604137440572 0 -21.416604137440572 22.096164940577864 0 0 0 0 77.978234952264756 -20.066636942645346 0 -20.066636942645346 58.068871003199092 0 0 0 0 78.534626388805918 13.283595727607008 0 13.283595727607008 -23.209993637858133 0 0 0 0 14.354346266360153 -5.0707946156487651 0 -5.0707946156487651 -1.7485829098950489 0 0 0 0 2.5126451257259426 -2.8236110618107659 0 -2.8236110618107659 -2.1825021848995778 0 0 0 0 -38.420495946222218 -47.730760258860073 0 -47.730760258860073 -0.45020349620790512 0 0 0 0 72.545685711200349 -72.312890483647607 0 -72.312890483647607 -55.392535590310672 0 0 0 0 102.95706739075831 25.59904720316672 0 25.59904720316672 -22.392770080448827 0 0 0 0 55.293094375767396 -21.16723733997469 0 -21.16723733997469 -31.740333879963146 0 0 0 0 28.000333205003699 -14.59421725878974 0 -14.59421725878974 -9.3691414624718163 0 0 0 0 61.24106288512121 36.521527623364818 0 36.521527623364818 8.4966453758388525 0 0 0 0 4.5311906605562768 1.5038619698803402 0 1.5038619698803402 -1.3515297387182237 0 0 0 0 116.07248784053809 -8.9247598942206423 0 -8.9247598942206423 -57.363818285852176 0 0 0 0 53.943825968759484 -3.740426025061879 0 -3.740426025061879 -45.308596366632628 0 0 0 0 32.165531134021876 -31.317772363806853 0 -31.317772363806853 25.459504778982591 0 0 0 0 0.42075613834458636 12.11323295846023 0 12.11323295846023 18.947370740180304 0 0 0 0 -2.9093027106537193 -3.8633193463679163 0 -3.8633193463679163 0.16954094642005657 0 0 0 0 -0.2727520572631903 1.3063008514606 0 1.3063008514606 0.24356112579354772 0 0 0 0 8.7839912284530612 4.6164476339644089 0 4.6164476339644089 -3.8852754971445531 0 0 0 0 14.89990017398668 29.466804330350897 0 29.466804330350897 13.222961639839696 0 0 0 0 2.2106264992144133 7.1199156266893624 0 7.1199156266893624 10.211645195426172 0 0 0 0 1.5170839899606676 5.9035628632041588 0 5.9035628632041588 -0.44160092570240961 0 0 0 0 4.9966751077372464 16.934726439583073 0 16.934726439583073 -13.711160823312866 0 0 0 0 -0.38292483641998842 15.293472374226212 0 15.293472374226212 -10.804389310414933 0 0 0 0 9.5404942352179205 12.662056183715322 0 12.662056183715322 -10.420172872163675 0 0 0 0 0.13794594520003045 4.7936748534109626 0 4.7936748534109626 -5.5624588807294151 0 0 0 0 1.7409772607206833 11.744701639566301 0 11.744701639566301 7.2673803581110406 0 0 0 0 0.054960324101557489 -25.757984492763171 0 -25.757984492763171 -26.245768217861837 0 0 0 0 -1.0866592183727732 0.84106950653387713 0 0.84106950653387713 -0.30360479537124618 0 0 0 0 9.0235076886353482 6.7210896167820433 0 6.7210896167820433 -0.94197349540287068 0 0 0 0 22.287971502410073 19.781855020940839 0 19.781855020940839 -14.07238789445455 0 0 0 0 1.523370053431865 -0.77713460540151402 0 -0.77713460540151402 7.6948941369363197 0 0 0 0 -93.043507183152542 42.701261751654329 0 42.701261751654329 25.860037346265926 0 0 0 0 -10.449218057496182 3.7552088100355832 0 3.7552088100355832 -6.8540564722921999 0 0 0 0 18.871647456327082 4.5926145467204265 0 4.5926145467204265 -11.039377180576594 0 0 0 0 141.20925149897812 -6.384326445771876 0 -6.384326445771876 -25.151293852692561 0 0 0 0 -24.790988725668285 152.57019767912016 0 152.57019767912016 5.8126794127238099 0 0 0 0 2.5015067723143147 6.4257576847760447 0 6.4257576847760447 -6.3775507987311357 0 0 0 0 16.305673627375654 16.465777901533784 0 16.465777901533784 -14.179240659775132 0 0 0 0 4.5656489104954758 4.1121613145231279 0 4.1121613145231279 -7.4590324738379827 0 0 0 0 -0.63523482094694828 1.6888581171791337 0 1.6888581171791337 -0.58796570278817306 0 0 0 0 13.742484413645343 19.869910235058448 0 19.869910235058448 36.330613003252438 0 0 0 0 2.1086814235713831 1.640673488078896 0 1.640673488078896 -6.9087010539281231 0 0 0 0 18.074071346811252 38.605213988701053 0 38.605213988701053 26.973583978604438 0 0 0 0 12.949868428135233 36.701503536234668 0 36.701503536234668 37.978397409613535 0 0 0 0 15.179942146773101 27.66878795050161 0 27.66878795050161 43.680836947451098 0 0 0 0 44.926139098562999 59.983078634381854 0 59.983078634381854 57.234512205968485 0 0 0 0 37.224449334120436 29.50367618491714 0 29.50367618491714 14.443118935799248 0 0 0 0 0.56362471697403294 -1.543193699856225 0 -1.543193699856225 2.6797040187973948 0 0 0 0 321.22069860783085 196.20989055439497 0 196.20989055439497 73.242796750512298 0 0 0 0 -123.93174274474586 -67.10733083285686 0 -67.10733083285686 106.14665255910813 0 0 0 0 156.26327652923646 -78.333482579102565 0 -78.333482579102565 -34.574547636054461 0 0 0 0 22.686163919701357 159.05434469329975 0 159.05434469329975 -46.361027536780966 0 0 0 0 20.594081320639816 29.635550351410529 0 29.635550351410529 34.642970248867641 0 0 0 0 240.33398251375911 187.58022164405475 0 187.58022164405475 95.82493710919789 0 0 0 0 289.12752324960093 169.19104978237056 0 169.19104978237056 71.418754880131928 0 0 0 0 254.56186923636415 194.49336666298768 0 194.49336666298768 13.612555556280313 0 0 0 0 199.23642884446485 163.77104358955165 0 163.77104358955165 29.830958902766724 0 0 0 0 239.95358435809612 174.76792010222425 0 174.76792010222425 -0.52215820660148893 0 0 0 0 192.91587873337267 63.236426010537116 0 63.236426010537116 -112.96761216618961 0 0 0 0 146.80300342923874 114.16247871095584 0 114.16247871095584 -11.220375871649026 0 0 0 0 200.28347573638894 27.993690488954144 0 27.993690488954144 60.086330905518025 0 0 0 0 342.15187843194872 107.35019876851857 0 107.35019876851857 -14.33764721581781 0 0 0 0 233.92626121232388 170.18702874813323 0 170.18702874813323 70.432664722413392 0 0 0 0 326.70018059050926 221.74318369740456 0 221.74318369740456 148.72471403580312 0 0 0 0 295.31502200305113 167.67886111058942 0 167.67886111058942 69.860072053302702 0 0 0 0 456.61359376290056 -7.9114018305696163 0 -7.9114018305696163 59.842710335004995 0 0 0 0 605.48748325524866 193.0773819372248 0 193.0773819372248 386.4879713541186 0 0 0 0 586.03700070902505 22.8839954063493 0 22.8839954063493 67.014445791077378 0 0 0 0 541.16371975257607 252.95826196194776 0 252.95826196194776 152.72678237660057 0 0 0 0 1.2726308642193231 1.2283096232308939 0 1.2283096232308939 1.7742393532083724 0 0 0 0 207.40030062424194 248.33253356394835 0 248.33253356394835 307.49421109361265 0 0 0 0 121.8048620607151 189.2608945462116 0 189.2608945462116 272.06156188880414 0 0 0 0 120.51096994813997 170.30961939733174 0 170.30961939733174 236.7384029797222 0 0 0 0 40.751086648280761 34.777150319250723 0 34.777150319250723 67.367807332547272 0 0 0 0 247.94682153461326 246.20402147941195 0 246.20402147941195 214.06187096050417 0 0 0 0 168.80640536022838 137.98919908509015 0 137.98919908509015 74.840466304719484 0 0 0 0 3.4562618168856716 -9.4424281550877822 0 -9.4424281550877822 -6.31047427073986 0 0 0 0 -14.090098097432929 -14.89665304426353 0 -14.89665304426353 30.418259175417916 0 0 0 0 -14.708473293905627 29.489610674466803 0 29.489610674466803 -21.143035247225725 0 0 0 0 6.7667240424507327 4.1946595612905639 0 4.1946595612905639 -18.836310363123175 0 0 0 0 13.432335352877999 3.5943577512230149 0 3.5943577512230149 -8.7610298885276734 0 0 0 0 4.2288710853838438 2.3801650580701157 0 2.3801650580701157 -0.47836020679067293 0 0 0 0 -9.6701919490078581 13.820174545287955 0 13.820174545287955 -8.205506093289614 0 0 0 0 18.081325096125511 -0.43655870799989316 0 -0.43655870799989316 -6.9779704777942726 0 0 0 0 -10.229786194608096 16.433633961880275 0 16.433633961880275 -8.9306202982104423 0 0 0 0 4.6055633654201245 2.7799802985140261 0 2.7799802985140261 -2.9441489310532081 0 0 0 0 0.42511936554365093 6.6403628368411773 0 6.6403628368411773 -5.3936691759863606 0 0 0 0 -2.9938322299276479 6.9805778234167519 0 6.9805778234167519 0.019394198858208256 0 0 0 0 -0.72150881759424124 3.5172526101369996 0 3.5172526101369996 2.4516053043851977 0 0 0 0 -22.505334199668141 0.69108433727865304 0 0.69108433727865304 6.3668175547479677 0 0 0 0 0.070171367639972004 -0.88145446969567587 0 -0.88145446969567587 0.86049538143191207 0 0 0 0 -1.1467217439349042 17.620856090402413 0 17.620856090402413 -18.834450014153845 0 0 0 0 -7.9087470762096928 21.419596996378459 0 21.419596996378459 -11.427640383218204 0 0 0 0 -9.4377815927218762 24.197726517450747 0 24.197726517450747 -16.287231802216411 0 0 0 0 -1.7968890559241117 20.913876803720484 0 20.913876803720484 -29.452203382803418 0 0 0 0 1.60397821558891 1.669683912534353 0 1.669683912534353 -0.71189616968909686 0 0 0 0 2.008420545640405 5.1662935801367009 0 5.1662935801367009 2.1313459765475584 0 0 0 0 3.2976055030885618 7.1334160126475581 0 7.1334160126475581 -25.459170043374343 0 0 0 0 -10.105657281558251 5.1618536475785177 0 5.1618536475785177 3.5657255644582619 0 0 0 0 3.90280857491598 3.8676402672322183 0 3.8676402672322183 -14.527321480122737 0 0 0 0 -1.9999688128082198 15.191929421852592 0 15.191929421852592 -9.5642801463608293 0 0 0 0 -2.5202507197172963 18.158218445100147 0 18.158218445100147 -20.076596296145794 0 0 0 0 -0.28281033461625782 1.6666394490455037 0 1.6666394490455037 0.78121965974397434 0 0 0 0 3.5085691505067302 2.2309367311863539 0 2.2309367311863539 -2.5131762352987774 0 0 0 0 1.3365675995009951 6.6520817056218675 0 6.6520817056218675 -6.581469000379002 0 0 0 0 1.1449872762896121 7.5235018302885237 0 7.5235018302885237 -10.488988770099525 0 0 0 0 -17.663105307062324 -0.65408638253539664 0 -0.65408638253539664 -8.6331338220206817 0 0 0 0 4.6517338754929369 2.3798035834485063 0 2.3798035834485063 -7.0534950571238113 0 0 0 0 2.5779648912786044 3.0238092679511652 0 3.0238092679511652 -4.5166542610934677 0 0 0 0 -3.3259697503381176 32.613861013153041 0 32.613861013153041 -14.303539619564162 0 0 0 0 -30.097091122202073 31.304078975340303 0 31.304078975340303 -12.264756756096631 0 0 0 0 20.699105638301262 14.909490915851165 0 14.909490915851165 -11.332146781999768 0 0 0 0 18.516233552209087 8.3382619799984354 0 8.3382619799984354 -31.061687813685694 0 0 0 0 88.297237311151548 8.1132421543517239 0 8.1132421543517239 -47.722072562667137 0 0 0 0 92.335206941388606 6.2327334030188695 0 6.2327334030188695 -46.918416638379426 0 0 0 0 55.517274813471886 60.431617248347237 0 60.431617248347237 -60.586136755385496 0 0 0 0 78.361367980171053 -23.887858593786405 0 -23.887858593786405 -48.852683901316823 0 0 0 0 152.8738259431193 -23.465554135909315 0 -23.465554135909315 -57.400450417371928 0 0 0 0 63.671506067781593 -25.799640522466916 0 -25.799640522466916 -8.8008510391874779 0 0 0 0 78.784721883747807 -30.12748703414573 0 -30.12748703414573 -43.555714218070989 0 0 0 0 83.076487272308441 18.423543878473652 0 18.423543878473652 4.0583434113122649 0 0 0 0 311.66339793328734 142.77623263876592 0 142.77623263876592 69.149783637306314 0 0 0 0 153.89810496955397 35.625746890378181 0 35.625746890378181 -0.78834861364398989 0 0 0 0 261.0268777649726 -0.34190691860679578 0 -0.34190691860679578 -68.570048333637857 0 0 0 0 145.80133261603623 -32.410287568016031 0 -32.410287568016031 -75.723639747639808 0 0 0 0 94.920297100274183 5.8292726411299896 0 5.8292726411299896 -67.961289447839192 0 0 0 0 191.51855257094576 14.488644525294262 0 14.488644525294262 -68.914208296824597 0 0 0 0 105.83452988761928 -1.8863448409638579 0 -1.8863448409638579 -29.85221172389187 0 0 0 0 115.33666671504398 12.716466346633581 0 12.716466346633581 -141.27689980394149 0 0 0 0 91.167194030698738 20.368937881854166 0 20.368937881854166 -14.537832795209738 0 0 0 0 78.990749385320669 21.737589647942627 0 21.737589647942627 125.33644743697744 0 0 0 0 52.368439795791346 -64.624103273782282 0 -64.624103273782282 8.2702390625023838 0 0 0 0 38.826190769113964 -110.01920710704769 0 -110.01920710704769 -50.123332538323439 0 0 0 0 157.04114354065678 -370.41818203146516 0 -370.41818203146516 351.47865375858191 0 0 0 0 549.89730312341271 -249.35988668455047 0 -249.35988668455047 -345.34471842514142 0 0 0 0 123.65398287394055 202.10915338579207 0 202.10915338579207 -460.26274589725836 0 0 0 0 203.07587459912611 -85.953965479158597 0 -85.953965479158597 -67.47921065523127 0 0 0 0 5.4439708302379586 67.924245888679593 0 67.924245888679593 -59.763685227339693 0 0 0 0 -76.78599448416935 71.120855472436972 0 71.120855472436972 -30.082838524250633 0 0 0 0 -189.77081236298545 209.33483580315851 0 209.33483580315851 -134.79686907310099 0 0 0 0 4.6733528296608711 66.205125049923709 0 66.205125049923709 -59.561032107986648 0 0 0 0 0.86577326669920041 2.0072596959533087 0 2.0072596959533087 -5.6180526418118957 0 0 0 0 -214.69764672021483 35.921085902129803 0 35.921085902129803 -11.946412115348267 0 0 0 0 32.793806366236822 47.249276321425555 0 47.249276321425555 48.361469551542996 0 0 0 0 -90.917453011219095 -4.2667605669883883 0 -4.2667605669883883 -2.6898768207520334 0 0 0 0 -1.3751404392587787 0.85168265882361993 0 0.85168265882361993 0.63900147998170542 0 0 0 0 -152.92835777237633 405.03415356294147 0 405.03415356294147 -98.549309832599107 0 0 0 0 190.40552320087954 169.16775886948403 0 169.16775886948403 -204.62802087751834 0 0 0 0 6.9797889740449648 2.3055067100927644 0 2.3055067100927644 1.1334105290888363 0 0 0 0 126.65434350929718 -173.09725435443988 0 -173.09725435443988 155.58444933745818 0 0 0 0 53.680326211026113 125.85748819239416 0 125.85748819239416 57.492454315240366 0 0 0 0 1.6535945853073599 0.34371615732981908 0 0.34371615732981908 -0.068155562584911511 0 0 0 0 245.50863437076987 -126.27178608707152 0 -126.27178608707152 20.659967256309756 0 0 0 0 231.23519004412356 -47.336044197325833 0 -47.336044197325833 2.4937456585769269 0 0 0 0 32.839024776796577 -101.70388672965123 0 -101.70388672965123 97.59805406625992 0 0 0 0 129.43115245474837 -176.5718300558882 0 -176.5718300558882 155.43641693714176 0 0 0 0 6.8731521756271405 3.5179070337074627 0 3.5179070337074627 1.4761451008834228 0 0 0 0 92.990789815561584 -120.87274595142623 0 -120.87274595142623 41.580806559160919 0 0 0 0 148.72234876494622 -153.62152298182514 0 -153.62152298182514 54.548332606955228 0 0 0 0 120.75316981348078 -79.313146835856685 0 -79.313146835856685 13.289145065055891 0 0 0 0 109.41746364995925 -9.4806678867248593 0 -9.4806678867248593 4.0668417548813913 0 0 0 0 183.04475578239908 -88.6910806889843 0 -88.6910806889843 14.383460455046588 0 0 0 0 -55.530926900399209 -65.483258103567096 0 -65.483258103567096 144.28651374858509 0 0 0 0 1.0891357538621378 -2.1771842697795378 0 -2.1771842697795378 -2.4844948562033551 0 0 0 0 7.8935264330793871 -10.176383090648756 0 -10.176383090648756 -0.39561829882336497 0 0 0 0 8.7510096017140953 0.6213473641388596 0 0.6213473641388596 -3.3372115698248401 0 0 0 0 0.93690760409657514 -0.72204983961520242 0 -0.72204983961520242 -0.83275421759626234 0 0 0 0 102.73962757958543 202.81999188812324 0 202.81999188812324 -82.004059057009954 0 0 0 0 -79.214666678624781 -153.27949824927475 0 -153.27949824927475 15.515356531072712 0 0 0 0 361.87354932521703 -237.28987266726176 0 -237.28987266726176 31.099758172330041 0 0 0 0 58.506048545699741 173.08936393490796 0 173.08936393490796 464.83153785132799 0 0 0 0 -33.797431434672035 -83.009425822700791 0 -83.009425822700791 2.6917091500374681 0 0 0 0 -80.871780905559717 87.915226098220273 0 87.915226098220273 110.2043448826924 0 0 0 0 -0.70483615184872406 0.33556702858233933 0 0.33556702858233933 0.85713559235204695 0 0 0 0 2.9195719388626458 -52.278849052975488 0 -52.278849052975488 29.185518194783981 0 0 0 0 30.324539652970998 8.0250290089457508 0 8.0250290089457508 -38.047621463158976 0 0 0 0 6.2621937801632868 2.8694300101249013 0 2.8694300101249013 0.55129041721842897 0 0 0 0 60.736532347375032 0.51231630838810815 0 0.51231630838810815 -3.6479050866968805 0 0 0 0 63.136768510795264 7.2566088140434744 0 7.2566088140434744 5.9653319997173639 0 0 0 0 157.14740922482451 -76.30363383210539 0 -76.30363383210539 14.112835427405116 0 0 0 0 262.57103895169166 9.5199350933831397 0 9.5199350933831397 -68.96474398309897 0 0 0 0 1.7477320617534673 1.3256841462226312 0 1.3256841462226312 1.2142526422685831 0 0 0 0 41.126441143954253 92.831526952769522 0 92.831526952769522 106.67788460751751 0 0 0 0 335.77369444457145 -142.31412662076247 0 -142.31412662076247 36.960865331372844 0 0 0 0 337.89693428446571 65.426046593936235 0 65.426046593936235 -439.60481699986377 0 0 0 0 2.3669763079776089 0.3341944603649063 0 0.3341944603649063 -0.23832368013730632 0 0 0 0 35.622726722107473 -69.589611841624901 0 -69.589611841624901 -141.48346876284583 0 0 0 0 177.99515958053144 -219.91882647442776 0 -219.91882647442776 -15.017434783068666 0 0 0 0 82.518333038846322 159.91689748681006 0 159.91689748681006 -181.76274476463084 0 0 0 0 236.21770095029569 97.719734024558534 0 97.719734024558534 -353.47769069827996 0 0 0 0 208.08167658684215 42.911124212888438 0 42.911124212888438 277.98743853915289 0 0 0 0 200.58195053265081 -14.623406619366961 0 -14.623406619366961 -134.93898295078725 0 0 0 0 -97.804953209739324 -248.38397113821691 0 -248.38397113821691 99.89539500402401 0 0 0 0 293.96843776061723 205.58191917309159 0 205.58191917309159 97.990440800514079 0 0 0 0 -49.289369653375616 38.715158689942427 0 38.715158689942427 231.02698061384626 0 0 0 0 198.24924139820359 163.89092263664088 0 163.89092263664088 72.198173405254238 0 0 0 0 -58.109087230855948 195.94434147225707 0 195.94434147225707 311.05851512165594 0 0 0 0 -47.763897170858399 215.91289274741956 0 215.91289274741956 135.69392310555668 0 0 0 0 211.03232536491669 93.296827131941271 0 93.296827131941271 -120.13704783116236 0 0 0 0 47.417740128723381 52.445671565021257 0 52.445671565021257 -260.17642874865703 0 0 0 0 173.40881029466254 169.4946942102502 0 169.4946942102502 -205.8859456969783 0 0 0 0 -72.352498926898988 436.15302443972644 0 436.15302443972644 -74.079100618565462 0 0 0 0 158.90760516906994 91.970265386493992 0 91.970265386493992 -541.23864210278145 0 0 0 0 -22.053947275060636 -127.66102706074287 0 -127.66102706074287 -244.87450048234336 0 0 0 0 5.2976774846877319 -2.0660450384399027 0 -2.0660450384399027 -5.0396088675354065 0 0 0 0 97.175479599041864 54.42397625957517 0 54.42397625957517 -50.2283145192701 0 0 0 0 -1.0364715699142835 -29.961774403686604 0 -29.961774403686604 -81.411774989540845 0 0 0 0 20.463489753431347 6.4406075875520852 0 6.4406075875520852 -0.56566287796232628 0 0 0 0 -17.718505276023279 5.5732999177546105 0 5.5732999177546105 40.012350833296978 0 0 0 0 172.56889067222801 33.580767127297122 0 33.580767127297122 24.298665887892128 0 0 0 0 129.65592285839739 -49.233241088012676 0 -49.233241088012676 -3.7174826701086658 0 0 0 0 87.044641695691098 -120.95027367118246 0 -120.95027367118246 42.458507068167364 0 0 0 0 156.58864462318161 -62.146788214377921 0 -62.146788214377921 2.2449362077134083 0 0 0 0 160.2462533047219 -53.526619709930401 0 -53.526619709930401 12.936969290478373 0 0 0 0 426.33398403086176 -110.3897256752366 0 -110.3897256752366 6.9207757056701666 0 0 0 0 319.60080828980426 -82.141706392336346 0 -82.141706392336346 6.4254990857202756 0 0 0 0 198.103277933973 -193.04993186738784 0 -193.04993186738784 46.107207406634188 0 0 0 0 205.47454131285485 -217.71951572207354 0 -217.71951572207354 82.541646979820598 0 0 0 0 175.66186044168717 -184.2739537568973 0 -184.2739537568973 60.802200030700988 0 0 0 0 -37.184341137373849 6.3767324474674751 0 6.3767324474674751 11.393404528783208 0 0 0 0 76.69648856495769 58.172648968288001 0 58.172648968288001 33.217829065201499 0 0 0 0 10.543802118224768 3.021166640383818 0 3.021166640383818 -1.71305453387232 0 0 0 0 12.145836133288697 3.744690096722505 0 3.744690096722505 -2.48828023812105 0 0 0 0 18.014070532503865 3.2460319323753026 0 3.2460319323753026 -10.702372457590741 0 0 0 0 13.070156825801945 2.7187314937341505 0 2.7187314937341505 -1.3789640430120529 0 0 0 0 -146.80919004090538 226.2842487508382 0 226.2842487508382 -273.63829135108216 0 0 0 0 113.61689315411786 62.293893552624425 0 62.293893552624425 -177.9744041685293 0 0 0 0 27.078723717866524 -36.239484037268824 0 -36.239484037268824 -127.1765298024219 0 0 0 0 23.420424426847603 -37.594595742021255 0 -37.594595742021255 -94.832806610390662 0 0 0 0 10.460563663466019 2.5218028515826063 0 2.5218028515826063 -14.803959100853149 0 0 0 0 8.5371969248881214 5.0551118722862611 0 5.0551118722862611 -8.9436307220064464 0 0 0 0 8.3511541134971736 -0.085193288718299343 0 -0.085193288718299343 -0.53844820356233702 0 0 0 0 32.969066081772326 -58.770238630576443 0 -58.770238630576443 -66.988766384325203 0 0 0 0 5.3146583980900743 4.726801302405863 0 4.726801302405863 -0.86045983433722983 0 0 0 0 38.1220417983277 161.29362555942214 0 161.29362555942214 163.49418039584123 0 0 0 0 108.90555672779374 -162.73152438185411 0 -162.73152438185411 135.41618247224369 0 0 0 0 253.70324417247502 435.80640954861332 0 435.80640954861332 -27.613196207254077 0 0 0 0 10.891833898596815 151.4470652738114 0 151.4470652738114 540.84171409981127 0 0 0 0 4.5354103780774864 1.1770004445905347 0 1.1770004445905347 -1.0698093313133425 0 0 0 0 27.512519403793704 -59.915012335338588 0 -59.915012335338588 -137.08034496838786 0 0 0 0 387.05785150618249 23.615377255212366 0 23.615377255212366 -117.67755115460545 0 0 0 0 53.650968903606554 -42.160185524135272 0 -42.160185524135272 -99.613514391927765 0 0 0 0 -2.0077594450485776 10.350776939875743 0 10.350776939875743 34.011814473240008 0 0 0 0 91.943283758653706 -138.34172971369873 0 -138.34172971369873 -190.26288505731662 0 0 0 0 49.619943154742941 -315.51526419032041 0 -315.51526419032041 393.42045039436567 0 0 0 0 188.12583519628606 246.69161587799073 0 246.69161587799073 126.54789382679962 0 0 0 0 28.402620579177892 180.39064530900441 0 180.39064530900441 -95.550110477689145 0 0 0 0 42.648772512140567 89.625980422548423 0 89.625980422548423 -42.036392909671576 0 0 0 0 31.073304389965415 113.8362788978433 0 113.8362788978433 -56.587038472799804 0 0 0 0 127.46524112980114 49.274037000321528 0 49.274037000321528 -114.34217844818954 0 0 0 0 2.2082399509389319 0.46093404098001756 0 0.46093404098001756 -0.1658066763605891 0 0 0 0 76.028590281233846 -124.78558339449961 0 -124.78558339449961 -0.18708267426950442 0 0 0 0 105.61952783637025 152.79117063391243 0 152.79117063391243 -273.81938632177514 0 0 0 0 33.519110594992526 -37.636685943406519 0 -37.636685943406519 -60.263772853431192 0 0 0 0 22.01161313985358 -56.697332043292363 0 -56.697332043292363 -70.31182257778255 0 0 0 0 98.496971821319676 43.897478382524582 0 43.897478382524582 -230.69825792834308 0 0 0 0 199.24917434019881 -59.62400776801303 0 -59.62400776801303 -177.76926237318594 0 0 0 0 28.425391231481626 -53.220161732824636 0 -53.220161732824636 -100.5148869174363 0 0 0 0 29.504997480631573 -71.184944778806766 0 -71.184944778806766 -119.85898911941388 0 0 0 0 4.7706870907199317 0.086292641436838124 0 0.086292641436838124 -0.54581579201000929 0 0 0 0 127.39511228859919 -52.004251747408489 0 -52.004251747408489 -307.44210736165246 0 0 0 0 44.230048058514512 -30.327640255369033 0 -30.327640255369033 -224.8082033592417 0 0 0 0 -39.167075624529389 39.287143496606177 0 39.287143496606177 -67.372435385525478 0 0 0 0 25.678383965379908 -123.05079966018479 0 -123.05079966018479 -82.977221975512521 0 0 0 0 117.03706391073501 -148.90262683425465 0 -148.90262683425465 124.04848483406204 0 0 0 0 179.6648172594596 -31.091305000322876 0 -31.091305000322876 -47.38068923114588 0 0 0 0 220.86069169412804 28.756385913127133 0 28.756385913127133 -4.4997032873604894 0 0 0 0 -76.453211606909463 239.27931048605706 0 239.27931048605706 104.43859134280592 0 0 0 0 104.98856702289777 307.97072496387409 0 307.97072496387409 61.307328945825248 0 0 0 0 315.82798175916469 -106.28693189579894 0 -106.28693189579894 121.51517162495475 0 0 0 0 3.2914209325466288 1.9792692298400141 0 1.9792692298400141 1.1560661860932635 0 0 0 0 -17.156091997043404 3.4576116850810195 0 3.4576116850810195 -142.91906308422767 0 0 0 0 -2.8474707007608231 -67.390982931400742 0 -67.390982931400742 -10.866096499606556 0 0 0 0 19.209798755939119 -30.138044971300587 0 -30.138044971300587 -16.837835571817095 0 0 0 0 9.4363661386082072 3.7201348958971678 0 3.7201348958971678 0.97750778477470268 0 0 0 0 11.715264328599687 3.7817687024386863 0 3.7817687024386863 0.29954656871205243 0 0 0 0 103.06397951108374 170.81855966279022 0 170.81855966279022 -267.59576440494209 0 0 0 0 90.605496169171602 -76.421609364718961 0 -76.421609364718961 -92.910517212326795 0 0 0 0 -90.554398073065386 128.85264932600171 0 128.85264932600171 -23.064362806860117 0 0 0 0 15.640141233176109 209.13970342963762 0 209.13970342963762 -301.81676845207539 0 0 0 0 55.673567509140412 -83.832696087881232 0 -83.832696087881232 73.326670706690948 0 0 0 0 -51.943556185146008 48.226811301204407 0 48.226811301204407 76.266330731797098 0 0 0 0 157.97850673623179 16.22673000237819 0 16.22673000237819 66.513068141654912 0 0 0 0 137.99171165933149 -123.27580805935241 0 -123.27580805935241 135.69206287717589 0 0 0 0 163.30998215904401 -64.650941470862563 0 -64.650941470862563 49.809140673437014 0 0 0 0 308.39896322324057 -294.38999872313389 0 -294.38999872313389 266.0550673234311 0 0 0 0 299.59017548798874 -209.96585475890038 0 -209.96585475890038 89.705474822834731 0 0 0 0 254.64178615747369 -160.35303039522933 0 -160.35303039522933 36.390609449899785 0 0 0 0 106.16082803871177 -46.732225245035806 0 -46.732225245035806 103.40887587521684 0 0 0 0 290.33393135602819 -56.865283030180308 0 -56.865283030180308 51.782779912084152 0 0 0 0 126.72912068245932 171.29722507298584 0 171.29722507298584 69.093445290992349 0 0 0 0 249.55897465536691 101.53649954298362 0 101.53649954298362 79.713342559763987 0 0 0 0 75.719900155825599 105.12404562950155 0 105.12404562950155 93.704003992307548 0 0 0 0 114.42104840812681 174.61778656935894 0 174.61778656935894 81.491728753227108 0 0 0 0 171.42842781335639 149.93056469969451 0 149.93056469969451 39.466076985817836 0 0 0 0 207.50027275813773 223.38834077284764 0 223.38834077284764 53.122427589956715 0 0 0 0 124.6459949554046 182.29681004333224 0 182.29681004333224 33.253673270789477 0 0 0 0 94.774465764145134 238.68666928607536 0 238.68666928607536 61.82137517936053 0 0 0 0 201.5654407158072 252.029093563066 0 252.029093563066 39.068407458488764 0 0 0 0 214.94521910448384 274.27896711516883 0 274.27896711516883 64.631995388008363 0 0 0 0 -152.14340668871955 108.61181232415481 0 108.61181232415481 104.30600132404561 0 0 0 0 69.975627139779135 155.89146663435622 0 155.89146663435622 71.696382641363016 0 0 0 0 24.491708115456277 -63.932538007593507 0 -63.932538007593507 71.402750033034408 0 0 0 0 7.6369270876384689 -57.871369469242723 0 -57.871369469242723 122.86355676399262 0 0 0 0 23.276167435804382 -22.694744819063089 0 -22.694744819063089 -34.394776542869749 0 0 0 0 -12.418794377183076 -1.3334589748737926 0 -1.3334589748737926 29.57018216604024 0 0 0 0 23.615290684188949 -70.18584617509805 0 -70.18584617509805 62.660930822574755 0 0 0 0 7.2352916056115646 -33.851210544597961 0 -33.851210544597961 34.995275548951213 0 0 0 0 15.206902683959925 -27.173333653058307 0 -27.173333653058307 18.787819398048441 0 0 0 0 -0.97794099563907366 -14.064494403490698 0 -14.064494403490698 11.0593387784794 0 0 0 0 31.602207319432637 -15.027757401013332 0 -15.027757401013332 11.026271834796631 0 0 0 0 10.123648891632911 -15.204820702478173 0 -15.204820702478173 -4.6435183647681697 0 0 0 0 -20.214742208700045 1.490990147476623 0 1.490990147476623 -9.3957634978096394 0 0 0 0 10.74965424722177 -4.1024879490983039 0 -4.1024879490983039 -55.295575223081869 0 0 0 0 -0.79898172349203378 -37.349993068895856 0 -37.349993068895856 12.892298062776717 0 0 0 0 -13.050439122875105 -24.985276529207567 0 -24.985276529207567 7.8137441884771306 0 0 0 0 5.1377543065227655 -0.67996820044578499 0 -0.67996820044578499 -33.402872355075488 0 0 0 0 1.4004808943545122 -0.52690479996918782 0 -0.52690479996918782 -0.036724881584602187 0 0 0 0 -4.5869318949298759 -30.847408550216869 0 -30.847408550216869 -42.518691458918511 0 0 0 0 4.213661384943407 -6.9184278557322614 0 -6.9184278557322614 -17.006647147562489 0 0 0 0 -5.1020695244660601 -15.414294988766073 0 -15.414294988766073 -504.60127329921852 0 0 0 0 5.3655741102556931 -4.0557034651419599 0 -4.0557034651419599 -1.2568223705029595 0 0 0 0 4.7236935671223961 -2.8531384593615705 0 -2.8531384593615705 -1.0276552823217457 0 0 0 0 6.5643381345626324 -3.5959224594224288 0 -3.5959224594224288 0.96866528758793091 0 0 0 0 2.0690974528188235 -0.91673050835706249 0 -0.91673050835706249 -2.3070001903834054 0 0 0 0 9.9329028204101988 -1.476236506348215 0 -1.476236506348215 -2.4503598021736259 0 0 0 0 14.878216817553039 7.160319871088177 0 7.160319871088177 -9.9754630238935533 0 0 0 0 1.6626068219546823 0.07994226679620553 0 0.07994226679620553 -0.32746730487718523 0 0 0 0 9.9423270178085659 11.32517010912261 0 11.32517010912261 2.4714129292151483 0 0 0 0 19.059084328117024 7.5857842500995503 0 7.5857842500995503 -9.0583234532987262 0 0 0 0 9.1436738982592942 3.430251399368899 0 3.430251399368899 -8.9553203640848551 0 0 0 0 1.1729715265209961 -37.851221243892383 0 -37.851221243892383 -28.682085756457127 0 0 0 0 45.168673336207576 45.141607377164064 0 45.141607377164064 34.472446073809351 0 0 0 0 88.168144765950274 5.3547508744766219 0 5.3547508744766219 -46.387769148780649 0 0 0 0 338.36907372459245 -71.922900377207043 0 -71.922900377207043 -20.812896705310777 0 0 0 0 -78.695421532313048 -17.392766675810037 0 -17.392766675810037 183.85430584975802 0 0 0 0 596.7686381002859 -169.51218832832819 0 -169.51218832832819 3.5043972181042591 0 0 0 0 0.61330193672593225 -1.5322607667655603 0 -1.5322607667655603 3.305243641751856 0 0 0 0 64.359654861127638 -100.40665660323918 0 -100.40665660323918 90.667358575060462 0 0 0 0 106.08048322227842 -219.0333515973 0 -219.0333515973 369.90842737399089 0 0 0 0 0.29518695162141739 -0.35363430440097687 0 -0.35363430440097687 0.30384081925690065 0 0 0 0 64.665863020425604 -101.17772392286588 0 -101.17772392286588 86.854110743428464 0 0 0 0 102.21771269271994 -197.13850938303813 0 -197.13850938303813 157.44193627693721 0 0 0 0 240.77362212721346 -130.58212044967445 0 -130.58212044967445 -58.169397088823871 0 0 0 0 192.75525601232221 103.68953097332496 0 103.68953097332496 165.45698990361109 0 0 0 0 411.82508009117009 -234.22627478397544 0 -234.22627478397544 2.6590165630027514 0 0 0 0 71.090763851767406 -116.2775290736131 0 -116.2775290736131 -31.886116053572096 0 0 0 0 93.224910480726976 -128.35609968740982 0 -128.35609968740982 4.9651503446894196 0 0 0 0 153.85637090079399 -120.97897278882397 0 -120.97897278882397 4.0626886515076421 0 0 0 0 128.09869944631646 -91.555838125664877 0 -91.555838125664877 2.6841875072502717 0 0 0 0 74.739004367882444 -117.92004806251998 0 -117.92004806251998 82.833127372493436 0 0 0 0 81.994167644479603 -141.47244675263471 0 -141.47244675263471 34.677584426401154 0 0 0 0 124.18392972841684 -92.975569181962896 0 -92.975569181962896 29.604931708135609 0 0 0 0 34.702594607137144 -72.878053246883155 0 -72.878053246883155 32.536017817274569 0 0 0 0 34.163219755013415 -10.203581967309901 0 -10.203581967309901 28.384455798015097 0 0 0 0 68.940112912212498 -49.46085695335114 0 -49.46085695335114 34.161413482458101 0 0 0 0 67.035816127608996 -14.708687385531277 0 -14.708687385531277 28.02239467585332 0 0 0 0 119.19558795078774 -7.2532226372495643 0 -7.2532226372495643 0.94545746523135676 0 0 0 0 127.34705100924475 -84.641717952714089 0 -84.641717952714089 12.19463920199496 0 0 0 0 96.247830863445415 5.1597361357077034 0 5.1597361357077034 -5.1858754324189249 0 0 0 0 182.63641075699707 -39.594792657295329 0 -39.594792657295329 0.36428981025665053 0 0 0 0 193.07438091214863 -10.846972328009997 0 -10.846972328009997 -27.675406378488788 0 0 0 0 236.31060495912789 -140.38193305715731 0 -140.38193305715731 24.681851568919228 0 0 0 0 127.53262876869849 -124.5721706176837 0 -124.5721706176837 64.275348310045956 0 0 0 0 3.4347027902454954 1.0735384597460289 0 1.0735384597460289 0.24248050962271828 0 0 0 0 44.632211047421151 149.32341520798889 0 149.32341520798889 -288.22679764049519 0 0 0 0 327.16503513477301 -277.78656685373892 0 -277.78656685373892 141.27999927355131 0 0 0 0 390.46905660828634 -34.234673190527474 0 -34.234673190527474 -95.358568785760554 0 0 0 0 247.43821278749238 47.810445571530636 0 47.810445571530636 -43.215946311269818 0 0 0 0 5.0404181558114942 -11.166652609105768 0 -11.166652609105768 -75.412328821216818 0 0 0 0 7.3771622671665682 161.22476822403695 0 161.22476822403695 -184.72436244452092 0 0 0 0 9.5042630255905749 2.7504476111823095 0 2.7504476111823095 0.088982349948431239 0 0 0 0 137.70974972307522 -66.073499441216313 0 -66.073499441216313 -120.91245074192136 0 0 0 0 120.33533294395966 -112.98554850551341 0 -112.98554850551341 45.939590327997848 0 0 0 0 -85.000688175252435 92.288615604138528 0 92.288615604138528 -125.89816085455277 0 0 0 0 53.61291587373853 -51.13372448233693 0 -51.13372448233693 -85.75051352154361 0 0 0 0 113.15183737022062 -33.68967704567163 0 -33.68967704567163 -107.25086212053179 0 0 0 0 48.946237961130009 22.803072651745495 0 22.803072651745495 -158.35471519332771 0 0 0 0 57.766289033901558 10.274169883922241 0 10.274169883922241 3.8130162341192317 0 0 0 0 40.59787496331046 11.541316009213915 0 11.541316009213915 8.8855199143044956 0 0 0 0 60.229376267139742 21.121822204279852 0 21.121822204279852 15.359742091386579 0 0 0 0 34.443868559782459 -40.118236700448477 0 -40.118236700448477 -74.357865033007613 0 0 0 0 124.63408200483536 4.6301884026856897 0 4.6301884026856897 -51.024009370971498 0 0 0 0 70.581219211214005 -1.2207806774993593 0 -1.2207806774993593 -6.2285855616145778 0 0 0 0 26.374399965832708 172.01236423220598 0 172.01236423220598 -315.88494314249601 0 0 0 0 345.51374129374381 -184.27727158725349 0 -184.27727158725349 -288.66514106275673 0 0 0 0 92.088923426829481 -11.392376159031144 0 -11.392376159031144 -2.0726092145699324 0 0 0 0 86.960774915187358 -147.50329975155046 0 -147.50329975155046 -120.72571541470916 0 0 0 0 65.58681100155809 -45.124226448181162 0 -45.124226448181162 -96.722538762106979 0 0 0 0 66.996034868371268 -2.5392546429742957 0 -2.5392546429742957 -5.6691397191240132 0 0 0 0 20.319622015455522 4.5361730585600029 0 4.5361730585600029 -6.9195373284612636 0 0 0 0 49.21499838978707 7.7500066784041337 0 7.7500066784041337 3.0879114094173019 0 0 0 0 64.948116256953654 0.29862720751452798 0 0.29862720751452798 -0.42065930888657022 0 0 0 0 45.007272006234416 -3.3220488865827065 0 -3.3220488865827065 -0.52263974454601225 0 0 0 0 33.550122494895206 -10.193353178150357 0 -10.193353178150357 -4.5665126038809785 0 0 0 0 54.31951692831808 1.3723174718815017 0 1.3723174718815017 11.318402295249143 0 0 0 0 29.881113705896325 -13.130780249870803 0 -13.130780249870803 -5.6768566487757059 0 0 0 0 8.246314007716137 1.4914639294029257 0 1.4914639294029257 -72.394612169498487 0 0 0 0 8.1876850753160397 -40.461313750413865 0 -40.461313750413865 43.144385440515634 0 0 0 0 6.2290126780386039 -6.2235602689678835 0 -6.2235602689678835 5.3242000053503169 0 0 0 0 9.2547058607844281 3.1818118828420614 0 3.1818118828420614 1.5681429081755915 0 0 0 0 39.583064839407371 -4.4706177371012927 0 -4.4706177371012927 -2.2977383214856673 0 0 0 0 87.526766445812427 23.755823817111832 0 23.755823817111832 18.678854574154229 0 0 0 0 33.012788563143204 -0.97363895667331235 0 -0.97363895667331235 1.8953467207934409 0 0 0 0 31.457961742900807 -0.26914086695796868 0 -0.26914086695796868 1.6128947014758523 0 0 0 0 33.087993049258785 -3.162596293261231 0 -3.162596293261231 1.1179108848427859 0 0 0 0 49.961313650088414 6.7241996938791999 0 6.7241996938791999 25.100412788619451 0 0 0 0 14.777404102586374 -7.2028653144887009 0 -7.2028653144887009 -7.1010719636038715 0 0 0 0 33.242365731952873 -0.60532029028627221 0 -0.60532029028627221 -9.8448446690736091 0 0 0 0 53.888005149910896 4.5535464309009512 0 4.5535464309009512 6.7396878258605284 0 0 0 0 34.274530653674546 -0.12810459529952567 0 -0.12810459529952567 -5.5444032684731379 0 0 0 0 36.000338356302692 6.5338952683409861 0 6.5338952683409861 -3.8578653489302184 0 0 0 0 72.795242786519339 -8.8327749440040861 0 -8.8327749440040861 10.913610563974089 0 0 0 0 62.070104273060764 -11.988452357546738 0 -11.988452357546738 -7.6680471312050962 0 0 0 0 67.884948884798632 7.7185922973331458 0 7.7185922973331458 26.188504571612611 0 0 0 0 86.892069968469514 -28.585052268989898 0 -28.585052268989898 -26.238650058905478 0 0 0 0 66.667394473494824 -4.3749376751702584 0 -4.3749376751702584 19.588743589258229 0 0 0 0 63.860295897544461 -2.3368202226761525 0 -2.3368202226761525 18.133855394776219 0 0 0 0 62.740964005784917 -12.019321502411003 0 -12.019321502411003 4.8693020260470803 0 0 0 0 47.436039653119224 -11.143331598051191 0 -11.143331598051191 14.145046414296758 0 0 0 0 51.355174424325469 -14.838149230034105 0 -14.838149230034105 -3.5784094232849384 0 0 0 0 52.614444992100744 -18.654468577408807 0 -18.654468577408807 6.7330317843616285 0 0 0 0 60.382484749366995 -13.346285052782605 0 -13.346285052782605 8.321583738767913 0 0 0 0 49.517747067648088 -22.326734306709568 0 -22.326734306709568 7.3857895155408073 0 0 0 0 55.645302674066443 -12.508406138522332 0 -12.508406138522332 12.030530705725141 0 0 0 0 29.166660759554361 0.076192448194888129 0 0.076192448194888129 1.6442852698526735 0 0 0 0 28.504587855323166 -4.0809035898550974 0 -4.0809035898550974 1.4579620450222137 0 0 0 0 24.125381292781004 6.0220652604560954 0 6.0220652604560954 -3.9500621261402582 0 0 0 0 45.074151793176497 -3.7534858544690906 0 -3.7534858544690906 -7.940414715548286 0 0 0 0 44.102793894640399 -4.2099402885844484 0 -4.2099402885844484 0.20191787915882742 0 0 0 0 44.737999828698776 -13.180556798314228 0 -13.180556798314228 -6.5088202180500048 0 0 0 0 44.506842141331617 -14.531554811719161 0 -14.531554811719161 3.7822777035706849 0 0 0 0 27.434619994251989 -1.6749761051710266 0 -1.6749761051710266 -10.776186614178187 0 0 0 0 53.651766320698698 -14.921476934736802 0 -14.921476934736802 -12.523816451017183 0 0 0 0 37.967791923489131 3.3670253382497322 0 3.3670253382497322 -18.453515605080611 0 0 0 0 65.666733451763207 -0.18073008527311174 0 -0.18073008527311174 -10.834434152749054 0 0 0 0 51.214116976295827 -7.1740605234524537 0 -7.1740605234524537 -13.453206392719949 0 0 0 0 53.828904353914822 -5.7329489439114241 0 -5.7329489439114241 -1.7656480288636658 0 0 0 0 71.412621976127411 6.7827909520707124 0 6.7827909520707124 6.4699789625244648 0 0 0 0 63.901004491136518 -19.333730127908879 0 -19.333730127908879 -13.020188258063627 0 0 0 0 86.582077815564844 -18.916286732734989 0 -18.916286732734989 -13.468521105013338 0 0 0 0 65.547622745965782 -45.885665390058875 0 -45.885665390058875 -1.5227734735362901 0 0 0 0 80.29837974766815 -34.488939783275555 0 -34.488939783275555 -8.9316388247559644 0 0 0 0 75.226203478605385 -27.325147309448425 0 -27.325147309448425 -11.768774562896851 0 0 0 0 61.64283916898421 -30.163282365487703 0 -30.163282365487703 -9.2657047250081632 0 0 0 0 61.812398740646131 -28.354551784198861 0 -28.354551784198861 -6.5348614209942752 0 0 0 0 54.767459246874751 -25.114729844383874 0 -25.114729844383874 -3.9010823570595292 0 0 0 0 64.276380933956716 -19.245836405580576 0 -19.245836405580576 -13.59620501552854 0 0 0 0 53.974140044050728 -14.601895275753122 0 -14.601895275753122 -12.217324699356141 0 0 0 0 53.872048664224153 -22.899185090972807 0 -22.899185090972807 -7.9695037200372099 0 0 0 0 54.455605628193553 -23.726332655606711 0 -23.726332655606711 2.1846774865216503 0 0 0 0 47.876988762367546 -29.680132267332738 0 -29.680132267332738 -0.20749387677051345 0 0 0 0 50.554302967435433 -22.113709091156352 0 -22.113709091156352 6.5094091187015692 0 0 0 0 50.261950441464251 -10.002541139826302 0 -10.002541139826302 17.007667299375498 0 0 0 0 49.509505914837291 -23.981711945654581 0 -23.981711945654581 8.7883354572350072 0 0 0 0 40.729399549533809 -24.857785487250567 0 -24.857785487250567 5.7684191619891863 0 0 0 0 36.184391576965936 -28.79995204462648 0 -28.79995204462648 7.0462969756049461 0 0 0 0 33.314837932613557 -34.662157083774588 0 -34.662157083774588 4.6358719907912018 0 0 0 0 16.76037204750628 -27.932839716399371 0 -27.932839716399371 4.7846344627614599 0 0 0 0 34.414616984879672 -23.337320630480605 0 -23.337320630480605 5.4713718863877148 0 0 0 0 58.211230687689294 -38.087482604066281 0 -38.087482604066281 -2.65221617583029 0 0 0 0 50.297655584867243 -32.118218364693575 0 -32.118218364693575 1.4728210614157433 0 0 0 0 47.284397168987198 -32.504852082950947 0 -32.504852082950947 4.968748852358658 0 0 0 0 43.325626831401678 -44.943582502991717 0 -44.943582502991717 1.3144176991552285 0 0 0 0 34.993349726399174 -31.689519369471213 0 -31.689519369471213 0.42158867902003294 0 0 0 0 55.633564244228182 -36.900793354267535 0 -36.900793354267535 -2.5119567081341074 0 0 0 0 56.964198068522819 -43.517106812189013 0 -43.517106812189013 -4.4123041151981397 0 0 0 0 24.996796323033777 -41.560635127560317 0 -41.560635127560317 1.6334897957598002 0 0 0 0 33.53262126716254 -33.505259133301365 0 -33.505259133301365 -1.6948547311640141 0 0 0 0 9.6829200768324881 -24.213538197536451 0 -24.213538197536451 -1.9574688481345728 0 0 0 0 18.358859978044165 -21.804062029701527 0 -21.804062029701527 -28.069176974595166 0 0 0 0 14.6927582364724 -10.057632378862536 0 -10.057632378862536 -68.454306759132578 0 0 0 0 -1.9908876957033499 -25.118259096402198 0 -25.118259096402198 -28.348503494356777 0 0 0 0 55.000643168550596 -61.449074927213957 0 -61.449074927213957 -23.679255611744622 0 0 0 0 63.948524107327103 -52.90224293255261 0 -52.90224293255261 -16.422266184377804 0 0 0 0 27.10985511936633 -39.858813409925659 0 -39.858813409925659 -14.256945822145667 0 0 0 0 -4.829639789653811 -9.4044709272420164 0 -9.4044709272420164 -23.331074448534551 0 0 0 0 3.7335424674056412 -45.49426289446177 0 -45.49426289446177 -7.3562262915480687 0 0 0 0 73.992187629102773 -42.047572126746843 0 -42.047572126746843 -21.599713484040976 0 0 0 0 66.115224621384641 -45.65741323217145 0 -45.65741323217145 -1.0262272243303414 0 0 0 0 117.05567631390295 -45.157068020239535 0 -45.157068020239535 -23.553780034138157 0 0 0 0 103.7217431981444 -69.184283259213601 0 -69.184283259213601 -26.136115261765298 0 0 0 0 128.95992369225496 -71.506632186067918 0 -71.506632186067918 -30.926261320589902 0 0 0 0 0.21126615584468489 0.88317587159114552 0 0.88317587159114552 -3.4840755126857674 0 0 0 0 231.65419426127573 15.912776475361113 0 15.912776475361113 -35.200579225762681 0 0 0 0 100.67085642712982 17.743616622221907 0 17.743616622221907 8.3481288321174816 0 0 0 0 133.02705278010944 -19.02668495874957 0 -19.02668495874957 -13.465054545954587 0 0 0 0 58.488490202460525 -39.062209146248165 0 -39.062209146248165 -0.33954066717160458 0 0 0 0 91.943472373176974 -56.813804362561314 0 -56.813804362561314 -8.5933491141737477 0 0 0 0 68.952064305402928 19.726442949209172 0 19.726442949209172 -9.7595554475258268 0 0 0 0 42.436587734619025 33.576404453660416 0 33.576404453660416 -3.4472858362287297 0 0 0 0 82.57706229437099 34.46867562696616 0 34.46867562696616 -22.4028608834941 0 0 0 0 106.8466202516729 9.7294231771613795 0 9.7294231771613795 -14.556469453963018 0 0 0 0 133.93935843986696 -17.557501758473634 0 -17.557501758473634 -14.93150664321945 0 0 0 0 144.84537880452081 33.568665750752956 0 33.568665750752956 -26.21805424863053 0 0 0 0 59.587900118493053 59.172835982325466 0 59.172835982325466 0.9553799509673695 0 0 0 0 17.61808874507733 4.2370228063829245 0 4.2370228063829245 -16.736717027526083 0 0 0 0 11.914297590785281 19.251354957128058 0 19.251354957128058 -43.678752312799475 0 0 0 0 -16.045908617166788 -11.842796793228331 0 -11.842796793228331 -28.633240570932202 0 0 0 0 19.077819270449254 9.0404590715513677 0 9.0404590715513677 -20.989541712785694 0 0 0 0 9.0571299170296697 -23.76193191831959 0 -23.76193191831959 -78.52249884244884 0 0 0 0 0.5320310371407686 -1.4165406244140399 0 -1.4165406244140399 -38.978444758861372 0 0 0 0 14.746084591601175 -16.253480441205511 0 -16.253480441205511 -30.558513404938481 0 0 0 0 7.2775445482084251 -15.299537443625013 0 -15.299537443625013 -3.5041113442780443 0 0 0 0 2.4324183708931741 -7.5691810852636081 0 -7.5691810852636081 -4.6105488905279799 0 0 0 0 27.885712802759372 -0.37858746021129264 0 -0.37858746021129264 -4.02384679981364 0 0 0 0 26.204970119746577 -18.021222479801963 0 -18.021222479801963 -3.1609189152511021 0 0 0 0 42.945639276620568 16.877020045959625 0 16.877020045959625 0.48919635303462883 0 0 0 0 19.10370278274786 3.4833812538302595 0 3.4833812538302595 -3.4060469430119156 0 0 0 0 28.188750937447367 -4.1571855920311691 0 -4.1571855920311691 4.0876845615193815 0 0 0 0 52.364389972824938 2.5633600692067375 0 2.5633600692067375 8.0543483578605901 0 0 0 0 39.61440805091479 3.6583543248539172 0 3.6583543248539172 8.9131452351371081 0 0 0 0 17.357950778720806 -10.531917525020049 0 -10.531917525020049 7.2987742235986843 0 0 0 0 27.603743630672398 -13.293538266562109 0 -13.293538266562109 7.9933232523337665 0 0 0 0 39.422118653608777 -7.1621111108656805 0 -7.1621111108656805 11.157973722260522 0 0 0 0 31.496688559959694 -16.544997132251183 0 -16.544997132251183 13.095010654103135 0 0 0 0 44.727391852638902 -15.80807179870726 0 -15.80807179870726 11.628259691862468 0 0 0 0 41.518589199924463 -8.6477520694143095 0 -8.6477520694143095 12.053152641403358 0 0 0 0 48.974334033763853 -2.9061816379257266 0 -2.9061816379257266 15.322745966373077 0 0 0 0 56.492409920905629 -5.319988380193081 0 -5.319988380193081 15.60878338830662 0 0 0 0 48.852228509835186 4.73255225613525 0 4.73255225613525 14.905533314201421 0 0 0 0 55.289429528973415 6.2769092261564765 0 6.2769092261564765 23.104670862987405 0 0 0 0 63.377843923775799 3.4679924868087255 0 3.4679924868087255 14.593947703272079 0 0 0 0 72.537617827723807 4.1908241622438709 0 4.1908241622438709 24.316613045797681 0 0 0 0 65.091105916489141 14.034808140124568 0 14.034808140124568 11.310933138890505 0 0 0 0 61.221633604671297 8.2442370424375895 0 8.2442370424375895 13.793093219017578 0 0 0 0 59.811666211986449 12.330054938427793 0 12.330054938427793 2.9421767422177254 0 0 0 0 74.893064969006446 18.821621509088573 0 18.821621509088573 -4.3350513284417502 0 0 0 0 60.202425921357644 23.894296465109392 0 23.894296465109392 -5.7690405383159487 0 0 0 0 48.970937203808717 10.295351352925081 0 10.295351352925081 4.7680955554369575 0 0 0 0 79.559072833149912 10.492058601664098 0 10.492058601664098 6.7201739694642129 0 0 0 0 84.555486803621534 12.734115299339805 0 12.734115299339805 -14.740367474348886 0 0 0 0 93.83752982512533 23.443310772189562 0 23.443310772189562 9.6354321824337603 0 0 0 0 88.32177844214857 3.1914124343895764 0 3.1914124343895764 21.381974383516081 0 0 0 0 75.514373598386555 17.221233445093645 0 17.221233445093645 6.324832050247096 0 0 0 0 14.406752557055063 -1.1332982524333044 0 -1.1332982524333044 6.674171171589987 0 0 0 0 55.400667747748734 -11.140002630588469 0 -11.140002630588469 -8.1445826272032686 0 0 0 0 71.484810491030657 16.477482370019743 0 16.477482370019743 35.350449514156708 0 0 0 0 74.221596829296686 17.474993197899494 0 17.474993197899494 22.248062099537435 0 0 0 0 125.94426456008296 27.929382887909696 0 27.929382887909696 -16.801545460545412 0 0 0 0 -15.430677285343336 56.484676455273529 0 56.484676455273529 86.134120823853891 0 0 0 0 54.033108644899585 11.896701327923438 0 11.896701327923438 20.014863193659494 0 0 0 0 31.026806857271367 2.5281208367400723 0 2.5281208367400723 20.523329185472903 0 0 0 0 62.962787014836067 -0.60996724606775388 0 -0.60996724606775388 21.380623904427011 0 0 0 0 54.845616784434242 -9.8238188966352027 0 -9.8238188966352027 15.152622235350464 0 0 0 0 62.109640906310233 2.0919321609196686 0 2.0919321609196686 20.645223544347573 0 0 0 0 66.514932318848878 2.2220803767577308 0 2.2220803767577308 27.1219088330472 0 0 0 0 73.054677232315839 4.6567398723989584 0 4.6567398723989584 22.257998669325389 0 0 0 0 58.273132933765737 3.6967776100436822 0 3.6967776100436822 26.998541769577059 0 0 0 0 68.514105185033259 7.7828889661941503 0 7.7828889661941503 22.173281707520118 0 0 0 0 67.959709540513359 13.974635492842935 0 13.974635492842935 34.582027189062956 0 0 0 0 60.12942247120418 -11.427552468536712 0 -11.427552468536712 -8.162023863877284 0 0 0 0 138.94057623268964 -79.340642069527121 0 -79.340642069527121 -40.821582949613912 0 0 0 0 74.382846557973608 1.2366017076260505 0 1.2366017076260505 16.127647499058639 0 0 0 0 14.866865485346352 29.025481702120032 0 29.025481702120032 40.3601235937399 0 0 0 0 131.3004961034294 -4.9705706492532045 0 -4.9705706492532045 -48.822270744547495 0 0 0 0 75.153148784447694 -52.619554374170548 0 -52.619554374170548 115.60805860852224 0 0 0 0 214.54633165250198 -77.104967650752769 0 -77.104967650752769 4.9419362453982103 0 0 0 0 120.50128603283338 -26.570119033528613 0 -26.570119033528613 -123.68042887542606 0 0 0 0 302.63986147901232 185.78708936601015 0 185.78708936601015 13.76474526637935 0 0 0 0 71.783426446998121 -1.7967439172525754 0 -1.7967439172525754 -6.1851138894031541 0 0 0 0 18.99293691537423 35.366698152869276 0 35.366698152869276 40.351746454644399 0 0 0 0 0.58049241866592638 16.054536117696898 0 16.054536117696898 54.253317843194054 0 0 0 0 38.371071316380039 7.9801022780625317 0 7.9801022780625317 5.4395872629625046 0 0 0 0 41.045728544710073 5.6985462479960916 0 5.6985462479960916 -10.280068566591581 0 0 0 0 42.898493836060879 57.091266772724794 0 57.091266772724794 62.028142905953246 0 0 0 0 34.395750226449309 -3.2164960056607015 0 -3.2164960056607015 6.7679162674630788 0 0 0 0 254.87945946691252 79.157702931328004 0 79.157702931328004 14.519748848705831 0 0 0 0 0.76898611297911756 -2.2014524205125561 0 -2.2014524205125561 1.2565139760666852 0 0 0 0 -83.194270958785637 -80.766467088265472 0 -80.766467088265472 159.67152130520708 0 0 0 0 26.19488595203984 -85.94464408564329 0 -85.94464408564329 -77.307239757821662 0 0 0 0 255.66411862173118 8.5521031635350937 0 8.5521031635350937 -275.89694714395989 0 0 0 0 -5.5392392120302247 -3.8585382869259774 0 -3.8585382869259774 47.504125824033736 0 0 0 0 65.925968148432986 0.37327880982823913 0 0.37327880982823913 -7.7654568978569714 0 0 0 0 53.43085518375301 38.598357307130755 0 38.598357307130755 -10.016712300961672 0 0 0 0 24.33985555185518 68.810344417931105 0 68.810344417931105 17.441319401807959 0 0 0 0 54.189325386117332 7.4988220047884937 0 7.4988220047884937 -4.3368382976029922 0 0 0 0 43.991473648040483 -7.1856836650749756 0 -7.1856836650749756 -3.3254537997939906 0 0 0 0 16.20523375209638 5.7848965917985495 0 5.7848965917985495 4.2018191752722709 0 0 0 0 55.426151565581677 26.114234920352601 0 26.114234920352601 21.548264838843579 0 0 0 0 29.52084888650279 48.522614829220629 0 48.522614829220629 51.109199409044663 0 0 0 0 5.4152298840134563 0.19174185394983656 0 0.19174185394983656 0.85293032751407172 0 0 0 0 262.52172840469575 -188.03503717195974 0 -188.03503717195974 20.055599019783358 0 0 0 0 -101.24659390758734 199.92883067312542 0 199.92883067312542 -3.0825196856143577 0 0 0 0 3.8374654810995779 1.6494231852100576 0 1.6494231852100576 0.70480928589645286 0 0 0 0 325.82782745131408 -137.30308956097895 0 -137.30308956097895 60.074319812394705 0 0 0 0 59.250386949392123 55.216290491194364 0 55.216290491194364 75.832923512425623 0 0 0 0 -45.860883396242571 -48.133873023278163 0 -48.133873023278163 21.10335110678227 0 0 0 0 -149.9725628374872 -248.00002339545631 0 -248.00002339545631 335.82745497457108 0 0 0 0 503.31609566723637 -288.78462048471329 0 -288.78462048471329 63.463023957765472 0 0 0 0 93.672155046362604 -692.52143243038267 0 -692.52143243038267 606.21181133570281 0 0 0 0 40.211771889613374 184.06204929833251 0 184.06204929833251 -108.10192997776275 0 0 0 0 80.201820954549476 74.844599950654498 0 74.844599950654498 -190.26448392202707 0 0 0 0 -219.94844539451151 -11.747403504759468 0 -11.747403504759468 61.335545699402019 0 0 0 0 62.289556652470083 26.575593419290271 0 26.575593419290271 52.744749265042174 0 0 0 0 63.895543626791273 9.9556427808635135 0 9.9556427808635135 -6.8384225670831373 0 0 0 0 485.35374208678695 -340.53992165949626 0 -340.53992165949626 -112.5357920448552 0 0 0 0 78.418883538635896 25.416543262463165 0 25.416543262463165 25.898773976117809 0 0 0 0 73.004600583685729 5.3343000045709683 0 5.3343000045709683 -11.114992661963457 0 0 0 0 73.447842172442449 39.323686879130491 0 39.323686879130491 26.320032822693975 0 0 0 0 63.302143364020594 37.116666521485968 0 37.116666521485968 26.864098991331502 0 0 0 0 65.196288959943104 34.498469027729243 0 34.498469027729243 30.232568056537275 0 0 0 0 57.826942821969055 14.284025588927477 0 14.284025588927477 19.624964051918141 0 0 0 0 55.035966859320183 26.954000276257375 0 26.954000276257375 26.957418109030414 0 0 0 0 6.4145100899579859 8.3336579942902063 0 8.3336579942902063 14.565797804609748 0 0 0 0 36.147664800194661 9.1453002129117067 0 9.1453002129117067 24.064199823259514 0 0 0 0 40.696480477718524 3.4039631647892747 0 3.4039631647892747 20.649287073441883 0 0 0 0 46.694397961475261 0.65326453727959688 0 0.65326453727959688 22.819579496414008 0 0 0 0 44.032339353097996 -1.2912902267589743 0 -1.2912902267589743 21.617504681594937 0 0 0 0 48.467629622007735 -1.4728982786125471 0 -1.4728982786125471 20.16746597569545 0 0 0 0 45.862780534370359 -3.5595300482591483 0 -3.5595300482591483 18.605760734746127 0 0 0 0 72.075031583441614 25.284275205612403 0 25.284275205612403 26.770302269981585 0 0 0 0 49.178633565776181 4.3589691782690352 0 4.3589691782690352 10.015515037858677 0 0 0 0 15.452582586400025 13.806890051642727 0 13.806890051642727 19.866148065172638 0 0 0 0 184.70829050913107 45.58639070982305 0 45.58639070982305 -32.469013861364033 0 0 0 0 2.2630735200291525 -0.77742837448884217 0 -0.77742837448884217 -1.8756958454556303 0 0 0 0 188.5539069305928 61.706102932264749 0 61.706102932264749 -11.697119181052017 0 0 0 0 169.71447967613494 38.623234385033868 0 38.623234385033868 -7.7115944104078835 0 0 0 0 181.45178214815951 19.309796052211794 0 19.309796052211794 -69.654525431946468 0 0 0 0 3.7571136446744333 0.25093853575195268 0 0.25093853575195268 -2.5912690547186239 0 0 0 0 52.49450283276019 -9.3729852720539952 0 -9.3729852720539952 0.7425391729746309 0 0 0 0 53.064694654753112 -3.1931909730998314 0 -3.1931909730998314 10.731421942299619 0 0 0 0 -9.0310563615462343 -13.836039452163867 0 -13.836039452163867 -68.228148729114508 0 0 0 0 -35.14838241417965 -137.05314252298484 0 -137.05314252298484 -83.056488357295848 0 0 0 0 30.828604717029521 -36.981967447018206 0 -36.981967447018206 -68.551306939101352 0 0 0 0 62.44104347249413 15.98532644271544 0 15.98532644271544 -84.03839165087139 0 0 0 0 10.593820467193382 1.5602336214484005 0 1.5602336214484005 -69.728829088368627 0 0 0 0 3.4509989000804353 0.89531956033566118 0 0.89531956033566118 -0.69860408102486338 0 0 0 0 4.3612884532558382 -21.315353837959066 0 -21.315353837959066 -67.135702681479756 0 0 0 0 17.866969350558065 12.071165144796623 0 12.071165144796623 -77.669485731181481 0 0 0 0 -16.257117470213416 37.355870323838701 0 37.355870323838701 -61.765852001606021 0 0 0 0 0.54723711360590954 0.55992913215705897 0 0.55992913215705897 0.44914053033422219 0 0 0 0 36.083674465939112 18.940708357527868 0 18.940708357527868 -18.781339363791403 0 0 0 0 10.255110145182698 86.307508605956741 0 86.307508605956741 -46.807347954713961 0 0 0 0 26.001923082221765 41.402757649286272 0 41.402757649286272 -68.723082512186821 0 0 0 0 105.9167825941513 7.687449354242176 0 7.687449354242176 -56.059963147377076 0 0 0 0 77.62694119552998 61.964158496646746 0 61.964158496646746 51.398849097390666 0 0 0 0 104.07864026312382 53.214615758585296 0 53.214615758585296 -54.527799274853805 0 0 0 0 78.349628899761683 37.999691086534995 0 37.999691086534995 -19.965954004131163 0 0 0 0 80.965739880033539 3.3685938261781629 0 3.3685938261781629 -9.9542715173595155 0 0 0 0 115.35846060312906 26.225694348502657 0 26.225694348502657 -90.212603917317196 0 0 0 0 43.208174762859926 41.12927033453208 0 41.12927033453208 36.006717271083602 0 0 0 0 88.921137478943649 -0.002145905697842565 0 -0.002145905697842565 -8.9379784119701906 0 0 0 0 -7.351579540957573 -46.302631280153776 0 -46.302631280153776 32.603093531259219 0 0 0 0 192.86664147879173 -50.541291637393897 0 -50.541291637393897 -190.98753454638063 0 0 0 0 79.378785808900375 -124.97028021737833 0 -124.97028021737833 -52.051587814988125 0 0 0 0 114.01630295141331 26.747038059097122 0 26.747038059097122 -69.713197909745759 0 0 0 0 0.90523478505691912 -0.3091773564692879 0 -0.3091773564692879 -0.51282543833643457 0 0 0 0 -52.329211363124045 -272.05954698365144 0 -272.05954698365144 -145.47443448265579 0 0 0 0 -28.276931532560411 21.922443628320949 0 21.922443628320949 -117.12783059270073 0 0 0 0 158.78718638660939 78.008284870988973 0 78.008284870988973 270.2990310831658 0 0 0 0 198.17522420683963 -14.720719006205968 0 -14.720719006205968 -7.9509782172435735 0 0 0 0 -3.6916609276723467 -1.0905965626549161 0 -1.0905965626549161 2.8293824087009956 0 0 0 0 265.00440150535997 -66.695166496122511 0 -66.695166496122511 -11.966772391161612 0 0 0 0 273.70257693529572 152.66635950835632 0 152.66635950835632 23.62330666334401 0 0 0 0 279.11244124899576 132.26708941406386 0 132.26708941406386 55.398094802574633 0 0 0 0 239.8125528585133 -66.098084987786478 0 -66.098084987786478 38.449910568623636 0 0 0 0 0.13248566844951171 2.7478377757650332 0 2.7478377757650332 2.4657028245598394 0 0 0 0 32.215126465321191 96.21204324424798 0 96.21204324424798 262.40472027649867 0 0 0 0 39.851464712839061 30.402635779096727 0 30.402635779096727 51.43233250450885 0 0 0 0 40.792144928348307 8.8078930972975513 0 8.8078930972975513 52.632501165403596 0 0 0 0 9.5370856209721069 -0.67486587303086587 0 -0.67486587303086587 4.8364355103154253 0 0 0 0 24.969853110642873 20.041968574562858 0 20.041968574562858 46.015350901492639 0 0 0 0 23.801118949988222 -41.420625385459402 0 -41.420625385459402 8.7210646959188125 0 0 0 0 37.999301871926285 -16.422522888666755 0 -16.422522888666755 7.0409914633438007 0 0 0 0 265.67038828855948 -221.28193448663183 0 -221.28193448663183 -251.49966706469968 0 0 0 0 -122.77851919518434 -148.20904872345898 0 -148.20904872345898 -129.51707298907377 0 0 0 0 14.602836967783787 -26.408704645037631 0 -26.408704645037631 63.613237127819957 0 0 0 0 169.31602235433184 50.726706343806541 0 50.726706343806541 -3.350909039799717 0 0 0 0 130.29529971819193 59.257584476428065 0 59.257584476428065 43.587024153750917 0 0 0 0 25.800571755279016 -12.89301619087108 0 -12.89301619087108 5.6065227562860329 0 0 0 0 109.3468322545059 -6.0836139650590724 0 -6.0836139650590724 -20.372727387731956 0 0 0 0 75.300138692326072 67.541141563035325 0 67.541141563035325 49.931054963515038 0 0 0 0 185.75780694693822 86.96552182532605 0 86.96552182532605 28.905064369509887 0 0 0 0 47.080822225972042 4.5530738606028649 0 4.5530738606028649 7.214255337961788 0 0 0 0 26.676345004825052 -7.0125907037503019 0 -7.0125907037503019 1.3436244303840201 0 0 0 0 77.454156673869875 12.563152705493621 0 12.563152705493621 9.0079856916518111 0 0 0 0 70.613087221177011 0.4061262860098509 0 0.4061262860098509 -5.1677857604220208 0 0 0 0 16.360015759024876 -13.01771315894927 0 -13.01771315894927 -1.3394125193347968 0 0 0 0 45.716197832487524 9.7500018547631839 0 9.7500018547631839 14.60674430081508 0 0 0 0 52.436004861350739 8.4035479663853039 0 8.4035479663853039 11.318964333006079 0 0 0 0 34.084354543650072 -9.5017714238893412 0 -9.5017714238893412 -3.133984039828694 0 0 0 0 48.838872295083092 9.9332746276863872 0 9.9332746276863872 20.751758059189342 0 0 0 0 29.54835008113643 -9.5522572060328095 0 -9.5522572060328095 2.8067533533220868 0 0 0 0 39.222217195333663 2.8679559139496344 0 2.8679559139496344 0.64220786507919492 0 0 0 0 36.72137151332845 10.555734317362749 0 10.555734317362749 21.732021858232201 0 0 0 0 21.141610758673778 -8.235480645561438 0 -8.235480645561438 4.5650131493366644 0 0 0 0 39.521673965452237 -0.17203784399839606 0 -0.17203784399839606 11.271896228926153 0 0 0 0 38.126240515780751 17.550678246935377 0 17.550678246935377 34.321922408947273 0 0 0 0 47.963351462317689 17.831516590502019 0 17.831516590502019 25.341689435051649 0 0 0 0 27.931484280807695 -5.9871503730883679 0 -5.9871503730883679 -0.83158702274077401 0 0 0 0 38.535820455364274 0.11047078669673738 0 0.11047078669673738 21.12359006644752 0 0 0 0 37.127508161153173 6.3537483084090525 0 6.3537483084090525 11.87985232113715 0 0 0 0 30.235729880252165 -3.2954916860194103 0 -3.2954916860194103 10.270301452622135 0 0 0 0 47.015583812933073 -0.98080776212054843 0 -0.98080776212054843 2.9579222718051597 0 0 0 0 31.654611162652145 -3.1969719692362446 0 -3.1969719692362446 -0.95533273314578082 0 0 0 0 -20.695886158388021 107.7088746759996 0 107.7088746759996 -141.7862202734168 0 0 0 0 32.420144185081902 -1.8036903442443464 0 -1.8036903442443464 -0.70105858233030682 0 0 0 0 56.794202102332747 220.03843794609378 0 220.03843794609378 -20.566041440793924 0 0 0 0 -214.73599509089036 78.293842612585763 0 78.293842612585763 -5.2107156548264015 0 0 0 0 -24.566035743203429 89.227250652642056 0 89.227250652642056 -24.396136918475804 0 0 0 0 5.5638076381055832 3.7581257682691813 0 3.7581257682691813 -5.5467556924244805 0 0 0 0 33.133701628012005 7.161016522098878 0 7.161016522098878 -3.3807778313255592 0 0 0 0 63.898834684026951 52.711682166539731 0 52.711682166539731 -171.29146306108089 0 0 0 0 56.025872507061649 -8.7951074354083403 0 -8.7951074354083403 0.90205222115281458 0 0 0 0 6.745630165421673 1.9894363869916756 0 1.9894363869916756 0.45483933055450732 0 0 0 0 30.549856753055792 -15.268405094559 0 -15.268405094559 4.9133441179596957 0 0 0 0 49.636404770224658 11.37935064924271 0 11.37935064924271 8.0369860470243566 0 0 0 0 21.189645439111054 -9.4054535962624506 0 -9.4054535962624506 -4.2220033370204426 0 0 0 0 83.469438875999913 -8.0717481158865496 0 -8.0717481158865496 -16.714332695238113 0 0 0 0 69.952571413943588 3.5843919670626292 0 3.5843919670626292 -5.7693330991106819 0 0 0 0 65.293281458143611 -24.533264045827821 0 -24.533264045827821 4.8699131836048934 0 0 0 0 -1.5332221716140282 136.48394628841532 0 136.48394628841532 -141.81468684209267 0 0 0 0 0.71027099390184389 1.952832079684665 0 1.952832079684665 1.7539852615124711 0 0 0 0 10.073244310131386 2.6453144420725216 0 2.6453144420725216 -0.58975286077537215 0 0 0 0 33.385580830648905 20.444021008441041 0 20.444021008441041 -229.17092062135066 0 0 0 0 -20.2096092732736 239.92546661097981 0 239.92546661097981 217.48896023718316 0 0 0 0 3.6862305564436681 1.8961698128187248 0 1.8961698128187248 -0.19282011370333862 0 0 0 0 129.52014972718462 21.12297624207531 0 21.12297624207531 -288.48729056296287 0 0 0 0 0.87941993810466101 57.182166170441299 0 57.182166170441299 -154.09337198558887 0 0 0 0 10.868742137186018 -107.03231314552377 0 -107.03231314552377 -414.15461516049254 0 0 0 0 175.17977823305046 303.14920982412218 0 303.14920982412218 -359.64815638368066 0 0 0 0 110.89777094443343 -90.130610208717371 0 -90.130610208717371 77.004869491706074 0 0 0 0 19.239918434332139 150.0995584751729 0 150.0995584751729 -490.13784710100663 0 0 0 0 62.705143459119427 -290.1196012168266 0 -290.1196012168266 -418.11431072523891 0 0 0 0 65.48190738721587 -34.375044148018446 0 -34.375044148018446 -77.412266436032041 0 0 0 0 192.99842104547497 -66.338635924408777 0 -66.338635924408777 -69.437646131045767 0 0 0 0 122.81747934406667 122.50214984968829 0 122.50214984968829 185.54913977404976 0 0 0 0 -185.11200258568897 -167.26281520752866 0 -167.26281520752866 24.18474625967383 0 0 0 0 180.36407946125291 149.39685612115693 0 149.39685612115693 -47.333573512516523 0 0 0 0 72.27817454320757 0.12755993251971631 0 0.12755993251971631 -13.045221156704429 0 0 0 0 85.626599167622771 31.190158917703229 0 31.190158917703229 31.258374932831885 0 0 0 0 226.77610069256298 79.440298209221396 0 79.440298209221396 2.7953048625229258 0 0 0 0 93.320372743159169 69.96721557492242 0 69.96721557492242 163.62765064724681 0 0 0 0 52.407959857227979 -14.628132794794055 0 -14.628132794794055 108.5827977477677 0 0 0 0 40.598797740229202 -35.947580799526804 0 -35.947580799526804 97.552112971938186 0 0 0 0 40.97510713902011 -20.33267370964586 0 -20.33267370964586 43.866885235944665 0 0 0 0 19.298287830060872 -51.278381386509864 0 -51.278381386509864 104.47913873328707 0 0 0 0 29.313766920080525 -44.717188912870597 0 -44.717188912870597 22.635441015387869 0 0 0 0 -1.3183422604924999 2.4548328841842704 0 2.4548328841842704 19.377806090451827 0 0 0 0 44.800339593195531 -34.566014328281199 0 -34.566014328281199 30.138217445191003 0 0 0 0 11.582472360521933 -24.240281045464144 0 -24.240281045464144 73.403346076413982 0 0 0 0 45.203346283333303 -14.951785723030525 0 -14.951785723030525 0.46113160539243836 0 0 0 0 -13.449840246923486 2.1743920263540986 0 2.1743920263540986 -1.8714860728259737 0 0 0 0 25.606804002500212 -22.696410288646575 0 -22.696410288646575 -60.578501647673875 0 0 0 0 -42.921209573261876 28.490942054332891 0 28.490942054332891 -79.318831355847124 0 0 0 0 5.0649935967121564 -57.294250760728346 0 -57.294250760728346 -122.13002869697539 0 0 0 0 61.786879612885059 25.542186893835947 0 25.542186893835947 -44.715623897510341 0 0 0 0 -123.53947779031273 -66.574848434241034 0 -66.574848434241034 -59.652532580840216 0 0 0 0 131.94097678803882 123.71262787325304 0 123.71262787325304 99.539411195516095 0 0 0 0 15.549502613498198 -6.5464371079599637 0 -6.5464371079599637 2.3968234998279061 0 0 0 0 -126.31298868017075 -138.03996588242791 0 -138.03996588242791 -141.07589396041453 0 0 0 0 10.634107421223668 -6.9239403739050012 0 -6.9239403739050012 3.5261425403863176 0 0 0 0 -70.128681531481107 -208.80708347936456 0 -208.80708347936456 -222.18867752081712 0 0 0 0 63.84747337326553 -134.5717464100494 0 -134.5717464100494 -320.34375240264967 0 0 0 0 144.67091354300101 45.341759799987358 0 45.341759799987358 -154.09344533709225 0 0 0 0 4.1987216125583018 -2.5763526095482696 0 -2.5763526095482696 1.2508601207894143 0 0 0 0 387.00502892723489 -124.90092895649764 0 -124.90092895649764 -343.6062171564738 0 0 0 0 393.41338577243005 68.486511689636245 0 68.486511689636245 -177.87200621850707 0 0 0 0 213.99496785447445 53.802114143970471 0 53.802114143970471 -24.323715607727536 0 0 0 0 283.06759371106091 -51.128590618316025 0 -51.128590618316025 -88.757184603471615 0 0 0 0 393.67596976190725 190.24354603478378 0 190.24354603478378 79.27395593306187 0 0 0 0 112.6457822951088 126.1318939894702 0 126.1318939894702 374.15714575913807 0 0 0 0 207.19949299151631 -171.23468516970115 0 -171.23468516970115 291.01008854716156 0 0 0 0 468.79289132070517 21.235147796695856 0 21.235147796695856 -93.4472349175186 0 0 0 0 50.286964078969504 -180.64022256031927 0 -180.64022256031927 -17.43577932667904 0 0 0 0 91.671341928444235 32.276157493479559 0 32.276157493479559 -67.250042313683252 0 0 0 0 40.531992845793866 -106.9930615450603 0 -106.9930615450603 29.039418017787284 0 0 0 0 -106.54527812925517 -149.4889854586425 0 -149.4889854586425 16.938015076258125 0 0 0 0 17.454653232072815 -13.153341659020612 0 -13.153341659020612 -77.413422388039635 0 0 0 0 -72.639097323821261 -23.081500202129746 0 -23.081500202129746 -2.8541484792208394 0 0 0 0 12.406445477930902 68.509161103959514 0 68.509161103959514 114.9654455857426 0 0 0 0 150.07958603959196 150.07068835206155 0 150.07068835206155 126.71548840324468 0 0 0 0 57.28834339180321 104.43320880824388 0 104.43320880824388 86.97616704852544 0 0 0 0 -25.666002170635693 -12.551917186033506 0 -12.551917186033506 183.61690974691101 0 0 0 0 83.946774209587602 76.188312955761376 0 76.188312955761376 93.18608098683444 0 0 0 0 148.74872132331802 162.63913658402043 0 162.63913658402043 65.433030598488131 0 0 0 0 157.3252070850358 47.788687467387945 0 47.788687467387945 11.695235464442419 0 0 0 0 221.56322340486258 87.600051243764597 0 87.600051243764597 -10.753871487333981 0 0 0 0 229.82796863069598 247.87813626858633 0 247.87813626858633 276.32894515884254 0 0 0 0 501.31674015908357 80.909377468476009 0 80.909377468476009 14.81527974258961 0 0 0 0 5.4565588939118825 1.6913101757458291 0 1.6913101757458291 0.98983347496027285 0 0 0 0 403.95980342870826 -176.04236696870635 0 -176.04236696870635 80.456138801468114 0 0 0 0 181.28976717070691 -247.83898069277484 0 -247.83898069277484 215.26988947262043 0 0 0 0 70.095777350601566 -59.332194789189771 0 -59.332194789189771 49.098094649862105 0 0 0 0 219.32365224301975 -58.429135954507046 0 -58.429135954507046 -21.180794064452357 0 0 0 0 22.350472405327309 12.247066048857619 0 12.247066048857619 -37.01993023739783 0 0 0 0 93.550038134553233 -41.661358959478974 0 -41.661358959478974 -74.487772120837917 0 0 0 0 1.7316556104688061 -49.778453812334419 0 -49.778453812334419 -37.097726992340881 0 0 0 0 60.725219286221545 -13.302499292895163 0 -13.302499292895163 -14.567477796035973 0 0 0 0 17.667239122918545 -8.429136364376518 0 -8.429136364376518 -39.380911406069117 0 0 0 0 7.7043749922256666 93.659295470229736 0 93.659295470229736 -2.2822420062630044 0 0 0 0 58.753342505657201 -22.467586634582744 0 -22.467586634582744 -41.495567179688805 0 0 0 0 87.822129744666427 33.735000928164744 0 33.735000928164744 -15.031499360938597 0 0 0 0 76.457606785948883 41.675753315836118 0 41.675753315836118 -19.961436268581565 0 0 0 0 130.73208869807058 128.67500688415817 0 128.67500688415817 32.984402848683658 0 0 0 0 153.60884570185408 129.55848862881794 0 129.55848862881794 4.6666444599882198 0 0 0 0 60.21915423071372 19.10256053989902 0 19.10256053989902 -2.4797367206796492 0 0 0 0 -29.652419961596024 -254.89566985229112 0 -254.89566985229112 44.186851244429818 0 0 0 0 304.85927188997812 192.74275339429562 0 192.74275339429562 -18.661257016012058 0 0 0 0 0.72448457938848776 1.5599458170159934 0 1.5599458170159934 0.66483729007330927 0 0 0 0 102.99502777983434 -56.249906136152049 0 -56.249906136152049 16.554849894829658 0 0 0 0 27.122307082747561 -29.18240130687407 0 -29.18240130687407 2.3029647666866477 0 0 0 0 93.648729325462682 27.360121311837883 0 27.360121311837883 3.1694608465737701 0 0 0 0 11.062059660359481 1.8259375353704286 0 1.8259375353704286 -0.10379038754067604 0 0 0 0 156.36980254236732 129.35652657357264 0 129.35652657357264 157.98092140669405 0 0 0 0 -102.91614201050288 -139.26768069245492 0 -139.26768069245492 23.909864933802055 0 0 0 0 12.030504637739227 -6.2227873263155828 0 -6.2227873263155828 -1.9386481127131621 0 0 0 0 47.217182439286262 -70.376927102345689 0 -70.376927102345689 159.40276109581714 0 0 0 0 27.545536864483438 39.783535432144845 0 39.783535432144845 -12.311005277940012 0 0 0 0 -16.97321821274636 13.343681664484848 0 13.343681664484848 59.826053496191435 0 0 0 0 20.3464092532245 9.2427195421513595 0 9.2427195421513595 3.5634764440013598 0 0 0 0 22.175983492023079 4.2092532009819479 0 4.2092532009819479 167.49555550636705 0 0 0 0 131.05481672549649 -96.702525676748337 0 -96.702525676748337 102.09359790188137 0 0 0 0 -4.1314589005467113 4.7104134753200055 0 4.7104134753200055 5.7017272232972616 0 0 0 0 68.262633720940357 -49.837962238027103 0 -49.837962238027103 276.31909674616509 0 0 0 0 172.53170005368156 -135.14912664642998 0 -135.14912664642998 136.21754999489349 0 0 0 0 5.157307011195936 2.6356121630192426 0 2.6356121630192426 -0.49944547485036495 0 0 0 0 80.775027859031979 -41.320121744583503 0 -41.320121744583503 76.341137035711654 0 0 0 0 121.65231906429835 -19.937297218189542 0 -19.937297218189542 114.7920433793297 0 0 0 0 47.885684073946322 -44.693019790912331 0 -44.693019790912331 109.16257858582549 0 0 0 0 37.218404932536941 -44.137817458498148 0 -44.137817458498148 106.49534609833881 0 0 0 0 14.088168201647932 -46.951553103997867 0 -46.951553103997867 146.50886288398078 0 0 0 0 14.67017970862527 5.0822068249881136 0 5.0822068249881136 2.0414807259787811 0 0 0 0 30.016152415028046 -52.456191415048124 0 -52.456191415048124 141.36649547330308 0 0 0 0 57.759620602675568 -21.387122494439382 0 -21.387122494439382 109.87549129177387 0 0 0 0 -159.14184291725178 -163.75647556128774 0 -163.75647556128774 90.916112895952779 0 0 0 0 17.23227441612471 -141.70668766510289 0 -141.70668766510289 149.19742916491623 0 0 0 0 70.346908653961236 -199.80963500146052 0 -199.80963500146052 84.172483777621437 0 0 0 0 111.56889739224789 -130.75957628456649 0 -130.75957628456649 88.419927273281587 0 0 0 0 156.95695301764499 55.605002817605964 0 55.605002817605964 -19.285907953290916 0 0 0 0 151.16166450114179 4.2841936163006267 0 4.2841936163006267 22.962869816032253 0 0 0 0 179.70273493240529 -26.264887614307327 0 -26.264887614307327 17.565477387132887 0 0 0 0 418.51006871217396 -3.4613182969478657 0 -3.4613182969478657 -11.737131386922101 0 0 0 0 0.50853029727376153 -0.60447186294356214 0 -0.60447186294356214 1.007894699433459 0 0 0 0 -0.30040526160264847 -1.6318371621945431 0 -1.6318371621945431 2.5932345453834778 0 0 0 0 188.78564703886332 7.9118820266514831 0 7.9118820266514831 8.2093817226414103 0 0 0 0 149.52789933642634 17.652575936048265 0 17.652575936048265 9.8286514203134629 0 0 0 0 109.83792937007092 -27.72083098667224 0 -27.72083098667224 22.571803241993393 0 0 0 0 56.05675797605727 -31.515098494527024 0 -31.515098494527024 51.566571273634509 0 0 0 0 98.019617329788161 -14.006833989383267 0 -14.006833989383267 10.399781432060308 0 0 0 0 27.347199503332376 3.5473667483133795 0 3.5473667483133795 34.368954856191067 0 0 0 0 67.976753466569789 -59.543971792815 0 -59.543971792815 82.846350170130791 0 0 0 0 60.604046642846697 22.367168667482701 0 22.367168667482701 19.331216556216532 0 0 0 0 9.1894812152131635 8.5013131284283645 0 8.5013131284283645 38.88407685261609 0 0 0 0 4.317370313282364 12.902906031015974 0 12.902906031015974 16.142448110701984 0 0 0 0 25.160302620279253 -2.7617464880872831 0 -2.7617464880872831 20.900939846696701 0 0 0 0 46.976746284435649 2.6800012251918304 0 2.6800012251918304 12.512771035597325 0 0 0 0 84.59636413888984 20.557484956597364 0 20.557484956597364 27.30876845994635 0 0 0 0 85.647145142625959 26.329343837826855 0 26.329343837826855 58.967295147179001 0 0 0 0 71.881998929906331 4.5818404576202738 0 4.5818404576202738 74.35841008479656 0 0 0 0 50.701986559011857 -4.3359132045325168 0 -4.3359132045325168 76.570648138283786 0 0 0 0 68.321311817608148 12.088365787119528 0 12.088365787119528 58.950911345509667 0 0 0 0 69.613704247143687 -17.466570191720621 0 -17.466570191720621 61.983815926316311 0 0 0 0 73.733475511431607 -7.7150838841316727 0 -7.7150838841316727 36.997116235507065 0 0 0 0 140.35284810192388 -76.178066422724442 0 -76.178066422724442 110.23893947774923 0 0 0 0 70.21326119502919 -13.958820162199117 0 -13.958820162199117 66.198679053171873 0 0 0 0 76.841275681356819 -16.240538165685393 0 -16.240538165685393 122.07901918626521 0 0 0 0 51.51986839989695 -22.859631382936641 0 -22.859631382936641 151.8284138889685 0 0 0 0 19.213729135342874 -2.6235494518205087 0 -2.6235494518205087 128.63529634533211 0 0 0 0 56.052480743546766 -25.420094453024376 0 -25.420094453024376 121.26974536160742 0 0 0 0 35.253756415404496 -5.7729089152162487 0 -5.7729089152162487 103.6251651635921 0 0 0 0 60.065655916396281 -18.729592409984889 0 -18.729592409984889 97.150643017566836 0 0 0 0 34.081559342359469 5.1702208576375597 0 5.1702208576375597 95.775890262091707 0 0 0 0 46.010833883247869 31.156541198573677 0 31.156541198573677 91.625486588953208 0 0 0 0 38.562842789369824 -1.9157741230596912 0 -1.9157741230596912 106.96500208137877 0 0 0 0 5.4735249116201885 11.256205511385588 0 11.256205511385588 103.81593810430786 0 0 0 0 6.7034351885740762 33.052112898290943 0 33.052112898290943 91.365447655524122 0 0 0 0 19.201914353439861 20.985778760863241 0 20.985778760863241 70.070161480462048 0 0 0 0 17.941673121415079 30.498797352620386 0 30.498797352620386 72.289042924701789 0 0 0 0 25.444915736839903 -8.5911849463927865 0 -8.5911849463927865 69.079988429994501 0 0 0 0 53.377701123834413 -25.215553864045887 0 -25.215553864045887 125.50989499866046 0 0 0 0 46.153945596546464 25.932976196790854 0 25.932976196790854 105.89691360530378 0 0 0 0 29.760954761368339 12.119147436088497 0 12.119147436088497 100.03710182307077 0 0 0 0 69.580814332468435 72.492653992549549 0 72.492653992549549 93.500366413334632 0 0 0 0 32.626906494855575 67.786508830932235 0 67.786508830932235 129.01253674384088 0 0 0 0 21.594954829357448 34.880608037958154 0 34.880608037958154 88.2595568550596 0 0 0 0 26.780970151685324 40.608452821152696 0 40.608452821152696 62.994025542674535 0 0 0 0 31.153793691939995 53.337278576258257 0 53.337278576258257 103.78765355007636 0 0 0 0 69.879702907888714 54.708127544969557 0 54.708127544969557 85.87715125075465 0 0 0 0 29.458557426452899 27.127775785412268 0 27.127775785412268 92.752519533691157 0 0 0 0 63.589623550687747 75.75744556160862 0 75.75744556160862 97.916648299648841 0 0 0 0 91.804784689742519 99.487746941735168 0 99.487746941735168 48.745469392099494 0 0 0 0 108.46015229699697 60.529587606238238 0 60.529587606238238 44.317967220330502 0 0 0 0 123.73838672758211 49.087459231199318 0 49.087459231199318 11.711686470027416 0 0 0 0 4.1285187782144419 -44.334834308173249 0 -44.334834308173249 -9.7843334921637748 0 0 0 0 81.603243341549387 31.713594478859704 0 31.713594478859704 71.502368800900285 0 0 0 0 108.13438269281869 27.964700509098293 0 27.964700509098293 56.738566599992737 0 0 0 0 51.731007307669643 37.942232026787678 0 37.942232026787678 72.412029407110822 0 0 0 0 72.257269572349202 -7.2592655465994156 0 -7.2592655465994156 -16.528208796017179 0 0 0 0 -81.404257307105581 -150.57312037288432 0 -150.57312037288432 -83.068857821158758 0 0 0 0 228.56808111545979 30.311966247486453 0 30.311966247486453 183.10663058345017 0 0 0 0 86.252003019732001 25.406455659778203 0 25.406455659778203 60.254960710250089 0 0 0 0 13.307245854867119 6.6172565732564124 0 6.6172565732564124 5.8717665983198684 0 0 0 0 103.15045450177422 -152.53150085959271 0 -152.53150085959271 -280.82973763013007 0 0 0 0 34.593548945331619 -11.499093099710173 0 -11.499093099710173 -3.2685403535497355 0 0 0 0 1.0390498999331612 -57.868326302403148 0 -57.868326302403148 -100.68935643284749 0 0 0 0 61.910441986624619 0.52802784806186054 0 0.52802784806186054 -10.787361515669359 0 0 0 0 570.49830276256762 -437.72965921090531 0 -437.72965921090531 -549.21143978837335 0 0 0 0 -262.28425117929874 58.041718081165186 0 58.041718081165186 73.141645724936438 0 0 0 0 10.549071124740294 167.47575379250449 0 167.47575379250449 171.83543265078254 0 0 0 0 5.5628531959416421 -2.491284638461682 0 -2.491284638461682 1.27598735085237 0 0 0 0 41.610152276669396 -218.2476125220528 0 -218.2476125220528 598.61279762321112 0 0 0 0 0.36297079914590924 -1.8411880319165022 0 -1.8411880319165022 6.6541799732619449 0 0 0 0 131.86242007787587 -305.09918232708128 0 -305.09918232708128 84.933470782084441 0 0 0 0 1.4034832756042306 -425.75232720143663 0 -425.75232720143663 166.4997215096256 0 0 0 0 -1474.5221871711256 -209.99060756477832 0 -209.99060756477832 996.33764389090311 0 0 0 0 86.491790621214022 -36.442647807137519 0 -36.442647807137519 -145.97838223429108 0 0 0 0 19.148250529469806 1.3695602481734568 0 1.3695602481734568 -51.653300043897616 0 0 0 0 -20.616626689399709 -75.711229276732979 0 -75.711229276732979 -24.069541229237529 0 0 0 0 40.940938357129014 -5.001135251220628 0 -5.001135251220628 -5.0830457353691809 0 0 0 0 64.361144981288817 -49.396358669930578 0 -49.396358669930578 -26.921375809868096 0 0 0 0 773.59436645901587 -684.91661602561476 0 -684.91661602561476 -552.75343387547809 0 0 0 0 45.910906432342685 -5.4434193316114872 0 -5.4434193316114872 -9.0040863859521387 0 0 0 0 41.931968635992789 -0.83163634848740031 0 -0.83163634848740031 -7.770859628140367 0 0 0 0 21.601106970947029 -11.025445886023057 0 -11.025445886023057 -2.0101937095665212 0 0 0 0 35.356448285951046 -31.967321643438481 0 -31.967321643438481 -32.478244936549345 0 0 0 0 177.30519930386799 -39.787746886698187 0 -39.787746886698187 -104.28550310388073 0 0 0 0 52.948116337161686 2.7927936362251025 0 2.7927936362251025 -5.3236541143859331 0 0 0 0 46.275231905019609 -27.1246273241577 0 -27.1246273241577 -69.622754948984948 0 0 0 0 241.6140373759772 365.31222354936665 0 365.31222354936665 78.542035944409463 0 0 0 0 496.75597072645905 418.7687498144652 0 418.7687498144652 -12.672759167146637 0 0 0 0 460.71009947217499 449.4400491785189 0 449.4400491785189 32.652754838626606 0 0 0 0 390.96616744378116 217.16763029989534 0 217.16763029989534 52.176075674052299 0 0 0 0 -66.877483466996637 -27.860544151700537 0 -27.860544151700537 -115.18185321164526 0 0 0 0 408.5546649552125 248.66065444429319 0 248.66065444429319 -29.408061314519045 0 0 0 0 -281.83505017063726 351.49672817958748 0 351.49672817958748 -248.70669619190335 0 0 0 0 140.94523778661824 99.31879678664086 0 99.31879678664086 54.987092969846344 0 0 0 0 530.47576438543911 124.4830155803038 0 124.4830155803038 46.70399065386539 0 0 0 0 -1.7006986805354245 -113.00590543449744 0 -113.00590543449744 69.246482676937603 0 0 0 0 -80.474710305210465 -35.714899654421856 0 -35.714899654421856 -0.17173373385958257 0 0 0 0 212.52401333829039 -101.60738162061739 0 -101.60738162061739 -122.23871307699937 0 0 0 0 110.83575894084061 -29.607857727874034 0 -29.607857727874034 -173.19011657266753 0 0 0 0 219.89240902274469 4.3908550291303072 0 4.3908550291303072 -661.43406279377996 0 0 0 0 -74.6218269141973 -52.247719936899784 0 -52.247719936899784 56.742666591409716 0 0 0 0 21.671773142041161 -0.98306716505511105 0 -0.98306716505511105 -0.2267528425376516 0 0 0 0 -38.495739480258635 -68.618778014390045 0 -68.618778014390045 300.21232944421024 0 0 0 0 375.51279721868923 505.16751633058414 0 505.16751633058414 191.30810980436559 0 0 0 0 104.16405195844345 42.467046671832577 0 42.467046671832577 -59.553867476902269 0 0 0 0 8.0528303799062968 0.85378607571735632 0 0.85378607571735632 -0.072960045098217907 0 0 0 0 57.519694619586517 -39.468348888427727 0 -39.468348888427727 -46.991757666770809 0 0 0 0 -15.429989212902001 -218.51458313186976 0 -218.51458313186976 -138.12682469536344 0 0 0 0 44.953821384110569 -2.6367448239435838 0 -2.6367448239435838 -6.3906166453990689 0 0 0 0 21.037932308184878 -16.409010495449003 0 -16.409010495449003 -10.494362350046011 0 0 0 0 17.614849805220729 4.4864135277015293 0 4.4864135277015293 -39.462381823718033 0 0 0 0 17.167117993167267 -78.127300160351297 0 -78.127300160351297 -48.54802315768211 0 0 0 0 47.807409467167837 -4.8527400822164211 0 -4.8527400822164211 -10.066300757910621 0 0 0 0 7.3695611203011282 -6.3777583458192897 0 -6.3777583458192897 -5.6289274958901281 0 0 0 0 59.317564778440101 30.381973816311529 0 30.381973816311529 22.670183121029368 0 0 0 0 81.543720034509533 116.42299541198418 0 116.42299541198418 93.581005493883708 0 0 0 0 97.513007164916417 70.431856405972667 0 70.431856405972667 6.8622853257318184 0 0 0 0 44.881765603192434 24.713395904796016 0 24.713395904796016 36.261551980684089 0 0 0 0 76.073027634865866 41.005981380063531 0 41.005981380063531 -3.2341722392991414 0 0 0 0 40.774933431090886 -1.1534304077777371 0 -1.1534304077777371 -12.268093847970388 0 0 0 0 56.723885095858577 5.9775439471255822 0 5.9775439471255822 -31.034192876890302 0 0 0 0 35.481147409464029 -43.00999871552284 0 -43.00999871552284 -44.942806610470001 0 0 0 0 72.235443092344667 51.388082233607747 0 51.388082233607747 18.924106255364677 0 0 0 0 218.35137338692948 173.66368598498457 0 173.66368598498457 88.836844907301838 0 0 0 0 288.56140496728221 58.493946512549428 0 58.493946512549428 -75.816254462425377 0 0 0 0 2.0210077704064133 -86.046279197686999 0 -86.046279197686999 115.41821970891669 0 0 0 0 1.6476384645782325 2.8620712852558121 0 2.8620712852558121 0.4881485062977664 0 0 0 0 187.3654961092052 193.72855060272968 0 193.72855060272968 110.98266267012559 0 0 0 0 53.942653727433481 142.13694936406978 0 142.13694936406978 282.04686818973823 0 0 0 0 10.95299039809106 39.880321036530859 0 39.880321036530859 75.507569057999717 0 0 0 0 250.63660251397869 3.3130716803368614 0 3.3130716803368614 97.482195360545575 0 0 0 0 71.589119171381526 95.384080979387306 0 95.384080979387306 255.23625163616089 0 0 0 0 55.59913196342859 38.454120805715775 0 38.454120805715775 33.352837713698818 0 0 0 0 87.420688032945804 88.279651605257882 0 88.279651605257882 56.473028263578271 0 0 0 0 129.52428451844025 125.73832886444302 0 125.73832886444302 31.245099723201292 0 0 0 0 105.05220447859938 140.71078471643773 0 140.71078471643773 28.66493621777181 0 0 0 0 29.960927513102433 33.376974350041621 0 33.376974350041621 -28.793569190014836 0 0 0 0 124.35631756413477 131.16171833117562 0 131.16171833117562 21.676217889782038 0 0 0 0 82.284315609471378 54.403152430410501 0 54.403152430410501 -51.575140392855701 0 0 0 0 -19.144990019277429 -6.1964408608913573 0 -6.1964408608913573 -59.79410599077778 0 0 0 0 174.05101936175288 82.716068982787647 0 82.716068982787647 -15.330011340552563 0 0 0 0 75.196843106014967 47.570340865237768 0 47.570340865237768 -15.18682467753888 0 0 0 0 168.62226005154156 88.233416301976561 0 88.233416301976561 -20.847121742443505 0 0 0 0 160.96113833521576 157.1611182013138 0 157.1611182013138 7.775070489824202 0 0 0 0 36.098623319259787 137.87968533885893 0 137.87968533885893 113.56275754223702 0 0 0 0 397.7448580962282 169.71583722672824 0 169.71583722672824 8.1112877865636506 0 0 0 0 304.03282383296357 -99.744620522369701 0 -99.744620522369701 23.201881914471414 0 0 0 0 112.39152358101092 17.535142068827668 0 17.535142068827668 168.32149760261422 0 0 0 0 307.30121705318038 -25.720306282533898 0 -25.720306282533898 -162.74886700255524 0 0 0 0 148.82849763023933 221.44124568560943 0 221.44124568560943 170.86458632343351 0 0 0 0 3.8017560718587191 1.6028524958556436 0 1.6028524958556436 -0.10228155361067831 0 0 0 0 45.981477122357319 -78.017930078246934 0 -78.017930078246934 -22.647280979378365 0 0 0 0 457.64104952667321 235.81815291471753 0 235.81815291471753 -65.422797026515809 0 0 0 0 187.66214391717403 -62.721888155829447 0 -62.721888155829447 -44.535339404200272 0 0 0 0 1.9249597284238007 247.60014593305431 0 247.60014593305431 319.25207465787742 0 0 0 0 571.58280343367733 295.84134829022969 0 295.84134829022969 -39.578671707357898 0 0 0 0 530.56203788769699 161.85517072913018 0 161.85517072913018 -140.60400685119021 0 0 0 0 623.27970827522904 211.79647637469455 0 211.79647637469455 -121.77690928343623 0 0 0 0 72.348958906239204 54.900934301732008 0 54.900934301732008 -121.51475848547364 0 0 0 0 9.3731668477516479 2.0999948995456759 0 2.0999948995456759 -0.37127336774704323 0 0 0 0 16.455621655768482 15.021391566304544 0 15.021391566304544 -169.56921030024563 0 0 0 0 -30.829460774758445 -9.9226369324097732 0 -9.9226369324097732 -30.671212293797396 0 0 0 0 -13.423168672527027 -22.053882019642629 0 -22.053882019642629 -71.12634464929954 0 0 0 0 -4.3445853472250064 14.483157628905772 0 14.483157628905772 -92.416459657856308 0 0 0 0 12.092338914645175 2.0055789586502364 0 2.0055789586502364 -0.48015599943560555 0 0 0 0 53.421443298570011 2.5585043676983332 0 2.5585043676983332 -186.99390532107975 0 0 0 0 5.7427058645043871 -37.208941469680781 0 -37.208941469680781 -175.07264231993432 0 0 0 0 -18.449578635579655 16.029534121997315 0 16.029534121997315 -90.93189813549111 0 0 0 0 24.093262776934353 -16.475954966233417 0 -16.475954966233417 -77.979792778981277 0 0 0 0 -0.87167273035993276 14.177816519684484 0 14.177816519684484 -10.975587914245722 0 0 0 0 237.29801361066166 -101.4662226928931 0 -101.4662226928931 28.281620692805745 0 0 0 0 -89.826390103235099 -103.51706461357821 0 -103.51706461357821 25.361264389025663 0 0 0 0 162.26928648242756 109.04512067428902 0 109.04512067428902 13.396349505994749 0 0 0 0 221.12613932655586 154.34904428671416 0 154.34904428671416 -274.63121196466682 0 0 0 0 12.900012284902196 2.0979347861722779 0 2.0979347861722779 -0.60229522505580735 0 0 0 0 37.645629878286854 8.5631575388770216 0 8.5631575388770216 -203.94237536896088 0 0 0 0 51.270463477443627 -77.601782463668201 0 -77.601782463668201 -291.78529210054512 0 0 0 0 3.8150075954417844 35.438852086410634 0 35.438852086410634 -137.40887266384789 0 0 0 0 -11.779108612892742 3.2235911264012884 0 3.2235911264012884 -54.477628429867309 0 0 0 0 21.63980719394749 22.336234812270504 0 22.336234812270504 -53.926738407023095 0 0 0 0 18.137487212243286 32.599324079211328 0 32.599324079211328 -78.384040959876074 0 0 0 0 -8.1160412136541709 -13.769875610710187 0 -13.769875610710187 -100.69945402874691 0 0 0 0 12.794520408533572 -8.6057798928586635 0 -8.6057798928586635 -17.141438737256522 0 0 0 0 -1.846975536294849 22.108362090441915 0 22.108362090441915 14.67486920103147 0 0 0 0 11.555355937093736 25.359880535144839 0 25.359880535144839 42.924114851263766 0 0 0 0 4.1400722514608788 -3.2405810677007594 0 -3.2405810677007594 4.4050122939906942 0 0 0 0 8.4901308135486033 3.8742606646519562 0 3.8742606646519562 31.054504975072632 0 0 0 0 -0.14072770085522279 29.942383973917345 0 29.942383973917345 66.138555938709032 0 0 0 0 32.985887315088348 5.1506304362937954 0 5.1506304362937954 -55.00265365321502 0 0 0 0 -3.133369811135708 19.880290656787565 0 19.880290656787565 62.745795663598116 0 0 0 0 96.418539108023083 -5.7335715442785329 0 -5.7335715442785329 61.964045519398496 0 0 0 0 13.601327898488307 39.162845898824003 0 39.162845898824003 37.982785363951962 0 0 0 0 -14.048575625876765 25.025101319068881 0 25.025101319068881 -63.208284572939647 0 0 0 0 12.991574389028756 -18.613269521778648 0 -18.613269521778648 -146.82786729997042 0 0 0 0 1446.3982060271646 1026.9180852826453 0 1026.9180852826453 263.39870617430375 0 0 0 0 3492.8571759101978 2490.7513824032931 0 2490.7513824032931 1236.8844505569821 0 0 0 0 34.462357448872474 2.9360715200851146 0 2.9360715200851146 2.306432938643677 0 0 0 0 1408.0760146161863 417.03911827532107 0 417.03911827532107 146.78062764057643 0 0 0 0 55.690912296624447 14.575438676335665 0 14.575438676335665 14.509418491619117 0 0 0 0 43.354202676124132 3.9904302350800869 0 3.9904302350800869 -2.8772162307933988 0 0 0 0 46.094225111213746 13.531430328699571 0 13.531430328699571 3.6492013904455689 0 0 0 0 44.232225638392265 16.440196505684071 0 16.440196505684071 9.1704648450072455 0 0 0 0 44.403849168837503 9.2984154034567954 0 9.2984154034567954 0.94056764662463088 0 0 0 0 35.168904729494969 13.10600654598813 0 13.10600654598813 11.921790110091134 0 0 0 0 42.035062440274487 13.140818198502075 0 13.140818198502075 8.0027182071260086 0 0 0 0 25.766160613623924 62.551681497993513 0 62.551681497993513 -35.193546666577276 0 0 0 0 156.09751164973477 -29.517810849799048 0 -29.517810849799048 -67.840712167750098 0 0 0 0 46.864317286221876 15.729190396414424 0 15.729190396414424 59.903681126450465 0 0 0 0 13.205550825065952 13.317979062081989 0 13.317979062081989 21.50869802056264 0 0 0 0 815.96664746548231 357.61429441458631 0 357.61429441458631 291.33037734450954 0 0 0 0 99.399793680886432 -247.73232249626767 0 -247.73232249626767 -48.314808472458935 0 0 0 0 136.10469105486482 32.190225400471263 0 32.190225400471263 -212.48913711910791 0 0 0 0 482.14344419003464 90.133614110357144 0 90.133614110357144 246.57168354592113 0 0 0 0 122.44749110164071 -258.30481927308722 0 -258.30481927308722 500.44028525108934 0 0 0 0 -2.0763572939245041 -1.1288126155044731 0 -1.1288126155044731 5.9132973466701628 0 0 0 0 -163.72705750092655 256.4055254610451 0 256.4055254610451 539.7631306337621 0 0 0 0 2.6469381422977696 5.1680795526242616 0 5.1680795526242616 10.096060290898906 0 0 0 0 3337.0439902549942 827.64461550359135 0 827.64461550359135 213.5095622521319 0 0 0 0 2824.997614570013 911.43888288612493 0 911.43888288612493 784.67931466087498 0 0 0 0 2430.2582338182783 184.2502557222081 0 184.2502557222081 -199.10507005435119 0 0 0 0 3501.3246112206871 1079.6635301476667 0 1079.6635301476667 140.71373360466407 0 0 0 0 2615.8001780758223 1508.3195101225076 0 1508.3195101225076 232.33514649175544 0 0 0 0 2967.6787552835522 1036.6674790920761 0 1036.6674790920761 158.72329616655969 0 0 0 0 3499.2384957819795 772.46060250803214 0 772.46060250803214 216.72936090998471 0 0 0 0 2816.5782035869197 443.32072825986609 0 443.32072825986609 690.77425608379167 0 0 0 0 3000.9933227507499 637.76418448286768 0 637.76418448286768 364.60835206976969 0 0 0 0 3054.4742896450307 570.299012073722 0 570.299012073722 17.247283845035156 0 0 0 0 3069.0281333437852 498.96517480366964 0 498.96517480366964 105.66491821458271 0 0 0 0 2921.9239617584121 -36.772517075765819 0 -36.772517075765819 -362.57249707384807 0 0 0 0 2645.3673489819212 435.93841173901319 0 435.93841173901319 539.33382751198803 0 0 0 0 3499.7564768377224 513.02301203938453 0 513.02301203938453 85.286012988682401 0 0 0 0 1469.6918034264495 635.8987353077564 0 635.8987353077564 164.31956000084932 0 0 0 0 1374.832055115015 327.39631038673946 0 327.39631038673946 44.175091197034881 0 0 0 0 2931.4816860747019 663.49740008998731 0 663.49740008998731 -11.793712064197422 0 0 0 0 9.7667150160774412 5.6230225568934982 0 5.6230225568934982 1.5801527973570304 0 0 0 0 913.38035080910026 1042.6483112821661 0 1042.6483112821661 1051.3029505970947 0 0 0 0 -243.46716785405124 -203.68885408615876 0 -203.68885408615876 349.00292259782583 0 0 0 0 1663.3729861096858 -103.71653016615858 0 -103.71653016615858 -873.52954657906389 0 0 0 0 2702.4657609976221 774.26377373978607 0 774.26377373978607 200.17521221665464 0 0 0 0 2706.9474623763917 814.54492690333745 0 814.54492690333745 -117.77703119099442 0 0 0 0 2869.9153949238798 302.15026991510069 0 302.15026991510069 326.89452421124969 0 0 0 0 2625.1897061655136 1068.3036380405961 0 1068.3036380405961 670.44651609130528 0 0 0 0 1374.4311414839631 -62.506992924280325 0 -62.506992924280325 -101.60660951152684 0 0 0 0 320.85999961191828 733.02848170426205 0 733.02848170426205 976.2424627136711 0 0 0 0 1076.2777322306151 310.05704606497062 0 310.05704606497062 528.5563247973156 0 0 0 0 -139.79329817936377 13.961519195333494 0 13.961519195333494 913.35514139715156 0 0 0 0 -148.72096032256013 108.27268074914809 0 108.27268074914809 405.98119763197383 0 0 0 0 -119.6274419549186 85.233663684169869 0 85.233663684169869 340.10088369508867 0 0 0 0 -89.62440907381233 77.481924083357598 0 77.481924083357598 302.26367212707027 0 0 0 0 16.695064132151145 9.4298173762155049 0 9.4298173762155049 2.2866411471914176 0 0 0 0 -345.16585250858657 531.98031669211116 0 531.98031669211116 -25.360705577077624 0 0 0 0 -219.91522511971152 53.438026863743346 0 53.438026863743346 364.07750622801814 0 0 0 0 -123.55352153542754 223.02816641696541 0 223.02816641696541 24.783419352249098 0 0 0 0 210.58587231933234 255.93158293318538 0 255.93158293318538 -409.39520840170712 0 0 0 0 107.95687478929358 236.70744556783814 0 236.70744556783814 14.991307345344808 0 0 0 0 -83.135061116559655 343.70040337096935 0 343.70040337096935 402.09277862071463 0 0 0 0 351.17506785036767 696.39888357235293 0 696.39888357235293 582.96962837453475 0 0 0 0 331.09429331330102 105.39516956667006 0 105.39516956667006 -9.7791820790361044 0 0 0 0 329.71170442212724 126.39597260729475 0 126.39597260729475 1.1540457012741854 0 0 0 0 43.169382356078131 185.11389565806235 0 185.11389565806235 63.635405710754242 0 0 0 0 -15.638218064383182 -33.701124877900497 0 -33.701124877900497 -165.26593469507941 0 0 0 0 342.82606084970303 134.17284911248845 0 134.17284911248845 -95.388037728613654 0 0 0 0 444.05775884677678 107.70561136877805 0 107.70561136877805 -563.87627511499772 0 0 0 0 6.5183724017452125 4.8609519821954468 0 4.8609519821954468 1.4972350422380925 0 0 0 0 -9.8238832020733753 340.93964569938566 0 340.93964569938566 753.58932220531779 0 0 0 0 -119.96053203806832 163.94668812242207 0 163.94668812242207 494.32560229301089 0 0 0 0 134.37253595913535 274.91753042323262 0 274.91753042323262 319.06616678631872 0 0 0 0 192.63026282871033 126.39867825869487 0 126.39867825869487 86.579492453781086 0 0 0 0 623.54141840346256 463.69035658731696 0 463.69035658731696 259.4089775076468 0 0 0 0 122.46746572547956 179.01903658520715 0 179.01903658520715 49.641711470701921 0 0 0 0 38.022114050535052 -11.161618591829214 0 -11.161618591829214 -12.965303245996918 0 0 0 0 66.895023526790737 23.248923992857499 0 23.248923992857499 -35.215378292090008 0 0 0 0 64.687833510474775 10.878657604251657 0 10.878657604251657 -1.8125277619510598 0 0 0 0 51.471129840286721 3.6829000827625578 0 3.6829000827625578 -0.81962451098661404 0 0 0 0 166.23482699568649 30.891742075183629 0 30.891742075183629 18.657799770428255 0 0 0 0 14.873567302452495 -0.6398954935183907 0 -0.6398954935183907 -0.094407599552138066 0 0 0 0 103.06361397083293 83.317210634938874 0 83.317210634938874 133.58781500637087 0 0 0 0 62.077319838331277 -41.021846531231859 0 -41.021846531231859 -20.405138004159198 0 0 0 0 20.979467288165381 113.01336234077826 0 113.01336234077826 124.11404941240789 0 0 0 0 -50.593039677689291 12.058077060671167 0 12.058077060671167 184.10986981947735 0 0 0 0 -4.9086759998931484 96.457006522589381 0 96.457006522589381 337.99884842548937 0 0 0 0 78.7911799463443 -127.84344774504189 0 -127.84344774504189 110.58344105629294 0 0 0 0 -40.796104314672903 -59.023610666433797 0 -59.023610666433797 498.01091155791437 0 0 0 0 67.015976824772224 17.603587983121542 0 17.603587983121542 -27.359048372372854 0 0 0 0 52.134836683073942 -28.59652146068504 0 -28.59652146068504 165.16642946799948 0 0 0 0 57.995690410948214 4.658635690578194 0 4.658635690578194 29.468963263115256 0 0 0 0 55.142352680962659 35.452935999427154 0 35.452935999427154 36.969611880309458 0 0 0 0 41.933789371021248 7.7448614086491432 0 7.7448614086491432 -7.4391111580639517 0 0 0 0 43.786076778726155 -1.8969310723017401 0 -1.8969310723017401 -11.732910307752782 0 0 0 0 12.348524457087933 55.619729114263464 0 55.619729114263464 22.398280756356144 0 0 0 0 44.516915767656883 7.9401830489277927 0 7.9401830489277927 -16.062265415805086 0 0 0 0 7.3126897266281699 2.5894640143526577 0 2.5894640143526577 10.386001579493623 0 0 0 0 49.29522873787937 -1.0316948651934581 0 -1.0316948651934581 -19.205789249658665 0 0 0 0 43.190573280564408 8.5424100958009888 0 8.5424100958009888 -7.9952749488517947 0 0 0 0 48.14605270316315 16.751273167341878 0 16.751273167341878 4.6215093373166383 0 0 0 0 38.207412476800002 7.1009771508371067 0 7.1009771508371067 -1.1629164091273907 0 0 0 0 50.796826899324515 10.198168637045455 0 10.198168637045455 -13.111447224014682 0 0 0 0 16.431275910537806 3.9007864288557812 0 3.9007864288557812 -1.2214154099010557 0 0 0 0 28.09649861261056 12.000525893231199 0 12.000525893231199 0.98168513259366597 0 0 0 0 84.470828739649733 9.1303593075458576 0 9.1303593075458576 -0.5492591524544943 0 0 0 0 86.101736343021912 44.437706522613212 0 44.437706522613212 13.837401035963953 0 0 0 0 -3.4590349571944614 -5.5281903230769691 0 -5.5281903230769691 0.52190582428494836 0 0 0 0 42.385193956644798 9.31818207190463 0 9.31818207190463 3.0540449031968819 0 0 0 0 39.941067360374291 -2.2118429419742824 0 -2.2118429419742824 -5.227958199792738 0 0 0 0 11.606508276615877 3.0731222136333827 0 3.0731222136333827 -1.6506278640992431 0 0 0 0 47.720256805337613 13.278957917147409 0 13.278957917147409 -0.11937259795318056 0 0 0 0 28.41195047155761 2.4254643919527403 0 2.4254643919527403 -5.9433450784162787 0 0 0 0 48.2270600069387 21.008617187681295 0 21.008617187681295 7.7616624797998597 0 0 0 0 83.474284040581551 4.4489755097959796 0 4.4489755097959796 4.0997084459054989 0 0 0 0 62.104846901544079 12.721169413736355 0 12.721169413736355 4.0959761099348739 0 0 0 0 68.423423792155518 -3.8148109959751899 0 -3.8148109959751899 0.37014666038352573 0 0 0 0 71.338785157679922 5.2976458050333788 0 5.2976458050333788 10.027031427549126 0 0 0 0 90.293815082666697 -4.1463256026099771 0 -4.1463256026099771 -25.395682990956288 0 0 0 0 12.359219559696676 0.050513561404571306 0 0.050513561404571306 -1.6380979055575904 0 0 0 0 92.913392985341488 -8.3779395036113655 0 -8.3779395036113655 -18.628171355431675 0 0 0 0 87.21841032220982 -6.1207086639264929 0 -6.1207086639264929 -10.599899663755906 0 0 0 0 53.039208509818124 -1.59445294219225 0 -1.59445294219225 -4.7324569109860199 0 0 0 0 38.406646828077633 -1.5686055312660692 0 -1.5686055312660692 -6.9289818730819857 0 0 0 0 101.11603991441734 2.6748349682857224 0 2.6748349682857224 -38.727930183835269 0 0 0 0 31.064921190738914 3.5752689138872711 0 3.5752689138872711 -5.0866691771552723 0 0 0 0 76.762175341653347 9.9421563505970489 0 9.9421563505970489 10.302844913645171 0 0 0 0 78.788646340310947 7.8019689948132385 0 7.8019689948132385 -4.3165195801764291 0 0 0 0 43.458200723776912 -9.4758393634769522 0 -9.4758393634769522 -17.446687847695422 0 0 0 0 46.140123399445407 -0.38163788402383503 0 -0.38163788402383503 -5.9413051709862224 0 0 0 0 76.740719694338623 10.065668410343175 0 10.065668410343175 10.391783697380054 0 0 0 0 83.676503500608305 -2.4622467355463868 0 -2.4622467355463868 -17.250975480670149 0 0 0 0 20.934308559147777 12.668621302976671 0 12.668621302976671 -8.7173345578192265 0 0 0 0 112.44733060042108 21.207670395097036 0 21.207670395097036 -12.956127181573578 0 0 0 0 82.283461576127593 4.0242617955977096 0 4.0242617955977096 -16.34487393079219 0 0 0 0 78.740940224641236 20.449429907427543 0 20.449429907427543 -26.466352279350986 0 0 0 0 97.88131102459738 4.9765967457317402 0 4.9765967457317402 -16.57049548887602 0 0 0 0 86.991907258321589 -12.373687938597357 0 -12.373687938597357 -6.6331768005462095 0 0 0 0 87.338198720082801 -19.760274127448525 0 -19.760274127448525 7.5528007142088427 0 0 0 0 126.11562254394812 -19.460470093653271 0 -19.460470093653271 -39.699868761188327 0 0 0 0 103.88668155887717 6.28899730470539 0 6.28899730470539 -41.206120206006744 0 0 0 0 90.273846756363341 2.5867335004250713 0 2.5867335004250713 -9.3597914831506248 0 0 0 0 96.530090995130422 -10.593892174115823 0 -10.593892174115823 -31.657035768521382 0 0 0 0 93.671106058279292 3.2452185458968756 0 3.2452185458968756 -29.63724335280358 0 0 0 0 87.180777055221284 0.63369080351211871 0 0.63369080351211871 -9.4425709762208427 0 0 0 0 98.049878518111655 13.564873199926751 0 13.564873199926751 -18.902051289654537 0 0 0 0 119.02709687193601 -16.367469621507837 0 -16.367469621507837 -37.494103033764077 0 0 0 0 123.23962812139689 28.364409082508701 0 28.364409082508701 -13.945185862392918 0 0 0 0 110.63563162122955 33.171462869967399 0 33.171462869967399 -4.7323486190514359 0 0 0 0 92.15187381780288 12.021851341451679 0 12.021851341451679 -18.012231631999384 0 0 0 0 22.866260315428367 23.369296866640038 0 23.369296866640038 6.7872367110228771 0 0 0 0 126.94512672978635 22.239349025555384 0 22.239349025555384 -6.6129022496561447 0 0 0 0 61.995381397809979 0.042858859969328478 0 0.042858859969328478 -9.5755933990417361 0 0 0 0 68.676739947184785 3.8825323564596372 0 3.8825323564596372 -7.1594968369161549 0 0 0 0 103.51131025426631 -214.8841012095202 0 -214.8841012095202 -91.592301709617914 0 0 0 0 38.39414036750793 -9.9275704776905034 0 -9.9275704776905034 -11.942609133360673 0 0 0 0 68.835653725886459 15.309161910051671 0 15.309161910051671 4.2326581974485293 0 0 0 0 -203.7681773162567 129.38762352356378 0 129.38762352356378 304.21692582945525 0 0 0 0 197.26931182237604 93.396523669009412 0 93.396523669009412 -120.95287710212915 0 0 0 0 452.61389433210252 -168.20887614851756 0 -168.20887614851756 112.85800775351163 0 0 0 0 118.53218853380804 27.4520795928496 0 27.4520795928496 -6.2949864844067633 0 0 0 0 33.752690874996915 6.0001503074688571 0 6.0001503074688571 1.1510638583374657 0 0 0 0 98.066247943917915 39.311430656197786 0 39.311430656197786 -8.192031467635843 0 0 0 0 125.8035718090905 43.463557600997774 0 43.463557600997774 22.778167354227662 0 0 0 0 7.7206849648034854 1.8930131069897973 0 1.8930131069897973 -3.4779294352786119 0 0 0 0 72.001436562783965 66.535235601688726 0 66.535235601688726 -23.637508457640024 0 0 0 0 118.37696869253159 50.657275820246696 0 50.657275820246696 -50.403392101222948 0 0 0 0 -67.403337988655039 -41.871902457575516 0 -41.871902457575516 434.92189699366872 0 0 0 0 514.31314255176585 301.60990655282785 0 301.60990655282785 -82.502904479594008 0 0 0 0 6.2202949628650179 0.12214331335278672 0 0.12214331335278672 -0.52143660186534646 0 0 0 0 -0.49471488113581064 -0.19377838582571627 0 -0.19377838582571627 0.78546468582278983 0 0 0 0 521.46517722843964 213.85987719278913 0 213.85987719278913 -178.85954841625872 0 0 0 0 -118.23776855519372 88.08082334145864 0 88.08082334145864 18.308398176474896 0 0 0 0 201.39308389239432 135.71082416582024 0 135.71082416582024 27.898873507569022 0 0 0 0 156.30351439200706 179.88680670586288 0 179.88680670586288 5.5604318857414228 0 0 0 0 295.76220061688764 -76.772168110428936 0 -76.772168110428936 -33.353886692021774 0 0 0 0 290.58449616520375 62.52046583345134 0 62.52046583345134 -26.930179554368067 0 0 0 0 178.15990230585339 44.392908534124217 0 44.392908534124217 -61.456076859105622 0 0 0 0 187.75518005007416 7.6720741696790284 0 7.6720741696790284 -42.962767313616496 0 0 0 0 2.3912388215294538 6.6749675345634003 0 6.6749675345634003 -6.3989608731587468 0 0 0 0 209.22227812275742 -40.319060363897279 0 -40.319060363897279 -42.760432996818849 0 0 0 0 195.41579239319481 -29.933479705418236 0 -29.933479705418236 -12.846756957550269 0 0 0 0 122.87427973563535 3.7424604276660602 0 3.7424604276660602 -10.702452096636307 0 0 0 0 124.476294974751 49.259879686789191 0 49.259879686789191 -31.631217974592801 0 0 0 0 119.81303118304049 34.674688167597402 0 34.674688167597402 -26.547918042222591 0 0 0 0 149.60400716233835 20.07777301140095 0 20.07777301140095 -16.968374489444614 0 0 0 0 139.39656789302353 -3.6531895769401217 0 -3.6531895769401217 -29.645320405553321 0 0 0 0 21.49373309629312 2.775350171200138 0 2.775350171200138 -16.829238593530604 0 0 0 0 115.95115915580391 -1.8353387964773447 0 -1.8353387964773447 -14.566736211171246 0 0 0 0 113.91006384688808 -0.59253020561300218 0 -0.59253020561300218 -10.764983156595633 0 0 0 0 161.65656787655917 -55.148676688252635 0 -55.148676688252635 11.957031722924967 0 0 0 0 95.980588313726457 7.1809111976366493 0 7.1809111976366493 -0.76952642857540354 0 0 0 0 6.2352578480305993 9.6004014689137698 0 9.6004014689137698 4.953424964363391 0 0 0 0 212.72710985413414 -101.61393856797619 0 -101.61393856797619 24.772152709067957 0 0 0 0 189.89949624485962 61.29342994349895 0 61.29342994349895 -76.768734480599278 0 0 0 0 195.3665756293085 42.995211717321695 0 42.995211717321695 -31.960390769816854 0 0 0 0 -14.404878091807404 105.12836714330513 0 105.12836714330513 -51.475750448811993 0 0 0 0 31.221444213269933 3.188537050283486 0 3.188537050283486 -13.509825505451261 0 0 0 0 197.76205644545615 -19.591116589212373 0 -19.591116589212373 -59.667672999932847 0 0 0 0 201.75011330132475 119.24449004221549 0 119.24449004221549 67.110291564169643 0 0 0 0 306.79354811786106 76.247723608398474 0 76.247723608398474 -52.681470035098982 0 0 0 0 326.50205972247932 205.55657887255501 0 205.55657887255501 36.043652600505879 0 0 0 0 26.916168720985958 8.971988493082236 0 8.971988493082236 4.9209719685771383 0 0 0 0 40.419433873863454 26.027253058397179 0 26.027253058397179 24.596040636090478 0 0 0 0 87.221966148980826 -4.574169345128162 0 -4.574169345128162 -1.6058558982708311 0 0 0 0 125.28476607788525 -38.445954304860152 0 -38.445954304860152 -11.36313432065117 0 0 0 0 178.89428840889741 -2.8450189354923623 0 -2.8450189354923623 -84.457312488435861 0 0 0 0 97.775089876127225 -2.4807799059965587 0 -2.4807799059965587 -7.5102224916107456 0 0 0 0 87.232016234164803 29.187203911033976 0 29.187203911033976 -25.616588035930363 0 0 0 0 55.459258528733699 -12.628237884807277 0 -12.628237884807277 43.990067852126231 0 0 0 0 22.546908638759753 -3.0190692272959083 0 -3.0190692272959083 -1.8498682445902617 0 0 0 0 6.4358907167306825 93.426826175702217 0 93.426826175702217 81.336429118603974 0 0 0 0 68.702961128159586 -4.2679003265500342 0 -4.2679003265500342 -4.7123069156666588 0 0 0 0 110.66157613331598 12.706712842003071 0 12.706712842003071 -37.351806170003329 0 0 0 0 118.20404517667157 -4.646176048046641 0 -4.646176048046641 -16.22183248008696 0 0 0 0 105.0878907134811 9.3360476692505472 0 9.3360476692505472 -23.82885178754259 0 0 0 0 96.383944606772275 13.990994607904668 0 13.990994607904668 -11.001835491367274 0 0 0 0 93.639202471046815 -10.267772057375911 0 -10.267772057375911 -8.2159035737683279 0 0 0 0 148.79586335258864 -8.7949860507269477 0 -8.7949860507269477 -24.148295576039345 0 0 0 0 110.1741235315119 -22.03256139463258 0 -22.03256139463258 -27.691259050468943 0 0 0 0 27.255836451097782 -0.80243317654344537 0 -0.80243317654344537 -4.033703707039848 0 0 0 0 102.23708012757015 15.182327201186808 0 15.182327201186808 -32.883133615609495 0 0 0 0 105.25020767719616 9.8990453349679228 0 9.8990453349679228 -32.147736221274045 0 0 0 0 110.51902364603484 -5.5590736212168395 0 -5.5590736212168395 -6.170211598183414 0 0 0 0 -1.5554430010545914 -2.4269781201611202 0 -2.4269781201611202 0.91586473132123913 0 0 0 0 194.03317751484792 -40.514722459777431 0 -40.514722459777431 -17.563162041566386 0 0 0 0 178.05993367644533 85.005474152611214 0 85.005474152611214 -42.847003284942275 0 0 0 0 34.015810564772437 69.510119106903289 0 69.510119106903289 -74.310730920666629 0 0 0 0 157.24054983692986 -1.4607137019578431 0 -1.4607137019578431 -87.840893341660802 0 0 0 0 114.44691913589668 -18.992729082903679 0 -18.992729082903679 -6.7653365105124976 0 0 0 0 151.28386458401656 -10.844350566010519 0 -10.844350566010519 -6.6376017549754289 0 0 0 0 230.36095105983986 44.107193183562345 0 44.107193183562345 -3.7792835067116037 0 0 0 0 99.144539629805877 12.586079462242083 0 12.586079462242083 -5.9975609989216991 0 0 0 0 151.53600813022422 88.1298128257813 0 88.1298128257813 12.893960616887769 0 0 0 0 234.59391754001263 117.11639141999694 0 117.11639141999694 12.855051217062229 0 0 0 0 135.99116859852802 123.67481505112232 0 123.67481505112232 60.484582883964549 0 0 0 0 167.26745248260295 139.4490343633318 0 139.4490343633318 56.251295547922382 0 0 0 0 158.87053055326624 84.526524792569717 0 84.526524792569717 -9.439003588578089 0 0 0 0 140.54776195661907 11.365001350215834 0 11.365001350215834 -67.816954235567209 0 0 0 0 139.9374820266039 43.472702598441174 0 43.472702598441174 23.592083843176624 0 0 0 0 392.54767909496877 318.89419858056158 0 318.89419858056158 246.15208585228015 0 0 0 0 5.408157352622915 -1.6100658509003107 0 -1.6100658509003107 0.50052737369026268 0 0 0 0 148.45969564576626 115.56158127273633 0 115.56158127273633 62.066233503753715 0 0 0 0 195.87085042669787 191.95599345956003 0 191.95599345956003 225.69488107518535 0 0 0 0 148.87090365582299 121.66708607889015 0 121.66708607889015 134.91111079588359 0 0 0 0 182.81405585121865 62.059983005754134 0 62.059983005754134 52.84340123878826 0 0 0 0 226.76400225932321 29.135430888333232 0 29.135430888333232 109.55494710969927 0 0 0 0 358.41909522459173 101.67614312548493 0 101.67614312548493 51.124742099471163 0 0 0 0 252.43654910516125 22.727755440146439 0 22.727755440146439 37.077580137039504 0 0 0 0 147.38601080861736 -25.83815522280085 0 -25.83815522280085 41.252956555416404 0 0 0 0 179.91796887627697 76.191401091535369 0 76.191401091535369 41.628454877617969 0 0 0 0 127.88012644600167 -48.055804518840873 0 -48.055804518840873 83.12477577022895 0 0 0 0 513.94591090777249 55.642531242170094 0 55.642531242170094 73.243029187714399 0 0 0 0 189.45018821991471 188.58593479646038 0 188.58593479646038 85.592020025507281 0 0 0 0 221.64704366714977 -17.466334862305246 0 -17.466334862305246 212.78785126207197 0 0 0 0 212.70043348651234 162.55926131561938 0 162.55926131561938 -65.472488938260767 0 0 0 0 300.16456002721316 144.32127973653246 0 144.32127973653246 -95.849876741175024 0 0 0 0 298.7728977911238 -203.51766112865016 0 -203.51766112865016 -327.08299679692777 0 0 0 0 12.072244078537203 -7.4359885104778893 0 -7.4359885104778893 3.6892583636774736 0 0 0 0 -123.17201871170619 -40.690110338655813 0 -40.690110338655813 45.891297144197665 0 0 0 0 13.457136930816333 -8.8538694789703118 0 -8.8538694789703118 4.6820248530336634 0 0 0 0 -58.038141717768667 -235.05356725926782 0 -235.05356725926782 -267.63806673511107 0 0 0 0 -31.279237939845189 -160.82440699580616 0 -160.82440699580616 -294.81013682106959 0 0 0 0 -57.446912374585736 -28.967718443948115 0 -28.967718443948115 11.155467279989807 0 0 0 0 89.878842499707389 27.48436318649442 0 27.48436318649442 16.019200296174859 0 0 0 0 -78.160034967077081 -12.914196001331902 0 -12.914196001331902 44.6993972108462 0 0 0 0 -88.517005778577186 -117.34645338757366 0 -117.34645338757366 -2.2250399914155423 0 0 0 0 -28.847803799049871 -140.97548538326214 0 -140.97548538326214 -231.1251113512003 0 0 0 0 32.182453536795947 -11.673689684239434 0 -11.673689684239434 -30.333284069514946 0 0 0 0 -39.706258213624096 -31.613922236279734 0 -31.613922236279734 94.576949984153089 0 0 0 0 -3.1155209830758395 -2.7063577419636431 0 -2.7063577419636431 93.995671523120564 0 0 0 0 146.66162002740748 -13.489819560911883 0 -13.489819560911883 80.029640243184872 0 0 0 0 44.698449146977509 36.681363117931141 0 36.681363117931141 169.55800999475173 0 0 0 0 249.23346395219778 -1.2381482222755267 0 -1.2381482222755267 -17.537049624982274 0 0 0 0 163.14725497751351 99.342715451066624 0 99.342715451066624 120.31103945228949 0 0 0 0 71.396504109438865 17.858283695916555 0 17.858283695916555 100.00987112299867 0 0 0 0 29.886222917355099 -25.24522333493195 0 -25.24522333493195 72.040668835049473 0 0 0 0 78.092025351617849 19.77162240785583 0 19.77162240785583 46.098594937142479 0 0 0 0 124.79993740972714 24.823632183140319 0 24.823632183140319 32.491207999025114 0 0 0 0 98.405285420856671 -21.995032583412183 0 -21.995032583412183 24.635500702233855 0 0 0 0 147.70409505408679 -18.803063400113246 0 -18.803063400113246 13.697808126710015 0 0 0 0 86.645206481474816 -4.6828520547792607 0 -4.6828520547792607 11.065064979776903 0 0 0 0 86.813608043832573 -12.655626891957397 0 -12.655626891957397 50.118664047938331 0 0 0 0 43.118729499774417 -25.488643485793432 0 -25.488643485793432 46.413892541137443 0 0 0 0 89.395113545842833 -51.838176890704631 0 -51.838176890704631 36.652215124601298 0 0 0 0 198.99232001995188 -219.12708914694792 0 -219.12708914694792 12.784346268191257 0 0 0 0 3.4861592183951871 -103.04665888269983 0 -103.04665888269983 35.933578578527197 0 0 0 0 -2.8180816031308495 -100.71488840808166 0 -100.71488840808166 52.946496491703783 0 0 0 0 -117.72513211730984 -52.05789698653075 0 -52.05789698653075 32.347388323552195 0 0 0 0 5.0745918447411711 -2.8417604760760327 0 -2.8417604760760327 1.4882430695071145 0 0 0 0 525.2743973752913 171.65270235983621 0 171.65270235983621 -103.87671955732839 0 0 0 0 -48.13906075653631 -212.25387808210183 0 -212.25387808210183 18.703969382241212 0 0 0 0 340.22315918765526 -154.16850628732618 0 -154.16850628732618 -38.284090001347977 0 0 0 0 27.172014170122566 -113.28327071897183 0 -113.28327071897183 -19.422240712881148 0 0 0 0 10.394577210629798 25.35039007024367 0 25.35039007024367 7.2617640748931338 0 0 0 0 41.899283522987389 9.3746429714340973 0 9.3746429714340973 14.937764191746847 0 0 0 0 17.158224782183975 20.78897756210214 0 20.78897756210214 8.9026833126472056 0 0 0 0 38.039673246956227 16.753814105233118 0 16.753814105233118 7.7369161436870399 0 0 0 0 8.8821945455117053 20.027421487979687 0 20.027421487979687 6.4735289004792804 0 0 0 0 72.88861541332335 56.053947599909179 0 56.053947599909179 31.888975635718452 0 0 0 0 42.336353055143263 18.100602009285268 0 18.100602009285268 3.7254545631576832 0 0 0 0 18.676644974188225 25.885075780266014 0 25.885075780266014 5.7701660842310982 0 0 0 0 -161.58368239891934 183.84223356236407 0 183.84223356236407 298.47771084935368 0 0 0 0 442.49533868425169 -28.181047500125032 0 -28.181047500125032 -140.88796390269727 0 0 0 0 34.904367310264206 20.022595072863623 0 20.022595072863623 4.8563327782188708 0 0 0 0 100.51419580621769 56.01404452043397 0 56.01404452043397 -104.91895839006338 0 0 0 0 32.753864675744197 22.333995553030235 0 22.333995553030235 2.3098846154342136 0 0 0 0 24.062329943515039 17.92294986604087 0 17.92294986604087 3.7860024907379892 0 0 0 0 -6.0673776691372154 2.4871677903288258 0 2.4871677903288258 3.7668391153599341 0 0 0 0 5.9999171394223083 0.62702800009871851 0 0.62702800009871851 -0.52942744308767509 0 0 0 0 -72.671422133944361 60.296270821687074 0 60.296270821687074 69.048556966401748 0 0 0 0 36.858876048272577 29.13973973911553 0 29.13973973911553 -12.346330021883531 0 0 0 0 44.9356158597584 -24.697823365495793 0 -24.697823365495793 1.0205232211418434 0 0 0 0 1.8393545610597357 8.1339445598623001 0 8.1339445598623001 14.47156744296035 0 0 0 0 27.687146834636224 34.812783365356154 0 34.812783365356154 -10.263684643679682 0 0 0 0 17.883721089782185 -2.0330889911129475 0 -2.0330889911129475 -0.89664644197432897 0 0 0 0 93.962050325411838 -0.065897248800354191 0 -0.065897248800354191 37.941134379253924 0 0 0 0 13.50628842888565 -3.651051968861097 0 -3.651051968861097 0.31706825560491725 0 0 0 0 17.350317816280267 4.1454877880753287 0 4.1454877880753287 1.1431070620533532 0 0 0 0 0.24018713324229957 -0.84435641679694129 0 -0.84435641679694129 0.60311236998774542 0 0 0 0 159.38138921274731 11.389806281873803 0 11.389806281873803 76.516060988659405 0 0 0 0 73.767663321315922 -2.8627917635668609 0 -2.8627917635668609 -10.475139695921371 0 0 0 0 203.28337143558019 76.327640879492719 0 76.327640879492719 12.749383370585917 0 0 0 0 140.67374437049148 74.327094690509398 0 74.327094690509398 -50.904347939263062 0 0 0 0 148.63737934564688 37.675518253342418 0 37.675518253342418 -12.291521939116365 0 0 0 0 199.73912271551944 -29.8693382122114 0 -29.8693382122114 -34.315126067635674 0 0 0 0 91.818217228959838 -11.518144312063725 0 -11.518144312063725 -3.7970667469626278 0 0 0 0 126.17450382490188 3.4380284807524362 0 3.4380284807524362 -12.794382883018216 0 0 0 0 121.31559398271929 29.203096842297896 0 29.203096842297896 -6.1008263347138154 0 0 0 0 103.5100498616539 21.562697962956236 0 21.562697962956236 -4.6368497676339757 0 0 0 0 130.79144233666739 27.911804452334763 0 27.911804452334763 2.0424722275645308 0 0 0 0 103.26197845616116 16.048529006807257 0 16.048529006807257 -1.8466556861844765 0 0 0 0 99.354396570048266 -3.7765430491515986 0 -3.7765430491515986 -14.078793167879894 0 0 0 0 102.80102700888892 24.751941272204249 0 24.751941272204249 -8.9661777850794806 0 0 0 0 47.408726830951544 -16.155056048109543 0 -16.155056048109543 -12.615633607097568 0 0 0 0 85.549229210082558 -9.8666243485703262 0 -9.8666243485703262 -70.060992967137508 0 0 0 0 102.1547183875673 29.281905471970163 0 29.281905471970163 -3.8148745957576011 0 0 0 0 97.95061749610386 91.272511110509384 0 91.272511110509384 79.79606272308564 0 0 0 0 150.49100892616843 35.293694143769017 0 35.293694143769017 -47.551647560977926 0 0 0 0 109.67935668763675 49.940762711328013 0 49.940762711328013 -51.980821885492958 0 0 0 0 -84.41622769024616 28.838717241186203 0 28.838717241186203 140.6671249769235 0 0 0 0 -86.421320808112796 6.2074325261808667 0 6.2074325261808667 -0.69558686090294941 0 0 0 0 9.3321929535527168 12.66214168860235 0 12.66214168860235 2.8010930597532049 0 0 0 0 172.71557142657548 149.31820770295423 0 149.31820770295423 16.939332592208075 0 0 0 0 164.87951019406137 -21.208047070498253 0 -21.208047070498253 -136.03935649095865 0 0 0 0 148.86717553621565 -28.1560761973127 0 -28.1560761973127 -117.53419315954443 0 0 0 0 78.442119320745405 -40.224265031427876 0 -40.224265031427876 -76.692731238667875 0 0 0 0 -167.81992851608084 -196.0519349493361 0 -196.0519349493361 -175.08883780148471 0 0 0 0 1.8933292046235231 0.57759860808801733 0 0.57759860808801733 -0.89420436403734227 0 0 0 0 99.812122738003382 -32.202338576420772 0 -32.202338576420772 -76.308225844972185 0 0 0 0 126.23301928704313 16.752404598600606 0 16.752404598600606 17.452712641888866 0 0 0 0 52.388472198297372 44.875130999509963 0 44.875130999509963 12.987126454587354 0 0 0 0 55.923551323064807 -13.078745369745782 0 -13.078745369745782 -10.453270562919865 0 0 0 0 -115.09713844610178 45.371359890431108 0 45.371359890431108 41.65117885568452 0 0 0 0 -36.14862584074308 28.021919179268934 0 28.021919179268934 13.563552149163115 0 0 0 0 81.500162201966305 35.263935769782279 0 35.263935769782279 -8.5364926157358241 0 0 0 0 363.46601288180318 9.2517720932758039 0 9.2517720932758039 -69.676581766116215 0 0 0 0 80.512040024641465 24.653803514153651 0 24.653803514153651 -37.899015399860787 0 0 0 0 74.0225471872036 53.000536130819029 0 53.000536130819029 59.717685671287555 0 0 0 0 238.83848750742982 114.87892025139979 0 114.87892025139979 13.189010862453415 0 0 0 0 84.831044832557382 25.515187351438698 0 25.515187351438698 13.48682415222348 0 0 0 0 11.349429844376786 5.8975890145489096 0 5.8975890145489096 -0.54191192115985443 0 0 0 0 64.225361721668378 10.902253261598913 0 10.902253261598913 1.6029946888821165 0 0 0 0 72.786553281579472 10.145747541833792 0 10.145747541833792 -0.42476488522992639 0 0 0 0 116.50184942987835 -48.31298887127133 0 -48.31298887127133 35.472913478689406 0 0 0 0 67.618475194922212 3.5943919578971872 0 3.5943919578971872 49.032972789612472 0 0 0 0 63.319160292183369 -1.294223198130636 0 -1.294223198130636 21.833983349551787 0 0 0 0 -0.2092615589752711 11.967420291607166 0 11.967420291607166 -0.95996690877780488 0 0 0 0 1.1734191790455952 109.40526994607072 0 109.40526994607072 -36.57731718843786 0 0 0 0 199.51158418032719 142.53541959003724 0 142.53541959003724 -202.60582084503972 0 0 0 0 116.07709169929876 7.5736451286450688 0 7.5736451286450688 -62.802157043278385 0 0 0 0 232.06815763258055 -54.133858695173558 0 -54.133858695173558 -38.478255856546667 0 0 0 0 161.4027174294024 34.752454778959304 0 34.752454778959304 -79.435429481603933 0 0 0 0 303.30693891266128 -157.42064849595374 0 -157.42064849595374 17.289553262148615 0 0 0 0 88.12809986596767 -66.993110229992425 0 -66.993110229992425 76.539728154918237 0 0 0 0 83.980417489419779 123.84403986129755 0 123.84403986129755 107.76102823188677 0 0 0 0 3.2810692440055362 4.4447155803768812 0 4.4447155803768812 -0.5435163086120276 0 0 0 0 186.20446200444349 -121.47972957342779 0 -121.47972957342779 147.1597341234189 0 0 0 0 4.0398560152563334 3.3025164347708289 0 3.3025164347708289 0.13095458794028081 0 0 0 0 68.482903608256493 -226.65469800081604 0 -226.65469800081604 405.11769228843423 0 0 0 0 311.64984830909816 -21.019288201011022 0 -21.019288201011022 -215.6430133726401 0 0 0 0 23.792853065048959 -0.71925325509577787 0 -0.71925325509577787 -0.6942496408752642 0 0 0 0 36.50884619456842 1.7413998736645695 0 1.7413998736645695 -1.8525988456184443 0 0 0 0 27.379326540947659 5.0242411120491397 0 5.0242411120491397 -16.180540041092478 0 0 0 0 48.893308809980226 -9.821563321709025 0 -9.821563321709025 -10.009735740603531 0 0 0 0 33.212355492425559 -1.8376787477885443 0 -1.8376787477885443 -3.9517108541139976 0 0 0 0 36.368202985187054 11.543161796622723 0 11.543161796622723 -4.391082563882307 0 0 0 0 5.2929759893273332 -1.5625941590134431 0 -1.5625941590134431 -1.7867659508787164 0 0 0 0 57.749564272298812 -5.0042363878803187 0 -5.0042363878803187 -9.1781206014359498 0 0 0 0 135.15046673145844 -25.56309146419153 0 -25.56309146419153 -22.330685988527343 0 0 0 0 53.834742242524953 -25.284468421437055 0 -25.284468421437055 31.346431097069342 0 0 0 0 52.613599622658512 0.96271173721496339 0 0.96271173721496339 -0.59452956717636596 0 0 0 0 52.399362851573187 13.418933810934053 0 13.418933810934053 -4.491534485741056 0 0 0 0 50.235713438749372 -1.8669067587393755 0 -1.8669067587393755 -3.9598701193406782 0 0 0 0 50.693566300906241 12.751639551814385 0 12.751639551814385 -1.6556610984652451 0 0 0 0 19.494210012580854 7.6168849131318268 0 7.6168849131318268 -0.65566825930532047 0 0 0 0 50.594644909208 14.089348630677897 0 14.089348630677897 -4.2154673905313942 0 0 0 0 66.402959519647993 14.536605845453977 0 14.536605845453977 -1.7390087445932352 0 0 0 0 53.252553450916821 18.202141091414802 0 18.202141091414802 0.70401841672659771 0 0 0 0 40.408795855521021 -6.3631452181144539 0 -6.3631452181144539 9.1399351805891413 0 0 0 0 67.473138276434838 0.96473841727396703 0 0.96473841727396703 3.8657697053392326 0 0 0 0 56.568310046288389 37.400097063647479 0 37.400097063647479 6.4745927612207197 0 0 0 0 10.397691123410539 2.9593046500994262 0 2.9593046500994262 -3.9055966436937708 0 0 0 0 64.980488658460672 8.0076288902261012 0 8.0076288902261012 0.90216213239301624 0 0 0 0 63.830386147397803 7.9148308894051809 0 7.9148308894051809 2.0685084554769446 0 0 0 0 64.322385902240057 8.6935057362058501 0 8.6935057362058501 3.2867529602208947 0 0 0 0 80.455546811044769 66.655728480821836 0 66.655728480821836 -115.2166384954603 0 0 0 0 63.343858766776975 8.2340603597423669 0 8.2340603597423669 5.0389749369480938 0 0 0 0 62.387446226290194 9.9573309429955401 0 9.9573309429955401 6.9643774134285792 0 0 0 0 46.923263149326289 -1.8720661020680704 0 -1.8720661020680704 -1.0938228814225743 0 0 0 0 49.759112213043409 16.577905136682141 0 16.577905136682141 -10.911901593651365 0 0 0 0 36.922710343103496 6.7892608631518669 0 6.7892608631518669 -3.6765916560620324 0 0 0 0 33.110154925030656 4.6699692564445741 0 4.6699692564445741 -18.47513235714937 0 0 0 0 37.74455437988523 8.5218263274254937 0 8.5218263274254937 -1.8745038572113 0 0 0 0 3.8270573228991438 3.533821516624073 0 3.533821516624073 0.79711268459800388 0 0 0 0 -13.410246401086624 40.931136565256836 0 40.931136565256836 -109.25362673665813 0 0 0 0 5.2751988935015106 39.863561390277908 0 39.863561390277908 30.598613678689162 0 0 0 0 -1.961427638588674 4.0661096181257932 0 4.0661096181257932 -0.26166039581252676 0 0 0 0 -1.9113658039630934 -0.6213976085252213 0 -0.6213976085252213 0.54076200082486814 0 0 0 0 38.311583080227138 96.982956521165704 0 96.982956521165704 -51.426125085687126 0 0 0 0 45.023973931022738 -18.046115814675382 0 -18.046115814675382 24.444981035082094 0 0 0 0 -52.361245826970844 100.65488760169364 0 100.65488760169364 -31.200138015823313 0 0 0 0 -16.803731418258394 42.732079353222559 0 42.732079353222559 81.441717879979535 0 0 0 0 -11.390416483591252 54.832736491344491 0 54.832736491344491 -81.021778906461009 0 0 0 0 134.21574686207896 3.4973384591688159 0 3.4973384591688159 -4.2300430683204979 0 0 0 0 74.720228355810832 -12.952645396616802 0 -12.952645396616802 9.7211831208547324 0 0 0 0 49.266145122161106 13.047088567037576 0 13.047088567037576 5.1754262198712695 0 0 0 0 84.863249232912494 5.5126878539253994 0 5.5126878539253994 -1.8511435365842885 0 0 0 0 52.685170200889843 34.945039765874924 0 34.945039765874924 12.24612102592107 0 0 0 0 14.293110654556322 24.471919670550143 0 24.471919670550143 -0.76812064403579638 0 0 0 0 103.70968269883815 -6.4905445472795122 0 -6.4905445472795122 -9.2717718118865378 0 0 0 0 130.98688335145562 7.1619324651386407 0 7.1619324651386407 10.227470111712222 0 0 0 0 11.314834148158324 27.573787983900239 0 27.573787983900239 6.7810037896200255 0 0 0 0 132.43563967209411 3.4703694561823468 0 3.4703694561823468 1.7191857692926078 0 0 0 0 131.94342313458037 6.864363964787966 0 6.864363964787966 1.0179115504250547 0 0 0 0 -183.41026129342936 128.31836000928971 0 128.31836000928971 29.370358273512466 0 0 0 0 1.588283078812573 2.9346574443036673 0 2.9346574443036673 2.3834292716196686 0 0 0 0 -45.58352801361616 32.34657267584862 0 32.34657267584862 -114.60477509336579 0 0 0 0 -138.57200674265914 -59.689994724031806 0 -59.689994724031806 51.959425502307454 0 0 0 0 398.44243327042204 -5.7362536760116001 0 -5.7362536760116001 -1.6968557587733599 0 0 0 0 86.088781929909601 -100.70796357494439 0 -100.70796357494439 3.1091004555030963 0 0 0 0 5.4658552491362968 -3.565369019658462 0 -3.565369019658462 -3.616409733936031 0 0 0 0 8.0694741251627846 3.2053300099699555 0 3.2053300099699555 -0.30465178814881433 0 0 0 0 25.204592631653213 35.36431411573507 0 35.36431411573507 52.411233090652161 0 0 0 0 0.88178548031558535 1.2151668528999267 0 1.2151668528999267 1.2257028035003381 0 0 0 0 376.30231468126294 -21.524609248543641 0 -21.524609248543641 -7.9943939165315214 0 0 0 0 372.89696950846701 -36.536987248067589 0 -36.536987248067589 -72.722425280234972 0 0 0 0 260.08934938308084 157.03029878864496 0 157.03029878864496 -69.770795327595351 0 0 0 0 -169.97599520855601 48.959458801008751 0 48.959458801008751 86.95142452607115 0 0 0 0 -45.440588796365773 -7.2040328643489033 0 -7.2040328643489033 59.395766678761561 0 0 0 0 13.432151767672622 -34.983871623962898 0 -34.983871623962898 67.317584425238465 0 0 0 0 -52.00082666297385 -43.985478582072687 0 -43.985478582072687 89.37275905624881 0 0 0 0 -44.447715343982964 70.254698537763332 0 70.254698537763332 29.743963565823151 0 0 0 0 25.751908090642246 -12.08988732181831 0 -12.08988732181831 35.022588156334621 0 0 0 0 52.823390421894146 -55.968015563481657 0 -55.968015563481657 77.226562919377784 0 0 0 0 69.235202184296213 -75.807449079200296 0 -75.807449079200296 47.760534939173738 0 0 0 0 75.30275255444576 -73.288279668200346 0 -73.288279668200346 41.35294806861998 0 0 0 0 90.646874205689528 -38.027692405020645 0 -38.027692405020645 28.80405122164133 0 0 0 0 55.168293753707985 -47.772415935562634 0 -47.772415935562634 28.188508879392941 0 0 0 0 209.81474489167158 -141.25850399483227 0 -141.25850399483227 63.073159316805118 0 0 0 0 128.87264604018128 44.891346596174742 0 44.891346596174742 31.609986695966199 0 0 0 0 105.74306208247435 -108.161574308284 0 -108.161574308284 139.43082398798174 0 0 0 0 231.02334483407321 -49.028271484660038 0 -49.028271484660038 57.68228590049398 0 0 0 0 206.16297141985706 -143.00966356688872 0 -143.00966356688872 64.218110921315059 0 0 0 0 71.67269892594777 -96.217433388344489 0 -96.217433388344489 77.428085607621654 0 0 0 0 105.10130406121607 -99.083396305970894 0 -99.083396305970894 70.606565943859891 0 0 0 0 52.205787379411049 -53.481031831967584 0 -53.481031831967584 76.47189644643629 0 0 0 0 32.281286943711166 -92.56224404337911 0 -92.56224404337911 108.75184572440435 0 0 0 0 -32.725837240343026 -74.906591032488762 0 -74.906591032488762 95.639448329588276 0 0 0 0 97.573021785508899 -119.09429997454268 0 -119.09429997454268 111.58492242071929 0 0 0 0 256.95123646597858 -142.07606643625931 0 -142.07606643625931 132.21155482843335 0 0 0 0 186.399702273804 -57.647987395337282 0 -57.647987395337282 99.519400043604946 0 0 0 0 209.5093615386395 -19.411531200808497 0 -19.411531200808497 159.94176052744365 0 0 0 0 178.88695895307501 -93.174553830506696 0 -93.174553830506696 68.617291325372207 0 0 0 0 9.0747005315279239 9.3734303949004243 0 9.3734303949004243 142.14870289343904 0 0 0 0 50.274464310634357 -39.872877120922851 0 -39.872877120922851 17.087729716780586 0 0 0 0 50.734068662801292 -32.177507142072159 0 -32.177507142072159 107.55331803418115 0 0 0 0 -57.541003871570865 6.4791993536342716 0 6.4791993536342716 98.905479286117668 0 0 0 0 15.695514307612939 40.58812845576675 0 40.58812845576675 -19.65885821445022 0 0 0 0 -152.58718788892293 13.674646976085739 0 13.674646976085739 67.247773368107403 0 0 0 0 146.52137214335016 4.966307078427139 0 4.966307078427139 0.07101211683936981 0 0 0 0 138.19851137183878 -60.491026886479773 0 -60.491026886479773 213.72300362547151 0 0 0 0 767.5645096501612 -112.81285525628738 0 -112.81285525628738 57.939450811939992 0 0 0 0 281.69580427587789 -246.97796803900312 0 -246.97796803900312 289.61285699502622 0 0 0 0 257.21612811591331 20.696018529683691 0 20.696018529683691 1.9277137276802705 0 0 0 0 955.49822702977326 -492.61824560396218 0 -492.61824560396218 103.66191325180534 0 0 0 0 1222.6278669992716 -251.19673540793005 0 -251.19673540793005 -45.506414782790443 0 0 0 0 1071.6375441476657 69.574067650433662 0 69.574067650433662 -83.305062391094225 0 0 0 0 1020.5493939687512 -82.251821994797865 0 -82.251821994797865 20.693150936972984 0 0 0 0 472.64447799509799 -91.557809344078464 0 -91.557809344078464 50.030331746321622 0 0 0 0 470.48494490997837 -175.42608599160064 0 -175.42608599160064 209.59399773055549 0 0 0 0 451.49338847520266 3.4716623955418981 0 3.4716623955418981 122.35726932437979 0 0 0 0 505.89855428888404 -107.8990382387633 0 -107.8990382387633 32.994150392750072 0 0 0 0 964.5442132143944 75.246126131130822 0 75.246126131130822 -82.979305493893662 0 0 0 0 924.00271656991936 156.8234412606962 0 156.8234412606962 108.12045942576833 0 0 0 0 694.23851504848426 58.371088524981658 0 58.371088524981658 4.7055104135458805 0 0 0 0 657.13243268164069 433.95090422426989 0 433.95090422426989 152.73375994881621 0 0 0 0 390.84450315140566 -130.73833839726478 0 -130.73833839726478 78.40411549888131 0 0 0 0 400.25746103705751 14.063028197990832 0 14.063028197990832 146.5066835730097 0 0 0 0 1882.8273486715698 995.92647743970576 0 995.92647743970576 -435.03909600105055 0 0 0 0 3500.0903657470371 1030.37460412163 0 1030.37460412163 -569.7737160887832 0 0 0 0 1804.968834986008 554.33158477467623 0 554.33158477467623 -34.276874224919879 0 0 0 0 1919.1399448281991 351.71428901145561 0 351.71428901145561 -551.28294875486756 0 0 0 0 3498.0451575574261 -358.83020768831847 0 -358.83020768831847 -720.05979029039099 0 0 0 0 1910.6031676192797 -327.24398890290354 0 -327.24398890290354 -169.08323509964225 0 0 0 0 2232.7864832975683 249.5503303726598 0 249.5503303726598 -540.41536966975207 0 0 0 0 1942.2271416068506 -781.54324157792996 0 -781.54324157792996 -96.111826743819904 0 0 0 0 1564.9361765831127 -301.97559186048022 0 -301.97559186048022 -90.724224280856276 0 0 0 0 2576.9341557654916 -379.10408078793091 0 -379.10408078793091 -714.8385003331905 0 0 0 0 3501.6810547868736 -894.90245107807891 0 -894.90245107807891 -657.51151872535331 0 0 0 0 2311.8804011306056 -1192.0728727156093 0 -1192.0728727156093 -158.99466832979726 0 0 0 0 3492.1120574600718 -1684.192068021694 0 -1684.192068021694 45.604012818802175 0 0 0 0 1232.3908259621239 -983.11350882127249 0 -983.11350882127249 522.83401764668838 0 0 0 0 -6.9300006298581138 -199.89724704641549 0 -199.89724704641549 501.69097514115242 0 0 0 0 2050.4436303652546 -735.6392675387516 0 -735.6392675387516 -133.92976901783493 0 0 0 0 447.75260785182036 -343.7611259969384 0 -343.7611259969384 301.87730833588694 0 0 0 0 1324.3571034293709 -574.92672020297653 0 -574.92672020297653 58.304233573518559 0 0 0 0 508.77908796383417 -316.15622573286316 0 -316.15622573286316 1.6305306456092694 0 0 0 0 134.17426740065275 -5.5065632817249366 0 -5.5065632817249366 99.44280021400931 0 0 0 0 -25.031968628150935 13.973399962329495 0 13.973399962329495 76.161874844523538 0 0 0 0 172.83216174236441 34.020072931099435 0 34.020072931099435 -318.56185073002746 0 0 0 0 -30.084275552115287 147.73313615426832 0 147.73313615426832 119.54066262401307 0 0 0 0 37.743342111577704 -6.1914579391432536 0 -6.1914579391432536 -0.012568334042724947 0 0 0 0 55.914049143902957 65.268237060042622 0 65.268237060042622 10.693610229848529 0 0 0 0 455.11744221721892 -52.389947488203802 0 -52.389947488203802 -245.05769094864331 0 0 0 0 3.2743205206461425 17.768470825152889 0 17.768470825152889 78.593302612150509 0 0 0 0 59.179383131876023 -17.138453737485367 0 -17.138453737485367 0.3181414888566394 0 0 0 0 63.018423213783535 11.836262534273999 0 11.836262534273999 4.2085515672516181 0 0 0 0 59.944240384269506 16.356923128463283 0 16.356923128463283 -2.3290357872139111 0 0 0 0 5.1831061943285022 14.441411737697827 0 14.441411737697827 24.148109373672185 0 0 0 0 68.555343602336507 4.4970682052418738 0 4.4970682052418738 -5.4443609454046396 0 0 0 0 68.047445159336348 7.8701183517637361 0 7.8701183517637361 1.6407952293669723 0 0 0 0 8.2712000113958872 0.59653344743013292 0 0.59653344743013292 -0.79926160366426113 0 0 0 0 66.138920432698797 10.081750816112589 0 10.081750816112589 3.2462091855352355 0 0 0 0 65.722548137862759 8.778748575058728 0 8.778748575058728 1.5797479039229074 0 0 0 0 38.805770885002858 1.6328126487753707 0 1.6328126487753707 -34.066768872487359 0 0 0 0 14.007484400736161 -0.74530666745379115 0 -0.74530666745379115 1.7105835241908176 0 0 0 0 74.915887084382121 109.70909544421852 0 109.70909544421852 33.335542483027226 0 0 0 0 32.498598086872789 -89.440184377690628 0 -89.440184377690628 23.004133397065427 0 0 0 0 15.464007550962549 1.9493759918954723 0 1.9493759918954723 -0.53138186406035814 0 0 0 0 5.7092670853722183 -0.70625599982938603 0 -0.70625599982938603 0.19305107080972417 0 0 0 0 3451.9742425694421 296.21913732243183 0 296.21913732243183 66.430081635212133 0 0 0 0 3412.4207171486742 154.88002916893782 0 154.88002916893782 -14.529321725808682 0 0 0 0 1431.6249043641037 -1823.029979947667 0 -1823.029979947667 1852.4547552673976 0 0 0 0 16.130507977306252 -5.0076582526812548 0 -5.0076582526812548 1.5761758647821391 0 0 0 0 16.905326160536788 -73.116663189742752 0 -73.116663189742752 81.738064478881029 0 0 0 0 -460.49363790507778 339.6995889773803 0 339.6995889773803 399.92593511248083 0 0 0 0 20.802718284772453 7.5091137311262486 0 7.5091137311262486 10.885112084088565 0 0 0 0 15.369312262279948 -3.1739853116430119 0 -3.1739853116430119 3.8554092473377324 0 0 0 0 822.27858977706637 305.25540267325789 0 305.25540267325789 155.35410440058644 0 0 0 0 3471.1681372237363 -279.32813689130933 0 -279.32813689130933 -334.83976872859881 0 0 0 0 1158.2782806472678 -1345.2087660811183 0 -1345.2087660811183 1302.4742891780945 0 0 0 0 3492.8338721460095 -1196.0540884933614 0 -1196.0540884933614 -278.7929346414744 0 0 0 0 80.392236984342162 56.000367697619339 0 56.000367697619339 356.75933889666396 0 0 0 0 48.087478301211377 -12.970736199883049 0 -12.970736199883049 13.887314466542392 0 0 0 0 10.551901225431166 4.7866451571555757 0 4.7866451571555757 11.139223928412921 0 0 0 0 46.120238666782825 -9.9150263613906873 0 -9.9150263613906873 12.895728681484798 0 0 0 0 102.5519750599924 -70.765595558132418 0 -70.765595558132418 -122.4789637498443 0 0 0 0 47.799138648666286 -7.4434668146137994 0 -7.4434668146137994 0.7453385910225454 0 0 0 0 49.329834298056085 -11.182411596756538 0 -11.182411596756538 3.0396208997008216 0 0 0 0 45.3583234608694 -5.5178608114766519 0 -5.5178608114766519 3.5497728311886201 0 0 0 0 56.527605211173068 30.91553447058277 0 30.91553447058277 -80.193576331782822 0 0 0 0 107.4432237110741 124.38651489673748 0 124.38651489673748 37.017959629741199 0 0 0 0 15.048703297390603 -14.409005844635658 0 -14.409005844635658 69.870476347976648 0 0 0 0 4.8282788800426957 -0.92702183295334351 0 -0.92702183295334351 1.4849000697475425 0 0 0 0 13.666984863859398 0.34425470335349928 0 0.34425470335349928 11.595530789475106 0 0 0 0 232.18539598907955 29.633735678610265 0 29.633735678610265 15.483043340080258 0 0 0 0 35.340743574135558 -100.70391684707209 0 -100.70391684707209 75.127870336587875 0 0 0 0 137.29821855586488 71.528771986737866 0 71.528771986737866 105.94151313857549 0 0 0 0 79.58542217205104 14.306391603681959 0 14.306391603681959 62.21869575918754 0 0 0 0 66.015289232243958 -25.461397025027509 0 -25.461397025027509 43.984130240335617 0 0 0 0 192.88848575518932 12.860689913944043 0 12.860689913944043 13.014021977942321 0 0 0 0 160.64821541683341 -16.272025589906207 0 -16.272025589906207 42.355506945085835 0 0 0 0 106.63109175710997 5.2468166241319523 0 5.2468166241319523 31.854493772459136 0 0 0 0 93.656541894306429 -1.740965539899662 0 -1.740965539899662 46.192736202466222 0 0 0 0 88.575635365690687 -10.731652576272381 0 -10.731652576272381 30.464295149598001 0 0 0 0 -37.47400326890056 -52.899852806230214 0 -52.899852806230214 -17.157029399758358 0 0 0 0 84.234635366199655 -54.384049511779267 0 -54.384049511779267 40.456802676977077 0 0 0 0 -4.4517481891330704 -3.0376092966219161 0 -3.0376092966219161 5.0398419229110338 0 0 0 0 37.67446186350935 15.700385072243705 0 15.700385072243705 -118.02374651079595 0 0 0 0 12.197814386191354 8.6436646605488079 0 8.6436646605488079 5.4725515889388285 0 0 0 0 48.021052784759377 -19.444519557421927 0 -19.444519557421927 -4.0676050212354085 0 0 0 0 170.79063090949785 -95.689565504426582 0 -95.689565504426582 -102.20445945526009 0 0 0 0 19.629506835560903 -5.6965890631528993 0 -5.6965890631528993 4.3406766449213983 0 0 0 0 24.517538098931254 29.487982366867641 0 29.487982366867641 31.911343938144 0 0 0 0 11.99675934668619 2.2399787772295667 0 2.2399787772295667 1.489499525707684 0 0 0 0 3493.428605068133 366.34315089278965 0 366.34315089278965 -259.68086303481209 0 0 0 0 2516.798802426536 1077.8590092651289 0 1077.8590092651289 406.08494067991154 0 0 0 0 534.51551863606437 -478.97159119935503 0 -478.97159119935503 -281.94627254360643 0 0 0 0 1896.3320873798802 -383.15070676243425 0 -383.15070676243425 -297.88567920359509 0 0 0 0 3897.4748523862654 -580.62946894617028 0 -580.62946894617028 -353.14619929985753 0 0 0 0 1224.4107771453419 760.51213785423943 0 760.51213785423943 472.47281562095554 0 0 0 0 -191.6286707768304 369.88417747185099 0 369.88417747185099 62.229735664023792 0 0 0 0 3503.2860504307901 227.44000194855471 0 227.44000194855471 293.06606325919131 0 0 0 0 5.0085348715855105 4.129257076185084 0 4.129257076185084 2.5223600147174459 0 0 0 0 868.18523570333491 628.80352795481213 0 628.80352795481213 72.328017884572731 0 0 0 0 38.412024219578598 -116.22242420774207 0 -116.22242420774207 20.056152599799816 0 0 0 0 180.77199926604953 -61.356437757255314 0 -61.356437757255314 -4.9137982425066866 0 0 0 0 193.27484815987555 -154.36395790047106 0 -154.36395790047106 398.22315145749371 0 0 0 0 236.54468256891414 133.7544984578177 0 133.7544984578177 447.89195389482552 0 0 0 0 276.99099221261713 104.83127473404973 0 104.83127473404973 -236.97940993917021 0 0 0 0 -181.58161816885695 92.062151049868021 0 92.062151049868021 272.66729743631925 0 0 0 0 3493.4131361304753 -283.7256286320262 0 -283.7256286320262 -597.3713631465132 0 0 0 0 2812.8205370961805 -304.62306646703217 0 -304.62306646703217 -111.00487788160933 0 0 0 0 2034.4842824382504 602.77839708030797 0 602.77839708030797 -85.414380550664248 0 0 0 0 1196.1291429254925 -209.39233411977858 0 -209.39233411977858 189.82840318196438 0 0 0 0 906.23128846520558 1817.4890816559339 0 1817.4890816559339 2510.7988938803537 0 0 0 0 15.409143399364979 5.3838321700344629 0 5.3838321700344629 3.9723878167766458 0 0 0 0 1985.207201083198 -1368.5390530983091 0 -1368.5390530983091 348.1090243588252 0 0 0 0 38.34340202111315 9.1143212471772976 0 9.1143212471772976 5.5946402568544578 0 0 0 0 352.37491073530691 211.82086927612954 0 211.82086927612954 156.56680189632471 0 0 0 0 488.51296967601229 269.36815342264498 0 269.36815342264498 34.383362878136921 0 0 0 0 1364.9360492048218 1402.1257978726226 0 1402.1257978726226 297.08813540206694 0 0 0 0 374.25741067999479 205.48473901996687 0 205.48473901996687 139.90742397887951 0 0 0 0 3494.6243919925764 1963.8576193925728 0 1963.8576193925728 6.9433836143323227 0 0 0 0 320.24824492156768 -32.242581574409058 0 -32.242581574409058 -107.3732308126128 0 0 0 0 519.40860701093698 320.76795000283528 0 320.76795000283528 -117.19734175819542 0 0 0 0 222.15007945392426 45.074002281570387 0 45.074002281570387 8.6067340723856631 0 0 0 0 15.101361378642316 -3.9215623003657072 0 -3.9215623003657072 -3.813968343115127 0 0 0 0 168.69725590290545 113.19950260778791 0 113.19950260778791 -247.52338979120486 0 0 0 0 -188.83313993996853 233.6599213929303 0 233.6599213929303 -107.00439795237889 0 0 0 0 58.840947009055526 41.198486737377728 0 41.198486737377728 -119.81861828153527 0 0 0 0 65.217827179271524 -2.1143221437636139 0 -2.1143221437636139 -3.1500130061037748 0 0 0 0 87.947234163242683 -20.432909270466098 0 -20.432909270466098 4.2740766364426008 0 0 0 0 7.9887122670031943 -7.8248342506979185 0 -7.8248342506979185 19.116937669804777 0 0 0 0 125.88333264905668 -20.175904010030536 0 -20.175904010030536 13.67256451411231 0 0 0 0 -3.12532055533093 -8.7274350217955288 0 -8.7274350217955288 12.935153681274347 0 0 0 0 74.447852614608564 1.0657784494164844 0 1.0657784494164844 21.225266597332848 0 0 0 0 86.902458029115223 -25.753068900037761 0 -25.753068900037761 14.028326486522019 0 0 0 0 101.90136937861826 -2.688668079860463 0 -2.688668079860463 18.605848360249183 0 0 0 0 69.505452630852233 -1.5601211086614057 0 -1.5601211086614057 21.357972468900527 0 0 0 0 71.389577195694073 -1.3034375080158043 0 -1.3034375080158043 -8.1288037801214159 0 0 0 0 93.624688686089939 -72.508670793585949 0 -72.508670793585949 -43.226871671353933 0 0 0 0 137.13924912703078 -49.706768710939627 0 -49.706768710939627 -78.149628627041352 0 0 0 0 80.512066295624606 -6.0409512510258097 0 -6.0409512510258097 -2.4671405066173073 0 0 0 0 71.608765247204502 0.87442389125636666 0 0.87442389125636666 -4.154909466496572 0 0 0 0 80.065974181485217 1.6098649960632656 0 1.6098649960632656 -6.7635870487247303 0 0 0 0 138.2121298868733 16.766919309342313 0 16.766919309342313 -253.34722275579017 0 0 0 0 149.42256666401227 -64.087559659547253 0 -64.087559659547253 -175.37831262677943 0 0 0 0 105.64497881624993 -71.323376802575623 0 -71.323376802575623 -45.854695644799165 0 0 0 0 57.643720448082604 -4.2717673892682342 0 -4.2717673892682342 -106.65110454946989 0 0 0 0 132.82568422337499 -90.950346628552069 0 -90.950346628552069 -79.857821223454962 0 0 0 0 119.87776972298889 -112.27269967412309 0 -112.27269967412309 -22.177025150525196 0 0 0 0 145.19414392525505 -86.680036643941776 0 -86.680036643941776 -75.788792213361774 0 0 0 0 119.04982349931379 -96.071954992787994 0 -96.071954992787994 2.1237907824411515 0 0 0 0 106.50945988933381 -99.193882626648204 0 -99.193882626648204 2.370934604151941 0 0 0 0 120.74817156750942 -124.38294656102542 0 -124.38294656102542 35.718101331488214 0 0 0 0 118.74637601021595 -101.95812836938926 0 -101.95812836938926 45.12815682642767 0 0 0 0 189.51336628693389 -119.98471630800695 0 -119.98471630800695 -24.385662190334017 0 0 0 0 158.03726173213363 -93.655395804446798 0 -93.655395804446798 48.412159753162634 0 0 0 0 139.77761884214669 -53.494852481082397 0 -53.494852481082397 -22.071033645639957 0 0 0 0 132.23146431581517 -43.647294962145942 0 -43.647294962145942 -20.428501520624131 0 0 0 0 137.07391303180339 -58.873230011860926 0 -58.873230011860926 -20.39156899755136 0 0 0 0 131.89560712314324 -41.299851758042642 0 -41.299851758042642 8.8186569760251672 0 0 0 0 108.60128075996181 -92.04391220729822 0 -92.04391220729822 26.806294426360033 0 0 0 0 116.95654041056696 -77.09065736386556 0 -77.09065736386556 2.5040762618366728 0 0 0 0 118.93116168581764 -94.223095629005627 0 -94.223095629005627 -15.456827419521403 0 0 0 0 119.66013243451016 -62.478704855507686 0 -62.478704855507686 -9.562989539438945 0 0 0 0 144.34051204596699 -64.674214975507596 0 -64.674214975507596 -26.652619445771904 0 0 0 0 177.35829859783553 -61.108910189206938 0 -61.108910189206938 -34.6787996903156 0 0 0 0 146.08299106347249 -82.869026443404266 0 -82.869026443404266 -36.38837201886497 0 0 0 0 146.64381519609015 -78.699304711942887 0 -78.699304711942887 -32.716128555389616 0 0 0 0 150.26933555895084 -78.703346294897187 0 -78.703346294897187 -41.251464304363822 0 0 0 0 128.80452527973466 -53.756142570938096 0 -53.756142570938096 -18.226577583072732 0 0 0 0 143.78649349090119 -40.001826125086268 0 -40.001826125086268 -16.192440070493035 0 0 0 0 233.34541454457212 -88.129017086786845 0 -88.129017086786845 2.8276493958721858 0 0 0 0 196.36060478074796 -35.069323251748301 0 -35.069323251748301 14.608406631168236 0 0 0 0 77.881068096191655 -57.564515904582137 0 -57.564515904582137 -9.6860882419214622 0 0 0 0 192.19041350708721 -14.020860951277655 0 -14.020860951277655 -14.892651709723967 0 0 0 0 354.71078690689683 -185.10782808477728 0 -185.10782808477728 80.200106166847945 0 0 0 0 314.48354942638616 19.82803944977789 0 19.82803944977789 -126.38843000368342 0 0 0 0 216.95530838487321 -62.099180663926177 0 -62.099180663926177 -60.174116908964834 0 0 0 0 98.06865087262122 -57.332780503450181 0 -57.332780503450181 46.957384392378117 0 0 0 0 162.28132741468826 -7.7081016583054627 0 -7.7081016583054627 -25.388326008657749 0 0 0 0 270.11728320261682 -6.4390970102674601 0 -6.4390970102674601 -37.355886735219656 0 0 0 0 37.365656356967598 -7.7730880516175489 0 -7.7730880516175489 -7.2809973661641427 0 0 0 0 312.36436027467425 84.730328746874875 0 84.730328746874875 -39.590200642561058 0 0 0 0 26.702690183814326 2.7988171538526956 0 2.7988171538526956 -13.92553913267281 0 0 0 0 314.92618396758917 -7.077514973783309 0 -7.077514973783309 218.44262342024012 0 0 0 0 72.843575458893611 -15.963253642976269 0 -15.963253642976269 9.020037836841766 0 0 0 0 43.916663053769241 -35.067185029716356 0 -35.067185029716356 -2.6113885389666294 0 0 0 0 68.704929662206268 -38.259030868164359 0 -38.259030868164359 -50.529374094910963 0 0 0 0 10.090328427912596 -12.547885210196252 0 -12.547885210196252 0.33468285655369562 0 0 0 0 217.04537988422089 196.09743654697846 0 196.09743654697846 228.29395657944431 0 0 0 0 409.95117601510719 -273.67355895358037 0 -273.67355895358037 122.50754742177944 0 0 0 0 476.09873126857565 222.67506640853117 0 222.67506640853117 -96.651150357733513 0 0 0 0 590.56241280399263 240.02321631283036 0 240.02321631283036 -102.42332653034467 0 0 0 0 430.19963515581912 207.3713554001406 0 207.3713554001406 -170.83802417389234 0 0 0 0 333.61900224135024 119.59687187074815 0 119.59687187074815 -145.90644767535196 0 0 0 0 329.91128123620001 140.62139681112535 0 140.62139681112535 -225.76419383681878 0 0 0 0 674.30382659743191 196.9193981516014 0 196.9193981516014 -163.44553016937425 0 0 0 0 298.30544064071728 106.80089107607182 0 106.80089107607182 -147.06957387400507 0 0 0 0 235.68129108176799 184.76538021339911 0 184.76538021339911 -49.176803848249619 0 0 0 0 376.22102600568905 201.45205068167843 0 201.45205068167843 -48.832839800950751 0 0 0 0 172.21400465958868 217.7761919016466 0 217.7761919016466 173.16518352006278 0 0 0 0 11.729903125416399 5.7337102891419249 0 5.7337102891419249 3.8412025062795951 0 0 0 0 163.99673138625803 263.07469876383766 0 263.07469876383766 329.54778886937243 0 0 0 0 191.62843734995113 223.27809278375389 0 223.27809278375389 122.47377001611017 0 0 0 0 351.67898837383837 320.51508644465957 0 320.51508644465957 108.8229776427961 0 0 0 0 594.65387630317127 498.3432434174747 0 498.3432434174747 275.16427856224982 0 0 0 0 -105.27562818124716 0.75493863756219071 0 0.75493863756219071 164.5910169841809 0 0 0 0 -206.85883385653869 -184.01723018723646 0 -184.01723018723646 278.86704982455558 0 0 0 0 161.13550622029288 -671.03672431497716 0 -671.03672431497716 353.5196168082548 0 0 0 0 -231.14934597149841 -264.6156946340152 0 -264.6156946340152 1200.775461291495 0 0 0 0 661.30462810985046 418.40368306458913 0 418.40368306458913 597.91351284769189 0 0 0 0 1469.273150025394 297.30416014542425 0 297.30416014542425 -222.99154008023834 0 0 0 0 1040.9539615176182 415.07212566915769 0 415.07212566915769 -85.610341214156506 0 0 0 0 1077.8340965913667 -707.01165242846491 0 -707.01165242846491 -144.91004961275939 0 0 0 0 -64.789611848973436 553.60529257347719 0 553.60529257347719 -539.95623062242703 0 0 0 0 -179.99215106034535 -525.06796696309721 0 -525.06796696309721 -20.555468393449246 0 0 0 0 0.70049595927869746 -0.37314003186705236 0 -0.37314003186705236 -3.6630860716768581 0 0 0 0 152.8595093008189 193.39990136570077 0 193.39990136570077 -154.89443868596663 0 0 0 0 63.413144824808114 -15.027746364684162 0 -15.027746364684162 23.325051014697237 0 0 0 0 50.791710882913321 -31.233160006413755 0 -31.233160006413755 23.370379945630606 0 0 0 0 60.238584285529214 -12.61964389322975 0 -12.61964389322975 22.870666873995219 0 0 0 0 71.543813522555865 2.9183413626906258 0 2.9183413626906258 43.585487909559561 0 0 0 0 55.287416080231196 -21.222177151598316 0 -21.222177151598316 43.860997014469206 0 0 0 0 17.581519778759684 -41.456258031332709 0 -41.456258031332709 28.706154378596352 0 0 0 0 37.746321578320931 2.8214378527920871 0 2.8214378527920871 16.859534200621056 0 0 0 0 54.354888516609208 -18.1872154227799 0 -18.1872154227799 37.840768484124055 0 0 0 0 22.398921537374505 -42.133643324551514 0 -42.133643324551514 14.525905764041367 0 0 0 0 70.603876802888408 -31.250750340658897 0 -31.250750340658897 12.130059595770035 0 0 0 0 -172.77854860303341 -0.18438156348929624 0 -0.18438156348929624 15.079391789920919 0 0 0 0 48.985046308778692 -53.248058684109083 0 -53.248058684109083 -9.6926007775941798 0 0 0 0 -1004.8611701774935 748.65134884670442 0 748.65134884670442 -680.16101848807739 0 0 0 0 -6.4968560484467162 -20.62955465400449 0 -20.62955465400449 8.3241518093518341 0 0 0 0 47.451325771356665 -14.649503834083994 0 -14.649503834083994 3.5209042151001482 0 0 0 0 -1020.9709779833793 39.30753139567787 0 39.30753139567787 159.30023159458824 0 0 0 0 29.172080648306292 -9.9429031955196479 0 -9.9429031955196479 7.8375542391577255 0 0 0 0 19.016242074655707 -17.03154814974792 0 -17.03154814974792 10.844016800102562 0 0 0 0 44.311511313222582 -11.922635312974762 0 -11.922635312974762 0.24406483621680763 0 0 0 0 45.441709630918922 -8.6704896695205207 0 -8.6704896695205207 8.4473228365823161 0 0 0 0 45.507159716489696 -7.2668104835352096 0 -7.2668104835352096 22.324284461078605 0 0 0 0 47.071464085005573 -11.378511365459872 0 -11.378511365459872 10.646254214833334 0 0 0 0 36.080887773947325 -9.8532053767012258 0 -9.8532053767012258 32.134700144051749 0 0 0 0 -74.975303797211382 -51.874335128487928 0 -51.874335128487928 27.84858946534132 0 0 0 0 3.2041501106977961 -14.881844183078812 0 -14.881844183078812 13.258296582448683 0 0 0 0 113.93648642225889 6.9414402824904755 0 6.9414402824904755 -38.105189193956903 0 0 0 0 47.176486412528902 -13.973651073889414 0 -13.973651073889414 6.3411932405406333 0 0 0 0 353.93277627750649 -56.464707679622734 0 -56.464707679622734 -61.746224513690322 0 0 0 0 107.94131403660867 22.911688783941827 0 22.911688783941827 -50.388641564037243 0 0 0 0 583.21528568927897 -44.137434150847184 0 -44.137434150847184 -172.39403675814174 0 0 0 0 408.620187220964 131.54077758903441 0 131.54077758903441 -147.13474566573859 0 0 0 0 363.01918121016934 -19.534212816882246 0 -19.534212816882246 -157.39646904161327 0 0 0 0 466.28607026794634 -94.912144224381564 0 -94.912144224381564 -114.85545472556987 0 0 0 0 479.34171472181333 -72.885088437240483 0 -72.885088437240483 -139.47242759606388 0 0 0 0 396.38151465299597 -159.79586257848769 0 -159.79586257848769 -59.23953233623979 0 0 0 0 469.75605381076457 -95.726696065109536 0 -95.726696065109536 -144.41350686788542 0 0 0 0 509.75821238540811 -117.48313064593094 0 -117.48313064593094 -158.10349401740132 0 0 0 0 937.31180361760198 -725.03212296218771 0 -725.03212296218771 447.571932973191 0 0 0 0 859.79312111063336 -199.19848748334698 0 -199.19848748334698 -173.30681954041756 0 0 0 0 117.47193224600051 -21.684232154726942 0 -21.684232154726942 4.3156303879168263 0 0 0 0 291.52134594044765 -295.7614197408293 0 -295.7614197408293 292.5887033198469 0 0 0 0 1605.4503118430148 -321.94492175745836 0 -321.94492175745836 -175.39265791439175 0 0 0 0 694.05769112470443 -128.20716471167725 0 -128.20716471167725 -62.708282365209016 0 0 0 0 107.7820370074478 -293.57500624902968 0 -293.57500624902968 -316.92745333152197 0 0 0 0 356.01646587313735 590.73442245746082 0 590.73442245746082 -714.17089321347794 0 0 0 0 541.85970555365202 160.49548525714272 0 160.49548525714272 -103.64780975822396 0 0 0 0 70.623649367538746 207.97923292914493 0 207.97923292914493 -18.36590517888726 0 0 0 0 109.03415177897114 154.41476938900564 0 154.41476938900564 -141.26498179395276 0 0 0 0 880.62450686944067 196.95933470093314 0 196.95933470093314 -279.1077867771528 0 0 0 0 50.953151914931368 22.466453170234672 0 22.466453170234672 -16.639999634367143 0 0 0 0 12.557953663939273 3.2904564849868336 0 3.2904564849868336 -1.3573848340415786 0 0 0 0 54.881358778889989 11.713902738689285 0 11.713902738689285 -16.259410182797012 0 0 0 0 23.743378138326818 0.85309603301229231 0 0.85309603301229231 -16.472935013803955 0 0 0 0 45.517741724441294 9.2025958981375879 0 9.2025958981375879 -7.6665337611857467 0 0 0 0 7.9139255736085659 2.4245472480119048 0 2.4245472480119048 -6.3329423376627254 0 0 0 0 104.46795566799119 47.074012925120769 0 47.074012925120769 -92.455986356690119 0 0 0 0 176.02366328335484 8.3219849385441194 0 8.3219849385441194 -56.513333547725779 0 0 0 0 33.494681277920392 17.330510712269515 0 17.330510712269515 4.6678767293539067 0 0 0 0 -5.1300770834786817 26.154024864961684 0 26.154024864961684 -61.866379517559835 0 0 0 0 60.214269643285661 -66.839727112548644 0 -66.839727112548644 -143.5008868336372 0 0 0 0 257.97925414040219 -104.78715340913368 0 -104.78715340913368 21.375172421968728 0 0 0 0 194.13631698835525 1.9359403127109545 0 1.9359403127109545 -86.925813186997402 0 0 0 0 123.44220646243775 -6.8334418620470387 0 -6.8334418620470387 -54.379956688455877 0 0 0 0 -80.52509299578378 134.87654864279284 0 134.87654864279284 -152.82629233084663 0 0 0 0 138.1755221925996 -51.223284182580755 0 -51.223284182580755 -140.90629918263221 0 0 0 0 163.13930026278831 -17.56490192572528 0 -17.56490192572528 -96.466951015965606 0 0 0 0 228.15079565596534 -83.973426417689552 0 -83.973426417689552 -69.188776958441395 0 0 0 0 313.21163022669498 -52.564169339108958 0 -52.564169339108958 -99.877649401922099 0 0 0 0 243.06837498547975 -60.804202923015509 0 -60.804202923015509 -80.057973839454462 0 0 0 0 388.03178901819047 -44.516199716120354 0 -44.516199716120354 -87.853488416345044 0 0 0 0 146.31706555493292 -6.3474302496106247 0 -6.3474302496106247 -30.933857274601905 0 0 0 0 142.05493522246252 24.030601486350861 0 24.030601486350861 -50.353497521036843 0 0 0 0 240.2782648219727 -66.714751816387434 0 -66.714751816387434 -91.827094406765013 0 0 0 0 81.231610231625382 84.178111601416276 0 84.178111601416276 -7.3850671805503225 0 0 0 0 52.333545942266937 10.970476131202481 0 10.970476131202481 -4.1734515692824683 0 0 0 0 52.931008652858509 51.563928086362239 0 51.563928086362239 -164.20120652200876 0 0 0 0 54.897067528036132 115.07523695345606 0 115.07523695345606 -136.11128338006074 0 0 0 0 -1.5819016341120005 -17.223187404641067 0 -17.223187404641067 -49.317901953743785 0 0 0 0 82.038286703493213 47.269464112525384 0 47.269464112525384 -94.06947357734316 0 0 0 0 45.872837706676222 20.160743571399578 0 20.160743571399578 1.5196691600769157 0 0 0 0 17.048273018403052 48.590817776440986 0 48.590817776440986 -8.991751753801509 0 0 0 0 37.844879128708271 94.288223055125854 0 94.288223055125854 -57.359406780135942 0 0 0 0 44.970158329073456 16.517006984051477 0 16.517006984051477 -8.551066969643216 0 0 0 0 39.046369811296913 19.480182046521833 0 19.480182046521833 2.0480581822744774 0 0 0 0 92.338736934696499 19.957419725592899 0 19.957419725592899 21.151040179498523 0 0 0 0 90.907177603001401 25.227824152327003 0 25.227824152327003 1.8785034479760725 0 0 0 0 49.561629774218375 32.010158422035509 0 32.010158422035509 -8.1608218584788261 0 0 0 0 58.256498312955955 6.1514898942245964 0 6.1514898942245964 -4.0817154509521743 0 0 0 0 80.23343749698688 31.610232124263916 0 31.610232124263916 -5.784685434916355 0 0 0 0 61.750791917424067 -2.2815944890999162 0 -2.2815944890999162 -3.0661453559391703 0 0 0 0 47.066662730394455 6.4918118289151607 0 6.4918118289151607 5.4954910758369806 0 0 0 0 40.486750188603764 18.565844537409703 0 18.565844537409703 1.0914368151807139 0 0 0 0 26.876301044034022 14.489921221382673 0 14.489921221382673 -6.4722281932573615 0 0 0 0 40.49736755923368 21.262390080803129 0 21.262390080803129 -4.8641464449683554 0 0 0 0 35.27404424080305 4.3818174075632896 0 4.3818174075632896 -11.737869471871818 0 0 0 0 30.207284799547324 2.9318715359251399 0 2.9318715359251399 -12.039506074542977 0 0 0 0 58.378700552537339 22.644730611285013 0 22.644730611285013 -6.8998663597722043 0 0 0 0 51.7754983383129 22.751895843287002 0 22.751895843287002 1.682201653418133 0 0 0 0 45.096712141705211 3.321946330958383 0 3.321946330958383 -0.69992821715004538 0 0 0 0 29.488926758052315 0.46370532183064483 0 0.46370532183064483 -9.1590581887708922 0 0 0 0 43.644811191210096 0.14290304476958671 0 0.14290304476958671 -4.0138784788119724 0 0 0 0 42.374936963060463 4.5399094274921481 0 4.5399094274921481 -28.370476271851203 0 0 0 0 46.952784510722267 20.90927792351431 0 20.90927792351431 -2.7177128180017007 0 0 0 0 39.642907254507008 9.3965199997887794 0 9.3965199997887794 -6.6047234442057743 0 0 0 0 49.502213497473349 13.029299372175871 0 13.029299372175871 -17.510585924232146 0 0 0 0 25.72755634662812 10.037436197883338 0 10.037436197883338 -5.0428102533585033 0 0 0 0 54.10538320952918 16.998440046933286 0 16.998440046933286 -2.1503709615956401 0 0 0 0 38.371267626003828 15.665726697875471 0 15.665726697875471 -0.58229165077545986 0 0 0 0 49.041660143055196 6.1624828961108733 0 6.1624828961108733 -25.138470765978582 0 0 0 0 47.408667695650365 -0.64012531572325315 0 -0.64012531572325315 -14.380462543317662 0 0 0 0 31.956254546385736 -2.7029655322390056 0 -2.7029655322390056 -8.0332295259832804 0 0 0 0 60.061232505165208 11.178923559482541 0 11.178923559482541 -8.4937349757801712 0 0 0 0 85.1167640301137 -9.5405562253408789 0 -9.5405562253408789 -17.685575756559956 0 0 0 0 24.474499502961407 14.590984635087807 0 14.590984635087807 30.027393680126806 0 0 0 0 7.8319398064082293 10.447068939068828 0 10.447068939068828 -3.2344465400538596 0 0 0 0 85.26652610796009 12.219330172250238 0 12.219330172250238 -18.709602302904386 0 0 0 0 122.57139592725434 164.15933403439249 0 164.15933403439249 116.83444821720695 0 0 0 0 187.01382779495907 91.791001723219779 0 91.791001723219779 21.967414523735897 0 0 0 0 9.8878642194070281 12.257653445676198 0 12.257653445676198 6.2681190101551305 0 0 0 0 50.08533483118299 16.685111126102811 0 16.685111126102811 34.157093028095915 0 0 0 0 -0.058998823967442604 18.062582389119871 0 18.062582389119871 2.6423263194971636 0 0 0 0 39.640083039441379 7.186862562429269 0 7.186862562429269 -0.93207754712057067 0 0 0 0 6.988668391101811 52.224483399211422 0 52.224483399211422 8.4331670215422303 0 0 0 0 245.29219818723504 -70.836354074514929 0 -70.836354074514929 2.5572128293715224 0 0 0 0 233.43307199471747 79.745978846914113 0 79.745978846914113 -84.407022472536482 0 0 0 0 350.95370631059632 70.817920367881015 0 70.817920367881015 -100.25318559084826 0 0 0 0 764.52792047164985 -76.885083853189371 0 -76.885083853189371 -166.84885229118262 0 0 0 0 330.69036506052362 -102.31231869281555 0 -102.31231869281555 -153.28379689053759 0 0 0 0 552.24672060922603 23.542929876609492 0 23.542929876609492 -112.29944621981303 0 0 0 0 23.314894893687214 16.065546460425224 0 16.065546460425224 3.3513775584068748 0 0 0 0 -73.849920072214445 -9.6069471746275212 0 -9.6069471746275212 -15.901041710865499 0 0 0 0 -25.012222304503666 27.471603779496945 0 27.471603779496945 1.0365312843422032 0 0 0 0 14.013912756438089 41.533816923010832 0 41.533816923010832 10.660784830261107 0 0 0 0 -24.612091810905866 1.6913117424982289 0 1.6913117424982289 6.8181495800237437 0 0 0 0 350.18201767929713 367.55334879934662 0 367.55334879934662 475.67100965400004 0 0 0 0 0.24777380913038716 -1.092243417268989 0 -1.092243417268989 0.58674549244810059 0 0 0 0 150.04155797516978 49.081401400555734 0 49.081401400555734 5.1278010328760502 0 0 0 0 186.03809474443551 19.042411235437612 0 19.042411235437612 35.570589253897822 0 0 0 0 59.469444248323271 15.798914022416284 0 15.798914022416284 53.978767446172583 0 0 0 0 61.967627239624562 88.926940161066796 0 88.926940161066796 69.120189950100439 0 0 0 0 16.25863697603927 5.5573889383790629 0 5.5573889383790629 51.869310796488207 0 0 0 0 25.126761151595062 59.015117526649973 0 59.015117526649973 16.131265943863287 0 0 0 0 140.44334970966884 -28.605599964183057 0 -28.605599964183057 -6.3713923385025737 0 0 0 0 36.147626855992712 178.86764262857082 0 178.86764262857082 140.39340398402237 0 0 0 0 649.75371915491996 -168.43356574994823 0 -168.43356574994823 -71.659403198168548 0 0 0 0 238.76728393322264 9.9176618790677367 0 9.9176618790677367 -65.32145197794398 0 0 0 0 270.58509990149832 1.5329552052385225 0 1.5329552052385225 -65.217807407274449 0 0 0 0 248.85147702726681 21.792012880409629 0 21.792012880409629 -29.14170758936632 0 0 0 0 28.884253866273056 62.09663307207876 0 62.09663307207876 22.53381995681444 0 0 0 0 70.85903172951032 -53.724379629380394 0 -53.724379629380394 -16.834374532195859 0 0 0 0 306.73784816741681 76.143640006832811 0 76.143640006832811 -15.326337087570437 0 0 0 0 71.334202627655031 22.631743551380708 0 22.631743551380708 40.399860891510912 0 0 0 0 66.083308226784538 10.584754429445553 0 10.584754429445553 9.5622903178200431 0 0 0 0 156.13333172358398 83.223959257580418 0 83.223959257580418 23.342112955354253 0 0 0 0 0.25111916578269344 -1.0159843400581963 0 -1.0159843400581963 1.266547065123139 0 0 0 0 273.45327557607015 89.744699193131595 0 89.744699193131595 -0.83134158566247152 0 0 0 0 171.81795380684343 -8.6223160002821828 0 -8.6223160002821828 -4.8294575945611768 0 0 0 0 54.521367512022152 44.740487028848875 0 44.740487028848875 9.6772794668702318 0 0 0 0 10.833834678542189 36.726219274507287 0 36.726219274507287 8.2081844138765518 0 0 0 0 41.284792230828316 13.209648739224349 0 13.209648739224349 7.8548888448741536 0 0 0 0 43.983544745387917 9.9112690582189771 0 9.9112690582189771 9.4647340801951714 0 0 0 0 72.081112008840137 16.201424778287446 0 16.201424778287446 9.7544524946304136 0 0 0 0 62.975584964107838 19.958753129699289 0 19.958753129699289 13.794173792835863 0 0 0 0 66.55979906504399 22.184669968032324 0 22.184669968032324 -2.8408086094173086 0 0 0 0 90.810490161005873 34.518505560049448 0 34.518505560049448 2.2763795191772829 0 0 0 0 96.796352809134987 8.6511753465520087 0 8.6511753465520087 8.7487751204037068 0 0 0 0 70.573915936824051 16.706482419860549 0 16.706482419860549 10.170756207149907 0 0 0 0 78.42488556346143 32.95357732516959 0 32.95357732516959 34.645015943940052 0 0 0 0 58.327121995076595 0.92028517294284029 0 0.92028517294284029 14.558325714189131 0 0 0 0 42.040420038551019 10.728663651936017 0 10.728663651936017 33.803011124619843 0 0 0 0 65.357827632519616 14.883498712888922 0 14.883498712888922 10.900415688757221 0 0 0 0 65.709019172979197 9.2773494171004671 0 9.2773494171004671 23.803171632263002 0 0 0 0 44.013636493803375 -7.26818519637024 0 -7.26818519637024 -11.374127392237703 0 0 0 0 61.129814726466066 13.010489687776442 0 13.010489687776442 -10.253852742284835 0 0 0 0 16.229755620166543 -53.444003548154143 0 -53.444003548154143 -27.250863880568488 0 0 0 0 255.93299901499267 29.451313128626591 0 29.451313128626591 -69.483538808903816 0 0 0 0 21.319705086716567 -79.520625989724095 0 -79.520625989724095 94.135855104151091 0 0 0 0 49.182273145355538 -1.850330375393483 0 -1.850330375393483 -14.07088142026357 0 0 0 0 144.19350685539393 -20.463688331463118 0 -20.463688331463118 -77.181230117915902 0 0 0 0 60.225898445569328 16.708459335341558 0 16.708459335341558 12.193366010602517 0 0 0 0 42.099362750481305 29.934867331648775 0 29.934867331648775 -9.4489643593799428 0 0 0 0 65.351073823497074 16.420475986986215 0 16.420475986986215 -5.9900380729862857 0 0 0 0 61.557167424932359 28.326389796022539 0 28.326389796022539 -0.10287563430423874 0 0 0 0 119.80480379390065 51.805495824161198 0 51.805495824161198 -6.2943851635332067 0 0 0 0 72.065336426003341 5.0312408212703872 0 5.0312408212703872 -15.272718582177049 0 0 0 0 107.93149174567588 4.2378977759482268 0 4.2378977759482268 13.587104520139519 0 0 0 0 107.87479061644081 -1.8473578932648138 0 -1.8473578932648138 29.803247516216373 0 0 0 0 17.366020029760548 -0.77791663414746637 0 -0.77791663414746637 4.2492273177345465 0 0 0 0 85.515488530141738 -10.158339996001189 0 -10.158339996001189 29.986397236664004 0 0 0 0 53.446136004118408 -16.097946392555336 0 -16.097946392555336 -3.6010740060376651 0 0 0 0 46.225521959902835 2.8612193659057255 0 2.8612193659057255 -2.7986920783987443 0 0 0 0 54.761718220965122 15.860197885487651 0 15.860197885487651 8.084078959326007 0 0 0 0 37.020708508425741 34.327407271878656 0 34.327407271878656 -0.59348654272389467 0 0 0 0 13.285817933983118 1.0072235215446881 0 1.0072235215446881 -0.83842061188779038 0 0 0 0 50.745731569524651 11.653399807454946 0 11.653399807454946 -7.15126586248698 0 0 0 0 30.795963905184308 14.304793229789134 0 14.304793229789134 3.9706471255021323 0 0 0 0 87.658518025513331 49.393417650423658 0 49.393417650423658 -13.890709706823145 0 0 0 0 63.702020708587952 54.583232726329243 0 54.583232726329243 -11.585382258290565 0 0 0 0 50.631752015329141 12.133957276688214 0 12.133957276688214 2.8597143510769998 0 0 0 0 74.576113796385471 29.413811614290353 0 29.413811614290353 -1.0279232600669275 0 0 0 0 86.864475432783365 50.645792251999865 0 50.645792251999865 -13.968714166397149 0 0 0 0 192.60899548967427 169.45121041411491 0 169.45121041411491 112.79855579956481 0 0 0 0 24.217489671078511 52.040860958051496 0 52.040860958051496 77.677566432400681 0 0 0 0 -45.350563819898525 -6.553474162519592 0 -6.553474162519592 94.918151728131107 0 0 0 0 19.400748320509592 4.9146270976874575 0 4.9146270976874575 19.219631817891241 0 0 0 0 27.922807698839975 -2.2716730107445642 0 -2.2716730107445642 -3.9421256427099007 0 0 0 0 14.460143139353022 22.112103940028533 0 22.112103940028533 -10.161927450330495 0 0 0 0 17.94463255694393 -8.1523658510133714 0 -8.1523658510133714 -3.6274531547198672 0 0 0 0 -41.008375804129173 -123.90008657787507 0 -123.90008657787507 -67.775765544251385 0 0 0 0 7.1357901644078083 -14.014917561764008 0 -14.014917561764008 -2.202906612871061 0 0 0 0 51.813120269362116 -0.8362237738570002 0 -0.8362237738570002 7.878067652862228 0 0 0 0 37.497872197948141 -10.518452583548282 0 -10.518452583548282 -11.049796479284591 0 0 0 0 73.833380043659417 24.28586022488571 0 24.28586022488571 3.3839599802222438 0 0 0 0 44.848488625815662 4.6545517297853394 0 4.6545517297853394 4.8045272176650542 0 0 0 0 41.839981174045533 -10.725626148122956 0 -10.725626148122956 3.241948299028536 0 0 0 0 91.807852592464769 -6.3179247199373094 0 -6.3179247199373094 -18.106595410322143 0 0 0 0 61.37765289953677 -72.212662683098188 0 -72.212662683098188 -3.0363132815825793 0 0 0 0 38.198250375461498 -10.436485064141252 0 -10.436485064141252 -13.968420515281665 0 0 0 0 56.657507795513084 10.591979959503846 0 10.591979959503846 -0.39108214814689291 0 0 0 0 52.952817879617214 6.8931677665918727 0 6.8931677665918727 2.8924808431758606 0 0 0 0 54.63221808920207 4.6383985771497152 0 4.6383985771497152 -3.9550417107072278 0 0 0 0 56.858737806469435 8.101108431738794 0 8.101108431738794 -3.1294319249151386 0 0 0 0 57.690657822342473 8.1658177098101987 0 8.1658177098101987 -4.2492173778919096 0 0 0 0 282.62286263948772 -66.512289055541487 0 -66.512289055541487 -229.20381243554175 0 0 0 0 12.651494134945096 36.149773186226639 0 36.149773186226639 -74.67957739433723 0 0 0 0 -2.0476522945430133 -3.8307583329129713 0 -3.8307583329129713 -2.5042761991887286 0 0 0 0 -115.53496509743854 -55.309834447904649 0 -55.309834447904649 91.039817324456408 0 0 0 0 11.890926047140965 25.112431523081398 0 25.112431523081398 64.810048076354519 0 0 0 0 -13.248870437644655 7.566667605070446 0 7.566667605070446 275.29161246462462 0 0 0 0 196.80531546063139 -173.59443167013288 0 -173.59443167013288 152.90017174333178 0 0 0 0 3.2303857235650639 3.7163325471616728 0 3.7163325471616728 0.28401950083769423 0 0 0 0 59.380729405806051 114.4916222432505 0 114.4916222432505 210.31843136762794 0 0 0 0 212.83757373502885 167.24897167848189 0 167.24897167848189 39.21645286987723 0 0 0 0 337.85869299701153 -144.44277875473051 0 -144.44277875473051 -124.47255601528514 0 0 0 0 9.6886231958733333 -4.3739857383288765 0 -4.3739857383288765 -3.0106221991711664 0 0 0 0 50.108618024270982 12.983954792216409 0 12.983954792216409 17.561475328897245 0 0 0 0 14.092563482561673 23.807048228631857 0 23.807048228631857 30.987237974377649 0 0 0 0 76.475437089116895 53.43123765489554 0 53.43123765489554 28.474698197880684 0 0 0 0 102.02359048569633 54.517701046734601 0 54.517701046734601 -26.00074201897678 0 0 0 0 99.81950766252703 42.125089071098046 0 42.125089071098046 -42.662383336544281 0 0 0 0 75.669301081623416 36.378972055429585 0 36.378972055429585 -20.505728811235713 0 0 0 0 56.686149108998507 9.4514530925964948 0 9.4514530925964948 -4.38751401097079 0 0 0 0 90.411242606816813 33.167849405656852 0 33.167849405656852 -28.775031847233549 0 0 0 0 31.845448281279971 -11.274012559809904 0 -11.274012559809904 -16.848688227828561 0 0 0 0 56.184261230800075 2.6645186480580492 0 2.6645186480580492 -1.9430629009129348 0 0 0 0 82.9988250274655 25.408303800653357 0 25.408303800653357 7.542200003972539 0 0 0 0 90.313827015073912 31.564808606898168 0 31.564808606898168 -10.527596715906157 0 0 0 0 41.328282221836574 -3.5867021370483627 0 -3.5867021370483627 -17.489086057273379 0 0 0 0 96.248017044730659 43.646340489995055 0 43.646340489995055 12.156551983135842 0 0 0 0 48.826010795011825 3.5096907581036021 0 3.5096907581036021 -11.656569878125083 0 0 0 0 49.136117462068796 5.080440938092579 0 5.080440938092579 -4.748664296947652 0 0 0 0 53.794020745903254 5.7660382055544233 0 5.7660382055544233 -11.326289417447697 0 0 0 0 50.588148861948866 3.4536422462422252 0 3.4536422462422252 -7.3810192172222173 0 0 0 0 11.921798047923602 -7.215479621932019 0 -7.215479621932019 -11.775950095169147 0 0 0 0 61.688241359515814 7.0268823949910058 0 7.0268823949910058 -5.5007160878396917 0 0 0 0 53.125683677913912 29.08816508471865 0 29.08816508471865 -7.2024245184636015 0 0 0 0 24.959129470211337 8.9989113163971979 0 8.9989113163971979 18.03414837859134 0 0 0 0 21.569495958825428 -48.804373285027353 0 -48.804373285027353 13.083804222368258 0 0 0 0 -10.196655030871625 23.122946721849132 0 23.122946721849132 12.988562439187632 0 0 0 0 68.994272260508296 -3.0547369523688701 0 -3.0547369523688701 0.63259281323553296 0 0 0 0 36.290475400033756 -9.5952295878062728 0 -9.5952295878062728 12.005048727340636 0 0 0 0 68.070541162189329 -3.7614395984405746 0 -3.7614395984405746 9.0332129981161415 0 0 0 0 110.93196263199206 -9.6636920842961445 0 -9.6636920842961445 -4.2602279175473541 0 0 0 0 65.432610408046457 16.009225141401885 0 16.009225141401885 0.93563037153580808 0 0 0 0 7.1240323960015814 -10.892814182248244 0 -10.892814182248244 -8.7676217223502029 0 0 0 0 51.532546755959629 3.8475156870971432 0 3.8475156870971432 -1.1556147892063109 0 0 0 0 55.084229829350079 5.6759283569026593 0 5.6759283569026593 -7.8947189135926692 0 0 0 0 49.289568029846123 -30.569528050302367 0 -30.569528050302367 -113.30986339082529 0 0 0 0 62.431511670346538 29.200670140042057 0 29.200670140042057 6.7534296745831828 0 0 0 0 81.994262067048112 20.541845881105928 0 20.541845881105928 -98.117365571958771 0 0 0 0 52.25822326229536 87.426495808121444 0 87.426495808121444 0.83213175992159449 0 0 0 0 89.023446483523003 124.79295717937202 0 124.79295717937202 -116.80685344556446 0 0 0 0 -19.199374151285156 24.31301988543305 0 24.31301988543305 -6.1129090611917718 0 0 0 0 19.597069577153889 43.553488142786996 0 43.553488142786996 -12.499982314457441 0 0 0 0 101.27232391227153 68.036024910927665 0 68.036024910927665 8.943158377695454 0 0 0 0 16.635597072312123 3.8795585734111953 0 3.8795585734111953 -0.7683883704894674 0 0 0 0 64.295923109340947 5.3185428027240249 0 5.3185428027240249 -44.288752315443411 0 0 0 0 21.123050258494914 83.375742124345379 0 83.375742124345379 45.150021540185435 0 0 0 0 17.984210184538128 12.067937264949506 0 12.067937264949506 -5.4731586654307289 0 0 0 0 22.933163693291135 -14.48229703220386 0 -14.48229703220386 22.099521677723601 0 0 0 0 37.459552336295019 4.5482346639928437 0 4.5482346639928437 -15.807882524528395 0 0 0 0 70.73793166686599 22.016117736694937 0 22.016117736694937 -11.03629184413553 0 0 0 0 33.511998119938653 23.296653481809926 0 23.296653481809926 3.7885778727307979 0 0 0 0 0.2524408369727098 0.061111142516061534 0 0.061111142516061534 -0.90890766096715614 0 0 0 0 39.006402231044518 0.95577325066663121 0 0.95577325066663121 -9.6938969791845828 0 0 0 0 42.94264574139379 2.1560760669608499 0 2.1560760669608499 -22.259559868387896 0 0 0 0 50.295898765587481 3.9618591057842423 0 3.9618591057842423 -12.054601452593943 0 0 0 0 30.812258352300177 -9.650378518799684 0 -9.650378518799684 -4.5968357603094683 0 0 0 0 42.025332377746679 17.262830438955021 0 17.262830438955021 -15.259057968122749 0 0 0 0 29.991302845373866 9.6154778059731143 0 9.6154778059731143 -25.29527199797667 0 0 0 0 33.178449889797861 2.6699915162327912 0 2.6699915162327912 -3.2049928241109811 0 0 0 0 41.628245323212468 7.9476735717439624 0 7.9476735717439624 -15.2902989760737 0 0 0 0 50.752049499020359 6.1611118242375937 0 6.1611118242375937 -12.782877333163924 0 0 0 0 32.203307253252774 5.9723341257966212 0 5.9723341257966212 -5.3338765819979379 0 0 0 0 1.6215954360668547 -0.88010527756978263 0 -0.88010527756978263 -8.2306000593889621 0 0 0 0 10.455167819018243 22.414776379991508 0 22.414776379991508 13.34267388311855 0 0 0 0 33.297134885031198 0.75377954272414627 0 0.75377954272414627 -3.492196935721207 0 0 0 0 30.265989445499144 2.6041617568153015 0 2.6041617568153015 -17.18530495025152 0 0 0 0 -0.35560522994293819 -9.7700586256168265 0 -9.7700586256168265 -5.7201248970614351 0 0 0 0 15.236505812150426 -35.296323559413395 0 -35.296323559413395 31.473953892058489 0 0 0 0 0.65274455316637159 0.64340133991098014 0 0.64340133991098014 -0.33977759387397022 0 0 0 0 174.91371211505611 -10.12011616785594 0 -10.12011616785594 -26.542454670530105 0 0 0 0 44.947690295725408 -2.3919048141304629 0 -2.3919048141304629 -4.4115973538931073 0 0 0 0 42.472041060798801 -1.8442864750732042 0 -1.8442864750732042 -22.972541751355493 0 0 0 0 12.620022298909774 7.9357429775299124 0 7.9357429775299124 -22.779223293246094 0 0 0 0 95.433077170571778 101.51075346382754 0 101.51075346382754 37.489366765088334 0 0 0 0 44.598190989025341 7.6352331542070786 0 7.6352331542070786 -9.8372069804692934 0 0 0 0 51.418050585038145 -50.844577181405747 0 -50.844577181405747 -136.64037034793182 0 0 0 0 276.19554421422072 -30.481725368657408 0 -30.481725368657408 -71.759540272278173 0 0 0 0 0.20228414565491448 -3.185600311134424 0 -3.185600311134424 -0.21973129166188482 0 0 0 0 120.02953971958777 31.508463230384223 0 31.508463230384223 10.79846718691806 0 0 0 0 3.195429675062428 -0.81593137070885291 0 -0.81593137070885291 -1.6198627529777703 0 0 0 0 272.36345260680537 -106.18021713235407 0 -106.18021713235407 -385.8806369938502 0 0 0 0 -121.00345522676071 -46.356424492348879 0 -46.356424492348879 298.29520010829401 0 0 0 0 113.502604998881 -22.940807411262426 0 -22.940807411262426 -203.42084504585159 0 0 0 0 112.47520149371121 -12.836933028943122 0 -12.836933028943122 -247.64270376530703 0 0 0 0 14.156233430215934 -0.43845411188999961 0 -0.43845411188999961 -1.2752161366982191 0 0 0 0 34.130531264265301 24.427485911576241 0 24.427485911576241 -140.5112720177126 0 0 0 0 -30.425570298772072 57.983258071012642 0 57.983258071012642 -119.93558655863671 0 0 0 0 -16.552549569954863 27.604554423136506 0 27.604554423136506 -102.0369758392244 0 0 0 0 5.1162089082936291 34.701990265981294 0 34.701990265981294 -113.59756827547017 0 0 0 0 5.3692921624460723 6.9958705967328569 0 6.9958705967328569 -94.561754990395457 0 0 0 0 102.30254193788278 127.47227410648645 0 127.47227410648645 -124.75792497545831 0 0 0 0 32.665591610799311 83.283362457257226 0 83.283362457257226 -4.9354059890770259 0 0 0 0 107.40393350941304 196.47584695998967 0 196.47584695998967 -23.395031887654 0 0 0 0 -311.44320667095599 -206.39704617791253 0 -206.39704617791253 182.38083003766042 0 0 0 0 -2.5576092170109064 1.2423098208055592 0 1.2423098208055592 -8.1278661619041053 0 0 0 0 101.66154339007335 70.812040990648711 0 70.812040990648711 26.431133991498527 0 0 0 0 55.410683737514773 142.83620603190064 0 142.83620603190064 -80.883768514941949 0 0 0 0 51.286648810229963 169.24754289018199 0 169.24754289018199 -246.56203921354887 0 0 0 0 161.95049599299091 231.79169077938087 0 231.79169077938087 -8.2848565419674287 0 0 0 0 97.644853555830196 179.76997030409626 0 179.76997030409626 218.06703570530448 0 0 0 0 173.05983523005852 169.98682451523072 0 169.98682451523072 65.583976673555867 0 0 0 0 140.46232200856321 234.52291696727994 0 234.52291696727994 201.3291568951347 0 0 0 0 162.90999941229529 127.27679795909349 0 127.27679795909349 -38.032670997505647 0 0 0 0 111.79615623269638 87.410714130693236 0 87.410714130693236 161.54815961603845 0 0 0 0 150.57485166098922 90.39528396219356 0 90.39528396219356 51.718657619457161 0 0 0 0 143.89747270874796 147.57039076622732 0 147.57039076622732 -69.558133492829825 0 0 0 0 125.97828046564246 23.089918295344205 0 23.089918295344205 -93.892892581238641 0 0 0 0 117.3258763520862 16.663616309516101 0 16.663616309516101 -112.10148959239268 0 0 0 0 131.3936320376306 29.58913008863459 0 29.58913008863459 -125.13807440645314 0 0 0 0 132.404518388008 69.561299679899321 0 69.561299679899321 -13.132526769470701 0 0 0 0 63.239189321328013 81.395220689910005 0 81.395220689910005 -7.6185940098627043 0 0 0 0 106.75905730317754 126.13982693849715 0 126.13982693849715 -137.27820287057125 0 0 0 0 65.115598158270586 59.218753439787974 0 59.218753439787974 158.76618440408561 0 0 0 0 50.997336263739271 25.111289315283557 0 25.111289315283557 391.34957301687234 0 0 0 0 148.13143402384594 96.058890894765568 0 96.058890894765568 -6.7899035736962006 0 0 0 0 106.63866009066987 73.891649026276667 0 73.891649026276667 125.29868239571806 0 0 0 0 134.35084837296745 18.516575309484551 0 18.516575309484551 157.62353859248262 0 0 0 0 -39.832767827931093 -98.626788231050341 0 -98.626788231050341 -407.81509375540691 0 0 0 0 175.27142525670934 122.92208721728946 0 122.92208721728946 -227.52383528154076 0 0 0 0 22.473584097628191 96.554328788754489 0 96.554328788754489 -196.31449593858679 0 0 0 0 220.65337959662429 -170.57588554046356 0 -170.57588554046356 -489.75979402904557 0 0 0 0 37.781483672675677 282.52098659277362 0 282.52098659277362 545.53334088367717 0 0 0 0 42.921667408678331 -94.795189954264856 0 -94.795189954264856 -481.95267442509646 0 0 0 0 8.7612065483862693 1.7637913242547896 0 1.7637913242547896 -0.45724520502943011 0 0 0 0 0.20405998023221628 0.38038152654641522 0 0.38038152654641522 -0.94600220496417942 0 0 0 0 184.15140284129302 217.104277172585 0 217.104277172585 16.206489671967461 0 0 0 0 74.78154515280039 90.857356553429611 0 90.857356553429611 95.241999752333413 0 0 0 0 68.513105439393257 65.086127043140891 0 65.086127043140891 -4.844747557450205 0 0 0 0 39.38872803596314 153.98753228044984 0 153.98753228044984 -41.388203029324359 0 0 0 0 161.15848632412963 95.451226491996252 0 95.451226491996252 36.511896658334777 0 0 0 0 138.97941626160173 45.280296456511643 0 45.280296456511643 29.045620521525208 0 0 0 0 116.81365466678835 63.322243901117076 0 63.322243901117076 30.925975882918607 0 0 0 0 120.50975967851264 65.028900447922823 0 65.028900447922823 -0.025818350127951431 0 0 0 0 70.874782181301271 63.81270817267545 0 63.81270817267545 33.207991190884911 0 0 0 0 -75.565821012423839 224.2251131206618 0 224.2251131206618 55.028716760815314 0 0 0 0 574.65367059706477 45.794686604417166 0 45.794686604417166 444.2480057906389 0 0 0 0 0.87836705380573221 0.24434402714132375 0 0.24434402714132375 -0.30082885376450152 0 0 0 0 348.77588142214518 356.03566627455291 0 356.03566627455291 80.390669145056705 0 0 0 0 110.91566383576719 48.680042892790937 0 48.680042892790937 0.085465448743603983 0 0 0 0 0.80458043096945175 0.48493750843306316 0 0.48493750843306316 -1.2948302708524078 0 0 0 0 168.18459557737515 205.54241985797455 0 205.54241985797455 -17.678928143506937 0 0 0 0 159.43307448772975 179.29287800513515 0 179.29287800513515 95.117906151088164 0 0 0 0 591.6251575896581 -243.10896035194071 0 -243.10896035194071 132.60647569373464 0 0 0 0 3.0557432359951235 1.2261854123906204 0 1.2261854123906204 0.076851024688164293 0 0 0 0 143.53278865043103 -126.40147261340985 0 -126.40147261340985 149.70884781816721 0 0 0 0 275.88904592486506 184.87568537567086 0 184.87568537567086 -20.932073758467823 0 0 0 0 589.54133748456661 237.64053163996272 0 237.64053163996272 40.197864126337663 0 0 0 0 -48.92143432695957 -148.74945684689339 0 -148.74945684689339 -99.719989496404651 0 0 0 0 -230.97671489417553 305.89036554463451 0 305.89036554463451 -83.153123003434985 0 0 0 0 119.43436176842079 277.38554762512149 0 277.38554762512149 -60.414070687489243 0 0 0 0 428.90601540828357 103.0579616173236 0 103.0579616173236 -236.42971301039358 0 0 0 0 148.25034267758019 151.41315896889739 0 151.41315896889739 -26.512447293546188 0 0 0 0 29.977623088700057 -433.05805787668817 0 -433.05805787668817 103.60881464308886 0 0 0 0 276.22710382013611 375.34111141679841 0 375.34111141679841 -584.88293750831144 0 0 0 0 493.51402800790981 -500.65434584144356 0 -500.65434584144356 -97.444773924218225 0 0 0 0 502.97399474514532 365.19854969603284 0 365.19854969603284 141.99425124795437 0 0 0 0 93.120020586226019 99.747164790783245 0 99.747164790783245 -197.99323712985733 0 0 0 0 126.00969090324361 23.390217522688317 0 23.390217522688317 -281.31621959273252 0 0 0 0 80.114120710342831 5.3291096631551227 0 5.3291096631551227 -25.977133520244934 0 0 0 0 132.78797370646498 -8.2496605177335596 0 -8.2496605177335596 -134.42738676377706 0 0 0 0 109.10093516011329 -32.037857120796332 0 -32.037857120796332 -86.208628113342456 0 0 0 0 134.30244557585684 -16.343304833071727 0 -16.343304833071727 -6.1474634032839504 0 0 0 0 149.37255677740905 -164.49530561760579 0 -164.49530561760579 36.311024064463226 0 0 0 0 7.0646150319818162 2.7515830904196861 0 2.7515830904196861 -0.82934349328676182 0 0 0 0 229.3977494425053 327.03733664937852 0 327.03733664937852 -90.786048271155636 0 0 0 0 265.63645250081754 -343.16431118648927 0 -343.16431118648927 362.09450235914238 0 0 0 0 -21.408396343904315 128.59813157126317 0 128.59813157126317 0.90969041800836681 0 0 0 0 -140.01116624525457 96.996588783623906 0 96.996588783623906 74.465759296678243 0 0 0 0 -16.792357962200185 -66.953838432352043 0 -66.953838432352043 0.27676649779098772 0 0 0 0 810.19080415589269 -169.13684271367117 0 -169.13684271367117 -0.64411412372646593 0 0 0 0 321.57414905665792 153.58201640542319 0 153.58201640542319 -129.82022001242069 0 0 0 0 395.29780879770988 -534.06748780836722 0 -534.06748780836722 475.05805987525088 0 0 0 0 729.79662876569637 -380.73934093508251 0 -380.73934093508251 -58.531586637072223 0 0 0 0 8.4865397552950981 -0.8407466165536519 0 -0.8407466165536519 -0.068581901702769732 0 0 0 0 468.07050647761207 -291.10282709750572 0 -291.10282709750572 63.195747474339669 0 0 0 0 167.78935319624907 -252.49845206938363 0 -252.49845206938363 138.18258709250836 0 0 0 0 436.06807750054577 -104.81669383380472 0 -104.81669383380472 -202.46419269353851 0 0 0 0 7.5461579690637279 1.9382119586101112 0 1.9382119586101112 -2.3717712072401071 0 0 0 0 378.15659644058906 -295.95353420286187 0 -295.95353420286187 136.27662906269688 0 0 0 0 4.095041392609744 0.36439282556439423 0 0.36439282556439423 -2.0158470380580447 0 0 0 0 841.6596234569588 -455.96494519916291 0 -455.96494519916291 105.98583446627435 0 0 0 0 91.296147389206453 141.14370641373762 0 141.14370641373762 -330.93852874374625 0 0 0 0 685.4119645840583 -53.17506666105885 0 -53.17506666105885 -270.69180952250827 0 0 0 0 691.51699695400021 -90.557936681744195 0 -90.557936681744195 -66.796665367610331 0 0 0 0 687.25993413882679 -53.72699325001031 0 -53.72699325001031 -125.58155444459044 0 0 0 0 667.97308678083937 -4.7774007336306568 0 -4.7774007336306568 36.101162995615596 0 0 0 0 687.77429506322915 -77.840019566500075 0 -77.840019566500075 10.330053929474161 0 0 0 0 298.30170040763915 237.79869198323468 0 237.79869198323468 229.39423169614668 0 0 0 0 2.4224312644974475 -0.66093930638218978 0 -0.66093930638218978 0.23259776495412049 0 0 0 0 0.27639019219424199 0.062613521524085058 0 0.062613521524085058 0.95158642185572795 0 0 0 0 583.84041148767574 -21.150648204751633 0 -21.150648204751633 415.00420654234858 0 0 0 0 578.1614842384588 -70.553640164569742 0 -70.553640164569742 47.243093783265067 0 0 0 0 742.87014695483231 133.38817125807418 0 133.38817125807418 38.820311371277057 0 0 0 0 10.328706884160056 -5.046256654631577 0 -5.046256654631577 -125.3639709625113 0 0 0 0 1.8062115737702698 0.74138790466531646 0 0.74138790466531646 -14.510779090367578 0 0 0 0 1.1261982618748902 2.1430524200305285 0 2.1430524200305285 3.2145738027191104 0 0 0 0 60.88297375664115 -154.36911812294011 0 -154.36911812294011 -73.349206453494844 0 0 0 0 36.359010334977938 -3.8203004916089185 0 -3.8203004916089185 -125.34668040994165 0 0 0 0 88.143411945406115 20.784690136237032 0 20.784690136237032 -121.95304040808696 0 0 0 0 30.755781823856523 -12.725084452947158 0 -12.725084452947158 -89.552284197101301 0 0 0 0 51.172228548515704 50.459280659457363 0 50.459280659457363 -127.91073559913565 0 0 0 0 76.879232158134982 83.983365660763866 0 83.983365660763866 -90.576676288501403 0 0 0 0 25.820628854522511 46.803546917626363 0 46.803546917626363 -108.14099589668695 0 0 0 0 29.448199755745009 47.144813037777112 0 47.144813037777112 -110.55072825898606 0 0 0 0 8.7193274665695526 0.12526627271932078 0 0.12526627271932078 -0.10617658622957121 0 0 0 0 11.112568337033736 2.3084480965935654 0 2.3084480965935654 -16.172331348278931 0 0 0 0 16.285759344580583 2.6416221849467547 0 2.6416221849467547 -16.176549005294873 0 0 0 0 3.7003647989913588 -3.8022470428795714 0 -3.8022470428795714 -127.64271520447335 0 0 0 0 44.535685428425495 -7.3766713064380838 0 -7.3766713064380838 -172.87147682011482 0 0 0 0 8.9906566398761356 3.4292650652941603 0 3.4292650652941603 -2.8734277778133901 0 0 0 0 12.905573435651604 17.317420187658172 0 17.317420187658172 23.493800285137695 0 0 0 0 -7.8600395446119364 18.940005534505872 0 18.940005534505872 -5.770686824862878 0 0 0 0 0.078703114856892853 0.52428989051503549 0 0.52428989051503549 0.87843506785348247 0 0 0 0 -6.0669753112379396 1.2615829351979642 0 1.2615829351979642 6.029653967068942 0 0 0 0 -1.2908099464548286 26.246374309598195 0 26.246374309598195 71.961876228278015 0 0 0 0 20.951548664813117 1.9800894123782058 0 1.9800894123782058 -3.937309162762368 0 0 0 0 54.023239768284839 -10.104822769671955 0 -10.104822769671955 -29.894006655306811 0 0 0 0 71.209528700768715 -16.011547750231784 0 -16.011547750231784 -2.7777284630465147 0 0 0 0 30.533941469271667 9.7820848023529834 0 9.7820848023529834 -0.41791480502615741 0 0 0 0 -8.7341943333740346 -2.3017041755974788 0 -2.3017041755974788 7.9018467299465556 0 0 0 0 19.065871178201633 16.089365907738284 0 16.089365907738284 4.7128008479921846 0 0 0 0 35.925035125663271 1.8112723933008965 0 1.8112723933008965 -9.8120355033133819 0 0 0 0 35.376308167426032 11.516293787418363 0 11.516293787418363 0.024897929478129299 0 0 0 0 25.949105205410206 8.2371249752212918 0 8.2371249752212918 -2.9897459499224439 0 0 0 0 32.796870405320078 80.510778791297525 0 80.510778791297525 16.049770964587879 0 0 0 0 33.355482384591596 17.606775820414896 0 17.606775820414896 3.6415965628500544 0 0 0 0 3.9203196412619263 13.769153685125815 0 13.769153685125815 -2.4406378772679957 0 0 0 0 29.308742963185068 63.837407173063184 0 63.837407173063184 25.794335182286886 0 0 0 0 22.710174746840494 14.063817641450441 0 14.063817641450441 -19.645257637424947 0 0 0 0 51.390521516969727 17.585629632838632 0 17.585629632838632 -3.4913046255641191 0 0 0 0 65.162381661948359 25.080355172368542 0 25.080355172368542 -12.190209863896031 0 0 0 0 8.9834758130455157 94.666061116687615 0 94.666061116687615 11.726652704415756 0 0 0 0 29.225846213535988 72.90083205557039 0 72.90083205557039 64.959373984358535 0 0 0 0 42.344556160707725 53.003401688008012 0 53.003401688008012 15.964139843166777 0 0 0 0 69.319544368307106 96.820441675235088 0 96.820441675235088 32.708809397976438 0 0 0 0 46.350516372360289 56.206528447807614 0 56.206528447807614 55.213943909755926 0 0 0 0 174.98043784050969 52.661828972278272 0 52.661828972278272 38.218595838795636 0 0 0 0 96.970747636485612 104.23865403782474 0 104.23865403782474 91.733669327237294 0 0 0 0 104.6012165730499 40.840599661048145 0 40.840599661048145 11.659537904381068 0 0 0 0 157.60832706227666 80.875191449929844 0 80.875191449929844 33.79085205435149 0 0 0 0 254.31150783677003 33.312109159709507 0 33.312109159709507 -30.274370704604735 0 0 0 0 212.80191290515359 13.5863782693541 0 13.5863782693541 -9.827292148847846 0 0 0 0 329.92232307244558 -19.565203665797526 0 -19.565203665797526 -18.032152292554883 0 0 0 0 252.18312935007725 -1.3708070788815689 0 -1.3708070788815689 -20.561159780954767 0 0 0 0 406.15739474259317 10.988757071607324 0 10.988757071607324 -20.623247763722247 0 0 0 0 396.5679810228321 -30.156505125258263 0 -30.156505125258263 71.151298636677893 0 0 0 0 328.94423561579606 39.03152705526054 0 39.03152705526054 35.183969476651328 0 0 0 0 266.16781232050562 52.20033474802085 0 52.20033474802085 7.5247380524742766 0 0 0 0 322.52326269148034 26.568272062953838 0 26.568272062953838 11.834375098654618 0 0 0 0 228.49717950374179 103.65605440049922 0 103.65605440049922 61.296644189669678 0 0 0 0 369.82265946691041 130.2383167108037 0 130.2383167108037 72.034632677188711 0 0 0 0 298.96397135332518 65.546001835825336 0 65.546001835825336 62.230886651057517 0 0 0 0 454.63166389615799 -60.209496511289217 0 -60.209496511289217 87.613284925875632 0 0 0 0 504.26202949087019 2.424578261185161 0 2.424578261185161 29.4698020948357 0 0 0 0 629.80902472755406 -103.69461961475099 0 -103.69461961475099 91.60521431264533 0 0 0 0 703.85453539798618 -204.56565608429082 0 -204.56565608429082 228.6982582970295 0 0 0 0 724.14962068131354 152.27898461329301 0 152.27898461329301 71.997606804186944 0 0 0 0 319.89081919851014 101.73983008282084 0 101.73983008282084 97.847824004190443 0 0 0 0 -0.61219383132993244 115.90796511178905 0 115.90796511178905 230.07257870603644 0 0 0 0 315.96195915362568 168.13964309502109 0 168.13964309502109 116.05544664036825 0 0 0 0 24.8678508575249 79.311179636089946 0 79.311179636089946 113.90499534770788 0 0 0 0 -3.2294196170405485 -44.25481129945365 0 -44.25481129945365 16.526724231986918 0 0 0 0 90.234208757028682 60.48329275762535 0 60.48329275762535 85.904839664055544 0 0 0 0 143.2462048312882 151.08386389304178 0 151.08386389304178 124.34758278806385 0 0 0 0 1.5864678524467024 -1.3934220728189075 0 -1.3934220728189075 1.3806003188496927 0 0 0 0 23.830085617199074 -74.433045263684562 0 -74.433045263684562 181.10501601913165 0 0 0 0 497.28140787153097 -33.066993187104799 0 -33.066993187104799 -47.709494399668074 0 0 0 0 485.15502966498025 -169.14864677927153 0 -169.14864677927153 141.880028529848 0 0 0 0 462.13748490568832 -109.30178439000338 0 -109.30178439000338 230.17521783847133 0 0 0 0 474.41926274866273 -57.78942671278719 0 -57.78942671278719 39.278377601767716 0 0 0 0 491.80596802974469 9.328200752873272 0 9.328200752873272 50.675223147705765 0 0 0 0 530.61420183235168 -46.316177245285871 0 -46.316177245285871 -95.20604407664905 0 0 0 0 386.49524870492314 -47.617626350225692 0 -47.617626350225692 -76.590781639864872 0 0 0 0 493.99008585886622 -21.197562832709082 0 -21.197562832709082 -71.866925905527751 0 0 0 0 102.75562474509934 -38.661162821348626 0 -38.661162821348626 -2.6225183536112127 0 0 0 0 363.02284885234258 -207.61093228908635 0 -207.61093228908635 49.196081177149608 0 0 0 0 -88.173426605775603 -8.8413964536325693 0 -8.8413964536325693 95.261624002627741 0 0 0 0 102.68812288186018 -58.918365104453287 0 -58.918365104453287 -27.149065329647783 0 0 0 0 6.3417676298088956 -14.576457301055569 0 -14.576457301055569 10.803250396801179 0 0 0 0 4.6576792778334202 -1.1478710236754637 0 -1.1478710236754637 -0.21928265219284881 0 0 0 0 50.542959932863596 -8.8846209371388341 0 -8.8846209371388341 12.429360309377671 0 0 0 0 56.595001166074326 -13.245265595740072 0 -13.245265595740072 12.985129491307816 0 0 0 0 30.83646769518964 4.7864670145381751 0 4.7864670145381751 15.977322857143463 0 0 0 0 55.967332471656846 4.2494666332559063 0 4.2494666332559063 7.551944941731108 0 0 0 0 69.346496938873315 -0.27722058203835331 0 -0.27722058203835331 9.0730983426551575 0 0 0 0 71.722944652450678 -18.836105598807734 0 -18.836105598807734 14.963328231831838 0 0 0 0 -3.8091776957949435 1.0056252212296499 0 1.0056252212296499 1.6761847179282761 0 0 0 0 89.839078250268358 -10.518950074023678 0 -10.518950074023678 5.3885089878726831 0 0 0 0 -59.103956411301624 12.585025505328474 0 12.585025505328474 -31.770125975360315 0 0 0 0 52.182412064081291 -19.394406636639133 0 -19.394406636639133 18.721318162537045 0 0 0 0 77.310485979025543 -32.267825308098395 0 -32.267825308098395 19.447173995327375 0 0 0 0 26.454161973058945 6.1327740745275605 0 6.1327740745275605 -4.6664449869622331 0 0 0 0 0.095695143803936844 -4.503210193181431 0 -4.503210193181431 6.3354186592033228 0 0 0 0 -24.196674809951219 8.1167147790713443 0 8.1167147790713443 7.147432343464061 0 0 0 0 -17.8745477743214 -51.543077255534627 0 -51.543077255534627 -12.796060651505286 0 0 0 0 -22.551715789617447 -60.088133701575316 0 -60.088133701575316 68.291917264914446 0 0 0 0 6.8446426329681103 -13.592621634392032 0 -13.592621634392032 9.8817635420938394 0 0 0 0 34.251463300704927 3.0454111386734439 0 3.0454111386734439 52.065317752782448 0 0 0 0 -6.5410132758697728 -86.072139163796749 0 -86.072139163796749 106.9608079469275 0 0 0 0 7.3308967120346722 -3.2925804758192214 0 -3.2925804758192214 9.5117458421661514 0 0 0 0 15.25935896723422 -0.12015214608524616 0 -0.12015214608524616 7.1224685523468452 0 0 0 0 22.052926364342483 -11.285481442420092 0 -11.285481442420092 3.9985841159867315 0 0 0 0 14.010049316247375 0.64658256900352162 0 0.64658256900352162 4.3044323403153015 0 0 0 0 18.655431135208346 -0.38138547727839978 0 -0.38138547727839978 6.7765089858110059 0 0 0 0 -35.44424569788498 -3.0146797561075687 0 -3.0146797561075687 40.09099007660825 0 0 0 0 70.219786956702592 20.670590849015753 0 20.670590849015753 35.018112835201464 0 0 0 0 -47.834320585068781 22.902627425745777 0 22.902627425745777 5.5644650823369375 0 0 0 0 -0.3580690191806184 -1.2102682586921674 0 -1.2102682586921674 2.6784648889866474 0 0 0 0 -31.379196787915134 -38.68550240821537 0 -38.68550240821537 29.539344284501567 0 0 0 0 109.36744744697353 -47.349989933886718 0 -47.349989933886718 50.093148949765975 0 0 0 0 260.69995752851537 29.613640695535651 0 29.613640695535651 17.267188797594827 0 0 0 0 11.133558721398003 17.509053463119471 0 17.509053463119471 85.426170071717934 0 0 0 0 217.10887137246027 95.4505404067977 0 95.4505404067977 10.898878478600636 0 0 0 0 530.1672976311238 -111.10940046255155 0 -111.10940046255155 234.64575925711688 0 0 0 0 528.96133714035568 -138.3782512217964 0 -138.3782512217964 16.56952156943953 0 0 0 0 467.22030600864673 -77.708135769019918 0 -77.708135769019918 -6.2167962601743056 0 0 0 0 500.91321778742713 -23.87089557733907 0 -23.87089557733907 65.838750471229787 0 0 0 0 557.61548952196608 -100.02950210532936 0 -100.02950210532936 -6.8834527881344911 0 0 0 0 521.89056080728187 -45.384421338333595 0 -45.384421338333595 30.543226032822531 0 0 0 0 654.85424652781512 -123.03958269835425 0 -123.03958269835425 -11.205407515027218 0 0 0 0 488.7343321096705 -99.09007533637805 0 -99.09007533637805 14.627237112947114 0 0 0 0 255.65741896908548 -8.4614558324096834 0 -8.4614558324096834 54.362758775046132 0 0 0 0 226.1911269443226 -35.169969826500392 0 -35.169969826500392 85.863743520502908 0 0 0 0 489.5779149442933 -95.667511266326358 0 -95.667511266326358 16.170684677623285 0 0 0 0 77.047333671769593 -9.8906728377994568 0 -9.8906728377994568 66.613343288464876 0 0 0 0 62.456788905758003 -4.4984212449675169 0 -4.4984212449675169 50.804782750246886 0 0 0 0 95.0301894324366 43.152094664406832 0 43.152094664406832 56.797567212562996 0 0 0 0 240.88630992070102 -18.598531520648294 0 -18.598531520648294 22.90308754342368 0 0 0 0 44.031831847016292 62.60969788134696 0 62.60969788134696 43.409100750860489 0 0 0 0 196.86738739846624 26.79109052646163 0 26.79109052646163 17.201864163796017 0 0 0 0 51.13922821948654 69.300446824514665 0 69.300446824514665 -35.599060159642477 0 0 0 0 -14.835346424035379 3.6531284688758774 0 3.6531284688758774 34.254348606685198 0 0 0 0 152.24693657044554 -114.15756205953267 0 -114.15756205953267 70.323860628070861 0 0 0 0 188.79346356557198 -29.05103194415657 0 -29.05103194415657 -9.2562052693795067 0 0 0 0 174.63337223563576 -68.498692862536643 0 -68.498692862536643 -73.488891561175564 0 0 0 0 22.015380784910633 -0.70989957674545678 0 -0.70989957674545678 -0.47399139428766324 0 0 0 0 17.385448989392899 -10.07233645020936 0 -10.07233645020936 -0.14837085903339259 0 0 0 0 4.3941824036737671 -44.923238611305635 0 -44.923238611305635 -86.801295722897322 0 0 0 0 173.9756862393624 -31.23987409785736 0 -31.23987409785736 0.2162045530493189 0 0 0 0 6.2947306131391088 -16.71316803311521 0 -16.71316803311521 107.66553648502574 0 0 0 0 3.2156704116398203 -0.45981376727013412 0 -0.45981376727013412 -0.30166667520153784 0 0 0 0 43.976402509695617 41.410631129875924 0 41.410631129875924 -73.625204539316229 0 0 0 0 30.592498511574377 3.0452100156495341 0 3.0452100156495341 -0.76042734261725331 0 0 0 0 31.035623980758828 -12.870801352403852 0 -12.870801352403852 -18.605245361485693 0 0 0 0 143.28177526964282 -28.063481593410522 0 -28.063481593410522 -65.746821491893286 0 0 0 0 -0.43725577202820887 2.2865906366405717 0 2.2865906366405717 0.95219423272484738 0 0 0 0 -38.663290988115477 -20.730722217173167 0 -20.730722217173167 -16.611109171386317 0 0 0 0 -57.355699811509112 -38.23604822968386 0 -38.23604822968386 4.3512522526197586 0 0 0 0 -173.82103006978286 -32.796580031972553 0 -32.796580031972553 18.45150882031885 0 0 0 0 -41.945476896886248 -12.185725333175355 0 -12.185725333175355 -14.275438468025754 0 0 0 0 18.438281815770068 16.717854758966155 0 16.717854758966155 1.7085147845093374 0 0 0 0 27.061491890985053 23.913596342293431 0 23.913596342293431 -4.2955205191005916 0 0 0 0 7.0409870134183024 1.0011175814151727 0 1.0011175814151727 0.11918388801354973 0 0 0 0 6.8734942561786738 32.328403289780226 0 32.328403289780226 -3.3537664532782401 0 0 0 0 -3.7575270093220752 24.688422832235574 0 24.688422832235574 -5.4845013635786017 0 0 0 0 -2.3688068666378967 35.068572271492712 0 35.068572271492712 45.523508408013186 0 0 0 0 13.870974645993556 26.588958501015668 0 26.588958501015668 32.16307357452888 0 0 0 0 -22.860073619362083 -10.633612665376177 0 -10.633612665376177 -4.8321633479767421 0 0 0 0 -48.271227520614048 16.758315813573745 0 16.758315813573745 67.895085454731543 0 0 0 0 11.290721936326008 63.080372012480893 0 63.080372012480893 -14.433828186550045 0 0 0 0 -7.3557283173940959 13.786050793654852 0 13.786050793654852 29.896843508021448 0 0 0 0 15.659758337810814 10.923070420336984 0 10.923070420336984 -0.90708898000557792 0 0 0 0 6.8218078442489585 5.9599958116328651 0 5.9599958116328651 4.7725069192457248 0 0 0 0 -21.829972565654316 89.729826346048412 0 89.729826346048412 4.7458353479173638 0 0 0 0 25.111490074956237 0.094245786492137995 0 0.094245786492137995 4.1450531556793067 0 0 0 0 61.496600790371303 13.414772358305527 0 13.414772358305527 -122.96887387459083 0 0 0 0 15.368405409954221 8.6517876044618589 0 8.6517876044618589 -7.0403622595838939 0 0 0 0 62.467249644687399 8.9915976123031669 0 8.9915976123031669 -260.16114241607056 0 0 0 0 36.57467935924069 187.57075972823372 0 187.57075972823372 -3.4876307683795176 0 0 0 0 442.62685777297884 184.37846104108212 0 184.37846104108212 -283.5148017459403 0 0 0 0 70.836036159074865 84.016619270490082 0 84.016619270490082 -309.28792256171801 0 0 0 0 163.89541886295774 -256.93416144799107 0 -256.93416144799107 128.02950650306241 0 0 0 0 1259.5120634894993 -744.67748314988569 0 -744.67748314988569 365.23997952971808 0 0 0 0 56.256531342471135 -167.62702073587781 0 -167.62702073587781 433.38320244042893 0 0 0 0 514.34980778783029 -386.25233377173913 0 -386.25233377173913 312.49588642075435 0 0 0 0 -0.039299936615861952 131.80105288902701 0 131.80105288902701 63.429307550298745 0 0 0 0 190.91871195405838 -99.04416018185691 0 -99.04416018185691 202.74480114276622 0 0 0 0 -31.866533921041992 57.366181263779822 0 57.366181263779822 243.29993785409329 0 0 0 0 551.69028720472124 -55.432232155004066 0 -55.432232155004066 -39.040819645332661 0 0 0 0 -68.706171640136745 -24.813177277878054 0 -24.813177277878054 55.544935945526944 0 0 0 0 49.904903512331657 73.523835982619573 0 73.523835982619573 51.249655600742301 0 0 0 0 55.773053279866872 -56.803341242484095 0 -56.803341242484095 208.70391331812218 0 0 0 0 525.13571491888433 -413.47614891029923 0 -413.47614891029923 216.93406886914062 0 0 0 0 1.0789973510719619 -1.5973178521743954 0 -1.5973178521743954 -0.29960111662420175 0 0 0 0 212.34215183705965 57.976980363226168 0 57.976980363226168 -54.049532294690373 0 0 0 0 707.93006871214311 -235.60311627501494 0 -235.60311627501494 163.8813156124655 0 0 0 0 1219.5622512016998 -615.24919369711438 0 -615.24919369711438 223.72744530803641 0 0 0 0 1389.2819146676193 -165.20875497410967 0 -165.20875497410967 1.4704681257142689 0 0 0 0 1215.0689983752491 -515.58958083606046 0 -515.58958083606046 65.961549518911795 0 0 0 0 642.38307759804593 -127.96654221809712 0 -127.96654221809712 -0.21356652132829776 0 0 0 0 280.21906990016214 -286.098292846204 0 -286.098292846204 193.77732961691405 0 0 0 0 3485.5628906055936 -3.9069803698994154 0 -3.9069803698994154 0.0035932374411461847 0 0 0 0 2353.9162455321339 -614.49381297094669 0 -614.49381297094669 -176.62703791210413 0 0 0 0 3.1783129937262515 -1.7288692771195855 0 -1.7288692771195855 -0.0054918569226951484 0 0 0 0 2337.3228688184172 -533.90092092802377 0 -533.90092092802377 -109.44169975184161 0 0 0 0 1384.9117455266605 -426.00034869668502 0 -426.00034869668502 -33.399157802651075 0 0 0 0 2296.8617379770149 -914.83424097260479 0 -914.83424097260479 71.509487609447817 0 0 0 0 2606.8300564407546 -542.75347016145906 0 -542.75347016145906 -202.82650825945515 0 0 0 0 2374.3072425532446 -950.10198109236126 0 -950.10198109236126 121.39047052142072 0 0 0 0 3495.2117278466808 -1049.4164815703532 0 -1049.4164815703532 -222.30830882865274 0 0 0 0 1294.5660695775296 -687.91088379693656 0 -687.91088379693656 220.3978053556952 0 0 0 0 2423.6504649733834 -1061.4408627525006 0 -1061.4408627525006 261.37832146816271 0 0 0 0 1647.7788424573228 -1706.3079041270564 0 -1706.3079041270564 1718.362419753784 0 0 0 0 1032.6472625978495 -1032.8817594140705 0 -1032.8817594140705 917.19292641039544 0 0 0 0 -223.38615954722627 -152.78106734162111 0 -152.78106734162111 694.06875809674636 0 0 0 0 3501.6751727730953 -137.47733075544923 0 -137.47733075544923 2865.8673811111967 0 0 0 0 4284.7129866776086 -1364.223715430931 0 -1364.223715430931 139.91616924846159 0 0 0 0 4440.4824001850575 -796.27119175613836 0 -796.27119175613836 1230.4309661330203 0 0 0 0 3500.421081985723 620.70155291718208 0 620.70155291718208 -473.4628077070571 0 0 0 0 2347.4475065150837 -7.833746094609694 0 -7.833746094609694 -659.79174254433588 0 0 0 0 1775.6030856365469 817.43218058763068 0 817.43218058763068 107.83118264071601 0 0 0 0 2187.5751124157978 1382.3830666381384 0 1382.3830666381384 524.64661760441061 0 0 0 0 196.22820381968631 270.35426567106225 0 270.35426567106225 355.7880398053216 0 0 0 0 25.546336597148184 -1.7315128146623222 0 -1.7315128146623222 1.4244753305695261 0 0 0 0 60.631011490379535 -4.2325566728664343 0 -4.2325566728664343 -0.51794101844401541 0 0 0 0 135.17805345293891 -92.301306353429084 0 -92.301306353429084 -254.78570535640972 0 0 0 0 300.63576696027303 -283.95783019199018 0 -283.95783019199018 -55.261582167238601 0 0 0 0 25.615839946345659 2.7684667617297691 0 2.7684667617297691 -16.434659540709617 0 0 0 0 50.642099266036411 -10.852830450211258 0 -10.852830450211258 -2.2802151053388555 0 0 0 0 46.326929424233668 1.8544127757170088 0 1.8544127757170088 -3.113292388195513 0 0 0 0 38.868882650155911 -0.97406054338411963 0 -0.97406054338411963 -6.6653806500785997 0 0 0 0 -16.312050205015112 -86.439704041380537 0 -86.439704041380537 -50.001932421403808 0 0 0 0 48.429777830948296 -9.2028506947654023 0 -9.2028506947654023 -1.0354596117143728 0 0 0 0 54.541209925781004 -1.6629104750877559 0 -1.6629104750877559 5.2730167819127018 0 0 0 0 8.7102979418749271 0.41563055899175083 0 0.41563055899175083 2.7908734137315001 0 0 0 0 -145.09265138638148 -2.1854992006342968 0 -2.1854992006342968 77.682504366705246 0 0 0 0 -112.23209773094277 -103.25992733591454 0 -103.25992733591454 326.04206740531288 0 0 0 0 871.58315527058585 -91.451369369975396 0 -91.451369369975396 -66.141183815468366 0 0 0 0 234.28623198664718 72.851866994986153 0 72.851866994986153 124.57396967779869 0 0 0 0 1.3634393551591586 6.4229523891288807 0 6.4229523891288807 10.794147761062007 0 0 0 0 40.964863979592337 -14.678718304477457 0 -14.678718304477457 22.610134257052323 0 0 0 0 51.530877263096045 -25.750276086292388 0 -25.750276086292388 29.732333781124453 0 0 0 0 50.124742891581718 -16.883158682360076 0 -16.883158682360076 19.806652663999103 0 0 0 0 1792.6197904098881 -526.83672066230019 0 -526.83672066230019 -295.47753741296697 0 0 0 0 1781.7439388400016 -579.37085701098363 0 -579.37085701098363 -472.14863759780826 0 0 0 0 3500.0912711418423 -170.76345156841813 0 -170.76345156841813 -756.40234024655967 0 0 0 0 21.137454533978598 25.614831489455128 0 25.614831489455128 1.6803427997406288 0 0 0 0 -469.95675634399231 -117.05942845600862 0 -117.05942845600862 10.362325001564841 0 0 0 0 29.762518574118815 7.5203230133275483 0 7.5203230133275483 0.81570232586163027 0 0 0 0 58.456612508016406 33.199941279725067 0 33.199941279725067 41.390936924016273 0 0 0 0 30.073082104849163 11.31201934235321 0 11.31201934235321 67.167796900282383 0 0 0 0 50.996664713602513 54.811984034186509 0 54.811984034186509 92.27556149730367 0 0 0 0 2.4728327127522789 11.843058385945199 0 11.843058385945199 133.77277927565297 0 0 0 0 -200.62782960002369 327.71741343131953 0 327.71741343131953 -273.77229062127049 0 0 0 0 28.615941806131872 4.4866332541006173 0 4.4866332541006173 -0.21136213567178494 0 0 0 0 15.096797498961678 55.393467969009123 0 55.393467969009123 229.67223717094453 0 0 0 0 7.684432177706185 32.509530130603622 0 32.509530130603622 193.47937728019656 0 0 0 0 501.98238611045235 140.92923332102691 0 140.92923332102691 -330.38610585844935 0 0 0 0 46.614724059589207 51.761580757609181 0 51.761580757609181 224.16990824025834 0 0 0 0 50.953634238627274 70.935443626637095 0 70.935443626637095 245.74656783991782 0 0 0 0 40.760920429293037 89.417791392282595 0 89.417791392282595 268.75425395739376 0 0 0 0 41.29305937528261 92.963781222517881 0 92.963781222517881 208.16559068112602 0 0 0 0 118.93500625481829 87.970390338955895 0 87.970390338955895 -158.26088752287569 0 0 0 0 148.01204584990046 73.909201048832074 0 73.909201048832074 -167.84082659423711 0 0 0 0 146.38383283688927 78.985825774581627 0 78.985825774581627 -44.950216085785542 0 0 0 0 11.815763282909757 51.177554068541212 0 51.177554068541212 41.906772711051872 0 0 0 0 -104.7720456062525 174.68164509490703 0 174.68164509490703 -79.2284586343294 0 0 0 0 141.09114286425756 -11.626137693895316 0 -11.626137693895316 68.553852932977406 0 0 0 0 46.306196052290034 -14.094122805389304 0 -14.094122805389304 118.88000751159257 0 0 0 0 110.38638995714427 47.689788571454073 0 47.689788571454073 17.297521346564281 0 0 0 0 215.33899878928787 117.39109469928826 0 117.39109469928826 -29.518190158897141 0 0 0 0 316.62657989368017 -21.868108511302466 0 -21.868108511302466 38.130365444210184 0 0 0 0 -42.621892036324425 -52.385464497740116 0 -52.385464497740116 18.988788823142606 0 0 0 0 149.96599214642629 90.887541587971896 0 90.887541587971896 -16.611876814106836 0 0 0 0 290.1237500513962 135.32990708593945 0 135.32990708593945 -7.2101843134942669 0 0 0 0 -1.9558129708906051 2.3079449589365453 0 2.3079449589365453 3.8812236031425282 0 0 0 0 153.1080109711329 128.41034904616981 0 128.41034904616981 0.4698942512306985 0 0 0 0 110.61133440075355 82.595089285664585 0 82.595089285664585 -17.471478806885898 0 0 0 0 -304.6745650517405 -47.527302858307735 0 -47.527302858307735 16.733221893422893 0 0 0 0 -4.9643821925718896 13.242704151263112 0 13.242704151263112 10.770364652548242 0 0 0 0 3.7546822531988227 2.6561204802768685 0 2.6561204802768685 1.1517162625399173 0 0 0 0 46.681657910579816 41.080259439734959 0 41.080259439734959 -15.375980526543572 0 0 0 0 -149.87487295911706 -21.132945486593144 0 -21.132945486593144 89.77567544545127 0 0 0 0 -77.169404742700863 113.02409069609621 0 113.02409069609621 -45.428596772463607 0 0 0 0 1.4518918506219052 212.16103709305389 0 212.16103709305389 77.0305349334526 0 0 0 0 -136.23548682838737 87.894776035657287 0 87.894776035657287 77.613455232543856 0 0 0 0 -205.10405547611299 66.81367360296872 0 66.81367360296872 203.55351587803762 0 0 0 0 -166.24221309115819 9.1302203947052476 0 9.1302203947052476 41.25472875904984 0 0 0 0 56.274439879358397 376.5256012436048 0 376.5256012436048 236.61265871441947 0 0 0 0 608.38227652617206 -75.711325340099393 0 -75.711325340099393 -229.12878981607173 0 0 0 0 24.294828489873908 240.65916685689217 0 240.65916685689217 -148.63499010423857 0 0 0 0 -124.93059658946368 181.72008408021978 0 181.72008408021978 513.44308905092566 0 0 0 0 -118.8036489271035 146.76400166069243 0 146.76400166069243 183.13895264793882 0 0 0 0 -205.78372618666617 78.023530161921371 0 78.023530161921371 299.89399068292732 0 0 0 0 -119.53288092842558 -3.857276552924759 0 -3.857276552924759 197.65729028558644 0 0 0 0 -118.37325826814049 -51.53925102780704 0 -51.53925102780704 490.61467806024285 0 0 0 0 383.26057751801636 -10.900555019090461 0 -10.900555019090461 -65.70190601407603 0 0 0 0 -110.91100419873692 -20.938058252299271 0 -20.938058252299271 5.0266412964921079 0 0 0 0 215.42970548580342 -212.5349582407955 0 -212.5349582407955 138.08738816820414 0 0 0 0 70.870090446405811 7.3731379241560262 0 7.3731379241560262 -149.34880393827598 0 0 0 0 -302.09511917553027 50.320469331304594 0 50.320469331304594 181.85273651919715 0 0 0 0 -425.64626714494079 -128.66186077915063 0 -128.66186077915063 75.625466459903691 0 0 0 0 -239.5030672250432 -271.10510794796846 0 -271.10510794796846 -342.53364597140171 0 0 0 0 -0.42383935665719719 5.402153718068579 0 5.402153718068579 2.7078473387871886 0 0 0 0 -201.1910708654832 -145.08467060092335 0 -145.08467060092335 -138.22816549513846 0 0 0 0 50.604327123903204 51.441030866916698 0 51.441030866916698 58.360069937174771 0 0 0 0 47.98576165600025 48.660585320228734 0 48.660585320228734 63.792100694334295 0 0 0 0 49.240993783110753 43.142596827709227 0 43.142596827709227 72.184568363832113 0 0 0 0 62.529812279273756 61.314492508893665 0 61.314492508893665 68.569336584485313 0 0 0 0 53.275033750367584 50.746955917499179 0 50.746955917499179 56.633479087399451 0 0 0 0 18.137924722594107 -16.184481057509004 0 -16.184481057509004 20.840754281787667 0 0 0 0 -36.598701172071742 -173.44980275819583 0 -173.44980275819583 -12.838451304404995 0 0 0 0 4.5911610850995572 -0.32423566522240321 0 -0.32423566522240321 3.3477896474661808 0 0 0 0 0.99809578196553161 -1.663317248929161 0 -1.663317248929161 0.27706683115386976 0 0 0 0 142.54442314757034 -54.459248148802089 0 -54.459248148802089 -19.643313791908611 0 0 0 0 132.81362210547377 117.1351529026341 0 117.1351529026341 132.64064565136368 0 0 0 0 126.52302023108496 95.887261122251857 0 95.887261122251857 61.510288135691553 0 0 0 0 84.791308981075417 72.557095263213569 0 72.557095263213569 48.51712727970687 0 0 0 0 89.644078055789578 110.11115685483287 0 110.11115685483287 69.175832353151236 0 0 0 0 80.884438138426958 104.38976999535413 0 104.38976999535413 77.391586148905617 0 0 0 0 64.135316278989194 101.83902047236452 0 101.83902047236452 81.565249738222235 0 0 0 0 65.509836261894634 117.73824527682157 0 117.73824527682157 113.38886484158297 0 0 0 0 31.881074915443605 81.002515537050726 0 81.002515537050726 151.53096419867563 0 0 0 0 39.928936658136081 77.680096654210388 0 77.680096654210388 126.34419084994397 0 0 0 0 30.025934098404832 58.755632912353327 0 58.755632912353327 93.411981449261162 0 0 0 0 53.010074869045638 78.30778401705652 0 78.30778401705652 105.23452847047187 0 0 0 0 55.271327633963665 134.45223452422943 0 134.45223452422943 167.63528318944304 0 0 0 0 55.316216091419847 136.84839315303185 0 136.84839315303185 243.62480126378239 0 0 0 0 57.764765641419217 122.25847297918148 0 122.25847297918148 228.00165614468233 0 0 0 0 39.976430118374992 94.559933172059829 0 94.559933172059829 210.36608798359086 0 0 0 0 40.043927924154559 91.310241820449477 0 91.310241820449477 163.84662801397093 0 0 0 0 67.886434995871241 140.10233276442395 0 140.10233276442395 170.04646379489623 0 0 0 0 64.920155079395045 125.79862417059928 0 125.79862417059928 125.88559961329383 0 0 0 0 98.747077629508567 190.26663910506909 0 190.26663910506909 165.03334181953301 0 0 0 0 96.429421474749688 152.05165720443051 0 152.05165720443051 101.99405183360068 0 0 0 0 106.16350108192637 156.87461098187515 0 156.87461098187515 101.50270172371438 0 0 0 0 101.21709064552851 143.22565942390975 0 143.22565942390975 64.646995282138278 0 0 0 0 88.501859435316874 103.97586887558782 0 103.97586887558782 40.158143984136132 0 0 0 0 116.88329025411804 88.536793631958517 0 88.536793631958517 -13.95776094342402 0 0 0 0 160.47175265353872 154.09667517570915 0 154.09667517570915 -16.541624558679413 0 0 0 0 141.962138025272 153.75533149418214 0 153.75533149418214 71.914410046184457 0 0 0 0 247.13604318783473 169.38417841345927 0 169.38417841345927 -102.0604278693913 0 0 0 0 125.38784833489626 -0.65732468039232117 0 -0.65732468039232117 -162.36143510801139 0 0 0 0 207.15614479970736 -11.642897565485448 0 -11.642897565485448 -303.02421040808247 0 0 0 0 169.89483491876308 193.94389232154742 0 193.94389232154742 -94.843478180162833 0 0 0 0 214.00969930701831 315.10455762919736 0 315.10455762919736 312.89935542784542 0 0 0 0 369.68018824302999 69.031652250447962 0 69.031652250447962 -17.128087271892923 0 0 0 0 225.58160271710949 220.02272978562939 0 220.02272978562939 350.36493967984302 0 0 0 0 100.50919019996945 204.47635043965545 0 204.47635043965545 268.56260113441289 0 0 0 0 87.498473376675975 150.50167093819286 0 150.50167093819286 278.23009491865037 0 0 0 0 61.338768927093042 142.82020542416029 0 142.82020542416029 338.95543848841214 0 0 0 0 220.3344527079098 211.28324725445361 0 211.28324725445361 64.059977424090448 0 0 0 0 298.82508697263984 110.82273034065429 0 110.82273034065429 59.012457005023066 0 0 0 0 9.2045345439686912 -9.9143188402090914 0 -9.9143188402090914 6.8295082866052601 0 0 0 0 -223.62778449479811 -753.74518051752466 0 -753.74518051752466 38.621363253807317 0 0 0 0 -290.88145105210424 -191.49774500885727 0 -191.49774500885727 154.56000416147356 0 0 0 0 376.02439157876688 131.76596818541725 0 131.76596818541725 98.626218369044182 0 0 0 0 362.38094286110572 102.38916522309069 0 102.38916522309069 57.330066152932886 0 0 0 0 3.1494167283229189 -3.6161975361098513 0 -3.6161975361098513 4.3534538892861887 0 0 0 0 -226.02202414972271 232.24037290845024 0 232.24037290845024 -140.13262786521798 0 0 0 0 -49.448460019662889 -185.93601921446449 0 -185.93601921446449 808.28070897667749 0 0 0 0 959.31210777242086 -272.88022664751105 0 -272.88022664751105 -171.07983465327254 0 0 0 0 -178.68207716533834 35.884277662249531 0 35.884277662249531 -207.12012971991453 0 0 0 0 -292.47558432618098 90.866212847870884 0 90.866212847870884 -51.690450832460954 0 0 0 0 261.26160410828015 329.77530892035247 0 329.77530892035247 -112.1798442178312 0 0 0 0 -503.46893018322953 -89.792798731224821 0 -89.792798731224821 176.17088321082792 0 0 0 0 -109.1984353976386 -154.39032507383712 0 -154.39032507383712 182.23087543956399 0 0 0 0 420.42298077285523 -888.4664137811842 0 -888.4664137811842 60.74024796726917 0 0 0 0 -291.50899002591905 -818.38068185994348 0 -818.38068185994348 408.25607367460589 0 0 0 0 -1098.4180003919464 354.6472771459371 0 354.6472771459371 224.49110750966429 0 0 0 0 -331.19211209105561 42.717797361576686 0 42.717797361576686 115.0956698358753 0 0 0 0 -1915.8894564388902 -779.59695763768332 0 -779.59695763768332 956.18842332210352 0 0 0 0 68.625614625692833 12.149088940749607 0 12.149088940749607 254.37939946230017 0 0 0 0 49.607794684940018 -6.0625933168381323 0 -6.0625933168381323 306.1374813201241 0 0 0 0 42.287221117832814 38.783418081557315 0 38.783418081557315 358.34795053755681 0 0 0 0 50.701119414497043 -24.330190340927512 0 -24.330190340927512 585.01237664209725 0 0 0 0 94.222339828978875 234.07499826648677 0 234.07499826648677 538.50693823880397 0 0 0 0 55.190006729957531 286.91734432092755 0 286.91734432092755 1017.8915305026526 0 0 0 0 13.527943616628477 0.61292509754274649 0 0.61292509754274649 0.42211567185727339 0 0 0 0 322.89086990235955 534.33347229670881 0 534.33347229670881 795.17026468597533 0 0 0 0 1092.1503796998295 113.86117338241547 0 113.86117338241547 -349.43765826507502 0 0 0 0 811.47837543611968 547.91491926803769 0 547.91491926803769 293.19074727819486 0 0 0 0 635.08056257400676 -724.91623629201626 0 -724.91623629201626 -597.21014805682057 0 0 0 0 2.6823786889195134 -1.428618249498868 0 -1.428618249498868 -0.11074793208874301 0 0 0 0 1297.4209051634789 925.25048761211394 0 925.25048761211394 184.15344144981555 0 0 0 0 -450.60079669509287 -731.60753208756796 0 -731.60753208756796 -228.15521134806522 0 0 0 0 330.18984939948132 -300.57898455361317 0 -300.57898455361317 19.248405418370112 0 0 0 0 587.23794040520806 -607.87679635574 0 -607.87679635574 41.85081194216896 0 0 0 0 0.281014341224882 0.14837233751013912 0 0.14837233751013912 7.8200385779756534 0 0 0 0 106.48347664841276 -72.984755609196441 0 -72.984755609196441 81.159359856300398 0 0 0 0 -137.56058801525342 -78.00667994719457 0 -78.00667994719457 181.78264133988887 0 0 0 0 49.700871321139857 -33.743783410169044 0 -33.743783410169044 54.996761844494358 0 0 0 0 34.587437252303062 60.837384261863519 0 60.837384261863519 67.315087871588617 0 0 0 0 876.54293589684676 -122.05944334423293 0 -122.05944334423293 -41.696093288372595 0 0 0 0 641.11945696493785 190.69147431427064 0 190.69147431427064 -179.23235118236971 0 0 0 0 -45.303472653344215 161.49741116357745 0 161.49741116357745 218.15084004024629 0 0 0 0 -35.490429457015125 6.1247580280833915 0 6.1247580280833915 57.66984641084764 0 0 0 0 50.971985438722186 5.6228316908214424 0 5.6228316908214424 -5.3401302221460867 0 0 0 0 0.17991188364690913 -1.6508174824248272 0 -1.6508174824248272 16.717381902878984 0 0 0 0 308.69841052521951 -279.35317346783904 0 -279.35317346783904 -64.099291349356463 0 0 0 0 -128.83143124499111 -104.30841422593403 0 -104.30841422593403 -51.296587073417868 0 0 0 0 10.09820858537725 -7.6308607155791606 0 -7.6308607155791606 -1.8158900098769131 0 0 0 0 1161.9044536180445 680.82668452937457 0 680.82668452937457 -38.606279118486782 0 0 0 0 -230.32289503857464 -258.88481827107353 0 -258.88481827107353 -105.774285404686 0 0 0 0 566.17341129254055 358.69938079385383 0 358.69938079385383 267.24340701601614 0 0 0 0 113.36844291307352 -146.9622106323236 0 -146.9622106323236 -155.66431036529116 0 0 0 0 20.53978716719746 -11.945655641938188 0 -11.945655641938188 0.9797443295094368 0 0 0 0 873.85554976962635 -7.1347048489778047 0 -7.1347048489778047 8.9593779827164326 0 0 0 0 -36.826005863425962 -175.43133094869881 0 -175.43133094869881 -120.7844539446744 0 0 0 0 711.93687072317698 847.02414482181848 0 847.02414482181848 916.49594826314387 0 0 0 0 1.7621180957342517 -2.8668238861984179 0 -2.8668238861984179 2.0942434032606752 0 0 0 0 416.27559188960731 -25.6892644160489 0 -25.6892644160489 578.11172659431668 0 0 0 0 856.52673124825378 432.55043324139479 0 432.55043324139479 144.77404905650201 0 0 0 0 441.94964654713112 -85.221125578583269 0 -85.221125578583269 57.210780646320814 0 0 0 0 347.99953398566868 153.78220464341553 0 153.78220464341553 219.88194954073333 0 0 0 0 1292.4064766873998 467.21937857436251 0 467.21937857436251 304.36191442438667 0 0 0 0 671.16544764762511 120.54296400427847 0 120.54296400427847 174.85914805445395 0 0 0 0 494.58900219612406 530.24931371373896 0 530.24931371373896 734.12091860404098 0 0 0 0 830.63554899624796 608.81895576107866 0 608.81895576107866 458.46195863866888 0 0 0 0 522.56333448641703 363.06822222809444 0 363.06822222809444 161.87613181317738 0 0 0 0 544.84052594036621 300.195478991046 0 300.195478991046 213.78242481004236 0 0 0 0 422.73812855719007 272.15565619619974 0 272.15565619619974 165.03594868038181 0 0 0 0 479.1181674887921 516.49248791342598 0 516.49248791342598 606.60519412771828 0 0 0 0 529.71249235341384 550.39195111576873 0 550.39195111576873 595.21489984882101 0 0 0 0 11.632716297547745 -0.43290447968405488 0 -0.43290447968405488 -3.0543464242112162 0 0 0 0 6.051676998660696 -21.6102899313126 0 -21.6102899313126 -25.857010985378125 0 0 0 0 61.651131779442949 24.039618791994272 0 24.039618791994272 -1.8148892538654877 0 0 0 0 -255.42467449250398 -76.115849657821173 0 -76.115849657821173 295.49408086745666 0 0 0 0 0.18217574118147439 -2.5690507351826426 0 -2.5690507351826426 15.82995080130441 0 0 0 0 175.47227333608316 -288.10386467494595 0 -288.10386467494595 12.87438312860013 0 0 0 0 306.36424434674518 221.071773344382 0 221.071773344382 80.077037572788868 0 0 0 0 96.409596346857143 51.075459356443034 0 51.075459356443034 -117.84925766671694 0 0 0 0 74.818267029670096 210.96653152540947 0 210.96653152540947 19.673509305618612 0 0 0 0 82.481300568568258 54.113687564391071 0 54.113687564391071 53.685244441366223 0 0 0 0 57.757700458590989 17.383951322464739 0 17.383951322464739 103.02686523219023 0 0 0 0 71.996468295472368 5.6564348097074886 0 5.6564348097074886 45.970897635562935 0 0 0 0 71.748564841116604 9.1942417334437749 0 9.1942417334437749 5.1229184423172676 0 0 0 0 94.324405595922144 45.100379964405555 0 45.100379964405555 -9.122352473618502 0 0 0 0 62.713363074042718 11.623599248034701 0 11.623599248034701 7.9956202840865345 0 0 0 0 19.375018990061449 -7.2596969862350527 0 -7.2596969862350527 2.612126643204653 0 0 0 0 17.614043510795454 -178.88613589722218 0 -178.88613589722218 -80.578466035425151 0 0 0 0 67.898126043728553 12.779834193218051 0 12.779834193218051 6.8388453727265883 0 0 0 0 68.375618898702669 9.8428398750676394 0 9.8428398750676394 0.73392279597339893 0 0 0 0 44.638688707200345 10.160003966529843 0 10.160003966529843 7.8868211099448118 0 0 0 0 76.110479607857997 0.24601851731657121 0 0.24601851731657121 2.3436832540082264 0 0 0 0 44.890997233623239 5.8445457369736111 0 5.8445457369736111 2.6966047408299119 0 0 0 0 100.1069341255934 -1.6380481707174397 0 -1.6380481707174397 -6.7970664582549887 0 0 0 0 73.343310428030236 7.0023624862658025 0 7.0023624862658025 -9.5862354744782579 0 0 0 0 50.210424229546334 -11.109168947123067 0 -11.109168947123067 6.8918157375173337 0 0 0 0 87.979315126955044 15.826004476576017 0 15.826004476576017 -26.370188916732722 0 0 0 0 86.865630952059291 15.983416912131261 0 15.983416912131261 -3.6248302502648926 0 0 0 0 87.458153457533626 14.479161624268784 0 14.479161624268784 -7.7107433068574665 0 0 0 0 71.24596833299438 6.0708497708346272 0 6.0708497708346272 -11.698772831785618 0 0 0 0 69.748967743376852 41.066963405348631 0 41.066963405348631 34.641090279811465 0 0 0 0 97.584009983365831 -4.8605063043087 0 -4.8605063043087 8.2379694691828718 0 0 0 0 126.7722725252097 7.3838468785492068 0 7.3838468785492068 -6.4638440845250216 0 0 0 0 72.580346781294793 -13.221244928512846 0 -13.221244928512846 3.716216991440092 0 0 0 0 115.30280883466185 -18.348415029050955 0 -18.348415029050955 3.733011062224648 0 0 0 0 72.100635031711136 -13.133353541875728 0 -13.133353541875728 7.0781353664138464 0 0 0 0 43.921782015517238 -26.337693383376575 0 -26.337693383376575 23.48101163635139 0 0 0 0 27.562919307340053 -21.762253862940725 0 -21.762253862940725 25.235116518094173 0 0 0 0 19.114100305363536 -33.13282651313682 0 -33.13282651313682 42.876560508353066 0 0 0 0 75.217609183644527 -48.485870027558235 0 -48.485870027558235 32.335923235778068 0 0 0 0 -112.75959025064367 -113.16219595548486 0 -113.16219595548486 136.36929496811081 0 0 0 0 105.82645876057359 -62.524439432978355 0 -62.524439432978355 51.99065811015447 0 0 0 0 2.3879818659874843 0.64328977060133852 0 0.64328977060133852 0.54800743386830808 0 0 0 0 112.31948812799237 125.79333590188628 0 125.79333590188628 87.463407611326829 0 0 0 0 136.91663126440835 -79.986548051499994 0 -79.986548051499994 160.93868115272551 0 0 0 0 117.73869144529453 78.257409397502727 0 78.257409397502727 145.03828087349132 0 0 0 0 70.032490415658685 5.9154346460470606 0 5.9154346460470606 35.6941447858703 0 0 0 0 199.16311105416389 1.9932334839606938 0 1.9932334839606938 8.0776864728176996 0 0 0 0 -10.624340136826504 5.2196135408553346 0 5.2196135408553346 2.1916152911174436 0 0 0 0 7.8833055008216206 1.5996405295737333 0 1.5996405295737333 -2.7079473463237171 0 0 0 0 -172.69956644585545 259.16717883897627 0 259.16717883897627 -111.21973368536692 0 0 0 0 49.168743901067501 42.746489456944005 0 42.746489456944005 -206.48522777591097 0 0 0 0 23.105222518785098 17.336732950165199 0 17.336732950165199 8.3041361227912081 0 0 0 0 27.29935524125176 69.319455750716372 0 69.319455750716372 18.752899739605311 0 0 0 0 21.70096097982605 65.193541662808457 0 65.193541662808457 -79.565936901701207 0 0 0 0 10.565490265362314 -16.817857715236897 0 -16.817857715236897 -101.06545944648474 0 0 0 0 4.3967731363081839 10.110941799478212 0 10.110941799478212 20.98379664562583 0 0 0 0 4.7867958920835179 6.1619335940306463 0 6.1619335940306463 1.5296686210631156 0 0 0 0 18.343765369136236 8.6179338271693382 0 8.6179338271693382 6.8844576603516998 0 0 0 0 -9.5473389490871341 -4.8679268897471388 0 -4.8679268897471388 37.602694030371026 0 0 0 0 27.249226215033559 -19.75695203913881 0 -19.75695203913881 32.561253152141987 0 0 0 0 11.775929553157766 -6.2323475815996687 0 -6.2323475815996687 25.090760038683129 0 0 0 0 24.652905068563996 -13.213146231624535 0 -13.213146231624535 22.693480894046061 0 0 0 0 19.455300344794523 -3.2782515665936671 0 -3.2782515665936671 17.875332550425924 0 0 0 0 21.98872225015657 -7.4193587100674847 0 -7.4193587100674847 13.735916544547223 0 0 0 0 24.470429918845184 -0.20202364500673298 0 -0.20202364500673298 10.94367388592002 0 0 0 0 19.657374040092691 -3.4483531726662022 0 -3.4483531726662022 17.742302230354881 0 0 0 0 28.538567721407162 24.307532128710708 0 24.307532128710708 7.246117570172359 0 0 0 0 11.949092400864146 7.0770789738060458 0 7.0770789738060458 1.1444981202892475 0 0 0 0 2.5266779269750259 13.955644277395749 0 13.955644277395749 -7.7499978225487212 0 0 0 0 1.0740992202410666 7.9543848143485363 0 7.9543848143485363 3.6298041364991587 0 0 0 0 29.571044494307099 11.193096023552798 0 11.193096023552798 -2.3367771991484441 0 0 0 0 15.920649458748269 8.4402555918587439 0 8.4402555918587439 5.4716984521419185 0 0 0 0 28.976241826858313 -18.78475054377455 0 -18.78475054377455 -4.0769174037680003 0 0 0 0 30.285952231210103 -5.1973316920116925 0 -5.1973316920116925 7.7694209208401048 0 0 0 0 27.144064442312811 -9.0974698166601726 0 -9.0974698166601726 3.0137437165118541 0 0 0 0 25.457371269505529 -8.0772400067560142 0 -8.0772400067560142 13.425737990806624 0 0 0 0 126.01980609048144 7.3330003934317673 0 7.3330003934317673 -17.010441631212178 0 0 0 0 27.104642386533669 -15.691314194098098 0 -15.691314194098098 17.541120139782901 0 0 0 0 31.129712138710602 -9.6991411279854987 0 -9.6991411279854987 17.710024966594574 0 0 0 0 27.250896244790056 -15.344449829461837 0 -15.344449829461837 7.7854475443413378 0 0 0 0 24.946097197054769 -13.715595983726757 0 -13.715595983726757 17.242923674561894 0 0 0 0 21.0962926397915 -8.9815432295899029 0 -8.9815432295899029 18.159012919297368 0 0 0 0 24.701999758952297 -10.475280031492559 0 -10.475280031492559 7.042280179909767 0 0 0 0 21.75900608691154 -22.58052909672751 0 -22.58052909672751 9.6786856246734096 0 0 0 0 28.531835217843764 -14.26137200676537 0 -14.26137200676537 3.6439049210654844 0 0 0 0 41.684927373658866 -5.9938594253867272 0 -5.9938594253867272 11.707646166501689 0 0 0 0 45.625162048024777 -6.6366830130462198 0 -6.6366830130462198 11.00567090728866 0 0 0 0 413.22774542425759 -108.57044903356291 0 -108.57044903356291 -116.24495362867128 0 0 0 0 6.4889954740501707 -4.1609719755671861 0 -4.1609719755671861 14.424260787502995 0 0 0 0 -404.82469956937712 286.76052725172849 0 286.76052725172849 100.18140291124746 0 0 0 0 -1.7340423669411251 -1.9740643151922832 0 -1.9740643151922832 3.1846242041467772 0 0 0 0 -303.3178591788419 176.7013579553975 0 176.7013579553975 -178.48386179829686 0 0 0 0 65.768163242557108 5.1880741483605597 0 5.1880741483605597 -16.489374378364015 0 0 0 0 512.75324246022501 -130.24776525728225 0 -130.24776525728225 -62.369016836721585 0 0 0 0 34.432779691230735 -10.418738155305268 0 -10.418738155305268 2.668646506680532 0 0 0 0 77.078462487252182 30.044508227760161 0 30.044508227760161 39.808592191771368 0 0 0 0 -211.05852674524067 14.978760593961852 0 14.978760593961852 -91.138952932588836 0 0 0 0 43.635772656482004 -6.2946335393050958 0 -6.2946335393050958 26.376615117646793 0 0 0 0 78.192429260461722 -5.8256171517227244 0 -5.8256171517227244 4.460496254967893 0 0 0 0 15.067161170195554 16.153207593859893 0 16.153207593859893 23.367099623159749 0 0 0 0 14.667677825415012 46.067354114606445 0 46.067354114606445 42.781769983437698 0 0 0 0 46.119083101257615 -2.0435359928816297 0 -2.0435359928816297 2.2976440148859645 0 0 0 0 58.219542110203747 -4.7732901786676507 0 -4.7732901786676507 -5.5985550742760806 0 0 0 0 129.7570396343217 54.582218557787769 0 54.582218557787769 -194.28230501174102 0 0 0 0 38.648650575385545 12.825282347352385 0 12.825282347352385 22.784317337322364 0 0 0 0 86.768454996587025 -21.347579368823347 0 -21.347579368823347 13.59762905772368 0 0 0 0 111.65898224950979 -0.7090310082979272 0 -0.7090310082979272 2.8729585530943496 0 0 0 0 110.95516736893296 14.844744377896234 0 14.844744377896234 5.3610437873528554 0 0 0 0 96.061261814706086 6.4496017500231346 0 6.4496017500231346 7.6526887357606483 0 0 0 0 69.55459034280716 -12.187263863658714 0 -12.187263863658714 16.701793398907284 0 0 0 0 52.98372908034883 17.682898886647134 0 17.682898886647134 -0.24240170771392133 0 0 0 0 81.986055881308857 -8.1193124971673569 0 -8.1193124971673569 11.426614738242392 0 0 0 0 89.345651248920049 17.080399664990136 0 17.080399664990136 5.1326798661532393 0 0 0 0 60.034511078975584 -9.6594842892814938 0 -9.6594842892814938 -3.3857216954384031 0 0 0 0 89.551090602082695 -7.4276545049277729 0 -7.4276545049277729 1.1931693510964578 0 0 0 0 25.6769928916693 5.3201706615949576 0 5.3201706615949576 5.4690664288575785 0 0 0 0 22.144846837945806 -259.24390889399137 0 -259.24390889399137 -175.05263750794325 0 0 0 0 59.473647706014162 10.052772951013139 0 10.052772951013139 8.5414821668175591 0 0 0 0 51.863862544472568 -0.053982803840401772 0 -0.053982803840401772 3.068500978414753 0 0 0 0 37.351214224967407 -10.450243871421435 0 -10.450243871421435 -31.979338538073307 0 0 0 0 -13.717094033301692 170.21630115789389 0 170.21630115789389 -86.834201453939386 0 0 0 0 7.6787234063077978 -0.75611880223985395 0 -0.75611880223985395 -0.027476060988064432 0 0 0 0 78.382717769214651 -2.2507848970890336 0 -2.2507848970890336 8.4175937515519763 0 0 0 0 100.45634288612519 -11.511629226514195 0 -11.511629226514195 11.981901817533071 0 0 0 0 60.984197124685693 0.090555874029938366 0 0.090555874029938366 2.6195341482058163 0 0 0 0 65.767328781192191 17.087758001679504 0 17.087758001679504 -20.792533423715213 0 0 0 0 103.82080926256542 -43.959938157816865 0 -43.959938157816865 -26.086393165235609 0 0 0 0 17.633022663358133 -20.528854205506832 0 -20.528854205506832 55.282960190559606 0 0 0 0 20.552026529670684 -2.354080868680029 0 -2.354080868680029 -5.2529647233145624 0 0 0 0 56.734397175950193 8.9774069966531016 0 8.9774069966531016 -14.029198789493684 0 0 0 0 24.310465121059678 3.53681693348517 0 3.53681693348517 -10.12888245726208 0 0 0 0 35.161047528949865 -1.7885941642453389 0 -1.7885941642453389 -9.7630105455726373 0 0 0 0 29.564998885757149 -9.5111052190274421 0 -9.5111052190274421 -7.7236990846835845 0 0 0 0 37.521128465334186 -5.4885970971781717 0 -5.4885970971781717 3.6904829417990186 0 0 0 0 79.154426647328364 3.3950789165510287 0 3.3950789165510287 -47.652198234502521 0 0 0 0 9.8204439028674066 -9.5234779050187512 0 -9.5234779050187512 0.28543180056377793 0 0 0 0 71.538350784707291 24.618611306852472 0 24.618611306852472 -65.165477477285094 0 0 0 0 11.062715801904716 0.34975493868248009 0 0.34975493868248009 1.6307257190983755 0 0 0 0 181.60578658887971 -70.596307346399044 0 -70.596307346399044 -73.078779582207062 0 0 0 0 92.166494571967633 6.8256291233233242 0 6.8256291233233242 -96.418050268832303 0 0 0 0 11.214889828596029 7.6326907452599713 0 7.6326907452599713 4.4913965027693976 0 0 0 0 -19.362220083134162 146.69894707644482 0 146.69894707644482 -22.681594419520025 0 0 0 0 246.48697148042265 -73.165222345673101 0 -73.165222345673101 -70.540113716529731 0 0 0 0 147.78020364990516 -49.941131915868937 0 -49.941131915868937 39.93847373359381 0 0 0 0 192.43321626522811 -41.203114549996826 0 -41.203114549996826 -55.366245422513657 0 0 0 0 178.01399952766951 -79.953147232268748 0 -79.953147232268748 -37.658442767883798 0 0 0 0 241.32355368667413 -81.236623283971767 0 -81.236623283971767 -40.504465892939606 0 0 0 0 19.098391116131097 -21.335892066650786 0 -21.335892066650786 216.376466040992 0 0 0 0 285.29513417487033 -141.86566650690111 0 -141.86566650690111 -5.745501187772561 0 0 0 0 248.84031736361794 -184.68671320448993 0 -184.68671320448993 89.297275980972017 0 0 0 0 7.1605704695733721 3.6693785746250072 0 3.6693785746250072 1.35311140079257 0 0 0 0 126.55501827168337 -122.68428870815387 0 -122.68428870815387 74.441497665630777 0 0 0 0 92.690189980712603 -97.066545790518376 0 -97.066545790518376 55.416303475496534 0 0 0 0 17.526440062632901 99.551295859240099 0 99.551295859240099 -110.86407224863478 0 0 0 0 2.5634135306960673 -0.90226957480449244 0 -0.90226957480449244 -1.8023259460807863 0 0 0 0 111.23244490579236 658.47027836086545 0 658.47027836086545 415.92739318482882 0 0 0 0 458.18032902316918 -126.74685168411895 0 -126.74685168411895 -29.729308028231117 0 0 0 0 321.87621558371757 210.47624905884823 0 210.47624905884823 394.98297196313933 0 0 0 0 -146.87827919537085 -491.40471023381815 0 -491.40471023381815 631.61651413627624 0 0 0 0 -254.58280018654477 -482.667890766038 0 -482.667890766038 1752.5243279808419 0 0 0 0 288.16418107418576 84.991535934991589 0 84.991535934991589 -60.701758957175571 0 0 0 0 -66.057379953337659 119.64160852055204 0 119.64160852055204 8.4302188169112924 0 0 0 0 216.55159775860375 -118.76793422602032 0 -118.76793422602032 -60.392550267569732 0 0 0 0 261.19102138136805 -81.945632060964044 0 -81.945632060964044 -30.11812812723565 0 0 0 0 164.61224602034781 38.238221269628411 0 38.238221269628411 -7.0298185782112341 0 0 0 0 149.8302026254587 -34.971957082219625 0 -34.971957082219625 -34.320867977724674 0 0 0 0 -15.516006217277976 -6.6316205441171476 0 -6.6316205441171476 9.2602172103419775 0 0 0 0 89.100143555966497 -24.458386569673792 0 -24.458386569673792 20.180639707067584 0 0 0 0 73.674196950221813 -2.5954989085128943 0 -2.5954989085128943 -9.2843398589922117 0 0 0 0 121.09264054281448 0.98283468457657364 0 0.98283468457657364 -77.995538632776373 0 0 0 0 128.112485676902 78.859755645120345 0 78.859755645120345 -60.552634358535499 0 0 0 0 65.509050112519617 41.520751611170837 0 41.520751611170837 8.6775823802061041 0 0 0 0 51.793449556200358 30.773729018523113 0 30.773729018523113 8.5837748953157806 0 0 0 0 15.286023993846186 -0.44913318850262129 0 -0.44913318850262129 2.819202904081652 0 0 0 0 191.40453806790538 38.531179498633605 0 38.531179498633605 7.0945894963028309 0 0 0 0 51.859295016970748 20.369318484425087 0 20.369318484425087 -1.5338484424509247 0 0 0 0 67.369022381175455 -2.4175188923243809 0 -2.4175188923243809 -34.51874067713112 0 0 0 0 62.888937181116489 34.703487325305069 0 34.703487325305069 -7.2424478495725708 0 0 0 0 68.904697263355047 4.0307263854596158 0 4.0307263854596158 -22.841279763798326 0 0 0 0 18.989280161407784 0.50776933992434437 0 0.50776933992434437 2.7337988687541763 0 0 0 0 74.008218766568461 -8.4300252586583611 0 -8.4300252586583611 5.955397643510878 0 0 0 0 57.005746149123297 30.869751317132682 0 30.869751317132682 12.999689839923462 0 0 0 0 26.31893534199736 -1.3672877851382879 0 -1.3672877851382879 0.6344668492921568 0 0 0 0 37.754704534452486 4.6982793385663513 0 4.6982793385663513 0.69129485655682221 0 0 0 0 38.586543770798016 38.125012319063863 0 38.125012319063863 11.347647997974775 0 0 0 0 74.844697945779686 13.400179603583503 0 13.400179603583503 7.9125267683910288 0 0 0 0 89.823516286265658 19.784290150980581 0 19.784290150980581 11.408998797074901 0 0 0 0 81.414758601757057 13.085052832772249 0 13.085052832772249 -18.006533887685578 0 0 0 0 70.261522340661031 -14.247801739541728 0 -14.247801739541728 -2.775300691497705 0 0 0 0 35.55867418006892 -11.157539699970187 0 -11.157539699970187 -0.74628865557497193 0 0 0 0 30.763650206529945 -8.9159600286908898 0 -8.9159600286908898 -4.9300269224342088 0 0 0 0 54.583250152616529 -25.281023964497763 0 -25.281023964497763 -15.232099218679991 0 0 0 0 34.150208736755303 -0.53282912799249971 0 -0.53282912799249971 -3.590409281337088 0 0 0 0 41.293825596089221 2.0781531417789125 0 2.0781531417789125 -2.6843445768867387 0 0 0 0 34.518796530755935 -10.621816480709185 0 -10.621816480709185 -8.7800139152868724 0 0 0 0 94.564611215828336 4.6703448846328683 0 4.6703448846328683 -45.240337577768514 0 0 0 0 35.119647528527196 -0.23616170763366995 0 -0.23616170763366995 -1.9436614480685215 0 0 0 0 69.388987916274345 31.534311796569284 0 31.534311796569284 7.7830681043442382 0 0 0 0 53.563306558450563 -17.662657368090457 0 -17.662657368090457 -12.947529979250156 0 0 0 0 85.18569585471414 -14.42333959577536 0 -14.42333959577536 6.8178846864293519 0 0 0 0 83.554097359316074 -5.3152839388062603 0 -5.3152839388062603 -40.50591526523931 0 0 0 0 48.128040359953786 -17.112050403007085 0 -17.112050403007085 -7.0222919676103714 0 0 0 0 18.624065478972625 -11.493290422145947 0 -11.493290422145947 -18.169573039565876 0 0 0 0 807.43514028171921 81.23103584248031 0 81.23103584248031 -432.29323448542618 0 0 0 0 57.15824207108006 3.7708261364817872 0 3.7708261364817872 -1.9901471008135569 0 0 0 0 17.443977175184045 -2.7552168457614243 0 -2.7552168457614243 -1.3849803586564544 0 0 0 0 693.23234981353744 243.12186143009603 0 243.12186143009603 190.03423473407349 0 0 0 0 -2112.0853207087202 -1543.9257523830211 0 -1543.9257523830211 -173.87888111021857 0 0 0 0 50.793811091160023 3.1608413539003095 0 3.1608413539003095 19.007091898215776 0 0 0 0 50.346126233809628 -0.71091573989883727 0 -0.71091573989883727 -0.66548354859378378 0 0 0 0 14.895971973153223 -3.3345935696641789 0 -3.3345935696641789 0.64248807043403922 0 0 0 0 54.288610235285887 25.677032423204764 0 25.677032423204764 17.198378326228521 0 0 0 0 84.398638087273866 81.998600243548026 0 81.998600243548026 88.456905343802418 0 0 0 0 3.0903319051799087 1.1259493407676189 0 1.1259493407676189 0.79159914231922768 0 0 0 0 323.69974683402688 -324.84301064162491 0 -324.84301064162491 143.01303923356429 0 0 0 0 16.41945641420898 28.357953803055125 0 28.357953803055125 158.08542256662736 0 0 0 0 1.4281020707712742 -9.4912883699446411 0 -9.4912883699446411 65.240798932463747 0 0 0 0 3.1035386437142733 89.560401287655168 0 89.560401287655168 86.818604173178755 0 0 0 0 19.494985732009809 -117.9924184320887 0 -117.9924184320887 24.651408863752749 0 0 0 0 14.865548040445873 8.7398095927892125 0 8.7398095927892125 -2.3570501484184545 0 0 0 0 50.063288148068125 -2.8901826095056862 0 -2.8901826095056862 -2.0644187849178772 0 0 0 0 81.49904091378653 19.452961657918124 0 19.452961657918124 -1.8400070034274076 0 0 0 0 -34.06537469416071 -76.821794204542698 0 -76.821794204542698 92.19888369610635 0 0 0 0 43.972584776012667 8.3783305825650345 0 8.3783305825650345 -2.9073055467451603 0 0 0 0 222.46035583606863 196.91488592475389 0 196.91488592475389 -219.96945851371356 0 0 0 0 51.518073584746162 6.4859771724609345 0 6.4859771724609345 -6.2267806797293588 0 0 0 0 8.9414658339098807 2.718182274730367 0 2.718182274730367 -0.60589459189477823 0 0 0 0 -8.5329667081205116 -247.97274900170322 0 -247.97274900170322 379.15624973018475 0 0 0 0 544.08620694513957 -12.525715386691445 0 -12.525715386691445 -279.7029735313601 0 0 0 0 219.16825301072822 203.13118314931342 0 203.13118314931342 87.368691651121253 0 0 0 0 130.62749725038884 -6.2285921741945458 0 -6.2285921741945458 -4.4720276375874164 0 0 0 0 142.51969385429402 16.583689760830111 0 16.583689760830111 -17.216864548413469 0 0 0 0 145.01409344280546 4.2048173976977523 0 4.2048173976977523 -12.48442133966546 0 0 0 0 110.31544191729336 1.8162719000533798 0 1.8162719000533798 -14.357897475921618 0 0 0 0 98.98042976391298 14.333702481465707 0 14.333702481465707 -7.8857928651032125 0 0 0 0 58.141759838912265 1.2343044255699951 0 1.2343044255699951 -5.1764279696074826 0 0 0 0 122.88644371138071 0.41384830787501414 0 0.41384830787501414 -19.171359671711343 0 0 0 0 143.50005785038229 -38.162838768473193 0 -38.162838768473193 33.444307413610659 0 0 0 0 123.60795024930121 17.876000291965283 0 17.876000291965283 -15.087589570173805 0 0 0 0 163.43007545635919 18.249881946098412 0 18.249881946098412 -19.65717136639023 0 0 0 0 166.57179372740302 -26.615146861153391 0 -26.615146861153391 -8.3816573407930264 0 0 0 0 125.13714172973414 -9.486969708109882 0 -9.486969708109882 -14.225815002651871 0 0 0 0 89.280337970150867 -35.67618475959398 0 -35.67618475959398 20.301390552548582 0 0 0 0 16.513826851219164 15.243078560775274 0 15.243078560775274 -6.3416168429267206 0 0 0 0 24.714244225586299 111.54338645910502 0 111.54338645910502 31.459257168633485 0 0 0 0 62.192879730984714 29.950670495631243 0 29.950670495631243 -2.5011898484972335 0 0 0 0 36.876824936496547 3.3480203529264827 0 3.3480203529264827 1.60815930655607 0 0 0 0 114.57120156771998 6.7249929200569341 0 6.7249929200569341 3.2053705204916696 0 0 0 0 119.75469523298671 7.8696577358680315 0 7.8696577358680315 -2.0107070581352673 0 0 0 0 40.627396994270384 7.0332909603703229 0 7.0332909603703229 5.0661414361165953 0 0 0 0 6.1502449779974171 -0.423586211078117 0 -0.423586211078117 -1.5899191988636083 0 0 0 0 127.86366392261698 21.985046752733979 0 21.985046752733979 15.914816049992623 0 0 0 0 32.912610826198943 37.213993987192339 0 37.213993987192339 30.260024488839463 0 0 0 0 18.050869531820354 3.311565515036591 0 3.311565515036591 93.449747272356035 0 0 0 0 104.00581976632748 -24.160843103294226 0 -24.160843103294226 -4.448219471559355 0 0 0 0 1.1612237074586744 -1.7486653839550712 0 -1.7486653839550712 0.80043424370011795 0 0 0 0 85.320946911728242 -84.307089251939033 0 -84.307089251939033 -56.971028552163261 0 0 0 0 -13.710493619844783 -60.626107887200305 0 -60.626107887200305 13.305452455424529 0 0 0 0 4.7604755709010647 -2.0251290373481936 0 -2.0251290373481936 -2.8261043755427568 0 0 0 0 82.452093166881241 -24.47297676037897 0 -24.47297676037897 -23.385172435737331 0 0 0 0 38.469503247693837 -9.9878495244166459 0 -9.9878495244166459 -2.8051204271624091 0 0 0 0 38.814286791879567 4.7417727871693387 0 4.7417727871693387 -2.3557743292362829 0 0 0 0 75.494508580537513 -33.068257962800999 0 -33.068257962800999 -4.3462566835214602 0 0 0 0 92.227860904924455 12.383972701550647 0 12.383972701550647 -16.792503683538598 0 0 0 0 141.77098174317507 -10.971717305176753 0 -10.971717305176753 -42.619807351432883 0 0 0 0 109.90598791799857 -63.740592241886134 0 -63.740592241886134 -43.335143975911706 0 0 0 0 195.23472024192779 66.013745187808979 0 66.013745187808979 0.37348280681544566 0 0 0 0 173.36012350712554 -46.671698838840712 0 -46.671698838840712 -72.494911320457732 0 0 0 0 25.537447627451911 -10.54032484777008 0 -10.54032484777008 0.4203888498213928 0 0 0 0 34.546682410174981 24.098559872883925 0 24.098559872883925 88.040359043780427 0 0 0 0 22.922294910091296 48.79048566005747 0 48.79048566005747 -14.026021873857644 0 0 0 0 61.915477215501596 -14.598876888297582 0 -14.598876888297582 -33.191818274950492 0 0 0 0 24.615954523013102 3.4623676545455524 0 3.4623676545455524 -0.83842936662855827 0 0 0 0 73.243900628469419 -46.151089284464661 0 -46.151089284464661 46.295634965171416 0 0 0 0 34.714831229604897 -0.67771136581507108 0 -0.67771136581507108 -2.9500109587429506 0 0 0 0 70.249552748364295 -27.128824692216924 0 -27.128824692216924 -3.8059399055148333 0 0 0 0 46.806620091243531 -28.455130246131318 0 -28.455130246131318 21.360077842555881 0 0 0 0 61.640523888316238 -7.04383199997676 0 -7.04383199997676 12.996511342869098 0 0 0 0 77.855065006922814 28.079519437186264 0 28.079519437186264 64.76269769752173 0 0 0 0 38.291690172234667 12.828409768634202 0 12.828409768634202 10.66105048158181 0 0 0 0 7.7038541673100553 -13.033668124283849 0 -13.033668124283849 20.100504933934488 0 0 0 0 73.570103074928738 -12.47809858385888 0 -12.47809858385888 -5.8185202153439377 0 0 0 0 239.1108610005831 72.2305004985393 0 72.2305004985393 -9.1366546667522925 0 0 0 0 0.54023719109896717 -0.85971889235982246 0 -0.85971889235982246 -1.003946919480768 0 0 0 0 74.219844884610211 26.755128233219352 0 26.755128233219352 -61.736916037727497 0 0 0 0 -122.6523546831595 43.547569440219092 0 43.547569440219092 314.20724573116485 0 0 0 0 263.50751668855082 17.607447495220867 0 17.607447495220867 -106.48327261506984 0 0 0 0 1.5341546110656594 -2.8771756204440209 0 -2.8771756204440209 3.0899162119674513 0 0 0 0 6.4562056733229838 -21.538176356974901 0 -21.538176356974901 15.636607432347773 0 0 0 0 89.169337104045553 -81.989712644471012 0 -81.989712644471012 9.2584631834810125 0 0 0 0 220.65943979912117 -86.715345440884107 0 -86.715345440884107 -28.310777595773857 0 0 0 0 134.66559478131239 -36.853103385613508 0 -36.853103385613508 -6.4048644893723576 0 0 0 0 130.82855273463065 -54.271748609431029 0 -54.271748609431029 -39.997260905688222 0 0 0 0 214.72650733489718 -18.294905385109132 0 -18.294905385109132 -39.970285237776125 0 0 0 0 125.16018395886204 24.239558473257773 0 24.239558473257773 9.2727622314250766 0 0 0 0 204.83874054337502 20.928948590392366 0 20.928948590392366 -2.583848501792545 0 0 0 0 174.93967956906999 64.018011887381135 0 64.018011887381135 43.676070961885557 0 0 0 0 260.30761819546751 135.07534715270515 0 135.07534715270515 143.25682892943405 0 0 0 0 481.96786385282758 -457.58211715673201 0 -457.58211715673201 202.73242793847521 0 0 0 0 4.6627669523268764 2.3544237944586257 0 2.3544237944586257 1.3798960854745959 0 0 0 0 52.292610077602149 278.50779173397439 0 278.50779173397439 55.669286405551929 0 0 0 0 227.35088907717 -188.60682031706324 0 -188.60682031706324 -20.333293037495984 0 0 0 0 -1.6165794660765016 0.93399803697536754 0 0.93399803697536754 2.5834544524740242 0 0 0 0 0.97252020291489316 139.56648440262211 0 139.56648440262211 64.382967552398441 0 0 0 0 69.497281278192531 -101.99098790383391 0 -101.99098790383391 -17.274015052331606 0 0 0 0 49.33339691436413 -96.00494391211646 0 -96.00494391211646 93.119993692310572 0 0 0 0 1.1113553736389861 -0.64380664895700335 0 -0.64380664895700335 2.8499201990396763 0 0 0 0 82.564927679552056 -10.104588880466508 0 -10.104588880466508 -5.6172419254771739 0 0 0 0 30.836131534531887 24.071240382862584 0 24.071240382862584 41.371054355953902 0 0 0 0 3.0634847268200351 -2.2918583648162496 0 -2.2918583648162496 0.67842657261198092 0 0 0 0 -8.4469221820618259 -9.5705340253724671 0 -9.5705340253724671 33.056264049756237 0 0 0 0 138.56077398321963 33.491114084262698 0 33.491114084262698 20.70695300898069 0 0 0 0 138.34314387306182 19.787981438134373 0 19.787981438134373 -6.9053010262007319 0 0 0 0 -0.11421066832107307 -1.3975950128188686 0 -1.3975950128188686 0.3996072507799322 0 0 0 0 120.11206125880562 55.170169579715321 0 55.170169579715321 20.641314432346348 0 0 0 0 128.9899749920005 30.160055235421169 0 30.160055235421169 50.518933395307258 0 0 0 0 131.74327965864177 31.705017872217837 0 31.705017872217837 47.333656718869861 0 0 0 0 129.14578667310707 27.962512911578187 0 27.962512911578187 46.912555301590686 0 0 0 0 130.99579283031926 33.620089535278396 0 33.620089535278396 50.54868079719347 0 0 0 0 150.53398302134883 -10.538394845257926 0 -10.538394845257926 23.745754811578308 0 0 0 0 173.98163845056297 20.278383784043278 0 20.278383784043278 2.5921538949119167 0 0 0 0 159.2623402322497 45.626516521068652 0 45.626516521068652 17.875234504421087 0 0 0 0 178.16336768191832 20.513184870362039 0 20.513184870362039 -0.7323806974140723 0 0 0 0 178.15429215293989 25.595200535554525 0 25.595200535554525 -45.582882806300063 0 0 0 0 146.43282050701964 -20.996519777056847 0 -20.996519777056847 108.24546929607959 0 0 0 0 134.6815729545051 44.167395127341251 0 44.167395127341251 144.04291408562995 0 0 0 0 158.0920047894906 40.208289899473357 0 40.208289899473357 40.850270891510263 0 0 0 0 188.45611981438924 76.053523375263239 0 76.053523375263239 83.139983825870331 0 0 0 0 133.57130718172266 54.08463493173906 0 54.08463493173906 81.653042393098985 0 0 0 0 131.45542021054644 45.013064761930195 0 45.013064761930195 48.499735677590252 0 0 0 0 131.60601879660862 19.606792905715167 0 19.606792905715167 84.395514722696134 0 0 0 0 131.07186389404524 27.059936415714219 0 27.059936415714219 70.862690255869893 0 0 0 0 133.05702331194971 24.076018714540652 0 24.076018714540652 50.736268152567391 0 0 0 0 125.55263405346159 29.990804406428708 0 29.990804406428708 9.8009685356823866 0 0 0 0 126.19707948580617 25.147061714358074 0 25.147061714358074 43.023684345915626 0 0 0 0 141.63910338391725 60.208758291477807 0 60.208758291477807 33.918196047558013 0 0 0 0 132.16301020429819 50.06125251298954 0 50.06125251298954 23.053191199365529 0 0 0 0 122.48692520808254 46.343859536830223 0 46.343859536830223 66.086320593592063 0 0 0 0 128.71173248249397 49.982792624213289 0 49.982792624213289 45.234208125537407 0 0 0 0 111.84889937087428 60.6119013686166 0 60.6119013686166 46.945455818247069 0 0 0 0 118.76719855805277 57.888489204298821 0 57.888489204298821 42.274885015211112 0 0 0 0 103.96916552301991 43.164863809166945 0 43.164863809166945 29.796253525306383 0 0 0 0 130.5166531306968 108.3680039336557 0 108.3680039336557 52.37636599324378 0 0 0 0 214.80333882317063 100.31058226444384 0 100.31058226444384 27.928852571645621 0 0 0 0 135.48330510340747 68.127675834537513 0 68.127675834537513 27.218391923671334 0 0 0 0 129.12568495154846 76.191111912232373 0 76.191111912232373 51.032177935812797 0 0 0 0 83.461018475660239 64.909737738506919 0 64.909737738506919 55.14759452296903 0 0 0 0 25.698716428005369 -3.3085517376407267 0 -3.3085517376407267 -0.53744514376557007 0 0 0 0 36.438467214204138 77.343890949803153 0 77.343890949803153 43.620047914343104 0 0 0 0 381.07939776120475 -46.998009697777093 0 -46.998009697777093 -119.72615216736449 0 0 0 0 84.736812143753923 26.223969181677603 0 26.223969181677603 -15.918157458874703 0 0 0 0 91.390352143491327 50.73262694662435 0 50.73262694662435 26.354952081978809 0 0 0 0 116.5995932159567 27.348959335545715 0 27.348959335545715 -7.5906832984236416 0 0 0 0 118.70570939783283 36.358030658994039 0 36.358030658994039 15.83329393992517 0 0 0 0 140.97923470061505 15.638853152133379 0 15.638853152133379 -8.7780796734268733 0 0 0 0 144.05591458648269 25.377911839152603 0 25.377911839152603 4.6641056525832028 0 0 0 0 170.33801572169978 25.061311855898339 0 25.061311855898339 3.2419194332533152 0 0 0 0 142.16821771387913 45.624882340872318 0 45.624882340872318 39.723404240328932 0 0 0 0 141.81751474937482 40.246982666662461 0 40.246982666662461 16.30340788968897 0 0 0 0 113.86262380970584 47.803885982432348 0 47.803885982432348 49.699525985470018 0 0 0 0 139.32259847210662 -65.663349759954016 0 -65.663349759954016 -69.119391953140507 0 0 0 0 -45.628690263052704 90.385902717062891 0 90.385902717062891 9.1545876844638769 0 0 0 0 160.59060067791143 84.470051739945575 0 84.470051739945575 -42.67963596486652 0 0 0 0 56.971058260882273 22.762660686697131 0 22.762660686697131 64.941018852020079 0 0 0 0 380.81503145079478 -54.790805663761603 0 -54.790805663761603 -174.95863154192944 0 0 0 0 78.385673017401132 106.49759845404878 0 106.49759845404878 172.92873279257685 0 0 0 0 4.5681019853187763 -0.43092866710059496 0 -0.43092866710059496 -0.26551146089452482 0 0 0 0 290.6016092163627 299.98244267345126 0 299.98244267345126 213.44739304264328 0 0 0 0 459.43331645463331 85.866601566829303 0 85.866601566829303 -208.70339875299101 0 0 0 0 11.908531775159645 23.826595580207368 0 23.826595580207368 13.706240450126643 0 0 0 0 142.52145199767256 -76.990375104376199 0 -76.990375104376199 -45.206077552517854 0 0 0 0 14.769097642027191 3.7248786154946174 0 3.7248786154946174 27.482576248969963 0 0 0 0 1.5716556574350022 -2.5078460623164887 0 -2.5078460623164887 1.2513956881322379 0 0 0 0 -2.4989703798260052 8.9521489307620783 0 8.9521489307620783 25.066964076540899 0 0 0 0 -2.1631139831879409 15.263148149266272 0 15.263148149266272 25.132494106466766 0 0 0 0 4.9243379936597194 12.01285679355783 0 12.01285679355783 9.0631979941717873 0 0 0 0 4.2300506812171079 14.976468865416791 0 14.976468865416791 31.224409240580599 0 0 0 0 37.771616060839733 17.401321860614189 0 17.401321860614189 24.576828260476987 0 0 0 0 65.306758988808724 20.481666978381554 0 20.481666978381554 20.019287784423796 0 0 0 0 28.77876960937283 18.280207660968017 0 18.280207660968017 14.067233678939374 0 0 0 0 41.147721395813278 -1.7549107000872937 0 -1.7549107000872937 29.328798302350151 0 0 0 0 32.419704809100949 -11.30532666531235 0 -11.30532666531235 -14.149856829229066 0 0 0 0 40.998958272815798 8.3490650103449298 0 8.3490650103449298 13.927383389881243 0 0 0 0 46.428065621046699 -1.407407348036827 0 -1.407407348036827 26.099493472472204 0 0 0 0 77.775563348608557 4.8452191681499244 0 4.8452191681499244 10.65197591111064 0 0 0 0 97.66255109780468 26.177367134943779 0 26.177367134943779 16.01583773606626 0 0 0 0 64.911334215452371 19.143683055902216 0 19.143683055902216 30.327529196563319 0 0 0 0 102.37029236078524 18.618348417311154 0 18.618348417311154 23.505591445076334 0 0 0 0 121.75848613401467 38.315420434541011 0 38.315420434541011 19.511705718649068 0 0 0 0 146.20172062866732 29.74220923656253 0 29.74220923656253 8.7741773126972475 0 0 0 0 104.40400200044678 2.1228092782544081 0 2.1228092782544081 14.46688333154907 0 0 0 0 93.615797413716791 17.250004318478204 0 17.250004318478204 21.996174863246779 0 0 0 0 254.8836684950511 12.658726292300344 0 12.658726292300344 15.377918294321717 0 0 0 0 152.24132624090998 37.935454514251433 0 37.935454514251433 16.125758842377763 0 0 0 0 81.302124437293969 18.965358643937179 0 18.965358643937179 60.957288218862232 0 0 0 0 144.64104487052464 -17.675511471000334 0 -17.675511471000334 31.430951945227207 0 0 0 0 155.4943894642347 -39.604075904851925 0 -39.604075904851925 101.87762615179781 0 0 0 0 389.8443950972769 40.78577359886782 0 40.78577359886782 -266.27273557793524 0 0 0 0 103.60880442839394 35.753053400627969 0 35.753053400627969 12.42785164772145 0 0 0 0 279.3449874689104 -11.233108273053404 0 -11.233108273053404 57.230396834904241 0 0 0 0 8.5805321123004887 31.685803722433011 0 31.685803722433011 1.7123502517854776 0 0 0 0 68.226363957379363 114.77551398450396 0 114.77551398450396 148.32743506521501 0 0 0 0 64.60212483236063 20.577457179462819 0 20.577457179462819 9.4245744591429776 0 0 0 0 1.0135322054702556 60.307613389449443 0 60.307613389449443 54.609854701376548 0 0 0 0 87.318701976393641 108.32880075374396 0 108.32880075374396 -39.332289581397163 0 0 0 0 43.137177072663405 7.8056681070190699 0 7.8056681070190699 2.5281368352558919 0 0 0 0 34.318737526875339 -4.5916216123468985 0 -4.5916216123468985 4.4147805169436651 0 0 0 0 81.314787156703403 27.603918850620531 0 27.603918850620531 23.115647611679378 0 0 0 0 68.542281098598323 -13.48213827102586 0 -13.48213827102586 28.487580194225302 0 0 0 0 -7.7236461365537252 24.173801471969909 0 24.173801471969909 31.431311822671887 0 0 0 0 22.204984711133875 3.4678836517518903 0 3.4678836517518903 25.914560629586049 0 0 0 0 286.23077507765265 40.103654169393849 0 40.103654169393849 -147.51881480777956 0 0 0 0 63.016480262457264 28.519242264686703 0 28.519242264686703 12.151144578658304 0 0 0 0 1.0948870764950698 36.837130663276071 0 36.837130663276071 4.7434959650690871 0 0 0 0 14.326506254423293 115.83301364859108 0 115.83301364859108 -6.7665015972621632 0 0 0 0 88.10910809514462 -18.567585556979736 0 -18.567585556979736 76.833600519686456 0 0 0 0 -12.219911041727755 83.936916287486042 0 83.936916287486042 171.84079364629406 0 0 0 0 65.638964683262998 111.30234373057131 0 111.30234373057131 122.75212597372706 0 0 0 0 65.094527934375719 28.255575327840312 0 28.255575327840312 12.360506602231741 0 0 0 0 41.485341952080489 30.884580916252503 0 30.884580916252503 14.12467583613261 0 0 0 0 -141.88012755126692 -172.74423129791285 0 -172.74423129791285 139.72455889369667 0 0 0 0 26.856669005574076 108.70397729537461 0 108.70397729537461 -4.2200388190422302 0 0 0 0 29.837360390709364 69.070046175700895 0 69.070046175700895 -69.693888369025046 0 0 0 0 24.645593828783888 0.045878457756344915 0 0.045878457756344915 -1.3236026414253126 0 0 0 0 62.697496892797062 100.778341909272 0 100.778341909272 -202.37406252689868 0 0 0 0 55.706017363496358 21.504148517890599 0 21.504148517890599 -205.75923322908824 0 0 0 0 83.144580281164963 56.407358495292897 0 56.407358495292897 -257.99766131645958 0 0 0 0 40.232110334211029 103.96108108031649 0 103.96108108031649 -97.056140371012702 0 0 0 0 19.134292604816437 21.347628908571465 0 21.347628908571465 -92.749801420986785 0 0 0 0 37.17014381406625 63.183376026516626 0 63.183376026516626 -22.62146781059505 0 0 0 0 41.743695084587671 80.067176623181837 0 80.067176623181837 -17.625233789583319 0 0 0 0 23.384397950043422 103.29459114597647 0 103.29459114597647 -37.644270259946268 0 0 0 0 58.658188054600032 93.028221920354383 0 93.028221920354383 -24.100604334695362 0 0 0 0 40.677558562543709 87.483904978377211 0 87.483904978377211 -2.60558696064885 0 0 0 0 74.512771305489878 73.070416061210778 0 73.070416061210778 -11.90551390572216 0 0 0 0 71.332515786431031 63.007277173957505 0 63.007277173957505 -43.491133345879859 0 0 0 0 74.078150755027309 63.374154361568571 0 63.374154361568571 -39.936942757153986 0 0 0 0 100.2958074707567 41.753659933690102 0 41.753659933690102 -28.949781591848875 0 0 0 0 95.205151463209404 26.435431398924788 0 26.435431398924788 36.909795564274646 0 0 0 0 88.170419299427522 58.607032157352393 0 58.607032157352393 0.25613571115252398 0 0 0 0 89.30774497303355 68.885832319211175 0 68.885832319211175 -17.157874746775008 0 0 0 0 72.241261923409184 68.860978753544913 0 68.860978753544913 6.5608639018176973 0 0 0 0 72.283208770066267 81.22290701412507 0 81.22290701412507 -0.8420280019095685 0 0 0 0 73.476045401388546 73.120429802033698 0 73.120429802033698 20.896575660166093 0 0 0 0 62.564902945392532 89.767547343327522 0 89.767547343327522 55.060200653214508 0 0 0 0 64.576876904116943 75.269624322746893 0 75.269624322746893 21.075350267096049 0 0 0 0 61.848317059797409 76.566004537699712 0 76.566004537699712 51.380565329320916 0 0 0 0 11.082886675721966 86.271122092301823 0 86.271122092301823 154.45230262760705 0 0 0 0 0.19632247775848555 -0.052902103847943138 0 -0.052902103847943138 0.024480143758117925 0 0 0 0 40.148128166096285 56.790423142645523 0 56.790423142645523 64.436265754080694 0 0 0 0 36.228954072495981 99.521735857668858 0 99.521735857668858 -47.03230512031719 0 0 0 0 45.954682426952786 87.955439476090447 0 87.955439476090447 108.04391257104419 0 0 0 0 55.146161767712329 132.2150820688903 0 132.2150820688903 92.921297221877992 0 0 0 0 54.000465128046926 107.66359747568123 0 107.66359747568123 91.34081991342417 0 0 0 0 48.571462974410679 80.911004398122344 0 80.911004398122344 59.299858779600754 0 0 0 0 46.797253659417038 128.69388069188301 0 128.69388069188301 0.045270462722484625 0 0 0 0 52.570129897474544 96.044550164361965 0 96.044550164361965 43.054334454298527 0 0 0 0 60.502563069501775 110.9717769029558 0 110.9717769029558 22.520091747557615 0 0 0 0 49.002804452597047 97.288970153521618 0 97.288970153521618 11.309844364352394 0 0 0 0 61.366816723937518 99.324351969234925 0 99.324351969234925 40.372000558638888 0 0 0 0 67.532749846111983 126.54276905824099 0 126.54276905824099 56.98601719675468 0 0 0 0 50.102504188893363 87.544363519347399 0 87.544363519347399 28.47146476804383 0 0 0 0 41.850544189073844 95.931399488100439 0 95.931399488100439 20.126938163463279 0 0 0 0 63.325666586626539 84.060894560102369 0 84.060894560102369 22.188041996497816 0 0 0 0 56.543931033229455 90.708432734222185 0 90.708432734222185 18.1205907179897 0 0 0 0 69.80371022210602 77.368744212005851 0 77.368744212005851 -2.1679198625605522 0 0 0 0 55.379568604184897 85.809276389162818 0 85.809276389162818 -2.4278058633566388 0 0 0 0 37.725393531458394 87.83870892707921 0 87.83870892707921 16.328940503422672 0 0 0 0 30.207775618997402 101.5573449321369 0 101.5573449321369 -2.4650826692298224 0 0 0 0 45.205307784344768 95.302617527960848 0 95.302617527960848 20.379443679005902 0 0 0 0 43.150065936148167 87.918791898247463 0 87.918791898247463 0.046120903039675511 0 0 0 0 73.133400994775002 68.348199724227456 0 68.348199724227456 9.9637061478628084 0 0 0 0 23.703385058819549 73.711476030936879 0 73.711476030936879 24.028363892706388 0 0 0 0 148.95856233646919 23.34899367737853 0 23.34899367737853 -126.81720483907429 0 0 0 0 103.25108763768611 28.82847845287418 0 28.82847845287418 3.5643836318749464 0 0 0 0 129.01671015596366 -27.388869567851998 0 -27.388869567851998 -42.324196692502028 0 0 0 0 145.30141446769994 21.191711244886392 0 21.191711244886392 -10.56744029920992 0 0 0 0 123.26091312014876 34.395748977455369 0 34.395748977455369 4.9772349504814795 0 0 0 0 170.10805738243562 215.49917304463355 0 215.49917304463355 -2.3274432759594674 0 0 0 0 135.12379852305457 17.427109070611095 0 17.427109070611095 -9.2590660589194158 0 0 0 0 140.67583426139026 26.770628365852644 0 26.770628365852644 -16.054461879795781 0 0 0 0 117.10950634209075 28.515787570414886 0 28.515787570414886 -7.5877904735989432 0 0 0 0 83.214874575933209 34.813641626087701 0 34.813641626087701 -4.7593701871323901 0 0 0 0 121.78438240193464 33.904806080796789 0 33.904806080796789 -39.425023565638185 0 0 0 0 94.238083966547492 58.570762671923148 0 58.570762671923148 -43.242810985430879 0 0 0 0 145.31521988709574 -34.837466899537731 0 -34.837466899537731 -0.92446767212663872 0 0 0 0 81.74028323348881 22.152270657477366 0 22.152270657477366 4.8394002205511057 0 0 0 0 93.307618189515779 57.38243405592641 0 57.38243405592641 -4.5608805977078646 0 0 0 0 74.001521371625131 35.299981954780094 0 35.299981954780094 -1.5785696862163263 0 0 0 0 32.706169120505308 17.085307377892576 0 17.085307377892576 16.76233067450238 0 0 0 0 102.90682861207461 37.861684783757298 0 37.861684783757298 -4.0140562425681878 0 0 0 0 76.551052054011961 62.624493752646316 0 62.624493752646316 0.3832892629171738 0 0 0 0 106.60053808460361 17.023674441518779 0 17.023674441518779 28.052823412885118 0 0 0 0 4.147668351353559 25.34958152509903 0 25.34958152509903 13.865460638045363 0 0 0 0 4.2011002584185917 27.256367461728857 0 27.256367461728857 30.351607402265302 0 0 0 0 11.237086559160474 11.529664066842741 0 11.529664066842741 2.8865607147091619 0 0 0 0 26.734481922874693 21.721404993544724 0 21.721404993544724 8.6567277158058715 0 0 0 0 55.623685485566966 57.951767208025615 0 57.951767208025615 26.37334747925928 0 0 0 0 25.549446068180259 31.790019694659293 0 31.790019694659293 38.941400663198365 0 0 0 0 57.93175239439006 51.582806453214232 0 51.582806453214232 34.210651654193839 0 0 0 0 -11.98476054094499 -4.6512149856801006 0 -4.6512149856801006 -0.19172299960117231 0 0 0 0 8.1817779120465275 34.648177965238574 0 34.648177965238574 125.41013853473439 0 0 0 0 3.8054247792460956 10.076373257925468 0 10.076373257925468 96.802279935527423 0 0 0 0 40.663547356598428 54.886257731289859 0 54.886257731289859 71.470532530891887 0 0 0 0 7.5815934446145548 -8.5969370978423285 0 -8.5969370978423285 21.112172715774307 0 0 0 0 -1.2517789801640902 -4.8878820212274263 0 -4.8878820212274263 52.523567291217368 0 0 0 0 17.522434200858697 32.237288101220543 0 32.237288101220543 54.653075801739419 0 0 0 0 0.58060304592368084 1.7720996564365858 0 1.7720996564365858 0.34763499514010765 0 0 0 0 -8.5457158272984088 -1.1497767929136566 0 -1.1497767929136566 2.9219544065530121 0 0 0 0 13.789761672291206 10.470223645703925 0 10.470223645703925 -4.1485538978744501 0 0 0 0 10.251869052473921 2.3179838047395078 0 2.3179838047395078 0.073077602801654068 0 0 0 0 13.355846991267754 17.871507273045623 0 17.871507273045623 17.906306846052757 0 0 0 0 9.3651503252403927 -5.4962304916369931 0 -5.4962304916369931 -25.220066056160071 0 0 0 0 126.1348288024019 -75.650411306894284 0 -75.650411306894284 198.30590739897286 0 0 0 0 7.8075661405013648 -1.112765637329403 0 -1.112765637329403 -1.1153816180586487 0 0 0 0 144.91906502257916 -104.5348651567665 0 -104.5348651567665 21.663113670252699 0 0 0 0 134.04562086537771 -88.370850365920433 0 -88.370850365920433 46.310794593423452 0 0 0 0 224.35152082031709 -195.60470502013789 0 -195.60470502013789 -3.913234121123935 0 0 0 0 170.46450577565338 -53.419662757697495 0 -53.419662757697495 -83.599849022032231 0 0 0 0 469.0685911532637 -74.469965831845684 0 -74.469965831845684 -526.39674509861243 0 0 0 0 9.3148218257963435 17.195314912387417 0 17.195314912387417 2.4860322651712918 0 0 0 0 236.71930990874534 45.524697171545768 0 45.524697171545768 -337.12339348215426 0 0 0 0 9.3289003153143426 -1.4764799047042638 0 -1.4764799047042638 -1.0142449877682775 0 0 0 0 743.48521480191266 -152.25464102017315 0 -152.25464102017315 -0.21347706120305809 0 0 0 0 95.530775595208979 -282.45997248405706 0 -282.45997248405706 501.34560603372086 0 0 0 0 678.28500686101324 -491.73599104574117 0 -491.73599104574117 8.0874144652742572 0 0 0 0 317.03850052534835 -234.66512374250215 0 -234.66512374250215 389.82458464127666 0 0 0 0 458.19658587053709 509.08968092957497 0 509.08968092957497 113.98360355786451 0 0 0 0 923.82890464831144 142.76238755229218 0 142.76238755229218 -595.27669750355653 0 0 0 0 -643.04643254878465 -5.9010769718312304 0 -5.9010769718312304 -122.06358121649259 0 0 0 0 -153.05326126159343 197.93973671117976 0 197.93973671117976 0.43940847317864606 0 0 0 0 3.3619082047080155 174.61559677758592 0 174.61559677758592 -165.25810105331351 0 0 0 0 -26.43799669740838 153.48709329629963 0 153.48709329629963 -63.981296316617943 0 0 0 0 -66.032145670877071 457.52706826706014 0 457.52706826706014 -402.56411253421027 0 0 0 0 3.2883622623048723 225.70274893575026 0 225.70274893575026 -68.166143957176743 0 0 0 0 66.332019512337865 3.0500601725059369 0 3.0500601725059369 -0.6003144770641029 0 0 0 0 55.580844993208302 12.174851348076118 0 12.174851348076118 -3.7076183927127886 0 0 0 0 46.525960293300159 75.056165446788953 0 75.056165446788953 -176.63546001909347 0 0 0 0 54.932214539522533 14.505447350994139 0 14.505447350994139 -0.81449102546801866 0 0 0 0 90.171255816792836 12.250690841238395 0 12.250690841238395 -534.18271623505291 0 0 0 0 57.711007050105508 16.376215144809478 0 16.376215144809478 -7.8892761453948079 0 0 0 0 55.183099385059904 12.465672894915315 0 12.465672894915315 -17.871609975808951 0 0 0 0 -226.44466066497262 173.63472103823136 0 173.63472103823136 -66.706909407487387 0 0 0 0 63.069726692406221 10.496823123780466 0 10.496823123780466 -4.0732335431826385 0 0 0 0 897.30874833656708 164.68199514422599 0 164.68199514422599 -522.10247771504282 0 0 0 0 -59.182328120397869 321.84814625409217 0 321.84814625409217 -415.45003035600007 0 0 0 0 19.03833618917605 5.5943766416799576 0 5.5943766416799576 -3.5199640645314094 0 0 0 0 54.853942974113806 13.075349932460519 0 13.075349932460519 1.4648720856953077 0 0 0 0 10.414959116023965 27.268038248000906 0 27.268038248000906 -0.35524382453997128 0 0 0 0 87.900884253198456 12.109661367972308 0 12.109661367972308 -0.30572919582937175 0 0 0 0 1.3402896763545868 77.096475663759833 0 77.096475663759833 -7.6561059438223946 0 0 0 0 -20.347088675305713 129.63806382892417 0 129.63806382892417 -131.234388413094 0 0 0 0 56.884154951349046 16.351062028064916 0 16.351062028064916 9.6666346356599888 0 0 0 0 75.360674775183725 4.1676864416829176 0 4.1676864416829176 9.0892643113652412 0 0 0 0 47.441010102693156 4.5862307053462246 0 4.5862307053462246 -2.6862309251890641 0 0 0 0 85.237880884553306 17.000491950052492 0 17.000491950052492 17.179230920183954 0 0 0 0 54.685112791816209 6.7663452535763327 0 6.7663452535763327 -6.6951441305850494 0 0 0 0 52.811419619625667 4.6308606636295622 0 4.6308606636295622 3.0308732726800827 0 0 0 0 44.644114090298359 -4.8722890563247603 0 -4.8722890563247603 -4.865282477971892 0 0 0 0 41.640508728596615 8.8365504184084784 0 8.8365504184084784 16.92518192234354 0 0 0 0 42.10394806041586 -4.6717928097414188 0 -4.6717928097414188 -3.9126998092388021 0 0 0 0 51.294527214049594 11.283347581401358 0 11.283347581401358 -4.5603555289808355 0 0 0 0 45.022370011855259 9.9749896841665802 0 9.9749896841665802 -1.7300269183652368 0 0 0 0 3.9617420745303207 -5.3151424870436159 0 -5.3151424870436159 -2.220719355839389 0 0 0 0 50.558957315290172 -1.5125268853757916 0 -1.5125268853757916 -27.164056276492374 0 0 0 0 46.407224339091044 7.3414491242228905 0 7.3414491242228905 -2.2410019783419557 0 0 0 0 37.607137930943281 -7.1623729234374878 0 -7.1623729234374878 -2.6097691523245885 0 0 0 0 21.473624236502019 -7.4158041458385497 0 -7.4158041458385497 -7.2686215816572144 0 0 0 0 58.725179821922211 -0.65186999144589208 0 -0.65186999144589208 -9.0736954742724265 0 0 0 0 30.926504951415751 -6.5847604841670915 0 -6.5847604841670915 -2.8162676420340951 0 0 0 0 137.54510067787487 27.787873846570619 0 27.787873846570619 -1.6130570142559009 0 0 0 0 85.962572520777655 11.551979679515298 0 11.551979679515298 -9.5149139241214655 0 0 0 0 149.98905181494047 39.992388141460765 0 39.992388141460765 6.4437448837470583 0 0 0 0 132.33686507912353 21.384472136376189 0 21.384472136376189 3.7590065604763367 0 0 0 0 132.47115718055147 23.72033586046507 0 23.72033586046507 -2.4540593700075988 0 0 0 0 31.096393043496292 -8.6324029541448368 0 -8.6324029541448368 -8.2292663914969388 0 0 0 0 124.11172328286921 15.497201579339162 0 15.497201579339162 10.134312741844951 0 0 0 0 149.42855391476769 22.339723421393501 0 22.339723421393501 3.2568022063815079 0 0 0 0 141.29862418933772 20.105765762387819 0 20.105765762387819 -1.5327796218234653 0 0 0 0 145.85578166257619 25.498300293966622 0 25.498300293966622 -10.9994962876317 0 0 0 0 144.38367863501117 15.452949538962457 0 15.452949538962457 -9.181948305127662 0 0 0 0 141.56063696004276 19.38179748179391 0 19.38179748179391 -13.191805660639147 0 0 0 0 155.2249882001779 14.16266878685974 0 14.16266878685974 -8.1451953506167456 0 0 0 0 141.15736354539695 14.689835109429623 0 14.689835109429623 -8.1422859893136774 0 0 0 0 138.78915651318675 14.513823118717482 0 14.513823118717482 -4.4844520938722781 0 0 0 0 137.10130969621969 8.4054926834405705 0 8.4054926834405705 5.1721664743226938 0 0 0 0 152.39963984195492 26.040689613442055 0 26.040689613442055 2.6134740047670562 0 0 0 0 97.206270744034555 30.989407135100919 0 30.989407135100919 -0.10859498441169535 0 0 0 0 113.0669397805832 0.92107296244694226 0 0.92107296244694226 -2.6183051896323377 0 0 0 0 133.21271728285501 15.855739119786222 0 15.855739119786222 -8.3274981193590065 0 0 0 0 127.11147848845576 4.0764193453542248 0 4.0764193453542248 -6.0857821842366775 0 0 0 0 133.55521116692398 8.4879424768105309 0 8.4879424768105309 -3.1199746966485691 0 0 0 0 112.87518992363403 7.972063395882742 0 7.972063395882742 5.1280340396624524 0 0 0 0 55.011560050959815 10.921403404933244 0 10.921403404933244 -4.7441689468141703 0 0 0 0 125.69977579379338 55.753882832370437 0 55.753882832370437 1.8716763714105582 0 0 0 0 77.859350754446496 4.3462498250166846 0 4.3462498250166846 1.1931450607189618 0 0 0 0 7.9136278117077552 0.49681637122293409 0 0.49681637122293409 -2.1496979198502366 0 0 0 0 95.10359621293901 22.50997714022742 0 22.50997714022742 -10.4108773467633 0 0 0 0 57.416260662444984 17.642520848200547 0 17.642520848200547 5.6146209145445027 0 0 0 0 51.846431672733161 6.6295702701590926 0 6.6295702701590926 -2.2774365721270442 0 0 0 0 104.29934304415656 26.963187333724363 0 26.963187333724363 -8.771168538224174 0 0 0 0 0.84620684201689755 -0.52824434146621968 0 -0.52824434146621968 -0.89621472611266029 0 0 0 0 63.6156191567934 -6.283790779915762 0 -6.283790779915762 -10.003561513847671 0 0 0 0 17.808352541513159 -8.8247334347986452 0 -8.8247334347986452 1.79251123103586 0 0 0 0 89.498805265830015 -3.0619678377170203 0 -3.0619678377170203 -16.846739480424731 0 0 0 0 88.341433553068782 35.224258608749096 0 35.224258608749096 3.7875436653987435 0 0 0 0 94.859596236761718 28.255228474515661 0 28.255228474515661 9.968462752726964 0 0 0 0 65.430952792557946 3.7506486704057806 0 3.7506486704057806 -23.295266650390658 0 0 0 0 83.364783423719928 34.220940276633883 0 34.220940276633883 3.6816362618883431 0 0 0 0 72.664028383424011 8.7313592215687095 0 8.7313592215687095 -41.224233880384418 0 0 0 0 92.660559076255595 48.299002798573611 0 48.299002798573611 -17.832875544241688 0 0 0 0 108.38741995216697 47.438578913835272 0 47.438578913835272 -30.214318183860996 0 0 0 0 93.255230072318227 54.468650523193901 0 54.468650523193901 -4.9454111460545391 0 0 0 0 129.08084642476024 105.01573972821689 0 105.01573972821689 -0.28377833302238287 0 0 0 0 89.917825817542507 66.274637030841504 0 66.274637030841504 50.444916192362598 0 0 0 0 84.569398903149704 75.941554609297555 0 75.941554609297555 41.016855255826385 0 0 0 0 84.303422812750796 77.036129538406385 0 77.036129538406385 111.00255698144247 0 0 0 0 118.41815899102221 34.996231832370995 0 34.996231832370995 58.600963289006131 0 0 0 0 121.52419029307202 15.504082973604682 0 15.504082973604682 160.9024474260126 0 0 0 0 147.38852559288352 20.123877298253205 0 20.123877298253205 42.148968517039066 0 0 0 0 219.68342076388217 7.6033872431302143 0 7.6033872431302143 44.072298840424082 0 0 0 0 130.85366483392136 1.5351727356749052 0 1.5351727356749052 25.128844304681479 0 0 0 0 98.623606541841582 44.886528426898849 0 44.886528426898849 53.971405467295881 0 0 0 0 186.64505877145712 46.616847157637039 0 46.616847157637039 -0.77221806073157495 0 0 0 0 184.94511101208627 29.063210913469902 0 29.063210913469902 -5.585770501755178 0 0 0 0 217.7457042652386 58.852802726866003 0 58.852802726866003 18.056242566086439 0 0 0 0 209.29299565014844 55.60790933472569 0 55.60790933472569 25.543242819277566 0 0 0 0 214.83352198658849 87.591471622291095 0 87.591471622291095 42.115337735731828 0 0 0 0 -48.511075345864811 -200.81561966389881 0 -200.81561966389881 -215.88289836568549 0 0 0 0 25.811208918887132 -7.078075810732571 0 -7.078075810732571 -64.485253677697983 0 0 0 0 11.913222323981458 -10.978582645972367 0 -10.978582645972367 3.4467589392849156 0 0 0 0 72.800570387793414 13.283848058314675 0 13.283848058314675 -65.340568851327589 0 0 0 0 158.48684065533598 76.868356549081909 0 76.868356549081909 -59.576577105910928 0 0 0 0 76.652557466630242 8.6214846594511982 0 8.6214846594511982 -66.082905750647569 0 0 0 0 18.962486262447783 -32.220876476018475 0 -32.220876476018475 -42.892242628801796 0 0 0 0 49.619236110182101 -22.24184868274051 0 -22.24184868274051 -70.540858792770905 0 0 0 0 67.867769488053455 10.436626795876236 0 10.436626795876236 -33.754183738802567 0 0 0 0 12.713045276229394 -8.4841328693085956 0 -8.4841328693085956 -1.3445707746454225 0 0 0 0 149.67425455580815 53.069274013357244 0 53.069274013357244 33.325163827701317 0 0 0 0 132.86470164707862 44.209111351918182 0 44.209111351918182 19.33398466818926 0 0 0 0 148.42262270809078 48.03466009611526 0 48.03466009611526 15.466187533627362 0 0 0 0 155.37687500014727 35.640661826128962 0 35.640661826128962 -17.474019268137454 0 0 0 0 59.85277167397544 5.5761055115526688 0 5.5761055115526688 -8.3919567114153324 0 0 0 0 29.123649488014053 -21.509163363647986 0 -21.509163363647986 -25.420878676162715 0 0 0 0 7.7264691904841243 -0.095664752320644197 0 -0.095664752320644197 -0.076238704940873703 0 0 0 0 74.662036502646515 3.0167782816674844 0 3.0167782816674844 -2.2562288404715218 0 0 0 0 129.94135030393863 26.005124528707853 0 26.005124528707853 0.3346655648210799 0 0 0 0 6.5039625075521084 5.5872038601045659 0 5.5872038601045659 1.1772939099160826 0 0 0 0 41.13904859696413 -12.61268986447385 0 -12.61268986447385 -3.8771388632521848 0 0 0 0 17.909447640719108 -11.054459351576853 0 -11.054459351576853 -6.2890203246231451 0 0 0 0 47.401143023467739 20.031959746154826 0 20.031959746154826 9.1522509781761983 0 0 0 0 135.71566974993721 10.322404252023631 0 10.322404252023631 -28.846072147373889 0 0 0 0 73.522171590157086 5.8240385898311615 0 5.8240385898311615 -4.9470448214697171 0 0 0 0 137.02259962720564 28.81930978954415 0 28.81930978954415 -8.6154624999344378 0 0 0 0 0.56226318055292523 0.32603787320441313 0 0.32603787320441313 -0.036246194690459532 0 0 0 0 217.16665263173491 32.552112125180429 0 32.552112125180429 -23.128769147348521 0 0 0 0 192.29416266630869 17.465877381137943 0 17.465877381137943 -32.10086068382293 0 0 0 0 152.81543915058865 37.203197561141224 0 37.203197561141224 -2.1382191675556896 0 0 0 0 178.27656953725455 15.437546665084483 0 15.437546665084483 -30.620876654240419 0 0 0 0 196.90106798019406 32.087416661373481 0 32.087416661373481 -15.758309790021485 0 0 0 0 198.34603786329853 14.653255130667105 0 14.653255130667105 -35.366244716881738 0 0 0 0 182.21914380195085 10.991774658202303 0 10.991774658202303 -34.503679426979943 0 0 0 0 185.12316472421662 18.945877996717172 0 18.945877996717172 -19.080997583035241 0 0 0 0 173.99564396737696 7.2678243405466674 0 7.2678243405466674 -12.814244294806485 0 0 0 0 170.58327214020392 0.65104062753562175 0 0.65104062753562175 -12.859105526967141 0 0 0 0 175.98774608515669 8.2169357780139762 0 8.2169357780139762 -2.281748420367876 0 0 0 0 177.45321756579506 8.3428662746082409 0 8.3428662746082409 -24.987173356521907 0 0 0 0 184.17037204644657 23.197025067949994 0 23.197025067949994 -1.7997322073715623 0 0 0 0 157.56643161294778 12.564040001568173 0 12.564040001568173 3.5450354359863923 0 0 0 0 168.2329627097497 13.233206715278357 0 13.233206715278357 -4.8831149802731488 0 0 0 0 223.65401094700792 60.35768730089012 0 60.35768730089012 -35.87218088598172 0 0 0 0 165.49455176806805 6.10654543691453 0 6.10654543691453 6.5577135945350165 0 0 0 0 121.7022403121365 16.982097598493141 0 16.982097598493141 -1.0583187009014363 0 0 0 0 165.98979296681136 11.145715951105785 0 11.145715951105785 7.1562030330160269 0 0 0 0 169.52544735405536 4.9987313178057775 0 4.9987313178057775 -2.4272574179703952 0 0 0 0 126.43974796210387 -0.29454409703089368 0 -0.29454409703089368 14.275033259553311 0 0 0 0 16.895463822103196 6.6246694091632321 0 6.6246694091632321 0.66761756117951521 0 0 0 0 73.34095424530642 6.7913431022499253 0 6.7913431022499253 -11.891353681279725 0 0 0 0 47.44783643813571 -14.227629941052328 0 -14.227629941052328 7.8949982202848332 0 0 0 0 53.778129976278933 40.178777792937339 0 40.178777792937339 4.8890913570243999 0 0 0 0 149.02871453152329 13.932096166952761 0 13.932096166952761 -13.21439359603778 0 0 0 0 14.606811928252284 16.352312967580566 0 16.352312967580566 -3.9076067867194242 0 0 0 0 27.842780967963009 2.4266097131113895 0 2.4266097131113895 -1.0171264019536572 0 0 0 0 131.77653272700991 28.399179941909551 0 28.399179941909551 -0.70829160679932102 0 0 0 0 142.24439926798368 19.566966092871098 0 19.566966092871098 -9.5858048840650554 0 0 0 0 81.22119084073347 7.899871962468751 0 7.899871962468751 14.00942740050391 0 0 0 0 100.77330644337053 12.54195794190764 0 12.54195794190764 6.0416680610831008 0 0 0 0 32.041127540625652 -7.8070575656646213 0 -7.8070575656646213 -0.53061575438391362 0 0 0 0 91.428584767156281 13.15871388529149 0 13.15871388529149 8.1886515623341438 0 0 0 0 75.06884248970124 14.005980430078999 0 14.005980430078999 3.8510205930558854 0 0 0 0 101.14635165849177 19.700295419737813 0 19.700295419737813 3.3683877726118681 0 0 0 0 107.01663288346754 16.412435464311784 0 16.412435464311784 3.4636242581741499 0 0 0 0 18.046131616834895 6.757446233826812 0 6.757446233826812 7.8386580928443408 0 0 0 0 59.052874679677188 27.664868448388006 0 27.664868448388006 35.936240792945682 0 0 0 0 98.574642693987698 17.967018483509719 0 17.967018483509719 6.203712915271808 0 0 0 0 105.40590015653288 5.0020287810025366 0 5.0020287810025366 1.6343678266114239 0 0 0 0 59.519230007583246 -70.822340982548084 0 -70.822340982548084 41.328363096005319 0 0 0 0 75.304685836526914 59.677158291706746 0 59.677158291706746 30.573139624419468 0 0 0 0 27.177974718398787 -11.169430002692444 0 -11.169430002692444 3.3555354271831703 0 0 0 0 96.620206131163286 -16.588846771292083 0 -16.588846771292083 -85.716393475830046 0 0 0 0 10.428678819225752 -18.707094034160033 0 -18.707094034160033 0.13410263995851801 0 0 0 0 -14.252418852396659 -4.0658638049760611 0 -4.0658638049760611 -7.2085375301417116 0 0 0 0 20.674692734112043 -7.7403501976460234 0 -7.7403501976460234 -10.820759699583194 0 0 0 0 98.150761381384655 5.3017703469850517 0 5.3017703469850517 4.6677129947820504 0 0 0 0 59.86537456957646 0.62762370332458772 0 0.62762370332458772 -3.3043901333229067 0 0 0 0 117.14806220286846 17.466735149228612 0 17.466735149228612 -0.39072654040705856 0 0 0 0 16.146647886622574 5.6113771247628677 0 5.6113771247628677 3.9576094219850817 0 0 0 0 58.103849542079104 -16.105134175886008 0 -16.105134175886008 -6.9410890211061176 0 0 0 0 57.334759332137764 -23.822355701192276 0 -23.822355701192276 -0.036552021092416696 0 0 0 0 95.293558076024055 1.1305096403464177 0 1.1305096403464177 -1.046755863411363 0 0 0 0 74.638007519708481 -9.5045204391099105 0 -9.5045204391099105 -1.8671219144475799 0 0 0 0 91.420732707576462 31.552515434935827 0 31.552515434935827 13.729652599166911 0 0 0 0 59.074850467499346 22.469152906338252 0 22.469152906338252 0.0051368061114378423 0 0 0 0 56.378723596171767 22.97652444997567 0 22.97652444997567 19.338079093388842 0 0 0 0 55.517355512657446 24.498580278500491 0 24.498580278500491 0.81479131571336538 0 0 0 0 111.19487368762842 8.6703430879467476 0 8.6703430879467476 0.66977415589767453 0 0 0 0 -241.99843940283608 -183.9276188271578 0 -183.9276188271578 170.77851315210256 0 0 0 0 -103.86713286876329 -302.1527861955301 0 -302.1527861955301 -106.31982210240767 0 0 0 0 -161.04920314053015 -53.420115013321983 0 -53.420115013321983 206.37909549436233 0 0 0 0 11.327770968947164 9.0236367042319614 0 9.0236367042319614 0.14955831706794465 0 0 0 0 218.33508786559105 26.200130533785341 0 26.200130533785341 -70.864387838953007 0 0 0 0 96.569782087462954 -115.78711535310504 0 -115.78711535310504 -60.84333605368488 0 0 0 0 -49.621253363031428 -52.401513368480991 0 -52.401513368480991 -7.4523778185881522 0 0 0 0 -3.3491167398533435 85.093743372450092 0 85.093743372450092 59.468955681284818 0 0 0 0 9.0560615345943347 -4.3566194785042285 0 -4.3566194785042285 2.1536220723795823 0 0 0 0 464.7598477343272 78.895238161441725 0 78.895238161441725 35.646421291964899 0 0 0 0 438.20026935631176 9.21081478261606 0 9.21081478261606 -0.24742866534696473 0 0 0 0 541.14417392469477 5.6330936852795013 0 5.6330936852795013 -38.887586867716657 0 0 0 0 348.36417797578906 -188.70418478235223 0 -188.70418478235223 120.55595674277252 0 0 0 0 727.80934774683556 -65.808013365467744 0 -65.808013365467744 -17.976310411803162 0 0 0 0 683.45514591163374 -379.01024324188296 0 -379.01024324188296 225.26699640991544 0 0 0 0 6.7126551819238784 -17.070465915293731 0 -17.070465915293731 -5.7439866661913275 0 0 0 0 1181.3866414986987 91.27182917671513 0 91.27182917671513 -903.14255038201463 0 0 0 0 -69.083678246373893 329.64483210733516 0 329.64483210733516 -77.396997089026002 0 0 0 0 -200.27660267238389 -165.09682437255822 0 -165.09682437255822 596.53104884998174 0 0 0 0 166.33975750397076 82.337041300014931 0 82.337041300014931 -9.1249990349155325 0 0 0 0 163.45620969784795 106.1771236673334 0 106.1771236673334 -179.70014444864489 0 0 0 0 73.408282524396782 131.15278460754993 0 131.15278460754993 162.44866762249069 0 0 0 0 144.64128313408582 166.68319184802044 0 166.68319184802044 -57.590716380363119 0 0 0 0 257.52063909437129 -13.865020658577894 0 -13.865020658577894 119.50377327490915 0 0 0 0 196.38006426973152 87.721088126933651 0 87.721088126933651 0.69807924410963862 0 0 0 0 180.04510648218275 221.69860850418141 0 221.69860850418141 175.69002608883659 0 0 0 0 244.71337229973869 145.55073974488161 0 145.55073974488161 68.485993217016215 0 0 0 0 24.089060515980236 51.409759485569985 0 51.409759485569985 0.25918707588178763 0 0 0 0 0.84785056379979551 0.25654158466545596 0 0.25654158466545596 0.013325827509100552 0 0 0 0 50.985517457069363 157.05142212225147 0 157.05142212225147 110.09950064989712 0 0 0 0 107.36333020171151 131.07786726734898 0 131.07786726734898 149.83613419326628 0 0 0 0 76.293421283849966 61.546664717785049 0 61.546664717785049 87.586240117466332 0 0 0 0 72.706052035500761 86.886466577175895 0 86.886466577175895 94.90058780143795 0 0 0 0 106.23734362609684 96.218529484717919 0 96.218529484717919 95.03397076294975 0 0 0 0 114.51254781343596 67.558707132749703 0 67.558707132749703 83.77894313706804 0 0 0 0 153.06480441099848 116.49498940944112 0 116.49498940944112 80.316614234633903 0 0 0 0 194.56590005703038 143.59591850132125 0 143.59591850132125 39.111850115957338 0 0 0 0 152.10586347285425 82.628201415777625 0 82.628201415777625 22.174404934494063 0 0 0 0 171.27924863816588 75.511409964583748 0 75.511409964583748 20.155194174374117 0 0 0 0 173.34043929276959 56.522760218393671 0 56.522760218393671 -52.393264427015424 0 0 0 0 150.19590429664822 40.724702012970596 0 40.724702012970596 0.44482034692748584 0 0 0 0 143.64235484953679 26.360220582575181 0 26.360220582575181 25.404716053286023 0 0 0 0 151.25296919963876 89.671021449070651 0 89.671021449070651 64.769767323336055 0 0 0 0 140.47916074533714 53.5441649034222 0 53.5441649034222 56.414329408471673 0 0 0 0 152.15816646556777 51.097450436723094 0 51.097450436723094 46.60596623920776 0 0 0 0 115.28700934525114 46.771399767041828 0 46.771399767041828 76.083971721867215 0 0 0 0 89.902685862500221 54.38229928808434 0 54.38229928808434 103.02002693871054 0 0 0 0 61.794285340904025 9.9968559627818365 0 9.9968559627818365 112.69065249664538 0 0 0 0 147.02044187602587 17.247931254635603 0 17.247931254635603 39.002417781948353 0 0 0 0 139.83661926700734 13.662521042638303 0 13.662521042638303 94.853679815137838 0 0 0 0 17.428682784334228 6.0751653283985405 0 6.0751653283985405 -4.7463086427115959 0 0 0 0 73.419832877679369 -17.750651865386324 0 -17.750651865386324 -5.9127982068304012 0 0 0 0 144.12455086613045 -34.260505449167596 0 -34.260505449167596 -109.21560628480347 0 0 0 0 22.403526391892228 -41.571005302008416 0 -41.571005302008416 -51.808949040926336 0 0 0 0 146.26465107675176 25.066795952715026 0 25.066795952715026 22.796317656668407 0 0 0 0 136.94311531449785 -31.889476798393488 0 -31.889476798393488 23.875426725150533 0 0 0 0 69.939553842590357 -3.7910109060477879 0 -3.7910109060477879 -5.0433447036158894 0 0 0 0 261.05664534204698 45.130571723810135 0 45.130571723810135 -61.56435207697541 0 0 0 0 149.0919505119673 5.0566936481850462 0 5.0566936481850462 -50.740617454254789 0 0 0 0 133.46154282187268 -25.128232861928751 0 -25.128232861928751 -7.690599421619952 0 0 0 0 206.24995646905154 -31.687722879059947 0 -31.687722879059947 -27.420746145707199 0 0 0 0 -20.216681555253047 -34.59714153617054 0 -34.59714153617054 9.0836166056441172 0 0 0 0 141.9631755399314 -30.244990882842558 0 -30.244990882842558 -4.2189845480488657 0 0 0 0 176.32212920144229 -42.028051391876716 0 -42.028051391876716 -14.006752860981578 0 0 0 0 162.9180139418022 -3.1656007991464321 0 -3.1656007991464321 -12.374939824420494 0 0 0 0 153.11613124959695 2.5326846488196679 0 2.5326846488196679 4.3771953440436846 0 0 0 0 159.70167092092015 -14.850371112426274 0 -14.850371112426274 -45.685421119564126 0 0 0 0 165.78937365682214 -3.5145651854872995 0 -3.5145651854872995 -26.911080343468711 0 0 0 0 135.89465697450214 -13.847304168481514 0 -13.847304168481514 -9.8431049012971243 0 0 0 0 196.56861927088175 -193.45035444401762 0 -193.45035444401762 -19.699666182799803 0 0 0 0 134.92531500739227 -20.942051610139579 0 -20.942051610139579 -7.9157920016028438 0 0 0 0 193.14341626358873 33.016778457495803 0 33.016778457495803 -84.009594204964287 0 0 0 0 155.16667489912652 2.8523698758272928 0 2.8523698758272928 -106.03893058291152 0 0 0 0 135.3126469093113 8.43119978576118 0 8.43119978576118 -7.8053486900530515 0 0 0 0 308.13966685766354 157.84880267877412 0 157.84880267877412 -2.7707764286838028 0 0 0 0 130.26271250002901 94.599399865487953 0 94.599399865487953 127.38063138796724 0 0 0 0 134.72834738274105 83.556582025226362 0 83.556582025226362 72.138079791633231 0 0 0 0 70.071053752879379 87.461705959603876 0 87.461705959603876 106.39779696334222 0 0 0 0 3.6899871636996977 0.32771355106485128 0 0.32771355106485128 -0.03698790295060763 0 0 0 0 110.29434129910078 60.394801920673146 0 60.394801920673146 -162.044632800127 0 0 0 0 2.042725043122914 0.35242474803710166 0 0.35242474803710166 -0.17092190767086729 0 0 0 0 -247.69322634709533 -339.64832569013322 0 -339.64832569013322 -179.01784670753381 0 0 0 0 46.220427981505054 176.0505735328303 0 176.0505735328303 2.1063812915608651 0 0 0 0 278.99853842412995 4.5027923598747321 0 4.5027923598747321 -133.44825694249857 0 0 0 0 -72.424624717517872 49.056261292241324 0 49.056261292241324 0.00031694592872260827 0 0 0 0 -24.224713560543023 36.039584125980397 0 36.039584125980397 -45.719104836790343 0 0 0 0 3.5457867128038743 1.5717399710377933 0 1.5717399710377933 0.38166369680250678 0 0 0 0 102.4692278818402 112.05954469910404 0 112.05954469910404 -176.76394673219932 0 0 0 0 21.369774914885056 -20.060475368710854 0 -20.060475368710854 -108.64900993037827 0 0 0 0 -90.796194501657737 8.8141927152913695 0 8.8141927152913695 135.90409065999376 0 0 0 0 74.203868805634556 63.589729698324504 0 63.589729698324504 -66.135471960827374 0 0 0 0 48.29875019134488 89.368504164534727 0 89.368504164534727 85.917739814385754 0 0 0 0 70.651625051890733 113.80664164301936 0 113.80664164301936 153.96065458954456 0 0 0 0 20.611224030420999 152.5432678939618 0 152.5432678939618 189.92493220948882 0 0 0 0 2.0012537995062303 61.062742681052612 0 61.062742681052612 113.92211796794174 0 0 0 0 -4.0038669812856824 167.30296976093692 0 167.30296976093692 322.62311099761848 0 0 0 0 206.14659798651701 287.03878535051018 0 287.03878535051018 226.72762708603449 0 0 0 0 62.377693844304304 143.94421334129282 0 143.94421334129282 160.13083466762976 0 0 0 0 101.45328815918765 230.55864975547036 0 230.55864975547036 197.56802072870136 0 0 0 0 1.6936558042465322 0.91318779551236418 0 0.91318779551236418 0.39763353603531265 0 0 0 0 279.62667571625207 54.08563577058564 0 54.08563577058564 -117.43946612345067 0 0 0 0 103.3386047748354 -33.691444493744072 0 -33.691444493744072 -72.231435538808924 0 0 0 0 417.8409243125061 197.87995765021725 0 197.87995765021725 -39.185663178234023 0 0 0 0 271.82112266743206 120.75954160114684 0 120.75954160114684 -0.15242144601399099 0 0 0 0 256.09330663758738 90.215186262400209 0 90.215186262400209 -26.132554679420736 0 0 0 0 253.54963262481033 294.95006100055264 0 294.95006100055264 198.1593003467427 0 0 0 0 414.62335973320296 143.89631318690226 0 143.89631318690226 267.78976466658912 0 0 0 0 114.97763744456461 42.426178839457748 0 42.426178839457748 59.789827391981873 0 0 0 0 0.88080439151434575 0.26730123525739202 0 0.26730123525739202 -0.048671605766206105 0 0 0 0 157.4667678156984 58.896787478565386 0 58.896787478565386 60.681745313848268 0 0 0 0 121.93033721628308 76.941071180157365 0 76.941071180157365 95.642741269900228 0 0 0 0 118.72365355468355 60.480439909722634 0 60.480439909722634 100.25493253375316 0 0 0 0 123.7748472270323 62.306598675111701 0 62.306598675111701 99.965845414264436 0 0 0 0 126.46859533958195 92.629529226614721 0 92.629529226614721 119.44028922715552 0 0 0 0 113.6855884644101 61.823496670034331 0 61.823496670034331 103.11904807674387 0 0 0 0 118.77825178042985 63.949801802604611 0 63.949801802604611 102.92791506960612 0 0 0 0 92.182232386112446 51.26493052203881 0 51.26493052203881 107.24168305812952 0 0 0 0 96.050827240862418 39.649794502766383 0 39.649794502766383 94.915553422667784 0 0 0 0 94.789487874339102 52.947429789297701 0 52.947429789297701 99.009946954642828 0 0 0 0 95.106294528557555 72.042026038757058 0 72.042026038757058 138.24856637167079 0 0 0 0 97.77733508561505 49.830060210732825 0 49.830060210732825 101.51682422278662 0 0 0 0 111.00161254827981 89.406035427952929 0 89.406035427952929 119.36220083094634 0 0 0 0 75.876152123470092 73.26754665486061 0 73.26754665486061 188.57208529098173 0 0 0 0 64.083420899580233 44.461796803095581 0 44.461796803095581 126.18625456848665 0 0 0 0 91.146265246497933 110.00611562248247 0 110.00611562248247 159.03255855187899 0 0 0 0 97.83361277696531 104.67214126228575 0 104.67214126228575 142.59331652358264 0 0 0 0 135.65643730371812 131.43909270682806 0 131.43909270682806 139.81380427821489 0 0 0 0 250.19332641239453 140.35422021317785 0 140.35422021317785 98.522568937231313 0 0 0 0 124.02391968909069 107.72813434096531 0 107.72813434096531 93.079322055404191 0 0 0 0 78.816318811455858 155.16087402007884 0 155.16087402007884 166.82965827636377 0 0 0 0 65.512402466367348 111.93880935673025 0 111.93880935673025 161.49290647610212 0 0 0 0 87.955054299207404 123.75441723360444 0 123.75441723360444 167.5613490946846 0 0 0 0 91.027718169083528 108.0240087341398 0 108.0240087341398 182.26547544651407 0 0 0 0 86.066093986475607 114.81855814790072 0 114.81855814790072 200.41347463795103 0 0 0 0 82.708930682842038 120.15202918515803 0 120.15202918515803 222.19674922388572 0 0 0 0 96.195891868381295 108.73799802113695 0 108.73799802113695 184.42551241851504 0 0 0 0 118.38806057331567 114.57806737458924 0 114.57806737458924 114.57977857422657 0 0 0 0 159.59051278332481 107.66769043946488 0 107.66769043946488 111.78034407855921 0 0 0 0 118.38341515292996 112.47729344389887 0 112.47729344389887 152.31071720459659 0 0 0 0 86.566841545025454 110.97085592210207 0 110.97085592210207 184.37131349406422 0 0 0 0 67.090233526470911 79.941011574447117 0 79.941011574447117 132.08485424597052 0 0 0 0 79.63455704820808 3.3412110821771535 0 3.3412110821771535 -45.772502653172353 0 0 0 0 68.016560608484724 -115.91067944202089 0 -115.91067944202089 -91.72634726958961 0 0 0 0 214.52718292624922 -107.7717382158251 0 -107.7717382158251 32.882934759786934 0 0 0 0 66.126912944397191 108.50269108769641 0 108.50269108769641 308.75152043914949 0 0 0 0 43.195638032910665 -9.1773905118981247 0 -9.1773905118981247 1.9516219429707073 0 0 0 0 76.11237989795336 76.830454527528957 0 76.830454527528957 275.24614667458377 0 0 0 0 78.027795795991551 88.886286532256193 0 88.886286532256193 204.3016925990654 0 0 0 0 151.19452826299676 3.805866605415531 0 3.805866605415531 -132.97267607472196 0 0 0 0 47.391463474288059 -8.8078173506800042 0 -8.8078173506800042 1.4588502154697953 0 0 0 0 84.491227436636109 82.601853467869546 0 82.601853467869546 207.07007754326287 0 0 0 0 -1.5389722371945709 -3.4748930430703524 0 -3.4748930430703524 1.6668310016400056 0 0 0 0 74.296059461179539 94.659621088552768 0 94.659621088552768 79.627315121670449 0 0 0 0 97.710794160782825 55.953324626241738 0 55.953324626241738 65.674695350564207 0 0 0 0 4.8249278761033949 0.16535495905640119 0 0.16535495905640119 0.23211920729493518 0 0 0 0 -49.954911161781638 62.378283466921317 0 62.378283466921317 77.362852210083929 0 0 0 0 30.975488489132054 -16.252481300955623 0 -16.252481300955623 -7.650561713367023 0 0 0 0 38.881208313508978 -8.1344000263496667 0 -8.1344000263496667 13.946752613728847 0 0 0 0 19.074889350202284 -28.895668270769598 0 -28.895668270769598 -17.558544165278839 0 0 0 0 33.332222735233358 -14.505201521184937 0 -14.505201521184937 -3.5448611884169079 0 0 0 0 -63.475273532309075 -109.16739882863919 0 -109.16739882863919 -14.963172230795863 0 0 0 0 23.927109757467406 -21.614230937706452 0 -21.614230937706452 -18.91964404259511 0 0 0 0 29.067638388984335 -21.959549677265812 0 -21.959549677265812 -6.6155919054804135 0 0 0 0 -77.944899798239931 -19.266351113624751 0 -19.266351113624751 50.155138614097268 0 0 0 0 -21.090607464153436 1.9441177984015212 0 1.9441177984015212 13.048100111830763 0 0 0 0 48.952795226961484 -9.5787172635909599 0 -9.5787172635909599 0.36520936371876533 0 0 0 0 106.23209059215151 -17.990151964638358 0 -17.990151964638358 -53.070230945634421 0 0 0 0 48.987334253210179 4.3517517455117343 0 4.3517517455117343 -5.331890453267274 0 0 0 0 13.273261439579073 -139.78069505044118 0 -139.78069505044118 119.3246900338886 0 0 0 0 7.4721374507798828 -36.739874692989588 0 -36.739874692989588 -82.362670795881968 0 0 0 0 -16.72740437547327 -180.71863998487379 0 -180.71863998487379 -74.908988581036283 0 0 0 0 49.596069677021688 -7.7896921129180896 0 -7.7896921129180896 -8.4438251188168536 0 0 0 0 -2.2909108028543415 -43.186581100450894 0 -43.186581100450894 -77.10016519288547 0 0 0 0 1.693814355439315 -1.5757825449812195 0 -1.5757825449812195 -1.5735638014079569 0 0 0 0 156.73191129571933 -6.3684960770763155 0 -6.3684960770763155 -15.17815253988374 0 0 0 0 85.924365999169822 29.717475281114503 0 29.717475281114503 2.5674281011554285 0 0 0 0 -54.788842077221489 -10.229012837269238 0 -10.229012837269238 166.87494765939846 0 0 0 0 72.382854248591684 5.9148258266724838 0 5.9148258266724838 7.9592575003625825 0 0 0 0 98.613687294418924 13.71467642276275 0 13.71467642276275 -9.7651311466315747 0 0 0 0 69.180179070017402 25.12265989386276 0 25.12265989386276 -5.2205890706645732 0 0 0 0 -5.2547281477891374 13.97983847896603 0 13.97983847896603 15.389078456750212 0 0 0 0 17.314167620585067 4.3688592345201869 0 4.3688592345201869 3.9788498051138959 0 0 0 0 17.056820066369255 7.0514766691453588 0 7.0514766691453588 -13.562496526864834 0 0 0 0 4.6851983930686458 -5.2635009008306781 0 -5.2635009008306781 -6.1716855222881009 0 0 0 0 -23.037203245250566 -24.107720544685662 0 -24.107720544685662 -0.94590763643736864 0 0 0 0 -13.336836193935596 -53.470339155705915 0 -53.470339155705915 15.941712227598146 0 0 0 0 4.7974075421807356 -11.786991622258256 0 -11.786991622258256 -7.35569785659834 0 0 0 0 -11.780353166838722 -13.408575514527193 0 -13.408575514527193 -4.0085935610283068 0 0 0 0 -41.723561055085156 -18.129587926236127 0 -18.129587926236127 -27.233522690506106 0 0 0 0 33.217360441805795 -74.400118361365458 0 -74.400118361365458 -35.300718494698231 0 0 0 0 10.719511687959312 17.661412596166883 0 17.661412596166883 20.704957173820731 0 0 0 0 20.744225222239038 -62.998833380353972 0 -62.998833380353972 -45.45244085691229 0 0 0 0 33.217360441791243 -74.400118361339082 0 -74.400118361339082 -35.300718494720059 0 0 0 0 33.217360441776691 -74.400118361304067 0 -74.400118361304067 -35.300718494720059 0 0 0 0 -8.701596251281444 -42.426745837474606 0 -42.426745837474606 104.33205563848028 0 0 0 0 -10.281597179398887 -4.7789961365630518 0 -4.7789961365630518 -7.4505276074272615 0 0 0 0 111.8157525472343 -133.5613861082291 0 -133.5613861082291 37.97234354752797 0 0 0 0 -11.614845682459418 -129.81698806665167 0 -129.81698806665167 -1.1180830549276948 0 0 0 0 -28.145410616692971 -70.50414777480654 0 -70.50414777480654 13.502193434798983 0 0 0 0 59.960153288004221 -62.135842311188753 0 -62.135842311188753 -169.26962778584721 0 0 0 0 7.6860345031018369 -24.215732284473859 0 -24.215732284473859 -14.109493456386872 0 0 0 0 33.492947318111334 -22.071699548507553 0 -22.071699548507553 -3.0030609066419225 0 0 0 0 12.169963834164463 -27.436372593027365 0 -27.436372593027365 -0.075308925005778349 0 0 0 0 36.351051840853835 -26.189357497201186 0 -26.189357497201186 -15.533990169739328 0 0 0 0 -32.623600095859729 -197.53761148995392 0 -197.53761148995392 228.07940078068921 0 0 0 0 14.169740701907166 -5.8871058648128809 0 -5.8871058648128809 -19.795920192003276 0 0 0 0 -220.05990500908229 186.89091320866214 0 186.89091320866214 -126.57360952004274 0 0 0 0 91.790771817031782 3.1510997504545344 0 3.1510997504545344 -154.55489794843896 0 0 0 0 501.52851947651652 -284.19240723366056 0 -284.19240723366056 -73.757377046201327 0 0 0 0 346.64582322654314 -401.04571718814441 0 -401.04571718814441 -93.257462557923645 0 0 0 0 59.284688433966949 284.76229737528001 0 284.76229737528001 -278.21055674531863 0 0 0 0 314.5828601915855 -340.95614136923064 0 -340.95614136923064 78.155435626300232 0 0 0 0 1358.6027181632817 219.09503027869232 0 219.09503027869232 -458.67040218555576 0 0 0 0 79.052805201907177 -7.1647960134901041 0 -7.1647960134901041 -145.87682321035697 0 0 0 0 87.26533944910625 4.9447363377717011 0 4.9447363377717011 -119.97438862532044 0 0 0 0 87.163005379261449 8.0236181378727451 0 8.0236181378727451 -131.06705661248179 0 0 0 0 69.970193458604626 -11.18035975864359 0 -11.18035975864359 -136.01702133121216 0 0 0 0 64.856921329919714 -70.52389405952681 0 -70.52389405952681 -178.22028080539076 0 0 0 0 -20.051623148901854 -260.08561492099557 0 -260.08561492099557 47.211558855744443 0 0 0 0 14.572930615724971 1.6760828959981353 0 1.6760828959981353 -11.312302391716278 0 0 0 0 6.6423776439652045 -5.3909692122694164 0 -5.3909692122694164 0.093336182016775723 0 0 0 0 81.505346469115466 30.556245820662525 0 30.556245820662525 -163.77276842110791 0 0 0 0 -20.249957322055707 -53.124607586980801 0 -53.124607586980801 169.10884629003871 0 0 0 0 50.39082973741958 -22.411998048480807 0 -22.411998048480807 4.2154188226383233 0 0 0 0 139.64700766833266 -51.959781537762638 0 -51.959781537762638 -118.51278001631988 0 0 0 0 75.508878332766471 -48.575989361758957 0 -48.575989361758957 60.208182129500983 0 0 0 0 92.044234286760911 29.421201698613913 0 29.421201698613913 -153.92338926040469 0 0 0 0 45.678930601512548 49.251996589714963 0 49.251996589714963 -108.06048120653986 0 0 0 0 -37.496052946022246 72.050412776325402 0 72.050412776325402 -112.23207584024271 0 0 0 0 57.179913129599299 69.413761258457725 0 69.413761258457725 53.096263345194984 0 0 0 0 -12.437545969209168 -6.1936756817842138 0 -6.1936756817842138 -19.558597067333721 0 0 0 0 151.5091525455282 64.478331064836709 0 64.478331064836709 29.756344371956743 0 0 0 0 9.0568784469505772 -26.809030663685348 0 -26.809030663685348 -13.804944545523028 0 0 0 0 -5.2239941791049205 -26.218464257422852 0 -26.218464257422852 -13.143064743970626 0 0 0 0 236.69497055382817 -50.874117365826706 0 -50.874117365826706 -76.581693264538359 0 0 0 0 114.38567487282853 -3.6513688276627363 0 -3.6513688276627363 -92.209377788516349 0 0 0 0 6.997529848915292 -3.5964494403223171 0 -3.5964494403223171 131.55221366915933 0 0 0 0 0.17197270939161058 -0.16057770199105903 0 -0.16057770199105903 -0.0060637023438694371 0 0 0 0 113.64166110381484 1.2455345193307039 0 1.2455345193307039 -15.859737247127214 0 0 0 0 180.62811554354266 -12.711042389573777 0 -12.711042389573777 -14.536234949021264 0 0 0 0 174.88084578245616 12.61609764545301 0 12.61609764545301 -28.725328562678897 0 0 0 0 174.88572040091159 9.2077555136624127 0 9.2077555136624127 -60.484286708591753 0 0 0 0 154.61440286399738 -2.3751586430616953 0 -2.3751586430616953 -34.402519421058059 0 0 0 0 76.81298759568017 51.723329258461263 0 51.723329258461263 -35.633856412783643 0 0 0 0 171.97688095588455 27.30548976598368 0 27.30548976598368 -97.260223230032352 0 0 0 0 140.2169717039651 45.244695866171242 0 45.244695866171242 -80.363606744624235 0 0 0 0 113.29576258511224 -116.30138315275826 0 -116.30138315275826 -175.57090624215198 0 0 0 0 53.185366742127371 -68.445696690455179 0 -68.445696690455179 -55.313061849846235 0 0 0 0 76.926712269632844 -39.497985963909287 0 -39.497985963909287 -63.072049374852668 0 0 0 0 53.280679773478937 -17.4293946794498 0 -17.4293946794498 -7.5398596307026065 0 0 0 0 206.00510801885684 -124.68296081544486 0 -124.68296081544486 -46.253079709306803 0 0 0 0 171.79040023229027 39.187663422922469 0 39.187663422922469 -13.398680429346769 0 0 0 0 231.87995435597804 -32.939044469632904 0 -32.939044469632904 -22.158022107035322 0 0 0 0 137.23267051266885 -6.591145377133671 0 -6.591145377133671 18.244598871201561 0 0 0 0 133.63898709479054 -15.475724779305665 0 -15.475724779305665 113.90145417864278 0 0 0 0 151.33074615730584 -64.237114060417071 0 -64.237114060417071 41.950640933120667 0 0 0 0 122.80345319168555 -20.798836778226359 0 -20.798836778226359 10.69603071050733 0 0 0 0 149.98956461839407 -63.791355293335641 0 -63.791355293335641 22.700933967861147 0 0 0 0 164.25422691991844 -45.451827856386217 0 -45.451827856386217 25.919885771646022 0 0 0 0 178.98466383993764 -2.4762010208871743 0 -2.4762010208871743 -1.5677706159967784 0 0 0 0 0.40144528004204005 0.028143597381202312 0 0.028143597381202312 -0.13638681817349863 0 0 0 0 177.82270566955413 -35.935410899389581 0 -35.935410899389581 29.972083932321766 0 0 0 0 241.74662634747983 15.35116677879023 0 15.35116677879023 -13.179789478918792 0 0 0 0 174.47722754386632 17.310542920180069 0 17.310542920180069 -12.132499177424961 0 0 0 0 272.58086572845059 -0.91422889918658257 0 -0.91422889918658257 6.9796041091263987 0 0 0 0 196.15449706143409 -15.875433242823419 0 -15.875433242823419 4.0705398568860574 0 0 0 0 285.07174580637047 -8.8557044383336034 0 -8.8557044383336034 8.8034334287181082 0 0 0 0 214.88468782538075 -87.277224525592487 0 -87.277224525592487 9.2092541436568354 0 0 0 0 0.57309610279930467 0.014269838305196458 0 0.014269838305196458 -0.14075211052696446 0 0 0 0 286.02994771733938 -89.248897422046412 0 -89.248897422046412 -9.2853493530262767 0 0 0 0 173.39445815238287 -48.307453742601638 0 -48.307453742601638 36.966043881179985 0 0 0 0 523.16504336331855 44.557558002205951 0 44.557558002205951 19.416278566945152 0 0 0 0 0.57117403016488311 -0.080452240531244001 0 -0.080452240531244001 -0.059127648971420754 0 0 0 0 781.61757197300176 268.06366472064929 0 268.06366472064929 46.209433092114807 0 0 0 0 178.59328010894387 -33.606263248895857 0 -33.606263248895857 62.990621570241501 0 0 0 0 668.99270800725299 -97.045585227409646 0 -97.045585227409646 37.210593285314644 0 0 0 0 140.26986278205732 -41.505429976975392 0 -41.505429976975392 265.88997381984063 0 0 0 0 10.523147280605883 7.375755505377029 0 7.375755505377029 -4.9209419772876029 0 0 0 0 -56.097124864356374 -15.114448546413001 0 -15.114448546413001 6.4208213960328067 0 0 0 0 124.71181321531185 42.167456323238184 0 42.167456323238184 23.901112614053773 0 0 0 0 -75.440101471380331 62.046436234119028 0 62.046436234119028 80.136792495575492 0 0 0 0 193.58417472565998 -73.210644799551346 0 -73.210644799551346 -91.756639357965469 0 0 0 0 133.95429697958025 -105.14835369097079 0 -105.14835369097079 -55.55915291681945 0 0 0 0 61.176887209978304 142.26736613568755 0 142.26736613568755 -66.93686528691525 0 0 0 0 83.173684094261262 -13.501440577231506 0 -13.501440577231506 41.272515138321978 0 0 0 0 -97.402342191788193 28.987968984673444 0 28.987968984673444 32.25289424732 0 0 0 0 169.17820144823963 -78.625328129951953 0 -78.625328129951953 -1.05442632321774 0 0 0 0 -8.6079779289430007 -115.83678394566095 0 -115.83678394566095 16.963904648237531 0 0 0 0 66.134042892655998 -38.275578461559235 0 -38.275578461559235 34.430416711466933 0 0 0 0 78.405928548188967 28.149745071465759 0 28.149745071465759 -22.551002265606257 0 0 0 0 65.719387067372736 11.935051991708178 0 11.935051991708178 12.194191982245684 0 0 0 0 109.18131689675647 -25.832637413953989 0 -25.832637413953989 19.67983397284388 0 0 0 0 68.196741382562323 18.232972040907498 0 18.232972040907498 5.9430815224282014 0 0 0 0 64.090811556108747 4.2941201009699057 0 4.2941201009699057 -12.379667113353207 0 0 0 0 5.1714565781223172 1.0099511972909454 0 1.0099511972909454 -3.1766199853961972 0 0 0 0 36.619625749954139 21.288269160722848 0 21.288269160722848 -0.53498014228728152 0 0 0 0 -6.1577617353323149 6.6740073759897314 0 6.6740073759897314 3.4876213451475451 0 0 0 0 23.653600435063709 -4.0492193151578704 0 -4.0492193151578704 -7.7429263642588921 0 0 0 0 7.9344920882455128 -2.3822418772133886 0 -2.3822418772133886 0.22483090638114511 0 0 0 0 34.157858181264601 -7.6449981493242376 0 -7.6449981493242376 2.283011793404512 0 0 0 0 12.086047829157906 8.750420491207251 0 8.750420491207251 0.5111106116312385 0 0 0 0 16.708400920917683 4.1997540339316686 0 4.1997540339316686 -2.0638358057072868 0 0 0 0 14.249975562925101 4.4274691663177919 0 4.4274691663177919 -3.207577915980437 0 0 0 0 33.935244855308071 -10.048165021105419 0 -10.048165021105419 -0.43526554943388529 0 0 0 0 28.966746983220219 -6.7177183224512191 0 -6.7177183224512191 3.9404588619715923 0 0 0 0 2.0478464129264466 18.513797633115246 0 18.513797633115246 -7.9156165522640549 0 0 0 0 164.69894642039799 11.642792122141486 0 11.642792122141486 -29.125265970112196 0 0 0 0 91.503783390216995 23.94697942488483 0 23.94697942488483 -30.276338131596276 0 0 0 0 38.691453177161748 9.6700421188315886 0 9.6700421188315886 -8.5650824229169302 0 0 0 0 97.514917229316779 -16.337500962003105 0 -16.337500962003105 -7.9324055892257093 0 0 0 0 114.43901505482791 68.545757758549826 0 68.545757758549826 12.423277123901698 0 0 0 0 40.643992207882548 38.170382001998632 0 38.170382001998632 -64.048792149962537 0 0 0 0 11.495703448632412 -50.64924176685463 0 -50.64924176685463 -19.452427970918507 0 0 0 0 43.124251541274134 14.878133096693318 0 14.878133096693318 -71.741987168541527 0 0 0 0 85.810778646788094 27.305322539308122 0 27.305322539308122 -115.86599681487905 0 0 0 0 63.546687658323208 15.605296405700301 0 15.605296405700301 -70.03915678219164 0 0 0 0 69.81156170606846 29.891436538385278 0 29.891436538385278 -67.832951789268122 0 0 0 0 40.088720969957649 17.768306590859083 0 17.768306590859083 -2.63865380673451 0 0 0 0 36.196412114867599 -11.490096778583421 0 -11.490096778583421 1.8768658183571461 0 0 0 0 25.275032150397237 -2.4901133557525554 0 -2.4901133557525554 4.8981025022385438 0 0 0 0 58.048108306044014 -16.618730464828786 0 -16.618730464828786 -105.96340376861008 0 0 0 0 57.036236728483345 -12.664885495190902 0 -12.664885495190902 -53.530408260049626 0 0 0 0 48.790269033284858 41.889967446624269 0 41.889967446624269 31.602459258955605 0 0 0 0 70.265293608768843 13.13210266406486 0 13.13210266406486 -62.308652658263327 0 0 0 0 69.71713309828192 7.3217088423961059 0 7.3217088423961059 -97.414801495586289 0 0 0 0 71.268542841367889 -4.6391473649764521 0 -4.6391473649764521 -107.39037368538038 0 0 0 0 58.051556562772021 -16.010826134097897 0 -16.010826134097897 -69.886779416286117 0 0 0 0 13.61905400535268 -7.0111431884265301 0 -7.0111431884265301 -3.8669956380687323 0 0 0 0 43.661876788067957 -9.7339508301920006 0 -9.7339508301920006 -4.0159150870455269 0 0 0 0 37.895874454268778 -14.098656550841895 0 -14.098656550841895 -3.2052743522863238 0 0 0 0 16.556065624146882 0.027033083857432416 0 0.027033083857432416 -4.0288904706029092 0 0 0 0 35.903125896176789 -8.123143200041568 0 -8.123143200041568 -3.8913971350832242 0 0 0 0 35.859264268079059 -24.416757350806478 0 -24.416757350806478 8.3377860160240704 0 0 0 0 146.01910460597719 13.696712573711466 0 13.696712573711466 -3.5686824548859022 0 0 0 0 103.47614236857771 -63.277594672910823 0 -63.277594672910823 45.379814773253202 0 0 0 0 58.617676675889015 -28.051310493392407 0 -28.051310493392407 -46.613381087030575 0 0 0 0 53.195161104085855 -45.849942448531806 0 -45.849942448531806 -82.90445441926795 0 0 0 0 15.634560388496091 3.1075458644085643 0 3.1075458644085643 -13.550636154322323 0 0 0 0 64.005700457870262 -18.798416981585888 0 -18.798416981585888 -36.007188481446519 0 0 0 0 80.300818010313378 -25.627245785009563 0 -25.627245785009563 -74.191528619934616 0 0 0 0 76.147970055317273 -0.37802382467270945 0 -0.37802382467270945 -47.061932568632528 0 0 0 0 92.718883661975269 -6.8983130853766852 0 -6.8983130853766852 -53.358477213811284 0 0 0 0 81.546132786999806 0.66804994987410282 0 0.66804994987410282 -45.147704834963406 0 0 0 0 108.66140988655388 19.135651504702693 0 19.135651504702693 -31.120685132623546 0 0 0 0 88.560062348122301 12.987235248465595 0 12.987235248465595 -30.12314734073334 0 0 0 0 108.44865683848911 2.660490523458293 0 2.660490523458293 -68.908167888880314 0 0 0 0 71.544175767459819 -28.480477371603456 0 -28.480477371603456 -83.82169716071644 0 0 0 0 50.358006891554396 -9.0060769126066589 0 -9.0060769126066589 -77.663850021361668 0 0 0 0 86.199356354234624 -26.435500899726208 0 -26.435500899726208 9.9458344542154009 0 0 0 0 41.624327316502132 18.453764247897567 0 18.453764247897567 -15.663600401777225 0 0 0 0 -3.79810489895317 62.901225581853623 0 62.901225581853623 14.121477317268159 0 0 0 0 -0.31614171321876938 6.0265732861151982 0 6.0265732861151982 -2.5580862833104767 0 0 0 0 67.52376414606988 23.068509077422476 0 23.068509077422476 -25.87656605243501 0 0 0 0 80.162429332529427 -19.570395922715761 0 -19.570395922715761 0.91086990759049513 0 0 0 0 33.961127410043531 11.857720193727953 0 11.857720193727953 -15.112223074006604 0 0 0 0 52.312902723439038 19.411517792930681 0 19.411517792930681 -60.434505743112823 0 0 0 0 10.615420952601479 -7.4111475513343379 0 -7.4111475513343379 1.2067561713916604 0 0 0 0 79.163960284407949 3.5244057492559477 0 3.5244057492559477 -50.974390231337566 0 0 0 0 77.102452508857823 -4.2037427743753142 0 -4.2037427743753142 -49.985835391005367 0 0 0 0 84.967393003339566 38.594175149010582 0 38.594175149010582 -13.412696463240309 0 0 0 0 119.78603716887301 58.785110841008873 0 58.785110841008873 -11.956377327514099 0 0 0 0 92.575406602649309 5.3216201609909604 0 5.3216201609909604 -46.959332538748356 0 0 0 0 85.02809496076452 -7.5659364911421463 0 -7.5659364911421463 -18.818794902761738 0 0 0 0 80.681382093327557 12.986261775617891 0 12.986261775617891 -28.823545052059785 0 0 0 0 25.954363083440967 -0.59710190097683125 0 -0.59710190097683125 -2.8110136250072255 0 0 0 0 43.98706190718076 -39.722831592650664 0 -39.722831592650664 -88.049839367355958 0 0 0 0 54.003044253506232 7.4873908170538925 0 7.4873908170538925 -26.288259065630143 0 0 0 0 92.265722838759757 28.611901893877047 0 28.611901893877047 -33.321338730406751 0 0 0 0 119.75087671505025 33.925284106678532 0 33.925284106678532 -104.9391540408966 0 0 0 0 77.346705186246254 33.9714452452221 0 33.9714452452221 -51.300282446203738 0 0 0 0 99.378743961111468 61.311505915905855 0 61.311505915905855 49.116924069420591 0 0 0 0 15.870303113486031 -11.276787039838034 0 -11.276787039838034 6.2400802170042864 0 0 0 0 107.25746197894478 153.55757754363299 0 153.55757754363299 47.061853409772084 0 0 0 0 94.418743356383857 134.64228814520266 0 134.64228814520266 154.95168570843043 0 0 0 0 160.69630590496308 184.01144425074008 0 184.01144425074008 -104.41679608632359 0 0 0 0 -374.88737170954118 -54.984844461259399 0 -54.984844461259399 210.33450437637089 0 0 0 0 17.238125409377972 -102.7279864960127 0 -102.7279864960127 -181.94315848444535 0 0 0 0 23.116499260106352 -15.362292928560521 0 -15.362292928560521 8.8912535438835647 0 0 0 0 46.181257029751578 -9.8234959798244006 0 -9.8234959798244006 -66.728709784938701 0 0 0 0 8.3061679052025283 -94.748779544981517 0 -94.748779544981517 -148.88887463162746 0 0 0 0 101.45527195270188 3.8582705057970657 0 3.8582705057970657 -134.27703994534141 0 0 0 0 88.690330233253917 -117.57054949437963 0 -117.57054949437963 -215.39051585358936 0 0 0 0 -78.543761769527919 -98.553687086197215 0 -98.553687086197215 -131.50620781770567 0 0 0 0 86.578230355300548 11.617431786919013 0 11.617431786919013 -77.599902127851237 0 0 0 0 136.35566771234244 52.58696129181547 0 52.58696129181547 -58.935817286286806 0 0 0 0 100.21532820758148 -17.957731976796481 0 -17.957731976796481 -117.15598979549065 0 0 0 0 121.23938201735291 49.598292143761171 0 49.598292143761171 -78.270802538656426 0 0 0 0 86.278010327965603 48.349075425268978 0 48.349075425268978 -2.9148579868021898 0 0 0 0 90.554995607595629 50.780141782017097 0 50.780141782017097 -22.299816055264614 0 0 0 0 83.80543386199497 45.481703255907121 0 45.481703255907121 -42.156519542294291 0 0 0 0 49.720847676311678 26.788364836133383 0 26.788364836133383 -36.140373195565303 0 0 0 0 53.684136677561433 25.859003571149834 0 25.859003571149834 -18.936199049115409 0 0 0 0 24.53300239958844 72.02231929825453 0 72.02231929825453 8.8978764699118074 0 0 0 0 52.749131104013941 84.724719359393703 0 84.724719359393703 14.339911842539379 0 0 0 0 100.95952156790736 9.9502790758019728 0 9.9502790758019728 -65.405058791071497 0 0 0 0 67.068918538527384 -9.1338571622060094 0 -9.1338571622060094 -6.5543906002755579 0 0 0 0 214.94173972760473 26.503716308912772 0 26.503716308912772 -5.4658595052551391 0 0 0 0 286.68025911691802 407.54717259056997 0 407.54717259056997 287.96421867586253 0 0 0 0 96.79385060794084 157.19496076329415 0 157.19496076329415 66.560338923503423 0 0 0 0 77.699130603406957 -44.678994905408217 0 -44.678994905408217 106.95423797366493 0 0 0 0 46.49654694583603 -12.490340911391339 0 -12.490340911391339 0.9678416059011461 0 0 0 0 174.08638319145393 7.8588972128673049 0 7.8588972128673049 -119.12533314948547 0 0 0 0 114.59716014822334 -78.999231761151123 0 -78.999231761151123 -149.35724067987212 0 0 0 0 19.552322032584925 -44.28483568233105 0 -44.28483568233105 -96.252206194205428 0 0 0 0 78.038692034897394 -33.903898865321025 0 -33.903898865321025 -104.8616488993257 0 0 0 0 76.66118505454142 -28.679952988902528 0 -28.679952988902528 -124.59226270648469 0 0 0 0 94.580142870006966 28.716354773364856 0 28.716354773364856 -94.32625882200773 0 0 0 0 123.05880322578014 41.916346225043981 0 41.916346225043981 -92.736482589238847 0 0 0 0 131.51256540878239 43.515110898195644 0 43.515110898195644 -116.91997366902251 0 0 0 0 319.19486971871811 116.63155648436896 0 116.63155648436896 -93.013516914962111 0 0 0 0 212.10330847130535 -55.045157494364048 0 -55.045157494364048 -148.04154165390446 0 0 0 0 135.24228144793597 -44.581785236306587 0 -44.581785236306587 -123.64216755583038 0 0 0 0 561.23625381217425 76.428875164409988 0 76.428875164409988 -103.10746844789719 0 0 0 0 98.748016338770867 69.26093707552883 0 69.26093707552883 52.714677585733625 0 0 0 0 252.42409653546929 220.0783752147936 0 220.0783752147936 186.16612898356698 0 0 0 0 -56.310289904482488 65.70887702427035 0 65.70887702427035 73.684856452323857 0 0 0 0 106.35039579263139 91.989059046139715 0 91.989059046139715 -64.813609128314965 0 0 0 0 -65.810115838481579 95.560454964026803 0 95.560454964026803 -9.8397560526621533 0 0 0 0 51.468073552087951 31.932599257605901 0 31.932599257605901 -14.294831584606076 0 0 0 0 49.370214369004046 30.718367234368664 0 30.718367234368664 -16.601429688854257 0 0 0 0 1.3373858040613413 150.45123239766735 0 150.45123239766735 -43.937633290563099 0 0 0 0 84.290431040903059 -49.339641684804704 0 -49.339641684804704 -85.080117302804467 0 0 0 0 86.890385084756417 -63.160810522328575 0 -63.160810522328575 -96.026938159340261 0 0 0 0 95.550780515754013 -24.394374091659984 0 -24.394374091659984 -92.130947610944304 0 0 0 0 85.30541456922947 -43.307793902472099 0 -43.307793902472099 -65.508706796124898 0 0 0 0 93.89551109796048 -38.746681235846289 0 -38.746681235846289 -63.625488976207407 0 0 0 0 63.803834022284718 -47.162740238063179 0 -47.162740238063179 -37.112977750777191 0 0 0 0 43.495534949892317 -69.410287755912321 0 -69.410287755912321 -56.007620543277483 0 0 0 0 63.671561320094042 -48.80278287472197 0 -48.80278287472197 -39.913069425259891 0 0 0 0 70.325634023713064 -149.43205577261963 0 -149.43205577261963 40.783573956737669 0 0 0 0 34.173878084322496 -88.248611086435389 0 -88.248611086435389 -62.559664789508247 0 0 0 0 326.72042238480572 -114.7577589513308 0 -114.7577589513308 -170.72503749227354 0 0 0 0 80.758783900237177 0.061894840774016302 0 0.061894840774016302 -223.48151840187575 0 0 0 0 84.112884753907565 -20.058212010780153 0 -20.058212010780153 -243.32940372178155 0 0 0 0 69.005039110707003 -116.74605289032411 0 -116.74605289032411 -60.694510046986309 0 0 0 0 137.88419917158171 -105.89333476620885 0 -105.89333476620885 -197.55802282931745 0 0 0 0 78.35558185937407 -86.163906743864572 0 -86.163906743864572 -152.15842478228433 0 0 0 0 93.585146518307738 -52.277839030056725 0 -52.277839030056725 -138.94849124622942 0 0 0 0 22.362836222004262 65.66398124335592 0 65.66398124335592 -94.603410109335073 0 0 0 0 90.887939101325173 -80.60339846057218 0 -80.60339846057218 -242.98176591853462 0 0 0 0 -17.35767594439676 -34.274628455015318 0 -34.274628455015318 -201.90055585910713 0 0 0 0 89.022415951869334 21.569288977902033 0 21.569288977902033 -234.16740087713112 0 0 0 0 86.33222698704958 18.593170105137119 0 18.593170105137119 -87.517499228310953 0 0 0 0 96.251354256939521 105.26559136644471 0 105.26559136644471 -346.14728511703697 0 0 0 0 44.169298886932665 60.903154550588624 0 60.903154550588624 -316.64331571007415 0 0 0 0 -83.459744803170906 -70.292508684054155 0 -70.292508684054155 -400.99570811697004 0 0 0 0 14.740151355487598 2.3395563131814043 0 2.3395563131814043 -9.0167971369346578 0 0 0 0 97.152189393209483 -18.843518928741396 0 -18.843518928741396 -0.48096865765705843 0 0 0 0 61.107765183578408 -32.752288715246586 0 -32.752288715246586 7.1641662396968941 0 0 0 0 71.843315651887593 0.44822375051356644 0 0.44822375051356644 -7.6645662146395708 0 0 0 0 93.846025162374644 -23.144077272466554 0 -23.144077272466554 4.7010973928173883 0 0 0 0 77.227561716346827 -12.889071019832386 0 -12.889071019832386 -1.5019485774058694 0 0 0 0 92.357211708760587 -19.26589568844247 0 -19.26589568844247 -55.926437455751966 0 0 0 0 58.990563232247951 -6.2247064605182914 0 -6.2247064605182914 -19.939004489372223 0 0 0 0 80.574006024929986 1.3357549470242702 0 1.3357549470242702 -19.549649897107145 0 0 0 0 64.374970291685486 -5.6379443974528591 0 -5.6379443974528591 -5.6803470465214358 0 0 0 0 2.0200774995638682 4.0938403469527085 0 4.0938403469527085 -4.0379021145138116 0 0 0 0 149.55576564994408 -34.551862739540411 0 -34.551862739540411 -99.076847272415989 0 0 0 0 103.64047480499721 -7.1079888067724823 0 -7.1079888067724823 -44.213174230877485 0 0 0 0 27.249430295629232 -8.8117037277288688 0 -8.8117037277288688 -7.3890379132093056 0 0 0 0 110.48215314702247 -40.395091280950737 0 -40.395091280950737 -169.43303923835447 0 0 0 0 115.33136030408787 -26.208680579456995 0 -26.208680579456995 -100.27776359041673 0 0 0 0 118.14926355037096 -18.954130107366268 0 -18.954130107366268 -116.41352075439772 0 0 0 0 110.94162884620891 -41.006996434446592 0 -41.006996434446592 -132.08737615744576 0 0 0 0 104.77020505659846 -20.161086136919621 0 -20.161086136919621 -92.619650150266352 0 0 0 0 104.6860713003698 -15.224407396173319 0 -15.224407396173319 -108.59700961204953 0 0 0 0 113.04085137520451 -26.270428221677776 0 -26.270428221677776 -99.058693469864011 0 0 0 0 105.50304467865499 -15.404155632255424 0 -15.404155632255424 -101.78521744011505 0 0 0 0 125.29082143181222 -9.5154783864941237 0 -9.5154783864941237 -107.68000143607878 0 0 0 0 93.529536061934778 -2.6511265609933616 0 -2.6511265609933616 -106.34280679597487 0 0 0 0 4.6646900200284875 -7.8462003818489947 0 -7.8462003818489947 1.641663800159568 0 0 0 0 73.178228383924989 -15.8935223172415 0 -15.8935223172415 1.1066790165403217 0 0 0 0 105.67989774634771 -24.396886514887683 0 -24.396886514887683 -110.55753845853542 0 0 0 0 -83.42917365689209 -164.22350267186948 0 -164.22350267186948 5.9040372269348431 0 0 0 0 92.686294397397432 -47.976328705515698 0 -47.976328705515698 -56.457214717451279 0 0 0 0 129.73682444977749 -1.3129499461247178 0 -1.3129499461247178 -96.42503199728344 0 0 0 0 -74.560312125329801 7.3996293531479935 0 7.3996293531479935 119.05801005215901 0 0 0 0 76.772147933843371 85.653501647644816 0 85.653501647644816 -11.417081308790785 0 0 0 0 592.50322668850276 -74.108322326175085 0 -74.108322326175085 -298.33911099137663 0 0 0 0 48.262913027426393 -11.32796299174797 0 -11.32796299174797 2.5998509268202299 0 0 0 0 1.333550810959423 -34.553986241166513 0 -34.553986241166513 -73.036288656659963 0 0 0 0 72.937453463160637 -47.719078674417347 0 -47.719078674417347 -140.75215352927898 0 0 0 0 43.430257209693082 -27.626615324799332 0 -27.626615324799332 -79.200853032300074 0 0 0 0 59.122398204868659 -29.365699456509901 0 -29.365699456509901 -83.461678928285465 0 0 0 0 50.394796263644821 -8.8103295291198265 0 -8.8103295291198265 -94.004110412939553 0 0 0 0 22.154713655746733 -13.656928442359686 0 -13.656928442359686 6.6978099417594779 0 0 0 0 -53.225419073992271 -240.50643134884791 0 -240.50643134884791 -287.97702475153324 0 0 0 0 444.51117639052973 517.08660501001236 0 517.08660501001236 373.56650983764484 0 0 0 0 -65.43860545555799 186.65115845803894 0 186.65115845803894 220.10144466531798 0 0 0 0 164.48732507892419 -245.08968154820604 0 -245.08968154820604 214.25000990178205 0 0 0 0 -19.393285848105734 -73.201173773985147 0 -73.201173773985147 107.58598979973954 0 0 0 0 17.746774173571325 -3.3268783459783897 0 -3.3268783459783897 0.98268808299435273 0 0 0 0 1681.4222990942653 -298.02205840217766 0 -298.02205840217766 -450.48240906425963 0 0 0 0 746.19244969451393 -306.04269453949746 0 -306.04269453949746 -5.7368153692500528 0 0 0 0 1280.6244657153147 422.12543021239594 0 422.12543021239594 -20.661059757069779 0 0 0 0 -699.5229542258985 1039.8299372204247 0 1039.8299372204247 1325.1438053771435 0 0 0 0 529.09445237542968 -156.9735859190439 0 -156.9735859190439 -322.50870226311747 0 0 0 0 142.98104691463959 176.56536141784272 0 176.56536141784272 -67.938713225889842 0 0 0 0 164.70898988442059 -98.3478242345019 0 -98.3478242345019 -75.469808771941786 0 0 0 0 86.868740991627419 -213.38030564325618 0 -213.38030564325618 15.351770899335861 0 0 0 0 -0.92817548693143692 0.81343877234834849 0 0.81343877234834849 -0.34253982583373421 0 0 0 0 471.89253711507627 178.21416130753209 0 178.21416130753209 23.480743261212865 0 0 0 0 159.51398646880625 -11.173186600352381 0 -11.173186600352381 -191.37538874762004 0 0 0 0 -241.65800620694063 -340.21652327578158 0 -340.21652327578158 -277.86622286439302 0 0 0 0 106.77852817325038 -21.844407196354666 0 -21.844407196354666 -61.06395229732351 0 0 0 0 99.953998895311088 -38.463530045411034 0 -38.463530045411034 -83.815101353417049 0 0 0 0 82.492351774435519 -157.98128344600059 0 -157.98128344600059 -128.09312200870357 0 0 0 0 112.09738646242477 -102.40213759129551 0 -102.40213759129551 -38.893009342297262 0 0 0 0 131.74093859609002 -30.132830149845176 0 -30.132830149845176 4.7781590137492458 0 0 0 0 332.22360461904464 -68.810999322828593 0 -68.810999322828593 -106.81321700301208 0 0 0 0 131.0306689835561 -37.063542637297132 0 -37.063542637297132 -43.244708879038626 0 0 0 0 95.033225825857244 -52.790581231470441 0 -52.790581231470441 -48.544123050666485 0 0 0 0 137.35294692124444 -62.420156255499478 0 -62.420156255499478 -44.52078437878663 0 0 0 0 100.81613680558803 -60.865360334643356 0 -60.865360334643356 -18.455971601109468 0 0 0 0 135.74253260051773 -39.485744724005599 0 -39.485744724005599 -40.893155754783947 0 0 0 0 201.00404191114649 -77.128457356614035 0 -77.128457356614035 -25.770582346830906 0 0 0 0 123.82200787960755 -53.810852547554077 0 -53.810852547554077 -47.189397853355786 0 0 0 0 112.00261579850485 -49.305976019414402 0 -49.305976019414402 -50.755283889606289 0 0 0 0 114.57552252250753 -56.159646629519557 0 -56.159646629519557 -41.742835790031677 0 0 0 0 -3.1839199263775981 2.4267856044468559 0 2.4267856044468559 -1.5188853597160978 0 0 0 0 -64.903171780664707 -147.53980518301933 0 -147.53980518301933 -161.44070161816785 0 0 0 0 238.33962967714797 87.680644309518243 0 87.680644309518243 -8.4284496689806474 0 0 0 0 218.94216259350651 33.100433503694319 0 33.100433503694319 -18.305096544441767 0 0 0 0 206.17300759498903 24.932342865358805 0 24.932342865358805 13.992905703864579 0 0 0 0 128.34271412194721 -33.447864108149588 0 -33.447864108149588 -46.789680149498963 0 0 0 0 126.9929883401237 41.927885768915758 0 41.927885768915758 -96.980977649632223 0 0 0 0 112.10684160193705 59.575362545302141 0 59.575362545302141 5.3682732071406463 0 0 0 0 99.590537702291329 -24.777549992532862 0 -24.777549992532862 -10.690973477196128 0 0 0 0 54.209675154546858 -41.735362959358554 0 -41.735362959358554 135.02797443831219 0 0 0 0 124.32994786630115 -27.886582828631077 0 -27.886582828631077 19.280617926762716 0 0 0 0 155.69838745101515 -13.524432037806491 0 -13.524432037806491 -136.92396777793147 0 0 0 0 106.26971512677846 -103.77185232380089 0 -103.77185232380089 -5.5025825140946836 0 0 0 0 108.55889592253459 -19.58729685370707 0 -19.58729685370707 -11.186052197122514 0 0 0 0 30.371083430974977 -24.988230805948433 0 -24.988230805948433 26.675241083409333 0 0 0 0 83.919913030058524 -124.75348798314513 0 -124.75348798314513 72.471891258662254 0 0 0 0 76.961081551515235 -95.822306784069838 0 -95.822306784069838 -5.7689738587591819 0 0 0 0 99.558686331816716 -64.297296854064825 0 -64.297296854064825 -40.516873419112926 0 0 0 0 63.702181276137708 -94.178728839036467 0 -94.178728839036467 -1.532696275604394 0 0 0 0 118.90884207483032 -95.602627548384135 0 -95.602627548384135 -2.8517068091905458 0 0 0 0 51.164551560985274 -64.763449505290282 0 -64.763449505290282 6.0980320954186027 0 0 0 0 51.535283890727442 -81.503893724828686 0 -81.503893724828686 -46.153098389498155 0 0 0 0 23.557663705141749 -29.429321015227515 0 -29.429321015227515 -29.781671545244535 0 0 0 0 63.843417807598598 -29.585022232985011 0 -29.585022232985011 -86.188723514305366 0 0 0 0 44.062727674318012 -6.2314011957705588 0 -6.2314011957705588 20.981916180828193 0 0 0 0 80.29385358208674 -48.755055971006186 0 -48.755055971006186 -32.91253765327474 0 0 0 0 126.71057125046354 -45.491120944454451 0 -45.491120944454451 -79.488489005869269 0 0 0 0 166.19662192341639 37.939308668805097 0 37.939308668805097 -278.7611669917469 0 0 0 0 119.52521752301104 -21.546028730745693 0 -21.546028730745693 -10.028315914647775 0 0 0 0 126.63024221828891 -54.985354470748916 0 -54.985354470748916 -65.714316028442227 0 0 0 0 190.96246154548135 -67.074410345712295 0 -67.074410345712295 -351.64139173549211 0 0 0 0 106.82788869643991 -95.410503163891235 0 -95.410503163891235 -20.142527231064832 0 0 0 0 131.31339807945187 -148.20196856501798 0 -148.20196856501798 -33.325607029354501 0 0 0 0 138.24246494966792 -232.91984175625072 0 -232.91984175625072 101.73511391530826 0 0 0 0 260.59792473395646 -122.54122832194082 0 -122.54122832194082 -36.129400442443796 0 0 0 0 105.90748399394215 -289.67930741131659 0 -289.67930741131659 -108.93238735250566 0 0 0 0 -31.326045584486565 -143.90990907307162 0 -143.90990907307162 116.96954568343517 0 0 0 0 -75.055435357033275 -449.79590923588694 0 -449.79590923588694 -784.45211066467164 0 0 0 0 10.09888291726412 27.478154574613576 0 27.478154574613576 -17.646813431775861 0 0 0 0 164.87627307328512 34.010916220277977 0 34.010916220277977 166.36400734969882 0 0 0 0 56.698960916165873 -15.231763821283911 0 -15.231763821283911 -2.0556204995895291 0 0 0 0 915.29322383110411 176.25127215295652 0 176.25127215295652 -1149.2727248610267 0 0 0 0 636.50796064526367 -758.34013034708744 0 -758.34013034708744 62.009334855939358 0 0 0 0 60.779591584112495 -18.955382486201415 0 -18.955382486201415 -59.427340423178066 0 0 0 0 -245.04359686595853 148.60140757606951 0 148.60140757606951 -277.1773559302294 0 0 0 0 49.091122936768443 -4.955081127003325 0 -4.955081127003325 -6.2671264335021988 0 0 0 0 258.8086342380775 682.54935585003147 0 682.54935585003147 -502.17231891235792 0 0 0 0 -373.72346384666162 -279.65277807631537 0 -279.65277807631537 -606.69340751316463 0 0 0 0 1315.8314068388136 296.74783276304765 0 296.74783276304765 -410.88681101317462 0 0 0 0 60.151198087762168 -31.859193573460743 0 -31.859193573460743 -26.601368575072229 0 0 0 0 91.46490282308514 -17.562440940534998 0 -17.562440940534998 -33.583231186993771 0 0 0 0 68.291907410265935 -9.0897962856033079 0 -9.0897962856033079 -4.2039693191461005 0 0 0 0 120.96224209524007 -41.77635562567184 0 -41.77635562567184 -55.129546104096335 0 0 0 0 81.974162013932073 -52.905937776449719 0 -52.905937776449719 -31.439937358508359 0 0 0 0 82.639741806466191 -44.705631602797894 0 -44.705631602797894 -34.918205051316363 0 0 0 0 44.993270022256183 -32.916063248013415 0 -32.916063248013415 -26.650274049459767 0 0 0 0 60.51203147025808 -40.32894479444758 0 -40.32894479444758 -33.358408957498796 0 0 0 0 43.194273468900064 -54.811983830300051 0 -54.811983830300051 -35.114112379334074 0 0 0 0 82.169451409892645 -51.072591069425016 0 -51.072591069425016 -39.505510137121064 0 0 0 0 89.239879652370291 -43.43430222582333 0 -43.43430222582333 -33.945974709708935 0 0 0 0 -84.796292169317894 -74.87304689050552 0 -74.87304689050552 9.6548131479983113 0 0 0 0 254.07816325908061 -64.986534758551898 0 -64.986534758551898 -5.0525452370143284 0 0 0 0 538.76539843846331 -31.198535483202875 0 -31.198535483202875 -144.93391314998735 0 0 0 0 -0.81890913806377341 0.7555926115027205 0 0.7555926115027205 3.68301289953083 0 0 0 0 15.029076719314617 -33.887940412857802 0 -33.887940412857802 -23.553699388077348 0 0 0 0 0.99368183485785266 -35.226367367161856 0 -35.226367367161856 -10.122623025772555 0 0 0 0 37.307858876985847 -39.613859383842282 0 -39.613859383842282 -23.762583890594556 0 0 0 0 95.952081062518118 -96.763462982139572 0 -96.763462982139572 131.25933076998808 0 0 0 0 157.79456535306963 -64.920922535671707 0 -64.920922535671707 4.701847508685205 0 0 0 0 5.869829991496303 -1.0487195985118802 0 -1.0487195985118802 9.2000017588492682 0 0 0 0 127.46543322468642 -125.87189434610309 0 -125.87189434610309 158.09303507734239 0 0 0 0 5.1239739776163731 0.0065823755540499462 0 0.0065823755540499462 2.9308010024537987 0 0 0 0 148.47852756165594 -43.34291968237369 0 -43.34291968237369 -37.272090342477895 0 0 0 0 47.531018758742874 -14.022691168668644 0 -14.022691168668644 3.9439973960178403 0 0 0 0 35.726644712482084 -19.662114877964086 0 -19.662114877964086 -6.2153390272724209 0 0 0 0 69.988530094560701 -13.103568085601637 0 -13.103568085601637 -21.687386114501692 0 0 0 0 31.097205530750557 9.3174703901938472 0 9.3174703901938472 -6.1023440691087618 0 0 0 0 62.601929451529401 -2.9924066287605058 0 -2.9924066287605058 -3.1522170567699566 0 0 0 0 -62.336601860879455 357.35571299506569 0 357.35571299506569 -750.05179347545516 0 0 0 0 15.386756586980482 13.652658950384108 0 13.652658950384108 -11.450908248525391 0 0 0 0 165.81245849732659 73.159162120962662 0 73.159162120962662 -34.676435141922525 0 0 0 0 14.356262076497103 -1.2231898339695704 0 -1.2231898339695704 2.7598066946605968 0 0 0 0 -60.538277312734863 -101.16348022530576 0 -101.16348022530576 -15.571059864043093 0 0 0 0 65.458684916749348 -17.729259730733411 0 -17.729259730733411 4.747054460310836 0 0 0 0 -1.5646692612099287 172.1735107169539 0 172.1735107169539 570.29155213634249 0 0 0 0 -95.19972521730233 -100.39418965836256 0 -100.39418965836256 412.54453668767883 0 0 0 0 -93.540249660371046 234.74752367182066 0 234.74752367182066 759.35967991573034 0 0 0 0 -1.2939088556304341 164.54972228444467 0 164.54972228444467 520.16586588432835 0 0 0 0 38.817955448314024 316.53422145831883 0 316.53422145831883 451.82594302007783 0 0 0 0 106.55070378379605 494.45045473349023 0 494.45045473349023 772.32176928288845 0 0 0 0 -256.65863315365277 393.75253654184348 0 393.75253654184348 593.45888573183936 0 0 0 0 -331.31677550463428 216.88340456451175 0 216.88340456451175 767.84630605630218 0 0 0 0 197.53319770857343 214.03394789987635 0 214.03394789987635 337.64085306879633 0 0 0 0 -594.99409310585179 145.39585826758935 0 145.39585826758935 -39.119517102298914 0 0 0 0 14.29273321695932 0.57772703769242639 0 0.57772703769242639 -4.5924133722400633 0 0 0 0 -538.55311705921849 360.72736614910218 0 360.72736614910218 549.05900947993155 0 0 0 0 1178.84472700888 -59.993592532906916 0 -59.993592532906916 283.52271203071513 0 0 0 0 76.959029380144784 294.43687084379258 0 294.43687084379258 -351.13418217557177 0 0 0 0 230.31859869524487 662.45001120825793 0 662.45001120825793 597.67059230047221 0 0 0 0 -30.581395216828241 120.57639797375006 0 120.57639797375006 392.47429053580345 0 0 0 0 9.7125539014776336 -3.8552473146001365 0 -3.8552473146001365 0.59532151925594268 0 0 0 0 -259.97456275224977 -306.73501815299477 0 -306.73501815299477 1085.8568287284816 0 0 0 0 994.04737411938549 -471.97232245135615 0 -471.97232245135615 20.854434189096992 0 0 0 0 496.12841508270503 -40.096723600996711 0 -40.096723600996711 -320.96642888847714 0 0 0 0 260.11844238359481 -158.67675398594002 0 -158.67675398594002 369.7447317530943 0 0 0 0 801.7970709468209 997.54570237558062 0 997.54570237558062 466.28539346785396 0 0 0 0 14.432358432433261 -1.4232937460994464 0 -1.4232937460994464 0.60446261760412046 0 0 0 0 19.884355479094665 -179.01974882504237 0 -179.01974882504237 1146.3847558842522 0 0 0 0 1121.7956134194974 63.704106075742629 0 63.704106075742629 468.58259046036346 0 0 0 0 125.03790076676523 168.23389771368966 0 168.23389771368966 598.48760910904275 0 0 0 0 324.14725882191124 -76.39204417342944 0 -76.39204417342944 305.81030189858211 0 0 0 0 646.09551239994471 1106.5072892472258 0 1106.5072892472258 924.36071579979216 0 0 0 0 648.026403451222 945.14065625973763 0 945.14065625973763 661.59603445028324 0 0 0 0 106.80320434146051 -125.96629061491467 0 -125.96629061491467 144.86974698167614 0 0 0 0 -159.9625321962194 491.70587689774925 0 491.70587689774925 1008.7965681051019 0 0 0 0 5.7152637008665863 6.7718862480151358 0 6.7718862480151358 10.028175712321179 0 0 0 0 222.54027956095524 25.385799658057294 0 25.385799658057294 -208.53035677276421 0 0 0 0 135.72622787440196 67.408590483911212 0 67.408590483911212 198.85085458765866 0 0 0 0 86.696949408571527 -88.612193983795351 0 -88.612193983795351 143.74152454170871 0 0 0 0 165.28203979891259 -19.750228192914619 0 -19.750228192914619 -159.044007746028 0 0 0 0 -113.84714068379253 57.979541533794873 0 57.979541533794873 156.7423100565029 0 0 0 0 -8.3004955566364629 6.0147665749473589 0 6.0147665749473589 -5.9692483802525516 0 0 0 0 285.93549959061784 390.05363601377871 0 390.05363601377871 -295.90211202904857 0 0 0 0 26.112046771173482 -102.79879244986614 0 -102.79879244986614 -199.07457640742859 0 0 0 0 -131.04961451151758 -45.778239065560683 0 -45.778239065560683 323.1726418780172 0 0 0 0 1016.4172871427727 -300.46725394005944 0 -300.46725394005944 -186.27957159205653 0 0 0 0 -110.56002583538066 36.000493346013627 0 36.000493346013627 265.43844971127692 0 0 0 0 -17.737713729351526 -158.56518262142981 0 -158.56518262142981 893.19979202795594 0 0 0 0 98.88036623824155 -171.32320647211765 0 -171.32320647211765 376.28120240484714 0 0 0 0 -109.296580034832 53.846561167623804 0 53.846561167623804 503.9274074050436 0 0 0 0 13.15604931555572 -2.6864063675793659 0 -2.6864063675793659 37.138701671243098 0 0 0 0 18.526183008914813 -9.8778991362230499 0 -9.8778991362230499 29.863267254243738 0 0 0 0 17.219237768520543 -19.935950508338067 0 -19.935950508338067 -18.135752019724578 0 0 0 0 31.617453521859716 12.461590751608973 0 12.461590751608973 -27.776905832724424 0 0 0 0 34.065841648814967 -13.432289023485964 0 -13.432289023485964 -18.864712515107385 0 0 0 0 35.054553901663894 -41.654011450684678 0 -41.654011450684678 -6.5630082422418923 0 0 0 0 14.425477056080126 13.487651852501926 0 13.487651852501926 -27.184284171029958 0 0 0 0 97.757274686708115 -42.753983636579733 0 -42.753983636579733 -187.04413446931562 0 0 0 0 38.218420374731068 -6.8589743194800121 0 -6.8589743194800121 -41.12393515908559 0 0 0 0 32.890717854853165 -9.2833456924587168 0 -9.2833456924587168 3.6328724108854655 0 0 0 0 17.865181514058861 -10.806802457281039 0 -10.806802457281039 1.570109015947331 0 0 0 0 -54.828789304341626 -73.56785541906531 0 -73.56785541906531 -93.053559953038302 0 0 0 0 38.563335142680444 -17.545198797610055 0 -17.545198797610055 -17.887293347870951 0 0 0 0 33.826162579498487 -24.322657463841551 0 -24.322657463841551 -22.481642856328108 0 0 0 0 -16.324310999596491 -32.414875209437469 0 -32.414875209437469 -93.099660110914101 0 0 0 0 67.496934816910652 -12.611912176296755 0 -12.611912176296755 -91.58849331796705 0 0 0 0 42.663661372291472 -8.4262902807544737 0 -8.4262902807544737 0.40931468623383432 0 0 0 0 44.589393578702584 -56.035253239490203 0 -56.035253239490203 88.257733660804718 0 0 0 0 28.842716062099498 -12.632462400487839 0 -12.632462400487839 -47.900178271792583 0 0 0 0 31.575899721967289 -46.999632497297654 0 -46.999632497297654 18.880061867843011 0 0 0 0 30.288366780237993 -50.271005714932471 0 -50.271005714932471 -42.523401557748684 0 0 0 0 20.475267546935356 -30.910820856307225 0 -30.910820856307225 10.48690141156726 0 0 0 0 -38.756209031809703 33.026224253263166 0 33.026224253263166 90.581996399104412 0 0 0 0 45.617885366082191 -4.0342305109660401 0 -4.0342305109660401 19.654087486898653 0 0 0 0 -12.308204920613207 -28.481067753701382 0 -28.481067753701382 28.600176141101485 0 0 0 0 29.703377522426308 -7.3781236170094067 0 -7.3781236170094067 0.33453747846910253 0 0 0 0 41.174167223944096 -152.49691683473441 0 -152.49691683473441 204.40243909454318 0 0 0 0 22.309409882262116 -58.739520744029335 0 -58.739520744029335 -129.32208296965962 0 0 0 0 -62.378963407783885 -102.00621951967901 0 -102.00621951967901 -59.863112586525745 0 0 0 0 -158.32949923894193 -57.637379919457487 0 -57.637379919457487 108.03689718238456 0 0 0 0 -125.31865596058196 25.993786855949907 0 25.993786855949907 151.67382841553808 0 0 0 0 -7.2015509377524722 105.70242974522867 0 105.70242974522867 136.28164659582288 0 0 0 0 -49.255544026091229 8.8571002070632403 0 8.8571002070632403 64.663546775582446 0 0 0 0 262.9695284477184 -665.1516171305675 0 -665.1516171305675 449.96385161122566 0 0 0 0 802.31771085839137 1228.6872255639737 0 1228.6872255639737 622.76940808019071 0 0 0 0 1136.8989721718644 522.34934228633369 0 522.34934228633369 217.00734640139285 0 0 0 0 1189.2523830278951 -5.5770844090461651 0 -5.5770844090461651 28.754490768028063 0 0 0 0 649.69553104223451 374.116619191989 0 374.116619191989 193.16384152018551 0 0 0 0 192.32736862298771 527.16773996713482 0 527.16773996713482 900.79696009350789 0 0 0 0 31.26418148734075 -6.8874885787196334 0 -6.8874885787196334 1.7733677105553864 0 0 0 0 37.771013622684166 -8.8448259461246153 0 -8.8448259461246153 2.3100618303792446 0 0 0 0 1.4661532501049805 -49.529669352650785 0 -49.529669352650785 25.615839699705418 0 0 0 0 -79.147268080901995 142.05454937913308 0 142.05454937913308 409.67121452497315 0 0 0 0 11.465695412829518 74.356664258541571 0 74.356664258541571 343.22374727297239 0 0 0 0 75.747409509240242 115.62325840810712 0 115.62325840810712 266.65533373526534 0 0 0 0 -16.519985273611383 -40.459639116731125 0 -40.459639116731125 64.835223157169878 0 0 0 0 132.61691073595284 275.17880897061627 0 275.17880897061627 299.95827926817481 0 0 0 0 110.04723152082443 161.70797415842202 0 161.70797415842202 211.76087402699352 0 0 0 0 84.550094230584364 110.77947652537436 0 110.77947652537436 263.33980682386414 0 0 0 0 114.86355603963602 81.099928675822298 0 81.099928675822298 60.2476827155213 0 0 0 0 122.20009706911878 181.73758621557133 0 181.73758621557133 72.353626542789357 0 0 0 0 272.25193980687254 -6.1864494086422184 0 -6.1864494086422184 -189.89029261736687 0 0 0 0 475.37673446559347 420.45340759425017 0 420.45340759425017 278.15601402870027 0 0 0 0 1.8085768962273505 0.018001485955721819 0 0.018001485955721819 -0.19796180519456641 0 0 0 0 695.27111965458607 -179.63677644779671 0 -179.63677644779671 -20.743093697518248 0 0 0 0 606.9575980498048 13.442455627269254 0 13.442455627269254 -53.554743128763221 0 0 0 0 692.84414346057747 182.37244738828258 0 182.37244738828258 -76.788850055374496 0 0 0 0 496.00600221919012 182.62629028925573 0 182.62629028925573 33.406805650708066 0 0 0 0 267.67402054400009 86.287578488251938 0 86.287578488251938 29.850693670648809 0 0 0 0 331.83971349748026 84.427315031683307 0 84.427315031683307 -40.037290838242626 0 0 0 0 216.1629051612108 86.127046130430529 0 86.127046130430529 -27.812034032962984 0 0 0 0 254.79697085163207 118.87034163949771 0 118.87034163949771 -0.063135192587638916 0 0 0 0 203.97138383610582 160.58671696561697 0 160.58671696561697 -29.555661181971487 0 0 0 0 337.04450842425967 167.75835612869415 0 167.75835612869415 -36.066251699706754 0 0 0 0 193.15400496184884 142.35500015208248 0 142.35500015208248 103.84720682708576 0 0 0 0 206.88369041513761 102.97444742618239 0 102.97444742618239 -47.508561037746915 0 0 0 0 3.657450227861375 -0.31531676539141529 0 -0.31531676539141529 -1.0371133113755089 0 0 0 0 189.20547712480038 135.24981013520954 0 135.24981013520954 -0.087686816565400172 0 0 0 0 69.12362666487752 192.17457413497286 0 192.17457413497286 -16.149189909635311 0 0 0 0 293.00118737560115 -238.57598119940297 0 -238.57598119940297 -386.43227866632782 0 0 0 0 1.6532472340369964 -0.30268160598834015 0 -0.30268160598834015 -0.40256623953439297 0 0 0 0 137.82608552926831 126.25545149419435 0 126.25545149419435 135.89966975751202 0 0 0 0 220.57132617269963 221.43286647904819 0 221.43286647904819 159.81714262568096 0 0 0 0 103.00384566928551 -33.467719984486052 0 -33.467719984486052 -54.513701643573427 0 0 0 0 5.8351193321408061 -2.3858964776779032 0 -2.3858964776779032 -4.82994711710767 0 0 0 0 65.542373984060134 3.0921786536195661 0 3.0921786536195661 -4.5922876272983624 0 0 0 0 109.82581888162531 -57.022466872592076 0 -57.022466872592076 -45.756766243568734 0 0 0 0 26.322537563159131 -27.731051839700854 0 -27.731051839700854 -43.833312090662048 0 0 0 0 35.055881893644255 4.4145513910719245 0 4.4145513910719245 -136.79650166504234 0 0 0 0 432.71109475688081 652.35851549480651 0 652.35851549480651 199.74602889005291 0 0 0 0 540.04678511944257 -599.35016942929371 0 -599.35016942929371 144.59791935002863 0 0 0 0 -352.37613671369036 340.78756682545554 0 340.78756682545554 675.94938757262616 0 0 0 0 -9.8358733325849244 24.259372117251573 0 24.259372117251573 -17.136415614140212 0 0 0 0 -262.93896688181485 -2.7298354714942263 0 -2.7298354714942263 -69.408630177755185 0 0 0 0 -406.93393104962888 236.00646859281062 0 236.00646859281062 619.53744099869482 0 0 0 0 60.688457998345257 216.05555239365128 0 216.05555239365128 -313.65295392648079 0 0 0 0 -22.279559069604147 -38.82968064324632 0 -38.82968064324632 -162.38730938277331 0 0 0 0 90.494235035876045 -83.34569126540373 0 -83.34569126540373 -153.33349560534873 0 0 0 0 194.52286121583893 288.05852644448316 0 288.05852644448316 -276.69379292191297 0 0 0 0 14.481938683498697 21.675991522023594 0 21.675991522023594 19.474870979284972 0 0 0 0 -65.893665100185899 155.01044553075189 0 155.01044553075189 -180.27500449276704 0 0 0 0 135.87406987059512 34.743761352122874 0 34.743761352122874 16.014430387224365 0 0 0 0 49.380582623678492 153.78705542084299 0 153.78705542084299 -223.6349449565605 0 0 0 0 -14.416985765281424 25.880622312791274 0 25.880622312791274 27.443252128738095 0 0 0 0 174.54451979672012 87.550099018443433 0 87.550099018443433 11.720075681492744 0 0 0 0 218.5001459614432 -64.472782054010906 0 -64.472782054010906 43.822083570295831 0 0 0 0 109.53321970760589 14.706374218443216 0 14.706374218443216 57.194003893891363 0 0 0 0 189.65273763243749 -38.390471081245096 0 -38.390471081245096 -34.177192764941537 0 0 0 0 253.2289734659862 38.496902255028772 0 38.496902255028772 3.1460807547799732 0 0 0 0 291.95063756627496 -10.374421637627222 0 -10.374421637627222 8.9985296997875821 0 0 0 0 -2.3288296757673379 33.7908144689669 0 33.7908144689669 8.7211060767350546 0 0 0 0 -1.9741525024874136 2.8931571160119347 0 2.8931571160119347 45.774297630775891 0 0 0 0 -112.33670821879059 -10.230910510595095 0 -10.230910510595095 0.19132634297579898 0 0 0 0 8.6411018325270845 2.3034468922087967 0 2.3034468922087967 -2.5761262724163241 0 0 0 0 14.354713495968099 25.986784487728499 0 25.986784487728499 -9.7963785304212578 0 0 0 0 15.237051247560885 11.968884031377456 0 11.968884031377456 -18.184540354592173 0 0 0 0 56.809871628876095 20.20197941105269 0 20.20197941105269 -3.7762762379521497 0 0 0 0 -104.28893695829902 -0.50681959911412378 0 -0.50681959911412378 -8.3014023823966454 0 0 0 0 30.09381176234163 11.529097860715211 0 11.529097860715211 -8.2478937879772136 0 0 0 0 -37.619175601575989 -4.0753306186600184 0 -4.0753306186600184 10.799846270543867 0 0 0 0 109.66544841974974 15.600496403286797 0 15.600496403286797 -87.243446152696833 0 0 0 0 -29.863422359398101 22.099849184721734 0 22.099849184721734 -17.870625408248998 0 0 0 0 -120.21572594915051 10.754511774019647 0 10.754511774019647 13.345101344982595 0 0 0 0 29.417588239302859 -16.580056727882038 0 -16.580056727882038 -12.068558037640287 0 0 0 0 44.721065718738828 60.289655635951135 0 60.289655635951135 -84.442813723430618 0 0 0 0 -134.55666257592384 52.317561286076398 0 52.317561286076398 -26.292267915272873 0 0 0 0 64.955309835611843 8.3386585590440063 0 8.3386585590440063 19.234459598063438 0 0 0 0 -3.754894716025774 -43.946870881942957 0 -43.946870881942957 -12.334899702792654 0 0 0 0 0.71776613933616318 37.110902029183933 0 37.110902029183933 -73.782053573762141 0 0 0 0 30.605725175639236 20.810873200360582 0 20.810873200360582 -9.3399971228189997 0 0 0 0 29.332691775780404 24.479833802320897 0 24.479833802320897 26.155856856147125 0 0 0 0 94.263308313500602 2.1648386627041134 0 2.1648386627041134 11.87693992715154 0 0 0 0 286.06325141170964 27.054035136032727 0 27.054035136032727 -21.207025667342009 0 0 0 0 137.32644989682012 -16.003352829560782 0 -16.003352829560782 19.375927056585617 0 0 0 0 137.451349747309 -15.662748077995872 0 -15.662748077995872 9.0200250413006842 0 0 0 0 137.8392519041663 26.846869888448595 0 26.846869888448595 -7.1900551384232614 0 0 0 0 103.95688807466649 73.787171853184532 0 73.787171853184532 -0.071741267623495503 0 0 0 0 192.41952535769815 15.955855663554527 0 15.955855663554527 -84.786969148291234 0 0 0 0 137.36466397992626 27.352359547659752 0 27.352359547659752 -6.0439126285941711 0 0 0 0 22.335498527099844 -5.7839720494932925 0 -5.7839720494932925 -51.553120841569431 0 0 0 0 68.647357116831699 21.420524967234684 0 21.420524967234684 5.794973755679111 0 0 0 0 -0.3740481511414373 -0.15528077762856185 0 -0.15528077762856185 -0.11324095699643191 0 0 0 0 26.264035440501175 25.854577671182341 0 25.854577671182341 14.490035580969192 0 0 0 0 1.0697654748219065 11.016684063340385 0 11.016684063340385 13.682108958897075 0 0 0 0 8.6081304999534041 3.9206801988937201 0 3.9206801988937201 6.4305203458043252 0 0 0 0 -17.922666601381934 22.115932379458741 0 22.115932379458741 0.054300662484011851 0 0 0 0 -17.975837144331308 -9.8132921781960505 0 -9.8132921781960505 -5.173690513789623 0 0 0 0 -20.334543116798159 -4.6092895871649748 0 -4.6092895871649748 1.792547835136105 0 0 0 0 -21.905454613006441 -7.8323548190662393 0 -7.8323548190662393 10.223815174126628 0 0 0 0 -20.88496914258576 -11.128228652242541 0 -11.128228652242541 0.35112685324526183 0 0 0 0 -13.459501696110237 -5.2348656128731079 0 -5.2348656128731079 3.2664213203530608 0 0 0 0 -21.306911271065474 -3.5223025509284867 0 -3.5223025509284867 9.5757395099820144 0 0 0 0 133.5599549652361 -7.4024463232683644 0 -7.4024463232683644 -48.223152487367202 0 0 0 0 -48.747540260268579 -107.87007631977322 0 -107.87007631977322 -17.285451478568348 0 0 0 0 -35.182352600560989 -55.817104373321456 0 -55.817104373321456 82.630453907330548 0 0 0 0 -58.986148358904757 -150.84320908272775 0 -150.84320908272775 30.080793456731953 0 0 0 0 -1.6940816627997037 -0.15645769050104263 0 -0.15645769050104263 0.24678104421819319 0 0 0 0 -0.11342121596067045 0.16362923167818622 0 0.16362923167818622 -0.48505166635242214 0 0 0 0 -20.187364944249566 -4.9910669022420251 0 -4.9910669022420251 -3.1922883046318731 0 0 0 0 -113.25268236429838 -114.28991222758286 0 -114.28991222758286 52.543646186625018 0 0 0 0 -18.362422767939279 -7.3077592608185995 0 -7.3077592608185995 -5.8957257681794406 0 0 0 0 -142.32489583879942 -186.0381235519298 0 -186.0381235519298 43.681523175232883 0 0 0 0 41.683553555543767 -497.11959185119264 0 -497.11959185119264 -67.779078345713373 0 0 0 0 57.284428716237016 -199.41279317963182 0 -199.41279317963182 -0.55643256276653641 0 0 0 0 -10.939506988826906 -161.05563379878214 0 -161.05563379878214 0.23798835665633078 0 0 0 0 281.14920608788088 -116.83457694435471 0 -116.83457694435471 -86.969302430949142 0 0 0 0 279.68788902456799 -121.00282211633706 0 -121.00282211633706 10.119679829645747 0 0 0 0 18.126928108598804 -61.729748521782653 0 -61.729748521782653 -78.035127069407679 0 0 0 0 353.36671895865584 -60.741266086733845 0 -60.741266086733845 -144.95803731378453 0 0 0 0 -46.319628217053832 -173.89596714458975 0 -173.89596714458975 8.6164439423189663 0 0 0 0 62.268864189289161 -151.84161990098011 0 -151.84161990098011 -59.927785609247621 0 0 0 0 -19.789366020500893 -91.007469250593772 0 -91.007469250593772 -97.138185924092909 0 0 0 0 -17.576886867027497 -131.70927504292229 0 -131.70927504292229 -60.736448965955901 0 0 0 0 49.638937943731435 -77.400317780015769 0 -77.400317780015769 -275.81597723218601 0 0 0 0 489.46686318624415 -368.06632112400428 0 -368.06632112400428 -208.70073932730497 0 0 0 0 43.280703556520564 -2.5610338368252226 0 -2.5610338368252226 -0.59382125004564834 0 0 0 0 -58.345392798801186 -152.60331328908853 0 -152.60331328908853 -143.4204515513652 0 0 0 0 -104.45058798472746 59.272798176450237 0 59.272798176450237 -176.28966276819375 0 0 0 0 14.598208807840592 -1.8621183444139788 0 -1.8621183444139788 -0.26213260172118968 0 0 0 0 404.28774589906971 133.17965801161643 0 133.17965801161643 -397.70508519029204 0 0 0 0 204.48835645725921 87.468793966258261 0 87.468793966258261 177.15527499157525 0 0 0 0 249.75928593199933 -140.72552463128886 0 -140.72552463128886 -568.26602367031455 0 0 0 0 240.13306264540006 156.82231757673102 0 156.82231757673102 -705.7893825137985 0 0 0 0 31.225563528402574 2.7032527082391127 0 2.7032527082391127 -2.2834705538589501 0 0 0 0 -241.13748664323793 169.91837337758477 0 169.91837337758477 -237.68764123980054 0 0 0 0 145.64259663622943 523.95234226336697 0 523.95234226336697 -374.61996870394046 0 0 0 0 293.0505379018723 -590.06229047983709 0 -590.06229047983709 409.70774195225886 0 0 0 0 12.952014145585963 -0.12106284364783448 0 -0.12106284364783448 -1.5148366178941912 0 0 0 0 108.63174841678119 -141.48740762954731 0 -141.48740762954731 286.42854742720419 0 0 0 0 249.20013581766398 -253.9601213615274 0 -253.9601213615274 -70.524791444234353 0 0 0 0 254.68570729039493 -265.5489506995732 0 -265.5489506995732 -111.26657876066702 0 0 0 0 225.48842534223513 -206.63184955536605 0 -206.63184955536605 -160.58345658210897 0 0 0 0 343.31908618440502 -191.54544865620983 0 -191.54544865620983 -291.0078698718068 0 0 0 0 -81.696532646805281 53.474916982033506 0 53.474916982033506 -266.09420737932317 0 0 0 0 134.97726614930434 -200.72376017247527 0 -200.72376017247527 -98.706695937330636 0 0 0 0 -1345.0449363975495 -771.39356796991183 0 -771.39356796991183 725.57840402544923 0 0 0 0 783.86825946587487 31.795612487594099 0 31.795612487594099 -396.46556751369724 0 0 0 0 869.56703821223346 -168.28822400215063 0 -168.28822400215063 -458.26804750271117 0 0 0 0 206.79934097459773 -191.69643898112838 0 -191.69643898112838 -109.53741173028033 0 0 0 0 2182.5990499160107 957.85592835578336 0 957.85592835578336 -618.57960821241409 0 0 0 0 374.39153685496422 -497.28072025964002 0 -497.28072025964002 -627.81813039523195 0 0 0 0 32.090859981324172 4.7695088196226223 0 4.7695088196226223 -1.1322809102561111 0 0 0 0 231.84373737497663 -165.54543304650952 0 -165.54543304650952 -84.245820779812732 0 0 0 0 413.25407421378259 358.30690410687077 0 358.30690410687077 122.80199515250024 0 0 0 0 -777.06146923721826 8.3241482092909109 0 8.3241482092909109 22.410075308381806 0 0 0 0 348.39312936182341 -305.45251574938209 0 -305.45251574938209 -363.20086580976317 0 0 0 0 346.11240182463553 16.034429509723829 0 16.034429509723829 -331.37415409256869 0 0 0 0 612.40053834478022 -42.444389201036699 0 -42.444389201036699 -134.12765769979214 0 0 0 0 628.39351445274951 -117.82419294610861 0 -117.82419294610861 -272.48401725713325 0 0 0 0 578.09203892601363 -240.25300428651491 0 -240.25300428651491 1.7748351214142213 0 0 0 0 650.97606826944684 787.35620191527164 0 787.35620191527164 554.81185371092192 0 0 0 0 5.7663625191286201 0.26884933088362573 0 0.26884933088362573 -0.22577952837829354 0 0 0 0 1051.1486426060583 -49.28337577362268 0 -49.28337577362268 -199.33585804017997 0 0 0 0 401.38321030931547 289.55692494293169 0 289.55692494293169 18.474757521872277 0 0 0 0 5.9311266088334378 -0.21732201489818756 0 -0.21732201489818756 -0.0019346369931982159 0 0 0 0 11.871329359450101 1.7157203295313934 0 1.7157203295313934 -0.73982334990034704 0 0 0 0 4.8387919552769745 -0.89630729909308526 0 -0.89630729909308526 -0.15635927594593735 0 0 0 0 -5.3880237716657575 -1.9859753976144674 0 -1.9859753976144674 -2.5397181315535562 0 0 0 0 1.0742074034933466 -0.53622962580055689 0 -0.53622962580055689 0.00088041738997223255 0 0 0 0 17.213059044064721 -22.126914098211216 0 -22.126914098211216 -18.944663049859983 0 0 0 0 14.30048252550182 -3.3518453833634823 0 -3.3518453833634823 -0.038516819276058933 0 0 0 0 1.8777990509342999 -1.0745168171609727 0 -1.0745168171609727 -0.13571657709994717 0 0 0 0 830.14500096097254 -306.48324713225543 0 -306.48324713225543 -205.32729467857791 0 0 0 0 264.90801526832365 607.50604882105188 0 607.50604882105188 47.270176771233082 0 0 0 0 -30.379203295189654 411.19873014845928 0 411.19873014845928 169.55489933523484 0 0 0 0 0.14795415518017307 -0.15182921263053828 0 -0.15182921263053828 0.053215357662797204 0 0 0 0 -14.132988580415258 -19.349060259441686 0 -19.349060259441686 90.237389484032448 0 0 0 0 0.23934089040267281 -0.03122102659436455 0 -0.03122102659436455 8.8910531221749763e-05 0 0 0 0 19.740041166314768 -9.5377913464909856 0 -9.5377913464909856 -7.6184993687535965 0 0 0 0 27.003999550419394 16.782715607429786 0 16.782715607429786 15.504222864878159 0 0 0 0 15.336672594341508 -35.274772637770702 0 -35.274772637770702 -1.5626086853882057 0 0 0 0 12.337516232219059 16.574689537508526 0 16.574689537508526 -40.773861383174889 0 0 0 0 0.68048886337783188 -0.3601778327432032 0 -0.3601778327432032 0.16593382193611791 0 0 0 0 -36.966512000770308 -16.81884038050196 0 -16.81884038050196 30.479696457980907 0 0 0 0 -14.651736003841506 -33.94726005158968 0 -33.94726005158968 40.346968067919498 0 0 0 0 0.66458204487003059 -0.091773881934635426 0 -0.091773881934635426 0.015487550749330142 0 0 0 0 -256.62525588307471 102.98430772455856 0 102.98430772455856 692.04325137837782 0 0 0 0 28.485912208780064 -45.08693143672177 0 -45.08693143672177 -65.169043628570435 0 0 0 0 -24.657728974401834 -33.689774969710676 0 -33.689774969710676 27.136527195379188 0 0 0 0 12.879278850033643 -6.4888221664208743 0 -6.4888221664208743 1.3843552211115502 0 0 0 0 -263.36260946185075 -38.997884288388434 0 -38.997884288388434 279.30290987524984 0 0 0 0 -1.2031432696941238 -1.5817651280428962 0 -1.5817651280428962 0.83492148843630609 0 0 0 0 -286.2370268053055 151.25183489575642 0 151.25183489575642 203.63334594965193 0 0 0 0 -51.654208389983978 -287.05277925708367 0 -287.05277925708367 -308.23742679679339 0 0 0 0 230.76691156026209 453.8817081626587 0 453.8817081626587 527.5608986886009 0 0 0 0 -154.41792989091482 141.6408110435371 0 141.6408110435371 69.342885502926777 0 0 0 0 75.244022299943026 415.30462608233245 0 415.30462608233245 210.30996558946401 0 0 0 0 -157.06646246082801 171.87819161130972 0 171.87819161130972 326.626935276685 0 0 0 0 462.21880243567284 311.6384517100937 0 311.6384517100937 -145.75789634232046 0 0 0 0 103.73320922148559 154.79247015111679 0 154.79247015111679 -214.29460350772547 0 0 0 0 178.94363437677384 240.98509754475276 0 240.98509754475276 -304.36876759547204 0 0 0 0 -205.65701675161836 284.08724335006013 0 284.08724335006013 -315.63437904001665 0 0 0 0 -163.22089474278619 149.04404793007882 0 149.04404793007882 -272.26345782755925 0 0 0 0 -29.190145922621014 315.56927159195243 0 315.56927159195243 -86.998294028909697 0 0 0 0 -205.9212635437143 318.79388849368166 0 318.79388849368166 13.589765622153834 0 0 0 0 -117.86778233444784 200.24510312015394 0 200.24510312015394 -18.681418166629157 0 0 0 0 209.42070855971542 -2.415204975348388 0 -2.415204975348388 34.529873544220209 0 0 0 0 -348.40400278651214 409.21727355275141 0 409.21727355275141 -77.225389357425911 0 0 0 0 0.78776567142230647 -1.1725271188105637 0 -1.1725271188105637 -2.0439104265259203 0 0 0 0 -377.80431044573197 225.17733732713825 0 225.17733732713825 -6.8500707610068048 0 0 0 0 132.68536414921618 21.491072098512781 0 21.491072098512781 63.999963191720553 0 0 0 0 134.82327017417992 -61.830343225124807 0 -61.830343225124807 -3.1491013944671522 0 0 0 0 228.18389935683808 64.889797627725812 0 64.889797627725812 60.218804111319741 0 0 0 0 228.8937589713878 -165.34388371074314 0 -165.34388371074314 67.313477340658551 0 0 0 0 13.276898845052642 2.5991362962174733 0 2.5991362962174733 0.56819869118727784 0 0 0 0 559.72735582661699 -631.39275870795609 0 -631.39275870795609 559.90905118839862 0 0 0 0 -159.76959046142292 652.92918770339566 0 652.92918770339566 84.092480618234333 0 0 0 0 1219.5020535563308 195.74304586826099 0 195.74304586826099 -50.026020573437393 0 0 0 0 369.77451111332448 -38.085647401549508 0 -38.085647401549508 -67.023887341167892 0 0 0 0 348.86004408360168 106.52290084098786 0 106.52290084098786 -391.05040362325826 0 0 0 0 286.75549561250955 96.835350385576135 0 96.835350385576135 -369.56717783765907 0 0 0 0 163.22583022498293 112.25907740233176 0 112.25907740233176 -120.30162257700246 0 0 0 0 360.95970086602028 -343.7539192042907 0 -343.7539192042907 -147.08361582929001 0 0 0 0 244.74276209145319 -304.83107034544923 0 -304.83107034544923 46.873414049268149 0 0 0 0 335.72900822404335 -235.64957444114657 0 -235.64957444114657 -299.63126186406271 0 0 0 0 64.796623025487861 15.80726453182475 0 15.80726453182475 0.83740532598393891 0 0 0 0 104.38725837749371 41.093011471568161 0 41.093011471568161 -30.541556150849829 0 0 0 0 178.49946945720876 -15.001156289197297 0 -15.001156289197297 -252.40498446283675 0 0 0 0 10.837297593940434 11.194027708875296 0 11.194027708875296 -1.8366788990534859 0 0 0 0 141.44534939463483 -144.20757368721388 0 -144.20757368721388 -633.05671889891983 0 0 0 0 38.682846090283419 116.56587504418499 0 116.56587504418499 -369.43920453155533 0 0 0 0 6.2870119155628856 -7.7148331018100578 0 -7.7148331018100578 -12.551620416939727 0 0 0 0 74.358583124974757 -3.2437045388155639 0 -3.2437045388155639 -38.55242593679759 0 0 0 0 123.07715123803064 -62.539988602183712 0 -62.539988602183712 -36.129796649339823 0 0 0 0 65.375389229559005 -47.513616431069806 0 -47.513616431069806 -2.2422345039503853 0 0 0 0 131.53203057375504 -22.020904308123136 0 -22.020904308123136 -63.489717407457647 0 0 0 0 100.31496215637162 -72.697647411932394 0 -72.697647411932394 -35.145550739744067 0 0 0 0 129.57175836199167 -11.580036255611049 0 -11.580036255611049 -168.7969949059916 0 0 0 0 89.191016667086842 2.3167254114090099 0 2.3167254114090099 20.74342332211836 0 0 0 0 85.270376174991725 -58.689080812926193 0 -58.689080812926193 -22.673236640584037 0 0 0 0 22.433298459131038 -51.698859905759491 0 -51.698859905759491 13.069950684441437 0 0 0 0 18.745962116248847 -30.825658519291807 0 -30.825658519291807 -6.6963355910947939 0 0 0 0 6.2002115524360022 -5.0135002963187674 0 -5.0135002963187674 -4.9676517146893069 0 0 0 0 48.742128414822218 -34.70104817005182 0 -34.70104817005182 -76.31806471745017 0 0 0 0 52.644083140708972 -51.206377407964737 0 -51.206377407964737 -20.587872008674822 0 0 0 0 81.911374884424731 4.0777100861123472 0 4.0777100861123472 -31.814493303631934 0 0 0 0 33.612731751412525 -1.7982797911498949 0 -1.7982797911498949 -8.0723159925905268 0 0 0 0 114.41968007705873 165.65005864636828 0 165.65005864636828 -379.88213469989887 0 0 0 0 5.3353022441755513 -16.833110387652297 0 -16.833110387652297 -11.854961275061651 0 0 0 0 7.9175892031053081 -5.1685820519137451 0 -5.1685820519137451 -28.642419932909434 0 0 0 0 -23.247616208711406 138.43695101655283 0 138.43695101655283 -353.61098752535327 0 0 0 0 7.220697177996044 -1.3708224152463799 0 -1.3708224152463799 -22.508035808859859 0 0 0 0 49.388129925439898 5.1749555497628847 0 5.1749555497628847 -6.5761784090829112 0 0 0 0 117.72686880658148 -26.347115991423379 0 -26.347115991423379 -40.930951340072397 0 0 0 0 -0.3237264503386541 -0.71604228056447283 0 -0.71604228056447283 -0.48089114930046728 0 0 0 0 4.2633905227994546 32.064338625684286 0 32.064338625684286 12.675196645812321 0 0 0 0 59.438417186688241 -0.78443457039841746 0 -0.78443457039841746 -8.339582943907601 0 0 0 0 29.39801831751538 28.606871696219514 0 28.606871696219514 -225.36925822554485 0 0 0 0 32.655553435244656 9.0858659195733367 0 9.0858659195733367 12.388485497942156 0 0 0 0 -30.565633648024232 116.51605716783763 0 116.51605716783763 -335.2207055568947 0 0 0 0 71.268601686155307 10.85789653088068 0 10.85789653088068 -16.813582367138224 0 0 0 0 35.06455657799961 -72.012727306265333 0 -72.012727306265333 -205.3523814405014 0 0 0 0 50.168131080393493 -2.5726836081879014 0 -2.5726836081879014 -8.1037090986592304 0 0 0 0 24.504965248666053 -8.7947380681385496 0 -8.7947380681385496 -0.078841032857295268 0 0 0 0 65.461774052848341 -69.607250745290685 0 -69.607250745290685 -74.005530745109922 0 0 0 0 66.324506821780233 -79.950100290880073 0 -79.950100290880073 -58.050188874018204 0 0 0 0 -36.823940432819654 -140.0146778714743 0 -140.0146778714743 -288.08382634068175 0 0 0 0 -20.808598408591934 -193.28360350571535 0 -193.28360350571535 -264.79679834752596 0 0 0 0 85.403752324156812 -114.13297073017213 0 -114.13297073017213 -362.97522056441358 0 0 0 0 55.827521181636257 -122.03569904050414 0 -122.03569904050414 -243.71929177027755 0 0 0 0 74.172155163149 -215.03663524182036 0 -215.03663524182036 -290.90597069227306 0 0 0 0 87.177666020998572 75.084518532836711 0 75.084518532836711 -422.94346968942978 0 0 0 0 700.97978770595364 -92.220034344969235 0 -92.220034344969235 -450.54520818184562 0 0 0 0 171.17106204291849 1.5757220114647055 0 1.5757220114647055 -438.41291286786827 0 0 0 0 247.90011050914472 -153.07614899534337 0 -153.07614899534337 -353.74907131023826 0 0 0 0 90.531598792702425 -42.043608357636685 0 -42.043608357636685 -281.61716053328519 0 0 0 0 9.9478441093153833 -1.8384215187147461 0 -1.8384215187147461 -0.21934233581749574 0 0 0 0 29.766533200781851 -224.57224816503935 0 -224.57224816503935 -384.8748256373957 0 0 0 0 -72.580481554759899 -186.51242808454754 0 -186.51242808454754 -294.93819742122059 0 0 0 0 244.74368863044947 -67.572598249474822 0 -67.572598249474822 38.003646127957438 0 0 0 0 76.016805362327432 -48.678735767666467 0 -48.678735767666467 41.881432372407289 0 0 0 0 -522.29078255586865 614.6196245029945 0 614.6196245029945 281.40263944658318 0 0 0 0 309.57512306263379 0.24767079257452451 0 0.24767079257452451 -42.345348765963479 0 0 0 0 -2.6124098729875982 -1.198577950839109 0 -1.198577950839109 -2.2199318426270889 0 0 0 0 155.44129348697243 58.132990289386242 0 58.132990289386242 55.43783762285841 0 0 0 0 257.88142218701978 214.91680719072531 0 214.91680719072531 224.23803695528517 0 0 0 0 47.549171581929841 -70.300618764364117 0 -70.300618764364117 25.819611204785133 0 0 0 0 56.695841872795427 366.58703871748185 0 366.58703871748185 367.23869518923539 0 0 0 0 321.13162853105314 183.7571505038818 0 183.7571505038818 196.82171455017533 0 0 0 0 535.30832565680612 459.44925447181095 0 459.44925447181095 321.103908934674 0 0 0 0 962.85032455783221 432.28827789805939 0 432.28827789805939 362.16516171158275 0 0 0 0 672.8865142207942 298.95781276894104 0 298.95781276894104 252.40414872398992 0 0 0 0 716.58268328220583 230.89167530726377 0 230.89167530726377 608.65631233862405 0 0 0 0 1039.8951312261051 188.7560325906793 0 188.7560325906793 314.98309902180495 0 0 0 0 345.25201958182879 413.84744335759689 0 413.84744335759689 691.81660707164133 0 0 0 0 -157.57457652699668 -12.904049448844148 0 -12.904049448844148 685.1181414771454 0 0 0 0 301.55198378379282 84.340197999035126 0 84.340197999035126 1012.1129507755286 0 0 0 0 246.78355729181203 237.89935468888007 0 237.89935468888007 606.83426471744406 0 0 0 0 -0.12975223849883832 1.3969628801268783 0 1.3969628801268783 -1.1484277624910959 0 0 0 0 356.04363393389212 -670.66681896414184 0 -670.66681896414184 1317.9059861748729 0 0 0 0 139.32535804427607 423.69185017782104 0 423.69185017782104 870.26273658717582 0 0 0 0 14.549537699639473 3.4470465658226104 0 3.4470465658226104 1.6563174929956643 0 0 0 0 456.76072257908527 596.99185094074255 0 596.99185094074255 358.13886134758013 0 0 0 0 855.71858075533237 468.5261460949946 0 468.5261460949946 -55.063988048918873 0 0 0 0 945.56707280391129 676.35779703682147 0 676.35779703682147 26.054989038775147 0 0 0 0 793.28497234964016 -869.39220885586474 0 -869.39220885586474 860.81297055937375 0 0 0 0 1468.1674240730717 -303.53219768917347 0 -303.53219768917347 10.482279196894524 0 0 0 0 528.55675396695733 78.721746110017193 0 78.721746110017193 -30.823642727441097 0 0 0 0 913.53756609972334 -225.6850932656298 0 -225.6850932656298 -63.093139028683254 0 0 0 0 966.74602836693521 411.41025661086678 0 411.41025661086678 -128.88785943521043 0 0 0 0 801.68902335471648 286.21025540589835 0 286.21025540589835 -180.96481596050035 0 0 0 0 -81.681785967613905 441.56990855744721 0 441.56990855744721 -28.081212444426455 0 0 0 0 169.46539196686354 577.72334197060854 0 577.72334197060854 -54.079190982959744 0 0 0 0 214.32299938192591 496.51219347395318 0 496.51219347395318 -196.00951411189999 0 0 0 0 174.11463261170502 336.2365253213141 0 336.2365253213141 -150.32935124938922 0 0 0 0 202.17670131095656 -101.91610998395902 0 -101.91610998395902 -63.57910916326091 0 0 0 0 472.90536677435739 259.74101346353973 0 259.74101346353973 -227.91122739147295 0 0 0 0 119.79899175529135 -19.974576463327367 0 -19.974576463327367 -265.5003465238583 0 0 0 0 489.0601867151272 -170.93774835760178 0 -170.93774835760178 -241.95386845068128 0 0 0 0 226.42609627561615 -356.4882757417389 0 -356.4882757417389 85.449185072322052 0 0 0 0 196.5205028434284 -199.60930945547761 0 -199.60930945547761 -63.899556348211263 0 0 0 0 254.78514688753057 -285.17760616065789 0 -285.17760616065789 -125.75350331084985 0 0 0 0 200.46104667103646 -104.76391809175328 0 -104.76391809175328 44.577962521414975 0 0 0 0 251.90670792455785 -259.92614030981213 0 -259.92614030981213 -110.89904852199408 0 0 0 0 238.44949817581801 -274.492321359465 0 -274.492321359465 -50.248369244506193 0 0 0 0 180.48709607280034 -267.98936209979274 0 -267.98936209979274 219.66705789998878 0 0 0 0 104.91708731307779 110.93866427716394 0 110.93866427716394 -191.6726944313441 0 0 0 0 40.938427883795555 10.28305632125285 0 10.28305632125285 2.7202170617114998 0 0 0 0 262.68820418501855 -177.07901894152201 0 -177.07901894152201 153.21434380963274 0 0 0 0 240.8351050581623 -334.67266708145576 0 -334.67266708145576 628.31402996986571 0 0 0 0 3495.5265484445845 1439.8291064765417 0 1439.8291064765417 243.20183951513178 0 0 0 0 3310.4462322550935 934.07598570360108 0 934.07598570360108 -66.227883437640671 0 0 0 0 -0.73358911395976634 12.209812520729201 0 12.209812520729201 -1.0626410173243575 0 0 0 0 84.809952472664008 33.067507991141923 0 33.067507991141923 -3.8464025263110102 0 0 0 0 1477.7849847646648 48.074126623795074 0 48.074126623795074 1.3709410170283394 0 0 0 0 2529.0644637864243 259.04396867207208 0 259.04396867207208 -97.458319618553674 0 0 0 0 -3.8262941241274007 4.9079340828145348 0 4.9079340828145348 0.763022476496931 0 0 0 0 0.33722521113750759 1.4039690056201835 0 1.4039690056201835 0.18940686739465504 0 0 0 0 247.41859849941829 81.357842883925883 0 81.357842883925883 14.030855939087512 0 0 0 0 150.67570404984144 -9.8425899939708437 0 -9.8425899939708437 0.16925001004918983 0 0 0 0 116.05836205376545 27.960356993976134 0 27.960356993976134 19.205674198807223 0 0 0 0 135.57565539103234 20.345947096335607 0 20.345947096335607 -9.7584676328642956 0 0 0 0 79.371599303849507 34.276213327994952 0 34.276213327994952 13.452513014005746 0 0 0 0 146.07748431470827 54.480220049830422 0 54.480220049830422 11.984494571161164 0 0 0 0 109.02114635565522 24.37250150212158 0 24.37250150212158 -10.438751794305233 0 0 0 0 95.894998859250336 -0.55607400111421157 0 -0.55607400111421157 -6.8132893876431275 0 0 0 0 86.924060029165048 9.1735707962665991 0 9.1735707962665991 -16.863729056883699 0 0 0 0 40.934035639969807 -2.3329966372141371 0 -2.3329966372141371 -16.281282795392457 0 0 0 0 73.567760237303446 -21.219339149404362 0 -21.219339149404362 -14.517569431489264 0 0 0 0 42.769294432524475 -4.6454422577783134 0 -4.6454422577783134 0.27344317933143358 0 0 0 0 85.795097426555003 -11.367468829405311 0 -11.367468829405311 17.011437492199498 0 0 0 0 107.93361590462155 20.101684503627173 0 20.101684503627173 8.1449670187749135 0 0 0 0 41.522720505789039 -1.1195730007415312 0 -1.1195730007415312 14.384233112228529 0 0 0 0 83.220104745014396 -14.247466643538193 0 -14.247466643538193 -0.075787535493770236 0 0 0 0 85.972306157360435 -7.2273942985448851 0 -7.2273942985448851 -9.5460285794961663 0 0 0 0 14.391196038021008 -17.10063659774886 0 -17.10063659774886 3.5441048909324895 0 0 0 0 19.484268784261076 -3.4782285067935668 0 -3.4782285067935668 4.1782800253375552 0 0 0 0 24.648911341108033 -19.038200796822949 0 -19.038200796822949 0.171806815582424 0 0 0 0 42.708029939729386 -9.9304742124358665 0 -9.9304742124358665 -4.54808177834731 0 0 0 0 14.383714127339772 -14.564461572042385 0 -14.564461572042385 3.4042753619899671 0 0 0 0 14.532197291933699 -42.8889035435067 0 -42.8889035435067 33.757174285425513 0 0 0 0 -13.68477345071733 -46.654223759347317 0 -46.654223759347317 -7.7429759355359122 0 0 0 0 17.712030815130674 -19.510205955137774 0 -19.510205955137774 2.0150520443455449 0 0 0 0 -5.3134825134184211 -5.1751331373166849 0 -5.1751331373166849 -4.066874584459768 0 0 0 0 15.078725738247158 -20.752975603860875 0 -20.752975603860875 -6.0999298580135477 0 0 0 0 9.783907241144334 -5.8232811648064278 0 -5.8232811648064278 -27.660235932618377 0 0 0 0 4.0314853087475058 -44.109199831380252 0 -44.109199831380252 -30.016681945881754 0 0 0 0 326.44910918362439 35.834969567549194 0 35.834969567549194 -374.96223743078417 0 0 0 0 45.648337189730228 -11.169762699602233 0 -11.169762699602233 -15.916393688270063 0 0 0 0 -0.45317863674426917 -18.939510790133639 0 -18.939510790133639 -3.3548116310311542 0 0 0 0 266.10809092332784 200.49413475444277 0 200.49413475444277 69.341622256241521 0 0 0 0 14.045547337513 -6.9999711838267018 0 -6.9999711838267018 0.45820378049447141 0 0 0 0 95.219968914578203 72.872507551544118 0 72.872507551544118 138.12690926554842 0 0 0 0 18.334704092441825 -58.482914942881507 0 -58.482914942881507 -5.7988109383411484 0 0 0 0 144.36339317061356 0.70551871526686227 0 0.70551871526686227 1.0148955810270763 0 0 0 0 15.884395877811556 -10.125181491381582 0 -10.125181491381582 1.9956354056923733 0 0 0 0 133.82568270784623 105.64326588851918 0 105.64326588851918 46.880168657777403 0 0 0 0 130.96178154017252 4.6567085702852182 0 4.6567085702852182 25.154634398398912 0 0 0 0 55.555979913651015 -1.7302730590234248 0 -1.7302730590234248 -7.4018000223603106 0 0 0 0 108.00774714593717 -21.930977410461082 0 -21.930977410461082 -84.854192530854675 0 0 0 0 21.747836053618812 11.683383679283565 0 11.683383679283565 71.304054036265143 0 0 0 0 -2.2451595969687332 49.87566700682612 0 49.87566700682612 88.227818858870251 0 0 0 0 61.51815264931065 56.77154909655178 0 56.77154909655178 -12.399168466727133 0 0 0 0 -77.93060465950839 -121.48318874186663 0 -121.48318874186663 -312.4159110001392 0 0 0 0 13.902906276610167 -4.6841061410194058 0 -4.6841061410194058 0.88479298066474632 0 0 0 0 -37.964039785423665 -162.46823039288722 0 -162.46823039288722 -318.27338128322231 0 0 0 0 -45.848700468661264 -148.76736656284413 0 -148.76736656284413 -295.68091419089546 0 0 0 0 -68.364137067255797 -125.9461611651177 0 -125.9461611651177 -328.28734056152007 0 0 0 0 -71.872393648867728 -119.72300949963551 0 -119.72300949963551 -309.02772256140634 0 0 0 0 -23.908645405950665 -228.04667827298414 0 -228.04667827298414 -370.45719131435249 0 0 0 0 4.6772400151828322 -1.3180782532215716 0 -1.3180782532215716 -0.13956918385487849 0 0 0 0 -34.317543646669947 -140.25015106878709 0 -140.25015106878709 -292.92589558454824 0 0 0 0 -44.150281531226938 -151.54619608124881 0 -151.54619608124881 -302.38160046220548 0 0 0 0 -112.89403342861624 -142.89422151417421 0 -142.89422151417421 -303.26358461457045 0 0 0 0 -43.542539967784251 215.20791277283325 0 215.20791277283325 237.47165169319686 0 0 0 0 185.50624725803209 14.897414268087346 0 14.897414268087346 -92.188890648752249 0 0 0 0 526.36795253013406 -171.62091670499143 0 -171.62091670499143 -296.12968863127571 0 0 0 0 11.521483405711479 -79.299882510710631 0 -79.299882510710631 -106.90132433064036 0 0 0 0 55.497467456179322 -0.81566432043360493 0 -0.81566432043360493 -5.4133950228906027 0 0 0 0 106.61699206047342 18.486871185182736 0 18.486871185182736 -24.149823677501125 0 0 0 0 155.94525081722531 -194.94401595297745 0 -194.94401595297745 -365.19993242270857 0 0 0 0 -148.23545710087637 184.30660225212966 0 184.30660225212966 19.965984456970318 0 0 0 0 393.53394519722497 32.331227053225234 0 32.331227053225234 -307.07164232340779 0 0 0 0 -14.070161709096283 -97.386779643430259 0 -97.386779643430259 -179.2708690456293 0 0 0 0 -215.00265933971968 -170.69812767626524 0 -170.69812767626524 -188.88689788708587 0 0 0 0 29.443110052903648 -8.3464749960149902 0 -8.3464749960149902 -293.26932899995637 0 0 0 0 12.463649170903295 -6.2058800350760208 0 -6.2058800350760208 -7.4425503699082531 0 0 0 0 46.649235565957497 -152.76999882265696 0 -152.76999882265696 -175.05168938104657 0 0 0 0 65.013015755946981 -172.40656595961707 0 -172.40656595961707 -333.63360762749971 0 0 0 0 8.1684200578378636 9.2050431608228607 0 9.2050431608228607 -3.7011641436496756 0 0 0 0 27.667893412901321 15.535626444478112 0 15.535626444478112 50.172116815337176 0 0 0 0 59.187231762887677 71.666497280156591 0 71.666497280156591 -7.9535852977204513 0 0 0 0 32.13152876147069 34.420902082553994 0 34.420902082553994 52.803512107758024 0 0 0 0 57.500902302413607 13.388503471921837 0 13.388503471921837 5.6087420787060251 0 0 0 0 79.456132067559793 6.7802192876179399 0 6.7802192876179399 -1.0679279076865669 0 0 0 0 29.251170438393387 -8.0058190154112481 0 -8.0058190154112481 5.0805673809290086 0 0 0 0 104.19610806312994 56.268945006754166 0 56.268945006754166 9.2588246611512659 0 0 0 0 116.78981893294258 38.307799771914461 0 38.307799771914461 -24.048401801126747 0 0 0 0 34.851871110426146 -22.321452008208695 0 -22.321452008208695 -15.638175672164344 0 0 0 0 78.246934020986373 -1.5818735433778386 0 -1.5818735433778386 -15.106151565823666 0 0 0 0 57.028399027069099 9.5809940576018562 0 9.5809940576018562 -0.17210757344543026 0 0 0 0 86.678789328674611 8.1499096702590634 0 8.1499096702590634 -4.7084299756628525 0 0 0 0 77.678570100964862 13.789603829847351 0 13.789603829847351 -14.008093204361757 0 0 0 0 83.740810988332669 15.643007850274692 0 15.643007850274692 -17.595004269936737 0 0 0 0 59.568450715531213 23.530026931562574 0 23.530026931562574 -1.9029411686029352 0 0 0 0 91.800706225010799 360.36455893455957 0 360.36455893455957 -264.69717857128842 0 0 0 0 80.071639779706402 -2.7518509056600902 0 -2.7518509056600902 8.8558562678975932 0 0 0 0 62.649426907406621 24.431260480336874 0 24.431260480336874 2.55872073425886 0 0 0 0 34.569610519873095 -70.530573805143547 0 -70.530573805143547 33.686249904301349 0 0 0 0 -157.6008472891408 195.32599916138747 0 195.32599916138747 -19.196001603401669 0 0 0 0 12.070281312371662 -12.402520750089764 0 -12.402520750089764 -98.275203474311866 0 0 0 0 34.379958879221704 -53.407164754845283 0 -53.407164754845283 -55.915676379356455 0 0 0 0 105.95895471280528 -73.649510894145806 0 -73.649510894145806 -233.90399149144946 0 0 0 0 14.694076687003957 5.2761877345376718 0 5.2761877345376718 1.1296458241012215 0 0 0 0 -2.4611790197668597 -117.05639495368609 0 -117.05639495368609 -190.71807291579285 0 0 0 0 32.643147157476562 58.462024887867983 0 58.462024887867983 90.755933719444442 0 0 0 0 573.58767974562215 -82.580654728383479 0 -82.580654728383479 -19.825450101408649 0 0 0 0 575.06868050855701 -3.9804162133920045 0 -3.9804162133920045 37.571047565722893 0 0 0 0 -165.74463712041211 -21.093030438871605 0 -21.093030438871605 271.08208760220953 0 0 0 0 1188.4697864841073 -678.60842661756749 0 -678.60842661756749 132.47114935048864 0 0 0 0 1781.8738503139321 33.240690817313805 0 33.240690817313805 -496.51738865075828 0 0 0 0 1668.3604105292179 -49.326965666550478 0 -49.326965666550478 -513.6994507530726 0 0 0 0 3494.4289485255708 -999.17556138110751 0 -999.17556138110751 -448.48581081374653 0 0 0 0 976.56758573493426 -1003.7645125928445 0 -1003.7645125928445 636.92716856523145 0 0 0 0 -88.525420042817132 -70.494951995206407 0 -70.494951995206407 448.27037934775984 0 0 0 0 60.908566838712431 44.564340544442018 0 44.564340544442018 -7.815422550291288 0 0 0 0 52.683308122006736 17.958357117632687 0 17.958357117632687 -5.7215847616694155 0 0 0 0 63.322931591173983 36.793552223721406 0 36.793552223721406 215.22330909438995 0 0 0 0 14.106988394577002 -5.217795672189979 0 -5.217795672189979 7.1720634453471472 0 0 0 0 3500.5924772723811 -305.48517028355701 0 -305.48517028355701 -611.66128073038772 0 0 0 0 2295.3785048085338 -973.59953229690711 0 -973.59953229690711 -200.7672651803895 0 0 0 0 1545.554841287194 -147.89264870445714 0 -147.89264870445714 122.14206229568026 0 0 0 0 1579.3557205401958 -801.12565820794714 0 -801.12565820794714 225.51804910775078 0 0 0 0 1546.8682015421655 -909.80219444558747 0 -909.80219444558747 -86.766174054159563 0 0 0 0 3493.6004749345593 -1491.5552031846669 0 -1491.5552031846669 84.183699394346704 0 0 0 0 21.965003161467223 -0.58848449783078749 0 -0.58848449783078749 0.24144080182700883 0 0 0 0 1200.1770475463345 -1780.9709457042168 0 -1780.9709457042168 1736.9177902082633 0 0 0 0 1136.4041967254889 1292.8183604996937 0 1292.8183604996937 -207.22007626378968 0 0 0 0 3494.8447904548175 1054.2394237468759 0 1054.2394237468759 -799.45328694083662 0 0 0 0 881.90934217182075 688.78933730361064 0 688.78933730361064 232.37924228450396 0 0 0 0 -484.19177895483153 93.737904694054492 0 93.737904694054492 -20.358814161759327 0 0 0 0 221.06787320419971 -93.197955856301519 0 -93.197955856301519 207.19264906789505 0 0 0 0 93.449405186649528 -30.945926207613411 0 -30.945926207613411 -889.8779023754438 0 0 0 0 673.52117783065478 34.633390255862196 0 34.633390255862196 -276.57552664462071 0 0 0 0 46.866214090179199 0.93880859791768856 0 0.93880859791768856 -2.6707659264979018 0 0 0 0 163.48927714083402 -541.53361946538882 0 -541.53361946538882 -397.43423531893063 0 0 0 0 -88.829120270529529 -134.81820535623069 0 -134.81820535623069 -427.83792651743261 0 0 0 0 -0.76914865510363484 -1.3657255037430218 0 -1.3657255037430218 0.48030815154724604 0 0 0 0 7.7885600199224427 -157.68283834077386 0 -157.68283834077386 -291.23102683574598 0 0 0 0 42.509266394175938 -86.786406794943218 0 -86.786406794943218 -347.68300231824367 0 0 0 0 -88.098966093806666 -153.09691704906493 0 -153.09691704906493 -154.29781121365477 0 0 0 0 45.401094218086655 -52.009671095765185 0 -52.009671095765185 -329.55011467295378 0 0 0 0 52.504568773403491 -0.32839702151376216 0 -0.32839702151376216 -2.7888926446880342 0 0 0 0 -75.358630797809383 119.1868799087283 0 119.1868799087283 -48.206664096828888 0 0 0 0 723.4631522060663 -118.18227346401099 0 -118.18227346401099 -257.52987432335891 0 0 0 0 -124.25042384295375 22.339350525455778 0 22.339350525455778 8.2231245795049972 0 0 0 0 696.78992626831314 -68.665740038197143 0 -68.665740038197143 105.94893652481329 0 0 0 0 642.23089890238771 -386.3157309270614 0 -386.3157309270614 -87.802053424898816 0 0 0 0 611.54472154976975 -363.11834035869526 0 -363.11834035869526 194.5191548929983 0 0 0 0 179.60536250506266 92.954618744455985 0 92.954618744455985 375.22103979515856 0 0 0 0 -42.623328195139038 367.72051075101894 0 367.72051075101894 171.26875341437585 0 0 0 0 188.49144751264248 474.50205148903405 0 474.50205148903405 372.59517288677017 0 0 0 0 159.27773339646592 339.82399039272724 0 339.82399039272724 378.30428865374142 0 0 0 0 2.8827542599881326 -1.5318871271599583 0 -1.5318871271599583 0.76408347837216062 0 0 0 0 184.44153570192429 -21.426885535930694 0 -21.426885535930694 -179.796105733704 0 0 0 0 0.63055499784101698 6.0975375500603022 0 6.0975375500603022 -2.5940751849168668 0 0 0 0 49.604061181227735 191.98714619296425 0 191.98714619296425 203.20268500276626 0 0 0 0 45.132773799909046 -52.644627931791888 0 -52.644627931791888 -306.83582237417158 0 0 0 0 53.399831403192366 -53.622985546146083 0 -53.622985546146083 -331.57636549125607 0 0 0 0 74.878601187592722 -77.290167850737816 0 -77.290167850737816 -298.97552086233509 0 0 0 0 43.207506215796457 -78.085021689319547 0 -78.085021689319547 -256.23211030360358 0 0 0 0 79.531323138420703 -52.064896997536835 0 -52.064896997536835 -273.14255267173985 0 0 0 0 55.408645690098638 -46.333839868660903 0 -46.333839868660903 -225.72720218728227 0 0 0 0 82.776478023988602 -93.412016399162781 0 -93.412016399162781 -291.95467838405193 0 0 0 0 73.4963408390322 -70.674829561143497 0 -70.674829561143497 -329.59011250734494 0 0 0 0 36.35960568577633 -8.632378593927335 0 -8.632378593927335 1.06978868284643 0 0 0 0 119.10818188572011 -32.45170771583247 0 -32.45170771583247 0.70885879793360118 0 0 0 0 56.735187655416667 -76.675009534848186 0 -76.675009534848186 -280.92637818477783 0 0 0 0 9.5035348095698282 313.6355780118588 0 313.6355780118588 530.10506967968422 0 0 0 0 -29.735749365361698 -184.80651768587438 0 -184.80651768587438 -291.01136602892507 0 0 0 0 24.660209032874491 -7.3365683132081116 0 -7.3365683132081116 0.68452373906681618 0 0 0 0 -34.632808115808075 -168.35708959962301 0 -168.35708959962301 -344.10709916856308 0 0 0 0 428.75535366324766 -15.391269545561215 0 -15.391269545561215 404.57267967402765 0 0 0 0 362.65963812780683 147.83061306949622 0 147.83061306949622 59.633240828856401 0 0 0 0 139.00722290102203 389.50804223056332 0 389.50804223056332 667.70965173620152 0 0 0 0 115.60436289238351 298.48888642577793 0 298.48888642577793 503.98035923386806 0 0 0 0 180.74357980699278 308.82729241578664 0 308.82729241578664 504.1228685748348 0 0 0 0 179.78924010318588 369.15216690516559 0 369.15216690516559 347.29954287392394 0 0 0 0 202.58963639125432 312.90094104801165 0 312.90094104801165 324.72198296108866 0 0 0 0 198.65283366962103 314.46859533281662 0 314.46859533281662 362.73233971521626 0 0 0 0 184.92867675590423 186.15107126790673 0 186.15107126790673 349.61534868133856 0 0 0 0 232.80615877278615 367.20259809026243 0 367.20259809026243 368.31559221685075 0 0 0 0 115.52822652472241 298.63802578840119 0 298.63802578840119 371.02054963602063 0 0 0 0 146.52415543655297 268.09855180839975 0 268.09855180839975 245.09819395168279 0 0 0 0 144.91272410470992 237.61991342505576 0 237.61991342505576 317.52786860474703 0 0 0 0 90.676401920922217 258.81329156957338 0 258.81329156957338 478.16868823152413 0 0 0 0 338.96601338723121 24.768170271842934 0 24.768170271842934 -240.15583153010346 0 0 0 0 166.93131782340424 284.66325889089893 0 284.66325889089893 407.69264727472842 0 0 0 0 10.307898157608548 4.0196684561987936 0 4.0196684561987936 -0.8957150358310304 0 0 0 0 -63.222540194103203 16.29338624800053 0 16.29338624800053 838.96566714861183 0 0 0 0 37.721507515932899 203.9379071181188 0 203.9379071181188 430.76128455552498 0 0 0 0 -2.1873512018937618 98.610735008015581 0 98.610735008015581 283.07505647296404 0 0 0 0 31.29042046946779 261.97394506527132 0 261.97394506527132 142.60234432767083 0 0 0 0 337.9186192870784 135.84176603065094 0 135.84176603065094 1.5764278190163168 0 0 0 0 227.40361412604398 45.459156809513161 0 45.459156809513161 11.338893802168514 0 0 0 0 270.94953441364487 153.86647033274397 0 153.86647033274397 -74.68015252154737 0 0 0 0 271.66482489384362 175.97139959407491 0 175.97139959407491 15.983289515117576 0 0 0 0 104.84979595076584 -24.682242911570597 0 -24.682242911570597 143.29674248020092 0 0 0 0 343.93819828718551 193.28801346809655 0 193.28801346809655 14.542903884881298 0 0 0 0 120.63241534840199 88.330875243843366 0 88.330875243843366 61.734640688691115 0 0 0 0 284.09280310817485 122.55717767437022 0 122.55717767437022 4.3736151083353434 0 0 0 0 2.6165234152391861 1.0986067978452141 0 1.0986067978452141 0.65284603685812392 0 0 0 0 -3.5479845640511485 1.8149000027476632 0 1.8149000027476632 2.4892922753051607 0 0 0 0 129.90760222024255 172.1659426284665 0 172.1659426284665 126.23421640032143 0 0 0 0 357.2897030973254 -163.74375232713476 0 -163.74375232713476 65.389617395343521 0 0 0 0 421.0954939817093 78.974470357640826 0 78.974470357640826 57.213357583336347 0 0 0 0 175.26810411528277 131.68059164174372 0 131.68059164174372 266.44925748103788 0 0 0 0 355.63719608651559 -95.268741147684423 0 -95.268741147684423 233.34011613222742 0 0 0 0 -8.0898515774242696 168.86854403704055 0 168.86854403704055 41.546343610389499 0 0 0 0 368.1628792193369 241.74016385485936 0 241.74016385485936 -19.119404016637873 0 0 0 0 -52.164982903741475 -103.41643493500732 0 -103.41643493500732 192.7626315145074 0 0 0 0 105.89853726156434 -46.897069573571798 0 -46.897069573571798 182.97122335693751 0 0 0 0 77.894127154933813 -7.2073728087921154 0 -7.2073728087921154 146.32059410428019 0 0 0 0 197.07918984315984 -15.897056961989961 0 -15.897056961989961 72.464367888650941 0 0 0 0 254.43683088083344 -183.87464487429244 0 -183.87464487429244 -62.368360507179204 0 0 0 0 128.86294091735181 287.77963967204715 0 287.77963967204715 737.15978255652476 0 0 0 0 637.99855906389712 531.20208280805377 0 531.20208280805377 852.0767893248958 0 0 0 0 4.6375444678800761 1.6706697687747116 0 1.6706697687747116 0.12182659098654969 0 0 0 0 156.46315415793879 358.16841812859502 0 358.16841812859502 560.34459164595228 0 0 0 0 184.97468324651436 242.21901996299508 0 242.21901996299508 509.07636731106669 0 0 0 0 187.88380198178493 256.69086074589171 0 256.69086074589171 438.84834323809037 0 0 0 0 154.48415807943093 383.89143771794227 0 383.89143771794227 409.96304579872799 0 0 0 0 750.55603629756661 205.09170955923327 0 205.09170955923327 392.62210791248816 0 0 0 0 1369.9376024387238 -253.33311171931101 0 -253.33311171931101 177.811519350141 0 0 0 0 668.44842163165958 163.43287052867089 0 163.43287052867089 467.42610493782701 0 0 0 0 879.3723009990681 113.42416082033087 0 113.42416082033087 477.3432045432051 0 0 0 0 559.86426712726825 296.5388198574251 0 296.5388198574251 671.27230880001639 0 0 0 0 357.90332921032314 365.75465595686711 0 365.75465595686711 649.04751060536842 0 0 0 0 569.26580815751731 110.2164263740878 0 110.2164263740878 41.940682311031992 0 0 0 0 89.718553192549734 94.331214449546792 0 94.331214449546792 166.22770768476084 0 0 0 0 718.38214300238178 465.23605774534809 0 465.23605774534809 99.840319733089018 0 0 0 0 691.5391042993997 777.59346140445496 0 777.59346140445496 501.94019258043647 0 0 0 0 692.59192723041633 555.37413581510805 0 555.37413581510805 330.98112743118941 0 0 0 0 1318.5758691638839 561.91733404494721 0 561.91733404494721 320.81585182546632 0 0 0 0 1444.0550423132227 669.87630651001859 0 669.87630651001859 346.24584404411524 0 0 0 0 1811.1236347895119 1189.5668927566689 0 1189.5668927566689 241.41747188160696 0 0 0 0 1613.0022517141624 1153.3818969558226 0 1153.3818969558226 235.43132097999134 0 0 0 0 3500.7773126342945 906.10742746579581 0 906.10742746579581 -223.51594601260047 0 0 0 0 2325.9807051539683 253.43472978510425 0 253.43472978510425 -175.20378056319421 0 0 0 0 1936.3112184352358 452.77801438606286 0 452.77801438606286 -250.80753603681481 0 0 0 0 3498.337156986956 -304.68791010268683 0 -304.68791010268683 -611.56716406028875 0 0 0 0 -97.985525193842477 34.768457241170836 0 34.768457241170836 91.827094140378563 0 0 0 0 36.264937611547651 -10.158946896108013 0 -10.158946896108013 2.6200581021389642 0 0 0 0 110.54711301824864 82.747723678762327 0 82.747723678762327 -30.807316353964097 0 0 0 0 204.29352225254115 -158.96958484814775 0 -158.96958484814775 196.45897148570782 0 0 0 0 -69.631314390804619 27.679063851418732 0 27.679063851418732 88.552060435565636 0 0 0 0 -74.215902717623976 39.311116126298202 0 39.311116126298202 60.784114217716251 0 0 0 0 -230.69324371132097 119.13611701372338 0 119.13611701372338 21.251432675176488 0 0 0 0 227.99196983562433 -124.59131378994925 0 -124.59131378994925 15.31649450917439 0 0 0 0 -189.47746449149417 -137.12150143400214 0 -137.12150143400214 32.100255592229246 0 0 0 0 -9.4979394906404195 -36.197103920182144 0 -36.197103920182144 11.567979705591824 0 0 0 0 349.68859240991878 -66.240565568113198 0 -66.240565568113198 -12.827973593627121 0 0 0 0 271.16996743476193 -170.36320411908628 0 -170.36320411908628 102.30160788943522 0 0 0 0 83.837468582561996 118.49245808262867 0 118.49245808262867 -15.448814127424157 0 0 0 0 -17.736524117382942 67.007144473562221 0 67.007144473562221 74.008887461103313 0 0 0 0 -107.73534721776377 82.33633830039571 0 82.33633830039571 83.564512755521264 0 0 0 0 52.271086476612936 -18.995065263957933 0 -18.995065263957933 5.810952649753629 0 0 0 0 406.62198352573614 -30.043804868785202 0 -30.043804868785202 -71.736206388512358 0 0 0 0 -309.3534398497286 277.52593998437897 0 277.52593998437897 104.4103600063911 0 0 0 0 573.38881892443169 -431.64292483494773 0 -431.64292483494773 134.62570341633727 0 0 0 0 352.71702307964006 208.72074410286751 0 208.72074410286751 49.940549989405497 0 0 0 0 -107.5970461340039 -64.286059799535195 0 -64.286059799535195 225.53241469741653 0 0 0 0 376.39108754048357 -85.245473352730528 0 -85.245473352730528 125.17340214185089 0 0 0 0 3.939689119721038 4.2915504247021552 0 4.2915504247021552 1.8134193032884802 0 0 0 0 886.7129530654347 176.90817624872818 0 176.90817624872818 -41.577411487067252 0 0 0 0 580.01804717964842 677.35804388947895 0 677.35804388947895 472.26746926866258 0 0 0 0 575.14965492218471 639.89914834014894 0 639.89914834014894 394.62895004125755 0 0 0 0 762.16521398945042 551.31916129601052 0 551.31916129601052 168.75103840533961 0 0 0 0 46.348717615128407 350.76389645565712 0 350.76389645565712 564.40603261371371 0 0 0 0 805.98385346248688 467.68773366723798 0 467.68773366723798 376.15456240117578 0 0 0 0 539.2897083890748 792.66924610257854 0 792.66924610257854 617.33682605643287 0 0 0 0 337.53874368699326 74.959844695825879 0 74.959844695825879 -93.879950117137753 0 0 0 0 7.3654825512641366 2.8287223118014744 0 2.8287223118014744 -0.44944579114893812 0 0 0 0 -152.77093444446655 15.042349926585132 0 15.042349926585132 244.26929941891564 0 0 0 0 -147.80297030774091 231.26005590546376 0 231.26005590546376 208.70909069550081 0 0 0 0 13.23813558034621 2.2506652130697784 0 2.2506652130697784 -0.67321768697006268 0 0 0 0 140.47120782298589 68.201224309044164 0 68.201224309044164 119.90022204085119 0 0 0 0 430.75809607123665 590.17307026974095 0 590.17307026974095 495.59634181173908 0 0 0 0 651.43543697287168 424.5247602541582 0 424.5247602541582 201.36935308286309 0 0 0 0 54.055608737529838 104.70142624367264 0 104.70142624367264 253.04501401343231 0 0 0 0 292.70004571475874 441.44932871991364 0 441.44932871991364 611.96674005421869 0 0 0 0 381.71694019788993 480.53973808479225 0 480.53973808479225 421.05246862102513 0 0 0 0 6.4785407958684971 1.4826892562354104 0 1.4826892562354104 -0.066970588235504835 0 0 0 0 632.47508579367422 307.814802424596 0 307.814802424596 377.2001849208367 0 0 0 0 213.17221020876605 -136.25230766575257 0 -136.25230766575257 36.162886637343377 0 0 0 0 -35.599259543254448 -276.83328122186288 0 -276.83328122186288 577.85568487565149 0 0 0 0 -24.057571954246669 143.52286312120589 0 143.52286312120589 456.40584794807046 0 0 0 0 51.868240227973729 123.07708582077419 0 123.07708582077419 297.84500773641048 0 0 0 0 -30.074619107384933 85.278144416020496 0 85.278144416020496 555.54000871461028 0 0 0 0 56.824407436593901 59.694000562618271 0 59.694000562618271 433.01582663681256 0 0 0 0 85.21521796820889 228.93515892233233 0 228.93515892233233 341.22443912622248 0 0 0 0 350.42533212712442 997.51673667349485 0 997.51673667349485 1204.5346230173932 0 0 0 0 840.5491671073105 -273.06933171539606 0 -273.06933171539606 333.93656004937384 0 0 0 0 277.91989948955597 228.59549991694496 0 228.59549991694496 -110.01004521009423 0 0 0 0 -44.033846273603558 215.4829052448647 0 215.4829052448647 1057.2060528864513 0 0 0 0 12.83070595023986 -2.4598843528950596 0 -2.4598843528950596 1.138348126920306 0 0 0 0 886.66079605977939 -54.106688987759441 0 -54.106688987759441 -90.433220148927603 0 0 0 0 753.64938000212715 565.46178465805588 0 565.46178465805588 114.16504220954812 0 0 0 0 380.78922576658806 24.15733007198412 0 24.15733007198412 -528.54111334886159 0 0 0 0 638.74215064707278 206.30499513799043 0 206.30499513799043 -9.5457129325909591 0 0 0 0 65.203769893414574 292.9849591777355 0 292.9849591777355 881.57603182137893 0 0 0 0 2.7357793898606246 2.1110907789886433 0 2.1110907789886433 -0.2747454815201596 0 0 0 0 513.04166266659922 -136.02430047293001 0 -136.02430047293001 -104.30379100653113 0 0 0 0 300.37109584722202 -52.927904727526084 0 -52.927904727526084 100.64861461208056 0 0 0 0 25.878656930050056 165.24721564714685 0 165.24721564714685 310.31766484462742 0 0 0 0 -18.047951998429198 281.9080136947415 0 281.9080136947415 170.54935034837581 0 0 0 0 -147.7254404539417 112.40730945755536 0 112.40730945755536 298.83596755389334 0 0 0 0 142.47006411950787 -94.309201445832969 0 -94.309201445832969 90.743731287306446 0 0 0 0 8.5594418006906778 5.0262071413194391 0 5.0262071413194391 -1.1691792504358629 0 0 0 0 -205.82529465455445 432.19296381731749 0 432.19296381731749 279.30616721225812 0 0 0 0 91.375149172814417 117.70671106031665 0 117.70671106031665 -58.04715397343989 0 0 0 0 138.43331833845878 394.59168422003711 0 394.59168422003711 146.86328319889151 0 0 0 0 -264.27853379855515 453.84647336378271 0 453.84647336378271 168.34192387168815 0 0 0 0 1.2506474226917703 1.9384915665752089 0 1.9384915665752089 1.6939187041562127 0 0 0 0 35.541779709805269 -67.243399928347117 0 -67.243399928347117 -30.260520435201215 0 0 0 0 79.866253606662212 -56.834724905040133 0 -56.834724905040133 -41.961482439542124 0 0 0 0 -434.61896379746759 166.29462516941066 0 166.29462516941066 55.917870473045014 0 0 0 0 44.970626678856206 91.698169675928057 0 91.698169675928057 -534.34979470237556 0 0 0 0 -28.794849214529677 183.68754023782111 0 183.68754023782111 104.12134356746878 0 0 0 0 227.19707550964085 254.10028705637774 0 254.10028705637774 -271.49407084466907 0 0 0 0 -17.017086007355829 9.9394087337952897 0 9.9394087337952897 -15.163347834950628 0 0 0 0 -27.965719846266438 487.21936773107939 0 487.21936773107939 -507.78151165309089 0 0 0 0 4.909412969768681 2.9837200553239711 0 2.9837200553239711 0.52763651840498049 0 0 0 0 -271.88884340286313 292.24705555020773 0 292.24705555020773 -212.29491569189713 0 0 0 0 -2.5072392645524815 46.593440036674906 0 46.593440036674906 45.146972372228447 0 0 0 0 58.279313408478629 -3.1138987594273431 0 -3.1138987594273431 -8.8726197279720509 0 0 0 0 0.27902145678257284 -0.14468173274036644 0 -0.14468173274036644 -0.85377936871946503 0 0 0 0 6.4586127812096663 3.6258835739436108 0 3.6258835739436108 -0.16845655780682867 0 0 0 0 -38.697763685668178 -33.316837328839256 0 -33.316837328839256 -15.927267164624482 0 0 0 0 11.553451396552191 -28.117466473699579 0 -28.117466473699579 -47.462263840503965 0 0 0 0 269.94265693290799 -135.33510507620599 0 -135.33510507620599 -159.09246107620544 0 0 0 0 408.49689830464922 -82.228067678153764 0 -82.228067678153764 -213.3682369131534 0 0 0 0 264.77352918261022 -158.07982723275421 0 -158.07982723275421 -64.367320632392648 0 0 0 0 200.60681964027754 37.231873617524457 0 37.231873617524457 4.526504136447258 0 0 0 0 198.66394988224783 -49.504420859348784 0 -49.504420859348784 -169.68058864733007 0 0 0 0 244.75682504968427 -67.081189284011771 0 -67.081189284011771 -271.54592084749629 0 0 0 0 91.889135260236799 102.94519718689799 0 102.94519718689799 -245.21403909181163 0 0 0 0 -78.224031649951939 -11.211636361396359 0 -11.211636361396359 -291.18246496440406 0 0 0 0 95.557105359563138 34.648841056645779 0 34.648841056645779 -421.19392822124018 0 0 0 0 87.185261868173257 99.603107561264551 0 99.603107561264551 -421.37303868240917 0 0 0 0 131.83054055436514 27.28296224009307 0 27.28296224009307 -289.97594442618924 0 0 0 0 89.42158567788465 0.3549951139082026 0 0.3549951139082026 -305.2867895563104 0 0 0 0 43.942604715179186 94.043789240504566 0 94.043789240504566 -285.09397418111109 0 0 0 0 215.06085299447295 -72.918755934783121 0 -72.918755934783121 -246.8125294249586 0 0 0 0 137.45887856525951 -11.158194500291984 0 -11.158194500291984 -265.11975722312252 0 0 0 0 203.95833936927374 -55.748324138710814 0 -55.748324138710814 -213.54557948463562 0 0 0 0 300.26030342781451 -128.6681030378524 0 -128.6681030378524 -229.39851457562781 0 0 0 0 236.58811287701974 -154.49990471136329 0 -154.49990471136329 -161.17532430645178 0 0 0 0 238.02462649285735 -94.340737771557997 0 -94.340737771557997 -231.14608467565995 0 0 0 0 193.51508457791351 -83.407076513586048 0 -83.407076513586048 -217.78128997755312 0 0 0 0 239.14588825049577 -105.15123697481692 0 -105.15123697481692 -164.41434140246201 0 0 0 0 137.7708272710006 -102.02970427441835 0 -102.02970427441835 -142.45165711032143 0 0 0 0 218.47248706212849 -134.49441297383191 0 -134.49441297383191 -137.92705792177208 0 0 0 0 219.43101487691456 -132.99379134490266 0 -132.99379134490266 -187.87863364303507 0 0 0 0 136.37818355411582 -60.444487741444277 0 -60.444487741444277 -84.523460113221745 0 0 0 0 23.814181805428234 -101.91440743481098 0 -101.91440743481098 -84.681221728232799 0 0 0 0 28.682797838522674 -80.404385036300226 0 -80.404385036300226 -57.76684379670769 0 0 0 0 -48.098539528116817 -103.86355221514361 0 -103.86355221514361 -46.51192039853413 0 0 0 0 -84.468609882344026 -90.845895503480619 0 -90.845895503480619 -46.957930246513115 0 0 0 0 115.00368172653543 -129.54878466491959 0 -129.54878466491959 -91.584738979622102 0 0 0 0 -27.301867916263291 -177.15506994089264 0 -177.15506994089264 -72.809652060233702 0 0 0 0 236.42841185384896 -205.26182345121163 0 -205.26182345121163 -129.23223419421686 0 0 0 0 115.40258044651739 -153.92677442436514 0 -153.92677442436514 -130.05482006075022 0 0 0 0 74.571443361550337 -159.03227358361255 0 -159.03227358361255 -40.37353589890256 0 0 0 0 317.28682234101871 -121.83258387996023 0 -121.83258387996023 -178.77489085472496 0 0 0 0 60.368914150778437 -110.62478080716994 0 -110.62478080716994 -146.78470424638431 0 0 0 0 -158.60329728640863 -303.29537393157284 0 -303.29537393157284 -152.35615104610281 0 0 0 0 12.416678366533233 3.907506928379803 0 3.907506928379803 -381.50195052604522 0 0 0 0 23.695189233998462 -81.220081219719873 0 -81.220081219719873 120.72279550194185 0 0 0 0 138.6178438228817 136.43129349364654 0 136.43129349364654 -205.91661823603044 0 0 0 0 253.52738467611562 -277.98608697028487 0 -277.98608697028487 -134.94784998196224 0 0 0 0 -466.97057578130625 -119.21071880736372 0 -119.21071880736372 -20.071597161122781 0 0 0 0 0.02590677064583069 0.54658316867973156 0 0.54658316867973156 -4.9679463559069221 0 0 0 0 221.67172879055579 179.86315256208559 0 179.86315256208559 -202.18231973636489 0 0 0 0 -148.65213104375289 250.92664762885215 0 250.92664762885215 5.6550434776108887 0 0 0 0 115.35844166879542 39.948275104304912 0 39.948275104304912 -266.46955205320114 0 0 0 0 240.19194382198293 113.95940817359386 0 113.95940817359386 -242.69728330068813 0 0 0 0 2.8786108055061561 -9.474238298425778 0 -9.474238298425778 -0.48761903556706532 0 0 0 0 169.49614775336704 110.81548002613835 0 110.81548002613835 -345.94070167300924 0 0 0 0 63.642347154236631 -89.806814251430296 0 -89.806814251430296 15.665402579428815 0 0 0 0 59.280504919879604 -48.766793611704088 0 -48.766793611704088 20.145232411446159 0 0 0 0 -16.168857262848178 -76.851114586250333 0 -76.851114586250333 105.29332641864312 0 0 0 0 213.60538223371259 -82.191161149076834 0 -82.191161149076834 44.094839688605134 0 0 0 0 83.38480453658849 -55.502841591501692 0 -55.502841591501692 46.221931822098213 0 0 0 0 -1.4667233690113326 -1.1777528614035617 0 -1.1777528614035617 -11.77297271268927 0 0 0 0 477.08664291734749 -108.45183546343401 0 -108.45183546343401 -86.035844286376232 0 0 0 0 -74.607465917506488 -122.6762570015735 0 -122.6762570015735 -32.824377241661921 0 0 0 0 65.142539146734634 -339.23423588752667 0 -339.23423588752667 116.36045428939701 0 0 0 0 307.45036910034833 -302.67470549647965 0 -302.67470549647965 23.350974665714602 0 0 0 0 -95.496585093293106 -117.79656925606457 0 -117.79656925606457 -30.127190803353869 0 0 0 0 -155.48159339563426 -70.909502787959696 0 -70.909502787959696 5.5225479379828357 0 0 0 0 317.00118805722741 50.028025853673398 0 50.028025853673398 -14.256732237827237 0 0 0 0 -54.055374017749273 -7.2010164314072256 0 -7.2010164314072256 -30.76960639335482 0 0 0 0 145.38364025099145 46.245477194758678 0 46.245477194758678 17.696839769250346 0 0 0 0 -17.288234140985878 -121.4488806685622 0 -121.4488806685622 44.086452854674008 0 0 0 0 187.83188058400992 -60.177036681816389 0 -60.177036681816389 33.315896751311811 0 0 0 0 -5.2417013391241198 -19.414551423406465 0 -19.414551423406465 73.238647334883353 0 0 0 0 57.049963779823145 -37.04276272599013 0 -37.04276272599013 7.749412589402386 0 0 0 0 75.719327849437832 -43.313516255953516 0 -43.313516255953516 -6.5453269990382523 0 0 0 0 154.5928174373621 -66.604052218320476 0 -66.604052218320476 -45.5717803829383 0 0 0 0 -10.086650462042599 -29.248249027776239 0 -29.248249027776239 -24.656134057533464 0 0 0 0 21.079418685161549 -2.6501100079416062 0 -2.6501100079416062 -14.678956770281539 0 0 0 0 21.209529227497114 -52.339686175894144 0 -52.339686175894144 4.7477631723432978 0 0 0 0 140.10438280649305 -42.795384252737534 0 -42.795384252737534 -15.519889428969918 0 0 0 0 61.985338348142847 -34.026001987552831 0 -34.026001987552831 -4.0236690733045011 0 0 0 0 28.480415895925454 -0.45344247295084017 0 -0.45344247295084017 -0.11658258678651379 0 0 0 0 76.282560911333348 -45.542813596173673 0 -45.542813596173673 2.2475748871826227 0 0 0 0 94.672969816002023 -18.742025855576749 0 -18.742025855576749 1.0935324148273367 0 0 0 0 107.01142109035936 -34.669602124493224 0 -34.669602124493224 20.605168013659181 0 0 0 0 75.584154744145053 -19.626991349213995 0 -19.626991349213995 9.5603336266987355 0 0 0 0 93.804428043426014 -45.315173594216162 0 -45.315173594216162 11.452090247145406 0 0 0 0 101.46532365614257 -57.022818773738862 0 -57.022818773738862 -15.574099554138229 0 0 0 0 78.286835746483121 -24.199898306141392 0 -24.199898306141392 -16.721339683582528 0 0 0 0 57.616934467681858 -40.426527858377881 0 -40.426527858377881 -9.7520355551724833 0 0 0 0 107.32244383801299 -49.510947418014439 0 -49.510947418014439 36.131767294302222 0 0 0 0 61.642952772539317 -7.0485256418954307 0 -7.0485256418954307 -2.3158548727584938 0 0 0 0 115.08266624274393 -0.57196615443812249 0 -0.57196615443812249 42.469959866255749 0 0 0 0 80.653239219241186 -152.45543960194732 0 -152.45543960194732 -120.15526366937593 0 0 0 0 112.63645162483793 -31.552938023332963 0 -31.552938023332963 3.7841994039317148 0 0 0 0 19.204513182678269 -25.358986164352274 0 -25.358986164352274 -6.3738652666763409 0 0 0 0 63.213405874463206 -3.6074479979936314 0 -3.6074479979936314 -10.962110697452772 0 0 0 0 112.60852675189017 11.57989908003924 0 11.57989908003924 18.07570921381631 0 0 0 0 52.994838592584571 -18.47152802984084 0 -18.47152802984084 0.99022822026315982 0 0 0 0 82.30942569391118 -32.282851348485792 0 -32.282851348485792 35.509802368874489 0 0 0 0 57.131730563364215 -6.5088618196785184 0 -6.5088618196785184 -5.9399061398942248 0 0 0 0 56.919463029418694 -4.7442026853798325 0 -4.7442026853798325 11.978801891882313 0 0 0 0 76.103380275199356 -23.654757300983846 0 -23.654757300983846 -9.9623504964534177 0 0 0 0 45.621399227864458 -43.284695621723074 0 -43.284695621723074 -3.1940475407483291 0 0 0 0 77.606035444128793 -35.111378746997296 0 -35.111378746997296 -9.3451473580250877 0 0 0 0 815.09745311972802 -526.24022707190807 0 -526.24022707190807 -324.43094611438573 0 0 0 0 -5.8124317274196073 116.5458243919561 0 116.5458243919561 151.86374988647225 0 0 0 0 7.2780243993179283 -0.37574790773538069 0 -0.37574790773538069 0.0072835307980849695 0 0 0 0 57.533001231833623 139.13948543157034 0 139.13948543157034 105.68731391696338 0 0 0 0 73.512385523431675 0.68159513295235286 0 0.68159513295235286 -4.5475195038190721 0 0 0 0 64.870621527557887 152.34605056032501 0 152.34605056032501 -74.414778326872693 0 0 0 0 56.607308571561589 -34.928951103332111 0 -34.928951103332111 55.460135873280933 0 0 0 0 -74.116529701463151 -114.29964280643296 0 -114.29964280643296 40.234949276828274 0 0 0 0 239.40631538806338 -254.02460216756927 0 -254.02460216756927 -46.212219389845927 0 0 0 0 209.22464829267119 -149.19158011711002 0 -149.19158011711002 -41.795696656223981 0 0 0 0 352.06330091995187 -174.87192335233044 0 -174.87192335233044 43.761861102308863 0 0 0 0 205.7219098905116 -175.11134801164593 0 -175.11134801164593 183.68285094219516 0 0 0 0 22.563622479865444 -23.252309933504534 0 -23.252309933504534 -40.544080984668369 0 0 0 0 -220.78570687964384 705.61761939814141 0 705.61761939814141 280.26137500925955 0 0 0 0 -335.81481504913245 -157.6480911271866 0 -157.6480911271866 64.234516300741006 0 0 0 0 438.44542897294741 -192.02748694297156 0 -192.02748694297156 -38.543317119498852 0 0 0 0 591.30683124060306 39.727836438577697 0 39.727836438577697 -89.800341344109597 0 0 0 0 142.98976115765981 105.32953260005644 0 105.32953260005644 -87.476755034587086 0 0 0 0 250.42990136078151 -92.452497232828193 0 -92.452497232828193 23.596264461309488 0 0 0 0 32.469028993342363 10.965684408407128 0 10.965684408407128 -16.753388795205296 0 0 0 0 112.81265249125136 -65.102159381165279 0 -65.102159381165279 -81.313165041573086 0 0 0 0 229.13088923504984 18.886548722936482 0 18.886548722936482 131.15496534746717 0 0 0 0 350.56697080817685 -49.266218719565359 0 -49.266218719565359 -109.60959369874138 0 0 0 0 242.76865623774938 -12.654096641828062 0 -12.654096641828062 -64.928810762958449 0 0 0 0 142.51504093672702 -26.935372064691649 0 -26.935372064691649 -65.374808071630241 0 0 0 0 251.2768196715333 -51.972458400185701 0 -51.972458400185701 -120.42829534859436 0 0 0 0 218.5238836544595 -51.142721166612887 0 -51.142721166612887 -100.54303696270085 0 0 0 0 246.82712335079395 -102.1915913258112 0 -102.1915913258112 -172.80970005421477 0 0 0 0 230.13579845878849 -104.11893186429289 0 -104.11893186429289 -149.20467407508204 0 0 0 0 174.37059986856184 -95.85451761335537 0 -95.85451761335537 -178.23273225992261 0 0 0 0 116.69377459053067 -37.577037952663204 0 -37.577037952663204 -181.89664354408819 0 0 0 0 169.95846477082523 -129.63558017515385 0 -129.63558017515385 2.3456942162100631 0 0 0 0 9.0438557806191966 -27.571839568804307 0 -27.571839568804307 168.75968371205954 0 0 0 0 1.8796082741289695 1.351700887071587 0 1.351700887071587 -0.82070399891052326 0 0 0 0 3.964118248957675 -59.576279251353299 0 -59.576279251353299 -18.734819975996402 0 0 0 0 -102.54203671177311 21.459035884131701 0 21.459035884131701 -64.224553364321764 0 0 0 0 -6.5286909625574481 -1.3647075518184693 0 -1.3647075518184693 69.675847771574468 0 0 0 0 -7.4815787204715889 6.0856637554837789 0 6.0856637554837789 13.508062163718932 0 0 0 0 0.99871359671453774 0.06560321133945024 0 0.06560321133945024 -1.8570381495767649 0 0 0 0 -92.264584889763682 157.24268187576911 0 157.24268187576911 -192.93523337553643 0 0 0 0 121.88282276064274 -23.679260855705479 0 -23.679260855705479 -198.77860451306378 0 0 0 0 40.126601226584171 -1.3708370830665331 0 -1.3708370830665331 -199.02327729597982 0 0 0 0 -4.2434536775399465 9.0528023812007632 0 9.0528023812007632 -24.224164683184426 0 0 0 0 -3.4386818273633253 16.11599530239917 0 16.11599530239917 0.023095170277002808 0 0 0 0 15.950220628088573 181.69074103467869 0 181.69074103467869 -341.84169253930213 0 0 0 0 -1.0544174042580323 4.6378164003640947 0 4.6378164003640947 2.6857376942899251 0 0 0 0 5.2471266519311541 0.8132830184763975 0 0.8132830184763975 -3.1953538703967781 0 0 0 0 90.506220294439117 65.360193953911278 0 65.360193953911278 -271.03155899610647 0 0 0 0 -3.899864806822734 15.365555378664567 0 15.365555378664567 -1.1100801639133806 0 0 0 0 -4.8949806058662944 14.980839052016677 0 14.980839052016677 0.35987530521663302 0 0 0 0 -8.4504006643837783 31.231244069918176 0 31.231244069918176 25.210602556116669 0 0 0 0 12.249797020514961 30.735342483972659 0 30.735342483972659 -34.079511043840625 0 0 0 0 -7.870113021650468 27.633378456336942 0 27.633378456336942 -1.3801189229278634 0 0 0 0 -2.8225761470966972 19.975518055447026 0 19.975518055447026 4.5282310350008856 0 0 0 0 1.3833000540034845 29.44837265548631 0 29.44837265548631 -1.1420607504668396 0 0 0 0 3.5260838105750736 18.973966066498292 0 18.973966066498292 -6.4643252120863508 0 0 0 0 -2.5286283370805904 19.526508718025013 0 19.526508718025013 -2.9713115473751941 0 0 0 0 0.87385859328787774 27.000672620260389 0 27.000672620260389 -12.50891555589925 0 0 0 0 13.471482106149779 18.87124222548357 0 18.87124222548357 -26.680842879267971 0 0 0 0 2.5165768117585685 46.101274703887611 0 46.101274703887611 -28.521747484149955 0 0 0 0 8.1583854726195568 28.652063412806228 0 28.652063412806228 -30.344387146249133 0 0 0 0 16.049483539682114 17.065050204374415 0 17.065050204374415 -78.334998397269601 0 0 0 0 21.135862121620448 80.690611717822776 0 80.690611717822776 -60.592363850660149 0 0 0 0 21.238641234849638 185.52455351155393 0 185.52455351155393 -68.453229114791839 0 0 0 0 67.786611888179323 62.776650457439814 0 62.776650457439814 2.1474454453320959 0 0 0 0 14.217277322357404 111.64071341486769 0 111.64071341486769 71.644022216054736 0 0 0 0 15.800240489072166 76.29257478056175 0 76.29257478056175 210.32990017765647 0 0 0 0 170.51326012589561 161.40136978776741 0 161.40136978776741 87.648896862295487 0 0 0 0 -5.3090650019876193 38.225796863900882 0 38.225796863900882 41.496758007984454 0 0 0 0 -2.889861338364426 30.901404068016689 0 30.901404068016689 19.368975291897982 0 0 0 0 -1.8026143401802983 52.470551757140584 0 52.470551757140584 21.603164173857749 0 0 0 0 3.0515062249905895 17.827520823341501 0 17.827520823341501 73.104226492247335 0 0 0 0 35.802545755650499 5.6143675692060242 0 5.6143675692060242 -6.4668011537605707 0 0 0 0 64.044891377362546 -42.449204815001409 0 -42.449204815001409 47.885193799902936 0 0 0 0 68.258197702249163 -18.366011157775347 0 -18.366011157775347 -8.7357907058233195 0 0 0 0 10.583840723498724 -18.692960767240947 0 -18.692960767240947 16.015628502154414 0 0 0 0 0.923778053780552 10.587821493986908 0 10.587821493986908 -14.809763605364495 0 0 0 0 -1.3729466787533795 4.9323902112293325 0 4.9323902112293325 2.3033054385857539 0 0 0 0 1.8869640057127981 21.85314720334361 0 21.85314720334361 -20.32647231416513 0 0 0 0 -10.802677565392514 16.344711524735374 0 16.344711524735374 10.35765414615571 0 0 0 0 5.5930669503587751 3.207991079649716 0 3.207991079649716 -5.9945881177523974 0 0 0 0 -4.4068296707528134 7.2495888484577993 0 7.2495888484577993 -5.7137483334734043 0 0 0 0 4.8119364145859436 -1.5608046994724987 0 -1.5608046994724987 2.1486449396145417 0 0 0 0 0.9150127725006314 -93.349569726729214 0 -93.349569726729214 42.252585337204493 0 0 0 0 0.89672107404163626 -0.60517743903604071 0 -0.60517743903604071 0.9737238250501985 0 0 0 0 8.7161652258944571 1.0366356742269573 0 1.0366356742269573 -2.9185235782313024 0 0 0 0 20.145843372272793 7.6999091011128939 0 7.6999091011128939 -14.384251739075694 0 0 0 0 4.8792697151639004 9.2946866927486091 0 9.2946866927486091 -5.4946548056191205 0 0 0 0 6.3638703636320315 55.22197038906608 0 55.22197038906608 38.624507909266413 0 0 0 0 17.924951555112784 -98.476539668853206 0 -98.476539668853206 13.904105898678608 0 0 0 0 46.829742755049068 -9.2048764097645623 0 -9.2048764097645623 -0.0064591188522811205 0 0 0 0 81.698817431839416 -38.465751640871986 0 -38.465751640871986 46.960788501885872 0 0 0 0 41.391962919937214 19.235403542134009 0 19.235403542134009 20.190782300475007 0 0 0 0 41.911348690082377 -75.356087556939656 0 -75.356087556939656 -45.484708924318738 0 0 0 0 27.62134673470608 -14.533614102122627 0 -14.533614102122627 -1.1766954643599199 0 0 0 0 96.101256231088882 -63.608843936092313 0 -63.608843936092313 41.776118273683551 0 0 0 0 37.860542417409306 -58.770374498965452 0 -58.770374498965452 42.559074429596194 0 0 0 0 104.07023056354956 81.223823172746847 0 81.223823172746847 -238.39440294785288 0 0 0 0 -3.0067782887854264 40.496491141533511 0 40.496491141533511 -4.5953236183684112 0 0 0 0 21.788515655884055 5.8012919391336801 0 5.8012919391336801 -2.0531824130797229 0 0 0 0 72.197076388962159 -1.5787264574400979 0 -1.5787264574400979 -7.0290574825439762 0 0 0 0 50.009748499410279 1.2273529356987041 0 1.2273529356987041 0.40976026508878505 0 0 0 0 30.724225490972543 -0.092064725712873496 0 -0.092064725712873496 -2.7068415916350395 0 0 0 0 20.894985652544548 7.9659981022621338 0 7.9659981022621338 1.1995914228297337 0 0 0 0 33.378501400348028 0.17582213622622866 0 0.17582213622622866 -0.29173465657830655 0 0 0 0 64.807826461656077 -7.9299825688387955 0 -7.9299825688387955 8.4705376292677101 0 0 0 0 24.202095000742702 4.7705970097283625 0 4.7705970097283625 -12.608473067403565 0 0 0 0 79.202323014396825 -8.4227881402198364 0 -8.4227881402198364 3.3412227488954613 0 0 0 0 61.177969373195083 -18.659940824052455 0 -18.659940824052455 30.463898819386486 0 0 0 0 93.225074243731797 -38.630710612327675 0 -38.630710612327675 25.86214300434176 0 0 0 0 61.82741443496343 -6.3294820534996461 0 -6.3294820534996461 17.383144532785309 0 0 0 0 60.82154898900626 -11.768119772380032 0 -11.768119772380032 7.280748203992971 0 0 0 0 82.80661292367995 0.39109223700008755 0 0.39109223700008755 15.032167579269981 0 0 0 0 42.303546237764301 -23.391222400990898 0 -23.391222400990898 9.6425717686110648 0 0 0 0 85.594206758389191 -10.916995186534336 0 -10.916995186534336 14.177797494463732 0 0 0 0 77.594589885564346 -20.264420117036792 0 -20.264420117036792 11.170035260269771 0 0 0 0 24.987974277116265 11.408834769753504 0 11.408834769753504 9.7290497264298796 0 0 0 0 89.821876478537888 -59.588633186021525 0 -59.588633186021525 66.380906601749302 0 0 0 0 75.722679435421014 -27.303651927538112 0 -27.303651927538112 44.779797016301018 0 0 0 0 111.67276649743872 -40.558610428266547 0 -40.558610428266547 30.302239135972741 0 0 0 0 66.743324292448008 -8.7038989807055316 0 -8.7038989807055316 -8.0913597472779166 0 0 0 0 57.057060484529728 -27.871687198045361 0 -27.871687198045361 16.807892245667162 0 0 0 0 44.899099817926981 -32.706081071758035 0 -32.706081071758035 -41.324497126532151 0 0 0 0 57.246114665455934 -15.868699715142611 0 -15.868699715142611 -32.687782381493889 0 0 0 0 98.20434935897174 -3.2937586848929641 0 -3.2937586848929641 -68.25289472814984 0 0 0 0 97.627866587894459 -5.8187300013123604 0 -5.8187300013123604 -51.566440699725717 0 0 0 0 93.071636391094216 -51.047304285033533 0 -51.047304285033533 -2.1075305769845727 0 0 0 0 55.086522956765819 -23.324572291654519 0 -23.324572291654519 2.8450326201067679 0 0 0 0 9.3825365962566938 -8.1758199323398362 0 -8.1758199323398362 -2.9679727430890459 0 0 0 0 49.883931338767503 -12.072093861904449 0 -12.072093861904449 -0.54120288518297155 0 0 0 0 65.498845085744961 -29.715050487395942 0 -29.715050487395942 -0.91861897603121179 0 0 0 0 66.789299244330323 -15.910021743608922 0 -15.910021743608922 -10.327243409380117 0 0 0 0 125.35635035567975 78.472663305469723 0 78.472663305469723 -80.661764744537777 0 0 0 0 32.11117076354094 -34.522783179522321 0 -34.522783179522321 69.725720664451728 0 0 0 0 76.790613411513476 4.3761717834505944 0 4.3761717834505944 -19.542826494862723 0 0 0 0 86.972468750522239 -28.244843650925304 0 -28.244843650925304 54.213690588590907 0 0 0 0 65.482922722065808 -14.43558074188614 0 -14.43558074188614 -17.052630900443713 0 0 0 0 3.6192710616523982 1.4688501139974051 0 1.4688501139974051 52.422734593443238 0 0 0 0 17.055011825275869 19.734721471149442 0 19.734721471149442 -26.709155148505943 0 0 0 0 27.983156902693736 -31.531419954356352 0 -31.531419954356352 -4.147886972742981 0 0 0 0 205.85656170357106 17.257339454047269 0 17.257339454047269 -0.32947899229930044 0 0 0 0 103.8824573735983 -70.293060203371397 0 -70.293060203371397 42.802225874585019 0 0 0 0 70.576565779592784 -24.316775634863916 0 -24.316775634863916 8.9910895567368243 0 0 0 0 93.84119060908597 -14.805623567803423 0 -14.805623567803423 -8.6212439491200712 0 0 0 0 67.25214899069033 5.7468127775937319 0 5.7468127775937319 2.5395244603769243 0 0 0 0 235.96342801063292 -61.513892347698857 0 -61.513892347698857 -225.21079607321462 0 0 0 0 28.238187332292 -34.234119508334061 0 -34.234119508334061 22.19051794716097 0 0 0 0 311.20542359889077 125.07036926166529 0 125.07036926166529 -163.04633662747801 0 0 0 0 -134.41175720890442 -93.192272171947479 0 -93.192272171947479 303.54213072706943 0 0 0 0 34.264898814606006 -19.609785860688099 0 -19.609785860688099 1.8418600985746387 0 0 0 0 56.589913737130701 -19.189493015987182 0 -19.189493015987182 -8.3835108571233263 0 0 0 0 -126.74822184644108 -114.07876039371854 0 -114.07876039371854 -11.035846149375629 0 0 0 0 72.365708348686169 11.820135669983515 0 11.820135669983515 0.23520738926708873 0 0 0 0 81.502602198558179 -2.5825605174811699 0 -2.5825605174811699 -45.198577584706072 0 0 0 0 74.620671107460566 -26.157785076416531 0 -26.157785076416531 -35.649674149305611 0 0 0 0 106.65838870156585 9.6288385944581023 0 9.6288385944581023 -12.427891895543894 0 0 0 0 88.62875464442368 15.570911926987719 0 15.570911926987719 -11.845755827787798 0 0 0 0 48.496974875328831 -23.110194595016281 0 -23.110194595016281 3.130689490174495 0 0 0 0 123.10106572707446 -5.095077290368863 0 -5.095077290368863 -79.495241944327745 0 0 0 0 84.541895235965058 -131.0181275173054 0 -131.0181275173054 -141.2899623842186 0 0 0 0 73.150685902559417 -32.057428543637343 0 -32.057428543637343 -72.261937946728722 0 0 0 0 158.0930659910664 32.592668182871421 0 32.592668182871421 -44.380101990208232 0 0 0 0 113.95777221322987 1.8421722137895813 0 1.8421722137895813 -34.49476857740774 0 0 0 0 304.25407567377624 -90.565054206789682 0 -90.565054206789682 89.665602991143487 0 0 0 0 142.24192191081056 -7.0986814939342366 0 -7.0986814939342366 54.064467631657863 0 0 0 0 93.401881829814556 19.830498106670802 0 19.830498106670802 63.623535681616886 0 0 0 0 102.81328310729987 -18.028806267758682 0 -18.028806267758682 192.57015462131949 0 0 0 0 147.03780598334743 91.513338225165171 0 91.513338225165171 144.14336174306845 0 0 0 0 72.630432575464965 -4.3002620338070301 0 -4.3002620338070301 58.880383659246036 0 0 0 0 77.982592904795638 8.049678992115787 0 8.049678992115787 80.62783827415069 0 0 0 0 70.681608073298321 -18.209819432759105 0 -18.209819432759105 -27.412372634705434 0 0 0 0 -214.23382627156525 -14.648089119519682 0 -14.648089119519682 85.072297094654232 0 0 0 0 -52.085357479062736 -83.084120218350563 0 -83.084120218350563 55.872646155046368 0 0 0 0 10.909500318270268 -8.1829964701693996 0 -8.1829964701693996 -8.9886054443498402 0 0 0 0 -14.594323674369548 -76.720125877418241 0 -76.720125877418241 -14.541176547509167 0 0 0 0 -79.293370089470727 -101.20057541327355 0 -101.20057541327355 185.88241544318544 0 0 0 0 -39.218912196945212 -257.76269302029652 0 -257.76269302029652 207.60676655470161 0 0 0 0 54.120690312504848 -284.57590531194705 0 -284.57590531194705 25.009351692222936 0 0 0 0 -98.408676247966014 -124.37721093923255 0 -124.37721093923255 26.301401514812369 0 0 0 0 -91.661280805346451 -168.04894764758001 0 -168.04894764758001 81.412522754426391 0 0 0 0 -11.929405573111353 -167.06244033119185 0 -167.06244033119185 -79.501713031937925 0 0 0 0 -0.98801249939708669 -186.64302734559328 0 -186.64302734559328 -69.632672424186239 0 0 0 0 58.499129239652987 -246.3814668326753 0 -246.3814668326753 -130.46598519046847 0 0 0 0 97.706133625320035 -219.99959845376907 0 -219.99959845376907 -150.64738594959886 0 0 0 0 59.945367832607644 -149.47253344922274 0 -149.47253344922274 -194.68550592056545 0 0 0 0 87.123834555459553 -85.7245237005136 0 -85.7245237005136 -393.41360701745816 0 0 0 0 128.92942977200437 -183.75137102934173 0 -183.75137102934173 -260.80238130143516 0 0 0 0 61.347760599134062 -148.60962446145197 0 -148.60962446145197 -202.28852776072154 0 0 0 0 65.903029162023131 -11.634667563497175 0 -11.634667563497175 0.83858511908835576 0 0 0 0 72.760668591327146 -106.53497539755867 0 -106.53497539755867 -198.29096542211482 0 0 0 0 9.2501813440353544 -109.46709632925354 0 -109.46709632925354 -107.46996811045756 0 0 0 0 84.50863050132466 -35.120034012830274 0 -35.120034012830274 -30.567684234944295 0 0 0 0 63.851456922542191 -20.500224164394648 0 -20.500224164394648 4.7341565009553195 0 0 0 0 10.778678045795459 -122.81217313207208 0 -122.81217313207208 -88.362083564295972 0 0 0 0 65.837372937345208 -12.229879568842676 0 -12.229879568842676 15.104516274793266 0 0 0 0 83.910647226072342 -5.443194971952817 0 -5.443194971952817 -2.5086768571379707 0 0 0 0 83.249579036186333 -22.085567493383778 0 -22.085567493383778 -9.5144928299616822 0 0 0 0 69.730204047118136 -21.593155138601663 0 -21.593155138601663 2.5255642817037232 0 0 0 0 15.115662246502779 -68.571498330763234 0 -68.571498330763234 -12.503933308154956 0 0 0 0 -5.8068546989779861 -105.29607924628851 0 -105.29607924628851 -73.745464917677054 0 0 0 0 -22.918624136051221 -131.0543164553219 0 -131.0543164553219 25.723691060508372 0 0 0 0 0.93325528044690387 -2.6342116378054072 0 -2.6342116378054072 12.168381646069758 0 0 0 0 3248.1323763252694 -760.45854811250103 0 -760.45854811250103 95.967097991155271 0 0 0 0 237.13923652819722 -39.383875113059503 0 -39.383875113059503 -0.51958267876261743 0 0 0 0 23.897754799159884 6.8872866947060629 0 6.8872866947060629 58.317676515914059 0 0 0 0 0.20139214757271962 0.61014034082264601 0 0.61014034082264601 0.97767411131647997 0 0 0 0 89.991449910005031 -69.740686620006272 0 -69.740686620006272 34.275540214500097 0 0 0 0 166.10744321851053 -5.2399632313022266 0 -5.2399632313022266 -7.5856275418673249 0 0 0 0 33.456025572239014 -33.817799231988374 0 -33.817799231988374 19.635266189039612 0 0 0 0 3101.8609227589914 -1317.5844786478865 0 -1317.5844786478865 572.4577025819716 0 0 0 0 3498.2430305340677 -928.22988686902909 0 -928.22988686902909 201.7992918970416 0 0 0 0 3.4498143558882362 -10.017276281422433 0 -10.017276281422433 16.409471194596829 0 0 0 0 58.632599040602031 -7.7838718913429563 0 -7.7838718913429563 5.0505651676201673 0 0 0 0 612.0906236495648 -174.57086926201737 0 -174.57086926201737 164.4809335341115 0 0 0 0 -2.6154794951611393 -4.5473993803910098 0 -4.5473993803910098 28.755978763622348 0 0 0 0 3494.7497008964347 -6.0759745040458828 0 -6.0759745040458828 16.279978184823587 0 0 0 0 12.655436919968409 -0.80347102576635621 0 -0.80347102576635621 10.887148375316508 0 0 0 0 -429.45674729903112 -391.35148685928687 0 -391.35148685928687 2020.305918389344 0 0 0 0 3493.387708856194 2481.8743273735367 0 2481.8743273735367 952.75210329509991 0 0 0 0 -177.74466019270767 1078.8072329207903 0 1078.8072329207903 2796.6773926732221 0 0 0 0 1208.9470903850779 1279.7857925392543 0 1279.7857925392543 790.03934242094624 0 0 0 0 -167.11004344419052 141.84201191028478 0 141.84201191028478 720.00414197839473 0 0 0 0 288.73645371041493 718.0183763415348 0 718.0183763415348 1095.482545929566 0 0 0 0 87.703424387327686 -41.099201029319374 0 -41.099201029319374 -8.7975377188026869 0 0 0 0 71.054350454451196 -2.580792730174835 0 -2.580792730174835 -5.2893532190610131 0 0 0 0 578.06880477049708 995.94415720023335 0 995.94415720023335 942.39566756154363 0 0 0 0 104.26935551033239 -5.0265627033481906 0 -5.0265627033481906 -23.840539136341022 0 0 0 0 414.26617646325758 12.524468681638837 0 12.524468681638837 24.551385531489359 0 0 0 0 92.740588098982698 16.939501533128805 0 16.939501533128805 3.0366959394245896 0 0 0 0 111.97434567590244 16.088015454641209 0 16.088015454641209 63.31173515181581 0 0 0 0 80.151950741506255 -10.85068790374924 0 -10.85068790374924 0.37088876670733484 0 0 0 0 15.464762334028308 -12.561327363221224 0 -12.561327363221224 -8.5862114528270794 0 0 0 0 368.37636303166983 184.25524699157998 0 184.25524699157998 292.91094083107419 0 0 0 0 163.60944359959103 322.87322903637732 0 322.87322903637732 204.48932205882875 0 0 0 0 107.71628327197686 44.050765100135777 0 44.050765100135777 -182.70511101584179 0 0 0 0 -34.518533811511588 -21.030785617367087 0 -21.030785617367087 212.7760381667913 0 0 0 0 155.34310772405297 96.563676701806116 0 96.563676701806116 275.97887625282897 0 0 0 0 319.98774795498321 247.04449584074331 0 247.04449584074331 250.56959827975243 0 0 0 0 233.53815319862042 459.17069286921196 0 459.17069286921196 614.48197562392306 0 0 0 0 189.32523700754246 100.12846424495046 0 100.12846424495046 142.38310426980843 0 0 0 0 14.245080964730674 -0.048717702215412828 0 -0.048717702215412828 -1.9231767575305065 0 0 0 0 15.600540243521209 14.036193759402231 0 14.036193759402231 80.763163115455427 0 0 0 0 157.17239859440451 -60.697301008575209 0 -60.697301008575209 -166.88168767175648 0 0 0 0 98.015187511919066 50.181384105424058 0 50.181384105424058 -35.200863451153509 0 0 0 0 89.806421048779157 33.331774783629271 0 33.331774783629271 -50.429182644017601 0 0 0 0 31.634804760018596 -5.7267291985599513 0 -5.7267291985599513 -10.496411434189213 0 0 0 0 35.280226633069105 46.190752239958783 0 46.190752239958783 -30.836501887159784 0 0 0 0 45.748530817386836 0.64305004866582749 0 0.64305004866582749 -8.1494801255198812 0 0 0 0 51.787151452388429 -0.46730705524625904 0 -0.46730705524625904 4.4440573764127596 0 0 0 0 54.923030308598335 12.105672340594126 0 12.105672340594126 -12.24203385126799 0 0 0 0 98.429458811866994 -13.999802230559595 0 -13.999802230559595 -5.7559293280446582 0 0 0 0 100.77162814142866 12.664237713904043 0 12.664237713904043 3.1605997806564119 0 0 0 0 16.41310433167672 -2.3120786200432093 0 -2.3120786200432093 10.267023404522533 0 0 0 0 104.76341506523022 25.340121221872778 0 25.340121221872778 28.909663538162022 0 0 0 0 98.646068382608064 -16.85375168171322 0 -16.85375168171322 50.128613479239448 0 0 0 0 151.94863630696636 -54.660114384002554 0 -54.660114384002554 62.179422074131026 0 0 0 0 42.075980824756698 -42.5503582014926 0 -42.5503582014926 -5.579055159983227 0 0 0 0 -1.4456294851774691 -0.98674174838244966 0 -0.98674174838244966 8.5938484136779039 0 0 0 0 150.63091983212871 -22.189723335595318 0 -22.189723335595318 -42.10890904528469 0 0 0 0 -102.84782291257579 278.14080217509661 0 278.14080217509661 -184.17155673460934 0 0 0 0 112.97142914554274 17.970311163577094 0 17.970311163577094 -67.740897984826915 0 0 0 0 97.704390016375768 16.456788675658593 0 16.456788675658593 -10.675408424115528 0 0 0 0 120.47197480783871 -22.177448076365636 0 -22.177448076365636 -3.1579168892908456 0 0 0 0 87.973012847516884 15.959872432873858 0 15.959872432873858 -12.089715989071362 0 0 0 0 71.897208409558516 78.701069516669349 0 78.701069516669349 -66.207636266704867 0 0 0 0 24.999687968991566 60.752132075402727 0 60.752132075402727 -2.9028088506047425 0 0 0 0 90.798674330260837 2.2931479383825035 0 2.2931479383825035 -1.6684757431573729 0 0 0 0 89.416460112493951 35.741097496887392 0 35.741097496887392 61.926598607483811 0 0 0 0 105.30630919379473 42.967326108704583 0 42.967326108704583 -47.033726360025412 0 0 0 0 213.7471787660179 22.463104179259517 0 22.463104179259517 90.341172575220298 0 0 0 0 141.96553997696174 -31.674064211208304 0 -31.674064211208304 -4.7288219295783165 0 0 0 0 131.53103670620476 -35.070931818399515 0 -35.070931818399515 54.818678729312524 0 0 0 0 214.07487709121779 -62.671976530175243 0 -62.671976530175243 -2.3417834519785856 0 0 0 0 78.583948751693242 16.584649899626129 0 16.584649899626129 -0.80764991707889067 0 0 0 0 53.525280969290179 -27.986942115548317 0 -27.986942115548317 -65.405768493633332 0 0 0 0 60.093421037048756 -62.935448716639939 0 -62.935448716639939 4.1760588121246656 0 0 0 0 183.43595658549748 -136.70656266295782 0 -136.70656266295782 -33.496069743289809 0 0 0 0 422.86627268919256 -2.9373102175072745 0 -2.9373102175072745 -65.759784426878525 0 0 0 0 293.67608689651206 -57.110844759513441 0 -57.110844759513441 -40.69040682629975 0 0 0 0 300.18382369726896 -78.577874717208147 0 -78.577874717208147 -54.851800618084326 0 0 0 0 213.44741587586213 -67.613416346168918 0 -67.613416346168918 -24.733648705371252 0 0 0 0 266.34837798708759 -28.382124318365527 0 -28.382124318365527 3.3811694437504229 0 0 0 0 290.08720210878528 -87.240369154877044 0 -87.240369154877044 -15.920738918679035 0 0 0 0 212.98968949291395 -17.801539560063883 0 -17.801539560063883 13.158754267576114 0 0 0 0 63.127880241780076 6.6148750795598517 0 6.6148750795598517 10.035831934954331 0 0 0 0 103.91132287647633 -82.693798816221488 0 -82.693798816221488 52.373308167511141 0 0 0 0 201.18967227247776 -57.188035051783118 0 -57.188035051783118 -25.893331856979557 0 0 0 0 145.7429991944955 -20.498216658808815 0 -20.498216658808815 20.812674888622041 0 0 0 0 215.5030150780658 6.9804912804486321 0 6.9804912804486321 25.077342067929578 0 0 0 0 213.78797891431896 -9.7373049881043698 0 -9.7373049881043698 -65.786651565467764 0 0 0 0 361.59556287058513 93.669247238175558 0 93.669247238175558 -20.52607691347032 0 0 0 0 15.820590318125568 -4.2141589337451233 0 -4.2141589337451233 1.1404643598322273 0 0 0 0 176.1035117184947 94.75286222497175 0 94.75286222497175 -9.539331671472155 0 0 0 0 882.44088470819406 -112.65428093825358 0 -112.65428093825358 -105.94075270064855 0 0 0 0 301.80313314270461 -77.721674901361666 0 -77.721674901361666 -101.55289527508558 0 0 0 0 344.56484658282716 -177.98067900127126 0 -177.98067900127126 -23.059197805452754 0 0 0 0 -627.96289491036441 14.346647963348914 0 14.346647963348914 481.7563271693416 0 0 0 0 -48.7921828100516 -1397.3708604977273 0 -1397.3708604977273 1809.8789297649928 0 0 0 0 89.58312508932795 83.411888734560307 0 83.411888734560307 -54.837127401882299 0 0 0 0 94.909212709051431 12.350570924002206 0 12.350570924002206 -14.359420704456127 0 0 0 0 1335.2183883382131 -166.72592227228233 0 -166.72592227228233 -825.21676300467493 0 0 0 0 -12.043736843756051 -56.254206578215872 0 -56.254206578215872 235.27210340429264 0 0 0 0 47.584760132210249 -19.146189304497625 0 -19.146189304497625 55.462287591511995 0 0 0 0 48.705206323322273 4.2309980219849876 0 4.2309980219849876 -13.984548969282514 0 0 0 0 146.11102476242377 100.27589761351237 0 100.27589761351237 80.194301923787748 0 0 0 0 34.979938528860657 3.9347848483807866 0 3.9347848483807866 6.0739557205492929 0 0 0 0 -0.92543002019374399 1.5835180885806039 0 1.5835180885806039 108.32852850733889 0 0 0 0 -3.4615947497768502 -1.6995682664814922 0 -1.6995682664814922 57.005657195987652 0 0 0 0 -0.54824895836107856 -0.028402762349372779 0 -0.028402762349372779 1.6931892569617908 0 0 0 0 65.84686920920285 3.5327034873414505 0 3.5327034873414505 -0.88716304605804908 0 0 0 0 4.9795361385702606 -0.77545502214420026 0 -0.77545502214420026 0.94930745876178335 0 0 0 0 28.041856281316512 6.533926725606868 0 6.533926725606868 -8.6858562899089975 0 0 0 0 55.126023210614221 3.6588553158549075 0 3.6588553158549075 -0.73611502906754822 0 0 0 0 31.776532480887454 -8.7898605403698298 0 -8.7898605403698298 -15.044517938171339 0 0 0 0 179.24885378909676 -12.129880843770948 0 -12.129880843770948 18.15308065196951 0 0 0 0 20.098774283993862 -59.990343707933647 0 -59.990343707933647 -17.423987380737344 0 0 0 0 8.8581312341635723 -10.710211660653215 0 -10.710211660653215 18.139357630211716 0 0 0 0 16.901702082959673 -6.8369305273749887 0 -6.8369305273749887 7.1052128821629594 0 0 0 0 128.19529746448461 -7.5848450622594328 0 -7.5848450622594328 17.753421896199143 0 0 0 0 7.4453305350435386 0.15835015487995463 0 0.15835015487995463 3.9298358283125845 0 0 0 0 191.79283222969389 -66.788356827485131 0 -66.788356827485131 9.1248622690318939 0 0 0 0 264.1551547639865 -8.9282464956995682 0 -8.9282464956995682 -20.002305060736944 0 0 0 0 193.3859114856059 4.9881145836229734 0 4.9881145836229734 -16.709499347643032 0 0 0 0 185.37921555264984 -3.3323114546146826 0 -3.3323114546146826 18.320659173173141 0 0 0 0 167.15721278381352 -25.970901127023268 0 -25.970901127023268 8.0841757469681852 0 0 0 0 64.758946018213464 32.19059199671949 0 32.19059199671949 20.933392597319298 0 0 0 0 116.82903083230667 -3.9281645930327613 0 -3.9281645930327613 14.231361440541605 0 0 0 0 150.19637879552829 44.08203294236273 0 44.08203294236273 28.400924673441295 0 0 0 0 86.50032948381704 -16.02171875386648 0 -16.02171875386648 169.25187488402435 0 0 0 0 323.07752578870713 70.155045523606532 0 70.155045523606532 22.144245203322726 0 0 0 0 2.5467923492100084 1.0906093208740515 0 1.0906093208740515 -0.33455430347797055 0 0 0 0 395.12165786098194 -116.44409973205211 0 -116.44409973205211 19.29786001718378 0 0 0 0 325.24599365454378 -82.48206390901214 0 -82.48206390901214 22.234650720898571 0 0 0 0 138.43809041492568 1.9979257624618185 0 1.9979257624618185 -15.853562715140015 0 0 0 0 147.47872175886437 -76.490842268438698 0 -76.490842268438698 -5.5843802284043704 0 0 0 0 183.69332859195492 -18.404744439993692 0 -18.404744439993692 -4.0058025852040373 0 0 0 0 184.11727297245488 -13.394934426707593 0 -13.394934426707593 -0.39652261165974778 0 0 0 0 226.01358154567788 -35.993825771885327 0 -35.993825771885327 -15.166972641311986 0 0 0 0 175.45146351603034 -39.186951294862126 0 -39.186951294862126 -20.758297918132484 0 0 0 0 178.05296830757561 -54.232092599700991 0 -54.232092599700991 26.875947351999002 0 0 0 0 -64.225602766189695 -44.90743576751197 0 -44.90743576751197 50.629393358393827 0 0 0 0 0.39485657307593147 -0.65103123050977985 0 -0.65103123050977985 5.7323018381916331 0 0 0 0 72.61956484406619 28.121252905031952 0 28.121252905031952 28.870617524155023 0 0 0 0 -80.996918406515761 28.844537945102729 0 28.844537945102729 75.286400180432565 0 0 0 0 64.353161438673851 64.539175946971682 0 64.539175946971682 -14.585358929545805 0 0 0 0 0.12479993588680305 0.67870854079399123 0 0.67870854079399123 2.0431055363424937 0 0 0 0 33.855942571783999 -35.56126420574104 0 -35.56126420574104 82.296410170147965 0 0 0 0 114.15304703373113 -107.48586171094564 0 -107.48586171094564 37.163751038736336 0 0 0 0 190.77623702659184 -141.96323306120235 0 -141.96323306120235 -19.622410796996519 0 0 0 0 187.97343040778605 -56.516905434530763 0 -56.516905434530763 -26.690030115114496 0 0 0 0 373.9876841284281 -8.3785325878151298 0 -8.3785325878151298 -51.785867241952474 0 0 0 0 154.32066325746564 2.3375578823035994 0 2.3375578823035994 51.069486551616706 0 0 0 0 151.96242298855759 19.677005392301538 0 19.677005392301538 -16.630563006330704 0 0 0 0 10.126777872684535 2.738524835666496 0 2.738524835666496 1.9207245732040752 0 0 0 0 9.7295569868048943 -0.35441219018859016 0 -0.35441219018859016 3.755936073974695 0 0 0 0 23.363943927666696 -19.697993158910322 0 -19.697993158910322 59.613209556684978 0 0 0 0 100.62093251125407 -28.472782415765323 0 -28.472782415765323 3.1324038116363226 0 0 0 0 1080.0386771741214 774.52244770573293 0 774.52244770573293 554.0757528552316 0 0 0 0 19.260191650510478 -1.857022591503771 0 -1.857022591503771 5.5438989595983328 0 0 0 0 -120.87110919760016 15.488081655212454 0 15.488081655212454 -11.593279384040187 0 0 0 0 69.471134640682067 -43.827611857446755 0 -43.827611857446755 135.75526886573147 0 0 0 0 41.048514912525697 -17.07999239394627 0 -17.07999239394627 2.6948668765606953 0 0 0 0 40.507275576566414 6.2859506325924102 0 6.2859506325924102 -3.2232333359141165 0 0 0 0 60.572751758343657 -11.364122886794121 0 -11.364122886794121 0.81141547517836443 0 0 0 0 68.526930263163393 11.480024851031903 0 11.480024851031903 -12.188780605545384 0 0 0 0 4000.2896708485205 -183.74499294553638 0 -183.74499294553638 468.16791105153675 0 0 0 0 3516.6579768369847 -1247.4598485376357 0 -1247.4598485376357 526.97612524771807 0 0 0 0 3499.7311354378035 -289.16700939607887 0 -289.16700939607887 777.83901463453094 0 0 0 0 3572.5569092646874 -410.55395825494122 0 -410.55395825494122 -542.06986924132752 0 0 0 0 2741.8703650828502 -206.65131566356101 0 -206.65131566356101 -276.62698880742533 0 0 0 0 3.3692814302284297 3.3657067505955922 0 3.3657067505955922 8.1295261921640289 0 0 0 0 44.243449783203687 11.369790062753736 0 11.369790062753736 16.111930532539645 0 0 0 0 126.34010976983336 -33.677213128439234 0 -33.677213128439234 10.060167445027673 0 0 0 0 -0.40492154202090802 0.64348878197935022 0 0.64348878197935022 2.7722169604277136 0 0 0 0 59.351188795195412 -9.2366726328195909 0 -9.2366726328195909 1.2479942784530067 0 0 0 0 44.234872044315694 8.8053293102599568 0 8.8053293102599568 6.8990088565687984 0 0 0 0 3499.9882086951902 -701.12356052057794 0 -701.12356052057794 -27.370349350490223 0 0 0 0 3499.7559636391225 29.84714104043292 0 29.84714104043292 -41.420552151417276 0 0 0 0 177.51872922933171 -35.172912548422573 0 -35.172912548422573 -2.1498176063632854 0 0 0 0 3349.1553779216429 -54.046098028691389 0 -54.046098028691389 -69.216807372910836 0 0 0 0 4.4391366755021497 -22.04804478304256 0 -22.04804478304256 14.562518109191721 0 0 0 0 2.6554994717741391 -29.122609664273114 0 -29.122609664273114 21.507275184277198 0 0 0 0 2888.3606396169034 -285.74539576347325 0 -285.74539576347325 -73.085161535022451 0 0 0 0 3180.1855746268666 -134.21919630861561 0 -134.21919630861561 -58.516042288710764 0 0 0 0 3499.6596714282477 -208.7040872713402 0 -208.7040872713402 -278.58821613298454 0 0 0 0 3257.1957939655549 -344.46425027213093 0 -344.46425027213093 -273.97017926236407 0 0 0 0 3070.254574100094 -272.45793435621471 0 -272.45793435621471 -257.23653678249713 0 0 0 0 3500.233803842526 -674.30077264495287 0 -674.30077264495287 -12.368533880041763 0 0 0 0 172.37287890325672 -51.369973364012367 0 -51.369973364012367 29.210986330756441 0 0 0 0 17.134340881463853 -34.868681297572643 0 -34.868681297572643 27.015272760089967 0 0 0 0 1805.1163035779209 -919.75287298954368 0 -919.75287298954368 481.02946618776798 0 0 0 0 196.34924020958394 -32.451487702167583 0 -32.451487702167583 10.25594968761925 0 0 0 0 136.73789565986522 -28.680189126581354 0 -28.680189126581354 29.349475155147957 0 0 0 0 97.341636630620172 15.503470797260025 0 15.503470797260025 -15.346054446589809 0 0 0 0 133.55703868369892 152.14223986778876 0 152.14223986778876 13.203160865904536 0 0 0 0 165.67187237137895 -17.401643420968298 0 -17.401643420968298 19.303070852947712 0 0 0 0 -3.9164484283974161 -85.611235566867435 0 -85.611235566867435 75.137198472317976 0 0 0 0 82.789751243573846 -107.78967630283701 0 -107.78967630283701 -30.459686394417446 0 0 0 0 134.50588205236795 -25.503426928520639 0 -25.503426928520639 21.388785375400857 0 0 0 0 118.82037907507925 1.7302105680091699 0 1.7302105680091699 -0.32144699280797795 0 0 0 0 111.37978935602905 -1.8874921100530173 0 -1.8874921100530173 19.060899057072675 0 0 0 0 140.70467116624945 -21.765423920254193 0 -21.765423920254193 3.4408152287005578 0 0 0 0 119.87771355563746 -8.5716938461218888 0 -8.5716938461218888 4.7799517346256835 0 0 0 0 119.23294448786646 -24.540293853222465 0 -24.540293853222465 9.7657736244136686 0 0 0 0 154.70770285976698 -16.78429964684301 0 -16.78429964684301 16.863183637424299 0 0 0 0 143.33203931949004 -30.734522468565046 0 -30.734522468565046 23.698994356877165 0 0 0 0 164.5394188777982 -39.999494308645581 0 -39.999494308645581 12.656263515455066 0 0 0 0 148.05897121850114 -32.304567586395478 0 -32.304567586395478 9.2629306967901357 0 0 0 0 127.61928572764282 -32.898777460510246 0 -32.898777460510246 11.482352481230919 0 0 0 0 144.03610175453434 -23.72151244509314 0 -23.72151244509314 14.764637074079928 0 0 0 0 120.35506366557729 -21.678526425773043 0 -21.678526425773043 13.837118810739412 0 0 0 0 118.67672074777602 -31.224569299886298 0 -31.224569299886298 -7.8482381682234745 0 0 0 0 103.1147730702628 -16.706382954705077 0 -16.706382954705077 1.4230565671177828 0 0 0 0 96.021480442836946 -30.585249731855356 0 -30.585249731855356 -20.021315491376072 0 0 0 0 796.77506057141181 17.431257239954903 0 17.431257239954903 -510.12553797114469 0 0 0 0 95.447405913589932 14.150055129523579 0 14.150055129523579 -28.8795694727296 0 0 0 0 112.39472322710481 -11.004289098753816 0 -11.004289098753816 -39.254308590855999 0 0 0 0 87.040497786300548 9.5591949646771166 0 9.5591949646771166 -24.140460514668515 0 0 0 0 100.37677742211508 -11.758428456717411 0 -11.758428456717411 0.7471996638832934 0 0 0 0 92.313793809364142 -7.3104231300885658 0 -7.3104231300885658 0.84541094317091847 0 0 0 0 120.36783199239335 -15.262752082903717 0 -15.262752082903717 -7.1663440732636445 0 0 0 0 93.272635849771817 17.199441177857533 0 17.199441177857533 -18.195311193738636 0 0 0 0 -166.92458813656413 225.19362835216111 0 225.19362835216111 10.155612382582149 0 0 0 0 114.42034958178147 -14.376391695140228 0 -14.376391695140228 -1.3386168386932695 0 0 0 0 -364.69308065762925 -522.44834217605785 0 -522.44834217605785 826.03106751155701 0 0 0 0 149.4330048876509 -27.703268791696459 0 -27.703268791696459 7.9574063256643512 0 0 0 0 162.82653309335001 -71.809379601590877 0 -71.809379601590877 -60.914052576509995 0 0 0 0 261.32894584059432 -20.836635114509683 0 -20.836635114509683 -51.731632122109772 0 0 0 0 222.9017997200599 52.803970930686262 0 52.803970930686262 46.370328837427905 0 0 0 0 0.057990353234998793 -2.8083188776294037 0 -2.8083188776294037 8.6892225731651003 0 0 0 0 763.28042751259818 -10.24199434255501 0 -10.24199434255501 -29.471524388580832 0 0 0 0 -48.941237625334907 -69.60612271204991 0 -69.60612271204991 69.416945387138071 0 0 0 0 29.698935619360782 -82.924854907022109 0 -82.924854907022109 71.642456072605569 0 0 0 0 78.630422306399851 -10.716345448457105 0 -10.716345448457105 50.10557290913016 0 0 0 0 -20.211300458145161 -3.1355319387362144 0 -3.1355319387362144 59.81581278900444 0 0 0 0 76.445444646582473 -46.536439101561996 0 -46.536439101561996 -30.268221269220447 0 0 0 0 107.19078269344209 23.729194957198615 0 23.729194957198615 -4.6694987146420317 0 0 0 0 2.5394170247143677 1.7867414596189999 0 1.7867414596189999 2.6154179084225424 0 0 0 0 27.479964724145248 -1.3883581898696526 0 -1.3883581898696526 34.63568652479465 0 0 0 0 43.011636127752354 -95.765383866691252 0 -95.765383866691252 6.7068178432200298 0 0 0 0 98.46046841001953 -55.936632046089471 0 -55.936632046089471 -3.4643206473829196 0 0 0 0 33.295599443412357 -76.123415286644558 0 -76.123415286644558 3.4836829342111741 0 0 0 0 59.515456791868928 -56.860748954311475 0 -56.860748954311475 9.1683288800977607 0 0 0 0 18.047786609256946 -47.634961977030571 0 -47.634961977030571 15.320942512867987 0 0 0 0 38.44860155850256 -45.909052795680509 0 -45.909052795680509 20.695438922459289 0 0 0 0 67.358187479956996 8.9193216981658452 0 8.9193216981658452 -20.223493516118651 0 0 0 0 68.21704039734874 0.95597886007425892 0 0.95597886007425892 -30.342340569592846 0 0 0 0 92.329997394195743 33.356816952297208 0 33.356816952297208 -51.595480930594022 0 0 0 0 50.935239444692343 -57.062254831664177 0 -57.062254831664177 9.5628387348267552 0 0 0 0 88.332623550420976 2.4519279013516098 0 2.4519279013516098 -49.977177779667272 0 0 0 0 125.26275232287117 25.687468167905308 0 25.687468167905308 -27.700381245039353 0 0 0 0 95.774755631586231 25.315455805995953 0 25.315455805995953 3.7517655439644386 0 0 0 0 15.246018992613143 22.539659809076628 0 22.539659809076628 -26.092504848896269 0 0 0 0 26.844361538327576 4.0746994097730749 0 4.0746994097730749 -25.077888840479773 0 0 0 0 80.608784436483802 -0.11951943737790316 0 -0.11951943737790316 -33.077044527884937 0 0 0 0 77.597087097479744 8.9619043031721048 0 8.9619043031721048 -4.2538411417244788 0 0 0 0 21.401767622744316 -4.0148681876148071 0 -4.0148681876148071 -2.0484358576375872 0 0 0 0 118.01384152931132 13.992110149059954 0 13.992110149059954 -46.566066753516679 0 0 0 0 110.76593320691836 -26.051506146478459 0 -26.051506146478459 17.672899521903673 0 0 0 0 134.0960416880198 -25.563751809017276 0 -25.563751809017276 -11.160804557062534 0 0 0 0 181.17302768260197 -70.811350034405962 0 -70.811350034405962 48.660116162323561 0 0 0 0 149.64674634380617 -38.837936329141257 0 -38.837936329141257 19.354061585961972 0 0 0 0 2.3104028608150475 0.80687977123847077 0 0.80687977123847077 1.7894726720447691 0 0 0 0 220.70666217322923 6.6332858680093523 0 6.6332858680093523 3.9260106459332746 0 0 0 0 30.439871715763729 -4.1991781750895711 0 -4.1991781750895711 16.766417101182924 0 0 0 0 188.30307682315697 -37.709637327360923 0 -37.709637327360923 34.836226572405536 0 0 0 0 127.31648769914455 -97.757199010760985 0 -97.757199010760985 50.062760902249238 0 0 0 0 129.18770777671762 -89.721680287221261 0 -89.721680287221261 32.158283058679004 0 0 0 0 83.773064067250743 -65.219571061369578 0 -65.219571061369578 32.53315511135051 0 0 0 0 106.40863290804236 -17.434019338237114 0 -17.434019338237114 36.095369255773335 0 0 0 0 99.338332394145255 -20.313415594014259 0 -20.313415594014259 92.464913336356176 0 0 0 0 129.81177380926511 -67.092121724820061 0 -67.092121724820061 90.013097365780141 0 0 0 0 92.982651846468116 -14.776680630869365 0 -14.776680630869365 51.497302783038549 0 0 0 0 100.73951568120083 -35.093423323287851 0 -35.093423323287851 55.135652088056474 0 0 0 0 103.34251565723389 -17.012130478800543 0 -17.012130478800543 36.706048814214185 0 0 0 0 103.73785108487982 -31.67502788063166 0 -31.67502788063166 57.264632050725709 0 0 0 0 102.98490783912814 -28.238796476834096 0 -28.238796476834096 44.286428408758638 0 0 0 0 104.80266532781025 -39.15484351143823 0 -39.15484351143823 41.878652902573322 0 0 0 0 105.09972613008131 -44.398644429687465 0 -44.398644429687465 71.526764650959194 0 0 0 0 110.04513806978503 -33.412118350281844 0 -33.412118350281844 38.87047258126961 0 0 0 0 120.88039611856391 -40.904387894284241 0 -40.904387894284241 1.0894123628622765 0 0 0 0 122.13765060957257 -26.477123501776987 0 -26.477123501776987 38.053792563910974 0 0 0 0 115.40088888769321 -38.330317709140104 0 -38.330317709140104 17.221604977403331 0 0 0 0 144.43613170977017 -14.566389728188142 0 -14.566389728188142 36.365756903787315 0 0 0 0 129.99207535518394 -30.94804839599783 0 -30.94804839599783 17.992857400950697 0 0 0 0 166.87717230147095 -20.418853065098602 0 -20.418853065098602 -20.754205398209706 0 0 0 0 166.77600925396982 -24.330134343045302 0 -24.330134343045302 9.43531547688508 0 0 0 0 144.13598128902964 -6.3744939519249328 0 -6.3744939519249328 60.262648563266339 0 0 0 0 151.23889756211599 -18.501199594750915 0 -18.501199594750915 7.3100400757487023 0 0 0 0 175.11413403826879 -47.442899406705237 0 -47.442899406705237 60.341714250650057 0 0 0 0 147.38832919119068 -15.102579046186747 0 -15.102579046186747 38.774877933704374 0 0 0 0 125.59107670178332 -19.429205511231885 0 -19.429205511231885 40.093290867357155 0 0 0 0 118.0932761830154 -29.04581935826377 0 -29.04581935826377 37.166650868642478 0 0 0 0 135.15195532954272 -26.980039696761764 0 -26.980039696761764 38.281168055775652 0 0 0 0 115.28159319417682 -21.04714977968311 0 -21.04714977968311 41.163817553393983 0 0 0 0 119.69338266300019 -25.741661890021817 0 -25.741661890021817 40.727734602707315 0 0 0 0 122.20845048977753 -2.0887322395973769 0 -2.0887322395973769 18.213703256436872 0 0 0 0 117.08811087285972 -0.68732562012999665 0 -0.68732562012999665 20.311075132264762 0 0 0 0 100.56637487953139 -11.883632896508686 0 -11.883632896508686 39.286769762269614 0 0 0 0 120.04039897210383 13.125725037841569 0 13.125725037841569 12.482405574544686 0 0 0 0 145.65209769768757 8.7720115595382495 0 8.7720115595382495 12.952677901499271 0 0 0 0 125.21100168906003 -8.1388552445103528 0 -8.1388552445103528 26.28824078886214 0 0 0 0 158.24806352259793 -29.094607973202471 0 -29.094607973202471 34.360947038777539 0 0 0 0 137.53382549107818 -12.363372993629298 0 -12.363372993629298 25.101558617743194 0 0 0 0 175.47545856420706 7.4984844508819322 0 7.4984844508819322 5.1245180142279878 0 0 0 0 2.8507478385907605 2.1034395102631707 0 2.1034395102631707 1.9254950126516714 0 0 0 0 142.66353530278252 10.948846289351081 0 10.948846289351081 11.530928629415556 0 0 0 0 7.4470078733788698 -5.0143480607450694 0 -5.0143480607450694 1.1346191287184249 0 0 0 0 25.304601696063514 3.4813276082626317 0 3.4813276082626317 29.260616257214679 0 0 0 0 3244.2583575568055 157.26665303613302 0 157.26665303613302 -54.640248310500738 0 0 0 0 3499.5093625557729 310.71151459333299 0 310.71151459333299 -108.38614623909223 0 0 0 0 3353.727952662357 200.76998401634594 0 200.76998401634594 -41.528560148637858 0 0 0 0 3499.9815014536175 97.157646755358343 0 97.157646755358343 -48.386629077859716 0 0 0 0 3.5282663211854883 -14.157469431395263 0 -14.157469431395263 8.0247769166074843 0 0 0 0 37.687167154630401 8.4003933654462344 0 8.4003933654462344 -51.78290228727019 0 0 0 0 234.08894819996783 -22.472548126504762 0 -22.472548126504762 12.808022312917274 0 0 0 0 73.170918049987449 -66.563008660212517 0 -66.563008660212517 87.188063256821806 0 0 0 0 -0.099104950293957189 0.69110251576822845 0 0.69110251576822845 0.65613508436753509 0 0 0 0 3364.0296391217894 49.324217034659135 0 49.324217034659135 -43.115459091877433 0 0 0 0 139.29946051766785 17.658890438469143 0 17.658890438469143 0.49392023424115905 0 0 0 0 67.744102026243354 -53.066896879881938 0 -53.066896879881938 7.9665564256956998 0 0 0 0 47.371480782417166 -20.48559970436429 0 -20.48559970436429 -1.975519138211439 0 0 0 0 41.710520214834787 -40.345210497888274 0 -40.345210497888274 32.157418668535456 0 0 0 0 99.593139936828322 -32.276798079498974 0 -32.276798079498974 3.1336212894822779 0 0 0 0 5.8748654087352463 8.0550505273248518 0 8.0550505273248518 7.0486126860381324 0 0 0 0 67.528404033615175 19.628585646670388 0 19.628585646670388 -14.069358383509552 0 0 0 0 -288.35570406218812 253.102426770222 0 253.102426770222 1.2926511447849158 0 0 0 0 -5.0209931255408264 152.00704205559987 0 152.00704205559987 -75.086346712910654 0 0 0 0 -375.68607609787932 195.83146194824263 0 195.83146194824263 74.322691318504894 0 0 0 0 -272.32206121605043 33.067278344780959 0 33.067278344780959 121.76235232033673 0 0 0 0 -72.326004002520676 21.209680279234135 0 21.209680279234135 77.353084016698631 0 0 0 0 -184.65070783990501 -85.041052272305734 0 -85.041052272305734 263.93635156701839 0 0 0 0 -171.14317294522229 0.75530925963113305 0 0.75530925963113305 -3.6690974226080471 0 0 0 0 3.5417995743146777 4.6722979467147248 0 4.6722979467147248 3.7570760255657607 0 0 0 0 59.608928792398046 -42.696552103154374 0 -42.696552103154374 22.359276663453329 0 0 0 0 18.059351021514885 -25.217378780014315 0 -25.217378780014315 52.65500697967309 0 0 0 0 45.9158386288359 -42.598619209179105 0 -42.598619209179105 23.90015607733983 0 0 0 0 -1.0446265111222486 0.95163760340409098 0 0.95163760340409098 -2.4028246524839094 0 0 0 0 109.17060788389517 -49.515344080396289 0 -49.515344080396289 48.249007639537126 0 0 0 0 46.737643185779234 -32.794946446940457 0 -32.794946446940457 71.089223022104306 0 0 0 0 142.64475333483097 -2.1675880695868273 0 -2.1675880695868273 65.903339801127004 0 0 0 0 147.57363074231671 -11.378760480585015 0 -11.378760480585015 69.416704202842084 0 0 0 0 172.8471327186935 -32.660905865968061 0 -32.660905865968061 74.405798384993432 0 0 0 0 158.59371626137545 -10.474311440660358 0 -10.474311440660358 46.388628368910759 0 0 0 0 90.402101197002594 -27.26435786497666 0 -27.26435786497666 58.543623243940999 0 0 0 0 167.01162531802493 16.542254711439114 0 16.542254711439114 14.573279784328406 0 0 0 0 138.90416225046283 -12.15549754039273 0 -12.15549754039273 8.5598196622921066 0 0 0 0 8.8590548417587343 -40.188524772638658 0 -40.188524772638658 37.894359000481295 0 0 0 0 94.576348099706365 -28.519613952683585 0 -28.519613952683585 34.489225660928241 0 0 0 0 -267.30176735726127 -14.949581016074632 0 -14.949581016074632 -8.0118671261075871 0 0 0 0 13.38652379746236 -25.639752572425923 0 -25.639752572425923 -78.747740275442794 0 0 0 0 9.1491984565487883 -5.3881013719629038 0 -5.3881013719629038 -7.2394494074095812 0 0 0 0 27.69749405229777 -3.7979392966081313 0 -3.7979392966081313 -62.326913855774805 0 0 0 0 -0.23691715841299832 -0.15009459483536602 0 -0.15009459483536602 4.5370068749378847 0 0 0 0 16.184271369376802 -64.898323743686035 0 -64.898323743686035 -118.09209398855859 0 0 0 0 349.80750853812151 56.718763854674876 0 56.718763854674876 15.597437703517699 0 0 0 0 133.15678006599865 -578.41036407073102 0 -578.41036407073102 -170.00191228608065 0 0 0 0 269.82101479088851 16.326523696879121 0 16.326523696879121 25.564144855879931 0 0 0 0 229.66313125468741 84.7423378773575 0 84.7423378773575 59.077942350521425 0 0 0 0 172.42647149086406 35.537920307659107 0 35.537920307659107 18.91353481564397 0 0 0 0 167.64116330328761 10.087613292000015 0 10.087613292000015 38.140448244183858 0 0 0 0 204.54840193955533 44.814469077916442 0 44.814469077916442 29.44651354744974 0 0 0 0 142.28475822261134 32.705006048268018 0 32.705006048268018 15.902205517177634 0 0 0 0 183.57386222778587 22.140328320284652 0 22.140328320284652 15.755168847850996 0 0 0 0 170.6364753132375 43.530537039925662 0 43.530537039925662 52.164019958334393 0 0 0 0 178.17857032532447 58.885800017909901 0 58.885800017909901 65.766549772042708 0 0 0 0 -25.224143570627348 45.203866511465094 0 45.203866511465094 43.944697113292023 0 0 0 0 1.0361854099772785 -4.3042700649821537 0 -4.3042700649821537 18.19620826512654 0 0 0 0 -40.719088888574333 -130.981210582926 0 -130.981210582926 -124.47141071382975 0 0 0 0 -1095.6421856320121 204.30725699479171 0 204.30725699479171 240.92324438912624 0 0 0 0 -26.981181502555046 -82.545510923464747 0 -82.545510923464747 8.0109960439803558 0 0 0 0 25.960978173672629 -63.45458423210065 0 -63.45458423210065 -3.4003711095019362 0 0 0 0 -23.173427923929921 -79.998576699256319 0 -79.998576699256319 23.948803320756724 0 0 0 0 176.35957450922979 55.890805539227543 0 55.890805539227543 9.6033451498807381 0 0 0 0 118.60978896882443 2.6642125206895457 0 2.6642125206895457 1.2209934565248659 0 0 0 0 139.42689833327859 44.789996691827241 0 44.789996691827241 49.281681401562878 0 0 0 0 172.28043302918832 40.937698099953948 0 40.937698099953948 -3.7706587893567303 0 0 0 0 124.31974086695118 2.3332275548632992 0 2.3332275548632992 -8.3487939179619772 0 0 0 0 99.774981270002172 -30.355188136227071 0 -30.355188136227071 -17.331424329034917 0 0 0 0 115.97664278247976 3.9924121772729677 0 3.9924121772729677 0.41491513623759602 0 0 0 0 65.686025504022837 -35.190509278892023 0 -35.190509278892023 18.240735273715472 0 0 0 0 115.89323566751591 -5.050187771920946 0 -5.050187771920946 22.682634166304751 0 0 0 0 137.51327219168797 20.595968374151028 0 20.595968374151028 5.6337004207775863 0 0 0 0 12.790262998585813 -12.16971184240713 0 -12.16971184240713 30.211375516796636 0 0 0 0 53.389871988515551 -65.572475304069016 0 -65.572475304069016 -32.102594328020558 0 0 0 0 93.280620125778569 26.570827061726277 0 26.570827061726277 -22.164756722528153 0 0 0 0 82.775378017711773 -50.016622409800334 0 -50.016622409800334 -52.870896311555128 0 0 0 0 31.839978728658025 -5.6613353565034004 0 -5.6613353565034004 -12.923096723612787 0 0 0 0 13.631021270513656 -32.141186141255957 0 -32.141186141255957 6.7343091415891649 0 0 0 0 0.081084368796701334 0.52721050506627876 0 0.52721050506627876 -1.711756152864675 0 0 0 0 36.761696430005486 -18.32500210903595 0 -18.32500210903595 -1.2253222610959256 0 0 0 0 51.160795805403723 -27.992867919167566 0 -27.992867919167566 5.2214228480811471 0 0 0 0 77.898274969273189 -22.142433898326772 0 -22.142433898326772 -6.7675028722244406 0 0 0 0 55.213995211450765 -22.839689609960601 0 -22.839689609960601 -2.5769252276140833 0 0 0 0 47.399249607522847 -13.939639440014844 0 -13.939639440014844 -7.3304491747426255 0 0 0 0 44.236726779197113 -10.932520222229378 0 -10.932520222229378 1.8527664904162804 0 0 0 0 59.877107640608301 -5.6991413237190045 0 -5.6991413237190045 -12.981411705172263 0 0 0 0 45.762039130834665 -26.342718878116912 0 -26.342718878116912 -8.3894887287474376 0 0 0 0 25.865254601134144 20.028040250132626 0 20.028040250132626 -19.566481501977883 0 0 0 0 52.683645055034503 -3.8723065107642469 0 -3.8723065107642469 -9.1841306379933485 0 0 0 0 75.508765821105044 6.1495616007539411 0 6.1495616007539411 -12.692083269232626 0 0 0 0 103.21001880119911 9.8588285664341129 0 9.8588285664341129 -12.630719600284465 0 0 0 0 78.578322124707483 -0.080267022553925926 0 -0.080267022553925926 7.033602897693072 0 0 0 0 78.894066121285505 -10.419566680673142 0 -10.419566680673142 -12.00047619752695 0 0 0 0 94.949975077011686 -16.548629320744084 0 -16.548629320744084 -11.562439028396966 0 0 0 0 73.351952235980207 -15.259808077743628 0 -15.259808077743628 -17.046740502374178 0 0 0 0 85.156601093057361 -8.1175685363921275 0 -8.1175685363921275 -12.847426898148569 0 0 0 0 72.828851322805349 -15.167571206467983 0 -15.167571206467983 -8.9747446211167698 0 0 0 0 87.181235447591462 -59.166969720681436 0 -59.166969720681436 12.967099564649956 0 0 0 0 56.889552019034454 -37.488678095091814 0 -37.488678095091814 46.535030970306025 0 0 0 0 43.609579335979561 -0.57622855724807209 0 -0.57622855724807209 19.330169762494279 0 0 0 0 33.931842901724679 17.220014077538362 0 17.220014077538362 -17.998876504536192 0 0 0 0 97.277410813770985 -34.73204562176074 0 -34.73204562176074 -19.548216721695653 0 0 0 0 84.640188030534773 -30.907890160968236 0 -30.907890160968236 -11.361778248113296 0 0 0 0 46.643123080033547 -59.711260172860023 0 -59.711260172860023 5.5053638400793368 0 0 0 0 6.0884890606779472 5.9077376161370729 0 5.9077376161370729 -5.9489345781231915 0 0 0 0 39.925652577359358 49.812650447206693 0 49.812650447206693 -80.732940724741184 0 0 0 0 68.747018675299842 -22.267886222486368 0 -22.267886222486368 -13.939206172837999 0 0 0 0 8.5350536826567662 -5.7638724697369508 0 -5.7638724697369508 -6.8386655512859864 0 0 0 0 123.20879990439789 17.660177473635173 0 17.660177473635173 -172.23369682976818 0 0 0 0 71.973638383779416 -2.8044331744075812 0 -2.8044331744075812 -57.61673477619459 0 0 0 0 110.99487679423601 -112.94735567731561 0 -112.94735567731561 7.6334311163570447 0 0 0 0 128.76616336784355 -118.22479106744507 0 -118.22479106744507 -15.688151964115031 0 0 0 0 185.4025648663137 -74.512582329485724 0 -74.512582329485724 -72.345454288458228 0 0 0 0 65.390824123360289 0.61217266781432045 0 0.61217266781432045 -9.4507375177117865 0 0 0 0 51.725651326098031 -14.088307170487335 0 -14.088307170487335 0.28544597949653916 0 0 0 0 48.221146882900939 -20.901921880244231 0 -20.901921880244231 -4.015155485473997 0 0 0 0 59.52468180161668 -29.156814980629406 0 -29.156814980629406 -17.039944623588781 0 0 0 0 58.34453839205753 -13.167423853399896 0 -13.167423853399896 0.50343380935646564 0 0 0 0 58.511523838501944 -1.8508309665136267 0 -1.8508309665136267 4.8636549725367786 0 0 0 0 43.541230101230212 12.541962421473613 0 12.541962421473613 9.3201159228270853 0 0 0 0 10.762672529165545 12.635161992835862 0 12.635161992835862 0.0969675824716969 0 0 0 0 57.9111995649655 4.3926643244883508 0 4.3926643244883508 0.40791647701530565 0 0 0 0 17.308113452809938 10.52706947341084 0 10.52706947341084 0.49620590925084329 0 0 0 0 53.432442887697107 -1.3536229416333754 0 -1.3536229416333754 -2.7770369191398458 0 0 0 0 45.721326105651315 8.2578169220916209 0 8.2578169220916209 -0.10973689991033098 0 0 0 0 43.480661317496811 13.421623065518133 0 13.421623065518133 7.3080181751756754 0 0 0 0 11.95631144124067 -2.2148209296826664 0 -2.2148209296826664 1.6563121832903644 0 0 0 0 12.010481867518877 -14.780552134363518 0 -14.780552134363518 13.779979707957409 0 0 0 0 32.834062889188317 -10.28485849243998 0 -10.28485849243998 5.3107518564529528 0 0 0 0 7.7534050508159025 -2.1347881023212447 0 -2.1347881023212447 -3.3092859205013534 0 0 0 0 31.105100970226204 -7.2311574523056379 0 -7.2311574523056379 5.8387297112622036 0 0 0 0 -31.758231664733302 124.39682348394173 0 124.39682348394173 -131.75468535695765 0 0 0 0 883.51596573096504 33.508324029048708 0 33.508324029048708 -234.13483877088584 0 0 0 0 280.22623860537806 121.94608415246967 0 121.94608415246967 41.267898775615777 0 0 0 0 21.414518103914503 -56.937343372464255 0 -56.937343372464255 109.80983718192874 0 0 0 0 96.254662640900506 -230.67584179465598 0 -230.67584179465598 78.132422264598063 0 0 0 0 2.7685598840350112 -2.1979661316586858 0 -2.1979661316586858 1.479406431029088 0 0 0 0 1159.6565368893594 -689.32091878021401 0 -689.32091878021401 -4.2416005593086084 0 0 0 0 172.21622023688769 89.759643867093246 0 89.759643867093246 42.928472430005982 0 0 0 0 4.3849435277472333 7.4963684703683153 0 7.4963684703683153 4.3132921368592365 0 0 0 0 -23.318105732378655 -19.251249250747719 0 -19.251249250747719 26.494416408640518 0 0 0 0 60.958877833659471 -36.200377536688279 0 -36.200377536688279 8.9329865699905895 0 0 0 0 87.689653031169769 -6.9052393783745174 0 -6.9052393783745174 -2.0883071005241618 0 0 0 0 66.974783049811492 -6.1032299584490488 0 -6.1032299584490488 0.25492687894893606 0 0 0 0 44.896597167476727 -18.744960138739145 0 -18.744960138739145 11.6566420486065 0 0 0 0 44.179531574307504 -23.715522034791263 0 -23.715522034791263 8.2868975695882909 0 0 0 0 36.074109841464328 -25.356562284238514 0 -25.356562284238514 15.215663629436044 0 0 0 0 -19.26550644681447 -60.377366589445955 0 -60.377366589445955 16.091644575639066 0 0 0 0 11.864213973498135 -0.28747486729846106 0 -0.28747486729846106 -1.8291094204266933 0 0 0 0 52.669702688297662 -0.41089723442689774 0 -0.41089723442689774 -87.174238798005717 0 0 0 0 836.04523286552376 -173.18565109742303 0 -173.18565109742303 -44.540988092834596 0 0 0 0 0.30545467791989722 16.669323035065759 0 16.669323035065759 118.45186112858619 0 0 0 0 31.071144221958281 -20.304506660933907 0 -20.304506660933907 10.840562287403062 0 0 0 0 205.92386740499933 -132.28009064041123 0 -132.28009064041123 -39.745626627631168 0 0 0 0 238.67696404529522 93.099117868794636 0 93.099117868794636 -5.6449726044431827 0 0 0 0 23.094616865063358 -14.235283949579669 0 -14.235283949579669 6.4972450601781446 0 0 0 0 570.89218891818655 119.84740425141263 0 119.84740425141263 -21.945937467538442 0 0 0 0 113.61479229175727 -2.4630675073166231 0 -2.4630675073166231 -209.59054785026001 0 0 0 0 12.727163432351063 -339.59869122503864 0 -339.59869122503864 -540.29584833779268 0 0 0 0 344.75918676650235 -0.56397641575142643 0 -0.56397641575142643 -341.73317931257196 0 0 0 0 103.88389778106682 28.971283204617009 0 28.971283204617009 -72.625786728085103 0 0 0 0 38.170976660365852 114.26830762107967 0 114.26830762107967 -137.31585401441853 0 0 0 0 70.79862677142944 -58.908581448328988 0 -58.908581448328988 -263.02816803499212 0 0 0 0 204.6597021527441 275.10979914009732 0 275.10979914009732 -0.723715417597532 0 0 0 0 -12.074996108190632 47.831478153946577 0 47.831478153946577 89.813779514358203 0 0 0 0 313.48235057754539 40.147383565151245 0 40.147383565151245 -261.42930275216861 0 0 0 0 173.24825832806573 15.066328736289563 0 15.066328736289563 -54.847639323564522 0 0 0 0 464.88636194777246 -351.03644106556931 0 -351.03644106556931 319.77560364451256 0 0 0 0 927.04801318873115 49.501766905062368 0 49.501766905062368 -57.108134843764901 0 0 0 0 1744.5216280439818 -616.57974052340478 0 -616.57974052340478 353.40411561081601 0 0 0 0 9.648936740083375 6.9945519921416039 0 6.9945519921416039 6.3079191058909494 0 0 0 0 525.83437541263766 -464.03539328257875 0 -464.03539328257875 1009.8906117496575 0 0 0 0 1011.2506798404468 498.7595707249713 0 498.7595707249713 691.8428896200985 0 0 0 0 266.26960790871794 176.30614553144756 0 176.30614553144756 135.45692103143961 0 0 0 0 254.43923470772313 74.669702222300771 0 74.669702222300771 503.94512873293297 0 0 0 0 9.1782780042506147 -251.77391481228233 0 -251.77391481228233 441.65938732166893 0 0 0 0 -72.527262882648188 52.730331614090602 0 52.730331614090602 491.23578938111132 0 0 0 0 -34.676619692592794 26.448853224193044 0 26.448853224193044 -10.906202151382786 0 0 0 0 125.16073060383042 -21.233295310584253 0 -21.233295310584253 -27.153575161966728 0 0 0 0 -2.1322457838117037 0.40076768550285458 0 0.40076768550285458 0.23142083112622203 0 0 0 0 -64.88793106342564 46.823061031254838 0 46.823061031254838 31.777599018758337 0 0 0 0 107.29441218848751 -74.206551404423408 0 -74.206551404423408 93.471759078580362 0 0 0 0 135.29003464235211 -36.998560012601956 0 -36.998560012601956 -39.881685283084153 0 0 0 0 123.15503057609976 -103.96046658342357 0 -103.96046658342357 68.08089234705767 0 0 0 0 113.40976946554838 -43.131502568881842 0 -43.131502568881842 -16.294848799141619 0 0 0 0 -2.5731497169394473 14.899916681950307 0 14.899916681950307 -10.920511320996626 0 0 0 0 4.1774421338048597 12.813532075342241 0 12.813532075342241 9.0532665414608466 0 0 0 0 20.619840812235452 53.964251482747386 0 53.964251482747386 0.33203459389915224 0 0 0 0 -8.854657513699749 42.789840849215125 0 42.789840849215125 131.660978492906 0 0 0 0 -94.563619900984122 124.46371306006267 0 124.46371306006267 313.58327892089255 0 0 0 0 -100.49189594738709 -2.3274429674065686 0 -2.3274429674065686 505.98607432679455 0 0 0 0 -107.97993994880744 58.896859666346245 0 58.896859666346245 144.96267517887873 0 0 0 0 51.713525337911051 -227.18152015027499 0 -227.18152015027499 773.29822955905547 0 0 0 0 1.0759597187864109 3.2342833912052633 0 3.2342833912052633 7.1467175755019134 0 0 0 0 54.074246799702451 -163.46452401761326 0 -163.46452401761326 192.93047246968581 0 0 0 0 60.471739543168951 -104.58027476939878 0 -104.58027476939878 86.98410345261982 0 0 0 0 -78.344126965537725 -9.0158966375147429 0 -9.0158966375147429 71.52745763389612 0 0 0 0 396.75231292805165 337.00994951060056 0 337.00994951060056 348.24076412715067 0 0 0 0 84.791173545330821 -21.915722707482928 0 -21.915722707482928 123.23578529033784 0 0 0 0 259.62566075420546 7.9876200233888994 0 7.9876200233888994 -3.1778321680565114 0 0 0 0 -179.44409617517567 281.44007034093465 0 281.44007034093465 690.42193257335725 0 0 0 0 141.08135052515672 -71.587230972775842 0 -71.587230972775842 -188.98182569432538 0 0 0 0 -6.7415780597921184 238.37866243712961 0 238.37866243712961 -190.44691419435031 0 0 0 0 192.69307461888366 -61.172501346289209 0 -61.172501346289209 -102.26353282310083 0 0 0 0 80.593838466345915 47.854065843768694 0 47.854065843768694 -111.28658630563064 0 0 0 0 -51.095687058070553 34.294791938847993 0 34.294791938847993 11.478234890229942 0 0 0 0 40.989153117619935 -7.1976997059591667 0 -7.1976997059591667 -82.926413198296359 0 0 0 0 27.149867333327919 20.58438067636698 0 20.58438067636698 15.219223796041252 0 0 0 0 831.29901860224982 -383.33249904778017 0 -383.33249904778017 -164.92577181953584 0 0 0 0 810.35838313155227 -497.17052405852212 0 -497.17052405852212 -89.970857304280344 0 0 0 0 891.67526577332774 -541.99004749415758 0 -541.99004749415758 -72.625075062221185 0 0 0 0 -135.65234229866951 -790.90113965176829 0 -790.90113965176829 -101.86208341578855 0 0 0 0 96.531220400815073 101.80680765191705 0 101.80680765191705 915.12131517008493 0 0 0 0 1041.2996143777227 -440.74364451721038 0 -440.74364451721038 -166.16791717125329 0 0 0 0 64.652354322002338 41.971654189947458 0 41.971654189947458 -64.081817985812449 0 0 0 0 5.7243892295990628 4.7552230419262518 0 4.7552230419262518 -14.740191204213257 0 0 0 0 29.072145998235015 31.736603569248032 0 31.736603569248032 23.955332272008366 0 0 0 0 89.2276326143392 72.454422653938309 0 72.454422653938309 -106.03927843122369 0 0 0 0 263.07431389948579 443.34068900282261 0 443.34068900282261 10.811380898926643 0 0 0 0 3.0513411772220564 1.3728729146386147 0 1.3728729146386147 -3.3274458816669394 0 0 0 0 238.05570735691072 59.194193753488435 0 59.194193753488435 9.2858704220489017 0 0 0 0 60.188640532056525 52.926358837130465 0 52.926358837130465 75.285200383779738 0 0 0 0 170.88178053815864 -65.706406127377704 0 -65.706406127377704 -18.838238606744198 0 0 0 0 221.54982333483349 -99.936442927668395 0 -99.936442927668395 37.190511912034708 0 0 0 0 6.6252070514165098 24.601793549760714 0 24.601793549760714 -11.526548770566478 0 0 0 0 10.04699955183969 11.456449294114464 0 11.456449294114464 -16.919204386360434 0 0 0 0 20.313544116518642 15.828595102208055 0 15.828595102208055 -17.523400495645546 0 0 0 0 15.619979860736294 1.3232627425504688 0 1.3232627425504688 18.229045630288056 0 0 0 0 -52.253187856258592 14.911950604668164 0 14.911950604668164 39.518064559599225 0 0 0 0 36.441940812223038 8.6667390956740746 0 8.6667390956740746 0.30225187313408242 0 0 0 0 25.042464015813493 17.650180600179738 0 17.650180600179738 17.074545565857079 0 0 0 0 -7.5983307525531067 4.9430890545309971 0 4.9430890545309971 9.4283822465577636 0 0 0 0 758.27710672654757 -277.20824542890784 0 -277.20824542890784 -64.915214256132089 0 0 0 0 8.7590748149855813 -76.875182762490809 0 -76.875182762490809 170.83734358676145 0 0 0 0 6.8413336696902896 27.596983994825003 0 27.596983994825003 30.086808901704945 0 0 0 0 661.23701546666234 -5.7688753465789659 0 -5.7688753465789659 -107.39507065339365 0 0 0 0 -15.129492444915741 -17.057668111032399 0 -17.057668111032399 57.031138463888055 0 0 0 0 -9.7823189561802337 32.0208330285584 0 32.0208330285584 265.63511792314966 0 0 0 0 -0.57575341258068491 0.96698351796638349 0 0.96698351796638349 3.0499859245893006 0 0 0 0 1311.1304744065646 786.67205054409646 0 786.67205054409646 361.85770888556317 0 0 0 0 8.8560967646674289 -5.2252240711204552 0 -5.2252240711204552 2.8811671459666846 0 0 0 0 1593.2640566066557 62.434132958503739 0 62.434132958503739 -209.2993113129229 0 0 0 0 835.73573783910615 -599.81718293297729 0 -599.81718293297729 271.74973644788935 0 0 0 0 632.8677480701499 86.502305058217644 0 86.502305058217644 -59.399687440898219 0 0 0 0 901.21164082158248 133.81890626484574 0 133.81890626484574 -165.4615031477565 0 0 0 0 602.34072269503304 255.70216146268081 0 255.70216146268081 -33.674656713428249 0 0 0 0 681.50666438789813 143.30650498195746 0 143.30650498195746 -165.40124637057758 0 0 0 0 679.72867284258291 141.26170666991123 0 141.26170666991123 -88.958760668953801 0 0 0 0 306.03525482014811 176.3524742511936 0 176.3524742511936 -6.9481257382421973 0 0 0 0 274.76743646568139 142.63606401135667 0 142.63606401135667 -21.655644061720523 0 0 0 0 688.90455144331645 437.64388827926041 0 437.64388827926041 98.444318916302564 0 0 0 0 819.10850736406064 253.57202088743634 0 253.57202088743634 -222.98679053486558 0 0 0 0 847.88109889629413 203.3978515723054 0 203.3978515723054 -181.33641986157204 0 0 0 0 72.862263713160246 119.85953695539229 0 119.85953695539229 8.2530292828996608 0 0 0 0 123.69148591891644 193.57296142516589 0 193.57296142516589 114.12968704305058 0 0 0 0 53.234046420397135 123.38701812960608 0 123.38701812960608 102.80376474349396 0 0 0 0 47.913946493689764 102.24144336115114 0 102.24144336115114 41.356716583602974 0 0 0 0 7.5784860097356681 28.730370673783163 0 28.730370673783163 45.571617230904224 0 0 0 0 311.9038052821943 -58.279138481415657 0 -58.279138481415657 -88.541343796037211 0 0 0 0 95.184264769161928 62.573587497192079 0 62.573587497192079 87.532499559113148 0 0 0 0 191.50525880512708 40.249667590927395 0 40.249667590927395 35.02116215619435 0 0 0 0 265.363587085174 167.55988885042598 0 167.55988885042598 22.263420919730834 0 0 0 0 279.7384364984232 165.62917021007468 0 165.62917021007468 17.177030235725397 0 0 0 0 43.496933909178551 15.199599511732345 0 15.199599511732345 -59.297896276017923 0 0 0 0 63.272144579752421 90.145654617766013 0 90.145654617766013 15.406250758001988 0 0 0 0 59.745522463266319 0.53550107005660763 0 0.53550107005660763 -31.407460026859098 0 0 0 0 36.676583635819668 -36.074088203148456 0 -36.074088203148456 -54.563787406931169 0 0 0 0 124.85949733577581 -22.953804261601363 0 -22.953804261601363 -141.21778587905737 0 0 0 0 20.15890918119397 -9.2999043229457747 0 -9.2999043229457747 3.6338494325044759 0 0 0 0 219.72172836580103 78.993685395856119 0 78.993685395856119 -116.78315009938342 0 0 0 0 21.445741614423014 -102.38220395004701 0 -102.38220395004701 -91.92173825522741 0 0 0 0 247.73327073491373 -96.445983148758387 0 -96.445983148758387 108.52385322759619 0 0 0 0 65.285355076751756 -11.324281103444021 0 -11.324281103444021 -27.89087156122169 0 0 0 0 15.909134823750719 2.2958947661084039 0 2.2958947661084039 -67.011150322210682 0 0 0 0 -14.374594151870042 -111.17359404389526 0 -111.17359404389526 -54.495494257762402 0 0 0 0 88.343753528754405 79.703986462979458 0 79.703986462979458 9.3333135928205593 0 0 0 0 169.68730326096738 142.67849801897 0 142.67849801897 -22.509458531958444 0 0 0 0 150.20105606655318 27.850977560722555 0 27.850977560722555 -34.537893518612691 0 0 0 0 164.94571646545592 124.09543226608093 0 124.09543226608093 18.687579440641912 0 0 0 0 265.61039881546731 95.065078871853757 0 95.065078871853757 1.6251973743478629 0 0 0 0 160.15905557051155 99.399095982962422 0 99.399095982962422 100.77691767626993 0 0 0 0 145.19662749937925 143.50743119509855 0 143.50743119509855 76.883340087045781 0 0 0 0 174.79902570923332 98.089916680895385 0 98.089916680895385 38.823132978401645 0 0 0 0 13.227940697596686 -5.3149875275644209 0 -5.3149875275644209 1.6170975841726269 0 0 0 0 -28.970067376956649 -82.296878242526645 0 -82.296878242526645 -111.27794443175094 0 0 0 0 -64.18943126643353 -76.269259896595315 0 -76.269259896595315 -61.760122150283678 0 0 0 0 -41.226624074910433 -47.34584997829711 0 -47.34584997829711 -44.73880192363913 0 0 0 0 -74.033082836611356 -72.539497292980741 0 -72.539497292980741 -16.225917927750288 0 0 0 0 366.53102713900444 321.99399742286147 0 321.99399742286147 234.85512310497575 0 0 0 0 4.9308874366403188 -1.4049792333358102 0 -1.4049792333358102 0.31148073856506997 0 0 0 0 -33.928894977985237 -70.748071870203887 0 -70.748071870203887 29.402078125697926 0 0 0 0 95.940252244222393 -196.53885345224467 0 -196.53885345224467 17.632966610058475 0 0 0 0 79.722122411211458 -23.450113952207616 0 -23.450113952207616 -16.889351959023042 0 0 0 0 237.39609790256509 -215.03333281177754 0 -215.03333281177754 -109.39056956331621 0 0 0 0 698.62338291420019 372.82062473214319 0 372.82062473214319 -244.42192965822323 0 0 0 0 -177.20593265065054 -335.86032160984132 0 -335.86032160984132 356.34222618167041 0 0 0 0 5.9875535196861165 -75.60450499003116 0 -75.60450499003116 -143.50044314143906 0 0 0 0 77.534626136224688 277.92632359161325 0 277.92632359161325 265.81052418165928 0 0 0 0 161.45267272928686 -12.217795434310574 0 -12.217795434310574 -249.07815128144702 0 0 0 0 54.295623077290657 198.75887714082182 0 198.75887714082182 39.355059773056382 0 0 0 0 148.98813805896862 103.89295541265346 0 103.89295541265346 59.231228899829148 0 0 0 0 89.215798790210101 180.08640033714801 0 180.08640033714801 14.334525930925338 0 0 0 0 306.6121787659431 32.129872453056123 0 32.129872453056123 -1.1969016457997554 0 0 0 0 181.82386474145642 219.54239273176972 0 219.54239273176972 59.094607843017002 0 0 0 0 79.014198215551005 151.77321014797963 0 151.77321014797963 29.552342490086176 0 0 0 0 74.702833462519749 -18.756671746767253 0 -18.756671746767253 -21.201913698352701 0 0 0 0 210.51142011395586 -53.539740870057358 0 -53.539740870057358 -27.656794957666079 0 0 0 0 126.38368689149138 -60.831652469067649 0 -60.831652469067649 -17.414411465319972 0 0 0 0 2.7660225430343024 4.3189750536115641 0 4.3189750536115641 -0.79227333438901226 0 0 0 0 140.56043414694796 -9.5968741934107129 0 -9.5968741934107129 -44.29744785128787 0 0 0 0 426.3904591192204 -240.96322378540026 0 -240.96322378540026 -240.70084358991608 0 0 0 0 215.84260983037547 -23.478625321252053 0 -23.478625321252053 -220.02818568359453 0 0 0 0 116.2108560740362 12.767638385448208 0 12.767638385448208 -85.666640155204277 0 0 0 0 -73.166358853838119 -25.095147694552224 0 -25.095147694552224 31.060521750345288 0 0 0 0 1.0786118615668334 10.570876862138938 0 10.570876862138938 8.6668422162921654 0 0 0 0 114.50757103077194 -115.36048469777688 0 -115.36048469777688 -30.575142758559764 0 0 0 0 403.94921141083614 21.140451653046625 0 21.140451653046625 -61.142236876787365 0 0 0 0 -197.23542201504097 10.254643797999563 0 10.254643797999563 311.18440353242204 0 0 0 0 76.079207602248061 30.461888746849581 0 30.461888746849581 -94.14883690878689 0 0 0 0 553.5803551408826 51.603050746235283 0 51.603050746235283 -95.452633392561665 0 0 0 0 308.4146555995726 -52.416328447063961 0 -52.416328447063961 -356.66467144609942 0 0 0 0 455.48163254863925 217.05564684084447 0 217.05564684084447 221.44662884240279 0 0 0 0 -0.080296008628651272 -0.029521149092470722 0 -0.029521149092470722 -1.909542898559689 0 0 0 0 809.07486744346045 547.2474511699404 0 547.2474511699404 -428.2346216525566 0 0 0 0 346.60899472978372 -390.46432577954056 0 -390.46432577954056 938.18332977916725 0 0 0 0 172.10506088144757 174.15548488682271 0 174.15548488682271 483.54561979129721 0 0 0 0 1.6269445322144342 -1.7664013206947793 0 -1.7664013206947793 3.5702035340896892 0 0 0 0 0.75203149775732947 12.162783937519977 0 12.162783937519977 19.387048297334857 0 0 0 0 519.89892983381105 -377.73439397221819 0 -377.73439397221819 -115.30675773749317 0 0 0 0 -44.672128498861639 -85.111359602031371 0 -85.111359602031371 269.64642268045304 0 0 0 0 115.07830637957863 -110.65339674717336 0 -110.65339674717336 49.548017383869592 0 0 0 0 233.5677419044232 -371.36659817622149 0 -371.36659817622149 285.14256522995493 0 0 0 0 96.064916137931505 -181.86686381606251 0 -181.86686381606251 50.858494924868864 0 0 0 0 554.55734857730181 288.51571126460186 0 288.51571126460186 113.76235606359296 0 0 0 0 9.0416320263623398 -8.8332789947875376 0 -8.8332789947875376 6.1606271626194484 0 0 0 0 522.02414242296527 120.80308979632809 0 120.80308979632809 356.44050370617151 0 0 0 0 17.961139403540074 -59.098266909080849 0 -59.098266909080849 -22.037180049544986 0 0 0 0 15.843583897725694 -46.442806965027557 0 -46.442806965027557 -12.359156309277751 0 0 0 0 30.713199966965476 -55.741965880235512 0 -55.741965880235512 -35.780413129832596 0 0 0 0 32.247521340350261 -32.230935903554666 0 -32.230935903554666 -1.4140034526499221 0 0 0 0 54.125417151402871 -28.347428017703351 0 -28.347428017703351 -50.907044235734247 0 0 0 0 26.808013851585656 19.782303175663856 0 19.782303175663856 -4.3874019966242486 0 0 0 0 68.506323624414108 0.63091981620527804 0 0.63091981620527804 -12.666529493431881 0 0 0 0 32.246172252645351 11.149474206329558 0 11.149474206329558 -25.432252633744611 0 0 0 0 30.345488527320413 -1.8287207145549473 0 -1.8287207145549473 -21.557348435321501 0 0 0 0 18.029586576534832 3.3955625077166793 0 3.3955625077166793 -9.5325459815680684 0 0 0 0 86.902729485741474 -23.159885269427605 0 -23.159885269427605 11.821609339999668 0 0 0 0 21.542132326545016 -4.6632088220076184 0 -4.6632088220076184 4.7288691210396792 0 0 0 0 42.133662244405514 -18.143684376878355 0 -18.143684376878355 84.109679628763843 0 0 0 0 6.2995083598431183 1.4952295783030776 0 1.4952295783030776 -1.671275084689249 0 0 0 0 1.2824865731625108 3.9717624240750897 0 3.9717624240750897 -9.2576192609636792 0 0 0 0 334.75741270066351 169.6048419222883 0 169.6048419222883 35.494611425093353 0 0 0 0 369.98172944871089 157.12619240491898 0 157.12619240491898 16.940360773138309 0 0 0 0 49.840686598255616 10.919306428088817 0 10.919306428088817 -10.512406825985181 0 0 0 0 55.317737924849553 -3.0842481542523501 0 -3.0842481542523501 -6.1366924432284691 0 0 0 0 39.430648683818163 5.9997560934791636 0 5.9997560934791636 -10.216099619351553 0 0 0 0 0.39571227095336781 25.656869325161665 0 25.656869325161665 -14.118255151071935 0 0 0 0 3.2204390722909011 13.638049888856585 0 13.638049888856585 -15.773621922533493 0 0 0 0 20.305137336168627 8.8414285487688176 0 8.8414285487688176 -14.659911287596515 0 0 0 0 9.5356751806482407 28.371962907184525 0 28.371962907184525 -15.994823881951561 0 0 0 0 27.876289922220622 22.455717975672314 0 22.455717975672314 -16.194112149211833 0 0 0 0 41.100402153540927 6.9637441982217752 0 6.9637441982217752 -18.369978374390485 0 0 0 0 346.39649091831842 351.02982022778951 0 351.02982022778951 259.59729175501343 0 0 0 0 445.64083814519131 76.964861441924768 0 76.964861441924768 -31.903496706474471 0 0 0 0 453.62816522011281 211.9639816103263 0 211.9639816103263 258.8810086529711 0 0 0 0 0.81536712858865057 0.45493497237386471 0 0.45493497237386471 -0.29603819862953884 0 0 0 0 11.59926903966797 5.0004089347037706 0 5.0004089347037706 -18.15049432327104 0 0 0 0 804.43722243121942 248.69148624342779 0 248.69148624342779 130.40940748799767 0 0 0 0 536.91288283985682 286.6099266673541 0 286.6099266673541 43.590638953062808 0 0 0 0 489.66464051184721 307.90750270987337 0 307.90750270987337 122.42254227636295 0 0 0 0 481.7815140139092 99.221865023779969 0 99.221865023779969 -154.40390980405755 0 0 0 0 5.6217128122329765 0.27509782777197778 0 0.27509782777197778 -7.020502155853606 0 0 0 0 330.84579963297244 -50.80624836574372 0 -50.80624836574372 -63.131504541161121 0 0 0 0 174.76504317502224 20.868708306694543 0 20.868708306694543 50.468157254137623 0 0 0 0 364.38709602937917 115.64162006322476 0 115.64162006322476 -10.495447185689045 0 0 0 0 331.80121281291838 98.164654754493768 0 98.164654754493768 -7.1704375376393727 0 0 0 0 278.09453646416409 101.10846929979971 0 101.10846929979971 32.090348934777921 0 0 0 0 95.126321510368712 -35.532915877021878 0 -35.532915877021878 -28.446723932971054 0 0 0 0 32.709287499137631 -17.637166929993999 0 -17.637166929993999 2.1796890416877073 0 0 0 0 16.196593246309639 12.507060321015393 0 12.507060321015393 19.524476139118455 0 0 0 0 22.920533362629158 29.808920929297301 0 29.808920929297301 100.27983439052969 0 0 0 0 78.876727421932998 -25.280676936745369 0 -25.280676936745369 -15.265176284654885 0 0 0 0 90.613375118644399 62.06792770871661 0 62.06792770871661 -61.711671276470042 0 0 0 0 89.275639778345067 -54.908450787698257 0 -54.908450787698257 -29.684771349192488 0 0 0 0 234.13899658400987 -86.541485575828119 0 -86.541485575828119 -30.917533602168987 0 0 0 0 11.885089390451945 -17.567966445508656 0 -17.567966445508656 -12.417906013133583 0 0 0 0 84.333927031433632 -24.50212152111618 0 -24.50212152111618 4.4068492123542455 0 0 0 0 3.0563700086640893 -37.198868441859759 0 -37.198868441859759 -0.060568416736032304 0 0 0 0 40.537699143068494 -15.715071922721108 0 -15.715071922721108 -3.5038272111803508 0 0 0 0 64.08262080683869 -17.53417102367726 0 -17.53417102367726 -10.770999887238304 0 0 0 0 234.52147140788793 137.78246415008482 0 137.78246415008482 37.719314506898172 0 0 0 0 9.0074957629708408 -7.0458309957075009 0 -7.0458309957075009 -0.012457657410282069 0 0 0 0 279.47705390064925 117.90486993898185 0 117.90486993898185 34.093416403719402 0 0 0 0 12.115945436691355 -10.095181926439182 0 -10.095181926439182 -13.876742249447821 0 0 0 0 40.544544308707373 -19.579998727255543 0 -19.579998727255543 -18.042632774193407 0 0 0 0 24.361580860030926 -17.504358935858971 0 -17.504358935858971 -50.555151773005235 0 0 0 0 -3.8527724573123123 12.065028794076909 0 12.065028794076909 -9.950475468913055 0 0 0 0 241.00119182261938 98.535210539029094 0 98.535210539029094 118.49815687722992 0 0 0 0 913.34140873129172 243.06796273277615 0 243.06796273277615 -73.159072469358478 0 0 0 0 8.3471628049519495 -89.946016974776001 0 -89.946016974776001 -4.7765940978155186 0 0 0 0 4.41812299163532 -1.515852759037001 0 -1.515852759037001 0.1845474748684921 0 0 0 0 276.49194255273392 123.00908028274239 0 123.00908028274239 42.721645143070418 0 0 0 0 281.58702051654416 149.04958115914843 0 149.04958115914843 63.528605136834813 0 0 0 0 128.04069256329603 20.768910309873263 0 20.768910309873263 -18.200509083440011 0 0 0 0 -6.1505103689901262 48.911387215341847 0 48.911387215341847 -35.826953929291449 0 0 0 0 9.1207045907320179 13.827352651307734 0 13.827352651307734 8.4232060531278918 0 0 0 0 24.761966437301453 31.738280247812895 0 31.738280247812895 -49.924621818372998 0 0 0 0 25.319669600909037 11.085852685506666 0 11.085852685506666 -41.702883750114779 0 0 0 0 -8.0526889878983638 4.6415584111678072 0 4.6415584111678072 14.892703594033037 0 0 0 0 3.2917529301776653 3.7047687910641578 0 3.7047687910641578 5.6926197433269081 0 0 0 0 454.3322460856798 -12.894184260682323 0 -12.894184260682323 -51.049476464566396 0 0 0 0 -7.7052626771837822 136.38877495755969 0 136.38877495755969 229.96056810779555 0 0 0 0 -27.542252370410097 101.71125825477463 0 101.71125825477463 183.02519040314473 0 0 0 0 271.05621023833919 158.99372937345447 0 158.99372937345447 7.8218432832754843 0 0 0 0 98.22882884909086 118.5513384780229 0 118.5513384780229 17.332878943571814 0 0 0 0 247.90826005766212 9.6848969500288149 0 9.6848969500288149 -43.623054707105439 0 0 0 0 271.46846619675762 51.903574135777376 0 51.903574135777376 -69.814773377938764 0 0 0 0 314.64316335038984 53.805508036557057 0 53.805508036557057 -70.27539512297426 0 0 0 0 271.81588335422657 110.83563294777991 0 110.83563294777991 5.6132160131564888 0 0 0 0 248.9217578347052 29.520755045437454 0 29.520755045437454 -56.586640005174559 0 0 0 0 736.3769956196229 192.3741740504106 0 192.3741740504106 -9.5041497505003463 0 0 0 0 472.31402247976075 7.8488719036504335 0 7.8488719036504335 -103.26462603899563 0 0 0 0 549.11228630601909 405.93911980616849 0 405.93911980616849 223.89786399155651 0 0 0 0 147.08956986189514 85.196966637843161 0 85.196966637843161 28.921049924680119 0 0 0 0 320.52560859286314 252.00754911993795 0 252.00754911993795 181.32922471134407 0 0 0 0 150.3133215454809 78.011613441057534 0 78.011613441057534 27.58840724995116 0 0 0 0 1.2741672391646119 5.2605463260146159 0 5.2605463260146159 -7.6207107618109795 0 0 0 0 123.19395857491145 61.578601309462556 0 61.578601309462556 -537.70739457693162 0 0 0 0 50.006398104018444 74.06956505303765 0 74.06956505303765 39.61098537165617 0 0 0 0 -4.8618141776935104 14.871384056360442 0 14.871384056360442 -7.2126884528774475 0 0 0 0 0.81125189557769772 16.921794344996101 0 16.921794344996101 -65.61120309803664 0 0 0 0 46.407542145354455 32.277454095421945 0 32.277454095421945 -1.4979902746235894 0 0 0 0 -29.177794994797296 178.37184547936431 0 178.37184547936431 63.025029262062162 0 0 0 0 55.036575672645995 285.02238720785772 0 285.02238720785772 181.41727454640932 0 0 0 0 -122.91786478543872 254.39373626118413 0 254.39373626118413 228.14100501759094 0 0 0 0 -140.30931091888215 373.37021397351344 0 373.37021397351344 309.88571002823937 0 0 0 0 -306.46734517535879 333.96707582322324 0 333.96707582322324 436.40424766175329 0 0 0 0 -290.26247178724589 84.73144146178447 0 84.73144146178447 321.0197879274167 0 0 0 0 -247.03634561765193 52.143065438436224 0 52.143065438436224 35.915905823684625 0 0 0 0 1148.4101063927224 407.79893622636621 0 407.79893622636621 147.59584318186899 0 0 0 0 200.43814997984737 -104.77188621900564 0 -104.77188621900564 609.54419774396683 0 0 0 0 -137.5026987447286 415.14574481430992 0 415.14574481430992 888.31337817445001 0 0 0 0 480.15366971073308 751.98419436419499 0 751.98419436419499 122.66032285315123 0 0 0 0 2.5718135291254427 1.1120454791111394 0 1.1120454791111394 -2.6931925173117026 0 0 0 0 585.0664455812439 -1070.0951675003112 0 -1070.0951675003112 -174.10991897388885 0 0 0 0 104.52122920279362 -690.62064369161908 0 -690.62064369161908 690.92189739045261 0 0 0 0 684.12868790210268 -961.17160513843464 0 -961.17160513843464 -788.66630667028221 0 0 0 0 417.63977821203048 -104.33080786055302 0 -104.33080786055302 3.5957414696749765 0 0 0 0 4.6448702416990031 -0.34558692350826448 0 -0.34558692350826448 -1.7477923276127427 0 0 0 0 431.49274771025193 -252.41293450913099 0 -252.41293450913099 210.73746559460415 0 0 0 0 337.24871576896476 70.597081636243274 0 70.597081636243274 -158.10727450463219 0 0 0 0 105.3828452449161 68.437634840690407 0 68.437634840690407 4.0572230179514008 0 0 0 0 85.068992619133496 -25.778661002104855 0 -25.778661002104855 -112.44455460354675 0 0 0 0 30.885901117306432 -1.3485168011370554 0 -1.3485168011370554 -2.906652462225694 0 0 0 0 104.32171530782216 -144.70180651222654 0 -144.70180651222654 -508.58003974946223 0 0 0 0 225.92479570985597 -301.03502543211289 0 -301.03502543211289 -394.35752169810348 0 0 0 0 23.007467583436664 -325.73671774728064 0 -325.73671774728064 6.6664431403014532 0 0 0 0 238.541984603522 87.449247100506 0 87.449247100506 152.62368926192744 0 0 0 0 362.95835085514227 -266.07753985524494 0 -266.07753985524494 -138.97510535511356 0 0 0 0 -116.10390207821911 -253.25103473880245 0 -253.25103473880245 -85.827306586708801 0 0 0 0 725.14769219813752 827.79504099623455 0 827.79504099623455 109.28493430562645 0 0 0 0 11.529236586054267 3.0280521034696317 0 3.0280521034696317 0.56831119604188984 0 0 0 0 1063.0395866785257 822.8964680807901 0 822.8964680807901 -65.315492811781496 0 0 0 0 530.48543327980587 887.45719496044626 0 887.45719496044626 300.81981269970936 0 0 0 0 13.114128923838479 6.4757442164939718 0 6.4757442164939718 3.5406710857501333 0 0 0 0 1326.219052956556 966.73926188733321 0 966.73926188733321 6.0851791985141972 0 0 0 0 1574.171134187578 -520.61012108733757 0 -520.61012108733757 383.76904609010717 0 0 0 0 124.89364239494171 534.89435984092393 0 534.89435984092393 1269.0784512286261 0 0 0 0 91.799381950792849 267.89997954038421 0 267.89997954038421 52.431852756360513 0 0 0 0 534.57686948729315 318.84529809898123 0 318.84529809898123 119.12884571540314 0 0 0 0 575.51456001167389 569.48329869711756 0 569.48329869711756 497.87823771294154 0 0 0 0 1935.6566019881539 557.2907567432585 0 557.2907567432585 34.271127889359263 0 0 0 0 1120.9187527632948 -550.12368552629846 0 -550.12368552629846 425.0107609368257 0 0 0 0 552.25989447363099 -258.52020243353684 0 -258.52020243353684 181.30818779178298 0 0 0 0 89.158174648800923 -171.64964890118927 0 -171.64964890118927 295.56776978088072 0 0 0 0 180.41120667580981 -75.37429355181655 0 -75.37429355181655 122.17914030030386 0 0 0 0 37.445004051504569 14.378245177439716 0 14.378245177439716 5.5724398594611682 0 0 0 0 83.337489796202817 -241.87928751225093 0 -241.87928751225093 66.419813688726663 0 0 0 0 131.61961314217115 52.14505701809037 0 52.14505701809037 -450.82339174811221 0 0 0 0 -110.17411739497584 304.70021691198468 0 304.70021691198468 105.72521368868593 0 0 0 0 -4.3684253235873634 -1.3264737093687664 0 -1.3264737093687664 2.1018495874075782 0 0 0 0 -455.78410037537469 582.90666606507898 0 582.90666606507898 -460.08498364367205 0 0 0 0 110.21591879094922 -97.113193600909426 0 -97.113193600909426 -322.00404658002981 0 0 0 0 -133.14582798879201 114.5818753730573 0 114.5818753730573 100.1028533941635 0 0 0 0 108.75012231402945 -18.216517026586047 0 -18.216517026586047 -48.048312332238766 0 0 0 0 -44.568022545754047 -31.506938794283542 0 -31.506938794283542 71.689345731359708 0 0 0 0 -0.27725080643405065 -7.6077259945798783 0 -7.6077259945798783 -2.0030408892896188 0 0 0 0 57.891343252395018 -0.29387532724598486 0 -0.29387532724598486 -27.247306259459378 0 0 0 0 229.73404381492264 -121.97380911872327 0 -121.97380911872327 -10.970516681602135 0 0 0 0 29.222335937581597 -12.361561062906951 0 -12.361561062906951 -4.5223563786663172 0 0 0 0 8.5856339932023147 -10.865439991017922 0 -10.865439991017922 -16.211866867792061 0 0 0 0 14.863049838712413 -12.616977309852075 0 -12.616977309852075 12.803465464021144 0 0 0 0 24.21456491469894 -16.180762993672204 0 -16.180762993672204 -25.269839859856802 0 0 0 0 11.427985670655177 -26.823071642768291 0 -26.823071642768291 -4.9766414904584373 0 0 0 0 40.813337897363454 -25.883545492680469 0 -25.883545492680469 -4.4000060387123199 0 0 0 0 56.780700165914823 -16.734265139993141 0 -16.734265139993141 -14.754800266211788 0 0 0 0 26.524157518755601 -21.052193686279267 0 -21.052193686279267 -24.137785275572469 0 0 0 0 33.210394168349012 -13.646585806111347 0 -13.646585806111347 -17.290611926477283 0 0 0 0 32.120968592331337 -5.3122321126752468 0 -5.3122321126752468 -10.429933453017611 0 0 0 0 28.888186384401259 -10.487853544887855 0 -10.487853544887855 -6.2309958508325805 0 0 0 0 39.320738231641144 -29.974533700488337 0 -29.974533700488337 -14.199938294696949 0 0 0 0 15.034842517670768 -14.950584119816313 0 -14.950584119816313 -14.054784544965514 0 0 0 0 63.784388184476484 -18.77917699893851 0 -18.77917699893851 -21.165590757626433 0 0 0 0 -1.8297314839003995 -18.494712923472271 0 -18.494712923472271 -9.7648862623050192 0 0 0 0 10.391225587129057 -22.433869146211553 0 -22.433869146211553 -10.868852259054874 0 0 0 0 -119.91204394302622 -121.28608336795787 0 -121.28608336795787 -166.9826723724218 0 0 0 0 22.000339467434969 -25.682127327137394 0 -25.682127327137394 -16.5706058658389 0 0 0 0 21.937948179398941 -17.48194785543517 0 -17.48194785543517 -8.5389270052846751 0 0 0 0 24.795368123501248 -13.533026839286322 0 -13.533026839286322 -6.7450965071533915 0 0 0 0 32.072982747530673 -13.908989756038061 0 -13.908989756038061 -17.151691455705762 0 0 0 0 11.808713419857668 -15.370066840364927 0 -15.370066840364927 -20.978505367995695 0 0 0 0 -140.44894124603888 -202.63343257025099 0 -202.63343257025099 -151.05723828897067 0 0 0 0 13.284391867544169 -0.29619041895630005 0 -0.29619041895630005 -2.2557637666704036 0 0 0 0 -644.09516783398431 -236.04348318749953 0 -236.04348318749953 137.47806786272304 0 0 0 0 5.6180042275245796 -92.14930250635237 0 -92.14930250635237 -119.95392280071974 0 0 0 0 18.821535633953655 -20.452284147564054 0 -20.452284147564054 -11.976878390840053 0 0 0 0 -148.68431978032459 -534.05918573469216 0 -534.05918573469216 157.14735690061934 0 0 0 0 -245.20148961956147 250.7915488016688 0 250.7915488016688 322.73247423351279 0 0 0 0 -8.3410236109593825 19.290381364621112 0 19.290381364621112 49.295354575204783 0 0 0 0 -348.19514880662973 -54.667987532207633 0 -54.667987532207633 42.8170364714274 0 0 0 0 0.65114299328482161 2.8097683866972574 0 2.8097683866972574 -2.2059343280247572 0 0 0 0 -85.356192580802599 126.02703658791685 0 126.02703658791685 -43.09621485919854 0 0 0 0 30.664564464010255 -24.213070079700145 0 -24.213070079700145 -8.6124025531631787 0 0 0 0 -63.74934331284021 -36.708872569427854 0 -36.708872569427854 44.503627930114476 0 0 0 0 24.395648756371099 -19.970205786374986 0 -19.970205786374986 -2.6024694582533607 0 0 0 0 349.47353403152374 282.4571238976032 0 282.4571238976032 211.2639520164621 0 0 0 0 -6.2651817807755634 0.68305012894866479 0 0.68305012894866479 -1.69160837947014 0 0 0 0 36.983864721256396 -18.431588154037115 0 -18.431588154037115 -12.164027322513448 0 0 0 0 22.294691839451843 -23.906272463727902 0 -23.906272463727902 -7.7884522586421099 0 0 0 0 37.733029975192039 -20.116004353951126 0 -20.116004353951126 -11.703728621219256 0 0 0 0 37.815989516107948 -21.087740448083963 0 -21.087740448083963 -5.6346638051543891 0 0 0 0 47.24761777402091 -21.395431035902845 0 -21.395431035902845 -10.059403627160236 0 0 0 0 37.416753201406209 -20.298761600317405 0 -20.298761600317405 -4.2734323100867755 0 0 0 0 43.833947327140777 -26.024150961266002 0 -26.024150961266002 -21.950855361602066 0 0 0 0 83.06698819174926 -6.3794909943266589 0 -6.3794909943266589 -13.589976470357215 0 0 0 0 53.573591422202298 -44.441925443132163 0 -44.441925443132163 -0.48836862292439776 0 0 0 0 29.04598334292632 -23.631677530864863 0 -23.631677530864863 -7.8505507928794032 0 0 0 0 14.318825205411702 -23.487388796560239 0 -23.487388796560239 -11.318936437787467 0 0 0 0 77.283612215018877 -40.637536577966635 0 -40.637536577966635 -37.695734358520895 0 0 0 0 44.842916369381783 -34.363372817425912 0 -34.363372817425912 -3.5608320483484022 0 0 0 0 -7.4089588520777809 -5.4853001896181581 0 -5.4853001896181581 1.9712528061242245 0 0 0 0 120.44392844380297 -53.52445125848817 0 -53.52445125848817 -27.0795895773947 0 0 0 0 159.230642009642 14.554979125382488 0 14.554979125382488 -37.007242716359997 0 0 0 0 20.021523714167699 -3.3778882510572519 0 -3.3778882510572519 -2.6768415350515076 0 0 0 0 -29.544497629103716 -53.972812617622367 0 -53.972812617622367 -17.150052159987808 0 0 0 0 437.93741706627043 114.35084218874863 0 114.35084218874863 -353.57326312470468 0 0 0 0 569.65317879553186 18.02732689570405 0 18.02732689570405 -286.06434102161984 0 0 0 0 -69.076070662263191 65.931310755410436 0 65.931310755410436 -78.022131296859698 0 0 0 0 41.534105857312561 -3.0804485776684825 0 -3.0804485776684825 -3.2283471175397098 0 0 0 0 38.847314805308997 -11.1905289425641 0 -11.1905289425641 -40.063171662876073 0 0 0 0 38.005096974246612 -3.9447057968997798 0 -3.9447057968997798 -39.568597336271296 0 0 0 0 38.622407172022207 -9.05073204658704 0 -9.05073204658704 -11.613816273272782 0 0 0 0 30.800302347066463 -17.755186859211562 0 -17.755186859211562 -33.174654046639489 0 0 0 0 28.20391917777215 -16.998466691833109 0 -16.998466691833109 -15.598149228355737 0 0 0 0 4.3462696140097954 0.8610665855092563 0 0.8610665855092563 0.17553316746612602 0 0 0 0 261.5021100716549 -51.864845433543223 0 -51.864845433543223 -108.08851405611449 0 0 0 0 48.263417955669865 -38.661968255619513 0 -38.661968255619513 -20.154469499217043 0 0 0 0 37.938364010798978 -27.112891860971558 0 -27.112891860971558 -110.63470564758654 0 0 0 0 37.563759658338242 -10.543623220636691 0 -10.543623220636691 -2.947456905450613 0 0 0 0 -30.668368803686462 21.943339375888627 0 21.943339375888627 88.174649805301215 0 0 0 0 29.577641300500545 -6.2090937695018908 0 -6.2090937695018908 -20.112094426954172 0 0 0 0 150.94819981461478 -119.71921251142589 0 -119.71921251142589 194.70743507888164 0 0 0 0 143.89604858461098 588.35091882474171 0 588.35091882474171 651.63776772927849 0 0 0 0 6.8591090787651865 3.12225759628961 0 3.12225759628961 0.94661670772036932 0 0 0 0 20.830536948586087 498.262323565548 0 498.262323565548 588.15830191057591 0 0 0 0 418.95581057320669 -36.639036589111015 0 -36.639036589111015 147.11262929162513 0 0 0 0 672.06062746091993 631.55073780645819 0 631.55073780645819 386.22412503667505 0 0 0 0 451.29890785302814 553.30296136588424 0 553.30296136588424 333.85892792539175 0 0 0 0 384.22864045349706 -170.40127108616298 0 -170.40127108616298 5.8998786608149203 0 0 0 0 617.99925687787254 416.47340412935341 0 416.47340412935341 -54.279807755729053 0 0 0 0 120.551109739823 44.186387248969254 0 44.186387248969254 -33.036600070321583 0 0 0 0 6.5496939840143256 1.1875670776720497 0 1.1875670776720497 -1.1060040210300599 0 0 0 0 306.43213835928691 337.19213088222153 0 337.19213088222153 145.49718595327704 0 0 0 0 304.35711320580367 336.57491157527403 0 336.57491157527403 320.21051353318921 0 0 0 0 105.2153543076256 126.17111279380438 0 126.17111279380438 152.74483927551591 0 0 0 0 171.97250710673325 386.734113470642 0 386.734113470642 611.27958639310918 0 0 0 0 148.20958590073042 -244.45754633281507 0 -244.45754633281507 -610.094030244907 0 0 0 0 -42.4877183428016 73.220563237079688 0 73.220563237079688 124.90014102874522 0 0 0 0 282.76024512335425 213.03165429881267 0 213.03165429881267 -335.8747511891803 0 0 0 0 206.3334613201514 -50.343039028704425 0 -50.343039028704425 -500.8706787522969 0 0 0 0 -2.2354814344646172 10.9988561511796 0 10.9988561511796 -5.6141183137490973 0 0 0 0 126.02795572042669 202.19689252625884 0 202.19689252625884 211.76239654344511 0 0 0 0 190.01605946881318 304.63446908967012 0 304.63446908967012 164.71978945331028 0 0 0 0 241.95506095077053 536.24976838908913 0 536.24976838908913 483.36109439331221 0 0 0 0 208.73459777398239 74.569011331284628 0 74.569011331284628 359.94095058960954 0 0 0 0 275.25210662518657 274.46278874556964 0 274.46278874556964 -194.0487476689475 0 0 0 0 -122.52261474339684 228.17493042942473 0 228.17493042942473 -160.93883762273913 0 0 0 0 338.53545227495488 46.118052841589588 0 46.118052841589588 -4.9277555591980899 0 0 0 0 7.2634233810526538 -1.8745005418985485 0 -1.8745005418985485 -2.797450808945479 0 0 0 0 264.65982457467362 190.86492696543672 0 190.86492696543672 70.739885856671208 0 0 0 0 468.08864949404233 339.31452946008892 0 339.31452946008892 -142.06576893930156 0 0 0 0 576.59282654561684 462.93146085876367 0 462.93146085876367 -74.302536316440921 0 0 0 0 405.64815192655078 -202.76611378357995 0 -202.76611378357995 63.487032416125885 0 0 0 0 217.8990507852468 -144.21262226711571 0 -144.21262226711571 88.478639955299968 0 0 0 0 152.18430315602018 -180.15212438377841 0 -180.15212438377841 127.50915602447526 0 0 0 0 129.82480671161466 -101.36392446008006 0 -101.36392446008006 93.892570634785585 0 0 0 0 172.4009878849356 -216.7164679960793 0 -216.7164679960793 192.8413258523027 0 0 0 0 88.926023355700181 -28.69953284410213 0 -28.69953284410213 34.713544772434943 0 0 0 0 104.14679856626753 -150.31484026401341 0 -150.31484026401341 178.25585862555079 0 0 0 0 190.75543041010314 -149.72724222314142 0 -149.72724222314142 167.95467600590769 0 0 0 0 189.82973315138588 -142.14338960927637 0 -142.14338960927637 125.98646300470955 0 0 0 0 281.63391392584163 -200.96157460815027 0 -200.96157460815027 132.63613087535776 0 0 0 0 703.50222694873082 214.88471045388417 0 214.88471045388417 182.88304283212619 0 0 0 0 386.94201353589233 329.75436834662992 0 329.75436834662992 284.51984870298941 0 0 0 0 332.47444937221371 65.294561612941663 0 65.294561612941663 122.57192301099678 0 0 0 0 385.93568062147096 63.020005673566857 0 63.020005673566857 91.60695094775042 0 0 0 0 66.481341529302881 -22.510984714151192 0 -22.510984714151192 68.82268726800605 0 0 0 0 180.86189501582339 33.209719886206699 0 33.209719886206699 -193.53158034829778 0 0 0 0 214.44335912267888 -125.63357773758617 0 -125.63357773758617 -82.106380261438972 0 0 0 0 178.07423039338028 185.57079828551718 0 185.57079828551718 -1.4173683882238493 0 0 0 0 172.93452720230198 202.640573051903 0 202.640573051903 114.97751794478455 0 0 0 0 -1.7316268845692093 0.90112045434221599 0 0.90112045434221599 -1.2727068463758449 0 0 0 0 159.36866199846736 79.543628051751242 0 79.543628051751242 -139.40459993367404 0 0 0 0 195.76007420858514 -8.7707191300118552 0 -8.7707191300118552 -126.52975677012978 0 0 0 0 102.26542440258618 0.32053980989391562 0 0.32053980989391562 -125.83766881980864 0 0 0 0 171.51683605586004 -106.53346003569618 0 -106.53346003569618 19.082131187193795 0 0 0 0 119.34419523878023 -5.1800138765632937 0 -5.1800138765632937 40.145068988333108 0 0 0 0 126.76879757934876 -72.727602323954727 0 -72.727602323954727 242.64874797922346 0 0 0 0 -19.083472800371965 -69.599779995591234 0 -69.599779995591234 -91.477558276047375 0 0 0 0 186.70518778032056 -130.44242244951403 0 -130.44242244951403 -73.887946979530739 0 0 0 0 21.218304676680418 -61.954702869410312 0 -61.954702869410312 -262.00079054009331 0 0 0 0 -203.75368318832989 -255.59302682853891 0 -255.59302682853891 46.278842375688328 0 0 0 0 1093.4832923779104 586.44326144068214 0 586.44326144068214 215.0510290058736 0 0 0 0 -104.92397798504135 -428.55983684727698 0 -428.55983684727698 34.534003488336793 0 0 0 0 9.1263984647546295 -4.6103476105000638 0 -4.6103476105000638 1.8559412305502101 0 0 0 0 118.15679212161558 -492.42396488513617 0 -492.42396488513617 38.831490812980974 0 0 0 0 29.48809013760183 -287.07797700669835 0 -287.07797700669835 22.198217100736116 0 0 0 0 120.9108969743138 -314.95982210018678 0 -314.95982210018678 19.421731877237391 0 0 0 0 300.00829175305262 -18.1483149752043 0 -18.1483149752043 12.587671870831741 0 0 0 0 325.2017623317297 -155.60992027742648 0 -155.60992027742648 37.906590529472055 0 0 0 0 195.23157911741873 50.685972016077699 0 50.685972016077699 9.9245796296637536 0 0 0 0 4.0913804254167161 -0.1469402428047033 0 -0.1469402428047033 -1.1174555226114271 0 0 0 0 111.5248141298398 -182.22990408182605 0 -182.22990408182605 150.63953595992896 0 0 0 0 38.73965798114142 8.4226353623185979 0 8.4226353623185979 -15.359311999080091 0 0 0 0 35.131116086399004 11.194056909838018 0 11.194056909838018 0.41009603412097606 0 0 0 0 33.553239246772137 80.149245429834394 0 80.149245429834394 43.585751719902078 0 0 0 0 28.799922358282295 13.572239208086799 0 13.572239208086799 2.8216141218558133 0 0 0 0 -13.561684101092396 284.05267388450523 0 284.05267388450523 -465.34268094384674 0 0 0 0 -47.478633500823889 259.37815208537415 0 259.37815208537415 -425.92759569472673 0 0 0 0 140.72650801658165 -16.956484006870369 0 -16.956484006870369 -34.067709087134517 0 0 0 0 112.89873590811476 -80.114088709869691 0 -80.114088709869691 85.496997887984094 0 0 0 0 167.67474768425745 -72.337615468862168 0 -72.337615468862168 -5.2412947337838318 0 0 0 0 29.405638860869658 20.437946180502422 0 20.437946180502422 -467.27530800718432 0 0 0 0 101.32991820595271 44.619516174938781 0 44.619516174938781 -521.32129479280138 0 0 0 0 41.224965496727236 76.219577133344842 0 76.219577133344842 -349.0786275277469 0 0 0 0 34.419216244490599 -76.262367195984098 0 -76.262367195984098 -537.44652345610075 0 0 0 0 179.18538999576413 -21.064304107507724 0 -21.064304107507724 -586.87852410740561 0 0 0 0 131.98959364756774 74.587203468197345 0 74.587203468197345 -488.96644959490123 0 0 0 0 135.14715173499917 77.537808124272146 0 77.537808124272146 -496.44852939603379 0 0 0 0 121.21204437178858 168.45313241968609 0 168.45313241968609 -466.76374239163897 0 0 0 0 81.013926104016718 135.51551062553062 0 135.51551062553062 -471.26097603717517 0 0 0 0 47.431995841596873 9.2098351555828391 0 9.2098351555828391 -0.99874129892868535 0 0 0 0 164.34591949718742 103.83606814950019 0 103.83606814950019 -496.89038043923284 0 0 0 0 56.287542495594607 132.60355392769952 0 132.60355392769952 -468.65270323206011 0 0 0 0 41.212404460711696 91.670668457111788 0 91.670668457111788 -469.24718207070873 0 0 0 0 108.38351370123291 93.651280528992629 0 93.651280528992629 -489.12642858570962 0 0 0 0 46.831414658638977 13.462140321109274 0 13.462140321109274 -2.9967321158556777 0 0 0 0 38.098532108126449 27.372107409625659 0 27.372107409625659 -14.735524482959494 0 0 0 0 49.316021718419506 -93.466000963662736 0 -93.466000963662736 -66.675079687465313 0 0 0 0 -103.72026704064774 -61.190569428456683 0 -61.190569428456683 -45.191034080432246 0 0 0 0 2.1582984318785208 -6.1939360606680438 0 -6.1939360606680438 -8.6315682031546412 0 0 0 0 -25.524792507712846 -211.82630300914047 0 -211.82630300914047 -53.581184959228267 0 0 0 0 127.6518534376446 -56.319673770496138 0 -56.319673770496138 -43.458545995753411 0 0 0 0 214.93307508003636 -104.23222179033428 0 -104.23222179033428 -124.8965435034479 0 0 0 0 54.129153745510848 -158.6430985037432 0 -158.6430985037432 -99.380807007293697 0 0 0 0 56.743603566821548 -86.299180348017671 0 -86.299180348017671 -282.14780049584078 0 0 0 0 86.450087973995707 4.074616896556762 0 4.074616896556762 -13.073017605089118 0 0 0 0 57.928642746672665 86.063142633934461 0 86.063142633934461 -88.52806675273132 0 0 0 0 292.64180321941603 89.720191285753799 0 89.720191285753799 -101.73239385513443 0 0 0 0 12.28017702595389 -37.296868647880274 0 -37.296868647880274 175.4870014347199 0 0 0 0 343.67135357306506 421.96868327742266 0 421.96868327742266 311.78709624902831 0 0 0 0 5.7956629552737127 -0.38329474732076463 0 -0.38329474732076463 -1.0231336274512191 0 0 0 0 326.29416894129827 92.029108867121067 0 92.029108867121067 -0.3838338022235348 0 0 0 0 593.58125225924596 -149.20444760297215 0 -149.20444760297215 -237.8158485217964 0 0 0 0 682.34502093698393 144.08439450478772 0 144.08439450478772 -174.27084445135824 0 0 0 0 -1.9780155996911617 -0.67053404821205476 0 -0.67053404821205476 0.26032160948149552 0 0 0 0 597.23537826671964 340.50289469538166 0 340.50289469538166 581.50733331949391 0 0 0 0 666.58761031815084 -340.52654669817343 0 -340.52654669817343 -257.1459904617393 0 0 0 0 7.0896074823886011 65.399609106012576 0 65.399609106012576 -361.51433607557055 0 0 0 0 255.33672869344082 -275.50372091439226 0 -275.50372091439226 -180.47950191542532 0 0 0 0 -147.38669858266985 590.91092277926532 0 590.91092277926532 28.164736576841051 0 0 0 0 -237.07146578828542 372.6067874005256 0 372.6067874005256 982.78163244453458 0 0 0 0 526.96047268062102 -342.16224957909776 0 -342.16224957909776 173.29083405160861 0 0 0 0 270.08856640194426 11.765147976553578 0 11.765147976553578 13.9174043000925 0 0 0 0 189.90593270327372 -191.84426498311973 0 -191.84426498311973 94.490745047220855 0 0 0 0 68.883235465451435 -28.728743687551969 0 -28.728743687551969 -51.146909031722601 0 0 0 0 -82.653597118871403 132.51178903673764 0 132.51178903673764 416.22238793049377 0 0 0 0 103.89896354960365 -130.31236522424285 0 -130.31236522424285 213.28070382411795 0 0 0 0 -93.783158264668145 -14.648736950543508 0 -14.648736950543508 -21.468602728744884 0 0 0 0 43.416434586244577 -21.589600990452141 0 -21.589600990452141 -21.618662832101109 0 0 0 0 46.327895004113088 -26.715074117591541 0 -26.715074117591541 -33.056692063869889 0 0 0 0 36.518766619723465 -68.772431646838669 0 -68.772431646838669 45.603800561984372 0 0 0 0 80.296887197184105 -15.795063141712832 0 -15.795063141712832 -5.8573848482682251 0 0 0 0 45.199644992448157 -11.775697769600043 0 -11.775697769600043 18.356052416302418 0 0 0 0 16.094886353989317 -13.667265637098936 0 -13.667265637098936 0.85591140313400627 0 0 0 0 79.3830713797106 3.9524962263737393 0 3.9524962263737393 -7.4061214030747067 0 0 0 0 45.44801259293672 7.7093554417613177 0 7.7093554417613177 8.4542855956062795 0 0 0 0 24.175210291832613 -13.256019104143263 0 -13.256019104143263 8.6469335181927907 0 0 0 0 15.863074737564602 -4.3857192982127344 0 -4.3857192982127344 80.612795055435868 0 0 0 0 16.740437018692319 -0.57325059221625452 0 -0.57325059221625452 14.62637419935686 0 0 0 0 90.762546608741104 -23.194032111828164 0 -23.194032111828164 3.0131354499869758 0 0 0 0 96.732465215900447 -23.044781047058564 0 -23.044781047058564 0.67287675805340541 0 0 0 0 79.271637637270032 -13.162799883293246 0 -13.162799883293246 5.2983701061523902 0 0 0 0 106.9172462036513 -24.574331291557485 0 -24.574331291557485 -1.6304898538558348 0 0 0 0 98.39432223204858 -20.443347361594135 0 -20.443347361594135 -6.295191547718332 0 0 0 0 95.937009180863242 -21.357536758193163 0 -21.357536758193163 -2.453529385116326 0 0 0 0 99.499760260623589 -5.8624620322039505 0 -5.8624620322039505 7.763096292488683 0 0 0 0 121.04959086092276 -10.136384445523788 0 -10.136384445523788 7.7037661189677351 0 0 0 0 97.216792511069798 -29.241545960481517 0 -29.241545960481517 5.88639128277498 0 0 0 0 123.63217813914525 -14.653573154243134 0 -14.653573154243134 4.6685203311707966 0 0 0 0 251.31915915764148 -5.4997803036816322 0 -5.4997803036816322 -84.922070828139113 0 0 0 0 110.9909312739473 -28.960300807008171 0 -28.960300807008171 5.3857408121964543 0 0 0 0 110.34088678593434 -2.6434621952971611 0 -2.6434621952971611 33.936536803139234 0 0 0 0 288.45446827363162 -35.103185563498982 0 -35.103185563498982 -66.62828382546013 0 0 0 0 0.23535428110113443 29.536154022631351 0 29.536154022631351 12.6313715226349 0 0 0 0 222.55448255014198 16.48721550603841 0 16.48721550603841 70.820063006756754 0 0 0 0 255.16518935138538 165.88193227526608 0 165.88193227526608 132.66973633607404 0 0 0 0 271.37360033175628 142.89773126288355 0 142.89773126288355 -189.90350206138646 0 0 0 0 202.71343415696856 -37.397311317227604 0 -37.397311317227604 -63.533631298024375 0 0 0 0 97.658761907508506 -104.77565298732657 0 -104.77565298732657 -241.47136643202657 0 0 0 0 79.210484327107906 -53.958912681296511 0 -53.958912681296511 -155.74702937368693 0 0 0 0 116.88299057989389 12.555194219642999 0 12.555194219642999 -46.055889298243983 0 0 0 0 24.52204636616807 25.592901032717236 0 25.592901032717236 32.911182714862889 0 0 0 0 131.67856272009885 99.551281956437379 0 99.551281956437379 49.96670604105293 0 0 0 0 80.912804840634635 69.502142609356724 0 69.502142609356724 187.50542639645664 0 0 0 0 17.515486042742509 0.27408844509881369 0 0.27408844509881369 3.8041428282895779 0 0 0 0 102.72742742866194 33.432801440822914 0 33.432801440822914 -12.617026351543245 0 0 0 0 61.607703704945379 -275.96533646902924 0 -275.96533646902924 -647.36872472129232 0 0 0 0 73.664354919086776 7.257295452436785 0 7.257295452436785 -11.332619243471374 0 0 0 0 192.4924131551561 -101.37647338062015 0 -101.37647338062015 -696.04863399251883 0 0 0 0 212.40377943639396 2.5979874237646072 0 2.5979874237646072 -175.11011663733461 0 0 0 0 82.03754903557325 4.5515464829740191 0 4.5515464829740191 -9.7171419087057274 0 0 0 0 229.53218324542104 -1.6516631533525583 0 -1.6516631533525583 -637.53442630765448 0 0 0 0 311.83442232913876 22.90102339754867 0 22.90102339754867 -500.6564508891434 0 0 0 0 53.083999293130319 -131.53516678952579 0 -131.53516678952579 -522.94044171818314 0 0 0 0 181.61101200448229 -283.92393703737167 0 -283.92393703737167 -723.29273714938768 0 0 0 0 63.74929701950532 -148.60120239447633 0 -148.60120239447633 -558.35892884316081 0 0 0 0 271.42108119302793 -256.38724977870584 0 -256.38724977870584 -502.43414870784341 0 0 0 0 440.4668601860426 -303.39503298758177 0 -303.39503298758177 -159.04802846767711 0 0 0 0 55.74706266884823 -93.344996926737622 0 -93.344996926737622 -268.13931305479991 0 0 0 0 329.73079540259505 -78.839915874504186 0 -78.839915874504186 -355.84265275750226 0 0 0 0 346.05541469245509 113.07486283251455 0 113.07486283251455 -177.32791788528948 0 0 0 0 194.77278079014695 -146.26348501053894 0 -146.26348501053894 -294.33726934045444 0 0 0 0 139.51278075852343 -136.80875808474329 0 -136.80875808474329 -253.05526540805386 0 0 0 0 230.9186263095512 26.647069991214266 0 26.647069991214266 -333.63055856222172 0 0 0 0 204.85030080332604 -134.26987979450814 0 -134.26987979450814 -455.6732431037135 0 0 0 0 249.81620002221007 -199.68849763112576 0 -199.68849763112576 -371.35581931093179 0 0 0 0 159.85425082649658 -391.05928361917836 0 -391.05928361917836 -768.90408782677378 0 0 0 0 507.47008817062397 110.91448509507018 0 110.91448509507018 -791.92050758688629 0 0 0 0 234.13904486645504 44.704455536300884 0 44.704455536300884 -282.28210063391089 0 0 0 0 149.30587638560189 -251.57636743618804 0 -251.57636743618804 -919.07612180051865 0 0 0 0 636.15591312474226 377.13460633161412 0 377.13460633161412 -285.27872350164944 0 0 0 0 -379.90654653526371 -515.39118359728946 0 -515.39118359728946 -755.2802526033754 0 0 0 0 14.770300874449457 8.2233368021613238 0 8.2233368021613238 1.0770523973503408 0 0 0 0 -172.35078079070354 -145.34375450337302 0 -145.34375450337302 -452.68614733750957 0 0 0 0 55.449129653203045 -346.88383099794999 0 -346.88383099794999 -163.6987540977866 0 0 0 0 147.42378125028108 -243.87951137998334 0 -243.87951137998334 -121.04656043614739 0 0 0 0 221.46941140085028 -278.04007489566402 0 -278.04007489566402 -425.91016101605851 0 0 0 0 200.48921285196411 -245.90086310520132 0 -245.90086310520132 -391.42216937525131 0 0 0 0 200.33382014453809 -250.62981814020782 0 -250.62981814020782 -288.36448595468306 0 0 0 0 101.99534227265519 -229.54909237112872 0 -229.54909237112872 -134.90823678148217 0 0 0 0 84.01638509931945 -347.65212388933446 0 -347.65212388933446 63.652171685956546 0 0 0 0 44.703707814097015 -231.02114135396846 0 -231.02114135396846 67.789373268179872 0 0 0 0 39.859784255518434 -284.11185832513752 0 -284.11185832513752 350.70923242253002 0 0 0 0 252.63340749137751 -395.48571438127578 0 -395.48571438127578 40.181612049887462 0 0 0 0 210.29138398647586 -62.304735952342696 0 -62.304735952342696 515.73169595207673 0 0 0 0 236.29091430670405 -211.86409975905028 0 -211.86409975905028 287.9874295471509 0 0 0 0 554.99684509756935 168.82887356186879 0 168.82887356186879 173.91395316791977 0 0 0 0 383.84487153755481 -50.009656453312118 0 -50.009656453312118 1.3198554558239266 0 0 0 0 632.87337628069326 -494.20573754268571 0 -494.20573754268571 305.71515034052391 0 0 0 0 200.65264848383609 -139.96643938379148 0 -139.96643938379148 17.091672826446029 0 0 0 0 1325.5712850786958 56.473403665145156 0 56.473403665145156 167.01926129323283 0 0 0 0 114.12299312019013 295.36573202243937 0 295.36573202243937 804.30167090534906 0 0 0 0 380.88358518095447 634.68295808692858 0 634.68295808692858 751.91415693948466 0 0 0 0 324.19463142656878 270.88134013305353 0 270.88134013305353 214.65796089440812 0 0 0 0 470.07133209199668 391.45757989959844 0 391.45757989959844 296.65664664342057 0 0 0 0 453.54033768359386 9.5803239950168972 0 9.5803239950168972 392.15593772183138 0 0 0 0 -69.542425802741491 132.4182855621093 0 132.4182855621093 1018.5507537490093 0 0 0 0 -45.942809757015311 35.883470149443383 0 35.883470149443383 483.75201854092666 0 0 0 0 -183.82721310388297 206.27239664572926 0 206.27239664572926 637.94625814010396 0 0 0 0 83.126800615316824 398.52127422324656 0 398.52127422324656 856.37887146627804 0 0 0 0 -196.67712168328944 214.63256825570079 0 214.63256825570079 342.72711058476875 0 0 0 0 -159.8069073785191 193.91073342967366 0 193.91073342967366 352.01415720012437 0 0 0 0 -299.61500485536635 215.86771248476862 0 215.86771248476862 400.12381023424496 0 0 0 0 -39.145729976278744 234.49410212182693 0 234.49410212182693 56.194425844577836 0 0 0 0 -250.07293555195702 294.27164566749332 0 294.27164566749332 264.00149662349668 0 0 0 0 143.10605585046142 158.38996089008333 0 158.38996089008333 164.1300814354488 0 0 0 0 76.728210145289268 305.79856355669062 0 305.79856355669062 319.30491361783152 0 0 0 0 -15.937481892888172 331.09764180956222 0 331.09764180956222 338.24157824539111 0 0 0 0 85.848273568555214 164.2193244697055 0 164.2193244697055 -137.16422463525851 0 0 0 0 109.44463729621657 201.68514179297969 0 201.68514179297969 -278.16482772688141 0 0 0 0 97.905757108417674 316.62664952629473 0 316.62664952629473 -331.94456089570247 0 0 0 0 69.717496564846897 283.16576991301019 0 283.16576991301019 -187.47162351890483 0 0 0 0 -129.16084799076998 268.67783114525116 0 268.67783114525116 67.796914000040289 0 0 0 0 -114.648919360945 151.37072923299161 0 151.37072923299161 -359.68127578603071 0 0 0 0 -191.28737553066821 374.26499803560216 0 374.26499803560216 -501.24266627456154 0 0 0 0 -415.99856959745739 338.56255856608146 0 338.56255856608146 -247.19028354866441 0 0 0 0 173.54377593011304 27.557333871068295 0 27.557333871068295 -175.17230972495963 0 0 0 0 52.063643534055743 22.851436626784189 0 22.851436626784189 6.757285787591881 0 0 0 0 -75.099659024293942 337.03079022573894 0 337.03079022573894 -425.88008349565655 0 0 0 0 -234.29208813706646 402.6746432005437 0 402.6746432005437 -401.84156874046914 0 0 0 0 9.7691621457800153 -5.8549438567205172 0 -5.8549438567205172 -7.2887650206806942 0 0 0 0 -100.28047455514024 259.13578055312405 0 259.13578055312405 -334.82562343637363 0 0 0 0 16.68327474797843 326.63900341894487 0 326.63900341894487 -393.68541190603742 0 0 0 0 -147.2814431988827 248.64406790379303 0 248.64406790379303 -415.72012201241182 0 0 0 0 96.895979422416531 210.19297658458646 0 210.19297658458646 -429.6638692669278 0 0 0 0 256.38230292461049 191.59555033978609 0 191.59555033978609 -365.45211414884267 0 0 0 0 90.906482681277339 226.49367628927021 0 226.49367628927021 -364.50784299535491 0 0 0 0 222.28234699035784 164.70999696261504 0 164.70999696261504 -467.03090615606925 0 0 0 0 178.35265731934396 105.69095250659694 0 105.69095250659694 -412.6270107251712 0 0 0 0 237.19009128639482 114.01690300911207 0 114.01690300911207 -481.06396671549265 0 0 0 0 189.90817044161759 45.523219775025325 0 45.523219775025325 -494.68569741946737 0 0 0 0 194.74080525065256 4.9308905618554491 0 4.9308905618554491 -435.18698124853438 0 0 0 0 317.45045648140695 24.678850962496199 0 24.678850962496199 -434.06496864063854 0 0 0 0 345.30932539681999 185.5740575342893 0 185.5740575342893 -384.4811359025723 0 0 0 0 530.93850373644591 99.384258360733782 0 99.384258360733782 -205.82063766384044 0 0 0 0 277.90542968918237 117.60860650052064 0 117.60860650052064 -203.78404414738452 0 0 0 0 382.72011956926053 128.74012565068711 0 128.74012565068711 -189.01622154866845 0 0 0 0 220.9825921266729 340.43800705502781 0 340.43800705502781 32.601275021031938 0 0 0 0 190.7739870166788 175.73795848338079 0 175.73795848338079 -184.47223551051457 0 0 0 0 
</DataArray>
<DataArray type="Float64" Name="cross_section_updated" format="ascii">
1 1 1 1 1 0.011166680459612388 1 1 1 1 1 1 1 1 1 1 0.0085833958518622966 1 1 1 1 0.0099441183348279519 1 0.011032124080245457 1 1 0.010016844428886916 1 1 1 1 0.0085372163247664432 1 1 0.010016170199234996 0.010262127599890616 1 1 1 1 1 1 0.010758099703886095 1 1 1 0.012424990770404334 1 0.010056371808912086 1 0.0099714174852212466 1 1 1 1 1 0.010308442137360561 1 1 1 1 1 1 1 1 1 1 1 1 0.010437165941864869 1 1 1 1 1 1 1 1 0.010038835186828986 1 1 1 1 1 1 1 1 1 1 1 1 1 1 1 1 1 1 1 1 0.012990589963655163 1 1 1 1 1 1 1 1 1 0.0142785684461481 0.014204916115470244 1 1 1 1 1 1 1 1 1 0.014528476459401259 1 1 1 1 0.010853893569991368 1 0.0099576599977769173 1 1 1 0.010024551645387578 1 1 0.014703081827655883 0.010285705883567304 1 1 1 1 0.0097989038581476132 0.010806254895706101 0.010941618049290312 1 1 1 1 1 0.0098253095978940493 1 1 1 1 1 0.01062441021217601 1 1 1 0.0099272068699123583 1 1 1 1 1 1 1 1 1 1 1 1 1 1 1 1 1 1 1 1 1 0.009218987110929314 1 1 1 1 1 1 1 1 0.014136150125780112 1 1 0.011141532347844095 1 0.0099969031435257621 0.010005224899084744 1 1 1 1 1 0.013737186192358541 0.012831927099782507 1 0.0090038593419266739 1 1 1 0.0099900942533089326 1 1 0.0099944440903107466 1 1 1 1 0.016162654270922346 1 0.0099406984740907402 1 1 0.01314965035956589 0.013963302430328792 1 1 1 1 1 1 1 1 0.01116720681091629 1 1 0.014646540797036332 1 1 1 1 1 1 1 0.0099639167287339896 1 1 1 1 1 0.009813288288453615 1 1 0.011107726399908667 1 0.011193158815493907 1 1 1 1 0.010453988745320685 1 1 1 1 1 0.011085365873407839 1 1 1 1 1 1 1 1 0.013150791161777911 1 1 0.0098984137735297802 1 1 0.01008389920607637 1 1 0.010572079943053503 1 1 0.010122210640686819 1 1 1 1 1 1 0.010429132239915451 1 0.011114534861440355 1 1 1 0.011538159628707306 1 1 1 1 1 1 1 1 1 1 1 0.010818757468582831 1 1 1 1 1 1 1 1 1 1 0.010049570166234778 1 0.010293197922213152 1 1 1 0.0098619443795710058 1 1 1 0.01386169547152437 1 1 1 1 1 1 0.0095785840449298405 0.015075359049306751 1 1 1 0.010093833111644825 1 1 0.015330947654265488 0.011383143352062136 1 1 0.013779934466038776 1 1 1 1 1 0.010894160803459821 1 1 1 1 0.011531539319933237 1 1 0.010310516473347952 1 1 1 0.012299098592637992 0.013853285672524227 1 1 1 0.010002198493701325 1 1 1 1 1 0.018101915474454007 1 0.01752722797326757 1 1 1 1 1 1 1 1 1 1 1 0.017569906595347178 0.010694993566121221 1 1 1 1 1 1 1 1 1 1 1 1 1 0.018107163754066007 1 1 1 1 1 1 1 1 0.0102856689980483 1 1 0.013547770525453083 1 1 1 1 1 0.013775599879321738 1 1 0.013713571574449244 1 1 1 1 1 0.012165854925182904 1 0.010708924722777983 1 1 1 1 1 1 1 1 1 1 1 1 1 1 1 0.0098393186476455549 1 1 1 1 0.0094005033286985572 1 1 1 1 0.010870400110031393 1 1 0.015847957619731956 0.015632372593266754 1 1 1 1 1 0.016058078451217164 1 0.016376556179879875 1 1 1 0.009995448422601725 0.0099880952204100017 1 1 1 1 0.01689103515754151 1 1 1 1 1 1 1 1 1 1 0.014712870180962064 1 1 1 1 1 1 1 0.011999531156599019 0.016077617631718982 1 1 1 1 1 1 1 1 1 1 1 0.013001487786735546 1 1 1 1 1 1 1 1 1 1 1 1 1 1 1 1 1 1 1 1 1 1 1 0.010054076145082405 1 1 1 0.013499157275744706 1 1 0.013521298755623089 1 1 1 1 1 1 1 1 1 0.01146433867666662 1 1 1 1 1 0.010561666875952669 1 1 0.012645502538513636 1 1 0.011075446313029147 1 1 0.011297442839424951 1 1 1 1 1 1 1 1 1 1 1 1 1 1 1 1 1 1 1 1 1 1 1 1 1 0.011792564616242583 1 1 1 1 1 0.014493194655461488 1 1 1 1 1 0.015654988006206728 1 0.0098593087896445657 1 1 1 1 1 1 1 1 1 1 1 1 1 1 1 1 1 1 1 1 1 1 1 1 1 1 1 1 1 1 1 1 1 1 1 1 1 1 1 1 1 1 1 1 1 1 1 1 1 1 1 1 1 1 1 1 1 1 1 1 1 1 1 1 1 1 1 1 1 1 1 1 1 1 1 1 1 1 1 1 1 1 0.010503939606013282 1 1 1 1 1 1 1 1 1 1 1 1 1 1 1 0.012876023958695868 1 1 0.0099965007179922145 1 1 1 1 1 1 0.012270597154288057 1 1 0.011457519868095413 1 1 1 1 1 1 1 1 1 1 0.010153728006356675 1 1 0.014067845546634573 1 1 0.010010984811279915 1 0.01292021189397272 1 1 1 1 1 1 1 1 1 1 1 0.016642049899484299 1 1 1 1 1 1 1 1 0.010170056535275876 1 0.016441647287171381 1 1 1 1 1 1 1 1 1 1 1 1 1 1 1 1 1 1 1 1 1 1 1 1 1 0.01598399886694514 1 1 1 1 0.015431894033919563 1 1 1 1 0.010039882815657691 0.0099689753000406587 1 1 1 1 0.010038254610874091 1 1 0.010159179852697981 1 0.013545185150604846 1 1 1 1 0.013242502389725304 0.010042367997556916 1 0.014650506779337651 0.0099494446888606196 1 1 0.014476247816925284 1 1 0.011691994837155672 1 1 1 1 1 1 1 1 1 0.013738211558806392 1 0.0135995421154179 1 1 1 1 0.01000364060346833 0.010705773668926414 1 1 1 1 0.015788828241625384 1 1 0.012204298762832525 0.010013057509537175 1 1 0.0097626291070287106 1 1 1 1 1 1 1 1 1 1 1 1 1 1 1 1 1 1 1 1 0.010465098622743512 1 1 1 1 1 1 1 1 1 1 1 1 1 1 0.0099997394133707895 1 1 1 1 1 1 1 0.01523131589322994 1 1 1 0.015603804957750319 1 1 1 1 0.010096965360489034 1 1 1 1 1 1 0.010296805917774328 1 1 0.013971139141828032 0.011980882163385444 1 0.0095647057561982513 1 1 1 0.011215408359518972 1 1 1 0.013954355375817547 0.013692880719336761 1 1 1 1 1 1 1 1 0.0099281711831354855 1 1 1 1 1 1 1 1 1 1 1 1 1 1 1 1 1 0.0097924143836700499 1 1 1 0.010809755977977533 1 1 1 1 1 1 1 1 0.012289525817485479 1 1 1 1 1 1 1 1 1 1 1 1 1 1 1 1 1 1 0.013500838490335863 1 1 1 1 1 1 1 1 1 1 1 1 1 1 1 1 1 1 1 1 1 1 1 0.0086740621473380738 1 0.011235654338563319 1 1 1 1 0.0088132496050522396 0.010298727478685099 1 1 1 1 1 1 1 1 1 1 1 1 1 1 1 1 1 0.0086598409228282915 1 1 0.0095041078025169968 1 1 1 1 1 1 1 1 1 1 1 1 1 0.017185772890390763 0.0099074690784653439 1 0.017145798775958562 1 1 1 1 1 1 1 1 0.012089236553583339 1 1 1 0.0098333846047871081 1 1 1 0.0096784087405868829 1 1 1 1 1 1 1 1 1 0.0095377175302314501 1 1 1 1 1 1 1 1 1 1 0.015746438945891082 1 1 1 1 1 1 1 1 1 1 1 0.015107517727730918 1 0.015384113585296476 1 0.013357433647403241 1 1 1 0.012750202972502161 1 0.012988172248469204 1 1 1 0.0099922092526341672 1 1 1 1 1 1 1 1 1 1 1 1 1 1 1 0.010254728633492034 1 1 1 1 1 1 1 1 0.013133271866539373 1 0.0099355907331247547 1 0.013357884521373643 1 0.013928160647023376 0.01000732074385959 0.010276581232091814 1 1 1 1 1 1 1 1 1 1 1 0.01021136277554399 1 1 1 1 1 1 1 1 1 1 1 1 1 1 1 1 1 1 1 1 1 1 1 1 1 0.011107719590732468 1 1 1 1 1 0.011306817727017689 1 1 1 1 1 1 1 1 1 1 1 1 1 1 0.0096612177719905042 1 1 1 1 0.0090079423350035905 1 1 1 1 1 1 1 1 1 1 1 1 0.011208376745566299 1 1 1 1 1 1 0.0098959212542719579 1 1 1 1 1 1 1 1 1 1 1 0.010432049951051422 0.01092976585821623 1 1 1 0.0098108974853493361 0.0099518213819510277 1 1 1 1 1 1 1 1 1 1 1 1 1 1 1 1 1 1 1 1 1 1 1 1 1 1 1 1 1 1 1 1 1 1 1 1 1 1 1 1 1 1 1 1 1 1 1 1 1 1 0.0098418079803037836 1 1 0.015154011708094998 1 1 0.0099879840106258753 0.0093007125300788793 1 0.013706084575952935 1 1 1 1 1 1 0.020693599446580259 1 1 1 1 1 1 1 1 1 1 0.010355808062459084 1 1 1 1 1 1 1 1 1 1 1 1 0.0093646498484105598 1 1 1 1 1 1 1 1 1 0.012294776536032361 1 1 1 1 1 1 1 1 1 1 1 1 0.015275875053683153 1 1 0.01048404024523733 1 0.015088022181227227 1 1 1 1 1 0.009802517214154283 0.010717102859162305 1 0.016652447442640744 1 1 1 1 1 1 1 1 1 1 1 1 0.010778237303078518 1 1 1 1 1 1 0.013052210856072761 1 1 1 1 1 1 1 1 1 1 1 1 0.01177882057976906 1 1 0.011430373277676679 1 0.0098565198232644022 0.0091271379582542229 1 1 1 1 1 1 1 0.010720257661893037 1 0.010717139868145051 1 1 1 1 1 1 1 1 1 1 1 1 1 1 1 1 1 1 1 1 1 1 1 1 1 1 1 1 1 1 1 1 1 1 1 1 1 1 1 1 1 1 1 1 1 1 1 0.010201142863313648 1 1 1 1 1 1 1 1 1 0.013787619142345633 1 1 0.010745171366287307 1 0.0137058760651784 1 0.012208550813582686 1 1 1 1 1 1 0.011025890262441683 1 1 1 1 1 1 1 1 1 1 1 1 1 1 1 1 1 0.011075475276622523 1 1 1 1 1 1 0.011111665155189764 1 1 1 1 1 1 1 1 1 1 1 1 0.010446567851785639 1 1 1 1 1 1 1 1 1 1 1 1 1 1 1 1 1 1 1 1 1 1 1 1 1 1 1 1 1 1 1 1 1 1 1 0.010097052466094034 1 1 1 1 0.0098019549165656826 1 1 1 1 1 0.011756687372766972 1 1 1 0.0088755354516084906 1 1 1 1 0.0140399732197042 1 1 1 1 1 1 1 1 1 1 1 0.0097894878116940535 1 1 0.017496652706287551 1 1 0.0083380634749763323 0.010353789524122062 1 1 0.013432373323508617 1 1 1 1 1 1 1 1 0.012088660991336302 1 0.010454554351180994 1 1 1 1 1 1 0.011328081695891537 1 1 1 1 0.017340755172497096 1 1 1 1 1 1 1 1 1 1 1 1 1 1 1 1 0.013136420993918083 1 1 1 0.01280567741404378 1 1 1 1 1 1 1 1 1 1 0.015691775073586146 1 1 1 0.0094645477573888741 1 1 1 0.014676509859867683 1 0.016174115701427121 1 1 1 1 1 1 1 1 1 1 1 1 1 1 1 1 1 1 1 1 1 1 1 1 1 1 1 1 0.0099411932123392895 1 1 1 1 1 1 1 1 1 1 1 0.013899669948074686 1 1 1 0.014226965058612222 1 1 1 1 1 1 1 1 1 0.013282174407273023 0.012123262075420516 1 0.012520720360065652 1 0.0096890603026281944 1 0.011287331372646845 1 1 1 1 0.010474000500592714 1 1 0.0099429084857753473 1 1 1 1 1 1 0.0099808817760017373 1 1 1 1 0.0099038364356517031 1 1 1 1 1 1 1 1 1 1 1 1 1 1 1 0.0094574063164445631 1 1 1 1 1 1 1 1 1 1 1 1 0.0082658306862299063 1 1 1 1 1 1 0.010012234585258756 1 1 1 1 1 0.0098859917632455208 1 0.0096825925210059956 1 1 1 1 1 1 1 1 0.012698417269122311 1 0.011790191130617675 0.0093297601093415127 1 1 1 0.011760746971806652 1 1 0.0091879766190716035 1 1 0.0094382339378516079 1 1 0.013620481196380986 1 0.010003771114167916 0.009998929557685908 1 1 1 1 1 1 1 1 1 1 1 1 1 1 1 1 1 1 1 1 1 1 1 1 1 1 1 1 0.011880098250850828 1 1 1 1 1 1 1 1 0.010008054725283017 1 1 1 1 1 1 1 0.0091200831252403556 1 1 1 0.0099993732327749284 1 1 0.0092904729109561605 1 1 1 1 1 1 1 1 1 1 1 1 0.010334136557409371 1 1 1 1 0.0095175237058983779 1 1 1 1 1 1 1 1 0.0089037162965831182 1 1 1 0.0082554656869790986 1 1 1 1 1 1 1 1 1 1 1 0.011385853057910691 1 1 1 1 0.010074802639540316 1 1 1 0.012290531415596304 0.010250911315079511 1 1 1 1 1 0.013373106091425165 1 0.0099898762594089439 1 1 0.012292929461033662 1 0.0099294475441434639 1 1 1 1 1 1 1 1 1 1 1 1 1 1 1 1 0.010027556033235118 1 1 0.012520314540995049 1 1 1 0.010179482260638459 1 0.0095998072944845064 0.011941934155605505 1 1 1 0.010433792625373743 1 1 0.010014850795177504 1 0.010449275686464234 1 1 1 1 1 1 1 1 1 1 1 0.010019289735422328 1 0.010419104997435837 1 1 1 1 1 1 1 1 1 0.011177866945062183 1 1 1 1 1 1 1 1 1 0.010549201757679779 1 1 1 1 1 1 1 1 0.010655356804990433 1 1 0.011697874933404285 1 1 1 1 0.010391369732767615 1 1 1 1 0.011390600114594324 1 1 1 1 1 1 1 1 1 1 1 1 1 1 1 0.011909554857075486 1 1 1 1 0.010475636588705435 1 1 0.014756877227519455 1 1 1 1 1 1 1 1 1 1 1 1 1 1 1 1 1 0.011031268348051208 1 1 1 1 1 1 1 0.0096369444702200917 1 1 1 0.0099314074416979314 1 1 0.010466642038721633 1 1 1 1 1 1 1 1 1 0.015382647583568301 1 1 0.015951613536613889 1 1 1 1 1 1 1 0.010364067101731366 1 1 1 0.010441413038212076 1 0.010022690727608301 1 1 1 1 1 1 1 1 1 1 0.015470716115809927 1 1 1 1 0.010004041743634406 0.015004584364125608 1 1 1 1 1 1 1 1 1 1 1 1 0.012137551863598148 1 1 0.011191457652944456 1 1 1 0.010436472947429462 1 1 0.01155660093378983 1 1 1 0.010580123841617869 1 1 1 1 0.01043560118981008 1 1 1 1 1 1 1 1 1 1 1 1 1 1 1 0.011966105026093184 1 1 1 1 0.010923586897679341 1 1 1 1 1 1 1 1 1 1 1 1 0.010703713788275809 1 1 1 1 1 1 0.010738643500877526 1 1 1 1 1 1 0.011139314978085884 1 1 1 1 1 1 1 1 1 1 1 1 1 0.012196327897687511 1 0.013596855005690729 1 1 1 1 0.0091662937817901004 1 1 1 0.013818279440532997 0.0099547766929720914 1 1 0.010036127597608885 1 1 1 1 1 1 1 1 1 1 1 1 1 1 1 1 0.0094794481546454142 0.0099235222399325883 1 1 0.012512288664051519 1 1 1 1 1 1 1 1 1 1 1 1 1 1 1 0.015606095237861288 1 1 1 1 1 1 1 0.010788134361150448 1 1 1 1 1 1 1 1 1 0.016121479579200189 1 1 0.015781837068714319 1 1 1 1 1 1 1 0.012198408267834941 1 1 1 1 1 1 0.010157433251395519 1 0.012934839228212584 1 1 1 1 1 0.01187356573100978 1 1 0.013380178697816335 1 0.012481950239502364 1 0.013026296411263625 0.0094214276540959454 1 1 1 1 1 1 1 1 1 1 1 1 0.014294428584821339 1 1 1 1 1 1 0.010004542107262112 1 1 1 1 1 1 1 0.011570663265116082 1 1 1 1 1 0.0097719428871110483 0.013202500800795153 1 1 0.0093361485414122335 1 1 1 1 0.0099292867095063728 0.01262286625524436 1 1 1 1 0.010017336930573868 0.012887646237541951 1 1 1 0.01011932281560991 1 1 1 1 1 1 1 1 0.011085573250966638 0.010009282254784466 1 1 0.013121573983475243 1 1 0.0129469608594116 0.013439374654233872 1 0.0095083826465604919 0.010005282706190324 1 1 1 1 1 1 1 1 1 1 1 1 1 1 1 1 1 1 0.010010009062515073 1 1 1 0.010001513826132272 1 0.011611215806287448 1 1 1 0.011521476088801073 0.0099623055727578059 1 1 1 0.012053496310270358 1 1 0.012100721975425209 0.010143951562442917 1 0.013049929699061678 1 1 0.010721876638091654 1 0.013857070434504036 1 1 1 1 1 1 1 1 1 0.011623049882944764 1 0.009821710099572542 1 1 1 1 1 1 1 1 1 0.0099582799364580366 1 1 1 1 1 0.010050976309468385 1 1 1 0.01000369498328405 1 1 1 1 0.010006362931526699 1 0.011249386545293224 0.0095284029379727152 1 0.011829080409337875 1 1 0.0095851573793553635 0.011866661036532174 0.014333906548324511 1 1 1 0.0096475414147844316 1 0.0082769107588954831 0.010177583238448296 1 1 1 1 0.013902847668302964 1 1 1 0.010090142365876388 0.009902261335125024 1 1 1 1 1 1 1 0.010169310619142032 1 1 1 1 1 1 1 1 1 1 1 0.010372563826410334 1 1 1 1 1 1 1 1 1 1 1 1 1 1 1 1 0.010800211743862099 0.01098254476874768 1 1 0.010268490788400655 1 1 1 1 1 1 1 1 1 0.0091295525266655384 1 1 1 0.014609774204088538 1 1 1 1 1 1 1 1 0.010024008823149536 0.012512976422667511 1 1 1 1 1 1 1 0.01195034581450149 1 1 1 1 1 1 1 1 0.010196727149689317 1 1 1 1 1 1 1 1 1 1 1 1 1 1 1 1 1 1 1 1 1 1 1 1 1 1 1 1 1 1 0.013428807479179544 0.01408660331220217 1 1 1 1 1 1 0.011376777241737909 0.016194005128693803 1 1 1 1 1 1 1 1 0.016558711938076339 1 1 1 1 1 0.010368045801780672 1 1 1 1 1 1 0.015258675593134263 1 1 1 0.012054793721998171 1 1 0.011630419841720144 1 1 1 1 1 1 1 1 1 1 0.012274255740195991 0.010997336542914342 1 1 1 1 1 1 0.012832576765595424 1 1 1 1 0.010460431836530674 1 1 1 1 1 1 1 1 1 1 1 0.0152038414354672 1 1 0.0098445903254357637 0.012607794716963343 1 1 0.012983421497055675 1 0.010570486018660237 0.014247762648858787 1 1 1 1 1 1 1 1 0.0091808769876719071 1 1 1 0.010045810612615842 1 1 1 1 1 0.0099861190289417968 1 1 1 1 0.0099975320691852113 1 0.0099491539725311429 0.010493686712395499 1 0.011576237997227561 1 0.013619207663500929 0.0096388200043953619 1 0.012572817265003193 1 0.011680575569968507 1 1 1 1 1 0.010001057891008613 1 1 1 1 0.010079801836871453 1 1 1 1 1 1 1 0.012448830758894025 1 1 1 1 1 0.0089944728935356533 1 1 1 1 1 0.011362623485354497 1 0.010551062301605976 1 0.013094938614372924 1 1 0.0095514320238860861 1 0.011787035644709513 0.0097334239724615607 1 1 1 1 1 1 1 1 1 1 1 1 1 1 1 1 1 1 1 1 1 1 1 1 1 0.0096509399267778514 1 1 1 1 1 1 0.010048790565317942 1 1 1 1 1 0.010433262500153776 1 0.0097750258226386652 1 1 0.010441849221012064 1 1 1 0.010453210067042376 1 0.0094493498829303496 1 1 1 1 0.01020325320726829 1 1 1 1 1 1 1 1 1 1 1 1 0.0099289183297554678 1 1 1 0.0098210935380824219 1 1 1 1 1 1 1 1 1 1 0.0097332920667479641 1 1 0.010573921715319935 1 1 1 1 1 1 1 1 1 1 1 1 0.0099765850849952674 1 1 1 1 0.010027628788550839 1 1 0.011706026953260812 1 1 1 1 1 1 1 0.0099971777412061272 1 1 0.0099776218801508002 1 1 1 1 1 1 1 1 1 1 1 1 1 1 1 1 1 1 1 1 1 0.0095468549019627064 0.012312069520389013 1 1 1 1 1 1 0.0098822226023326243 1 1 1 1 1 1 1 1 1 1 1 1 1 0.009779157473715213 0.013073236691690339 1 1 1 1 1 1 1 1 0.011160931264852028 1 1 1 1 0.010129594021349636 1 1 1 1 1 1 1 1 1 1 1 1 1 1 1 1 1 1 1 1 1 1 1 1 1 1 1 1 1 0.012947619578056433 1 1 1 1 1 1 1 0.013382739544658602 1 1 0.013624484646351152 1 1 1 1 1 1 1 1 1 1 1 1 1 1 1 1 1 1 1 1 1 1 0.012631529508627712 1 1 1 1 1 0.010985646297918719 1 1 1 1 1 1 1 1 0.009306428497456519 1 1 1 1 1 1 1 1 1 1 1 1 1 1 1 1 1 1 0.0096756456390672402 1 1 1 1 1 1 1 1 1 1 1 1 0.016342011605957715 1 0.016168783082416517 1 0.0083070415301408906 1 0.010048178194264786 1 1 1 1 0.0078141416347669197 1 0.012254918009552831 1 1 1 0.0099856477504675321 1 1 1 0.013348459672459656 1 1 1 0.01040670588142829 1 1 1 1 1 0.010006171290365027 1 1 0.0081352655972306634 1 0.013481475460913626 1 0.0081343600785495507 1 0.016312942019717828 0.014387429741320325 1 1 1 1 1 1 1 1 1 1 0.010516644711335923 1 1 1 1 0.011442576314954604 1 1 1 1 1 1 1 1 1 1 1 1 1 0.012895643194122348 1 1 1 1 0.010105416909586856 1 1 1 1 1 1 1 1 1 1 0.018082296812453817 1 1 1 0.016591672088277033 1 1 0.0067556416051480685 1 0.0099826685042910396 1 1 1 1 0.021309690558034174 1 1 1 1 1 1 1 1 1 1 1 1 1 1 1 1 1 0.0082233166759016537 1 1 1 0.018763675666219917 1 0.0091805288009559234 1 1 0.02058109032136355 1 1 1 1 1 0.0097327183143409123 1 1 1 1 1 1 1 1 1 1 1 1 1 1 1 0.010000726558872531 1 1 1 0.010397869449803542 1 1 1 1 1 1 0.015357115230850217 1 0.011113612955613158 1 1 1 1 1 1 1 1 1 1 1 0.016086166597098481 1 1 1 0.010424958432032725 1 0.010000749320114124 1 1 1 1 1 0.010078573700308459 1 1 0.014279549820486744 1 1 1 0.010267827390163716 1 1 1 1 1 1 1 0.010673719583066456 1 1 1 1 1 1 1 1 1 1 1 1 0.011313842931461641 0.0098949425682382467 1 1 1 1 0.011978278352246107 1 1 0.011420222762843792 1 0.011085006491092963 1 1 1 1 1 1 1 1 1 0.01390626794671089 1 1 1 1 1 0.013777817998999374 1 1 1 1 1 1 1 1 1 1 1 1 0.0094332082987369555 1 1 1 1 1 1 1 1 1 1 1 0.010108064632442711 1 0.011710262700257759 1 0.011256200085568942 1 0.0096032087171112022 1 1 1 0.010148903534232293 1 1 1 1 1 1 0.011296416650682976 0.010018775867969731 0.0090699480339867002 1 1 1 1 1 1 1 1 0.013263693495113318 1 1 1 1 1 1 1 1 1 1 1 1 1 1 1 0.011604211863645537 1 1 1 0.011600694974899484 1 1 1 1 1 0.012042183437364157 1 1 1 0.010001476790332347 1 0.012060489668036398 0.011151549406184756 0.015345881964809098 1 1 0.010000491007145377 1 0.014742229083442792 1 1 0.0099738975571644559 1 1 0.011468884971081885 1 1 1 1 1 0.010672989973345605 1 1 1 1 1 1 1 1 1 1 1 1 1 1 1 0.016999684594714563 1 1 1 1 0.017964492776527924 1 1 0.018880867745575881 1 1 1 1 1 1 1 1 1 1 1 1 1 1 1 1 1 1 1 0.010836500873610693 1 1 1 1 1 1 1 1 1 0.011448831851505078 1 1 1 1 1 1 1 0.0099029822209155648 1 0.010003009227714616 0.011510111331622452 1 1 1 1 1 1 1 1 1 1 1 1 1 1 1 1 0.013750316806041815 0.0089221499207951943 1 0.013139689707084547 1 0.013518145168923421 1 1 0.0087766804446785373 1 0.011427977524037418 1 1 1 0.017695638621145919 1 0.0075921467748857017 0.012570281772501666 1 1 1 1 1 0.010215723520605109 1 1 0.010032748165097206 1 1 1 1 1 1 1 1 1 1 1 1 1 0.014721501860530685 1 1 0.016355044288853308 1 1 1 1 1 1 1 1 1 0.019757974800977421 1 1 1 1 1 0.0094406495553423404 1 1 0.01063866317748665 1 1 1 1 1 1 0.0083294522297436766 1 1 0.020421107099393598 1 0.012877574672460094 1 1 1 1 1 1 1 1 1 0.015359693678303464 1 1 1 1 1 1 1 1 1 0.010499426346125178 0.01111281545807013 1 1 1 1 0.020703022123816212 1 1 1 1 0.014850720258240189 1 1 0.0093809811400190762 0.0086536935827159472 1 0.014519311895592781 0.0099913261005727325 1 0.0099971766912570238 1 0.011874614621426152 1 1 1 1 1 1 0.011286507986784926 1 1 1 1 1 0.010536627262086921 1 1 1 1 1 1 1 1 1 1 1 1 1 0.0099203553452474266 0.00054514001078038998 1 1 0.014684496292221325 1 0.010437055154747635 0.010405719946413466 1 1 1 1 1 1 1 0.010525426259054147 1 0.017196735574444816 0.010639581934396947 1 1 1 1 1 1 1 1 1 1 1 1 1 1 1 1 0.011299520779237411 1 1 1 0.010823534450636337 1 1 1 1 1 1 1 0.011146763859620617 1 1 0.012341910943790146 1 1 0.0087599805030417113 1 1 1 1 1 1 1 1 0.013406635824026066 1 1 1 0.0099574409205121506 1 1 1 0.0090275604544529028 1 1 0.012155080505005262 0.0016614883082087736 1 0.010503912727319088 1 1 1 1 1 1 1 1 1 1 1 1 1 1 1 1 1 1 1 1 1 1 1 0.010000649742576837 1 0.011298945157507016 0.0090667041800749811 1 1 1 1 1 1 1 1 1 0.010898593120727215 1 1 1 1 1 1 0.0049338666918233715 1 0.010233675537329604 1 0.013787344069337589 1 0.0096868121100074193 0.010311210484502436 1 1 1 1 1 0.010369319189546214 0.011095060041995636 0.015826752690194103 1 1 1 0.014381209621625854 0.01002699057066694 1 1 0.0089891929713002035 1 1 1 1 1 1 1 1 1 1 1 0.01001876116940513 1 1 1 0.012814210373925702 1 1 1 0.011207075542783752 0.010757122416354703 1 1 1 1 0.0081639636180613727 1 0.010103666878015604 1 1 1 1 1 1 1 1 1 1 1 1 1 1 1 1 1 0.011120660129260298 1 1 1 1 1 1 1 1 1 0.010083864886446515 1 1 1 1 1 0.01199387977955896 1 1 1 1 1 1 1 1 1 1 1 1 1 1 1 1 1 1 1 1 1 1 1 1 1 1 1 1 1 1 1 1 1 1 1 1 1 1 1 1 1 1 1 1 1 1 1 1 1 1 1 1 1 1 1 1 1 1 1 1 0.0098233389262262615 1 1 0.0094282915871647388 1 1 1 1 1 1 1 1 1 1 1 0.01607057531410944 1 1 0.018003557545905848 1 0.010417892826893694 1 1 1 1 1 1 1 1 0.0098398957479229957 1 1 0.0092753274508814952 1 1 1 0.018251397905483351 1 1 1 1 0.0092405481158655926 1 0.01552878551785588 1 0.014821682254337078 0.010389833845963346 0.019015827693310353 1 1 0.0083368891546991772 0.008544995451622104 1 1 1 1 0.0099768095994432673 1 0.010239748114771087 1 1 1 1 0.0099900533829984824 1 1 1 1 1 1 1 1 1 1 1 1 1 1 1 1 1 1 1 1 1 1 1 1 1 1 1 1 1 1 1 1 1 1 1 1 1 0.0113404690998321 1 0.010227577154619825 1 1 1 1 1 1 1 0.0099536422266245528 1 0.0095738556828616744 1 1 0.010343877373319493 1 1 1 1 1 0.0086277999450203435 1 1 1 1 1 1 1 1 1 1 1 1 1 1 0.0094373894694684945 1 0.0082852967122062967 1 1 1 1 1 0.018254305411312871 1 1 1 1 1 1 1 1 1 1 1 1 1 1 1 1 1 1 1 1 0.012325437984140533 0.010903462594020511 1 1 1 0.016189234397135009 1 1 1 1 1 1 1 1 1 1 0.011300007147847844 1 1 1 1 1 1 1 1 1 1 1 1 1 1 0.013053589311338716 1 1 0.010743078592894908 1 1 1 1 1 1 1 1 1 1 0.012846166803425874 1 1 1 1 1 1 1 1 1 1 1 1 1 1 1 0.010632433371861648 1 0.010635275490718965 1 1 1 1 0.010531968122529677 1 1 1 1 1 1 0.011628657991665499 1 1 1 1 1 1 1 1 0.012000768719635013 1 1 0.010395198324199946 1 1 1 1 1 1 1 1 1 1 1 1 1 1 1 1 1 1 1 1 1 1 0.0098598866881383952 1 1 1 1 1 1 1 1 1 1 1 1 1 1 1 1 1 1 1 1 1 1 1 1 1 1 1 1 1 1 1 1 1 1 1 1 1 1 0.010513417995352596 1 1 1 1 1 0.0098692535042771007 1 1 1 1 1 1 1 1 1 1 1 1 1 1 1 1 1 1 1 1 1 1 1 1 1 1 1 1 1 1 1 1 1 1 1 1 1 1 1 1 0.015098861838548951 1 0.0077408592982273023 1 1 1 1 1 0.0078452920893461175 1 1 1 0.013397277620514684 1 1 1 0.010365464789419399 1 1 0.010990410214272453 1 0.011645949003500897 1 1 1 1 1 1 1 1 1 1 1 1 1 1 1 1 1 1 1 1 0.013981105496910194 1 1 1 1 1 1 1 1 1 1 1 1 1 1 1 1 1 1 1 1 1 1 1 1 1 1 1 1 1 1 1 1 1 1 1 1 1 1 1 1 1 1 1 1 1 1 1 1 1 1 1 1 1 1 1 1 1 1 1 1 1 1 1 1 1 1 1 1 1 1 1 1 1 1 1 1 1 1 1 1 1 1 1 1 1 0.01306787922870388 0.008754808133269714 1 0.013491083282349206 0.01281706561928698 1 1 1 1 1 1 1 1 1 0.008911169978709832 0.011358857079308712 0.0093719361869531812 1 1 1 0.0099866988704804434 1 1 1 1 1 1 1 1 1 0.0085167711629869844 1 1 1 1 1 1 1 1 1 1 1 1 1 1 1 1 1 1 1 1 1 1 1 1 1 1 1 1 1 1 1 1 1 1 1 0.0099649773955288075 1 0.010026429856839721 1 1 1 1 1 1 1 1 1 1 1 1 1 1 1 1 1 1 1 1 1 1 1 1 1 1 1 1 1 1 1 1 1 1 1 1 1 1 1 1 1 1 1 1 1 1 1 1 1 1 1 1 1 1 1 1 1 1 1 1 1 1 1 1 1 1 1 1 1 0.010814115133131613 1 1 1 1 1 0.010331541707032051 1 1 1 1 1 1 1 1 1 0.010054684548844787 1 1 0.010199826660048606 1 0.010763680109570342 1 1 1 0.010815357634918756 1 1 1 1 1 0.010719684553274728 1 1 1 1 1 1 1 1 1 1 1 1 0.011720083247020938 1 1 1 0.010904725612102179 1 1 1 1 1 1 1 1 1 1 1 1 1 1 1 1 1 1 1 1 1 1 1 1 1 1 1 1 0.0082608698985777596 1 1 0.0091519337479130311 1 1 1 0.0095602277525248525 1 1 1 1 1 1 1 1 0.010570798761225412 1 1 1 1 1 1 1 1 1 1 1 1 1 1 0.0099302706745398005 1 1 0.0096540551269052345 1 1 0.015656910751324561 1 1 1 1 1 1 1 1 1 1 1 1 1 1 1 1 1 1 0.012095084754663425 1 1 1 1 1 0.014863630093430079 1 0.015663575176390988 1 1 1 1 1 0.011225124606579338 1 1 1 1 1 1 1 1 1 1 1 1 1 1 0.010849428705265068 1 1 1 1 1 1 0.013243334578402592 1 1 0.012262391158611144 1 1 1 1 1 1 1 1 1 1 1 1 1 1 1 1 1 1 1 1 0.010539860274894881 1 1 1 1 1 0.010564881007645618 1 0.011010758440275948 1 1 0.010601708399438498 1 0.011290903283791709 0.010381151196332417 1 1 1 1 0.010939222782284611 1 1 1 0.010445437750518344 1 1 0.010530478723411977 1 1 1 1 1 1 0.010435970422029022 1 0.01017334295819879 1 1 0.011035461090422275 1 1 1 1 0.011207433002531277 1 1 0.0098541947062934423 0.010431842045584654 1 1 1 1 1 1 1 1 1 0.010070397612247251 1 0.0099914414164772401 1 0.010782519461751204 0.010749517384633353 1 1 1 1 1 1 1 0.012588739644561994 0.0099077798429064706 1 1 0.0099779353153881169 1 1 1 0.010452492213418223 1 1 1 0.011226622040110677 1 1 1 1 1 1 1 1 1 1 1 1 1 1 1 1 1 1 1 1 1 1 1 1 1 1 1 1 0.0098758866519739613 1 1 1 1 1 1 1 1 1 0.010912701205592195 0.01064173477222724 1 1 1 0.012579309726990354 1 1 1 0.0088789205452481906 1 1 1 1 1 1 1 0.010135055631599953 1 1 0.0099427931580966591 1 1 0.011750805846987504 0.010537331043197236 1 1 0.012094459128369031 1 1 1 0.016798402132890806 0.012321992896391682 0.014037561432806683 1 1 0.013592208555714809 1 1 1 1 1 1 1 1 1 1 1 0.010100828389613403 1 1 0.010017785169831246 1 1 1 0.017080527887534204 1 1 0.0088075975968668774 1 0.0085702554228002936 1 1 1 1 0.010120239326505685 1 1 1 1 1 1 1 1 1 1 0.012973067434734437 1 1 0.013147588301758988 0.016990888263364069 1 0.010466603891404353 1 1 1 1 1 1 1 1 0.010146133120803291 0.01497966379944058 1 0.0098436237129822766 1 1 1 1 1 0.010027675319326985 0.0095558266783789918 1 1 1 1 1 1 0.014272058123487256 1 1 1 0.013387095172586926 1 1 1 1 1 1 0.0095924753452131771 1 0.012385917599439715 0.0099548922864834063 1 1 1 0.010040995589050309 1 1 1 1 1 1 0.010497071257857971 1 1 1 1 0.010121507699186606 1 0.010000987787761449 0.009466717392586723 1 1 1 1 1 0.012385231345676184 1 0.010201509576191885 1 1 0.010166328954918298 1 0.012690921057157438 1 1 1 1 1 1 1 1 1 0.010576686362583895 1 0.012237133179837996 1 0.010312699084032597 0.011513426949332493 0.011089405688325239 1 1 1 1 1 0.0099967281816100845 1 1 0.0099335417162017495 0.0092825924003503216 1 1 0.01231092771569293 1 1 1 1 1 1 1 1 1 1 1 1 1 1 1 1 1 1 1 1 1 1 1 1 1 1 0.010130233563196443 1 1 1 1 0.0099025717097950619 1 1 1 1 1 1 0.010319431985929769 1 1 1 1 1 0.010053227526646398 0.010238069153967865 1 1 0.010246838845345638 1 1 1 0.0091711099353494127 1 1 0.010013192246068517 0.011005458524326214 1 0.010776381666803544 1 1 1 1 1 1 1 0.0091920259922957034 0.010096669111374173 1 0.0093859897222717398 1 1 1 1 1 0.010317466649261701 1 1 1 1 1 1 1 1 1 1 1 1 1 1 1 1 1 1 1 1 1 0.010147666872956543 1 1 1 1 1 1 1 1 1 1 1 0.010491833326410842 1 1 1 0.010070145026750132 1 1 0.010362471131213358 1 0.010001327269768861 1 1 1 1 0.009976185549079997 0.010501456862322142 1 1 1 1 1 0.0099996615323258032 0.010362604488069315 1 1 1 1 0.0099233604065683614 1 1 1 1 1 1 1 1 1 1 1 1 1 1 1 1 1 1 1 1 1 1 1 1 1 1 1 1 1 1 1 1 0.0094226892120455839 1 1 1 0.010092284307761535 1 1 0.010770787142556108 1 1 0.010027496385791116 1 1 1 1 0.010835321988668337 1 1 1 1 1 1 1 1 0.01008232321403639 0.0099638046213044555 1 1 1 1 1 1 0.010015454983803313 1 1 0.010724617958854403 1 1 1 1 0.0102787128625126 1 1 1 0.010240891226000139 1 1 1 1 1 1 1 1 1 1 1 1 1 1 1 1 1 1 0.00945847305302395 1 1 0.012224146126173376 1 1 1 1 1 1 1 1 1 1 1 1 1 0.010031505915707563 0.011079759063954319 1 0.011351698997282894 1 1 1 1 1 1 0.01076769253981919 1 0.010386090650027017 1 1 1 1 0.010409135386616213 1 1 1 1 1 1 1 1 1 1 1 0.010228823228899279 1 1 1 1 1 1 1 1 0.010469714454899422 1 1 1 1 1 1 1 1 1 1 0.010443793427645034 1 1 1 0.011074982747401702 0.011251730619919889 1 1 1 1 1 1 1 1 1 1 1 1 1 1 1 1 1 1 1 1 1 1 1 1 1 1 1 1 1 1 1 1 1 1 1 1 1 1 1 1 1 0.0099880303112206362 1 1 1 1 0.01058965611488203 0.010324044715874512 1 0.0097385164292601509 1 0.010134316413800484 1 1 1 1 1 1 1 1 1 0.010382802268112876 1 1 0.010053667638066184 1 1 1 1 1 1 1 1 1 1 1 1 1 1 1 1 1 1 1 1 1 1 1 0.010367153817702628 1 1 1 1 1 1 0.010987695117865856 1 1 1 1 1 1 1 1 1 1 1 0.01644330741955213 1 1 0.01901902650179952 1 1 0.016196840729435273 0.0099911979581944373 1 1 1 0.013233272073455319 1 0.0090160439997898269 1 1 0.011150604210503703 0.010480158745515404 1 1 1 1 1 1 0.010040339338500249 1 1 0.012367063531561504 0.01284908352378893 1 0.015393389230856411 1 1 1 1 1 1 1 1 1 1 1 1 1 0.012018480386841064 1 1 1 1 1 1 1 1 1 1 1 1 1 1 1 1 1 1 1 1 1 1 1 1 1 1 1 1 1 1 1 1 1 1 1 1 1 1 1 1 1 1 1 1 1 1 1 1 1 1 1 1 1 1 1 0.0096615527911621778 1 1 1 1 1 1 1 1 1 1 1 1 1 1 1 1 1 1 1 1 1 1 1 1 1 1 1 1 1 1 1 1 1 1 1 1 1 1 1 1 1 1 1 1 1 1 1 1 1 1 1 0.011014433412830291 0.014817870467100428 1 1 1 1 1 1 1 1 1 1 1 1 1 1 0.015188505841577138 1 1 1 1 1 1 1 1 0.016586020790509054 1 1 1 1 1 1 1 0.010314543080523418 1 1 1 1 0.015914741457706216 1 1 0.014470203538575506 1 0.010746580152103242 1 1 0.010526926737473616 1 1 0.010432316488992019 1 1 1 1 1 1 1 1 1 1 0.015192071049449992 1 1 0.01624702385935415 1 1 1 1 1 0.011796540330886113 1 1 1 1 1 1 1 1 0.012587019720229844 1 0.010051659507067476 1 1 1 0.0099667350464675217 1 1 1 1 1 1 1 0.010310024374938767 1 1 1 0.010102159309706996 1 1 1 1 1 1 1 0.017094547352677045 1 1 0.018020316231827632 1 1 1 1 0.010034868445457808 1 1 1 1 0.010056284643126027 1 1 1 1 0.010290727045770309 1 1 1 0.010795778170327376 1 1 0.014423415214563376 1 1 1 1 1 0.013180186992684034 1 1 1 1 0.012607834527820147 1 1 0.01162696334588537 1 1 0.013249527246271054 1 0.012003117635974326 0.012629415202499389 1 1 1 1 1 0.012550057325390464 1 1 1 1 1 1 0.012372752469979955 1 1 1 0.0094444346743284991 0.013109987968557384 1 1 0.010701879397710832 1 1 0.011245019513050559 1 1 1 1 0.010254860022570858 0.010993542547171218 1 1 0.010358975972080209 1 1 1 1 1 1 1 1 1 1 1 1 1 1 1 1 1 1 1 1 1 1 1 1 1 1 1 1 1 1 1 1 0.01178163433684014 1 0.011482187396655252 1 1 1 0.010566044561222182 1 1 1 1 1 1 1 1 1 1 1 1 1 1 1 1 1 1 1 1 1 1 1 1 0.010602049187286237 1 1 1 1 1 1 1 1 1 1 1 1 1 1 1 0.015543954268964537 1 1 0.010221891756557876 1 0.012100586957501113 1 0.0099843412423439564 1 1 0.01008443516089644 1 1 1 0.012433232797799537 1 1 0.010007947829006474 1 1 0.010037650251600083 1 1 1 1 1 0.011645878248627109 1 1 1 1 1 1 1 1 1 1 0.010135572115854159 0.010331939669518383 1 1 1 1 1 1 1 1 1 0.011959856798471384 1 1 1 1 1 1 1 1 1 1 1 1 1 1 1 1 1 1 1 1 1 1 1 1 1 1 1 1 1 1 1 1 1 1 1 1 1 1 1 0.011330292951475945 1 1 1 0.016128708736026551 1 1 1 0.010533458317691775 1 0.013647348752425409 1 0.014135075092885068 1 1 1 0.010662858153036319 1 0.010701907645987975 1 1 1 1 1 1 0.013622054185434558 1 1 0.013560541618199686 0.013326836188484329 0.012399550468633256 1 1 0.013434905639442978 1 1 1 1 1 1 1 1 1 1 1 1 1 1 1 1 0.012156685005173848 1 1 1 0.01077072794783329 1 1 0.013739135777256134 0.011793455230728712 1 1 0.013615610995468855 0.010615766642163496 1 1 1 1 1 0.012714994959976841 1 1 1 1 1 1 0.010213790344412903 1 1 1 1 1 1 1 1 1 1 1 1 1 1 1 1 1 1 1 1 1 1 1 0.010371982332945284 1 1 1 1 1 1 1 1 0.010926297072846506 1 1 1 1 0.011198508579561504 1 1 1 1 1 1 1 1 1 0.011278760414751295 1 1 1 1 1 1 1 1 1 1 1 1 1 1 1 1 1 1 1 1 1 0.012992438180950232 1 1 0.013699105375095742 1 1 0.013523329174893314 0.011850889897799545 1 1 1 1 0.012672306679061003 1 1 1 1 1 0.010418715630210849 1 0.011192365325840403 1 1 1 1 1 1 1 1 1 1 1 1 1 1 1 1 1 0.011148561256595369 1 1 1 1 1 1 1 1 1 1 1 1 1 1 0.011955586350721092 1 1 1 1 1 1 1 1 1 1 1 1 1 0.010807025094125722 1 1 1 1 1 1 0.012280709549743111 1 1 1 1 0.0099993617484914095 1 1 1 1 1 1 1 1 1 1 1 1 0.013992018619942563 1 1 0.011170945884485764 1 0.013376269169007842 1 0.010835421442251154 1 1 0.011220959129051919 1 1 0.010003522789614494 1 1 0.010167878074383544 1 0.01239902061848841 1 1 1 1 1 1 0.0098611517413206267 1 1 0.014880026107040029 0.011652731731932845 1 1 1 0.0099099635652303963 0.014343069852249962 0.011958568619368443 1 1 0.0095020645877228697 1 1 1 1 1 1 1 1 0.017992268480735603 1 1 0.017821062457701511 1 1 1 1 1 0.011303886113112348 1 1 0.01597076011768556 1 0.01222823200652561 1 1 1 1 1 1 1 1 0.010003701027041486 1 1 1 1 0.0099622207230845479 0.010071451072589872 1 1 1 1 1 1 1 1 0.0098095535475873005 1 1 1 1 1 1 1 0.0088015733645170416 1 1 1 1 0.01130593324844726 1 1 1 1 1 1 1 1 1 0.01168861369545755 1 0.018191369756427614 1 1 0.018980770706679986 1 1 0.010083574917396594 1 1 1 1 1 1 0.019041427969590793 1 1 0.0098202886357136674 1 1 1 0.0099343912507508791 1 1 1 1 1 1 1 1 1 1 1 1 1 1 1 1 0.010551543394813661 1 1 1 1 1 1 1 1 1 1 1 1 1 1 1 1 0.011633103785046579 1 0.01189122041611685 1 1 1 1 1 1 1 1 1 1 1 1 1 1 1 1 1 1 1 1 1 1 1 1 1 1 1 1 0.010658026204362799 1 1 1 1 0.012495432912018635 1 0.011436322654897992 1 0.011164162422657675 1 1 0.012513695733525457 1 1 1 1 0.012160757956538289 0.013372790689917126 0.010011149013080423 0.0099739950261234361 1 1 1 1 1 0.010023512762971587 1 0.0099598710058888904 0.010094482382170138 0.01006723344093855 1 1 1 1 1 1 1 1 1 1 1 1 1 1 0.013240154556040554 1 1 1 1 1 1 1 0.010489120355467356 1 1 1 1 1 0.0099872945747865021 1 1 0.014884391305438517 0.013454556095285598 1 1 1 1 1 1 1 1 0.0099284881503340448 1 1 1 1 1 0.010211676001645978 1 1 1 1 1 1 1 1 0.010038520762209452 1 0.010412122231569523 1 1 0.012377122942569339 0.01325857849754331 1 1 1 1 0.0097930042421760823 1 1 1 1 1 1 1 0.010683295124341597 1 1 1 1 1 1 0.010004265763343023 1 1 1 1 1 1 0.01468694023564571 1 0.010578703791315508 1 0.013794996335984218 0.010349309984843723 1 1 0.0095936771576594203 0.00986347588779889 1 1 1 1 1 1 1 1 1 1 0.010579565204490174 1 1 0.011396653946397288 1 1 1 0.010421440839178073 1 1 1 1 0.0095617903748076872 0.010052056314102916 1 0.010198205781345546 1 1 1 1 1 1 1 1 1 1 1 1 1 1 1 1 1 1 1 1 1 1 1 1 1 1 1 1 1 1 1 1 1 1 1 1 1 1 1 1 1 1 1 1 1 1 1 1 1 1 1 1 1 1 1 1 1 1 1 1 1 1 1 1 1 1 1 1 1 1 1 1 1 1 1 1 1 0.01375838546411153 1 1 1 1 1 1 1 1 1 0.0099871803212977193 1 1 1 0.011334170728980941 1 1 0.011292812148890326 0.010562196801115215 1 1 1 0.011600397616837819 1 1 0.011762031123779968 0.011593705050917566 1 1 1 1 1 1 0.011442815770639398 1 1 0.014887197140952642 1 0.014606427820010509 1 1 1 0.010125319827758675 1 1 1 1 1 1 1 1 1 1 1 1 1 0.010014382372937541 1 0.011254347986904206 1 1 0.012099067614808459 1 0.010783852738752061 1 1 1 1 1 1 1 1 0.010579466086515459 1 1 1 1 1 1 1 1 1 1 1 1 0.011717977879430892 1 0.014067683886711115 1 1 1 1 1 1 1 1 0.0095407491793131696 1 1 1 0.016090828701084865 1 0.011549859173928799 1 0.010874526703779088 1 1 1 1 1 1 1 0.01737725716699692 0.016823023242309658 1 1 1 1 1 1 1 1 1 1 1 1 1 1 1 1 1 1 1 1 1 1 1 1 1 1 1 1 1 1 1 0.015164902969780906 1 1 1 1 1 0.024962469691726531 1 0.010017552083918056 1 0.009150340472374863 1 1 0.011938143086036012 1 0.010415741930854622 1 1 1 1 1 1 1 1 1 1 1 1 0.01147258201349113 1 1 1 1 1 1 1 1 1 1 1 1 1 1 0.0097445815682574103 1 1 1 1 1 1 1 1 1 0.013733905982397911 1 1 1 1 0.0098349443656364707 0.01501905171958858 1 1 0.012044088716984393 1 1 1 1 1 1 0.012035096564838057 1 1 1 1 1 1 1 1 1 1 1 1 1 1 1 1 1 1 1 1 1 1 1 1 1 0.0099726146665953981 1 0.0084426768491895551 1 0.010017052154400938 1 1 0.014161893267791431 1 1 1 1 1 1 1 1 1 1 1 1 1 1 1 1 0.015032693698357106 1 1 1 1 0.015330219956027461 1 1 1 0.01305527725523173 1 1 0.016373063001948573 1 1 1 1 1 0.011643078869057469 1 1 0.011137545498867453 1 1 1 0.011441314648624318 0.014364347945463988 1 1 1 1 0.011306007474278228 0.015440927963995973 1 1 1 0.011944445638299385 1 1 1 0.0099646003141373955 1 1 1 0.010948949406022148 1 0.010026906842304454 1 0.010793668740916435 1 1 1 1 1 1 0.010783073340754408 1 1 0.014939918369299386 0.0099185830034444703 1 0.010067651342492061 1 1 1 1 1 0.013149822290735561 1 1 1 1 1 1 0.013865052537496543 0.014152738043623575 1 1 1 1 0.010134884783430612 1 1 1 1 1 1 1 1 1 1 1 1 1 1 1 1 1 0.013010274414829428 1 1 1 1 0.012703949156348392 1 1 1 0.015402507909309283 0.01655063449311571 1 1 1 1 0.010584207164023482 1 0.014747208100797122 1 1 1 0.0099832233843828999 1 0.013443989816425543 1 1 0.014415399278109866 1 1 1 1 1 1 0.010044519461308726 1 0.010323499705714344 1 1 1 0.013660814311677929 1 1 1 1 1 0.011976740749972464 1 1 1 1 1 1 1 0.009958550566341054 1 1 1 1 0.010329759630273645 1 1 1 0.010960818720802934 1 1 1 1 1 1 1 1 0.011616532376868317 1 1 1 0.011241220255806915 1 1 1 1 1 0.009473868560820161 1 1 1 1 1 1 1 1 1 1 0.0099163640529811858 1 1 1 0.017479223334354678 1 1 1 1 1 1 0.011284141662845316 1 1 0.0089671106823315857 1 1 0.0083836843881199014 1 0.010003654395866651 0.013109565789104473 1 1 0.011667193727306178 0.012696178685565586 1 0.012846113346337163 1 1 0.012238253410695014 1 1 0.010792660246393644 1 0.0086962643039568549 1 0.010019443197245494 1 0.014186350211787612 1 0.0075939879627929235 1 0.014037850844181424 1 1 0.010024454395240606 1 0.0099043230765902875 1 1 1 1 0.011416137292172772 1 1 1 1 1 1 1 1 1 0.0091674356386796003 1 1 1 1 1 1 1 1 1 1 1 1 1 1 1 1 1 1 1 1 1 1 1 1 1 1 1 1 0.010809545621283848 0.0099120010770105006 1 1 1 1 1 1 1 1 1 1 1 0.009990814017145867 1 1 0.0099028803434514229 1 1 1 0.010290821369946829 1 1 1 1 1 1 1 1 1 1 1 1 1 1 1 1 1 1 1 0.010617751227189163 1 1 1 1 1 1 1 1 1 0.010814325440974638 1 1 1 0.010491765618304219 1 0.010164835761061891 1 1 1 1 1 1 1 1 0.010243110663222435 0.010033211598099293 1 1 1 1 1 0.0099912246794895999 1 1 1 1 1 1 1 1 0.010871727632294194 1 1 1 1 0.010479034509553828 1 1 0.0099998954874620776 0.0099358972506094177 1 0.011584789535878066 1 1 1 1 1 1 1 0.01129420463843292 1 1 0.0086713641951184275 1 1 0.012850861631830647 0.009749986001006232 1 1 1 1 1 1 1 1 1 1 1 1 1 1 1 1 1 1 1 1 1 1 1 1 1 1 1 1 1 1 1 1 1 0.01028516081360226 1 1 1 1 1 1 1 1 1 1 1 1 1 0.011352863282773447 0.010004283019358457 1 1 1 1 1 1 0.01007333725159848 1 1 1 1 1 0.010668821950309056 1 1 1 0.011243340014345786 1 1 0.011011670846875815 1 0.012635722059424835 0.011401664533932314 1 1 1 1 0.0099629157563372456 1 1 1 1 1 1 1 1 1 1 1 1 1 1 1 1 1 1 1 1 1 1 1 1 1 1 1 0.01214859108388236 1 1 1 1 0.0099885499073493322 1 0.013085740110006266 1 1 0.01001529841646559 1 1 1 1 0.01159256210048799 1 0.009999209733931461 1 1 1 1 1 1 1 1 0.010920134163558085 0.010366020220188902 1 1 1 0.0098923790948726026 1 1 1 1 1 1 1 1 1 1 1 1 1 1 1 1 0.010066027633260456 1 1 1 1 1 1 1 1 1 0.010002550476755429 1 1 1 1 1 1 1 1 1 1 1 1 1 1 1 1 1 1 1 0.012552725844220385 0.016058431466990111 1 1 1 0.0097762369093440642 0.012661598110587851 0.013885724810373926 1 1 1 0.010394436407645478 1 1 1 1 0.011395103957637751 1 1 1 1 1 1 1 1 0.012955253483364749 1 1 1 1 1 0.012848852566919809 1 1 1 1 1 1 1 1 1 1 1 1 1 1 1 1 1 1 1 1 0.010248720762339009 1 1 1 0.0098772903755472794 0.0099634253737177145 1 1 1 1 1 1 1 1 1 1 1 1 1 1 1 1 1 1 1 1 1 1 0.009942974996523038 1 1 1 1 1 1 1 1 0.0103773988583497 0.010159022201679684 1 1 1 1 1 1 1 1 1 1 1 1 1 1 1 1 1 1 1 1 1 1 1 1 1 1 1 1 1 1 1 1 1 1 1 1 1 1 1 0.011634110448851343 1 1 1 1 0.010725263697836206 1 1 1 1 1 1 1 1 1 1 1 1 1 1 1 1 1 1 1 0.011350883995697905 1 1 1 1 0.010184377566680267 1 1 1 1 0.010765828179196413 1 1 1 1 1 1 1 1 1 0.0116865305307011 1 1 0.010785983801796559 1 1 1 1 0.011635773557422331 1 1 1 0.010374853228050346 1 1 1 1 1 1 1 1 1 1 1 1 1 0.01010576023996357 1 1 1 0.011622609997492669 1 1 1 1 1 1 1 1 1 1 0.012205415492870925 1 1 1 1 1 1 1 1 1 1 1 1 1 1 1 1 1 1 1 1 1 1 1 1 1 0.010258882936987566 1 1 1 1 1 1 0.0097974426662197633 1 1 0.013432450473043809 1 1 1 1 0.010824616847648525 1 1 1 1 1 1 1 1 1 1 0.011472975255556121 1 0.01062622614024857 0.010154928570435777 0.010811539123407848 1 1 1 1 0.0088107181608233411 1 1 1 1 1 1 1 1 1 1 1 1 1 0.010139055726484074 1 0.014630706440832529 1 0.013750820732992358 1 1 1 1 0.012783079118807876 1 0.013950322809376001 0.015470940911486286 1 1 1 1 1 1 1 0.015121997962142152 1 1 0.015949385523261167 1 0.012332845517292326 1 1 0.01427633954878652 1 1 0.010000255673996941 1 1 0.014997796807727908 1 0.011322910587591882 1 1 0.012326612940317684 1 0.0090316853757547444 0.013000092546032471 1 1 0.010063477662926878 1 0.01057711611257456 1 1 0.011609605826358206 1 1 1 1 1 1 1 1 1 0.010880722912709312 1 1 1 0.010003924449169525 1 1 1 1 1 1 1 1 1 1 1 0.010029298675103659 1 1 1 1 1 1 0.010739789492736768 1 0.015175107230117422 1 1 1 0.010462234294007094 1 1 0.010511370611580161 0.012022154815838432 1 0.014800335548817354 1 1 1 1 0.013103397219065598 1 1 0.013181122127581655 1 1 0.012835954349831764 1 0.012104095877513021 1 1 0.015114915788779201 1 1 0.010355619620534461 0.011019886240601505 1 1 1 1 0.010490343852466128 1 1 0.010348368044660267 1 1 1 1 1 0.010769549494024148 0.014255185195187987 0.016853162259046324 1 0.01341856398732944 1 1 0.0098708591589422665 1 1 1 1 1 1 1 1 0.015073116253101227 1 1 1 1 1 1 1 0.010033563733740505 1 1 0.012664153921209037 1 1 1 0.0099767883012113843 1 1 1 1 0.010187447761518406 1 1 0.009989037561991352 1 0.010976214276948733 1 1 1 1 1 1 1 1 1 1 1 0.012110199300551851 1 1 1 1 1 1 1 1 1 1 0.0099801202270524362 1 1 1 0.010464693230981724 1 1 1 1 1 1 1 1 1 1 1 0.010572053234424268 1 1 0.010180860160584206 1 1 1 0.010099541856272749 1 1 0.010076252751345162 1 1 1 0.01004502422854401 1 1 1 1 1 1 1 1 1 1 1 1 1 1 1 1 1 1 1 1 1 1 1 1 1 1 1 1 1 1 1 1 1 0.010232170080015495 1 1 1 1 1 1 1 1 1 1 1 1 1 1 1 1 1 1 0.010437880231756352 1 1 1 1 1 0.010277245469463318 1 1 1 1 1 1 1 1 1 1 1 1 1 1 1 1 1 1 1 1 1 1 1 1 1 0.021444350931009548 1 0.0099702807136189311 1 0.017033364007992571 1 1 0.014019453153032248 1 1 1 1 1 1 0.017574529805011757 1 1 1 1 1 0.017726859264356569 1 1 1 1 0.012412868804844088 1 1 1 1 1 1 1 1 1 1 1 1 1 1 1 1 1 1 1 1 1 1 1 1 0.010019955739538518 1 1 1 1 1 1 1 1 1 1 1 1 1 1 1 1 1 1 1 1 1 1 1 1 1 0.02070978828449092 1 1 0.02279728435982728 1 1 1 1 1 1 1 1 0.018464016260192999 1 1 0.013411187209771082 1 1 1 1 1 0.011408367848703827 1 1 1 1 1 1 1 1 1 1 1 0.010046599823490092 1 1 1 1 1 1 0.009986721735293469 1 1 1 1 1 0.0099203036967730543 1 0.010941340422045052 1 1 1 1 1 1 1 1 1 1 1 1 1 1 1 0.01558235764838331 1 0.0093366339750962854 1 1 0.015870634212372094 1 1 0.0096942895787629213 0.015507095157735989 1 1 1 1 1 1 0.014068749686187307 1 1 1 0.014318917352342435 1 1 1 0.014621674424232064 0.010004220373115574 1 1 1 0.010727177644296565 1 0.01233166649363282 1 0.01715367705037138 1 1 1 0.010802554136246662 1 1 1 1 1 1 1 1 1 1 1 1 1 1 1 1 1 1 1 1 0.0099736308884973545 1 1 1 1 0.0099946472621190285 1 1 1 1 1 1 1 1 1 1 1 1 1 1 1 1 1 1 1 1 1 1 1 1 1 1 1 1 0.011558663952188618 1 1 1 1 1 1 0.011010643197312228 1 1 1 1 1 1 0.0099977507999668598 1 1 0.010040592282577625 1 0.011025092724862233 1 1 1 1 0.0099846673559536928 1 1 1 1 1 1 1 1 1 1 1 1 1 1 1 1 1 0.021917789543072917 1 1 1 0.0099803917221401375 1 1 0.017331056066027417 1 0.010014299175135905 0.009950319941256159 1 1 1 1 0.010494756538214446 1 0.017615751667496134 1 1 0.010692505882827989 1 1 1 1 1 0.0131452744105418 1 1 1 0.0094565108050341379 1 0.010000679987274533 1 0.010321802433061321 0.016140334114671792 1 1 1 1 1 1 0.016488100084285896 0.0099997895531530757 1 1 1 0.010140000026387333 1 1 1 1 0.011094639599012142 1 1 1 1 1 1 0.009490567222237449 1 1 1 1 1 1 1 1 1 1 1 1 0.010041934183467799 1 1 1 1 1 1 1 1 1 1 1 1 1 1 1 1 1 1 1 1 1 0.010019285239473288 0.017683045115661593 1 1 1 1 0.01566063999377354 1 1 0.022326077196131479 1 0.010014277184515622 1 1 1 1 1 1 1 1 0.022088709467460672 1 1 1 1 1 1 1 1 1 0.01020614206344396 1 1 1 1 1 0.010413807313816609 1 1 1 1 1 1 1 1 1 1 1 1 0.01020789207323048 1 1 1 1 1 1 1 1 0.010041945737895609 1 1 1 1 1 1 1 1 1 1 1 1 1 1 1 1 1 1 1 1 1 1 1 1 1 1 1 1 1 1 1 1 1 1 1 1 0.014494201130212096 1 1 1 0.014859414317206186 1 0.010204270798749041 1 1 0.010029913593293905 1 0.0089744989337721126 1 1 0.013724221391235383 1 1 0.013306713776858473 1 1 0.015036252148185086 1 0.011729650648982692 1 1 1 0.012817378625702173 1 0.010226578826244307 1 1 1 1 1 1 1 1 1 0.010188525853967425 1 1 1 0.0095518433835309023 1 1 1 1 1 1 1 1 1 1 1 1 1 0.01371955184170319 0.012518049883951029 0.0080185011829583125 1 0.0079423002208789985 1 1 1 1 1 1 1 1 1 1 1 1 1 0.009986870107609451 0.010675402509074512 1 1 0.015854610295411495 1 1 1 1 1 1 1 1 1 1 1 1 1 0.0099937479017685842 1 1 1 1 1 1 1 1 1 1 1 0.015435215215170406 1 1 1 1 1 1 1 1 1 1 0.0099896913989439909 1 1 1 1 1 1 1 0.009989427811364417 1 1 1 0.0099934843141890137 1 1 1 1 0.0096515871603973201 1 1 1 1 1 1 1 1 1 1 1 1 1 1 1 1 0.0097072574016777245 1 1 1 0.0099859721754412042 1 1 0.010796906436315406 1 0.0098039771666711024 1 1 1 1 1 1 1 1 1 1 1 1 1 1 1 1 1 1 1 1 1 1 1 0.010776767372020386 0.013870204393367037 1 0.010268447927307103 1 0.013889602480609877 1 1 1 1 0.0092315426219013851 1 1 1 1 1 1 1 1 1 1 1 0.012023441322038463 1 0.010173580487405114 1 1 0.013656579091001002 1 0.0099952445441025221 1 1 1 1 1 1 1 0.011407303085333163 1 1 1 1 1 1 0.012287143490041053 1 1 1 1 1 0.013217449061254848 1 1 1 1 1 1 1 1 1 1 1 1 1 0.012887961234858815 1 1 1 0.016351944742843738 1 1 1 1 0.014893747883663407 1 1 1 1 1 1 1 1 1 1 1 1 1 1 1 1 1 0.013698198596029047 0.013360586653882928 1 1 1 1 1 1 1 1 1 1 1 1 1 1 1 1 1 1 1 1 1 1 1 1 1 1 0.0099565867509087882 1 0.016459139347860204 0.016232021954866713 1 1 1 1 1 0.015201451011166113 0.0099966866133347435 1 1 0.010009826207490904 1 1 1 1 1 1 1 1 1 1 0.0099128702755453824 0.017642623853117528 1 1 1 1 1 1 1 0.015091442640800035 1 1 1 1 1 0.012898837004705916 1 1 1 1 1 0.011833693897612022 1 1 1 1 1 1 1 1 0.0098738272131264019 1 1 1 1 1 1 1 1 1 1 1 1 1 1 1 1 1 1 0.0095763351092330272 1 1 1 1 1 1 1 0.018732086396303423 1 1 1 1 0.01978147817993918 1 1 1 1 1 1 1 1 1 1 1 1 1 1 0.020777617010659839 1 1 1 1 1 1 1 1 1 0.0099696001332745428 1 0.014944628182889285 1 1 1 1 1 1 1 1 1 1 0.016919301333710616 1 1 1 1 1 1 1 1 1 1 1 0.010322513339477956 1 1 1 1 1 0.01094740222670874 1 0.010505347807992794 1 0.015104384686847291 1 1 0.0091750371148409168 0.016046399648321545 1 0.0099745922859217212 1 0.011324207425418203 1 0.016794744995921762 1 1 1 1 1 1 1 1 1 1 0.0095900111631115666 1 1 1 1 1 0.010979191485923794 1 1 1 1 1 0.011414916620657037 1 1 1 1 1 1 1 1 0.011495876861342734 1 1 1 1 1 0.0087152472142693234 1 1 1 1 1 1 1 1 1 1 1 1 1 1 1 1 1 0.013558765883588552 0.011808864740158957 1 1 1 1 1 0.014283469313779072 1 1 1 1 1 1 1 1 0.01298539628547676 1 1 1 1 1 1 1 1 1 1 1 1 1 0.013268381564770886 0.013977381825947315 1 1 1 1 1 1 1 1 1 1 1 1 0.010107734746276624 1 1 1 1 1 1 1 1 1 1 1 1 0.010228889530626683 1 1 1 0.010121154784350071 1 1 1 0.0096947876797691488 0.016553890412882667 1 1 1 1 1 1 0.0061991684125155024 1 1 1 1 1 1 0.013864397535954467 1 1 1 1 1 1 1 1 1 1 1 1 1 0.0099770774700660338 0.01187421244688918 1 0.01012621088598133 1 0.011770474964668523 1 1 1 1 1 1 1 1 1 1 1 1 1 1 1 1 1 1 1 1 1 1 0.0099580412867515747 1 1 1 1 1 1 1 1 1 1 1 1 1 1 0.0098311473008433348 0.009981697191102569 1 1 1 1 1 1 1 1 1 1 1 1 1 1 1 1 1 0.014248691658656772 1 1 0.011415419305329501 1 1 1 1 0.012948989958956506 1 1 1 0.011142891785287094 1 1 1 1 1 1 1 1 1 1 1 1 1 0.013162501660859888 1 1 1 1 1 1 1 1 1 0.010498067398660341 1 1 1 0.010951645022070335 1 1 1 1 0.011485697393525313 0.010157477813320305 1 1 1 0.010011346910151403 1 1 1 1 1 1 1 1 1 0.010063651941430975 1 1 1 0.011354325177026229 1 0.0099973016961040634 1 1 1 1 1 1 1 1 1 1 1 1 1 1 1 1 0.0097732028730974137 1 1 1 1 1 0.011356403487190476 1 1 1 1 1 1 1 1 1 1 0.016766123281595373 1 1 0.0098515801501373804 1 1 0.0086036405350101899 1 1 1 1 1 1 1 1 1 1 0.0093791797340838333 1 1 1 0.012816993395995055 1 0.0077875816029452215 1 1 1 0.013219579406824998 1 0.010014256819994214 1 0.011131472626070459 1 1 1 1 1 0.014413110123679681 0.012626034480819054 1 1 1 1 1 1 1 1 1 1 1 1 0.010935946246470245 1 1 1 1 1 1 0.0096562956406082995 1 1 1 1 1 1 1 1 1 1 1 1 1 1 0.0097895756324946105 1 1 0.011528982081650173 1 1 1 1 1 1 1 1 1 1 1 1 1 1 1 1 1 1 1 1 1 1 1 1 1 0.014317358264610908 1 1 1 1 0.0088336602971571913 1 1 1 0.0095283263529840033 0.0098998843932789488 1 1 1 1 1 1 1 1 1 1 1 1 1 1 1 1 1 1 1 1 1 1 1 1 1 1 1 1 1 1 1 1 1 0.011416043231551147 1 1 1 0.011897148958648277 1 1 0.014831938961107089 1 1 1 1 1 0.011485510447519352 1 1 1 1 1 0.010468050164821883 1 1 1 1 1 1 1 0.014791200884581657 1 1 1 1 1 1 1 0.0098497603699718404 1 1 0.010031763620699231 1 1 1 0.015002054855505858 1 0.012500946734653854 1 1 1 1 1 1 1 1 0.015821138351967919 1 1 0.016272165375133353 1 1 1 1 1 0.010254550845122671 1 1 1 1 1 1 1 1 1 1 1 1 0.014709117086024577 1 0.011352839136361825 1 1 1 1 1 1 0.012070062271495872 1 1 1 1 1 1 1 1 0.014494608833987611 1 1 0.010122953204417452 1 1 1 1 0.014978014786704687 1 1 1 1 1 1 1 1 1 1 0.010213681198882786 1 0.0095065145750251392 1 1 1 1 1 1 1 1 1 0.01361299671402757 1 1 1 1 0.012568917887155504 1 1 1 1 1 1 1 1 1 1 1 1 1 1 1 1 1 0.010901555645897013 1 1 1 1 1 1 1 1 1 1 1 1 0.010309179245099168 1 1 1 1 1 1 1 1 1 1 1 1 1 1 1 0.010410302702034047 1 1 1 1 1 1 1 1 1 1 1 1 1 1 1 1 1 1 1 1 1 1 1 1 0.013790420938520587 1 1 1 1 1 1 1 1 1 1 1 1 1 0.015840381750686094 1 1 1 1 1 1 0.010538389548202277 1 1 1 1 1 1 1 1 0.010637983303542415 1 1 0.011228935372096391 1 1 1 1 1 1 0.010590952068553976 1 1 1 1 1 1 1 1 1 1 1 1 0.011256639036875233 1 1 1 1 1 0.010211034125188322 1 1 1 1 1 1 0.010702287069051295 1 1 1 1 0.010330122162894344 1 1 1 1 1 1 1 1 0.01061402378998535 1 1 1 0.0099247662976799031 0.010801038201858302 1 1 1 1 1 1 1 1 1 1 1 1 1 1 1 1 1 1 1 1 1 1 1 1 1 1 1 1 1 1 1 1 1 1 1 1 1 1 1 1 1 1 1 1 0.0095002945838847212 1 1 1 1 0.0096229017085265392 1 1 1 1 1 1 0.008831005122246733 1 1 1 1 1 1 1 1 1 1 1 1 0.016731983647599792 1 1 1 0.0085519971445612766 1 1 0.016021620451731153 0.0099939119131293719 1 1 1 1 1 1 1 1 1 0.01495462590394335 1 1 0.02171339396791654 0.0099822396665382607 1 1 0.014329298001626765 1 0.014548796934063987 1 0.015315501942485998 1 1 1 1 0.010726984826515894 1 0.016473945202617041 1 1 1 1 1 1 1 1 1 1 1 1 1 1 1 1 1 1 1 1 1 1 1 1 1 1 1 1 0.010243162506582359 1 1 1 1 0.0099976617058398325 1 1 1 1 1 1 0.010233771450222553 0.010282679780781239 1 1 1 1 1 1 1 1 1 1 1 1 1 1 1 1 1 1 1 1 1 1 1 1 1 1 1 1 1 1 0.010219991232514219 1 1 0.0098719043681598402 1 1 1 0.010051530797614516 0.010010141547019531 1 1 1 1 0.014829627654482683 1 1 1 0.0092890082517131881 1 1 1 1 0.012018674289248802 1 0.014494785563293809 0.012671923562174191 0.011118212602614631 0.013291162348321244 1 1 1 1 1 1 1 1 0.014796186710989648 1 1 0.012156960708727734 1 1 1 0.014248598065726535 0.016307907018664292 1 1 1 1 1 0.016356803571980418 0.010000067095379104 0.0099558349397701994 1 1 1 1 0.015881968520289655 1 0.013491160071188297 1 1 1 1 1 1 1 1 1 1 1 1 0.013628287796113078 1 1 1 1 1 1 1 0.014700700445815239 1 1 1 1 1 1 1 1 1 1 1 1 1 1 1 0.0088369545954318368 1 1 1 1 1 1 1 1 1 1 1 1 1 1 0.016300701543081875 1 1 1 0.01688938662908028 1 1 1 1 0.017413965169894009 1 1 1 0.011011652283156403 1 1 1 0.01009555528627422 1 1 1 1 1 0.01105745506110745 0.015934495090210256 1 0.01009386658351709 1 0.011060476428607751 1 1 1 1 1 1 1 1 1 1 1 1 1 0.018089022533614905 0.0099584616233872447 1 1 1 1 1 1 1 1 0.0098116900318402783 1 1 1 1 1 1 0.014276948873531743 0.014077077027803264 0.0086772009634612356 1 1 0.011049701124864272 1 1 1 1 0.010866418727670609 1 1 1 0.018711022020051891 1 0.017883100833284048 1 1 1 1 1 1 1 1 1 1 1 1 1 1 1 1 1 1 1 1 1 1 1 1 1 1 1 0.011657785654529147 1 1 1 1 1 1 1 0.018068911736896339 1 1 1 1 1 1 1 1 0.010103583128260797 1 0.010289230926022488 0.011445233793335946 1 1 1 1 0.012517071746542836 1 1 0.010567958784912408 1 1 1 1 1 1 1 1 1 1 0.010205611369231699 1 1 1 1 1 1 1 1 1 1 0.01057815356294863 1 1 1 0.010197534211908917 1 1 1 1 1 1 1 0.01038241648450843 0.010377056040473273 1 1 1 0.011347518047978684 1 1 0.010331946094204915 0.010215330226802162 1 0.015498049094559162 1 1 1 1 1 0.010948742217483128 1 1 0.010274812873225934 1 1 1 1 1 1 0.011534962416911416 0.012254517920612213 1 1 1 1 1 1 1 0.012826203984853925 1 1 1 0.01779501995482459 1 1 1 1 1 1 1 1 1 1 1 1 1 1 1 1 1 1 1 1 1 1 1 0.016266077319012584 1 1 1 0.017579587916663461 1 1 1 1 1 1 1 0.010864299655926241 1 1 1 1 1 1 1 0.010079965308443855 1 1 1 1 1 1 1 1 0.013988004853728489 1 1 1 1 1 0.0064208608526626076 1 1 1 0.010282366022772492 1 1 1 1 1 0.010133000317995567 1 1 1 1 1 1 1 1 1 1 1 1 1 1 1 1 1 1 1 1 1 1 1 1 1 1 1 1 1 1 1 1 1 1 1 1 1 1 1 1 1 1 0.010139938792375581 1 0.010131639768536359 1 1 1 1 1 0.010853083667728563 1 1 1 0.010046541342263913 1 1 1 1 1 1 0.01131421241937444 1 1 1 1 1 1 1 1 0.010737990598317985 1 1 1 0.0098601027169061342 1 1 1 1 1 1 1 1 1 1 1 1 1 0.0094818560338353342 1 0.010406948565787064 1 1 1 1 1 1 1 1 1 1 1 1 1 0.011894686646065843 1 1 1 1 1 1 1 1 1 1 1 1 1 1 1 0.013604043599210053 1 1 1 1 1 0.0099059650015544815 1 1 1 1 1 0.014565184478600285 1 1 0.011133465189620008 1 1 1 1 1 1 1 1 1 1 1 1 0.011139268317462888 1 1 1 0.010002509528050964 1 1 0.0092205236465269149 1 1 1 1 1 1 0.015403124223042762 1 1 1 1 1 0.011223555486519808 1 0.01121673722828107 1 1 1 0.011198316452773794 1 1 0.009716842680671205 1 1 1 1 1 1 0.01041497894055677 1 1 0.01102049774841804 1 1 1 1 1 1 0.015184652471249106 1 0.010054308141547123 1 1 1 0.014209785164895386 1 1 0.012972838712855586 1 1 1 1 1 1 1 1 1 1 1 1 1 1 0.01148365066095525 1 1 1 1 1 1 1 1 0.010025644174791026 1 1 1 1 1 0.0082167230446468648 0.011928862336522898 1 1 1 1 1 1 0.01071873805051906 1 1 1 1 1 1 1 1 1 1 1 1 1 0.014129270270672491 1 1 1 1 1 1 1 0.0085615473396520436 0.015798812460019289 1 1 0.010018269349188841 1 1 1 1 1 1 1 1 1 1 1 0.010645089791058009 1 1 0.013197882292664798 1 1 1 0.010233054616259785 1 0.011134441389959686 1 1 1 1 1 1 1 1 1 1 1 1 1 1 1 1 0.014752462055997046 1 1 1 1 1 1 1 0.012167518013749341 1 1 0.012389961099491396 1 1 1 0.0138055801531676 1 1 1 1 1 1 1 1 1 1 0.011476397783610547 1 1 1 1 1 0.010490634466544196 1 1 0.016301368035391697 1 1 1 1 1 1 1 1 1 1 1 1 0.015366551063627833 1 1 0.010265854389091252 1 1 1 1 1 0.011092928472932419 1 1 1 1 1 1 1 0.0098160871194805793 1 1 1 0.010460904306378886 0.012186542141047961 1 1 1 1 1 1 0.011421880719353898 1 1 1 1 1 1 1 1 1 1 0.011176998999410749 1 1 1 0.010044301405997571 0.0089808919263425387 1 1 1 1 1 1 1 1 1 1 1 1 1 1 0.010016796886331007 0.008934235522204171 1 1 1 1 0.0093295593381569411 1 1 1 1 1 1 0.013749608268749445 0.012227249817550953 1 0.016498733206118978 1 1 1 0.0083969396704680795 1 1 1 1 1 0.011222796321880774 1 0.0090567943922114889 1 1 1 1 1 1 0.01041665584015705 1 1 1 1 0.012259918578034469 1 1 1 0.010813124683464952 1 1 1 1 1 1 1 1 1 1 1 1 1 1 1 1 0.0094335837252939383 1 1 0.0081467109552624956 1 1 1 1 1 1 1 1 1 1 1 1 1 0.010022259161439956 1 1 1 1 0.0099558696174646896 1 1 1 1 0.013064549018870407 1 1 1 1 1 1 1 0.011182109547912263 1 1 0.011632007943875502 1 1 1 1 1 1 1 1 1 1 1 0.014290751210085315 1 1 1 0.0098082254115848672 1 1 1 1 1 0.0098905913821991619 1 1 0.012780673392205366 0.0088467857272528441 1 1 0.010510846160545881 1 1 1 1 1 0.012766862421876796 1 1 1 0.0086209472348083745 0.010793634257997432 1 1 0.010942475290094816 1 0.0080365801744587927 1 1 0.0097873952049442915 1 1 0.010824098197094959 1 1 1 1 0.0097923051594597885 1 1 1 0.011663369557813066 1 0.0094058691442426845 1 1 1 1 1 1 1 1 1 1 0.0097881180815717339 1 1 0.010008869804723883 1 1 0.011925848394012797 1 1 1 1 0.013555115395838622 1 1 0.013283592255439966 1 1 0.010000561721452977 1 1 1 0.01382016831627998 1 1 1 1 0.010735833015332222 1 1 1 1 1 1 1 0.0099271774971357793 1 1 1 1 1 1 1 1 0.0089865087561741032 1 1 1 1 1 1 1 0.009871552795941884 1 1 1 1 1 1 1 1 1 1 1 1 1 1 1 1 1 1 1 1 1 1 0.0097718500431038871 1 1 1 1 1 1 1 1 1 1 1 1 0.011054334041867859 1 1 1 1 1 1 0.010381337265557228 1 1 0.012600216177663524 1 0.013459683483785879 1 1 1 1 1 1 1 1 1 1 1 1 1 1 0.014606547904528866 1 1 1 1 0.013671018904303708 1 1 1 0.008977675776282848 1 1 1 1 1 0.01776843249559043 1 1 1 1 0.010484602928960213 1 1 1 0.0098660924530313485 1 1 1 1 1 1 1 1 1 1 1 1 1 1 1 1 1 1 0.010943031272030329 1 1 0.011702237711169391 1 1 1 1 1 1 1 1 1 1 1 1 1 0.021407795112795558 1 1 0.0095722800679676548 1 1 1 1 1 1 1 1 1 1 0.01147984474292805 1 1 0.016428223443502865 1 1 0.017355702886986776 1 1 1 1 1 1 1 1 1 1 1 1 1 1 1 1 1 1 1 1 1 0.0097723064042663354 1 1 1 1 1 1 1 1 1 1 1 1 1 1 1 1 1 1 1 1 1 1 1 1 1 1 1 1 1 1 1 1 1 1 1 1 1 1 1 1 1 1 1 1 0.01615794613952997 1 1 0.0094080021598131613 1 1 1 1 1 1 1 1 1 1 1 1 1 1 1 1 1 1 
</DataArray>
</CellData>
</Piece>
</UnstructuredGrid>
</VTKFile>
