<?xml version="1.0"?>
<VTKFile type="UnstructuredGrid" version="0.1" byte_order="LittleEndian">
<UnstructuredGrid>
<Piece NumberOfPoints="31898" NumberOfCells="11152">
<Points>
<DataArray type="Float64" NumberOfComponents="3" format="ascii">
-0.5 -0.5 0 -0.47620991077874902 -0.44978878706170539 0 -0.49999999999999473 -0.42132396840504388 0 -0.5 -0.5 0 -0.47160970827802529 -0.4793630013852106 0 -0.47620991077874902 -0.44978878706170539 0 -0.5 -0.5 0 -0.47160970827802529 -0.4793630013852106 0 -0.44860394795025399 -0.5 0 -0.47160970827802529 -0.4793630013852106 0 -0.44860394795025399 -0.5 0 -0.4490820238307246 -0.45820516232899983 0 -0.44860394795025399 -0.5 0 -0.4490820238307246 -0.45820516232899983 0 -0.42881687682924802 -0.47781464288736519 0 -0.4490820238307246 -0.45820516232899983 0 -0.45555437223955858 -0.42914059360647611 0 -0.4490820238307246 -0.45820516232899983 0 -0.45555437223955858 -0.42914059360647611 0 -0.43867285131603428 -0.4271457417558665 0 -0.4490820238307246 -0.45820516232899983 0 -0.43867285131603428 -0.4271457417558665 0 -0.4263356171060747 -0.44269880333887462 0 -0.47160970827802529 -0.4793630013852106 0 -0.4490820238307246 -0.45820516232899983 0 -0.47620991077874902 -0.44978878706170539 0 -0.4490820238307246 -0.45820516232899983 0 -0.47620991077874902 -0.44978878706170539 0 -0.45555437223955858 -0.42914059360647611 0 -0.47620991077874902 -0.44978878706170539 0 -0.48101336032419229 -0.41069999664450008 0 -0.45555437223955858 -0.42914059360647611 0 -0.47620991077874902 -0.44978878706170539 0 -0.49999999999999473 -0.42132396840504388 0 -0.48101336032419229 -0.41069999664450008 0 -0.49999999999999473 -0.42132396840504388 0 -0.48101336032419229 -0.41069999664450008 0 -0.5 -0.393886241813306 0 -0.49999999999999473 -0.42132396840504388 0 -0.48101336032419229 -0.41069999664450008 0 -0.5 -0.393886241813306 0 -0.47854472220918332 -0.38978458738689759 0 -0.48422759779560409 -0.37130120630367158 0 -0.5 -0.393886241813306 0 -0.5 -0.36644851522156802 0 -0.48422759779560409 -0.37130120630367158 0 -0.48101336032419229 -0.41069999664450008 0 -0.5 -0.393886241813306 0 -0.47854472220918332 -0.38978458738689759 0 -0.48101336032419229 -0.41069999664450008 0 -0.47854472220918332 -0.38978458738689759 0 -0.46202672064839212 -0.40007602488395211 0 -0.48101336032419229 -0.41069999664450008 0 -0.46202672064839212 -0.40007602488395211 0 -0.47854472220918332 -0.38978458738689759 0 -0.46725442735267431 -0.37660061361585562 0 -0.46202672064839212 -0.40007602488395211 0 -0.47854472220918332 -0.38978458738689759 0 -0.46725442735267431 -0.37660061361585562 0 -0.48422759779560409 -0.37130120630367158 0 -0.46725442735267431 -0.37660061361585562 0 -0.46202672064839212 -0.40007602488395211 0 -0.46725442735267431 -0.37660061361585562 0 -0.45645674801697989 -0.38644133236760531 0 -0.46202672064839212 -0.40007602488395211 0 -0.46725442735267431 -0.37660061361585562 0 -0.45645674801697989 -0.38644133236760531 0 -0.4540003998136638 -0.37455519391687309 0 -0.45645674801697989 -0.38644133236760531 0 -0.46202672064839212 -0.40007602488395211 0 -0.44257020456291563 -0.38918913383950271 0 -0.46202672064839212 -0.40007602488395211 0 -0.44257020456291563 -0.38918913383950271 0 -0.44727608925983742 -0.41095911152778891 0 -0.46202672064839212 -0.40007602488395211 0 -0.44257020456291563 -0.38918913383950271 0 -0.44257020456291563 -0.38918913383950271 0 -0.44727608925983742 -0.41095911152778891 0 -0.43479358559901082 -0.4041454901736512 0 -0.44257020456291563 -0.38918913383950271 0 -0.4540003998136638 -0.37455519391687309 0 -0.44172858264042247 -0.37082207246888088 0 -0.45645674801697989 -0.38644133236760531 0 -0.44257020456291563 -0.38918913383950271 0 -0.4540003998136638 -0.37455519391687309 0 -0.46202672064839212 -0.40007602488395211 0 -0.45555437223955858 -0.42914059360647611 0 -0.44727608925983742 -0.41095911152778891 0 -0.46202672064839212 -0.40007602488395211 0 -0.45555437223955858 -0.42914059360647611 0 -0.48101336032419229 -0.41069999664450008 0 -0.46202672064839212 -0.40007602488395211 0 -0.45555437223955858 -0.42914059360647611 0 -0.44727608925983742 -0.41095911152778891 0 -0.43867285131603428 -0.4271457417558665 0 -0.43676601469929588 -0.41441201227470881 0 -0.44727608925983742 -0.41095911152778891 0 -0.43676601469929588 -0.41441201227470881 0 -0.43479358559901082 -0.4041454901736512 0 -0.45555437223955858 -0.42914059360647611 0 -0.44727608925983742 -0.41095911152778891 0 -0.43867285131603428 -0.4271457417558665 0 -0.43867285131603428 -0.4271457417558665 0 -0.42681803064840879 -0.42717069814352421 0 -0.4263356171060747 -0.44269880333887462 0 -0.42681803064840879 -0.42717069814352421 0 -0.41531815884496182 -0.42985383783075998 0 -0.4263356171060747 -0.44269880333887462 0 -0.42681803064840879 -0.42717069814352421 0 -0.42624289495594048 -0.42089725947505818 0 -0.42083332353326591 -0.42146747131641099 0 -0.42681803064840879 -0.42717069814352421 0 -0.43096994786351572 -0.41951492446283251 0 -0.42624289495594048 -0.42089725947505818 0 -0.43867285131603428 -0.4271457417558665 0 -0.42681803064840879 -0.42717069814352421 0 -0.43096994786351572 -0.41951492446283251 0 -0.43867285131603428 -0.4271457417558665 0 -0.43676601469929588 -0.41441201227470881 0 -0.43096994786351572 -0.41951492446283251 0 -0.43676601469929588 -0.41441201227470881 0 -0.43096994786351572 -0.41951492446283251 0 -0.42907264086257813 -0.41311715872526122 0 -0.43676601469929588 -0.41441201227470881 0 -0.42907264086257813 -0.41311715872526122 0 -0.43479358559901082 -0.4041454901736512 0 -0.42907264086257813 -0.41311715872526122 0 -0.43479358559901082 -0.4041454901736512 0 -0.42460885511582858 -0.40417321677700252 0 -0.42907264086257813 -0.41311715872526122 0 -0.41997834854398469 -0.41180534796019508 0 -0.42907264086257813 -0.41311715872526122 0 -0.42635027777857132 -0.41543594397746519 0 -0.41997834854398469 -0.41180534796019508 0 -0.42907264086257813 -0.41311715872526122 0 -0.41997834854398469 -0.41180534796019508 0 -0.42460885511582858 -0.40417321677700252 0 -0.42635027777857132 -0.41543594397746519 0 -0.41997834854398469 -0.41180534796019508 0 -0.42635027777857132 -0.41543594397746519 0 -0.42083332353326591 -0.42146747131641099 0 -0.41997834854398469 -0.41180534796019508 0 -0.43096994786351572 -0.41951492446283251 0 -0.42624289495594048 -0.42089725947505818 0 -0.42635027777857132 -0.41543594397746519 0 -0.43096994786351572 -0.41951492446283251 0 -0.42907264086257813 -0.41311715872526122 0 -0.42635027777857132 -0.41543594397746519 0 -0.42624289495594048 -0.42089725947505818 0 -0.42635027777857132 -0.41543594397746519 0 -0.42083332353326591 -0.42146747131641099 0 -0.42083332353326591 -0.42146747131641099 0 -0.41997834854398469 -0.41180534796019508 0 -0.40992282953163789 -0.42011435591993562 0 -0.41997834854398469 -0.41180534796019508 0 -0.39756877647335259 -0.40857286797681719 0 -0.41997834854398469 -0.41180534796019508 0 -0.40992282953163789 -0.42011435591993562 0 -0.39756877647335259 -0.40857286797681719 0 -0.40992282953163789 -0.42011435591993562 0 -0.41531815884496182 -0.42985383783075998 0 -0.39591554026262499 -0.42887225451549271 0 -0.41531815884496182 -0.42985383783075998 0 -0.39591554026262499 -0.42887225451549271 0 -0.41160927495564159 -0.44339431233754628 0 -0.42083332353326591 -0.42146747131641099 0 -0.40992282953163789 -0.42011435591993562 0 -0.41531815884496182 -0.42985383783075998 0 -0.42681803064840879 -0.42717069814352421 0 -0.42083332353326591 -0.42146747131641099 0 -0.41531815884496182 -0.42985383783075998 0 -0.44257020456291563 -0.38918913383950271 0 -0.42311368847744002 -0.37830224279505142 0 -0.42594061475171041 -0.39368797999533162 0 -0.44257020456291563 -0.38918913383950271 0 -0.42311368847744002 -0.37830224279505142 0 -0.44172858264042247 -0.37082207246888088 0 -0.44257020456291563 -0.38918913383950271 0 -0.42311368847744002 -0.37830224279505142 0 -0.42311368847744002 -0.37830224279505142 0 -0.42594061475171041 -0.39368797999533162 0 -0.416587075656149 -0.38785930376960043 0 -0.44257020456291563 -0.38918913383950271 0 -0.42594061475171041 -0.39368797999533162 0 -0.43479358559901082 -0.4041454901736512 0 -0.42594061475171041 -0.39368797999533162 0 -0.43479358559901082 -0.4041454901736512 0 -0.42460885511582858 -0.40417321677700252 0 -0.41997834854398469 -0.41180534796019508 0 -0.41325908582185972 -0.39811010703057192 0 -0.39770572831670092 -0.39911486077581648 0 -0.41997834854398469 -0.41180534796019508 0 -0.39770572831670092 -0.39911486077581648 0 -0.42594061475171041 -0.39368797999533162 0 -0.42460885511582858 -0.40417321677700252 0 -0.41325908582185972 -0.39811010703057192 0 -0.41997834854398469 -0.41180534796019508 0 -0.42460885511582858 -0.40417321677700252 0 -0.41325908582185972 -0.39811010703057192 0 -0.42594061475171041 -0.39368797999533162 0 -0.41325908582185972 -0.39811010703057192 0 -0.416587075656149 -0.38785930376960043 0 -0.41325908582185972 -0.39811010703057192 0 -0.416587075656149 -0.38785930376960043 0 -0.40403491357358612 -0.38133688525744702 0 -0.42311368847744002 -0.37830224279505142 0 -0.40403491357358612 -0.38133688525744702 0 -0.40365717239196519 -0.36741535175059892 0 -0.42311368847744002 -0.37830224279505142 0 -0.416587075656149 -0.38785930376960043 0 -0.40403491357358612 -0.38133688525744702 0 -0.40403491357358612 -0.38133688525744702 0 -0.39190790742475001 -0.38540387676521748 0 -0.39770572831670092 -0.39911486077581648 0 -0.40403491357358612 -0.38133688525744702 0 -0.39190790742475001 -0.38540387676521748 0 -0.3904578797192948 -0.37473938743617019 0 -0.41325908582185972 -0.39811010703057192 0 -0.40403491357358612 -0.38133688525744702 0 -0.39770572831670092 -0.39911486077581648 0 -0.39770572831670092 -0.39911486077581648 0 -0.37543310808941849 -0.38642437359143528 0 -0.39770572831670092 -0.39911486077581648 0 -0.37515920440272033 -0.40534038799344108 0 -0.37543310808941849 -0.38642437359143528 0 -0.39770572831670092 -0.39911486077581648 0 -0.37515920440272033 -0.40534038799344108 0 -0.39756877647335259 -0.40857286797681719 0 -0.37515920440272033 -0.40534038799344108 0 -0.37543310808941849 -0.38642437359143528 0 -0.37543310808941849 -0.38642437359143528 0 -0.3904578797192948 -0.37473938743617019 0 -0.37568304780698558 -0.36916333065311507 0 -0.39190790742475001 -0.38540387676521748 0 -0.37543310808941849 -0.38642437359143528 0 -0.3904578797192948 -0.37473938743617019 0 -0.37543310808941849 -0.38642437359143528 0 -0.37568304780698558 -0.36916333065311507 0 -0.39190790742475001 -0.38540387676521748 0 -0.39770572831670092 -0.39911486077581648 0 -0.37543310808941849 -0.38642437359143528 0 -0.41997834854398469 -0.41180534796019508 0 -0.39770572831670092 -0.39911486077581648 0 -0.39756877647335259 -0.40857286797681719 0 -0.40992282953163789 -0.42011435591993562 0 -0.39591554026262499 -0.42887225451549271 0 -0.39756877647335259 -0.40857286797681719 0 -0.37515920440272033 -0.40534038799344108 0 -0.39591554026262499 -0.42887225451549271 0 -0.39756877647335259 -0.40857286797681719 0 -0.37515920440272033 -0.40534038799344108 0 -0.39756877647335259 -0.40857286797681719 0 -0.37515920440272033 -0.40534038799344108 0 -0.39591554026262499 -0.42887225451549271 0 -0.37472313619600889 -0.43545561783144832 0 -0.39591554026262499 -0.42887225451549271 0 -0.39301703415267508 -0.44654444244683272 0 -0.37472313619600889 -0.43545561783144832 0 -0.39301703415267508 -0.44654444244683272 0 -0.37428706798929601 -0.46557084766945539 0 -0.37472313619600889 -0.43545561783144832 0 -0.39591554026262499 -0.42887225451549271 0 -0.39301703415267508 -0.44654444244683272 0 -0.41160927495564159 -0.44339431233754628 0 -0.39301703415267508 -0.44654444244683272 0 -0.40396056051613372 -0.45751466911048011 0 -0.41160927495564159 -0.44339431233754628 0 -0.40396056051613372 -0.45751466911048011 0 -0.39245383412573559 -0.47875733455523922 0 -0.41207507163844148 -0.46917161410542801 0 -0.40396056051613372 -0.45751466911048011 0 -0.38912381425271458 -0.46154275838996711 0 -0.39245383412573559 -0.47875733455523922 0 -0.40396056051613372 -0.45751466911048011 0 -0.39245383412573559 -0.47875733455523922 0 -0.40396056051613372 -0.45751466911048011 0 -0.40649676728151513 -0.45682610390212369 0 -0.40396056051613372 -0.45751466911048011 0 -0.38912381425271458 -0.46154275838996711 0 -0.39301703415267508 -0.44654444244683272 0 -0.40396056051613372 -0.45751466911048011 0 -0.38912381425271458 -0.46154275838996711 0 -0.39301703415267508 -0.44654444244683272 0 -0.38912381425271458 -0.46154275838996711 0 -0.37428706798929601 -0.46557084766945539 0 -0.38912381425271458 -0.46154275838996711 0 -0.37428706798929601 -0.46557084766945539 0 -0.38912381425271458 -0.46154275838996711 0 -0.38378714202547332 -0.47159002408209011 0 -0.37428706798929601 -0.46557084766945539 0 -0.38378714202547332 -0.47159002408209011 0 -0.39245383412573559 -0.47875733455523922 0 -0.37411677223754131 -0.47733161267270968 0 -0.39245383412573559 -0.47875733455523922 0 -0.37240076261097882 -0.48974555046165519 0 -0.37411677223754131 -0.47733161267270968 0 -0.38378714202547332 -0.47159002408209011 0 -0.37411677223754131 -0.47733161267270968 0 -0.37428706798929601 -0.46557084766945539 0 -0.38912381425271458 -0.46154275838996711 0 -0.38378714202547332 -0.47159002408209011 0 -0.39245383412573559 -0.47875733455523922 0 -0.38094710773533791 -0.49999999999999839 0 -0.39245383412573559 -0.47875733455523922 0 -0.38094710773533791 -0.49999999999999839 0 -0.39245383412573559 -0.47875733455523922 0 -0.37240076261097882 -0.48974555046165519 0 -0.38094710773533791 -0.49999999999999839 0 -0.39245383412573559 -0.47875733455523922 0 -0.40997732063196057 -0.5 0 -0.39245383412573559 -0.47875733455523922 0 -0.41207507163844148 -0.46917161410542801 0 -0.40997732063196057 -0.5 0 -0.41207507163844148 -0.46917161410542801 0 -0.40997732063196057 -0.5 0 -0.42881687682924802 -0.47781464288736519 0 -0.44860394795025399 -0.5 0 -0.40997732063196057 -0.5 0 -0.42881687682924802 -0.47781464288736519 0 -0.41207507163844148 -0.46917161410542801 0 -0.42881687682924802 -0.47781464288736519 0 -0.42627766738448791 -0.46032764904509182 0 -0.4490820238307246 -0.45820516232899983 0 -0.42881687682924802 -0.47781464288736519 0 -0.42627766738448791 -0.46032764904509182 0 -0.4490820238307246 -0.45820516232899983 0 -0.42627766738448791 -0.46032764904509182 0 -0.4263356171060747 -0.44269880333887462 0 -0.42627766738448791 -0.46032764904509182 0 -0.4263356171060747 -0.44269880333887462 0 -0.41655419253802572 -0.45404861160063659 0 -0.4263356171060747 -0.44269880333887462 0 -0.41160927495564159 -0.44339431233754628 0 -0.41655419253802572 -0.45404861160063659 0 -0.41531815884496182 -0.42985383783075998 0 -0.4263356171060747 -0.44269880333887462 0 -0.41160927495564159 -0.44339431233754628 0 -0.40396056051613372 -0.45751466911048011 0 -0.41160927495564159 -0.44339431233754628 0 -0.40649676728151513 -0.45682610390212369 0 -0.41160927495564159 -0.44339431233754628 0 -0.40649676728151513 -0.45682610390212369 0 -0.41655419253802572 -0.45404861160063659 0 -0.40396056051613372 -0.45751466911048011 0 -0.41160927495564159 -0.44339431233754628 0 -0.41207507163844148 -0.46917161410542801 0 -0.40649676728151513 -0.45682610390212369 0 -0.41655419253802572 -0.45404861160063659 0 -0.40396056051613372 -0.45751466911048011 0 -0.41207507163844148 -0.46917161410542801 0 -0.40649676728151513 -0.45682610390212369 0 -0.41207507163844148 -0.46917161410542801 0 -0.42627766738448791 -0.46032764904509182 0 -0.41655419253802572 -0.45404861160063659 0 -0.45662330498375908 -0.25656877445722759 0 -0.43445882011373449 -0.25478651907497341 0 -0.45662330498375908 -0.25656877445722759 0 -0.43445882011373449 -0.25478651907497341 0 -0.45034617445999431 -0.24335722649563979 0 -0.44999384684511368 -0.2755750489792308 0 -0.45662330498375908 -0.25656877445722759 0 -0.43445882011373449 -0.25478651907497341 0 -0.44999384684511368 -0.2755750489792308 0 -0.43077531442077321 -0.27459050524281542 0 -0.43445882011373449 -0.25478651907497341 0 -0.44999384684511368 -0.2755750489792308 0 -0.441361257405879 -0.29303276451920029 0 -0.43077531442077321 -0.27459050524281542 0 -0.44999384684511368 -0.2755750489792308 0 -0.4670541169931961 -0.26846056693166809 0 -0.46910519348062618 -0.28320526693770848 0 -0.44999384684511368 -0.2755750489792308 0 -0.4670541169931961 -0.26846056693166809 0 -0.45662330498375908 -0.25656877445722759 0 -0.45662330498375908 -0.25656877445722759 0 -0.47878778985378329 -0.25835102983948688 0 -0.4670541169931961 -0.26846056693166809 0 -0.45662330498375908 -0.25656877445722759 0 -0.47878778985378329 -0.25835102983948688 0 -0.45662330498375908 -0.25656877445722759 0 -0.47878778985378329 -0.25835102983948688 0 -0.47142395938804471 -0.23802335247430181 0 -0.47878778985378329 -0.25835102983948688 0 -0.5 -0.25669760885461612 0 -0.48361763707807442 -0.27426406281091331 0 -0.47878778985378329 -0.25835102983948688 0 -0.5 -0.25669760885461612 0 -0.4875835208682564 -0.24248539692068891 0 -0.5 -0.25669760885461612 0 -0.48361763707807442 -0.27426406281091331 0 -0.5 -0.28413533544635422 0 -0.4670541169931961 -0.26846056693166809 0 -0.47878778985378329 -0.25835102983948688 0 -0.48361763707807442 -0.27426406281091331 0 -0.4670541169931961 -0.26846056693166809 0 -0.48361763707807442 -0.27426406281091331 0 -0.46910519348062618 -0.28320526693770848 0 -0.46910519348062618 -0.28320526693770848 0 -0.48580896399913942 -0.29193665231809679 0 -0.47164434439118558 -0.29859902487093259 0 -0.48361763707807442 -0.27426406281091331 0 -0.46910519348062618 -0.28320526693770848 0 -0.48580896399913942 -0.29193665231809679 0 -0.5 -0.28413533544635422 0 -0.48580896399913942 -0.29193665231809679 0 -0.5 -0.3115730620380921 0 -0.48361763707807442 -0.27426406281091331 0 -0.5 -0.28413533544635422 0 -0.48580896399913942 -0.29193665231809679 0 -0.48580896399913942 -0.29193665231809679 0 -0.5 -0.3115730620380921 0 -0.48293754746551898 -0.30617437981156609 0 -0.48293754746551898 -0.30617437981156609 0 -0.47164434439118558 -0.29859902487093259 0 -0.47203566342767839 -0.31514771464943409 0 -0.48580896399913942 -0.29193665231809679 0 -0.48293754746551898 -0.30617437981156609 0 -0.47164434439118558 -0.29859902487093259 0 -0.47164434439118558 -0.29859902487093259 0 -0.46096111539772322 -0.3069557537098867 0 -0.47203566342767839 -0.31514771464943409 0 -0.46096111539772322 -0.3069557537098867 0 -0.44739706002137658 -0.30395698434733032 0 -0.45229582611609759 -0.31444164243390338 0 -0.46096111539772322 -0.3069557537098867 0 -0.45682111422556548 -0.29317658806621089 0 -0.44739706002137658 -0.30395698434733032 0 -0.47164434439118558 -0.29859902487093259 0 -0.46096111539772322 -0.3069557537098867 0 -0.45682111422556548 -0.29317658806621089 0 -0.44999384684511368 -0.2755750489792308 0 -0.46910519348062618 -0.28320526693770848 0 -0.45682111422556548 -0.29317658806621089 0 -0.46910519348062618 -0.28320526693770848 0 -0.47164434439118558 -0.29859902487093259 0 -0.45682111422556548 -0.29317658806621089 0 -0.44999384684511368 -0.2755750489792308 0 -0.45682111422556548 -0.29317658806621089 0 -0.441361257405879 -0.29303276451920029 0 -0.45682111422556548 -0.29317658806621089 0 -0.441361257405879 -0.29303276451920029 0 -0.44739706002137658 -0.30395698434733032 0 -0.441361257405879 -0.29303276451920029 0 -0.44739706002137658 -0.30395698434733032 0 -0.43527018611072049 -0.30465000121327751 0 -0.44739706002137658 -0.30395698434733032 0 -0.44024276041750632 -0.31887045497680111 0 -0.43527018611072049 -0.30465000121327751 0 -0.44739706002137658 -0.30395698434733032 0 -0.45229582611609759 -0.31444164243390338 0 -0.44024276041750632 -0.31887045497680111 0 -0.44024276041750632 -0.31887045497680111 0 -0.45653421084860168 -0.32646185290925811 0 -0.44024276041750632 -0.31887045497680111 0 -0.43930980958642257 -0.33554338078202212 0 -0.45653421084860168 -0.32646185290925811 0 -0.45229582611609759 -0.31444164243390338 0 -0.44024276041750632 -0.31887045497680111 0 -0.45653421084860168 -0.32646185290925811 0 -0.43930980958642257 -0.33554338078202212 0 -0.44966367396753332 -0.33841986907325933 0 -0.46855294336124231 -0.32873531729210143 0 -0.43930980958642257 -0.33554338078202212 0 -0.4507851133594416 -0.34910720111649318 0 -0.43930980958642257 -0.33554338078202212 0 -0.44966367396753332 -0.33841986907325933 0 -0.4507851133594416 -0.34910720111649318 0 -0.44966367396753332 -0.33841986907325933 0 -0.46855294336124231 -0.32873531729210143 0 -0.46386644800117471 -0.33586508895417932 0 -0.43930980958642257 -0.33554338078202212 0 -0.46855294336124231 -0.32873531729210143 0 -0.43930980958642257 -0.33554338078202212 0 -0.46855294336124231 -0.32873531729210143 0 -0.45653421084860168 -0.32646185290925811 0 -0.44966367396753332 -0.33841986907325933 0 -0.4586808436472537 -0.3401528003513713 0 -0.45711636988675219 -0.34547487934353349 0 -0.44966367396753332 -0.33841986907325933 0 -0.4586808436472537 -0.3401528003513713 0 -0.46386644800117471 -0.33586508895417932 0 -0.4586808436472537 -0.3401528003513713 0 -0.46472493826860672 -0.34236766697450172 0 -0.45711636988675219 -0.34547487934353349 0 -0.4586808436472537 -0.3401528003513713 0 -0.46472493826860672 -0.34236766697450172 0 -0.46386644800117471 -0.33586508895417932 0 -0.46855294336124231 -0.32873531729210143 0 -0.46207595183026873 -0.31834845619891672 0 -0.47203566342767839 -0.31514771464943409 0 -0.46855294336124231 -0.32873531729210143 0 -0.45653421084860168 -0.32646185290925811 0 -0.46207595183026873 -0.31834845619891672 0 -0.46096111539772322 -0.3069557537098867 0 -0.45229582611609759 -0.31444164243390338 0 -0.46207595183026873 -0.31834845619891672 0 -0.45229582611609759 -0.31444164243390338 0 -0.45653421084860168 -0.32646185290925811 0 -0.46207595183026873 -0.31834845619891672 0 -0.46096111539772322 -0.3069557537098867 0 -0.46207595183026873 -0.31834845619891672 0 -0.47203566342767839 -0.31514771464943409 0 -0.48293754746551898 -0.30617437981156609 0 -0.47203566342767839 -0.31514771464943409 0 -0.47770984076123751 -0.32964979107966252 0 -0.48293754746551898 -0.30617437981156609 0 -0.47770984076123751 -0.32964979107966252 0 -0.48293754746551898 -0.30617437981156609 0 -0.48763303240419292 -0.31981883507337211 0 -0.47770984076123751 -0.32964979107966252 0 -0.46855294336124231 -0.32873531729210143 0 -0.47203566342767839 -0.31514771464943409 0 -0.47770984076123751 -0.32964979107966252 0 -0.5 -0.3115730620380921 0 -0.5 -0.33901078862982997 0 -0.49048543526404831 -0.32960291085151988 0 -0.5 -0.3115730620380921 0 -0.48763303240419292 -0.31981883507337211 0 -0.49048543526404831 -0.32960291085151988 0 -0.5 -0.3115730620380921 0 -0.48293754746551898 -0.30617437981156609 0 -0.48763303240419292 -0.31981883507337211 0 -0.48763303240419292 -0.31981883507337211 0 -0.49048543526404831 -0.32960291085151988 0 -0.47770984076123751 -0.32964979107966252 0 -0.49048543526404831 -0.32960291085151988 0 -0.47770984076123751 -0.32964979107966252 0 -0.48708430315481122 -0.3479620774366432 0 -0.5 -0.33901078862982997 0 -0.49048543526404831 -0.32960291085151988 0 -0.48708430315481122 -0.3479620774366432 0 -0.47770984076123751 -0.32964979107966252 0 -0.47248213405695583 -0.35312520234775913 0 -0.47770984076123751 -0.32964979107966252 0 -0.47248213405695583 -0.35312520234775913 0 -0.48708430315481122 -0.3479620774366432 0 -0.46472493826860672 -0.34236766697450172 0 -0.47770984076123751 -0.32964979107966252 0 -0.47248213405695583 -0.35312520234775913 0 -0.46855294336124231 -0.32873531729210143 0 -0.46386644800117471 -0.33586508895417932 0 -0.47770984076123751 -0.32964979107966252 0 -0.46472493826860672 -0.34236766697450172 0 -0.46386644800117471 -0.33586508895417932 0 -0.47770984076123751 -0.32964979107966252 0 -0.47248213405695583 -0.35312520234775913 0 -0.48708430315481122 -0.3479620774366432 0 -0.48422759779560409 -0.37130120630367158 0 -0.5 -0.33901078862982997 0 -0.48708430315481122 -0.3479620774366432 0 -0.5 -0.36644851522156802 0 -0.48708430315481122 -0.3479620774366432 0 -0.5 -0.36644851522156802 0 -0.48422759779560409 -0.37130120630367158 0 -0.46725442735267431 -0.37660061361585562 0 -0.47248213405695583 -0.35312520234775913 0 -0.48422759779560409 -0.37130120630367158 0 -0.46725442735267431 -0.37660061361585562 0 -0.47248213405695583 -0.35312520234775913 0 -0.46725442735267431 -0.37660061361585562 0 -0.4540003998136638 -0.37455519391687309 0 -0.46226041713245919 -0.36267102145096558 0 -0.46725442735267431 -0.37660061361585562 0 -0.47248213405695583 -0.35312520234775913 0 -0.46226041713245919 -0.36267102145096558 0 -0.4540003998136638 -0.37455519391687309 0 -0.46226041713245919 -0.36267102145096558 0 -0.45167034254705118 -0.36337553476545958 0 -0.47248213405695583 -0.35312520234775913 0 -0.46226041713245919 -0.36267102145096558 0 -0.46130034509645268 -0.35111989715704561 0 -0.46472493826860672 -0.34236766697450172 0 -0.47248213405695583 -0.35312520234775913 0 -0.46130034509645268 -0.35111989715704561 0 -0.46472493826860672 -0.34236766697450172 0 -0.46130034509645268 -0.35111989715704561 0 -0.45711636988675219 -0.34547487934353349 0 -0.46130034509645268 -0.35111989715704561 0 -0.45711636988675219 -0.34547487934353349 0 -0.4507851133594416 -0.34910720111649318 0 -0.46226041713245919 -0.36267102145096558 0 -0.4507851133594416 -0.34910720111649318 0 -0.45167034254705118 -0.36337553476545958 0 -0.46226041713245919 -0.36267102145096558 0 -0.46130034509645268 -0.35111989715704561 0 -0.4507851133594416 -0.34910720111649318 0 -0.46226041713245919 -0.36267102145096558 0 -0.4507851133594416 -0.34910720111649318 0 -0.4507851133594416 -0.34910720111649318 0 -0.44504098357239391 -0.35771747353496869 0 -0.45167034254705118 -0.36337553476545958 0 -0.44966367396753332 -0.33841986907325933 0 -0.45711636988675219 -0.34547487934353349 0 -0.4507851133594416 -0.34910720111649318 0 -0.4507851133594416 -0.34910720111649318 0 -0.44408457896710762 -0.34741130507322732 0 -0.44504098357239391 -0.35771747353496869 0 -0.43930980958642257 -0.33554338078202212 0 -0.4507851133594416 -0.34910720111649318 0 -0.44408457896710762 -0.34741130507322732 0 -0.44408457896710762 -0.34741130507322732 0 -0.43834809566141358 -0.35386966642967582 0 -0.4310745521241639 -0.35060051531725012 0 -0.44408457896710762 -0.34741130507322732 0 -0.43834809566141358 -0.35386966642967582 0 -0.44504098357239391 -0.35771747353496869 0 -0.43834809566141358 -0.35386966642967582 0 -0.44504098357239391 -0.35771747353496869 0 -0.43256408976529492 -0.36260533289695268 0 -0.44504098357239391 -0.35771747353496869 0 -0.44172858264042247 -0.37082207246888088 0 -0.43256408976529492 -0.36260533289695268 0 -0.4540003998136638 -0.37455519391687309 0 -0.44172858264042247 -0.37082207246888088 0 -0.45167034254705118 -0.36337553476545958 0 -0.44504098357239391 -0.35771747353496869 0 -0.44172858264042247 -0.37082207246888088 0 -0.45167034254705118 -0.36337553476545958 0 -0.42311368847744002 -0.37830224279505142 0 -0.44172858264042247 -0.37082207246888088 0 -0.43256408976529492 -0.36260533289695268 0 -0.42311368847744002 -0.37830224279505142 0 -0.43256408976529492 -0.36260533289695268 0 -0.41867380740831611 -0.36398836527224071 0 -0.43256408976529492 -0.36260533289695268 0 -0.42210656065146929 -0.35476551363046099 0 -0.41867380740831611 -0.36398836527224071 0 -0.44408457896710762 -0.34741130507322732 0 -0.4310745521241639 -0.35060051531725012 0 -0.42443636388738298 -0.3390060521705498 0 -0.43834809566141358 -0.35386966642967582 0 -0.43256408976529492 -0.36260533289695268 0 -0.4310745521241639 -0.35060051531725012 0 -0.4310745521241639 -0.35060051531725012 0 -0.42266042161335821 -0.34652378860874011 0 -0.42210656065146929 -0.35476551363046099 0 -0.4310745521241639 -0.35060051531725012 0 -0.42266042161335821 -0.34652378860874011 0 -0.42443636388738298 -0.3390060521705498 0 -0.43256408976529492 -0.36260533289695268 0 -0.4310745521241639 -0.35060051531725012 0 -0.42210656065146929 -0.35476551363046099 0 -0.42210656065146929 -0.35476551363046099 0 -0.41243440171204931 -0.35621682403100541 0 -0.41867380740831611 -0.36398836527224071 0 -0.41243440171204931 -0.35621682403100541 0 -0.40365717239196519 -0.36741535175059892 0 -0.40302160193259851 -0.3439916005776541 0 -0.42210656065146929 -0.35476551363046099 0 -0.41714587076776338 -0.34786779488983011 0 -0.41243440171204931 -0.35621682403100541 0 -0.42266042161335821 -0.34652378860874011 0 -0.42210656065146929 -0.35476551363046099 0 -0.41714587076776338 -0.34786779488983011 0 -0.42266042161335821 -0.34652378860874011 0 -0.41714587076776338 -0.34786779488983011 0 -0.41853876063601031 -0.34037906703560689 0 -0.41714587076776338 -0.34786779488983011 0 -0.41853876063601031 -0.34037906703560689 0 -0.41714587076776338 -0.34786779488983011 0 -0.41243440171204931 -0.35621682403100541 0 -0.40302160193259851 -0.3439916005776541 0 -0.41714587076776338 -0.34786779488983011 0 -0.40302160193259851 -0.3439916005776541 0 -0.41853876063601031 -0.34037906703560689 0 -0.42311368847744002 -0.37830224279505142 0 -0.41867380740831611 -0.36398836527224071 0 -0.40365717239196519 -0.36741535175059892 0 -0.42311368847744002 -0.37830224279505142 0 -0.40365717239196519 -0.36741535175059892 0 -0.41243440171204931 -0.35621682403100541 0 -0.41867380740831611 -0.36398836527224071 0 -0.40365717239196519 -0.36741535175059892 0 -0.40403491357358612 -0.38133688525744702 0 -0.40365717239196519 -0.36741535175059892 0 -0.40403491357358612 -0.38133688525744702 0 -0.40365717239196519 -0.36741535175059892 0 -0.3904578797192948 -0.37473938743617019 0 -0.40365717239196519 -0.36741535175059892 0 -0.38979507995825918 -0.35965881973269581 0 -0.40365717239196519 -0.36741535175059892 0 -0.3904578797192948 -0.37473938743617019 0 -0.38979507995825918 -0.35965881973269581 0 -0.3904578797192948 -0.37473938743617019 0 -0.38979507995825918 -0.35965881973269581 0 -0.37568304780698558 -0.36916333065311507 0 -0.37568304780698558 -0.36916333065311507 0 -0.37593298752455201 -0.35190228771479481 0 -0.38979507995825918 -0.35965881973269581 0 -0.37568304780698558 -0.36916333065311507 0 -0.37593298752455201 -0.35190228771479481 0 -0.38979507995825918 -0.35965881973269581 0 -0.37595629511297179 -0.35029264644438168 0 -0.40302160193259851 -0.3439916005776541 0 -0.37595629511297179 -0.35029264644438168 0 -0.40302160193259851 -0.3439916005776541 0 -0.38842354837557669 -0.33756560667471242 0 -0.37595629511297179 -0.35029264644438168 0 -0.40302160193259851 -0.3439916005776541 0 -0.37595629511297179 -0.35029264644438168 0 -0.37607676276689278 -0.3419730509543204 0 -0.37390838074359528 -0.35076941925389299 0 -0.37595629511297179 -0.35029264644438168 0 -0.37607676276689278 -0.3419730509543204 0 -0.37595629511297179 -0.35029264644438168 0 -0.37593298752455201 -0.35190228771479481 0 -0.37390838074359528 -0.35076941925389299 0 -0.37595629511297179 -0.35029264644438168 0 -0.37593298752455201 -0.35190228771479481 0 -0.38979507995825918 -0.35965881973269581 0 -0.37595629511297179 -0.35029264644438168 0 -0.37593298752455201 -0.35190228771479481 0 -0.38979507995825918 -0.35965881973269581 0 -0.37593298752455201 -0.35190228771479481 0 -0.40365717239196519 -0.36741535175059892 0 -0.40302160193259851 -0.3439916005776541 0 -0.40365717239196519 -0.36741535175059892 0 -0.38979507995825918 -0.35965881973269581 0 -0.40302160193259851 -0.3439916005776541 0 -0.40302160193259851 -0.3439916005776541 0 -0.40263324863316441 -0.32967896077653092 0 -0.40263324863316441 -0.32967896077653092 0 -0.38842354837557669 -0.33756560667471242 0 -0.38442983343225828 -0.32189177462067481 0 -0.40302160193259851 -0.3439916005776541 0 -0.40263324863316441 -0.32967896077653092 0 -0.38842354837557669 -0.33756560667471242 0 -0.37607676276689278 -0.3419730509543204 0 -0.37641717267996733 -0.3184640617331177 0 -0.38842354837557669 -0.33756560667471242 0 -0.37607676276689278 -0.3419730509543204 0 -0.38442983343225828 -0.32189177462067481 0 -0.37607676276689278 -0.3419730509543204 0 -0.38442983343225828 -0.32189177462067481 0 -0.37595629511297179 -0.35029264644438168 0 -0.38842354837557669 -0.33756560667471242 0 -0.37607676276689278 -0.3419730509543204 0 -0.37607676276689278 -0.3419730509543204 0 -0.37641717267996733 -0.3184640617331177 0 -0.38442983343225828 -0.32189177462067481 0 -0.37641717267996733 -0.3184640617331177 0 -0.38442983343225828 -0.32189177462067481 0 -0.3841914044669909 -0.30132118344037401 0 -0.37641717267996733 -0.3184640617331177 0 -0.38442983343225828 -0.32189177462067481 0 -0.40263324863316441 -0.32967896077653092 0 -0.38442983343225828 -0.32189177462067481 0 -0.40185461233875269 -0.30098256284660307 0 -0.40263324863316441 -0.32967896077653092 0 -0.38442983343225828 -0.32189177462067481 0 -0.40263324863316441 -0.32967896077653092 0 -0.40185461233875269 -0.30098256284660307 0 -0.40263324863316441 -0.32967896077653092 0 -0.41242695344044827 -0.31820451366256841 0 -0.40185461233875269 -0.30098256284660307 0 -0.41242695344044827 -0.31820451366256841 0 -0.41920998916455232 -0.33677027649670849 0 -0.42301959421646518 -0.31628833020920039 0 -0.41920998916455232 -0.33677027649670849 0 -0.42301959421646518 -0.31628833020920039 0 -0.41242695344044827 -0.31820451366256841 0 -0.42301959421646518 -0.31628833020920039 0 -0.41541732284930832 -0.30730243798379953 0 -0.40302160193259851 -0.3439916005776541 0 -0.41920998916455232 -0.33677027649670849 0 -0.41853876063601031 -0.34037906703560689 0 -0.40302160193259851 -0.3439916005776541 0 -0.40263324863316441 -0.32967896077653092 0 -0.41920998916455232 -0.33677027649670849 0 -0.40263324863316441 -0.32967896077653092 0 -0.41920998916455232 -0.33677027649670849 0 -0.40263324863316441 -0.32967896077653092 0 -0.41242695344044827 -0.31820451366256841 0 -0.41920998916455232 -0.33677027649670849 0 -0.40302160193259851 -0.3439916005776541 0 -0.41853876063601031 -0.34037906703560689 0 -0.41853876063601031 -0.34037906703560689 0 -0.42443636388738298 -0.3390060521705498 0 -0.41920998916455232 -0.33677027649670849 0 -0.42443636388738298 -0.3390060521705498 0 -0.41920998916455232 -0.33677027649670849 0 -0.41853876063601031 -0.34037906703560689 0 -0.42443636388738298 -0.3390060521705498 0 -0.41920998916455232 -0.33677027649670849 0 -0.41853876063601031 -0.34037906703560689 0 -0.43930980958642257 -0.33554338078202212 0 -0.44408457896710762 -0.34741130507322732 0 -0.42443636388738298 -0.3390060521705498 0 -0.43930980958642257 -0.33554338078202212 0 -0.42443636388738298 -0.3390060521705498 0 -0.42301959421646518 -0.31628833020920039 0 -0.41920998916455232 -0.33677027649670849 0 -0.42443636388738298 -0.3390060521705498 0 -0.42301959421646518 -0.31628833020920039 0 -0.44408457896710762 -0.34741130507322732 0 -0.42443636388738298 -0.3390060521705498 0 -0.42266042161335821 -0.34652378860874011 0 -0.41853876063601031 -0.34037906703560689 0 -0.42443636388738298 -0.3390060521705498 0 -0.43930980958642257 -0.33554338078202212 0 -0.42443636388738298 -0.3390060521705498 0 -0.43930980958642257 -0.33554338078202212 0 -0.42301959421646518 -0.31628833020920039 0 -0.44024276041750632 -0.31887045497680111 0 -0.42395130998641067 -0.31127905704434472 0 -0.44024276041750632 -0.31887045497680111 0 -0.43930980958642257 -0.33554338078202212 0 -0.42301959421646518 -0.31628833020920039 0 -0.44024276041750632 -0.31887045497680111 0 -0.42301959421646518 -0.31628833020920039 0 -0.42395130998641067 -0.31127905704434472 0 -0.42301959421646518 -0.31628833020920039 0 -0.42395130998641067 -0.31127905704434472 0 -0.42395130998641067 -0.31127905704434472 0 -0.42709180872781188 -0.29439449141065738 0 -0.44024276041750632 -0.31887045497680111 0 -0.42395130998641067 -0.31127905704434472 0 -0.43527018611072049 -0.30465000121327751 0 -0.42395130998641067 -0.31127905704434472 0 -0.42709180872781188 -0.29439449141065738 0 -0.41541732284930832 -0.30730243798379953 0 -0.42395130998641067 -0.31127905704434472 0 -0.43527018611072049 -0.30465000121327751 0 -0.42709180872781188 -0.29439449141065738 0 -0.441361257405879 -0.29303276451920029 0 -0.43527018611072049 -0.30465000121327751 0 -0.42709180872781188 -0.29439449141065738 0 -0.42709180872781188 -0.29439449141065738 0 -0.43077531442077321 -0.27459050524281542 0 -0.42709180872781188 -0.29439449141065738 0 -0.41684225135067149 -0.28376244362903152 0 -0.43077531442077321 -0.27459050524281542 0 -0.441361257405879 -0.29303276451920029 0 -0.42709180872781188 -0.29439449141065738 0 -0.441361257405879 -0.29303276451920029 0 -0.42709180872781188 -0.29439449141065738 0 -0.43077531442077321 -0.27459050524281542 0 -0.42709180872781188 -0.29439449141065738 0 -0.41684225135067149 -0.28376244362903152 0 -0.40618483967714292 -0.29638963380315841 0 -0.42709180872781188 -0.29439449141065738 0 -0.40618483967714292 -0.29638963380315841 0 -0.41684225135067149 -0.28376244362903152 0 -0.40690107601488551 -0.28490397733270861 0 -0.40618483967714292 -0.29638963380315841 0 -0.41541732284930832 -0.30730243798379953 0 -0.40185461233875269 -0.30098256284660307 0 -0.40618483967714292 -0.29638963380315841 0 -0.42709180872781188 -0.29439449141065738 0 -0.41541732284930832 -0.30730243798379953 0 -0.40618483967714292 -0.29638963380315841 0 -0.41541732284930832 -0.30730243798379953 0 -0.40618483967714292 -0.29638963380315841 0 -0.41242695344044827 -0.31820451366256841 0 -0.41541732284930832 -0.30730243798379953 0 -0.40185461233875269 -0.30098256284660307 0 -0.41541732284930832 -0.30730243798379953 0 -0.40185461233875269 -0.30098256284660307 0 -0.42301959421646518 -0.31628833020920039 0 -0.41541732284930832 -0.30730243798379953 0 -0.42395130998641067 -0.31127905704434472 0 -0.41541732284930832 -0.30730243798379953 0 -0.42301959421646518 -0.31628833020920039 0 -0.42395130998641067 -0.31127905704434472 0 -0.41541732284930832 -0.30730243798379953 0 -0.38442983343225828 -0.32189177462067481 0 -0.40185461233875269 -0.30098256284660307 0 -0.39448508010510541 -0.297525044214214 0 -0.40185461233875269 -0.30098256284660307 0 -0.40174149504185092 -0.29681366012781812 0 -0.40618483967714292 -0.29638963380315841 0 -0.40185461233875269 -0.30098256284660307 0 -0.40174149504185092 -0.29681366012781812 0 -0.40185461233875269 -0.30098256284660307 0 -0.39448508010510541 -0.297525044214214 0 -0.40174149504185092 -0.29681366012781812 0 -0.40185461233875269 -0.30098256284660307 0 -0.39448508010510541 -0.297525044214214 0 -0.39448508010510541 -0.297525044214214 0 -0.40174149504185092 -0.29681366012781812 0 -0.37641717267996733 -0.3184640617331177 0 -0.37669606201677502 -0.29920373422444158 0 -0.38442983343225828 -0.32189177462067481 0 -0.39448508010510541 -0.297525044214214 0 -0.38442983343225828 -0.32189177462067481 0 -0.39448508010510541 -0.297525044214214 0 -0.3841914044669909 -0.30132118344037401 0 -0.37641717267996733 -0.3184640617331177 0 -0.3841914044669909 -0.30132118344037401 0 -0.37669606201677502 -0.29920373422444158 0 -0.39448508010510541 -0.297525044214214 0 -0.3841914044669909 -0.30132118344037401 0 -0.37928718982873688 -0.29895646409505849 0 -0.39448508010510541 -0.297525044214214 0 -0.37928718982873688 -0.29895646409505849 0 -0.3841914044669909 -0.30132118344037401 0 -0.37928718982873688 -0.29895646409505849 0 -0.3841914044669909 -0.30132118344037401 0 -0.37928718982873688 -0.29895646409505849 0 -0.37669606201677502 -0.29920373422444158 0 -0.37928718982873688 -0.29895646409505849 0 -0.37669606201677502 -0.29920373422444158 0 -0.37671758341694961 -0.29771744858697219 0 -0.37928718982873688 -0.29895646409505849 0 -0.37671758341694961 -0.29771744858697219 0 -0.37928718982873688 -0.29895646409505849 0 -0.37669606201677502 -0.29920373422444158 0 -0.37669606201677502 -0.29920373422444158 0 -0.37671758341694961 -0.29771744858697219 0 -0.37671758341694961 -0.29771744858697219 0 -0.38607699004493318 -0.28757386461908069 0 -0.38483052758877101 -0.28123782127595193 0 -0.37671758341694961 -0.29771744858697219 0 -0.3770412393053626 -0.27536550612006683 0 -0.37671758341694961 -0.29771744858697219 0 -0.38483052758877101 -0.28123782127595193 0 -0.3770412393053626 -0.27536550612006683 0 -0.37928718982873688 -0.29895646409505849 0 -0.37671758341694961 -0.29771744858697219 0 -0.38467000758835601 -0.29297497791584359 0 -0.37671758341694961 -0.29771744858697219 0 -0.38467000758835601 -0.29297497791584359 0 -0.38607699004493318 -0.28757386461908069 0 -0.39448508010510541 -0.297525044214214 0 -0.37928718982873688 -0.29895646409505849 0 -0.38467000758835601 -0.29297497791584359 0 -0.39448508010510541 -0.297525044214214 0 -0.38467000758835601 -0.29297497791584359 0 -0.39448508010510541 -0.297525044214214 0 -0.38467000758835601 -0.29297497791584359 0 -0.39217701296355612 -0.28987936211692023 0 -0.38467000758835601 -0.29297497791584359 0 -0.38607699004493318 -0.28757386461908069 0 -0.39217701296355612 -0.28987936211692023 0 -0.38607699004493318 -0.28757386461908069 0 -0.39049541959166939 -0.28414526237041138 0 -0.39217701296355612 -0.28987936211692023 0 -0.39049541959166939 -0.28414526237041138 0 -0.39420405367365152 -0.27853706101481662 0 -0.38483052758877101 -0.28123782127595193 0 -0.38607699004493318 -0.28757386461908069 0 -0.39049541959166939 -0.28414526237041138 0 -0.38483052758877101 -0.28123782127595193 0 -0.39597078832761667 -0.28551153658085893 0 -0.40174149504185092 -0.29681366012781812 0 -0.40123596036735593 -0.27818233727432817 0 -0.39049541959166939 -0.28414526237041138 0 -0.39597078832761667 -0.28551153658085893 0 -0.39420405367365152 -0.27853706101481662 0 -0.40174149504185092 -0.29681366012781812 0 -0.40123596036735593 -0.27818233727432817 0 -0.40174149504185092 -0.29681366012781812 0 -0.40322207619149192 -0.29288764445213411 0 -0.40123596036735593 -0.27818233727432817 0 -0.39049541959166939 -0.28414526237041138 0 -0.39597078832761667 -0.28551153658085893 0 -0.39217701296355612 -0.28987936211692023 0 -0.39597078832761667 -0.28551153658085893 0 -0.39217701296355612 -0.28987936211692023 0 -0.40174149504185092 -0.29681366012781812 0 -0.39448508010510541 -0.297525044214214 0 -0.39217701296355612 -0.28987936211692023 0 -0.40174149504185092 -0.29681366012781812 0 -0.40690107601488551 -0.28490397733270861 0 -0.40322207619149192 -0.29288764445213411 0 -0.40618483967714292 -0.29638963380315841 0 -0.40174149504185092 -0.29681366012781812 0 -0.40322207619149192 -0.29288764445213411 0 -0.40618483967714292 -0.29638963380315841 0 -0.40174149504185092 -0.29681366012781812 0 -0.40618483967714292 -0.29638963380315841 0 -0.40322207619149192 -0.29288764445213411 0 -0.40618483967714292 -0.29638963380315841 0 -0.40690107601488551 -0.28490397733270861 0 -0.40322207619149192 -0.29288764445213411 0 -0.40123596036735593 -0.27818233727432817 0 -0.39420405367365152 -0.27853706101481662 0 -0.37710287173325818 -0.2711091198417086 0 -0.40073042569286338 -0.25955101442083811 0 -0.40123596036735593 -0.27818233727432817 0 -0.39420405367365152 -0.27853706101481662 0 -0.40073042569286338 -0.25955101442083811 0 -0.40123596036735593 -0.27818233727432817 0 -0.40073042569286338 -0.25955101442083811 0 -0.40123596036735593 -0.27818233727432817 0 -0.40073042569286338 -0.25955101442083811 0 -0.41341650638623911 -0.27076301679274262 0 -0.39597078832761667 -0.28551153658085893 0 -0.40123596036735593 -0.27818233727432817 0 -0.39420405367365152 -0.27853706101481662 0 -0.39420405367365152 -0.27853706101481662 0 -0.37710287173325818 -0.2711091198417086 0 -0.3770412393053626 -0.27536550612006683 0 -0.39420405367365152 -0.27853706101481662 0 -0.3770412393053626 -0.27536550612006683 0 -0.39420405367365152 -0.27853706101481662 0 -0.38483052758877101 -0.28123782127595193 0 -0.3770412393053626 -0.27536550612006683 0 -0.37710287173325818 -0.2711091198417086 0 -0.3770412393053626 -0.27536550612006683 0 -0.37710287173325818 -0.2711091198417086 0 -0.38543722149146659 -0.25821727905458303 0 -0.40073042569286338 -0.25955101442083811 0 -0.37710287173325818 -0.2711091198417086 0 -0.37747963509906429 -0.24508953120583671 0 -0.37710287173325818 -0.2711091198417086 0 -0.40073042569286338 -0.25955101442083811 0 -0.37710287173325818 -0.2711091198417086 0 -0.38543722149146659 -0.25821727905458303 0 -0.37747963509906429 -0.24508953120583671 0 -0.38543722149146659 -0.25821727905458303 0 -0.3938256931015453 -0.25037754026629511 0 -0.37747963509906429 -0.24508953120583671 0 -0.38543722149146659 -0.25821727905458303 0 -0.3938256931015453 -0.25037754026629511 0 -0.40073042569286338 -0.25955101442083811 0 -0.40073042569286338 -0.25955101442083811 0 -0.40282532782868952 -0.25224285689579767 0 -0.40022281387448849 -0.24084313907701979 0 -0.40073042569286338 -0.25955101442083811 0 -0.40022281387448849 -0.24084313907701979 0 -0.3938256931015453 -0.25037754026629511 0 -0.40073042569286338 -0.25955101442083811 0 -0.40022281387448849 -0.24084313907701979 0 -0.40073042569286338 -0.25955101442083811 0 -0.40282532782868952 -0.25224285689579767 0 -0.41385673751816382 -0.25312989710486528 0 -0.40073042569286338 -0.25955101442083811 0 -0.41385673751816382 -0.25312989710486528 0 -0.40073042569286338 -0.25955101442083811 0 -0.41385673751816382 -0.25312989710486528 0 -0.41341650638623911 -0.27076301679274262 0 -0.41385673751816382 -0.25312989710486528 0 -0.41341650638623911 -0.27076301679274262 0 -0.42312684460972783 -0.26331748455384929 0 -0.41385673751816382 -0.25312989710486528 0 -0.41679144862722167 -0.25169429778568547 0 -0.43445882011373449 -0.25478651907497341 0 -0.40282532782868952 -0.25224285689579767 0 -0.41385673751816382 -0.25312989710486528 0 -0.4086566941719203 -0.24778871483445111 0 -0.40282532782868952 -0.25224285689579767 0 -0.41385673751816382 -0.25312989710486528 0 -0.41385673751816382 -0.25312989710486528 0 -0.41679144862722167 -0.25169429778568547 0 -0.41627810448972868 -0.24641300060905449 0 -0.41385673751816382 -0.25312989710486528 0 -0.41679144862722167 -0.25169429778568547 0 -0.41684225135067149 -0.28376244362903152 0 -0.41341650638623911 -0.27076301679274262 0 -0.43077531442077321 -0.27459050524281542 0 -0.40690107601488551 -0.28490397733270861 0 -0.40123596036735593 -0.27818233727432817 0 -0.41341650638623911 -0.27076301679274262 0 -0.41684225135067149 -0.28376244362903152 0 -0.40690107601488551 -0.28490397733270861 0 -0.41341650638623911 -0.27076301679274262 0 -0.41341650638623911 -0.27076301679274262 0 -0.43077531442077321 -0.27459050524281542 0 -0.42312684460972783 -0.26331748455384929 0 -0.43077531442077321 -0.27459050524281542 0 -0.42312684460972783 -0.26331748455384929 0 -0.43445882011373449 -0.25478651907497341 0 -0.41385673751816382 -0.25312989710486528 0 -0.43445882011373449 -0.25478651907497341 0 -0.43077531442077321 -0.27459050524281542 0 -0.43445882011373449 -0.25478651907497341 0 -0.41385673751816382 -0.25312989710486528 0 -0.42312684460972783 -0.26331748455384929 0 -0.43445882011373449 -0.25478651907497341 0 -0.41679144862722167 -0.25169429778568547 0 -0.43445882011373449 -0.25478651907497341 0 -0.42335340856967768 -0.24893549408922019 0 -0.32580796388430833 -0.26195871891040218 0 -0.34139866608006603 -0.2687790352098644 0 -0.31202674084989918 -0.26335133138269068 0 -0.32580796388430833 -0.26195871891040218 0 -0.33345250408021371 -0.25331871279766999 0 -0.32023222063025569 -0.2489608815952247 0 -0.32580796388430833 -0.26195871891040218 0 -0.31664960680882542 -0.25714232151458272 0 -0.32023222063025569 -0.2489608815952247 0 -0.31664960680882542 -0.25714232151458272 0 -0.30853150187083839 -0.25429835417001312 0 -0.32023222063025569 -0.2489608815952247 0 -0.32580796388430833 -0.26195871891040218 0 -0.31664960680882542 -0.25714232151458272 0 -0.31202674084989918 -0.26335133138269068 0 -0.33223611708196649 -0.27626932861073827 0 -0.31972670239926188 -0.28454160199560091 0 -0.31187737399160442 -0.27618124236115132 0 -0.34139866608006603 -0.2687790352098644 0 -0.31202674084989918 -0.26335133138269068 0 -0.33223611708196649 -0.27626932861073827 0 -0.31202674084989918 -0.26335133138269068 0 -0.3062135479255173 -0.26372173898871692 0 -0.33223611708196649 -0.27626932861073827 0 -0.31187737399160442 -0.27618124236115132 0 -0.3062135479255173 -0.26372173898871692 0 -0.33260241140844943 -0.2743168067351805 0 -0.33223611708196649 -0.27626932861073827 0 -0.31202674084989918 -0.26335133138269068 0 -0.33223611708196649 -0.27626932861073827 0 -0.3062135479255173 -0.26372173898871692 0 -0.33260241140844943 -0.2743168067351805 0 -0.34139866608006603 -0.2687790352098644 0 -0.31202674084989918 -0.26335133138269068 0 -0.33223611708196649 -0.27626932861073827 0 -0.34139866608006603 -0.2687790352098644 0 -0.34951875912658742 -0.28460269103381453 0 -0.33223611708196649 -0.27626932861073827 0 -0.34951875912658742 -0.28460269103381453 0 -0.33260241140844943 -0.2743168067351805 0 -0.33223611708196649 -0.27626932861073827 0 -0.34139866608006603 -0.2687790352098644 0 -0.33260241140844943 -0.2743168067351805 0 -0.33223611708196649 -0.27626932861073827 0 -0.34139866608006603 -0.2687790352098644 0 -0.3363084638556994 -0.26041051377605268 0 -0.34457472137820933 -0.25758558818627408 0 -0.32580796388430833 -0.26195871891040218 0 -0.34139866608006603 -0.2687790352098644 0 -0.3363084638556994 -0.26041051377605268 0 -0.32580796388430833 -0.26195871891040218 0 -0.3363084638556994 -0.26041051377605268 0 -0.33345250408021371 -0.25331871279766999 0 -0.3363084638556994 -0.26041051377605268 0 -0.33345250408021371 -0.25331871279766999 0 -0.34457472137820933 -0.25758558818627408 0 -0.33345250408021371 -0.25331871279766999 0 -0.34457472137820933 -0.25758558818627408 0 -0.34395992200845399 -0.24382677409400949 0 -0.34139866608006603 -0.2687790352098644 0 -0.34457472137820933 -0.25758558818627408 0 -0.35733732661955131 -0.26288598862094092 0 -0.34457472137820933 -0.25758558818627408 0 -0.35872453044413888 -0.25078889886649508 0 -0.34395992200845399 -0.24382677409400949 0 -0.34457472137820933 -0.25758558818627408 0 -0.35733732661955131 -0.26288598862094092 0 -0.35872453044413888 -0.25078889886649508 0 -0.37710287173325818 -0.2711091198417086 0 -0.36828299104124951 -0.26081605551440462 0 -0.37747963509906429 -0.24508953120583671 0 -0.35872453044413888 -0.25078889886649508 0 -0.36828299104124951 -0.26081605551440462 0 -0.37747963509906429 -0.24508953120583671 0 -0.35733732661955131 -0.26288598862094092 0 -0.35872453044413888 -0.25078889886649508 0 -0.36828299104124951 -0.26081605551440462 0 -0.37077059131023282 -0.27420673903703829 0 -0.34951875912658742 -0.28460269103381453 0 -0.37710287173325818 -0.2711091198417086 0 -0.3770412393053626 -0.27536550612006683 0 -0.37077059131023282 -0.27420673903703829 0 -0.3770412393053626 -0.27536550612006683 0 -0.37077059131023282 -0.27420673903703829 0 -0.37710287173325818 -0.2711091198417086 0 -0.36828299104124951 -0.26081605551440462 0 -0.37077059131023282 -0.27420673903703829 0 -0.37710287173325818 -0.2711091198417086 0 -0.37077059131023282 -0.27420673903703829 0 -0.35733732661955131 -0.26288598862094092 0 -0.36828299104124951 -0.26081605551440462 0 -0.37077059131023282 -0.27420673903703829 0 -0.34139866608006603 -0.2687790352098644 0 -0.35733732661955131 -0.26288598862094092 0 -0.37077059131023282 -0.27420673903703829 0 -0.34139866608006603 -0.2687790352098644 0 -0.37077059131023282 -0.27420673903703829 0 -0.34951875912658742 -0.28460269103381453 0 -0.34139866608006603 -0.2687790352098644 0 -0.37077059131023282 -0.27420673903703829 0 -0.34951875912658742 -0.28460269103381453 0 -0.3581763596052473 -0.30097106086504849 0 -0.34010739644885768 -0.2892065328944351 0 -0.34951875912658742 -0.28460269103381453 0 -0.34010739644885768 -0.2892065328944351 0 -0.37671758341694961 -0.29771744858697219 0 -0.37077059131023282 -0.27420673903703829 0 -0.34951875912658742 -0.28460269103381453 0 -0.37671758341694961 -0.29771744858697219 0 -0.34951875912658742 -0.28460269103381453 0 -0.37671758341694961 -0.29771744858697219 0 -0.3770412393053626 -0.27536550612006683 0 -0.37077059131023282 -0.27420673903703829 0 -0.37671758341694961 -0.29771744858697219 0 -0.34951875912658742 -0.28460269103381453 0 -0.3581763596052473 -0.30097106086504849 0 -0.37669606201677502 -0.29920373422444158 0 -0.37671758341694961 -0.29771744858697219 0 -0.3581763596052473 -0.30097106086504849 0 -0.37641717267996733 -0.3184640617331177 0 -0.37669606201677502 -0.29920373422444158 0 -0.36799370156123501 -0.30592930732763762 0 -0.37641717267996733 -0.3184640617331177 0 -0.36799370156123501 -0.30592930732763762 0 -0.35803691493684492 -0.31060122461938489 0 -0.37669606201677502 -0.29920373422444158 0 -0.36799370156123501 -0.30592930732763762 0 -0.3581763596052473 -0.30097106086504849 0 -0.37669606201677502 -0.29920373422444158 0 -0.3581763596052473 -0.30097106086504849 0 -0.36799370156123501 -0.30592930732763762 0 -0.35803691493684492 -0.31060122461938489 0 -0.3581763596052473 -0.30097106086504849 0 -0.35803691493684492 -0.31060122461938489 0 -0.33965665719371979 -0.30273838750565862 0 -0.35803691493684492 -0.31060122461938489 0 -0.33965665719371979 -0.30273838750565862 0 -0.34514704515453298 -0.31300544250539297 0 -0.3581763596052473 -0.30097106086504849 0 -0.33965665719371979 -0.30273838750565862 0 -0.34010739644885768 -0.2892065328944351 0 -0.35803691493684492 -0.31060122461938489 0 -0.3581763596052473 -0.30097106086504849 0 -0.33965665719371979 -0.30273838750565862 0 -0.3581763596052473 -0.30097106086504849 0 -0.33965665719371979 -0.30273838750565862 0 -0.33676996251121621 -0.31158184422573892 0 -0.33965665719371979 -0.30273838750565862 0 -0.34514704515453298 -0.31300544250539297 0 -0.33676996251121621 -0.31158184422573892 0 -0.33965665719371979 -0.30273838750565862 0 -0.32704471803945162 -0.30394193902942662 0 -0.33676996251121621 -0.31158184422573892 0 -0.32594772137393307 -0.30978944971135602 0 -0.32704471803945162 -0.30394193902942662 0 -0.33965665719371979 -0.30273838750565862 0 -0.32704471803945162 -0.30394193902942662 0 -0.32819068517220462 -0.29783339261299951 0 -0.33965665719371979 -0.30273838750565862 0 -0.32704471803945162 -0.30394193902942662 0 -0.32819068517220462 -0.29783339261299951 0 -0.33965665719371979 -0.30273838750565862 0 -0.33223611708196649 -0.27626932861073827 0 -0.32819068517220462 -0.29783339261299951 0 -0.33223611708196649 -0.27626932861073827 0 -0.32819068517220462 -0.29783339261299951 0 -0.34010739644885768 -0.2892065328944351 0 -0.33223611708196649 -0.27626932861073827 0 -0.34951875912658742 -0.28460269103381453 0 -0.34010739644885768 -0.2892065328944351 0 -0.32819068517220462 -0.29783339261299951 0 -0.33965665719371979 -0.30273838750565862 0 -0.34010739644885768 -0.2892065328944351 0 -0.32819068517220462 -0.29783339261299951 0 -0.31972670239926188 -0.28454160199560091 0 -0.31332574866090718 -0.291474364566292 0 -0.32819068517220462 -0.29783339261299951 0 -0.31332574866090718 -0.291474364566292 0 -0.33223611708196649 -0.27626932861073827 0 -0.32819068517220462 -0.29783339261299951 0 -0.31972670239926188 -0.28454160199560091 0 -0.31972670239926188 -0.28454160199560091 0 -0.31332574866090718 -0.291474364566292 0 -0.30937392239009109 -0.28339120160471948 0 -0.31972670239926188 -0.28454160199560091 0 -0.30937392239009109 -0.28339120160471948 0 -0.31187737399160442 -0.27618124236115132 0 -0.31992409361072222 -0.30462145692723192 0 -0.32594772137393307 -0.30978944971135602 0 -0.31307430431717392 -0.31869978567557272 0 -0.31992409361072222 -0.30462145692723192 0 -0.32594772137393307 -0.30978944971135602 0 -0.32594772137393307 -0.30978944971135602 0 -0.32704471803945162 -0.30394193902942662 0 -0.31992409361072222 -0.30462145692723192 0 -0.32594772137393307 -0.30978944971135602 0 -0.32704471803945162 -0.30394193902942662 0 -0.32819068517220462 -0.29783339261299951 0 -0.31332574866090718 -0.291474364566292 0 -0.31992409361072222 -0.30462145692723192 0 -0.32819068517220462 -0.29783339261299951 0 -0.32704471803945162 -0.30394193902942662 0 -0.32819068517220462 -0.29783339261299951 0 -0.31992409361072222 -0.30462145692723192 0 -0.32704471803945162 -0.30394193902942662 0 -0.31992409361072222 -0.30462145692723192 0 -0.32704471803945162 -0.30394193902942662 0 -0.32594772137393307 -0.30978944971135602 0 -0.31307430431717392 -0.31869978567557272 0 -0.32184288384298337 -0.33167017375041419 0 -0.32594772137393307 -0.30978944971135602 0 -0.32184288384298337 -0.33167017375041419 0 -0.32184288384298337 -0.33167017375041419 0 -0.31773804631203251 -0.35355089778947202 0 -0.32184288384298337 -0.33167017375041419 0 -0.34475024534571441 -0.34586667392980902 0 -0.31773804631203251 -0.35355089778947202 0 -0.32184288384298337 -0.33167017375041419 0 -0.34612464597635118 -0.32710031367078812 0 -0.34475024534571441 -0.34586667392980902 0 -0.33676996251121621 -0.31158184422573892 0 -0.32594772137393307 -0.30978944971135602 0 -0.34612464597635118 -0.32710031367078812 0 -0.32594772137393307 -0.30978944971135602 0 -0.34612464597635118 -0.32710031367078812 0 -0.32594772137393307 -0.30978944971135602 0 -0.32184288384298337 -0.33167017375041419 0 -0.34612464597635118 -0.32710031367078812 0 -0.33676996251121621 -0.31158184422573892 0 -0.34514704515453298 -0.31300544250539297 0 -0.34612464597635118 -0.32710031367078812 0 -0.35803691493684492 -0.31060122461938489 0 -0.34514704515453298 -0.31300544250539297 0 -0.34612464597635118 -0.32710031367078812 0 -0.35803691493684492 -0.31060122461938489 0 -0.34612464597635118 -0.32710031367078812 0 -0.35600230731325749 -0.33324145173106873 0 -0.37641717267996733 -0.3184640617331177 0 -0.35803691493684492 -0.31060122461938489 0 -0.37641717267996733 -0.3184640617331177 0 -0.35803691493684492 -0.31060122461938489 0 -0.36719759625642318 -0.33008752154143739 0 -0.35803691493684492 -0.31060122461938489 0 -0.36719759625642318 -0.33008752154143739 0 -0.35600230731325749 -0.33324145173106873 0 -0.37607676276689278 -0.3419730509543204 0 -0.37641717267996733 -0.3184640617331177 0 -0.36719759625642318 -0.33008752154143739 0 -0.37607676276689278 -0.3419730509543204 0 -0.3688763256213185 -0.34309961767568647 0 -0.36719759625642318 -0.33008752154143739 0 -0.36719759625642318 -0.33008752154143739 0 -0.36118874601324108 -0.3436521492952741 0 -0.35600230731325749 -0.33324145173106873 0 -0.3688763256213185 -0.34309961767568647 0 -0.36719759625642318 -0.33008752154143739 0 -0.36118874601324108 -0.3436521492952741 0 -0.34612464597635118 -0.32710031367078812 0 -0.35600230731325749 -0.33324145173106873 0 -0.34475024534571441 -0.34586667392980902 0 -0.36118874601324108 -0.3436521492952741 0 -0.35600230731325749 -0.33324145173106873 0 -0.34475024534571441 -0.34586667392980902 0 -0.36118874601324108 -0.3436521492952741 0 -0.34475024534571441 -0.34586667392980902 0 -0.35925477447714671 -0.35134479444962452 0 -0.34475024534571441 -0.34586667392980902 0 -0.35480891830463612 -0.3592101017575729 0 -0.33937201587241012 -0.36587749477948078 0 -0.34475024534571441 -0.34586667392980902 0 -0.35480891830463612 -0.3592101017575729 0 -0.35925477447714671 -0.35134479444962452 0 -0.36118874601324108 -0.3436521492952741 0 -0.37225797237559449 -0.35115364910559932 0 -0.36118874601324108 -0.3436521492952741 0 -0.35925477447714671 -0.35134479444962452 0 -0.36985982957495511 -0.35171195823109852 0 -0.37568304780698558 -0.36916333065311507 0 -0.37593298752455201 -0.35190228771479481 0 -0.37225797237559449 -0.35115364910559932 0 -0.35480891830463612 -0.3592101017575729 0 -0.35925477447714671 -0.35134479444962452 0 -0.36985982957495511 -0.35171195823109852 0 -0.37607676276689278 -0.3419730509543204 0 -0.3688763256213185 -0.34309961767568647 0 -0.37225797237559449 -0.35115364910559932 0 -0.37607676276689278 -0.3419730509543204 0 -0.37225797237559449 -0.35115364910559932 0 -0.37607676276689278 -0.3419730509543204 0 -0.37390838074359528 -0.35076941925389299 0 -0.37225797237559449 -0.35115364910559932 0 -0.37593298752455201 -0.35190228771479481 0 -0.37390838074359528 -0.35076941925389299 0 -0.37225797237559449 -0.35115364910559932 0 -0.3688763256213185 -0.34309961767568647 0 -0.36118874601324108 -0.3436521492952741 0 -0.37225797237559449 -0.35115364910559932 0 -0.37593298752455201 -0.35190228771479481 0 -0.37390838074359528 -0.35076941925389299 0 -0.36118874601324108 -0.3436521492952741 0 -0.36985982957495511 -0.35171195823109852 0 -0.37225797237559449 -0.35115364910559932 0 -0.37595629511297179 -0.35029264644438168 0 -0.37390838074359528 -0.35076941925389299 0 -0.37390838074359528 -0.35076941925389299 0 -0.37225797237559449 -0.35115364910559932 0 -0.36985982957495511 -0.35171195823109852 0 -0.37225797237559449 -0.35115364910559932 0 -0.37568304780698558 -0.36916333065311507 0 -0.37225797237559449 -0.35115364910559932 0 -0.36100598543278789 -0.37820409176948921 0 -0.35480891830463612 -0.3592101017575729 0 -0.36985982957495511 -0.35171195823109852 0 -0.36100598543278789 -0.37820409176948921 0 -0.36985982957495511 -0.35171195823109852 0 -0.37225797237559449 -0.35115364910559932 0 -0.36100598543278789 -0.37820409176948921 0 -0.37225797237559449 -0.35115364910559932 0 -0.36100598543278789 -0.37820409176948921 0 -0.33937201587241012 -0.36587749477948078 0 -0.36100598543278789 -0.37820409176948921 0 -0.35480891830463612 -0.3592101017575729 0 -0.33937201587241012 -0.36587749477948078 0 -0.36100598543278789 -0.37820409176948921 0 -0.33937201587241012 -0.36587749477948078 0 -0.31773804631203251 -0.35355089778947202 0 -0.33937201587241012 -0.36587749477948078 0 -0.31773804631203251 -0.35355089778947202 0 -0.32803705280137402 -0.37447550275240871 0 -0.34475024534571441 -0.34586667392980902 0 -0.33937201587241012 -0.36587749477948078 0 -0.31773804631203251 -0.35355089778947202 0 -0.31773804631203251 -0.35355089778947202 0 -0.31381007312398762 -0.37448885129246268 0 -0.31773804631203251 -0.35355089778947202 0 -0.31381007312398762 -0.37448885129246268 0 -0.32803705280137402 -0.37447550275240871 0 -0.31381007312398762 -0.37448885129246268 0 -0.29871455833571747 -0.36148408621311728 0 -0.29196992941862432 -0.3825632544476108 0 -0.31773804631203251 -0.35355089778947202 0 -0.31381007312398762 -0.37448885129246268 0 -0.29871455833571747 -0.36148408621311728 0 -0.31773804631203251 -0.35355089778947202 0 -0.29871455833571747 -0.36148408621311728 0 -0.29282778547957722 -0.33935753649529382 0 -0.31773804631203251 -0.35355089778947202 0 -0.29282778547957722 -0.33935753649529382 0 -0.29871455833571747 -0.36148408621311728 0 -0.27675503022224163 -0.36681377825091099 0 -0.29282778547957722 -0.33935753649529382 0 -0.29871455833571747 -0.36148408621311728 0 -0.27675503022224163 -0.36681377825091099 0 -0.29196992941862432 -0.3825632544476108 0 -0.27675503022224163 -0.36681377825091099 0 -0.25757508569408222 -0.36424633604315798 0 -0.26546808025963542 -0.34847395767735678 0 -0.27675503022224163 -0.36681377825091099 0 -0.25757508569408222 -0.36424633604315798 0 -0.25812358553267323 -0.37605355791306738 0 -0.25757508569408222 -0.36424633604315798 0 -0.24839247009954951 -0.37292447016044328 0 -0.24532753696728959 -0.36501789644951049 0 -0.25757508569408222 -0.36424633604315798 0 -0.25812358553267323 -0.37605355791306738 0 -0.24839247009954951 -0.37292447016044328 0 -0.25757508569408222 -0.36424633604315798 0 -0.26546808025963542 -0.34847395767735678 0 -0.24650166737573331 -0.3569693529562265 0 -0.26546808025963542 -0.34847395767735678 0 -0.24650166737573331 -0.3569693529562265 0 -0.24881121389389799 -0.33838995723746451 0 -0.27675503022224163 -0.36681377825091099 0 -0.26546808025963542 -0.34847395767735678 0 -0.29282778547957722 -0.33935753649529382 0 -0.26791752464712137 -0.32516417520111718 0 -0.27544300416693679 -0.31995488319631832 0 -0.29282778547957722 -0.33935753649529382 0 -0.26546808025963542 -0.34847395767735678 0 -0.26791752464712137 -0.32516417520111718 0 -0.29282778547957722 -0.33935753649529382 0 -0.26791752464712137 -0.32516417520111718 0 -0.29282778547957722 -0.33935753649529382 0 -0.26791752464712137 -0.32516417520111718 0 -0.24881121389389799 -0.33838995723746451 0 -0.26546808025963542 -0.34847395767735678 0 -0.26791752464712137 -0.32516417520111718 0 -0.24881121389389799 -0.33838995723746451 0 -0.26791752464712137 -0.32516417520111718 0 -0.24881121389389799 -0.33838995723746451 0 -0.2441082332202735 -0.32380704628422963 0 -0.26791752464712137 -0.32516417520111718 0 -0.2444966906846206 -0.31181945912301329 0 -0.26791752464712137 -0.32516417520111718 0 -0.26963915832665503 -0.30942012505775762 0 -0.2444966906846206 -0.31181945912301329 0 -0.26791752464712137 -0.32516417520111718 0 -0.2441082332202735 -0.32380704628422963 0 -0.2444966906846206 -0.31181945912301329 0 -0.26791752464712137 -0.32516417520111718 0 -0.27544300416693679 -0.31995488319631832 0 -0.26963915832665503 -0.30942012505775762 0 -0.26791752464712137 -0.32516417520111718 0 -0.27544300416693679 -0.31995488319631832 0 -0.27544300416693679 -0.31995488319631832 0 -0.29403167998309421 -0.32125824908992018 0 -0.29478162596868879 -0.30702079099249591 0 -0.27544300416693679 -0.31995488319631832 0 -0.29403167998309421 -0.32125824908992018 0 -0.29282778547957722 -0.33935753649529382 0 -0.31307430431717392 -0.31869978567557272 0 -0.32184288384298337 -0.33167017375041419 0 -0.29282778547957722 -0.33935753649529382 0 -0.32184288384298337 -0.33167017375041419 0 -0.31773804631203251 -0.35355089778947202 0 -0.29282778547957722 -0.33935753649529382 0 -0.31307430431717392 -0.31869978567557272 0 -0.29403167998309421 -0.32125824908992018 0 -0.29282778547957722 -0.33935753649529382 0 -0.31307430431717392 -0.31869978567557272 0 -0.29403167998309421 -0.32125824908992018 0 -0.29478162596868879 -0.30702079099249591 0 -0.31992409361072222 -0.30462145692723192 0 -0.29478162596868879 -0.30702079099249591 0 -0.31992409361072222 -0.30462145692723192 0 -0.31307430431717392 -0.31869978567557272 0 -0.29478162596868879 -0.30702079099249591 0 -0.31992409361072222 -0.30462145692723192 0 -0.30687808727867438 -0.29770175581860719 0 -0.29478162596868879 -0.30702079099249591 0 -0.30687808727867438 -0.29770175581860719 0 -0.29813438661480679 -0.29530641477552327 0 -0.29478162596868879 -0.30702079099249591 0 -0.31992409361072222 -0.30462145692723192 0 -0.2984608121496099 -0.28511533651958437 0 -0.31992409361072222 -0.30462145692723192 0 -0.30687808727867438 -0.29770175581860719 0 -0.2984608121496099 -0.28511533651958437 0 -0.31332574866090718 -0.291474364566292 0 -0.31992409361072222 -0.30462145692723192 0 -0.2984608121496099 -0.28511533651958437 0 -0.31332574866090718 -0.291474364566292 0 -0.30937392239009109 -0.28339120160471948 0 -0.2984608121496099 -0.28511533651958437 0 -0.31332574866090718 -0.291474364566292 0 -0.2984608121496099 -0.28511533651958437 0 -0.30937392239009109 -0.28339120160471948 0 -0.2984608121496099 -0.28511533651958437 0 -0.30347897474907187 -0.279643462580969 0 -0.30687808727867438 -0.29770175581860719 0 -0.29951482580247829 -0.29240083595456018 0 -0.29813438661480679 -0.29530641477552327 0 -0.30687808727867438 -0.29770175581860719 0 -0.2984608121496099 -0.28511533651958437 0 -0.29951482580247829 -0.29240083595456018 0 -0.29951482580247829 -0.29240083595456018 0 -0.29813438661480679 -0.29530641477552327 0 -0.29499124589990039 -0.29073588210889412 0 -0.2984608121496099 -0.28511533651958437 0 -0.29951482580247829 -0.29240083595456018 0 -0.29499124589990039 -0.29073588210889412 0 -0.29499124589990039 -0.29073588210889412 0 -0.29148170063899659 -0.29460773718781319 0 -0.28586576089235322 -0.28577101837165192 0 -0.29813438661480679 -0.29530641477552327 0 -0.29499124589990039 -0.29073588210889412 0 -0.29148170063899659 -0.29460773718781319 0 -0.2984608121496099 -0.28511533651958437 0 -0.29499124589990039 -0.29073588210889412 0 -0.28586576089235322 -0.28577101837165192 0 -0.29148170063899659 -0.29460773718781319 0 -0.28586576089235322 -0.28577101837165192 0 -0.2798353156189245 -0.29508903771003908 0 -0.29148170063899659 -0.29460773718781319 0 -0.29478162596868879 -0.30702079099249591 0 -0.2798353156189245 -0.29508903771003908 0 -0.29478162596868879 -0.30702079099249591 0 -0.26963915832665503 -0.30942012505775762 0 -0.2798353156189245 -0.29508903771003908 0 -0.29478162596868879 -0.30702079099249591 0 -0.26963915832665503 -0.30942012505775762 0 -0.29813438661480679 -0.29530641477552327 0 -0.29148170063899659 -0.29460773718781319 0 -0.29478162596868879 -0.30702079099249591 0 -0.27544300416693679 -0.31995488319631832 0 -0.29478162596868879 -0.30702079099249591 0 -0.26963915832665503 -0.30942012505775762 0 -0.26963915832665503 -0.30942012505775762 0 -0.26057201890547982 -0.29344093798311832 0 -0.2798353156189245 -0.29508903771003908 0 -0.26963915832665503 -0.30942012505775762 0 -0.2444966906846206 -0.31181945912301329 0 -0.26963915832665503 -0.30942012505775762 0 -0.26057201890547982 -0.29344093798311832 0 -0.2444966906846206 -0.31181945912301329 0 -0.26057201890547982 -0.29344093798311832 0 -0.27108878797196961 -0.28331686931735522 0 -0.25298377122075039 -0.27518622721876451 0 -0.26057201890547982 -0.29344093798311832 0 -0.25298377122075039 -0.27518622721876451 0 -0.2435111179254994 -0.29490773243705071 0 -0.26057201890547982 -0.29344093798311832 0 -0.27108878797196961 -0.28331686931735522 0 -0.2798353156189245 -0.29508903771003908 0 -0.28586576089235322 -0.28577101837165192 0 -0.27108878797196961 -0.28331686931735522 0 -0.2798353156189245 -0.29508903771003908 0 -0.27108878797196961 -0.28331686931735522 0 -0.27618707322233982 -0.26709712530320262 0 -0.25298377122075039 -0.27518622721876451 0 -0.28586576089235322 -0.28577101837165192 0 -0.27108878797196961 -0.28331686931735522 0 -0.27618707322233982 -0.26709712530320262 0 -0.27618707322233982 -0.26709712530320262 0 -0.25431856302814809 -0.24833495949118861 0 -0.27618707322233982 -0.26709712530320262 0 -0.25298377122075039 -0.27518622721876451 0 -0.25431856302814809 -0.24833495949118861 0 -0.27618707322233982 -0.26709712530320262 0 -0.27309361240676189 -0.24179026653703889 0 -0.25431856302814809 -0.24833495949118861 0 -0.27618707322233982 -0.26709712530320262 0 -0.2907170577323625 -0.25177677077710309 0 -0.27309361240676189 -0.24179026653703889 0 -0.27618707322233982 -0.26709712530320262 0 -0.2907170577323625 -0.25177677077710309 0 -0.29477899871119112 -0.26293378760569941 0 -0.2984608121496099 -0.28511533651958437 0 -0.28586576089235322 -0.28577101837165192 0 -0.27618707322233982 -0.26709712530320262 0 -0.2984608121496099 -0.28511533651958437 0 -0.27618707322233982 -0.26709712530320262 0 -0.27618707322233982 -0.26709712530320262 0 -0.29477899871119112 -0.26293378760569941 0 -0.29948479845841441 -0.27338487519771032 0 -0.2984608121496099 -0.28511533651958437 0 -0.27618707322233982 -0.26709712530320262 0 -0.29948479845841441 -0.27338487519771032 0 -0.29477899871119112 -0.26293378760569941 0 -0.29948479845841441 -0.27338487519771032 0 -0.30156079933714469 -0.26765617134954151 0 -0.30156079933714469 -0.26765617134954151 0 -0.30403476516136241 -0.27459464834518948 0 -0.30588444940973558 -0.27063474712059482 0 -0.29948479845841441 -0.27338487519771032 0 -0.30156079933714469 -0.26765617134954151 0 -0.30403476516136241 -0.27459464834518948 0 -0.30156079933714469 -0.26765617134954151 0 -0.30588444940973558 -0.27063474712059482 0 -0.3062135479255173 -0.26372173898871692 0 -0.2984608121496099 -0.28511533651958437 0 -0.29948479845841441 -0.27338487519771032 0 -0.30347897474907187 -0.279643462580969 0 -0.29948479845841441 -0.27338487519771032 0 -0.30403476516136241 -0.27459464834518948 0 -0.30347897474907187 -0.279643462580969 0 -0.30937392239009109 -0.28339120160471948 0 -0.30347897474907187 -0.279643462580969 0 -0.31187737399160442 -0.27618124236115132 0 -0.30403476516136241 -0.27459464834518948 0 -0.30347897474907187 -0.279643462580969 0 -0.31187737399160442 -0.27618124236115132 0 -0.30403476516136241 -0.27459464834518948 0 -0.31187737399160442 -0.27618124236115132 0 -0.30588444940973558 -0.27063474712059482 0 -0.31187737399160442 -0.27618124236115132 0 -0.30588444940973558 -0.27063474712059482 0 -0.3062135479255173 -0.26372173898871692 0 -0.31664960680882542 -0.25714232151458272 0 -0.31202674084989918 -0.26335133138269068 0 -0.30853150187083839 -0.25429835417001312 0 -0.2907170577323625 -0.25177677077710309 0 -0.29477899871119112 -0.26293378760569941 0 -0.30853150187083839 -0.25429835417001312 0 -0.31202674084989918 -0.26335133138269068 0 -0.3062135479255173 -0.26372173898871692 0 -0.30853150187083839 -0.25429835417001312 0 -0.29477899871119112 -0.26293378760569941 0 -0.30156079933714469 -0.26765617134954151 0 -0.3062135479255173 -0.26372173898871692 0 -0.29477899871119112 -0.26293378760569941 0 -0.3062135479255173 -0.26372173898871692 0 -0.30853150187083839 -0.25429835417001312 0 -0.33709504481289931 -0.46474263175187808 0 -0.33075086723682939 -0.45093918684289991 0 -0.35302422329502631 -0.44785824460859458 0 -0.33709504481289931 -0.46474263175187808 0 -0.33075086723682939 -0.45093918684289991 0 -0.32054712240525829 -0.47546959342145068 0 -0.33075086723682939 -0.45093918684289991 0 -0.34095461206840061 -0.42640878026434909 0 -0.33075086723682939 -0.45093918684289991 0 -0.35302422329502631 -0.44785824460859458 0 -0.34095461206840061 -0.42640878026434909 0 -0.33075086723682939 -0.45093918684289991 0 -0.32054706720266329 -0.44859283512714471 0 -0.3206124180200437 -0.43193612962395289 0 -0.33075086723682939 -0.45093918684289991 0 -0.32054706720266329 -0.44859283512714471 0 -0.31571728338184601 -0.45752087103574601 0 -0.32054706720266329 -0.44859283512714471 0 -0.31571728338184601 -0.45752087103574601 0 -0.30706080135445341 -0.45057148265483188 0 -0.33075086723682939 -0.45093918684289991 0 -0.32054712240525829 -0.47546959342145068 0 -0.33075086723682939 -0.45093918684289991 0 -0.31571728338184601 -0.45752087103574601 0 -0.32054712240525829 -0.47546959342145068 0 -0.32054712240525829 -0.47546959342145068 0 -0.32750579650535672 -0.48798687004089669 0 -0.32933965142182292 -0.47777380670114528 0 -0.32054712240525829 -0.47546959342145068 0 -0.31034337757368669 -0.50000000000000133 0 -0.32750579650535672 -0.48798687004089669 0 -0.33387795429423722 -0.5 0 -0.31034337757368669 -0.50000000000000133 0 -0.32054712240525829 -0.47546959342145068 0 -0.32750579650535672 -0.48798687004089669 0 -0.31034337757368669 -0.50000000000000133 0 -0.32750579650535672 -0.48798687004089669 0 -0.34342087683177741 -0.48669095008188618 0 -0.33387795429423722 -0.5 0 -0.33709504481289931 -0.46474263175187808 0 -0.32933965142182292 -0.47777380670114528 0 -0.35181335970555933 -0.47167232718529989 0 -0.34342087683177741 -0.48669095008188618 0 -0.32933965142182292 -0.47777380670114528 0 -0.35181335970555933 -0.47167232718529989 0 -0.32750579650535672 -0.48798687004089669 0 -0.34342087683177741 -0.48669095008188618 0 -0.32933965142182292 -0.47777380670114528 0 -0.33709504481289931 -0.46474263175187808 0 -0.32054712240525829 -0.47546959342145068 0 -0.32933965142182292 -0.47777380670114528 0 -0.32933965142182292 -0.47777380670114528 0 -0.35181335970555933 -0.47167232718529989 0 -0.34342087683177741 -0.48669095008188618 0 -0.35181335970555933 -0.47167232718529989 0 -0.35979455825166368 -0.48519290092039941 0 -0.34342087683177741 -0.48669095008188618 0 -0.35741253101478748 -0.5 0 -0.35979455825166368 -0.48519290092039941 0 -0.34342087683177741 -0.48669095008188618 0 -0.33387795429423722 -0.5 0 -0.35741253101478748 -0.5 0 -0.38094710773533791 -0.49999999999999839 0 -0.35741253101478748 -0.5 0 -0.37240076261097882 -0.48974555046165519 0 -0.35741253101478748 -0.5 0 -0.35979455825166368 -0.48519290092039941 0 -0.37240076261097882 -0.48974555046165519 0 -0.35181335970555933 -0.47167232718529989 0 -0.35979455825166368 -0.48519290092039941 0 -0.37411677223754131 -0.47733161267270968 0 -0.35181335970555933 -0.47167232718529989 0 -0.37411677223754131 -0.47733161267270968 0 -0.37428706798929601 -0.46557084766945539 0 -0.35979455825166368 -0.48519290092039941 0 -0.37240076261097882 -0.48974555046165519 0 -0.37411677223754131 -0.47733161267270968 0 -0.37411677223754131 -0.47733161267270968 0 -0.37428706798929601 -0.46557084766945539 0 -0.35181335970555933 -0.47167232718529989 0 -0.37428706798929601 -0.46557084766945539 0 -0.35302422329502631 -0.44785824460859458 0 -0.35181335970555933 -0.47167232718529989 0 -0.37428706798929601 -0.46557084766945539 0 -0.33709504481289931 -0.46474263175187808 0 -0.35181335970555933 -0.47167232718529989 0 -0.35302422329502631 -0.44785824460859458 0 -0.37428706798929601 -0.46557084766945539 0 -0.35302422329502631 -0.44785824460859458 0 -0.37472313619600889 -0.43545561783144832 0 -0.37428706798929601 -0.46557084766945539 0 -0.37472313619600889 -0.43545561783144832 0 -0.35302422329502631 -0.44785824460859458 0 -0.37472313619600889 -0.43545561783144832 0 -0.36076670325611282 -0.42019275678090617 0 -0.37515920440272033 -0.40534038799344108 0 -0.37472313619600889 -0.43545561783144832 0 -0.36076670325611282 -0.42019275678090617 0 -0.37515920440272033 -0.40534038799344108 0 -0.36076670325611282 -0.42019275678090617 0 -0.35115835689997099 -0.40187837368579798 0 -0.37515920440272033 -0.40534038799344108 0 -0.37472313619600889 -0.43545561783144832 0 -0.36076670325611282 -0.42019275678090617 0 -0.35115835689997099 -0.40187837368579798 0 -0.34095461206840061 -0.42640878026434909 0 -0.34815033243380111 -0.40144447968524521 0 -0.35115835689997099 -0.40187837368579798 0 -0.34095461206840061 -0.42640878026434909 0 -0.35115835689997099 -0.40187837368579798 0 -0.34095461206840061 -0.42640878026434909 0 -0.35302422329502631 -0.44785824460859458 0 -0.36076670325611282 -0.42019275678090617 0 -0.34095461206840061 -0.42640878026434909 0 -0.37543310808941849 -0.38642437359143528 0 -0.36100598543278789 -0.37820409176948921 0 -0.35115835689997099 -0.40187837368579798 0 -0.37543310808941849 -0.38642437359143528 0 -0.37568304780698558 -0.36916333065311507 0 -0.36100598543278789 -0.37820409176948921 0 -0.37543310808941849 -0.38642437359143528 0 -0.36100598543278789 -0.37820409176948921 0 -0.37515920440272033 -0.40534038799344108 0 -0.37543310808941849 -0.38642437359143528 0 -0.35115835689997099 -0.40187837368579798 0 -0.37515920440272033 -0.40534038799344108 0 -0.35115835689997099 -0.40187837368579798 0 -0.35115835689997099 -0.40187837368579798 0 -0.34646966066369161 -0.38533898881774881 0 -0.34316085436749 -0.39382471367395527 0 -0.34815033243380111 -0.40144447968524521 0 -0.35115835689997099 -0.40187837368579798 0 -0.34316085436749 -0.39382471367395527 0 -0.34815033243380111 -0.40144447968524521 0 -0.35115835689997099 -0.40187837368579798 0 -0.33937201587241012 -0.36587749477948078 0 -0.36100598543278789 -0.37820409176948921 0 -0.34646966066369161 -0.38533898881774881 0 -0.36100598543278789 -0.37820409176948921 0 -0.35115835689997099 -0.40187837368579798 0 -0.36100598543278789 -0.37820409176948921 0 -0.35115835689997099 -0.40187837368579798 0 -0.34646966066369161 -0.38533898881774881 0 -0.33937201587241012 -0.36587749477948078 0 -0.32803705280137402 -0.37447550275240871 0 -0.34646966066369161 -0.38533898881774881 0 -0.32803705280137402 -0.37447550275240871 0 -0.34646966066369161 -0.38533898881774881 0 -0.32931529664348408 -0.38869437358142001 0 -0.34646966066369161 -0.38533898881774881 0 -0.32931529664348408 -0.38869437358142001 0 -0.34316085436749 -0.39382471367395527 0 -0.34815033243380111 -0.40144447968524521 0 -0.33486919938690762 -0.39884665705885908 0 -0.32944617452305069 -0.41182817437998842 0 -0.32931529664348408 -0.38869437358142001 0 -0.34316085436749 -0.39382471367395527 0 -0.33486919938690762 -0.39884665705885908 0 -0.32931529664348408 -0.38869437358142001 0 -0.33486919938690762 -0.39884665705885908 0 -0.32365381597648563 -0.39942827076698811 0 -0.34815033243380111 -0.40144447968524521 0 -0.34316085436749 -0.39382471367395527 0 -0.33486919938690762 -0.39884665705885908 0 -0.33486919938690762 -0.39884665705885908 0 -0.32365381597648563 -0.39942827076698811 0 -0.32944617452305069 -0.41182817437998842 0 -0.32931529664348408 -0.38869437358142001 0 -0.32365381597648563 -0.39942827076698811 0 -0.30988209993594379 -0.39542680479545339 0 -0.32365381597648563 -0.39942827076698811 0 -0.30595412674790001 -0.41636475829844438 0 -0.30988209993594379 -0.39542680479545339 0 -0.31381007312398762 -0.37448885129246268 0 -0.32931529664348408 -0.38869437358142001 0 -0.30988209993594379 -0.39542680479545339 0 -0.31381007312398762 -0.37448885129246268 0 -0.32803705280137402 -0.37447550275240871 0 -0.32931529664348408 -0.38869437358142001 0 -0.34095461206840061 -0.42640878026434909 0 -0.32944617452305069 -0.41182817437998842 0 -0.3206124180200437 -0.43193612962395289 0 -0.33075086723682939 -0.45093918684289991 0 -0.34095461206840061 -0.42640878026434909 0 -0.3206124180200437 -0.43193612962395289 0 -0.34815033243380111 -0.40144447968524521 0 -0.34095461206840061 -0.42640878026434909 0 -0.32944617452305069 -0.41182817437998842 0 -0.32944617452305069 -0.41182817437998842 0 -0.3206124180200437 -0.43193612962395289 0 -0.30595412674790001 -0.41636475829844438 0 -0.32365381597648563 -0.39942827076698811 0 -0.32944617452305069 -0.41182817437998842 0 -0.30595412674790001 -0.41636475829844438 0 -0.3206124180200437 -0.43193612962395289 0 -0.30595412674790001 -0.41636475829844438 0 -0.29602166034141808 -0.43748304283089118 0 -0.30595412674790001 -0.41636475829844438 0 -0.28680587137917263 -0.41476105187328532 0 -0.29502227998321778 -0.40112933436643161 0 -0.30595412674790001 -0.41636475829844438 0 -0.28680587137917263 -0.41476105187328532 0 -0.29602166034141808 -0.43748304283089118 0 -0.28680587137917263 -0.41476105187328532 0 -0.29602166034141808 -0.43748304283089118 0 -0.27149625348017281 -0.42637325053463759 0 -0.29602166034141808 -0.43748304283089118 0 -0.27149625348017281 -0.42637325053463759 0 -0.29602166034141808 -0.43748304283089118 0 -0.27149625348017281 -0.42637325053463759 0 -0.27906578537949278 -0.44687665772048962 0 -0.31381007312398762 -0.37448885129246268 0 -0.30988209993594379 -0.39542680479545339 0 -0.31381007312398762 -0.37448885129246268 0 -0.30988209993594379 -0.39542680479545339 0 -0.29196992941862432 -0.3825632544476108 0 -0.30595412674790001 -0.41636475829844438 0 -0.30988209993594379 -0.39542680479545339 0 -0.30595412674790001 -0.41636475829844438 0 -0.30988209993594379 -0.39542680479545339 0 -0.29502227998321778 -0.40112933436643161 0 -0.30988209993594379 -0.39542680479545339 0 -0.29502227998321778 -0.40112933436643161 0 -0.29196992941862432 -0.3825632544476108 0 -0.28680587137917263 -0.41476105187328532 0 -0.29502227998321778 -0.40112933436643161 0 -0.2806661672136338 -0.39648987600255969 0 -0.29502227998321778 -0.40112933436643161 0 -0.29196992941862432 -0.3825632544476108 0 -0.2806661672136338 -0.39648987600255969 0 -0.27675503022224163 -0.36681377825091099 0 -0.29196992941862432 -0.3825632544476108 0 -0.26924588117792803 -0.38334910629271668 0 -0.29196992941862432 -0.3825632544476108 0 -0.26924588117792803 -0.38334910629271668 0 -0.2806661672136338 -0.39648987600255969 0 -0.27675503022224163 -0.36681377825091099 0 -0.26924588117792803 -0.38334910629271668 0 -0.25812358553267323 -0.37605355791306738 0 -0.28680587137917263 -0.41476105187328532 0 -0.2806661672136338 -0.39648987600255969 0 -0.26326431180229581 -0.40282557300305732 0 -0.26924588117792803 -0.38334910629271668 0 -0.2806661672136338 -0.39648987600255969 0 -0.26326431180229581 -0.40282557300305732 0 -0.26326431180229581 -0.40282557300305732 0 -0.2504897110532438 -0.38524934403489181 0 -0.24394706363899241 -0.39877073912243299 0 -0.26326431180229581 -0.40282557300305732 0 -0.24697084661892749 -0.41526345823838401 0 -0.24394706363899241 -0.39877073912243299 0 -0.26924588117792803 -0.38334910629271668 0 -0.26326431180229581 -0.40282557300305732 0 -0.2504897110532438 -0.38524934403489181 0 -0.26924588117792803 -0.38334910629271668 0 -0.2504897110532438 -0.38524934403489181 0 -0.25812358553267323 -0.37605355791306738 0 -0.2504897110532438 -0.38524934403489181 0 -0.25812358553267323 -0.37605355791306738 0 -0.24839247009954951 -0.37292447016044328 0 -0.28680587137917263 -0.41476105187328532 0 -0.26326431180229581 -0.40282557300305732 0 -0.27149625348017281 -0.42637325053463759 0 -0.27149625348017281 -0.42637325053463759 0 -0.24697084661892749 -0.41526345823838401 0 -0.26326431180229581 -0.40282557300305732 0 -0.27149625348017281 -0.42637325053463759 0 -0.24697084661892749 -0.41526345823838401 0 -0.27149625348017281 -0.42637325053463759 0 -0.25687425522332558 -0.44642006451091643 0 -0.24697084661892749 -0.41526345823838401 0 -0.25687425522332558 -0.44642006451091643 0 -0.27607931301277078 -0.46657199895299017 0 -0.25409384940020791 -0.47271975939701871 0 -0.25687425522332558 -0.44642006451091643 0 -0.27607931301277078 -0.46657199895299017 0 -0.27906578537949278 -0.44687665772048962 0 -0.27149625348017281 -0.42637325053463759 0 -0.25687425522332558 -0.44642006451091643 0 -0.27906578537949278 -0.44687665772048962 0 -0.29602166034141808 -0.43748304283089118 0 -0.27906578537949278 -0.44687665772048962 0 -0.29968055871002541 -0.46203125713240301 0 -0.27607931301277078 -0.46657199895299017 0 -0.27906578537949278 -0.44687665772048962 0 -0.29968055871002541 -0.46203125713240301 0 -0.31571728338184601 -0.45752087103574601 0 -0.29968055871002541 -0.46203125713240301 0 -0.30706080135445341 -0.45057148265483188 0 -0.31571728338184601 -0.45752087103574601 0 -0.32054712240525829 -0.47546959342145068 0 -0.29968055871002541 -0.46203125713240301 0 -0.32054706720266329 -0.44859283512714471 0 -0.29602166034141808 -0.43748304283089118 0 -0.32054706720266329 -0.44859283512714471 0 -0.3206124180200437 -0.43193612962395289 0 -0.29602166034141808 -0.43748304283089118 0 -0.32054706720266329 -0.44859283512714471 0 -0.29602166034141808 -0.43748304283089118 0 -0.30706080135445341 -0.45057148265483188 0 -0.29602166034141808 -0.43748304283089118 0 -0.29968055871002541 -0.46203125713240301 0 -0.30706080135445341 -0.45057148265483188 0 -0.32054712240525829 -0.47546959342145068 0 -0.31034337757368669 -0.50000000000000133 0 -0.2941570887960146 -0.48201569375099518 0 -0.32054712240525829 -0.47546959342145068 0 -0.29968055871002541 -0.46203125713240301 0 -0.2941570887960146 -0.48201569375099518 0 -0.27607931301277078 -0.46657199895299017 0 -0.29968055871002541 -0.46203125713240301 0 -0.2941570887960146 -0.48201569375099518 0 -0.2941570887960146 -0.48201569375099518 0 -0.28248249767631262 -0.5 0 -0.27039562620846602 -0.48462576079096858 0 -0.31034337757368669 -0.50000000000000133 0 -0.2941570887960146 -0.48201569375099518 0 -0.28248249767631262 -0.5 0 -0.28248249767631262 -0.5 0 -0.27039562620846602 -0.48462576079096858 0 -0.25462161777893849 -0.5 0 -0.27607931301277078 -0.46657199895299017 0 -0.2941570887960146 -0.48201569375099518 0 -0.27039562620846602 -0.48462576079096858 0 -0.27607931301277078 -0.46657199895299017 0 -0.27039562620846602 -0.48462576079096858 0 -0.25409384940020791 -0.47271975939701871 0 -0.27039562620846602 -0.48462576079096858 0 -0.25409384940020791 -0.47271975939701871 0 -0.25462161777893849 -0.5 0 -0.25462161777893849 -0.5 0 -0.23155232774708009 -0.47932355884050398 0 -0.22676073788156451 -0.5 0 -0.25409384940020791 -0.47271975939701871 0 -0.25462161777893849 -0.5 0 -0.23155232774708009 -0.47932355884050398 0 -0.25409384940020791 -0.47271975939701871 0 -0.23155232774708009 -0.47932355884050398 0 -0.2350399564306665 -0.45937717328673289 0 -0.23155232774708009 -0.47932355884050398 0 -0.2350399564306665 -0.45937717328673289 0 -0.2080224731694312 -0.47403962225972662 0 -0.23155232774708009 -0.47932355884050398 0 -0.22676073788156451 -0.5 0 -0.2080224731694312 -0.47403962225972662 0 -0.25687425522332558 -0.44642006451091643 0 -0.2350399564306665 -0.45937717328673289 0 -0.23180750449586429 -0.4343742486430574 0 -0.25687425522332558 -0.44642006451091643 0 -0.25409384940020791 -0.47271975939701871 0 -0.2350399564306665 -0.45937717328673289 0 -0.2350399564306665 -0.45937717328673289 0 -0.21590660946663959 -0.44883644739355771 0 -0.2080224731694312 -0.47403962225972662 0 -0.2350399564306665 -0.45937717328673289 0 -0.21590660946663959 -0.44883644739355771 0 -0.23180750449586429 -0.4343742486430574 0 -0.21590660946663959 -0.44883644739355771 0 -0.1943898331460783 -0.4473597119794826 0 -0.20910912931781811 -0.42543372189632289 0 -0.21590660946663959 -0.44883644739355771 0 -0.1943898331460783 -0.4473597119794826 0 -0.2080224731694312 -0.47403962225972662 0 -0.1943898331460783 -0.4473597119794826 0 -0.2080224731694312 -0.47403962225972662 0 -0.17967053697433849 -0.46928570206264231 0 -0.22676073788156451 -0.5 0 -0.2080224731694312 -0.47403962225972662 0 -0.19889985798419041 -0.5 0 -0.2080224731694312 -0.47403962225972662 0 -0.1821948971586228 -0.48648437486529872 0 -0.17967053697433849 -0.46928570206264231 0 -0.2080224731694312 -0.47403962225972662 0 -0.19889985798419041 -0.5 0 -0.1821948971586228 -0.48648437486529872 0 -0.19889985798419041 -0.5 0 -0.1821948971586228 -0.48648437486529872 0 -0.17103897808681609 -0.49999999999999778 0 -0.1821948971586228 -0.48648437486529872 0 -0.17103897808681609 -0.49999999999999778 0 -0.16495124080259491 -0.49121169214579941 0 -0.17103897808681609 -0.49999999999999778 0 -0.16495124080259491 -0.49121169214579941 0 -0.17103897808681609 -0.49999999999999778 0 -0.16495124080259491 -0.49121169214579941 0 -0.15905149781887321 -0.49999999999999961 0 -0.16495124080259491 -0.49121169214579941 0 -0.15905149781887321 -0.49999999999999961 0 -0.1545750311736096 -0.49062041690426861 0 -0.16495124080259491 -0.49121169214579941 0 -0.15905149781887321 -0.49999999999999961 0 -0.16495124080259491 -0.49121169214579941 0 -0.16530166315622061 -0.47155300009798301 0 -0.17967053697433849 -0.46928570206264231 0 -0.16495124080259491 -0.49121169214579941 0 -0.16530166315622061 -0.47155300009798301 0 -0.15083103946930049 -0.47082765280793248 0 -0.16495124080259491 -0.49121169214579941 0 -0.1545750311736096 -0.49062041690426861 0 -0.15083103946930049 -0.47082765280793248 0 -0.16495124080259491 -0.49121169214579941 0 -0.15083103946930049 -0.47082765280793248 0 -0.16495124080259491 -0.49121169214579941 0 -0.17967053697433849 -0.46928570206264231 0 -0.1821948971586228 -0.48648437486529872 0 -0.16495124080259491 -0.49121169214579941 0 -0.17967053697433849 -0.46928570206264231 0 -0.1943898331460783 -0.4473597119794826 0 -0.17967053697433849 -0.46928570206264231 0 -0.1943898331460783 -0.4473597119794826 0 -0.17967053697433849 -0.46928570206264231 0 -0.1657538353786501 -0.45488695337555668 0 -0.1943898331460783 -0.4473597119794826 0 -0.1657538353786501 -0.45488695337555668 0 -0.1755027511393909 -0.43471579892562301 0 -0.1657538353786501 -0.45488695337555668 0 -0.15761868306950341 -0.43586407366366631 0 -0.1755027511393909 -0.43471579892562301 0 -0.16530166315622061 -0.47155300009798301 0 -0.1657538353786501 -0.45488695337555668 0 -0.15083103946930049 -0.47082765280793248 0 -0.16530166315622061 -0.47155300009798301 0 -0.17967053697433849 -0.46928570206264231 0 -0.1657538353786501 -0.45488695337555668 0 -0.13671083813600751 -0.45044361347006462 0 -0.15083103946930049 -0.47082765280793248 0 -0.13671083813600751 -0.45044361347006462 0 -0.13441782301728619 -0.47175980973682791 0 -0.15083103946930049 -0.47082765280793248 0 -0.1657538353786501 -0.45488695337555668 0 -0.13671083813600751 -0.45044361347006462 0 -0.15083103946930049 -0.47082765280793248 0 -0.13671083813600751 -0.45044361347006462 0 -0.13816776916695811 -0.432543871779144 0 -0.15761868306950341 -0.43586407366366631 0 -0.1657538353786501 -0.45488695337555668 0 -0.13671083813600751 -0.45044361347006462 0 -0.15761868306950341 -0.43586407366366631 0 -0.13671083813600751 -0.45044361347006462 0 -0.13816776916695811 -0.432543871779144 0 -0.1225906368027144 -0.43005957413219659 0 -0.13671083813600751 -0.45044361347006462 0 -0.1225906368027144 -0.43005957413219659 0 -0.13671083813600751 -0.45044361347006462 0 -0.13441782301728619 -0.47175980973682791 0 -0.1201929706126502 -0.46127799294672761 0 -0.13441782301728619 -0.47175980973682791 0 -0.12605423818426559 -0.48707922202292669 0 -0.14429533434837091 -0.48908967660720287 0 -0.13441782301728619 -0.47175980973682791 0 -0.12605423818426559 -0.48707922202292669 0 -0.1201929706126502 -0.46127799294672761 0 -0.1295391708778694 -0.5 0 -0.12605423818426559 -0.48707922202292669 0 -0.14429533434837091 -0.48908967660720287 0 -0.15905149781887321 -0.49999999999999961 0 -0.1295391708778694 -0.5 0 -0.14429533434837091 -0.48908967660720287 0 -0.15905149781887321 -0.49999999999999961 0 -0.14429533434837091 -0.48908967660720287 0 -0.1545750311736096 -0.49062041690426861 0 -0.14429533434837091 -0.48908967660720287 0 -0.1545750311736096 -0.49062041690426861 0 -0.15083103946930049 -0.47082765280793248 0 -0.13441782301728619 -0.47175980973682791 0 -0.14429533434837091 -0.48908967660720287 0 -0.15083103946930049 -0.47082765280793248 0 -0.15345949684661231 -0.4053237642064671 0 -0.15136585988972451 -0.39002590355483568 0 -0.13982663417143551 -0.39933000433158738 0 -0.15136585988972451 -0.39002590355483568 0 -0.1368738238800834 -0.3880397179408614 0 -0.13982663417143551 -0.39933000433158738 0 -0.15345949684661231 -0.4053237642064671 0 -0.13982663417143551 -0.39933000433158738 0 -0.1398029654186671 -0.41064466143528439 0 -0.15136585988972451 -0.39002590355483568 0 -0.1368738238800834 -0.3880397179408614 0 -0.13959568407155781 -0.37291875636350952 0 -0.15136585988972451 -0.39002590355483568 0 -0.15951650330528561 -0.37856285477961621 0 -0.13959568407155781 -0.37291875636350952 0 -0.1368738238800834 -0.3880397179408614 0 -0.12625141541498519 -0.38197991289387551 0 -0.13959568407155781 -0.37291875636350952 0 -0.1368738238800834 -0.3880397179408614 0 -0.12625141541498519 -0.38197991289387551 0 -0.1273295258527142 -0.39594401256049883 0 -0.1368738238800834 -0.3880397179408614 0 -0.1273295258527142 -0.39594401256049883 0 -0.13982663417143551 -0.39933000433158738 0 -0.13982663417143551 -0.39933000433158738 0 -0.1295768038857959 -0.40463739140698729 0 -0.1398029654186671 -0.41064466143528439 0 -0.1273295258527142 -0.39594401256049883 0 -0.13982663417143551 -0.39933000433158738 0 -0.1295768038857959 -0.40463739140698729 0 -0.1273295258527142 -0.39594401256049883 0 -0.1295768038857959 -0.40463739140698729 0 -0.1219584454402414 -0.40406961642135292 0 -0.1295768038857959 -0.40463739140698729 0 -0.1296119374269841 -0.41417592727859581 0 -0.1225700411049412 -0.40994677461386392 0 -0.1296119374269841 -0.41417592727859581 0 -0.12315425937001 -0.41747458531602638 0 -0.1225700411049412 -0.40994677461386392 0 -0.1296119374269841 -0.41417592727859581 0 -0.13713184062407599 -0.42036644340313623 0 -0.12908399078123631 -0.42243277819987513 0 -0.1296119374269841 -0.41417592727859581 0 -0.12908399078123631 -0.42243277819987513 0 -0.12315425937001 -0.41747458531602638 0 -0.1296119374269841 -0.41417592727859581 0 -0.13713184062407599 -0.42036644340313623 0 -0.1398029654186671 -0.41064466143528439 0 -0.1295768038857959 -0.40463739140698729 0 -0.1296119374269841 -0.41417592727859581 0 -0.1398029654186671 -0.41064466143528439 0 -0.12908399078123631 -0.42243277819987513 0 -0.13816776916695811 -0.432543871779144 0 -0.1225906368027144 -0.43005957413219659 0 -0.13713184062407599 -0.42036644340313623 0 -0.12908399078123631 -0.42243277819987513 0 -0.13816776916695811 -0.432543871779144 0 -0.13816776916695811 -0.432543871779144 0 -0.14921107955709881 -0.42003443798493328 0 -0.15761868306950341 -0.43586407366366631 0 -0.13713184062407599 -0.42036644340313623 0 -0.13816776916695811 -0.432543871779144 0 -0.14921107955709881 -0.42003443798493328 0 -0.15345949684661231 -0.4053237642064671 0 -0.1398029654186671 -0.41064466143528439 0 -0.14921107955709881 -0.42003443798493328 0 -0.13713184062407599 -0.42036644340313623 0 -0.1398029654186671 -0.41064466143528439 0 -0.14921107955709881 -0.42003443798493328 0 -0.15345949684661231 -0.4053237642064671 0 -0.14921107955709881 -0.42003443798493328 0 -0.17009787391258249 -0.41611158199907422 0 -0.14921107955709881 -0.42003443798493328 0 -0.17009787391258249 -0.41611158199907422 0 -0.15761868306950341 -0.43586407366366631 0 -0.17009787391258249 -0.41611158199907422 0 -0.15761868306950341 -0.43586407366366631 0 -0.1755027511393909 -0.43471579892562301 0 -0.1943898331460783 -0.4473597119794826 0 -0.1755027511393909 -0.43471579892562301 0 -0.18951413900105801 -0.42212105940109063 0 -0.17009787391258249 -0.41611158199907422 0 -0.1755027511393909 -0.43471579892562301 0 -0.18951413900105801 -0.42212105940109063 0 -0.17009787391258249 -0.41611158199907422 0 -0.18562609472684241 -0.40161550393767448 0 -0.18951413900105801 -0.42212105940109063 0 -0.18562609472684241 -0.40161550393767448 0 -0.16863204450281991 -0.39380366607865908 0 -0.18254917963999329 -0.38971973427100182 0 -0.17009787391258249 -0.41611158199907422 0 -0.18562609472684241 -0.40161550393767448 0 -0.16863204450281991 -0.39380366607865908 0 -0.18562609472684241 -0.40161550393767448 0 -0.18254917963999329 -0.38971973427100182 0 -0.19364364155811911 -0.391297223908462 0 -0.15345949684661231 -0.4053237642064671 0 -0.17009787391258249 -0.41611158199907422 0 -0.16863204450281991 -0.39380366607865908 0 -0.15345949684661231 -0.4053237642064671 0 -0.15136585988972451 -0.39002590355483568 0 -0.16863204450281991 -0.39380366607865908 0 -0.15951650330528561 -0.37856285477961621 0 -0.17625218554490921 -0.38180729220612769 0 -0.1663610822414904 -0.3702523776444529 0 -0.16863204450281991 -0.39380366607865908 0 -0.15951650330528561 -0.37856285477961621 0 -0.17625218554490921 -0.38180729220612769 0 -0.15136585988972451 -0.39002590355483568 0 -0.16863204450281991 -0.39380366607865908 0 -0.15951650330528561 -0.37856285477961621 0 -0.17625218554490921 -0.38180729220612769 0 -0.1663610822414904 -0.3702523776444529 0 -0.18579747934449059 -0.37379744869579251 0 -0.16863204450281991 -0.39380366607865908 0 -0.17625218554490921 -0.38180729220612769 0 -0.18254917963999329 -0.38971973427100182 0 -0.17625218554490921 -0.38180729220612769 0 -0.18254917963999329 -0.38971973427100182 0 -0.18859193186727599 -0.38007498522408562 0 -0.17625218554490921 -0.38180729220612769 0 -0.18859193186727599 -0.38007498522408562 0 -0.18579747934449059 -0.37379744869579251 0 -0.18859193186727599 -0.38007498522408562 0 -0.2014200033848125 -0.37119512976538899 0 -0.18859193186727599 -0.38007498522408562 0 -0.2014200033848125 -0.37119512976538899 0 -0.18579747934449059 -0.37379744869579251 0 -0.18859193186727599 -0.38007498522408562 0 -0.1989719328316337 -0.38216032023399737 0 -0.2014200033848125 -0.37119512976538899 0 -0.1989719328316337 -0.38216032023399737 0 -0.20694960464083431 -0.38128159833907621 0 -0.2014200033848125 -0.37119512976538899 0 -0.1989719328316337 -0.38216032023399737 0 -0.19364364155811911 -0.391297223908462 0 -0.20620014074293039 -0.39180645285032889 0 -0.18859193186727599 -0.38007498522408562 0 -0.1989719328316337 -0.38216032023399737 0 -0.19364364155811911 -0.391297223908462 0 -0.18254917963999329 -0.38971973427100182 0 -0.18859193186727599 -0.38007498522408562 0 -0.19364364155811911 -0.391297223908462 0 -0.18562609472684241 -0.40161550393767448 0 -0.19364364155811911 -0.391297223908462 0 -0.20208872018367391 -0.4070926974887904 0 -0.19364364155811911 -0.391297223908462 0 -0.20620014074293039 -0.39180645285032889 0 -0.20208872018367391 -0.4070926974887904 0 -0.20620014074293039 -0.39180645285032889 0 -0.21479853281951461 -0.38638530273916921 0 -0.22382842548955789 -0.4035077318131633 0 -0.20620014074293039 -0.39180645285032889 0 -0.20208872018367391 -0.4070926974887904 0 -0.22382842548955789 -0.4035077318131633 0 -0.21479853281951461 -0.38638530273916921 0 -0.20694960464083431 -0.38128159833907621 0 -0.21335741342528061 -0.3748607861064962 0 -0.21479853281951461 -0.38638530273916921 0 -0.22412886374227589 -0.38235217247817599 0 -0.21335741342528061 -0.3748607861064962 0 -0.20694960464083431 -0.38128159833907621 0 -0.2014200033848125 -0.37119512976538899 0 -0.21335741342528061 -0.3748607861064962 0 -0.20620014074293039 -0.39180645285032889 0 -0.21479853281951461 -0.38638530273916921 0 -0.20694960464083431 -0.38128159833907621 0 -0.1989719328316337 -0.38216032023399737 0 -0.20620014074293039 -0.39180645285032889 0 -0.20694960464083431 -0.38128159833907621 0 -0.1943898331460783 -0.4473597119794826 0 -0.20910912931781811 -0.42543372189632289 0 -0.1943898331460783 -0.4473597119794826 0 -0.18951413900105801 -0.42212105940109063 0 -0.20910912931781811 -0.42543372189632289 0 -0.18951413900105801 -0.42212105940109063 0 -0.20208872018367391 -0.4070926974887904 0 -0.20910912931781811 -0.42543372189632289 0 -0.18562609472684241 -0.40161550393767448 0 -0.18951413900105801 -0.42212105940109063 0 -0.20208872018367391 -0.4070926974887904 0 -0.20208872018367391 -0.4070926974887904 0 -0.20910912931781811 -0.42543372189632289 0 -0.22382842548955789 -0.4035077318131633 0 -0.20910912931781811 -0.42543372189632289 0 -0.22382842548955789 -0.4035077318131633 0 -0.21590660946663959 -0.44883644739355771 0 -0.20910912931781811 -0.42543372189632289 0 -0.23180750449586429 -0.4343742486430574 0 -0.20910912931781811 -0.42543372189632289 0 -0.23180750449586429 -0.4343742486430574 0 -0.22382842548955789 -0.4035077318131633 0 -0.23180750449586429 -0.4343742486430574 0 -0.24697084661892749 -0.41526345823838401 0 -0.22382842548955789 -0.4035077318131633 0 -0.25687425522332558 -0.44642006451091643 0 -0.23180750449586429 -0.4343742486430574 0 -0.24697084661892749 -0.41526345823838401 0 -0.22412886374227589 -0.38235217247817599 0 -0.2351820232309369 -0.38700758852266848 0 -0.22952037500089251 -0.37311519752493849 0 -0.22412886374227589 -0.38235217247817599 0 -0.22186900287429051 -0.37074082218821958 0 -0.21335741342528061 -0.3748607861064962 0 -0.22412886374227589 -0.38235217247817599 0 -0.22952037500089251 -0.37311519752493849 0 -0.22186900287429051 -0.37074082218821958 0 -0.22382842548955789 -0.4035077318131633 0 -0.24394706363899241 -0.39877073912243299 0 -0.2351820232309369 -0.38700758852266848 0 -0.21479853281951461 -0.38638530273916921 0 -0.22412886374227589 -0.38235217247817599 0 -0.22382842548955789 -0.4035077318131633 0 -0.22412886374227589 -0.38235217247817599 0 -0.22382842548955789 -0.4035077318131633 0 -0.2351820232309369 -0.38700758852266848 0 -0.24697084661892749 -0.41526345823838401 0 -0.22382842548955789 -0.4035077318131633 0 -0.24394706363899241 -0.39877073912243299 0 -0.2504897110532438 -0.38524934403489181 0 -0.24394706363899241 -0.39877073912243299 0 -0.2351820232309369 -0.38700758852266848 0 -0.2504897110532438 -0.38524934403489181 0 -0.2351820232309369 -0.38700758852266848 0 -0.24036284435674521 -0.37772398595485779 0 -0.2351820232309369 -0.38700758852266848 0 -0.24036284435674521 -0.37772398595485779 0 -0.22952037500089251 -0.37311519752493849 0 -0.2504897110532438 -0.38524934403489181 0 -0.24036284435674521 -0.37772398595485779 0 -0.24839247009954951 -0.37292447016044328 0 -0.24839247009954951 -0.37292447016044328 0 -0.24532753696728959 -0.36501789644951049 0 -0.23861636880082099 -0.36955921174380651 0 -0.24036284435674521 -0.37772398595485779 0 -0.24839247009954951 -0.37292447016044328 0 -0.23861636880082099 -0.36955921174380651 0 -0.25757508569408222 -0.36424633604315798 0 -0.24532753696728959 -0.36501789644951049 0 -0.24650166737573331 -0.3569693529562265 0 -0.24532753696728959 -0.36501789644951049 0 -0.24234943749700691 -0.36154613291017651 0 -0.24650166737573331 -0.3569693529562265 0 -0.24532753696728959 -0.36501789644951049 0 -0.24234943749700691 -0.36154613291017651 0 -0.23928568589256061 -0.36455139619594779 0 -0.24234943749700691 -0.36154613291017651 0 -0.23928568589256061 -0.36455139619594779 0 -0.23696933381926599 -0.3585493042599866 0 -0.24532753696728959 -0.36501789644951049 0 -0.23928568589256061 -0.36455139619594779 0 -0.23861636880082099 -0.36955921174380651 0 -0.23928568589256061 -0.36455139619594779 0 -0.23861636880082099 -0.36955921174380651 0 -0.23345080570298909 -0.36409891217005902 0 -0.23928568589256061 -0.36455139619594779 0 -0.23345080570298909 -0.36409891217005902 0 -0.23696933381926599 -0.3585493042599866 0 -0.24036284435674521 -0.37772398595485779 0 -0.23861636880082099 -0.36955921174380651 0 -0.22952037500089251 -0.37311519752493849 0 -0.23345080570298909 -0.36409891217005902 0 -0.22186900287429051 -0.37074082218821958 0 -0.21424807490234879 -0.36231527430669241 0 -0.22952037500089251 -0.37311519752493849 0 -0.23345080570298909 -0.36409891217005902 0 -0.22186900287429051 -0.37074082218821958 0 -0.23696933381926599 -0.3585493042599866 0 -0.21424807490234879 -0.36231527430669241 0 -0.23861636880082099 -0.36955921174380651 0 -0.22952037500089251 -0.37311519752493849 0 -0.23345080570298909 -0.36409891217005902 0 -0.23345080570298909 -0.36409891217005902 0 -0.23696933381926599 -0.3585493042599866 0 -0.21424807490234879 -0.36231527430669241 0 -0.22913587473404851 -0.35200963246311751 0 -0.2097464541822805 -0.33582260124732738 0 -0.22913587473404851 -0.35200963246311751 0 -0.23696933381926599 -0.3585493042599866 0 -0.21424807490234879 -0.36231527430669241 0 -0.22913587473404851 -0.35200963246311751 0 -0.21998707993494029 -0.33959044394559312 0 -0.22913587473404851 -0.35200963246311751 0 -0.21424807490234879 -0.36231527430669241 0 -0.22913587473404851 -0.35200963246311751 0 -0.23696933381926599 -0.3585493042599866 0 -0.22913587473404851 -0.35200963246311751 0 -0.24881121389389799 -0.33838995723746451 0 -0.22913587473404851 -0.35200963246311751 0 -0.23696933381926599 -0.3585493042599866 0 -0.24650166737573331 -0.3569693529562265 0 -0.22913587473404851 -0.35200963246311751 0 -0.24650166737573331 -0.3569693529562265 0 -0.24881121389389799 -0.33838995723746451 0 -0.23696933381926599 -0.3585493042599866 0 -0.24650166737573331 -0.3569693529562265 0 -0.24234943749700691 -0.36154613291017651 0 -0.23696933381926599 -0.3585493042599866 0 -0.24650166737573331 -0.3569693529562265 0 -0.22913587473404851 -0.35200963246311751 0 -0.24881121389389799 -0.33838995723746451 0 -0.2325545649384867 -0.33453283978227571 0 -0.24881121389389799 -0.33838995723746451 0 -0.2441082332202735 -0.32380704628422963 0 -0.2325545649384867 -0.33453283978227571 0 -0.23613058105125781 -0.31890710479075163 0 -0.2279063026952847 -0.3135077128279592 0 -0.2444966906846206 -0.31181945912301329 0 -0.2441082332202735 -0.32380704628422963 0 -0.23498207165859719 -0.32537142019391418 0 -0.23613058105125781 -0.31890710479075163 0 -0.2441082332202735 -0.32380704628422963 0 -0.23498207165859719 -0.32537142019391418 0 -0.2325545649384867 -0.33453283978227571 0 -0.2441082332202735 -0.32380704628422963 0 -0.23613058105125781 -0.31890710479075163 0 -0.2444966906846206 -0.31181945912301329 0 -0.2279063026952847 -0.3135077128279592 0 -0.2193464910840433 -0.31976030368968739 0 -0.21134622408423179 -0.310554889255794 0 -0.23613058105125781 -0.31890710479075163 0 -0.2279063026952847 -0.3135077128279592 0 -0.22829430606921119 -0.32293804105388452 0 -0.23498207165859719 -0.32537142019391418 0 -0.22829430606921119 -0.32293804105388452 0 -0.2325545649384867 -0.33453283978227571 0 -0.23498207165859719 -0.32537142019391418 0 -0.23613058105125781 -0.31890710479075163 0 -0.22829430606921119 -0.32293804105388452 0 -0.22829430606921119 -0.32293804105388452 0 -0.2193464910840433 -0.31976030368968739 0 -0.22209033975117781 -0.32887735541776358 0 -0.2279063026952847 -0.3135077128279592 0 -0.22829430606921119 -0.32293804105388452 0 -0.2193464910840433 -0.31976030368968739 0 -0.22913587473404851 -0.35200963246311751 0 -0.2325545649384867 -0.33453283978227571 0 -0.21998707993494029 -0.33959044394559312 0 -0.22913587473404851 -0.35200963246311751 0 -0.21998707993494029 -0.33959044394559312 0 -0.2097464541822805 -0.33582260124732738 0 -0.22829430606921119 -0.32293804105388452 0 -0.2325545649384867 -0.33453283978227571 0 -0.22209033975117781 -0.32887735541776358 0 -0.2325545649384867 -0.33453283978227571 0 -0.22209033975117781 -0.32887735541776358 0 -0.21998707993494029 -0.33959044394559312 0 -0.21998707993494029 -0.33959044394559312 0 -0.21026925672920721 -0.32756514861737779 0 -0.22209033975117781 -0.32887735541776358 0 -0.21998707993494029 -0.33959044394559312 0 -0.21026925672920721 -0.32756514861737779 0 -0.21998707993494029 -0.33959044394559312 0 -0.2097464541822805 -0.33582260124732738 0 -0.21026925672920721 -0.32756514861737779 0 -0.2097464541822805 -0.33582260124732738 0 -0.21026925672920721 -0.32756514861737779 0 -0.21026925672920721 -0.32756514861737779 0 -0.21134622408423179 -0.310554889255794 0 -0.19267178705524021 -0.30578920503631912 0 -0.21026925672920721 -0.32756514861737779 0 -0.21134622408423179 -0.310554889255794 0 -0.2097464541822805 -0.33582260124732738 0 -0.21026925672920721 -0.32756514861737779 0 -0.19254159852174429 -0.31996122112867409 0 -0.2193464910840433 -0.31976030368968739 0 -0.21026925672920721 -0.32756514861737779 0 -0.21134622408423179 -0.310554889255794 0 -0.2193464910840433 -0.31976030368968739 0 -0.22209033975117781 -0.32887735541776358 0 -0.21026925672920721 -0.32756514861737779 0 -0.2097464541822805 -0.33582260124732738 0 -0.1943588054861482 -0.32297640251143073 0 -0.19254159852174429 -0.31996122112867409 0 -0.21026925672920721 -0.32756514861737779 0 -0.19267178705524021 -0.30578920503631912 0 -0.21026925672920721 -0.32756514861737779 0 -0.19254159852174429 -0.31996122112867409 0 -0.19267178705524021 -0.30578920503631912 0 -0.2097464541822805 -0.33582260124732738 0 -0.19254159852174429 -0.31996122112867409 0 -0.1943588054861482 -0.32297640251143073 0 -0.18737083868624629 -0.33075534874643497 0 -0.18479650728396149 -0.32227615663527998 0 -0.1943588054861482 -0.32297640251143073 0 -0.19254159852174429 -0.31996122112867409 0 -0.1789711567900161 -0.3101302037755338 0 -0.2097464541822805 -0.33582260124732738 0 -0.19466829689393059 -0.33824472710720138 0 -0.19565175395430129 -0.3512554891803924 0 -0.2097464541822805 -0.33582260124732738 0 -0.1943588054861482 -0.32297640251143073 0 -0.19466829689393059 -0.33824472710720138 0 -0.2097464541822805 -0.33582260124732738 0 -0.1943588054861482 -0.32297640251143073 0 -0.1943588054861482 -0.32297640251143073 0 -0.19466829689393059 -0.33824472710720138 0 -0.18737083868624629 -0.33075534874643497 0 -0.19466829689393059 -0.33824472710720138 0 -0.18164424501215659 -0.34621916084723381 0 -0.18737083868624629 -0.33075534874643497 0 -0.19466829689393059 -0.33824472710720138 0 -0.19565175395430129 -0.3512554891803924 0 -0.18164424501215659 -0.34621916084723381 0 -0.20800359978069241 -0.36335027445133922 0 -0.18480326185087809 -0.36719565018674682 0 -0.19565175395430129 -0.3512554891803924 0 -0.20800359978069241 -0.36335027445133922 0 -0.18480326185087809 -0.36719565018674682 0 -0.2014200033848125 -0.37119512976538899 0 -0.18480326185087809 -0.36719565018674682 0 -0.18579747934449059 -0.37379744869579251 0 -0.2014200033848125 -0.37119512976538899 0 -0.20800359978069241 -0.36335027445133922 0 -0.18480326185087809 -0.36719565018674682 0 -0.2014200033848125 -0.37119512976538899 0 -0.20800359978069241 -0.36335027445133922 0 -0.20803809997708481 -0.36661394692190907 0 -0.20800359978069241 -0.36335027445133922 0 -0.20803809997708481 -0.36661394692190907 0 -0.21424807490234879 -0.36231527430669241 0 -0.20800359978069241 -0.36335027445133922 0 -0.20803809997708481 -0.36661394692190907 0 -0.2014200033848125 -0.37119512976538899 0 -0.20803809997708481 -0.36661394692190907 0 -0.21335741342528061 -0.3748607861064962 0 -0.2014200033848125 -0.37119512976538899 0 -0.20803809997708481 -0.36661394692190907 0 -0.20803809997708481 -0.36661394692190907 0 -0.21335741342528061 -0.3748607861064962 0 -0.21424807490234879 -0.36231527430669241 0 -0.22186900287429051 -0.37074082218821958 0 -0.21335741342528061 -0.3748607861064962 0 -0.21424807490234879 -0.36231527430669241 0 -0.20800359978069241 -0.36335027445133922 0 -0.21424807490234879 -0.36231527430669241 0 -0.20803809997708481 -0.36661394692190907 0 -0.21424807490234879 -0.36231527430669241 0 -0.2097464541822805 -0.33582260124732738 0 -0.19565175395430129 -0.3512554891803924 0 -0.20800359978069241 -0.36335027445133922 0 -0.2097464541822805 -0.33582260124732738 0 -0.20800359978069241 -0.36335027445133922 0 -0.2097464541822805 -0.33582260124732738 0 -0.20800359978069241 -0.36335027445133922 0 -0.21424807490234879 -0.36231527430669241 0 -0.22913587473404851 -0.35200963246311751 0 -0.2097464541822805 -0.33582260124732738 0 -0.21424807490234879 -0.36231527430669241 0 -0.2335542019388327 -0.26090262277066528 0 -0.21472073189145299 -0.25725591714607071 0 -0.22837296648480071 -0.23789375384220129 0 -0.2335542019388327 -0.26090262277066528 0 -0.21357196166535461 -0.27540027352014051 0 -0.21472073189145299 -0.25725591714607071 0 -0.25298377122075039 -0.27518622721876451 0 -0.2335542019388327 -0.26090262277066528 0 -0.25431856302814809 -0.24833495949118861 0 -0.25298377122075039 -0.27518622721876451 0 -0.2335542019388327 -0.26090262277066528 0 -0.23093648268818689 -0.28342115129973 0 -0.2335542019388327 -0.26090262277066528 0 -0.23093648268818689 -0.28342115129973 0 -0.21357196166535461 -0.27540027352014051 0 -0.23093648268818689 -0.28342115129973 0 -0.21242319143925911 -0.29354462989421048 0 -0.21357196166535461 -0.27540027352014051 0 -0.23093648268818689 -0.28342115129973 0 -0.2435111179254994 -0.29490773243705071 0 -0.2284599410619414 -0.30268204450860919 0 -0.23093648268818689 -0.28342115129973 0 -0.2284599410619414 -0.30268204450860919 0 -0.21242319143925911 -0.29354462989421048 0 -0.25298377122075039 -0.27518622721876451 0 -0.23093648268818689 -0.28342115129973 0 -0.2435111179254994 -0.29490773243705071 0 -0.2444966906846206 -0.31181945912301329 0 -0.2284599410619414 -0.30268204450860919 0 -0.2435111179254994 -0.29490773243705071 0 -0.2444966906846206 -0.31181945912301329 0 -0.2284599410619414 -0.30268204450860919 0 -0.26057201890547982 -0.29344093798311832 0 -0.2435111179254994 -0.29490773243705071 0 -0.2444966906846206 -0.31181945912301329 0 -0.2279063026952847 -0.3135077128279592 0 -0.2444966906846206 -0.31181945912301329 0 -0.2284599410619414 -0.30268204450860919 0 -0.2284599410619414 -0.30268204450860919 0 -0.21242319143925911 -0.29354462989421048 0 -0.2279063026952847 -0.3135077128279592 0 -0.2284599410619414 -0.30268204450860919 0 -0.21134622408423179 -0.310554889255794 0 -0.2284599410619414 -0.30268204450860919 0 -0.21134622408423179 -0.310554889255794 0 -0.21242319143925911 -0.29354462989421048 0 -0.21134622408423179 -0.310554889255794 0 -0.19267178705524021 -0.30578920503631912 0 -0.21242319143925911 -0.29354462989421048 0 -0.21134622408423179 -0.310554889255794 0 -0.21242319143925911 -0.29354462989421048 0 -0.19267178705524021 -0.30578920503631912 0 -0.19410774352861071 -0.2831088592208712 0 -0.21242319143925911 -0.29354462989421048 0 -0.19410774352861071 -0.2831088592208712 0 -0.21242319143925911 -0.29354462989421048 0 -0.21357196166535461 -0.27540027352014051 0 -0.19410774352861071 -0.2831088592208712 0 -0.21242319143925911 -0.29354462989421048 0 -0.21242319143925911 -0.29354462989421048 0 -0.21357196166535461 -0.27540027352014051 0 -0.21357196166535461 -0.27540027352014051 0 -0.21472073189145299 -0.25725591714607071 0 -0.19410774352861071 -0.2831088592208712 0 -0.21357196166535461 -0.27540027352014051 0 -0.1965391795889786 -0.26204425282134669 0 -0.19410774352861071 -0.2831088592208712 0 -0.1965391795889786 -0.26204425282134669 0 -0.17579229561796161 -0.27267308854753308 0 -0.1965391795889786 -0.26204425282134669 0 -0.20565562739327201 -0.24334207984173631 0 -0.18863044441395099 -0.24733650333174401 0 -0.1965391795889786 -0.26204425282134669 0 -0.18340152769721799 -0.25642831405215172 0 -0.18863044441395099 -0.24733650333174401 0 -0.1965391795889786 -0.26204425282134669 0 -0.21472073189145299 -0.25725591714607071 0 -0.20565562739327201 -0.24334207984173631 0 -0.21357196166535461 -0.27540027352014051 0 -0.1965391795889786 -0.26204425282134669 0 -0.21472073189145299 -0.25725591714607071 0 -0.15747684770731041 -0.26223731787419863 0 -0.16344648285301799 -0.25937253054906129 0 -0.17579229561796161 -0.27267308854753308 0 -0.1593809120407062 -0.25278805690175971 0 -0.16344648285301799 -0.25937253054906129 0 -0.1534429259631987 -0.25724555178864622 0 -0.1593809120407062 -0.25278805690175971 0 -0.16344648285301799 -0.25937253054906129 0 -0.16709258238786229 -0.25188408856254202 0 -0.1593809120407062 -0.25278805690175971 0 -0.16709258238786229 -0.25188408856254202 0 -0.1601832428566283 -0.24550858739866141 0 -0.15747684770731041 -0.26223731787419863 0 -0.16344648285301799 -0.25937253054906129 0 -0.1534429259631987 -0.25724555178864622 0 -0.16344648285301799 -0.25937253054906129 0 -0.1534429259631987 -0.25724555178864622 0 -0.16344648285301799 -0.25937253054906129 0 -0.17379217291466831 -0.25992581321180469 0 -0.17579229561796161 -0.27267308854753308 0 -0.16344648285301799 -0.25937253054906129 0 -0.16709258238786229 -0.25188408856254202 0 -0.17379217291466831 -0.25992581321180469 0 -0.16709258238786229 -0.25188408856254202 0 -0.17679077873490559 -0.25046109420941731 0 -0.17379217291466831 -0.25992581321180469 0 -0.1965391795889786 -0.26204425282134669 0 -0.18340152769721799 -0.25642831405215172 0 -0.17579229561796161 -0.27267308854753308 0 -0.17679077873490559 -0.25046109420941731 0 -0.18340152769721799 -0.25642831405215172 0 -0.17379217291466831 -0.25992581321180469 0 -0.18340152769721799 -0.25642831405215172 0 -0.17379217291466831 -0.25992581321180469 0 -0.17579229561796161 -0.27267308854753308 0 -0.17679077873490559 -0.25046109420941731 0 -0.18340152769721799 -0.25642831405215172 0 -0.18863044441395099 -0.24733650333174401 0 -0.19410774352861071 -0.2831088592208712 0 -0.17579229561796161 -0.27267308854753308 0 -0.17507431738127369 -0.28401326145526029 0 -0.19410774352861071 -0.2831088592208712 0 -0.17579229561796161 -0.27267308854753308 0 -0.15747684770731041 -0.26223731787419863 0 -0.17507431738127369 -0.28401326145526029 0 -0.15747684770731041 -0.26223731787419863 0 -0.17579229561796161 -0.27267308854753308 0 -0.15747684770731041 -0.26223731787419863 0 -0.17579229561796161 -0.27267308854753308 0 -0.17507431738127369 -0.28401326145526029 0 -0.15747684770731041 -0.26223731787419863 0 -0.1596399504195592 -0.27820623095404468 0 -0.17507431738127369 -0.28401326145526029 0 -0.1596399504195592 -0.27820623095404468 0 -0.1624028041075358 -0.29248408411088062 0 -0.1494793968803598 -0.28070198605355251 0 -0.1624028041075358 -0.29248408411088062 0 -0.15973767967650701 -0.30493196891575292 0 -0.15108397830665751 -0.29236825921418419 0 -0.1624028041075358 -0.29248408411088062 0 -0.17507431738127369 -0.28401326145526029 0 -0.17391538329452061 -0.29489800819007239 0 -0.1596399504195592 -0.27820623095404468 0 -0.1624028041075358 -0.29248408411088062 0 -0.17507431738127369 -0.28401326145526029 0 -0.19267178705524021 -0.30578920503631912 0 -0.19410774352861071 -0.2831088592208712 0 -0.17507431738127369 -0.28401326145526029 0 -0.19267178705524021 -0.30578920503631912 0 -0.17507431738127369 -0.28401326145526029 0 -0.17391538329452061 -0.29489800819007239 0 -0.19267178705524021 -0.30578920503631912 0 -0.17507431738127369 -0.28401326145526029 0 -0.17391538329452061 -0.29489800819007239 0 -0.17532621133471249 -0.30426618216820789 0 -0.19254159852174429 -0.31996122112867409 0 -0.19267178705524021 -0.30578920503631912 0 -0.17532621133471249 -0.30426618216820789 0 -0.19267178705524021 -0.30578920503631912 0 -0.17391538329452061 -0.29489800819007239 0 -0.17532621133471249 -0.30426618216820789 0 -0.19254159852174429 -0.31996122112867409 0 -0.17532621133471249 -0.30426618216820789 0 -0.1789711567900161 -0.3101302037755338 0 -0.19254159852174429 -0.31996122112867409 0 -0.17532621133471249 -0.30426618216820789 0 -0.17532621133471249 -0.30426618216820789 0 -0.15973767967650701 -0.30493196891575292 0 -0.16582550601247259 -0.31644195918285489 0 -0.1624028041075358 -0.29248408411088062 0 -0.17532621133471249 -0.30426618216820789 0 -0.15973767967650701 -0.30493196891575292 0 -0.1624028041075358 -0.29248408411088062 0 -0.17532621133471249 -0.30426618216820789 0 -0.1624028041075358 -0.29248408411088062 0 -0.17391538329452061 -0.29489800819007239 0 -0.17532621133471249 -0.30426618216820789 0 -0.144593184228827 -0.30237793828586917 0 -0.15261731536399281 -0.31699983390472031 0 -0.1327552185807534 -0.31482398186879779 0 -0.15973767967650701 -0.30493196891575292 0 -0.144593184228827 -0.30237793828586917 0 -0.15261731536399281 -0.31699983390472031 0 -0.15973767967650701 -0.30493196891575292 0 -0.144593184228827 -0.30237793828586917 0 -0.15108397830665751 -0.29236825921418419 0 -0.144593184228827 -0.30237793828586917 0 -0.1304175251842298 -0.30012492429455973 0 -0.1327552185807534 -0.31482398186879779 0 -0.1304175251842298 -0.30012492429455973 0 -0.1327552185807534 -0.31482398186879779 0 -0.11567190875339491 -0.3081878681979589 0 -0.1304175251842298 -0.30012492429455973 0 -0.13697378053928061 -0.28594316463020741 0 -0.11725087491461519 -0.29108504565108578 0 -0.144593184228827 -0.30237793828586917 0 -0.1304175251842298 -0.30012492429455973 0 -0.13697378053928061 -0.28594316463020741 0 -0.13697378053928061 -0.28594316463020741 0 -0.15108397830665751 -0.29236825921418419 0 -0.1494793968803598 -0.28070198605355251 0 -0.144593184228827 -0.30237793828586917 0 -0.13697378053928061 -0.28594316463020741 0 -0.15108397830665751 -0.29236825921418419 0 -0.1624028041075358 -0.29248408411088062 0 -0.15108397830665751 -0.29236825921418419 0 -0.1494793968803598 -0.28070198605355251 0 -0.1624028041075358 -0.29248408411088062 0 -0.1494793968803598 -0.28070198605355251 0 -0.15747684770731041 -0.26223731787419863 0 -0.1596399504195592 -0.27820623095404468 0 -0.1503927610565664 -0.27179087804580171 0 -0.1596399504195592 -0.27820623095404468 0 -0.1494793968803598 -0.28070198605355251 0 -0.1503927610565664 -0.27179087804580171 0 -0.15747684770731041 -0.26223731787419863 0 -0.1503927610565664 -0.27179087804580171 0 -0.1469785187108 -0.2635474229235048 0 -0.1503927610565664 -0.27179087804580171 0 -0.13966748117377659 -0.26847157538705668 0 -0.1469785187108 -0.2635474229235048 0 -0.1503927610565664 -0.27179087804580171 0 -0.14153524490660671 -0.2763029116229278 0 -0.13966748117377659 -0.26847157538705668 0 -0.1494793968803598 -0.28070198605355251 0 -0.1503927610565664 -0.27179087804580171 0 -0.14153524490660671 -0.2763029116229278 0 -0.13697378053928061 -0.28594316463020741 0 -0.1494793968803598 -0.28070198605355251 0 -0.14153524490660671 -0.2763029116229278 0 -0.13697378053928061 -0.28594316463020741 0 -0.14153524490660671 -0.2763029116229278 0 -0.13219795163187159 -0.27110871778552531 0 -0.13697378053928061 -0.28594316463020741 0 -0.1173011125765811 -0.2721428964285707 0 -0.13697378053928061 -0.28594316463020741 0 -0.13219795163187159 -0.27110871778552531 0 -0.1173011125765811 -0.2721428964285707 0 -0.13219795163187159 -0.27110871778552531 0 -0.1333337708168415 -0.26377523499205202 0 -0.12600056203783161 -0.26301541000095829 0 -0.13219795163187159 -0.27110871778552531 0 -0.12600056203783161 -0.26301541000095829 0 -0.1173011125765811 -0.2721428964285707 0 -0.13219795163187159 -0.27110871778552531 0 -0.13966748117377659 -0.26847157538705668 0 -0.1333337708168415 -0.26377523499205202 0 -0.14153524490660671 -0.2763029116229278 0 -0.13219795163187159 -0.27110871778552531 0 -0.13966748117377659 -0.26847157538705668 0 -0.13966748117377659 -0.26847157538705668 0 -0.13807993829988649 -0.25979154560904222 0 -0.1333337708168415 -0.26377523499205202 0 -0.13807993829988649 -0.25979154560904222 0 -0.1333337708168415 -0.26377523499205202 0 -0.13072292094084129 -0.25648892617767749 0 -0.12600056203783161 -0.26301541000095829 0 -0.13072292094084129 -0.25648892617767749 0 -0.1187556211832122 -0.25814451816493872 0 -0.1333337708168415 -0.26377523499205202 0 -0.12600056203783161 -0.26301541000095829 0 -0.13072292094084129 -0.25648892617767749 0 -0.13072292094084129 -0.25648892617767749 0 -0.13218950310710981 -0.25272660122947088 0 -0.1187556211832122 -0.25814451816493872 0 -0.13072292094084129 -0.25648892617767749 0 -0.13218950310710981 -0.25272660122947088 0 -0.13218950310710981 -0.25272660122947088 0 -0.1459019403517107 -0.25564217047089421 0 -0.13375162957080131 -0.24871916986845621 0 -0.13218950310710981 -0.25272660122947088 0 -0.1459019403517107 -0.25564217047089421 0 -0.13218950310710981 -0.25272660122947088 0 -0.13375162957080131 -0.24871916986845621 0 -0.1459019403517107 -0.25564217047089421 0 -0.13375162957080131 -0.24871916986845621 0 -0.13807993829988649 -0.25979154560904222 0 -0.13218950310710981 -0.25272660122947088 0 -0.1459019403517107 -0.25564217047089421 0 -0.13807993829988649 -0.25979154560904222 0 -0.13072292094084129 -0.25648892617767749 0 -0.13218950310710981 -0.25272660122947088 0 -0.1459019403517107 -0.25564217047089421 0 -0.1534429259631987 -0.25724555178864622 0 -0.1378886282313006 -0.2381062402767252 0 -0.13966748117377659 -0.26847157538705668 0 -0.13807993829988649 -0.25979154560904222 0 -0.1469785187108 -0.2635474229235048 0 -0.13807993829988649 -0.25979154560904222 0 -0.1459019403517107 -0.25564217047089421 0 -0.1469785187108 -0.2635474229235048 0 -0.15747684770731041 -0.26223731787419863 0 -0.1459019403517107 -0.25564217047089421 0 -0.1534429259631987 -0.25724555178864622 0 -0.15747684770731041 -0.26223731787419863 0 -0.1459019403517107 -0.25564217047089421 0 -0.1469785187108 -0.2635474229235048 0 -0.15747684770731041 -0.26223731787419863 0 -0.1459019403517107 -0.25564217047089421 0 -0.15747684770731041 -0.26223731787419863 0 -0.1534429259631987 -0.25724555178864622 0 -0.1593809120407062 -0.25278805690175971 0 -0.1534429259631987 -0.25724555178864622 0 -0.15289321433053751 -0.246830478479277 0 -0.1459019403517107 -0.25564217047089421 0 -0.1534429259631987 -0.25724555178864622 0 -0.17143624801538501 -0.35840063883308271 0 -0.1580141783998408 -0.34710035810185619 0 -0.15489216358121211 -0.36256913283011211 0 -0.17143624801538501 -0.35840063883308271 0 -0.1580141783998408 -0.34710035810185619 0 -0.18164424501215659 -0.34621916084723381 0 -0.17143624801538501 -0.35840063883308271 0 -0.1663610822414904 -0.3702523776444529 0 -0.15489216358121211 -0.36256913283011211 0 -0.15951650330528561 -0.37856285477961621 0 -0.1663610822414904 -0.3702523776444529 0 -0.15489216358121211 -0.36256913283011211 0 -0.17143624801538501 -0.35840063883308271 0 -0.1663610822414904 -0.3702523776444529 0 -0.18480326185087809 -0.36719565018674682 0 -0.1663610822414904 -0.3702523776444529 0 -0.18480326185087809 -0.36719565018674682 0 -0.1663610822414904 -0.3702523776444529 0 -0.18480326185087809 -0.36719565018674682 0 -0.18579747934449059 -0.37379744869579251 0 -0.18480326185087809 -0.36719565018674682 0 -0.18579747934449059 -0.37379744869579251 0 -0.18480326185087809 -0.36719565018674682 0 -0.18164424501215659 -0.34621916084723381 0 -0.19565175395430129 -0.3512554891803924 0 -0.18480326185087809 -0.36719565018674682 0 -0.18164424501215659 -0.34621916084723381 0 -0.17143624801538501 -0.35840063883308271 0 -0.18480326185087809 -0.36719565018674682 0 -0.18164424501215659 -0.34621916084723381 0 -0.18164424501215659 -0.34621916084723381 0 -0.17848522817343529 -0.32524267150772068 0 -0.1629610955137164 -0.33076913941787212 0 -0.18164424501215659 -0.34621916084723381 0 -0.17848522817343529 -0.32524267150772068 0 -0.18164424501215659 -0.34621916084723381 0 -0.18737083868624629 -0.33075534874643497 0 -0.17848522817343529 -0.32524267150772068 0 -0.17532621133471249 -0.30426618216820789 0 -0.17848522817343529 -0.32524267150772068 0 -0.17532621133471249 -0.30426618216820789 0 -0.1789711567900161 -0.3101302037755338 0 -0.17848522817343529 -0.32524267150772068 0 -0.17532621133471249 -0.30426618216820789 0 -0.17848522817343529 -0.32524267150772068 0 -0.16582550601247259 -0.31644195918285489 0 -0.1943588054861482 -0.32297640251143073 0 -0.1789711567900161 -0.3101302037755338 0 -0.18479650728396149 -0.32227615663527998 0 -0.1789711567900161 -0.3101302037755338 0 -0.18479650728396149 -0.32227615663527998 0 -0.17848522817343529 -0.32524267150772068 0 -0.1943588054861482 -0.32297640251143073 0 -0.1789711567900161 -0.3101302037755338 0 -0.18737083868624629 -0.33075534874643497 0 -0.18479650728396149 -0.32227615663527998 0 -0.17848522817343529 -0.32524267150772068 0 -0.17848522817343529 -0.32524267150772068 0 -0.16582550601247259 -0.31644195918285489 0 -0.1629610955137164 -0.33076913941787212 0 -0.16582550601247259 -0.31644195918285489 0 -0.1629610955137164 -0.33076913941787212 0 -0.15261731536399281 -0.31699983390472031 0 -0.15973767967650701 -0.30493196891575292 0 -0.16582550601247259 -0.31644195918285489 0 -0.15261731536399281 -0.31699983390472031 0 -0.1580141783998408 -0.34710035810185619 0 -0.18164424501215659 -0.34621916084723381 0 -0.1629610955137164 -0.33076913941787212 0 -0.1580141783998408 -0.34710035810185619 0 -0.1629610955137164 -0.33076913941787212 0 -0.14559484309128301 -0.3331209990743299 0 -0.14559484309128301 -0.3331209990743299 0 -0.15261731536399281 -0.31699983390472031 0 -0.1327552185807534 -0.31482398186879779 0 -0.1629610955137164 -0.33076913941787212 0 -0.14559484309128301 -0.3331209990743299 0 -0.15261731536399281 -0.31699983390472031 0 -0.14559484309128301 -0.3331209990743299 0 -0.1327552185807534 -0.31482398186879779 0 -0.12678352480283511 -0.3369129194106073 0 -0.14559484309128301 -0.3331209990743299 0 -0.12678352480283511 -0.3369129194106073 0 -0.14043772588655989 -0.35211976174212622 0 -0.12678352480283511 -0.3369129194106073 0 -0.14043772588655989 -0.35211976174212622 0 -0.1203130985899742 -0.35955571918490481 0 -0.1580141783998408 -0.34710035810185619 0 -0.14043772588655989 -0.35211976174212622 0 -0.15489216358121211 -0.36256913283011211 0 -0.1580141783998408 -0.34710035810185619 0 -0.14559484309128301 -0.3331209990743299 0 -0.14043772588655989 -0.35211976174212622 0 -0.14043772588655989 -0.35211976174212622 0 -0.15489216358121211 -0.36256913283011211 0 -0.13959568407155781 -0.37291875636350952 0 -0.15951650330528561 -0.37856285477961621 0 -0.15489216358121211 -0.36256913283011211 0 -0.13959568407155781 -0.37291875636350952 0 -0.12625141541498519 -0.38197991289387551 0 -0.13959568407155781 -0.37291875636350952 0 -0.1203130985899742 -0.35955571918490481 0 -0.14043772588655989 -0.35211976174212622 0 -0.13959568407155781 -0.37291875636350952 0 -0.1203130985899742 -0.35955571918490481 0 -0.1203130985899742 -0.35955571918490481 0 -0.11384267237711319 -0.38219851895920232 0 -0.1203130985899742 -0.35955571918490481 0 -0.10849363524981311 -0.36442991456039969 0 -0.11384267237711319 -0.38219851895920232 0 -0.12625141541498519 -0.38197991289387551 0 -0.1203130985899742 -0.35955571918490481 0 -0.11384267237711319 -0.38219851895920232 0 -0.10849363524981311 -0.36442991456039969 0 -0.096157591159299352 -0.35547454281719221 0 -0.10176491866177829 -0.38015793077534599 0 -0.096157591159299352 -0.35547454281719221 0 -0.10176491866177829 -0.38015793077534599 0 -0.096157591159299352 -0.35547454281719221 0 -0.10176491866177829 -0.38015793077534599 0 -0.085276019388031976 -0.37619188405436782 0 -0.096157591159299352 -0.35547454281719221 0 -0.10964553082547281 -0.34513317088572909 0 -0.090550263656820479 -0.33079115485903843 0 -0.10849363524981311 -0.36442991456039969 0 -0.096157591159299352 -0.35547454281719221 0 -0.10964553082547281 -0.34513317088572909 0 -0.1203130985899742 -0.35955571918490481 0 -0.10849363524981311 -0.36442991456039969 0 -0.10964553082547281 -0.34513317088572909 0 -0.12678352480283511 -0.3369129194106073 0 -0.1203130985899742 -0.35955571918490481 0 -0.10964553082547281 -0.34513317088572909 0 -0.12678352480283511 -0.3369129194106073 0 -0.1203130985899742 -0.35955571918490481 0 -0.12678352480283511 -0.3369129194106073 0 -0.10964553082547281 -0.34513317088572909 0 -0.1112875311940303 -0.32576775904759792 0 -0.1327552185807534 -0.31482398186879779 0 -0.12678352480283511 -0.3369129194106073 0 -0.1112875311940303 -0.32576775904759792 0 -0.1327552185807534 -0.31482398186879779 0 -0.1112875311940303 -0.32576775904759792 0 -0.11567190875339491 -0.3081878681979589 0 -0.1112875311940303 -0.32576775904759792 0 -0.1011365257202933 -0.31403431577096802 0 -0.11567190875339491 -0.3081878681979589 0 -0.1112875311940303 -0.32576775904759792 0 -0.1011365257202933 -0.31403431577096802 0 -0.090550263656820479 -0.33079115485903843 0 -0.10964553082547281 -0.34513317088572909 0 -0.1112875311940303 -0.32576775904759792 0 -0.090550263656820479 -0.33079115485903843 0 -0.096157591159299352 -0.35547454281719221 0 -0.090550263656820479 -0.33079115485903843 0 -0.096157591159299352 -0.35547454281719221 0 -0.090550263656820479 -0.33079115485903843 0 -0.073144777225565616 -0.33606175945158517 0 -0.090550263656820479 -0.33079115485903843 0 -0.084942936154341619 -0.30610776690088481 0 -0.090550263656820479 -0.33079115485903843 0 -0.073144777225565616 -0.33606175945158517 0 -0.084942936154341619 -0.30610776690088481 0 -0.1011365257202933 -0.31403431577096802 0 -0.090550263656820479 -0.33079115485903843 0 -0.084942936154341619 -0.30610776690088481 0 -0.073144777225565616 -0.33606175945158517 0 -0.084942936154341619 -0.30610776690088481 0 -0.060613113796085999 -0.32288269869712272 0 -0.073144777225565616 -0.33606175945158517 0 -0.076755031766953086 -0.35884624094615858 0 -0.063306301319701316 -0.35299520754669739 0 -0.076755031766953086 -0.35884624094615858 0 -0.063306301319701316 -0.35299520754669739 0 -0.065890469742167113 -0.37350781086095058 0 -0.076755031766953086 -0.35884624094615858 0 -0.065890469742167113 -0.37350781086095058 0 -0.085276019388031976 -0.37619188405436782 0 -0.096157591159299352 -0.35547454281719221 0 -0.076755031766953086 -0.35884624094615858 0 -0.085276019388031976 -0.37619188405436782 0 -0.096157591159299352 -0.35547454281719221 0 -0.073144777225565616 -0.33606175945158517 0 -0.076755031766953086 -0.35884624094615858 0 -0.097628444613881649 -0.25834262822693399 0 -0.1173011125765811 -0.2721428964285707 0 -0.097628444613881649 -0.25834262822693399 0 -0.1187556211832122 -0.25814451816493872 0 -0.1098930818979398 -0.24798588601512411 0 -0.13218950310710981 -0.25272660122947088 0 -0.1187556211832122 -0.25814451816493872 0 -0.1098930818979398 -0.24798588601512411 0 -0.097628444613881649 -0.25834262822693399 0 -0.1187556211832122 -0.25814451816493872 0 -0.1173011125765811 -0.2721428964285707 0 -0.13218950310710981 -0.25272660122947088 0 -0.1098930818979398 -0.24798588601512411 0 -0.12600056203783161 -0.26301541000095829 0 -0.1187556211832122 -0.25814451816493872 0 -0.1173011125765811 -0.2721428964285707 0 -0.097628444613881649 -0.25834262822693399 0 -0.1173011125765811 -0.2721428964285707 0 -0.090762408808148426 -0.27102181932101072 0 -0.1173011125765811 -0.2721428964285707 0 -0.096655829275762523 -0.28444542957314378 0 -0.090762408808148426 -0.27102181932101072 0 -0.096655829275762523 -0.28444542957314378 0 -0.10322998884287909 -0.29931702984935987 0 -0.084942936154341619 -0.30610776690088481 0 -0.096655829275762523 -0.28444542957314378 0 -0.11725087491461519 -0.29108504565108578 0 -0.10322998884287909 -0.29931702984935987 0 -0.13697378053928061 -0.28594316463020741 0 -0.1173011125765811 -0.2721428964285707 0 -0.11725087491461519 -0.29108504565108578 0 -0.1173011125765811 -0.2721428964285707 0 -0.096655829275762523 -0.28444542957314378 0 -0.11725087491461519 -0.29108504565108578 0 -0.11725087491461519 -0.29108504565108578 0 -0.11567190875339491 -0.3081878681979589 0 -0.10322998884287909 -0.29931702984935987 0 -0.1304175251842298 -0.30012492429455973 0 -0.11725087491461519 -0.29108504565108578 0 -0.11567190875339491 -0.3081878681979589 0 -0.1011365257202933 -0.31403431577096802 0 -0.10322998884287909 -0.29931702984935987 0 -0.084942936154341619 -0.30610776690088481 0 -0.1011365257202933 -0.31403431577096802 0 -0.11567190875339491 -0.3081878681979589 0 -0.10322998884287909 -0.29931702984935987 0 -0.084942936154341619 -0.30610776690088481 0 -0.066237696895848033 -0.30175990202967712 0 -0.078368201618682937 -0.28822753231137022 0 -0.084942936154341619 -0.30610776690088481 0 -0.066237696895848033 -0.30175990202967712 0 -0.060613113796085999 -0.32288269869712272 0 -0.066237696895848033 -0.30175990202967712 0 -0.078368201618682937 -0.28822753231137022 0 -0.057136779716869042 -0.28712205926022771 0 -0.078368201618682937 -0.28822753231137022 0 -0.072744725061100565 -0.27289296274949931 0 -0.057136779716869042 -0.28712205926022771 0 -0.096655829275762523 -0.28444542957314378 0 -0.084942936154341619 -0.30610776690088481 0 -0.078368201618682937 -0.28822753231137022 0 -0.096655829275762523 -0.28444542957314378 0 -0.078368201618682937 -0.28822753231137022 0 -0.090762408808148426 -0.27102181932101072 0 -0.078368201618682937 -0.28822753231137022 0 -0.090762408808148426 -0.27102181932101072 0 -0.072744725061100565 -0.27289296274949931 0 -0.090762408808148426 -0.27102181932101072 0 -0.072744725061100565 -0.27289296274949931 0 -0.081281336266817772 -0.26097832242812891 0 -0.072744725061100565 -0.27289296274949931 0 -0.067161912638977472 -0.25903173736147111 0 -0.055745381016590281 -0.2682223094504298 0 -0.072744725061100565 -0.27289296274949931 0 -0.067161912638977472 -0.25903173736147111 0 -0.081281336266817772 -0.26097832242812891 0 -0.067161912638977472 -0.25903173736147111 0 -0.081281336266817772 -0.26097832242812891 0 -0.077955776651182085 -0.24454236002529731 0 -0.067161912638977472 -0.25903173736147111 0 -0.056939497423126581 -0.24878681181634871 0 -0.077955776651182085 -0.24454236002529731 0 -0.097628444613881649 -0.25834262822693399 0 -0.081281336266817772 -0.26097832242812891 0 -0.077955776651182085 -0.24454236002529731 0 -0.097628444613881649 -0.25834262822693399 0 -0.090762408808148426 -0.27102181932101072 0 -0.081281336266817772 -0.26097832242812891 0 -0.097628444613881649 -0.25834262822693399 0 -0.077955776651182085 -0.24454236002529731 0 -0.025857267464119819 -0.25506418495113531 0 -0.050191684441297867 -0.2485850187836515 0 -0.034199021844566052 -0.25740496373097072 0 -0.056939497423126581 -0.24878681181634871 0 -0.034199021844566052 -0.25740496373097072 0 -0.041398382443623198 -0.25192549838374201 0 -0.056939497423126581 -0.24878681181634871 0 -0.041398382443623198 -0.25192549838374201 0 -0.025857267464119819 -0.25506418495113531 0 -0.050191684441297867 -0.2485850187836515 0 -0.034199021844566052 -0.25740496373097072 0 -0.048255079716108998 -0.25800015923011232 0 -0.056939497423126581 -0.24878681181634871 0 -0.034199021844566052 -0.25740496373097072 0 -0.041398382443623198 -0.25192549838374201 0 -0.025857267464119819 -0.25506418495113531 0 -0.041398382443623198 -0.25192549838374201 0 -0.025857267464119819 -0.25506418495113531 0 -0.034199021844566052 -0.25740496373097072 0 -0.037307574571523318 -0.26201401924185519 0 -0.024854767991187229 -0.26705994663832661 0 -0.037307574571523318 -0.26201401924185519 0 -0.048255079716108998 -0.25800015923011232 0 -0.046606779304586107 -0.26584835010199509 0 -0.034199021844566052 -0.25740496373097072 0 -0.037307574571523318 -0.26201401924185519 0 -0.048255079716108998 -0.25800015923011232 0 -0.05702546769870083 -0.25851025446459042 0 -0.048255079716108998 -0.25800015923011232 0 -0.056939497423126581 -0.24878681181634871 0 -0.041398382443623198 -0.25192549838374201 0 -0.056939497423126581 -0.24878681181634871 0 -0.067161912638977472 -0.25903173736147111 0 -0.05702546769870083 -0.25851025446459042 0 -0.056939497423126581 -0.24878681181634871 0 -0.067161912638977472 -0.25903173736147111 0 -0.05702546769870083 -0.25851025446459042 0 -0.055745381016590281 -0.2682223094504298 0 -0.05702546769870083 -0.25851025446459042 0 -0.048255079716108998 -0.25800015923011232 0 -0.055745381016590281 -0.2682223094504298 0 -0.048255079716108998 -0.25800015923011232 0 -0.055745381016590281 -0.2682223094504298 0 -0.046606779304586107 -0.26584835010199509 0 -0.055745381016590281 -0.2682223094504298 0 -0.045119081914121867 -0.27515691248558288 0 -0.046606779304586107 -0.26584835010199509 0 -0.055745381016590281 -0.2682223094504298 0 -0.045119081914121867 -0.27515691248558288 0 -0.057136779716869042 -0.28712205926022771 0 -0.072744725061100565 -0.27289296274949931 0 -0.055745381016590281 -0.2682223094504298 0 -0.057136779716869042 -0.28712205926022771 0 -0.037307574571523318 -0.26201401924185519 0 -0.034478529498429812 -0.28951379058442123 0 -0.037307574571523318 -0.26201401924185519 0 -0.034478529498429812 -0.28951379058442123 0 -0.024854767991187229 -0.26705994663832661 0 -0.037307574571523318 -0.26201401924185519 0 -0.045119081914121867 -0.27515691248558288 0 -0.034478529498429812 -0.28951379058442123 0 -0.037307574571523318 -0.26201401924185519 0 -0.045119081914121867 -0.27515691248558288 0 -0.046606779304586107 -0.26584835010199509 0 -0.045119081914121867 -0.27515691248558288 0 -0.034478529498429812 -0.28951379058442123 0 -0.057136779716869042 -0.28712205926022771 0 -0.034478529498429812 -0.28951379058442123 0 -0.057136779716869042 -0.28712205926022771 0 -0.05012745319326059 -0.30445945297878008 0 -0.066237696895848033 -0.30175990202967712 0 -0.05012745319326059 -0.30445945297878008 0 -0.060613113796085999 -0.32288269869712272 0 -0.066237696895848033 -0.30175990202967712 0 -0.057136779716869042 -0.28712205926022771 0 -0.05012745319326059 -0.30445945297878008 0 -0.034478529498429812 -0.28951379058442123 0 -0.05012745319326059 -0.30445945297878008 0 -0.031649484425336299 -0.31701356192698721 0 -0.034478529498429812 -0.28951379058442123 0 -0.031649484425336299 -0.31701356192698721 0 -0.034478529498429812 -0.28951379058442123 0 -0.020284114256294641 -0.29759304008048471 0 -0.031649484425336299 -0.31701356192698721 0 -0.020284114256294641 -0.29759304008048471 0 -0.01007927323019326 -0.3103345258507364 0 -0.031649484425336299 -0.31701356192698721 0 -0.020284114256294641 -0.29759304008048471 0 -0.01007927323019326 -0.3103345258507364 0 -0.0080748459131490501 -0.2914060437848453 0 -0.01007927323019326 -0.3103345258507364 0 -0.0080748459131490501 -0.2914060437848453 0 0.0017563221397047381 -0.2997067901486577 0 -0.020284114256294641 -0.29759304008048471 0 -0.0080748459131490501 -0.2914060437848453 0 -0.017138438214364771 -0.27969727825543328 0 -0.0080748459131490501 -0.2914060437848453 0 -0.002848760243290064 -0.27761611820401882 0 0.0066437179820165657 -0.2861171845936395 0 -0.0080748459131490501 -0.2914060437848453 0 -0.017138438214364771 -0.27969727825543328 0 -0.002848760243290064 -0.27761611820401882 0 -0.034478529498429812 -0.28951379058442123 0 -0.020284114256294641 -0.29759304008048471 0 -0.017138438214364771 -0.27969727825543328 0 -0.034478529498429812 -0.28951379058442123 0 -0.024854767991187229 -0.26705994663832661 0 -0.017138438214364771 -0.27969727825543328 0 -0.024854767991187229 -0.26705994663832661 0 -0.01588915841142927 -0.27169793716392882 0 -0.01145854626600548 -0.26602311564559261 0 -0.024854767991187229 -0.26705994663832661 0 -0.01588915841142927 -0.27169793716392882 0 -0.017138438214364771 -0.27969727825543328 0 -0.017138438214364771 -0.27969727825543328 0 -0.011833725783772399 -0.27375861231724341 0 -0.002848760243290064 -0.27761611820401882 0 -0.01145854626600548 -0.26602311564559261 0 0.01128192931255503 -0.27464126756021451 0 -0.002848760243290064 -0.27761611820401882 0 -0.01145854626600548 -0.26602311564559261 0 0.01128192931255503 -0.27464126756021451 0 -0.01588915841142927 -0.27169793716392882 0 -0.017138438214364771 -0.27969727825543328 0 -0.011833725783772399 -0.27375861231724341 0 -0.011833725783772399 -0.27375861231724341 0 -0.002848760243290064 -0.27761611820401882 0 -0.01145854626600548 -0.26602311564559261 0 -0.01588915841142927 -0.27169793716392882 0 -0.011833725783772399 -0.27375861231724341 0 -0.01145854626600548 -0.26602311564559261 0 -0.01269776775011346 -0.25850600500130039 0 -0.0051360078472848583 -0.25701396995817721 0 0.0057158633005241696 -0.26337829885565528 0 -0.01145854626600548 -0.26602311564559261 0 -0.01269776775011346 -0.25850600500130039 0 0.0057158633005241696 -0.26337829885565528 0 -0.01269776775011346 -0.25850600500130039 0 0.0057158633005241696 -0.26337829885565528 0 -0.0009620894167222515 -0.25496392916579452 0 -0.0051360078472848583 -0.25701396995817721 0 0.0057158633005241696 -0.26337829885565528 0 -0.0071971320314794382 -0.2528457057960789 0 -0.01082738352359053 -0.24876902592697839 0 -0.0029313858115674811 -0.24854412401401971 0 -0.0009620894167222515 -0.25496392916579452 0 -0.0071971320314794382 -0.2528457057960789 0 -0.0029313858115674811 -0.24854412401401971 0 -0.0009620894167222515 -0.25496392916579452 0 -0.0051360078472848583 -0.25701396995817721 0 -0.0071971320314794382 -0.2528457057960789 0 -0.0051360078472848583 -0.25701396995817721 0 -0.0071971320314794382 -0.2528457057960789 0 -0.0094143843739788544 -0.25459574361389747 0 -0.0071971320314794382 -0.2528457057960789 0 -0.0094143843739788544 -0.25459574361389747 0 -0.01082738352359053 -0.24876902592697839 0 -0.01269776775011346 -0.25850600500130039 0 -0.0094143843739788544 -0.25459574361389747 0 -0.01082738352359053 -0.24876902592697839 0 -0.01269776775011346 -0.25850600500130039 0 -0.0051360078472848583 -0.25701396995817721 0 -0.0094143843739788544 -0.25459574361389747 0 -0.01269776775011346 -0.25850600500130039 0 -0.025857267464119819 -0.25506418495113531 0 -0.034199021844566052 -0.25740496373097072 0 -0.01145854626600548 -0.26602311564559261 0 -0.025857267464119819 -0.25506418495113531 0 -0.01269776775011346 -0.25850600500130039 0 -0.025857267464119819 -0.25506418495113531 0 -0.02368513365757598 -0.23851275990414511 0 -0.034199021844566052 -0.25740496373097072 0 -0.024854767991187229 -0.26705994663832661 0 -0.01145854626600548 -0.26602311564559261 0 -0.034199021844566052 -0.25740496373097072 0 -0.01145854626600548 -0.26602311564559261 0 -0.01145854626600548 -0.26602311564559261 0 -0.01269776775011346 -0.25850600500130039 0 -0.025857267464119819 -0.25506418495113531 0 -0.046940286889098168 -0.35955036210978841 0 -0.050269733973634309 -0.3392354021108881 0 -0.02882043935224279 -0.34451333326955308 0 -0.046940286889098168 -0.35955036210978841 0 -0.02882043935224279 -0.34451333326955308 0 -0.026419717968229769 -0.36867473508972981 0 -0.046940286889098168 -0.35955036210978841 0 -0.026419717968229769 -0.36867473508972981 0 -0.046935058978613817 -0.3783756837809118 0 -0.065890469742167113 -0.37350781086095058 0 -0.046940286889098168 -0.35955036210978841 0 -0.046935058978613817 -0.3783756837809118 0 -0.063306301319701316 -0.35299520754669739 0 -0.065890469742167113 -0.37350781086095058 0 -0.046940286889098168 -0.35955036210978841 0 -0.063306301319701316 -0.35299520754669739 0 -0.046940286889098168 -0.35955036210978841 0 -0.050269733973634309 -0.3392354021108881 0 -0.073144777225565616 -0.33606175945158517 0 -0.063306301319701316 -0.35299520754669739 0 -0.050269733973634309 -0.3392354021108881 0 -0.073144777225565616 -0.33606175945158517 0 -0.050269733973634309 -0.3392354021108881 0 -0.060613113796085999 -0.32288269869712272 0 -0.050269733973634309 -0.3392354021108881 0 -0.060613113796085999 -0.32288269869712272 0 -0.031649484425336299 -0.31701356192698721 0 -0.05012745319326059 -0.30445945297878008 0 -0.060613113796085999 -0.32288269869712272 0 -0.031649484425336299 -0.31701356192698721 0 -0.050269733973634309 -0.3392354021108881 0 -0.031649484425336299 -0.31701356192698721 0 -0.02882043935224279 -0.34451333326955308 0 -0.031649484425336299 -0.31701356192698721 0 -0.02882043935224279 -0.34451333326955308 0 -0.031649484425336299 -0.31701356192698721 0 -0.0038616663111063101 -0.33241552487502413 0 -0.02882043935224279 -0.34451333326955308 0 -0.01007927323019326 -0.3103345258507364 0 -0.031649484425336299 -0.31701356192698721 0 -0.0038616663111063101 -0.33241552487502413 0 -0.01007927323019326 -0.3103345258507364 0 -0.0038616663111063101 -0.33241552487502413 0 0.0094652366165251054 -0.31053241408104548 0 -0.0038616663111063101 -0.33241552487502413 0 -0.0043130761299947744 -0.35643483176966217 0 -0.02882043935224279 -0.34451333326955308 0 -0.0043130761299947744 -0.35643483176966217 0 -0.02882043935224279 -0.34451333326955308 0 -0.026419717968229769 -0.36867473508972981 0 -0.0043130761299947744 -0.35643483176966217 0 -0.026419717968229769 -0.36867473508972981 0 -0.0064694903547723136 -0.38059021958606692 0 -0.0064694903547723136 -0.38059021958606692 0 -0.0080625817845775948 -0.40608726553411861 0 -0.026496984295852101 -0.39226102623928111 0 -0.0064694903547723136 -0.38059021958606692 0 -0.0080625817845775948 -0.40608726553411861 0 0.009690974369139977 -0.39295199195252922 0 -0.0080625817845775948 -0.40608726553411861 0 -0.026496984295852101 -0.39226102623928111 0 -0.029852467816379728 -0.41236872525256307 0 -0.026419717968229769 -0.36867473508972981 0 -0.0064694903547723136 -0.38059021958606692 0 -0.026496984295852101 -0.39226102623928111 0 -0.026496984295852101 -0.39226102623928111 0 -0.048213792324517578 -0.39768762776665978 0 -0.046935058978613817 -0.3783756837809118 0 -0.026419717968229769 -0.36867473508972981 0 -0.026496984295852101 -0.39226102623928111 0 -0.046935058978613817 -0.3783756837809118 0 -0.026496984295852101 -0.39226102623928111 0 -0.048213792324517578 -0.39768762776665978 0 -0.029852467816379728 -0.41236872525256307 0 -0.048213792324517578 -0.39768762776665978 0 -0.065379196062645584 -0.39052657147488062 0 -0.06528413140028641 -0.40548789039177052 0 -0.048213792324517578 -0.39768762776665978 0 -0.046935058978613817 -0.3783756837809118 0 -0.065379196062645584 -0.39052657147488062 0 -0.065890469742167113 -0.37350781086095058 0 -0.046935058978613817 -0.3783756837809118 0 -0.065379196062645584 -0.39052657147488062 0 -0.052630130657334448 -0.42871109396582502 0 -0.036803499053157718 -0.43392585985635063 0 -0.055908543568221357 -0.44353945242809251 0 -0.052630130657334448 -0.42871109396582502 0 -0.048282499091199083 -0.41684649723306111 0 -0.065713266975248902 -0.42040157794015642 0 -0.052630130657334448 -0.42871109396582502 0 -0.055908543568221357 -0.44353945242809251 0 -0.077753046024815156 -0.43509142098737241 0 -0.048282499091199083 -0.41684649723306111 0 -0.06528413140028641 -0.40548789039177052 0 -0.065713266975248902 -0.42040157794015642 0 -0.048213792324517578 -0.39768762776665978 0 -0.048282499091199083 -0.41684649723306111 0 -0.06528413140028641 -0.40548789039177052 0 -0.048213792324517578 -0.39768762776665978 0 -0.048282499091199083 -0.41684649723306111 0 -0.029852467816379728 -0.41236872525256307 0 -0.048282499091199083 -0.41684649723306111 0 -0.036803499053157718 -0.43392585985635063 0 -0.029852467816379728 -0.41236872525256307 0 -0.052630130657334448 -0.42871109396582502 0 -0.048282499091199083 -0.41684649723306111 0 -0.036803499053157718 -0.43392585985635063 0 -0.036803499053157718 -0.43392585985635063 0 -0.01686747062211669 -0.42668809062348251 0 -0.022482277956740859 -0.44034230556013138 0 -0.036803499053157718 -0.43392585985635063 0 -0.01686747062211669 -0.42668809062348251 0 -0.029852467816379728 -0.41236872525256307 0 -0.0080625817845775948 -0.40608726553411861 0 -0.01686747062211669 -0.42668809062348251 0 -0.029852467816379728 -0.41236872525256307 0 -0.0080625817845775948 -0.40608726553411861 0 -0.01686747062211669 -0.42668809062348251 0 0.01224976062295041 -0.42183763890738629 0 -0.01686747062211669 -0.42668809062348251 0 -0.008216644178786571 -0.4466179140804285 0 0.01224976062295041 -0.42183763890738629 0 -0.008216644178786571 -0.4466179140804285 0 -0.0021957942935651631 -0.46571035637089769 0 -0.016151777162071251 -0.46269316979172348 0 -0.0021957942935651631 -0.46571035637089769 0 -0.016151777162071251 -0.46269316979172348 0 -0.01292321871024151 -0.47600360382280887 0 -0.008216644178786571 -0.4466179140804285 0 -0.016151777162071251 -0.46269316979172348 0 -0.028753682251359231 -0.45370767630375852 0 -0.016151777162071251 -0.46269316979172348 0 -0.030722049445265721 -0.46513815794063051 0 -0.025757536927686689 -0.47561542944709773 0 -0.016151777162071251 -0.46269316979172348 0 -0.030722049445265721 -0.46513815794063051 0 -0.028753682251359231 -0.45370767630375852 0 -0.036803499053157718 -0.43392585985635063 0 -0.028753682251359231 -0.45370767630375852 0 -0.022482277956740859 -0.44034230556013138 0 -0.01686747062211669 -0.42668809062348251 0 -0.008216644178786571 -0.4466179140804285 0 -0.022482277956740859 -0.44034230556013138 0 -0.008216644178786571 -0.4466179140804285 0 -0.028753682251359231 -0.45370767630375852 0 -0.022482277956740859 -0.44034230556013138 0 -0.011489863113854141 -0.5 0 -0.010144146689038991 -0.48941639725935437 0 0.012735562036971701 -0.48508522326900949 0 -0.010144146689038991 -0.48941639725935437 0 -0.00065605929082254884 -0.47874224407546379 0 -0.01292321871024151 -0.47600360382280887 0 -0.010144146689038991 -0.48941639725935437 0 -0.01292321871024151 -0.47600360382280887 0 -0.022633997898264431 -0.48384402599231691 0 -0.0021957942935651631 -0.46571035637089769 0 -0.00065605929082254884 -0.47874224407546379 0 -0.01292321871024151 -0.47600360382280887 0 -0.016151777162071251 -0.46269316979172348 0 -0.01292321871024151 -0.47600360382280887 0 -0.025757536927686689 -0.47561542944709773 0 -0.025757536927686689 -0.47561542944709773 0 -0.022633997898264431 -0.48384402599231691 0 -0.032724513000240443 -0.48384135401243772 0 -0.01292321871024151 -0.47600360382280887 0 -0.025757536927686689 -0.47561542944709773 0 -0.022633997898264431 -0.48384402599231691 0 -0.011489863113854141 -0.5 0 -0.010144146689038991 -0.48941639725935437 0 -0.033023855415049652 -0.49374757124969931 0 -0.010144146689038991 -0.48941639725935437 0 -0.022633997898264431 -0.48384402599231691 0 -0.033023855415049652 -0.49374757124969931 0 -0.011489863113854141 -0.5 0 -0.041002190054857779 -0.5 0 -0.033023855415049652 -0.49374757124969931 0 -0.010144146689038991 -0.48941639725935437 0 -0.033023855415049652 -0.49374757124969931 0 -0.022633997898264431 -0.48384402599231691 0 -0.033023855415049652 -0.49374757124969931 0 -0.032724513000240443 -0.48384135401243772 0 -0.041002190054857779 -0.5 0 -0.040644419244316249 -0.48874723383863622 0 -0.055758353525359711 -0.48944453406372251 0 -0.041002190054857779 -0.5 0 -0.033023855415049652 -0.49374757124969931 0 -0.040644419244316249 -0.48874723383863622 0 -0.033023855415049652 -0.49374757124969931 0 -0.040644419244316249 -0.48874723383863622 0 -0.032724513000240443 -0.48384135401243772 0 -0.040644419244316249 -0.48874723383863622 0 -0.040713184226073652 -0.47670270986732172 0 -0.055758353525359711 -0.48944453406372251 0 -0.040644419244316249 -0.48874723383863622 0 -0.040713184226073652 -0.47670270986732172 0 -0.032724513000240443 -0.48384135401243772 0 -0.025757536927686689 -0.47561542944709773 0 -0.040713184226073652 -0.47670270986732172 0 -0.032724513000240443 -0.48384135401243772 0 -0.030722049445265721 -0.46513815794063051 0 -0.025757536927686689 -0.47561542944709773 0 -0.040713184226073652 -0.47670270986732172 0 -0.040713184226073652 -0.47670270986732172 0 -0.05604151524233808 -0.47085547185542692 0 -0.042137987481662489 -0.46199998676314519 0 -0.040713184226073652 -0.47670270986732172 0 -0.05604151524233808 -0.47085547185542692 0 -0.055758353525359711 -0.48944453406372251 0 -0.05604151524233808 -0.47085547185542692 0 -0.055758353525359711 -0.48944453406372251 0 -0.068357021366280857 -0.47830767763467641 0 -0.041002190054857779 -0.5 0 -0.055758353525359711 -0.48944453406372251 0 -0.070514516995861642 -0.5 0 -0.036803499053157718 -0.43392585985635063 0 -0.028753682251359231 -0.45370767630375852 0 -0.042591220718736618 -0.44931976272637059 0 -0.036803499053157718 -0.43392585985635063 0 -0.042591220718736618 -0.44931976272637059 0 -0.055908543568221357 -0.44353945242809251 0 -0.028753682251359231 -0.45370767630375852 0 -0.042591220718736618 -0.44931976272637059 0 -0.042137987481662489 -0.46199998676314519 0 -0.030722049445265721 -0.46513815794063051 0 -0.028753682251359231 -0.45370767630375852 0 -0.042137987481662489 -0.46199998676314519 0 -0.030722049445265721 -0.46513815794063051 0 -0.040713184226073652 -0.47670270986732172 0 -0.042137987481662489 -0.46199998676314519 0 -0.042591220718736618 -0.44931976272637059 0 -0.042137987481662489 -0.46199998676314519 0 -0.054601469153056192 -0.45704509188174619 0 -0.05604151524233808 -0.47085547185542692 0 -0.054601469153056192 -0.45704509188174619 0 -0.071896784036839162 -0.45711427830285839 0 -0.05604151524233808 -0.47085547185542692 0 -0.042137987481662489 -0.46199998676314519 0 -0.054601469153056192 -0.45704509188174619 0 -0.054601469153056192 -0.45704509188174619 0 -0.055908543568221357 -0.44353945242809251 0 -0.071896784036839162 -0.45711427830285839 0 -0.042591220718736618 -0.44931976272637059 0 -0.054601469153056192 -0.45704509188174619 0 -0.055908543568221357 -0.44353945242809251 0 -0.055908543568221357 -0.44353945242809251 0 -0.071896784036839162 -0.45711427830285839 0 -0.077753046024815156 -0.43509142098737241 0 -0.071896784036839162 -0.45711427830285839 0 -0.087573937031005744 -0.47412410395137422 0 -0.093954286744555499 -0.45179652052777369 0 -0.087573937031005744 -0.47412410395137422 0 -0.093954286744555499 -0.45179652052777369 0 -0.071896784036839162 -0.45711427830285839 0 -0.093954286744555499 -0.45179652052777369 0 -0.077753046024815156 -0.43509142098737241 0 -0.093954286744555499 -0.45179652052777369 0 -0.10033463645810529 -0.42946893710417328 0 -0.077753046024815156 -0.43509142098737241 0 -0.055758353525359711 -0.48944453406372251 0 -0.070514516995861642 -0.5 0 -0.068357021366280857 -0.47830767763467641 0 -0.05604151524233808 -0.47085547185542692 0 -0.071896784036839162 -0.45711427830285839 0 -0.068357021366280857 -0.47830767763467641 0 -0.071896784036839162 -0.45711427830285839 0 -0.068357021366280857 -0.47830767763467641 0 -0.087573937031005744 -0.47412410395137422 0 -0.070514516995861642 -0.5 0 -0.068357021366280857 -0.47830767763467641 0 -0.087573937031005744 -0.47412410395137422 0 -0.070514516995861642 -0.5 0 -0.087573937031005744 -0.47412410395137422 0 -0.10002684393686551 -0.5 0 -0.087573937031005744 -0.47412410395137422 0 -0.10002684393686551 -0.5 0 -0.10780494223314389 -0.47765854937150709 0 -0.087573937031005744 -0.47412410395137422 0 -0.10780494223314389 -0.47765854937150709 0 -0.1029954147344513 -0.46359439800738522 0 -0.12605423818426559 -0.48707922202292669 0 -0.10780494223314389 -0.47765854937150709 0 -0.1201929706126502 -0.46127799294672761 0 -0.12605423818426559 -0.48707922202292669 0 -0.1201929706126502 -0.46127799294672761 0 -0.12605423818426559 -0.48707922202292669 0 -0.10002684393686551 -0.5 0 -0.10780494223314389 -0.47765854937150709 0 -0.1295391708778694 -0.5 0 -0.12605423818426559 -0.48707922202292669 0 -0.10002684393686551 -0.5 0 -0.093954286744555499 -0.45179652052777369 0 -0.10033463645810529 -0.42946893710417328 0 -0.10636180231815941 -0.44832292249131772 0 -0.11433170304103479 -0.43547676387052858 0 -0.10033463645810529 -0.42946893710417328 0 -0.10636180231815941 -0.44832292249131772 0 -0.093954286744555499 -0.45179652052777369 0 -0.10033463645810529 -0.42946893710417328 0 -0.087573937031005744 -0.47412410395137422 0 -0.093954286744555499 -0.45179652052777369 0 -0.1029954147344513 -0.46359439800738522 0 -0.10636180231815941 -0.44832292249131772 0 -0.093954286744555499 -0.45179652052777369 0 -0.1029954147344513 -0.46359439800738522 0 -0.10780494223314389 -0.47765854937150709 0 -0.1029954147344513 -0.46359439800738522 0 -0.1201929706126502 -0.46127799294672761 0 -0.10636180231815941 -0.44832292249131772 0 -0.1029954147344513 -0.46359439800738522 0 -0.1201929706126502 -0.46127799294672761 0 -0.13671083813600751 -0.45044361347006462 0 -0.1201929706126502 -0.46127799294672761 0 -0.11433170304103479 -0.43547676387052858 0 -0.10636180231815941 -0.44832292249131772 0 -0.1201929706126502 -0.46127799294672761 0 -0.11433170304103479 -0.43547676387052858 0 -0.13671083813600751 -0.45044361347006462 0 -0.1225906368027144 -0.43005957413219659 0 -0.11433170304103479 -0.43547676387052858 0 -0.1201929706126502 -0.46127799294672761 0 -0.11433170304103479 -0.43547676387052858 0 -0.1225906368027144 -0.43005957413219659 0 -0.11433170304103479 -0.43547676387052858 0 -0.10847043546942051 -0.40967553479432928 0 -0.11433170304103479 -0.43547676387052858 0 -0.10847043546942051 -0.40967553479432928 0 -0.12908399078123631 -0.42243277819987513 0 -0.1225906368027144 -0.43005957413219659 0 -0.12315425937001 -0.41747458531602638 0 -0.11433170304103479 -0.43547676387052858 0 -0.10033463645810529 -0.42946893710417328 0 -0.10847043546942051 -0.40967553479432928 0 -0.10033463645810529 -0.42946893710417328 0 -0.094107383989168333 -0.41562629379671062 0 -0.1067149861716557 -0.40714135368057303 0 -0.10033463645810529 -0.42946893710417328 0 -0.1067149861716557 -0.40714135368057303 0 -0.10847043546942051 -0.40967553479432928 0 -0.10033463645810529 -0.42946893710417328 0 -0.1067149861716557 -0.40714135368057303 0 -0.094107383989168333 -0.41562629379671062 0 -0.1067149861716557 -0.40714135368057303 0 -0.093615658715422545 -0.40476526464288082 0 -0.10847043546942051 -0.40967553479432928 0 -0.1105756132387118 -0.40676785322215941 0 -0.1073722461642546 -0.40484131873350049 0 -0.10847043546942051 -0.40967553479432928 0 -0.1073722461642546 -0.40484131873350049 0 -0.1067149861716557 -0.40714135368057303 0 -0.10847043546942051 -0.40967553479432928 0 -0.1073722461642546 -0.40484131873350049 0 -0.1067149861716557 -0.40714135368057303 0 -0.10847043546942051 -0.40967553479432928 0 -0.1225906368027144 -0.43005957413219659 0 -0.1163272184937543 -0.41351727508190028 0 -0.12315425937001 -0.41747458531602638 0 -0.10847043546942051 -0.40967553479432928 0 -0.1125412123036873 -0.40894162881917728 0 -0.1163272184937543 -0.41351727508190028 0 -0.1125412123036873 -0.40894162881917728 0 -0.1105756132387118 -0.40676785322215941 0 -0.1147915820128618 -0.40580585217832088 0 -0.1225906368027144 -0.43005957413219659 0 -0.10847043546942051 -0.40967553479432928 0 -0.1163272184937543 -0.41351727508190028 0 -0.10847043546942051 -0.40967553479432928 0 -0.1125412123036873 -0.40894162881917728 0 -0.1105756132387118 -0.40676785322215941 0 -0.1225906368027144 -0.43005957413219659 0 -0.10847043546942051 -0.40967553479432928 0 -0.1125412123036873 -0.40894162881917728 0 -0.1163272184937543 -0.41351727508190028 0 -0.1147915820128618 -0.40580585217832088 0 -0.1225700411049412 -0.40994677461386392 0 -0.1219584454402414 -0.40406961642135292 0 -0.1147915820128618 -0.40580585217832088 0 -0.1163272184937543 -0.41351727508190028 0 -0.1225700411049412 -0.40994677461386392 0 -0.1147915820128618 -0.40580585217832088 0 -0.1163272184937543 -0.41351727508190028 0 -0.12315425937001 -0.41747458531602638 0 -0.1225700411049412 -0.40994677461386392 0 -0.1273295258527142 -0.39594401256049883 0 -0.1219584454402414 -0.40406961642135292 0 -0.1190781430676657 -0.39944145851713192 0 -0.11305295545189779 -0.39895005080087959 0 -0.11384267237711319 -0.38219851895920232 0 -0.1073722461642546 -0.40484131873350049 0 -0.1295768038857959 -0.40463739140698729 0 -0.1225700411049412 -0.40994677461386392 0 -0.1219584454402414 -0.40406961642135292 0 -0.1182582065806136 -0.392437760624607 0 -0.11305295545189779 -0.39895005080087959 0 -0.11384267237711319 -0.38219851895920232 0 -0.11384267237711319 -0.38219851895920232 0 -0.1073722461642546 -0.40484131873350049 0 -0.1219584454402414 -0.40406961642135292 0 -0.1190781430676657 -0.39944145851713192 0 -0.1147915820128618 -0.40580585217832088 0 -0.1273295258527142 -0.39594401256049883 0 -0.1190781430676657 -0.39944145851713192 0 -0.1182582065806136 -0.392437760624607 0 -0.1190781430676657 -0.39944145851713192 0 -0.1182582065806136 -0.392437760624607 0 -0.11305295545189779 -0.39895005080087959 0 -0.1105756132387118 -0.40676785322215941 0 -0.1114480992169309 -0.40409126873371493 0 -0.1073722461642546 -0.40484131873350049 0 -0.1105756132387118 -0.40676785322215941 0 -0.1114480992169309 -0.40409126873371493 0 -0.1147915820128618 -0.40580585217832088 0 -0.11305295545189779 -0.39895005080087959 0 -0.1114480992169309 -0.40409126873371493 0 -0.1147915820128618 -0.40580585217832088 0 -0.11305295545189779 -0.39895005080087959 0 -0.1114480992169309 -0.40409126873371493 0 -0.1073722461642546 -0.40484131873350049 0 -0.1190781430676657 -0.39944145851713192 0 -0.11305295545189779 -0.39895005080087959 0 -0.1147915820128618 -0.40580585217832088 0 -0.12625141541498519 -0.38197991289387551 0 -0.1182582065806136 -0.392437760624607 0 -0.11384267237711319 -0.38219851895920232 0 -0.12625141541498519 -0.38197991289387551 0 -0.1273295258527142 -0.39594401256049883 0 -0.1182582065806136 -0.392437760624607 0 -0.11384267237711319 -0.38219851895920232 0 -0.10176491866177829 -0.38015793077534599 0 -0.1073722461642546 -0.40484131873350049 0 -0.10176491866177829 -0.38015793077534599 0 -0.095995502779844255 -0.39166661886747001 0 -0.085276019388031976 -0.37619188405436782 0 -0.10849363524981311 -0.36442991456039969 0 -0.11384267237711319 -0.38219851895920232 0 -0.10176491866177829 -0.38015793077534599 0 -0.10176491866177829 -0.38015793077534599 0 -0.1073722461642546 -0.40484131873350049 0 -0.095995502779844255 -0.39166661886747001 0 -0.10176491866177829 -0.38015793077534599 0 -0.1073722461642546 -0.40484131873350049 0 -0.1067149861716557 -0.40714135368057303 0 -0.1073722461642546 -0.40484131873350049 0 -0.095995502779844255 -0.39166661886747001 0 -0.1067149861716557 -0.40714135368057303 0 -0.1073722461642546 -0.40484131873350049 0 -0.1067149861716557 -0.40714135368057303 0 -0.095995502779844255 -0.39166661886747001 0 -0.1067149861716557 -0.40714135368057303 0 -0.095995502779844255 -0.39166661886747001 0 -0.093615658715422545 -0.40476526464288082 0 -0.093615658715422545 -0.40476526464288082 0 -0.081664681120336771 -0.39582842074610342 0 -0.082451352827770552 -0.41163664718976212 0 -0.095995502779844255 -0.39166661886747001 0 -0.093615658715422545 -0.40476526464288082 0 -0.081664681120336771 -0.39582842074610342 0 -0.095995502779844255 -0.39166661886747001 0 -0.081664681120336771 -0.39582842074610342 0 -0.085276019388031976 -0.37619188405436782 0 -0.081664681120336771 -0.39582842074610342 0 -0.085276019388031976 -0.37619188405436782 0 -0.074552591578295357 -0.38401367178407558 0 -0.095995502779844255 -0.39166661886747001 0 -0.085276019388031976 -0.37619188405436782 0 -0.081664681120336771 -0.39582842074610342 0 -0.065379196062645584 -0.39052657147488062 0 -0.074552591578295357 -0.38401367178407558 0 -0.065890469742167113 -0.37350781086095058 0 -0.085276019388031976 -0.37619188405436782 0 -0.074552591578295357 -0.38401367178407558 0 -0.065890469742167113 -0.37350781086095058 0 -0.065379196062645584 -0.39052657147488062 0 -0.074552591578295357 -0.38401367178407558 0 -0.081664681120336771 -0.39582842074610342 0 -0.06528413140028641 -0.40548789039177052 0 -0.082451352827770552 -0.41163664718976212 0 -0.081664681120336771 -0.39582842074610342 0 -0.065379196062645584 -0.39052657147488062 0 -0.06528413140028641 -0.40548789039177052 0 -0.065713266975248902 -0.42040157794015642 0 -0.085028608260126398 -0.42320905853578622 0 -0.082451352827770552 -0.41163664718976212 0 -0.06528413140028641 -0.40548789039177052 0 -0.065713266975248902 -0.42040157794015642 0 -0.082451352827770552 -0.41163664718976212 0 -0.065713266975248902 -0.42040157794015642 0 -0.077753046024815156 -0.43509142098737241 0 -0.085028608260126398 -0.42320905853578622 0 -0.052630130657334448 -0.42871109396582502 0 -0.065713266975248902 -0.42040157794015642 0 -0.077753046024815156 -0.43509142098737241 0 -0.10033463645810529 -0.42946893710417328 0 -0.077753046024815156 -0.43509142098737241 0 -0.085028608260126398 -0.42320905853578622 0 -0.10033463645810529 -0.42946893710417328 0 -0.094107383989168333 -0.41562629379671062 0 -0.085028608260126398 -0.42320905853578622 0 -0.094107383989168333 -0.41562629379671062 0 -0.085028608260126398 -0.42320905853578622 0 -0.082451352827770552 -0.41163664718976212 0 -0.094107383989168333 -0.41562629379671062 0 -0.093615658715422545 -0.40476526464288082 0 -0.082451352827770552 -0.41163664718976212 0 -0.080832567710134945 -0.085265223789800185 0 -0.09573268077664969 -0.090624673380050064 0 -0.094924188455715333 -0.074372309221374736 0 -0.080832567710134945 -0.085265223789800185 0 -0.0944050220014645 -0.1050702242089397 0 -0.09573268077664969 -0.090624673380050064 0 -0.094924188455715333 -0.074372309221374736 0 -0.077079431972146645 -0.050953682142663811 0 -0.080832567710134945 -0.085265223789800185 0 -0.077460787511610923 -0.070469280456870842 0 -0.094924188455715333 -0.074372309221374736 0 -0.077460787511610923 -0.070469280456870842 0 -0.094924188455715333 -0.074372309221374736 0 -0.078535685693175539 -0.061573663464548622 0 -0.080832567710134945 -0.085265223789800185 0 -0.072736864716213656 -0.076885636419884412 0 -0.077460787511610923 -0.070469280456870842 0 -0.072736864716213656 -0.076885636419884412 0 -0.077460787511610923 -0.070469280456870842 0 -0.067174029152377468 -0.071022972744677337 0 -0.077460787511610923 -0.070469280456870842 0 -0.067174029152377468 -0.071022972744677337 0 -0.070308423821052124 -0.061023041189074957 0 -0.077460787511610923 -0.070469280456870842 0 -0.078535685693175539 -0.061573663464548622 0 -0.070308423821052124 -0.061023041189074957 0 -0.067174029152377468 -0.071022972744677337 0 -0.070308423821052124 -0.061023041189074957 0 -0.060830035872249492 -0.064558057335980773 0 -0.072736864716213656 -0.076885636419884412 0 -0.067174029152377468 -0.071022972744677337 0 -0.063732237529271596 -0.080733089011810297 0 -0.067174029152377468 -0.071022972744677337 0 -0.063732237529271596 -0.080733089011810297 0 -0.058000192015007383 -0.073011667883306972 0 -0.080832567710134945 -0.085265223789800185 0 -0.063732237529271596 -0.080733089011810297 0 -0.066023591375222151 -0.09957098179305135 0 -0.080832567710134945 -0.085265223789800185 0 -0.072736864716213656 -0.076885636419884412 0 -0.063732237529271596 -0.080733089011810297 0 -0.066023591375222151 -0.09957098179305135 0 -0.069466171350113709 -0.1135628440840601 0 -0.0944050220014645 -0.1050702242089397 0 -0.066023591375222151 -0.09957098179305135 0 -0.069466171350113709 -0.1135628440840601 0 -0.054384952187449757 -0.110609208962567 0 -0.077516787342341589 -0.1242022911324857 0 -0.069466171350113709 -0.1135628440840601 0 -0.059238207921678762 -0.13024384051707169 0 -0.077516787342341589 -0.1242022911324857 0 -0.093262550211769629 -0.1231040070079162 0 -0.0944050220014645 -0.1050702242089397 0 -0.077516787342341589 -0.1242022911324857 0 -0.069466171350113709 -0.1135628440840601 0 -0.0944050220014645 -0.1050702242089397 0 -0.066023591375222151 -0.09957098179305135 0 -0.0944050220014645 -0.1050702242089397 0 -0.080832567710134945 -0.085265223789800185 0 -0.066023591375222151 -0.09957098179305135 0 -0.0944050220014645 -0.1050702242089397 0 -0.0944050220014645 -0.1050702242089397 0 -0.1071147179002416 -0.1244919901550422 0 -0.11276894493928399 -0.097790936300085646 0 -0.0944050220014645 -0.1050702242089397 0 -0.11276894493928399 -0.097790936300085646 0 -0.09573268077664969 -0.090624673380050064 0 -0.093262550211769629 -0.1231040070079162 0 -0.0944050220014645 -0.1050702242089397 0 -0.1071147179002416 -0.1244919901550422 0 -0.1071147179002416 -0.1244919901550422 0 -0.11276894493928399 -0.097790936300085646 0 -0.1306137014228527 -0.1212095633787966 0 -0.11276894493928399 -0.097790936300085646 0 -0.1306137014228527 -0.1212095633787966 0 -0.112702195828283 -0.076339248342475546 0 -0.13438499311011279 -0.096174695905308166 0 -0.11276894493928399 -0.097790936300085646 0 -0.112702195828283 -0.076339248342475546 0 -0.13438499311011279 -0.096174695905308166 0 -0.11276894493928399 -0.097790936300085646 0 -0.094924188455715333 -0.074372309221374736 0 -0.112702195828283 -0.076339248342475546 0 -0.11276894493928399 -0.097790936300085646 0 -0.094924188455715333 -0.074372309221374736 0 -0.11276894493928399 -0.097790936300085646 0 -0.09573268077664969 -0.090624673380050064 0 -0.094924188455715333 -0.074372309221374736 0 -0.094924188455715333 -0.074372309221374736 0 -0.1026030192468113 -0.064894788769428779 0 -0.112702195828283 -0.076339248342475546 0 -0.094924188455715333 -0.074372309221374736 0 -0.1026030192468113 -0.064894788769428779 0 -0.090333769324138391 -0.059362086744932152 0 -0.1026030192468113 -0.064894788769428779 0 -0.112702195828283 -0.076339248342475546 0 -0.1158705629695205 -0.060236298698018297 0 -0.112702195828283 -0.076339248342475546 0 -0.1158705629695205 -0.060236298698018297 0 -0.13497135686491851 -0.078315161523928284 0 -0.1158705629695205 -0.060236298698018297 0 -0.1150956899200111 -0.045830426672337207 0 -0.1070798181065768 -0.041876824406217303 0 -0.1158705629695205 -0.060236298698018297 0 -0.1150956899200111 -0.045830426672337207 0 -0.12809376798702951 -0.047905065599393698 0 -0.1163329610324388 -0.034474533447810513 0 -0.12530131535501859 -0.034952786400489197 0 -0.12809376798702951 -0.047905065599393698 0 -0.11023593420079281 -0.033339602888773932 0 -0.1150956899200111 -0.045830426672337207 0 -0.12809376798702951 -0.047905065599393698 0 -0.11023593420079281 -0.033339602888773932 0 -0.1163329610324388 -0.034474533447810513 0 -0.12809376798702951 -0.047905065599393698 0 -0.11023593420079281 -0.033339602888773932 0 -0.12809376798702951 -0.047905065599393698 0 -0.1163329610324388 -0.034474533447810513 0 -0.1221370268088495 -0.025998648103035 0 -0.12530131535501859 -0.034952786400489197 0 -0.11023593420079281 -0.033339602888773932 0 -0.1150956899200111 -0.045830426672337207 0 -0.1070798181065768 -0.041876824406217303 0 -0.11023593420079281 -0.033339602888773932 0 -0.1163329610324388 -0.034474533447810513 0 -0.097427134368436918 -0.027820357899848831 0 -0.11023593420079281 -0.033339602888773932 0 -0.1070798181065768 -0.041876824406217303 0 -0.097427134368436918 -0.027820357899848831 0 -0.1070798181065768 -0.041876824406217303 0 -0.096769769074122519 -0.04215743587210824 0 -0.097427134368436918 -0.027820357899848831 0 -0.1158705629695205 -0.060236298698018297 0 -0.1070798181065768 -0.041876824406217303 0 -0.096769769074122519 -0.04215743587210824 0 -0.1026030192468113 -0.064894788769428779 0 -0.1158705629695205 -0.060236298698018297 0 -0.099264754381345577 -0.055060356505970513 0 -0.1158705629695205 -0.060236298698018297 0 -0.096769769074122519 -0.04215743587210824 0 -0.099264754381345577 -0.055060356505970513 0 -0.096769769074122519 -0.04215743587210824 0 -0.099264754381345577 -0.055060356505970513 0 -0.090746651292135133 -0.048651172445365112 0 -0.1158705629695205 -0.060236298698018297 0 -0.096769769074122519 -0.04215743587210824 0 -0.1026030192468113 -0.064894788769428779 0 -0.099264754381345577 -0.055060356505970513 0 -0.090333769324138391 -0.059362086744932152 0 -0.1029392013539359 -0.0085751277431150782 0 -0.12735709500343681 0.004015926865657337 0 -0.1236693299605585 -0.0137973575501921 0 -0.1110604598185659 -0.0207882196779367 0 -0.1029392013539359 -0.0085751277431150782 0 -0.1236693299605585 -0.0137973575501921 0 -0.1029392013539359 -0.0085751277431150782 0 -0.12735709500343681 0.004015926865657337 0 -0.1236693299605585 -0.0137973575501921 0 -0.1110604598185659 -0.0207882196779367 0 -0.1221370268088495 -0.025998648103035 0 -0.1163329610324388 -0.034474533447810513 0 -0.1221370268088495 -0.025998648103035 0 -0.11173939550707281 -0.027270439782157759 0 -0.1110604598185659 -0.0207882196779367 0 -0.1221370268088495 -0.025998648103035 0 -0.11173939550707281 -0.027270439782157759 0 -0.1163329610324388 -0.034474533447810513 0 -0.097427134368436918 -0.027820357899848831 0 -0.1110604598185659 -0.0207882196779367 0 -0.097427134368436918 -0.027820357899848831 0 -0.1029392013539359 -0.0085751277431150782 0 -0.1163329610324388 -0.034474533447810513 0 -0.11173939550707281 -0.027270439782157759 0 -0.097427134368436918 -0.027820357899848831 0 -0.1110604598185659 -0.0207882196779367 0 -0.11173939550707281 -0.027270439782157759 0 -0.097427134368436918 -0.027820357899848831 0 -0.1029392013539359 -0.0085751277431150782 0 -0.086097875964997059 -0.0058870606910941042 0 -0.078521307704434995 -0.021166182351887271 0 -0.1029392013539359 -0.0085751277431150782 0 -0.078521307704434995 -0.021166182351887271 0 -0.1029392013539359 -0.0085751277431150782 0 -0.086097875964997059 -0.0058870606910941042 0 -0.091682611010439896 0.0063963380850077774 0 -0.086097875964997059 -0.0058870606910941042 0 -0.073830544796709738 -0.0078542708917730738 0 -0.078933949510919491 0.00072378658541613432 0 -0.086097875964997059 -0.0058870606910941042 0 -0.078521307704434995 -0.021166182351887271 0 -0.073830544796709738 -0.0078542708917730738 0 -0.097427134368436918 -0.027820357899848831 0 -0.078521307704434995 -0.021166182351887271 0 -0.097427134368436918 -0.027820357899848831 0 -0.078521307704434995 -0.021166182351887271 0 -0.077668975178724509 -0.024078573046198169 0 -0.097427134368436918 -0.027820357899848831 0 -0.1029392013539359 -0.0085751277431150782 0 -0.078521307704434995 -0.021166182351887271 0 -0.078521307704434995 -0.021166182351887271 0 -0.055132092173872667 -0.033226800447327051 0 -0.05822397002114936 -0.01402224463886402 0 -0.078521307704434995 -0.021166182351887271 0 -0.055132092173872667 -0.033226800447327051 0 -0.077668975178724509 -0.024078573046198169 0 -0.075465350998538308 -0.032772608828030472 0 -0.055132092173872667 -0.033226800447327051 0 -0.078521307704434995 -0.021166182351887271 0 -0.077668975178724509 -0.024078573046198169 0 -0.055132092173872667 -0.033226800447327051 0 -0.078521307704434995 -0.021166182351887271 0 -0.05822397002114936 -0.01402224463886402 0 -0.078521307704434995 -0.021166182351887271 0 -0.073830544796709738 -0.0078542708917730738 0 -0.05822397002114936 -0.01402224463886402 0 -0.073830544796709738 -0.0078542708917730738 0 -0.05822397002114936 -0.01402224463886402 0 -0.068462160169621672 0.0025537029525893409 0 -0.073830544796709738 -0.0078542708917730738 0 -0.078933949510919491 0.00072378658541613432 0 -0.068462160169621672 0.0025537029525893409 0 -0.094924188455715333 -0.074372309221374736 0 -0.090333769324138391 -0.059362086744932152 0 -0.077079431972146645 -0.050953682142663811 0 -0.094924188455715333 -0.074372309221374736 0 -0.078535685693175539 -0.061573663464548622 0 -0.077079431972146645 -0.050953682142663811 0 -0.084868245962835154 -0.053326759561897898 0 -0.090333769324138391 -0.059362086744932152 0 -0.077079431972146645 -0.050953682142663811 0 -0.084868245962835154 -0.053326759561897898 0 -0.080876314157704687 -0.04955372347343575 0 -0.082849096915408454 -0.045583035938281863 0 -0.080876314157704687 -0.04955372347343575 0 -0.078708481780428496 -0.048351416250899462 0 -0.082849096915408454 -0.045583035938281863 0 -0.080876314157704687 -0.04955372347343575 0 -0.078708481780428496 -0.048351416250899462 0 -0.077079431972146645 -0.050953682142663811 0 -0.084868245962835154 -0.053326759561897898 0 -0.080876314157704687 -0.04955372347343575 0 -0.077079431972146645 -0.050953682142663811 0 -0.084868245962835154 -0.053326759561897898 0 -0.090746651292135133 -0.048651172445365112 0 -0.082849096915408454 -0.045583035938281863 0 -0.084868245962835154 -0.053326759561897898 0 -0.090333769324138391 -0.059362086744932152 0 -0.090746651292135133 -0.048651172445365112 0 -0.099264754381345577 -0.055060356505970513 0 -0.090333769324138391 -0.059362086744932152 0 -0.090746651292135133 -0.048651172445365112 0 -0.096769769074122519 -0.04215743587210824 0 -0.088481073739883592 -0.043344290748051233 0 -0.083558777677868248 -0.036985518736449702 0 -0.096769769074122519 -0.04215743587210824 0 -0.097427134368436918 -0.027820357899848831 0 -0.077668975178724509 -0.024078573046198169 0 -0.096769769074122519 -0.04215743587210824 0 -0.077668975178724509 -0.024078573046198169 0 -0.083558777677868248 -0.036985518736449702 0 -0.096769769074122519 -0.04215743587210824 0 -0.077668975178724509 -0.024078573046198169 0 -0.090746651292135133 -0.048651172445365112 0 -0.088481073739883592 -0.043344290748051233 0 -0.082849096915408454 -0.045583035938281863 0 -0.096769769074122519 -0.04215743587210824 0 -0.090746651292135133 -0.048651172445365112 0 -0.088481073739883592 -0.043344290748051233 0 -0.077668975178724509 -0.024078573046198169 0 -0.083558777677868248 -0.036985518736449702 0 -0.075465350998538308 -0.032772608828030472 0 -0.083558777677868248 -0.036985518736449702 0 -0.082849096915408454 -0.045583035938281863 0 -0.075062618692292638 -0.040325846155841297 0 -0.088481073739883592 -0.043344290748051233 0 -0.083558777677868248 -0.036985518736449702 0 -0.082849096915408454 -0.045583035938281863 0 -0.082849096915408454 -0.045583035938281863 0 -0.078067002861142085 -0.04575568247049161 0 -0.075062618692292638 -0.040325846155841297 0 -0.078708481780428496 -0.048351416250899462 0 -0.082849096915408454 -0.045583035938281863 0 -0.078067002861142085 -0.04575568247049161 0 -0.075647814056438792 -0.048762431536943832 0 -0.055132092173872667 -0.033226800447327051 0 -0.078067002861142085 -0.04575568247049161 0 -0.075062618692292638 -0.040325846155841297 0 -0.075647814056438792 -0.048762431536943832 0 -0.075062618692292638 -0.040325846155841297 0 -0.075465350998538308 -0.032772608828030472 0 -0.055132092173872667 -0.033226800447327051 0 -0.075647814056438792 -0.048762431536943832 0 -0.061428605263776047 -0.046553119166432878 0 -0.055132092173872667 -0.033226800447327051 0 -0.075062618692292638 -0.040325846155841297 0 -0.075647814056438792 -0.048762431536943832 0 -0.055132092173872667 -0.033226800447327051 0 -0.083558777677868248 -0.036985518736449702 0 -0.075062618692292638 -0.040325846155841297 0 -0.075465350998538308 -0.032772608828030472 0 -0.065722760200719738 -0.052253177456942877 0 -0.075647814056438792 -0.048762431536943832 0 -0.061428605263776047 -0.046553119166432878 0 -0.065722760200719738 -0.052253177456942877 0 -0.07269306068786438 -0.052406879740114577 0 -0.069833853901725543 -0.055329661047837618 0 -0.065722760200719738 -0.052253177456942877 0 -0.07269306068786438 -0.052406879740114577 0 -0.075647814056438792 -0.048762431536943832 0 -0.07269306068786438 -0.052406879740114577 0 -0.073703714626092445 -0.056102563442451223 0 -0.069833853901725543 -0.055329661047837618 0 -0.07269306068786438 -0.052406879740114577 0 -0.077079431972146645 -0.050953682142663811 0 -0.073703714626092445 -0.056102563442451223 0 -0.078708481780428496 -0.048351416250899462 0 -0.077079431972146645 -0.050953682142663811 0 -0.075647814056438792 -0.048762431536943832 0 -0.07269306068786438 -0.052406879740114577 0 -0.077079431972146645 -0.050953682142663811 0 -0.075647814056438792 -0.048762431536943832 0 -0.078708481780428496 -0.048351416250899462 0 -0.078067002861142085 -0.04575568247049161 0 -0.075647814056438792 -0.048762431536943832 0 -0.078535685693175539 -0.061573663464548622 0 -0.073703714626092445 -0.056102563442451223 0 -0.070308423821052124 -0.061023041189074957 0 -0.078535685693175539 -0.061573663464548622 0 -0.077079431972146645 -0.050953682142663811 0 -0.073703714626092445 -0.056102563442451223 0 -0.073703714626092445 -0.056102563442451223 0 -0.070308423821052124 -0.061023041189074957 0 -0.069833853901725543 -0.055329661047837618 0 -0.070308423821052124 -0.061023041189074957 0 -0.064391701294429504 -0.057679717025484439 0 -0.060830035872249492 -0.064558057335980773 0 -0.070308423821052124 -0.061023041189074957 0 -0.069833853901725543 -0.055329661047837618 0 -0.064391701294429504 -0.057679717025484439 0 -0.065722760200719738 -0.052253177456942877 0 -0.069833853901725543 -0.055329661047837618 0 -0.064391701294429504 -0.057679717025484439 0 -0.064391701294429504 -0.057679717025484439 0 -0.055978059279945473 -0.056388284161067823 0 -0.060830035872249492 -0.064558057335980773 0 -0.065722760200719738 -0.052253177456942877 0 -0.064391701294429504 -0.057679717025484439 0 -0.055978059279945473 -0.056388284161067823 0 -0.055978059279945473 -0.056388284161067823 0 -0.041230103293456458 -0.058058117591144771 0 -0.049479852383656611 -0.067543566470139038 0 -0.055978059279945473 -0.056388284161067823 0 -0.049741921456861897 -0.048697412542500033 0 -0.041230103293456458 -0.058058117591144771 0 -0.055978059279945473 -0.056388284161067823 0 -0.049741921456861897 -0.048697412542500033 0 -0.061428605263776047 -0.046553119166432878 0 -0.065722760200719738 -0.052253177456942877 0 -0.055978059279945473 -0.056388284161067823 0 -0.061428605263776047 -0.046553119166432878 0 -0.049741921456861897 -0.048697412542500033 0 -0.061428605263776047 -0.046553119166432878 0 -0.055132092173872667 -0.033226800447327051 0 -0.049741921456861897 -0.048697412542500033 0 -0.055132092173872667 -0.033226800447327051 0 -0.032367863380537598 -0.044965144957206583 0 -0.055132092173872667 -0.033226800447327051 0 -0.032367863380537598 -0.044965144957206583 0 -0.055132092173872667 -0.033226800447327051 0 -0.032367863380537598 -0.044965144957206583 0 -0.031233838643279398 -0.031193199633022049 0 -0.049741921456861897 -0.048697412542500033 0 -0.032367863380537598 -0.044965144957206583 0 -0.041230103293456458 -0.058058117591144771 0 -0.032367863380537598 -0.044965144957206583 0 -0.041230103293456458 -0.058058117591144771 0 -0.026902341230915561 -0.060374551747501753 0 -0.05822397002114936 -0.01402224463886402 0 -0.057836245250817257 0.0062936453779614283 0 -0.044352522143416888 0.0050416822031405977 0 -0.05822397002114936 -0.01402224463886402 0 -0.037926632337863607 -0.0068783069258408786 0 -0.05822397002114936 -0.01402224463886402 0 -0.068462160169621672 0.0025537029525893409 0 -0.057836245250817257 0.0062936453779614283 0 -0.055132092173872667 -0.033226800447327051 0 -0.05822397002114936 -0.01402224463886402 0 -0.036243114184870161 -0.018923029155399909 0 -0.055132092173872667 -0.033226800447327051 0 -0.036243114184870161 -0.018923029155399909 0 -0.031233838643279398 -0.031193199633022049 0 -0.055132092173872667 -0.033226800447327051 0 -0.036243114184870161 -0.018923029155399909 0 -0.05822397002114936 -0.01402224463886402 0 -0.036243114184870161 -0.018923029155399909 0 -0.037926632337863607 -0.0068783069258408786 0 -0.05822397002114936 -0.01402224463886402 0 -0.037926632337863607 -0.0068783069258408786 0 -0.044352522143416888 0.0050416822031405977 0 -0.036243114184870161 -0.018923029155399909 0 -0.037926632337863607 -0.0068783069258408786 0 -0.029121832422534862 -0.0067169982391169078 0 -0.037926632337863607 -0.0068783069258408786 0 -0.029539197120254941 -0.00051038393964639519 0 -0.029121832422534862 -0.0067169982391169078 0 -0.037926632337863607 -0.0068783069258408786 0 -0.029539197120254941 -0.00051038393964639519 0 -0.03614709390981162 0.0015378833132510439 0 -0.037926632337863607 -0.0068783069258408786 0 -0.03614709390981162 0.0015378833132510439 0 -0.044352522143416888 0.0050416822031405977 0 -0.036243114184870161 -0.018923029155399909 0 -0.017354136195868258 -0.0046192578634720229 0 -0.01819617019275287 -0.0061732580868559192 0 -0.036243114184870161 -0.018923029155399909 0 -0.017354136195868258 -0.0046192578634720229 0 -0.029121832422534862 -0.0067169982391169078 0 -0.036243114184870161 -0.018923029155399909 0 -0.01819617019275287 -0.0061732580868559192 0 -0.019637671972121611 -0.02148729346067638 0 -0.036243114184870161 -0.018923029155399909 0 -0.017354136195868258 -0.0046192578634720229 0 -0.017354136195868258 -0.0046192578634720229 0 -0.01819617019275287 -0.0061732580868559192 0 -0.013500839782477779 -0.0058155532537883976 0 -0.017354136195868258 -0.0046192578634720229 0 -0.01819617019275287 -0.0061732580868559192 0 -0.017354136195868258 -0.0046192578634720229 0 -0.024546082273817361 -0.00265401331122534 0 -0.02112675760807068 0.0030512678310729521 0 -0.024546082273817361 -0.00265401331122534 0 -0.029539197120254941 -0.00051038393964639519 0 -0.02112675760807068 0.0030512678310729521 0 -0.017354136195868258 -0.0046192578634720229 0 -0.024546082273817361 -0.00265401331122534 0 -0.029121832422534862 -0.0067169982391169078 0 -0.024546082273817361 -0.00265401331122534 0 -0.029539197120254941 -0.00051038393964639519 0 -0.029121832422534862 -0.0067169982391169078 0 -0.01819617019275287 -0.0061732580868559192 0 -0.019637671972121611 -0.02148729346067638 0 -0.011008321991883009 -0.01057962122923565 0 -0.036243114184870161 -0.018923029155399909 0 -0.019637671972121611 -0.02148729346067638 0 -0.031233838643279398 -0.031193199633022049 0 -0.019637671972121611 -0.02148729346067638 0 -0.031233838643279398 -0.031193199633022049 0 -0.016064986363794779 -0.036441041599790329 0 -0.0077215053668332834 -0.022860670268973711 0 -0.00118246574067416 -0.01324232368796026 0 0.0015263381015913891 -0.033415212413580753 0 -0.0077215053668332834 -0.022860670268973711 0 -0.016064986363794779 -0.036441041599790329 0 0.0015263381015913891 -0.033415212413580753 0 -0.019637671972121611 -0.02148729346067638 0 -0.0077215053668332834 -0.022860670268973711 0 -0.016064986363794779 -0.036441041599790329 0 -0.019637671972121611 -0.02148729346067638 0 -0.0077215053668332834 -0.022860670268973711 0 -0.011008321991883009 -0.01057962122923565 0 -0.011008321991883009 -0.01057962122923565 0 -0.00118246574067416 -0.01324232368796026 0 -0.0072764121498596901 -0.0036325873431357339 0 -0.0077215053668332834 -0.022860670268973711 0 -0.011008321991883009 -0.01057962122923565 0 -0.00118246574067416 -0.01324232368796026 0 -0.00118246574067416 -0.01324232368796026 0 -0.0072764121498596901 -0.0036325873431357339 0 0.0012074066645448821 -0.00065723147797176382 0 -0.0072764121498596901 -0.0036325873431357339 0 -0.013500839782477779 -0.0058155532537883976 0 -0.013607688627124061 -0.00178224205395049 0 -0.011008321991883009 -0.01057962122923565 0 -0.0072764121498596901 -0.0036325873431357339 0 -0.013500839782477779 -0.0058155532537883976 0 -0.01819617019275287 -0.0061732580868559192 0 -0.011008321991883009 -0.01057962122923565 0 -0.013500839782477779 -0.0058155532537883976 0 -0.017354136195868258 -0.0046192578634720229 0 -0.013500839782477779 -0.0058155532537883976 0 -0.013607688627124061 -0.00178224205395049 0 -0.017354136195868258 -0.0046192578634720229 0 -0.013607688627124061 -0.00178224205395049 0 -0.032367863380537598 -0.044965144957206583 0 -0.0096036345872028556 -0.056703489467087059 0 -0.032367863380537598 -0.044965144957206583 0 -0.026902341230915561 -0.060374551747501753 0 -0.0096036345872028556 -0.056703489467087059 0 -0.032367863380537598 -0.044965144957206583 0 -0.031233838643279398 -0.031193199633022049 0 -0.016064986363794779 -0.036441041599790329 0 -0.032367863380537598 -0.044965144957206583 0 -0.016064986363794779 -0.036441041599790329 0 -0.0096036345872028556 -0.056703489467087059 0 -0.0096036345872028556 -0.056703489467087059 0 0.0015263381015913891 -0.033415212413580753 0 -0.016064986363794779 -0.036441041599790329 0 -0.0096036345872028556 -0.056703489467087059 0 0.0015263381015913891 -0.033415212413580753 0 -0.0096036345872028556 -0.056703489467087059 0 0.0015263381015913891 -0.033415212413580753 0 0.007298405735321048 -0.051477207310420908 0 -0.0096036345872028556 -0.056703489467087059 0 0.0052181775422467033 -0.064346337314722044 0 -0.0096036345872028556 -0.056703489467087059 0 -0.0043762627118289626 -0.071729097412358583 0 0.0052181775422467033 -0.064346337314722044 0 -0.0043762627118289626 -0.071729097412358583 0 -0.0092607301227374331 -0.088572496961274561 0 -0.01646375475339092 -0.071057556949349329 0 -0.0096036345872028556 -0.056703489467087059 0 -0.01646375475339092 -0.071057556949349329 0 -0.0096036345872028556 -0.056703489467087059 0 -0.0043762627118289626 -0.071729097412358583 0 -0.01646375475339092 -0.071057556949349329 0 -0.0092607301227374331 -0.088572496961274561 0 -0.00044729776891663488 -0.1011528385718463 0 0.0042106568376920582 -0.081118225430045127 0 -0.0043762627118289626 -0.071729097412358583 0 -0.0092607301227374331 -0.088572496961274561 0 0.0042106568376920582 -0.081118225430045127 0 -0.0092607301227374331 -0.088572496961274561 0 -0.037642160748979789 -0.094071739377162955 0 -0.0092607301227374331 -0.088572496961274561 0 -0.023323874919582349 -0.085411624431610003 0 -0.01646375475339092 -0.071057556949349329 0 -0.0092607301227374331 -0.088572496961274561 0 -0.023323874919582349 -0.085411624431610003 0 -0.037642160748979789 -0.094071739377162955 0 -0.023323874919582349 -0.085411624431610003 0 -0.01646375475339092 -0.071057556949349329 0 -0.023323874919582349 -0.085411624431610003 0 -0.01646375475339092 -0.071057556949349329 0 -0.034846350139989962 -0.07108844977272101 0 -0.026902341230915561 -0.060374551747501753 0 -0.01646375475339092 -0.071057556949349329 0 -0.034846350139989962 -0.07108844977272101 0 -0.026902341230915561 -0.060374551747501753 0 -0.0096036345872028556 -0.056703489467087059 0 -0.01646375475339092 -0.071057556949349329 0 -0.041230103293456458 -0.058058117591144771 0 -0.026902341230915561 -0.060374551747501753 0 -0.034846350139989962 -0.07108844977272101 0 -0.041230103293456458 -0.058058117591144771 0 -0.034846350139989962 -0.07108844977272101 0 -0.049479852383656611 -0.067543566470139038 0 -0.034846350139989962 -0.07108844977272101 0 -0.048784805137481749 -0.081200653853927454 0 -0.049479852383656611 -0.067543566470139038 0 -0.023323874919582349 -0.085411624431610003 0 -0.034846350139989962 -0.07108844977272101 0 -0.036149297736508462 -0.082943116858855345 0 -0.023323874919582349 -0.085411624431610003 0 -0.036149297736508462 -0.082943116858855345 0 -0.037642160748979789 -0.094071739377162955 0 -0.036149297736508462 -0.082943116858855345 0 -0.048784805137481749 -0.081200653853927454 0 -0.037642160748979789 -0.094071739377162955 0 -0.034846350139989962 -0.07108844977272101 0 -0.036149297736508462 -0.082943116858855345 0 -0.048784805137481749 -0.081200653853927454 0 -0.063732237529271596 -0.080733089011810297 0 -0.066023591375222151 -0.09957098179305135 0 -0.048784805137481749 -0.081200653853927454 0 -0.066023591375222151 -0.09957098179305135 0 -0.048784805137481749 -0.081200653853927454 0 -0.037642160748979789 -0.094071739377162955 0 -0.063732237529271596 -0.080733089011810297 0 -0.048784805137481749 -0.081200653853927454 0 -0.058000192015007383 -0.073011667883306972 0 -0.055978059279945473 -0.056388284161067823 0 -0.060830035872249492 -0.064558057335980773 0 -0.049479852383656611 -0.067543566470139038 0 -0.058000192015007383 -0.073011667883306972 0 -0.060830035872249492 -0.064558057335980773 0 -0.049479852383656611 -0.067543566470139038 0 -0.067174029152377468 -0.071022972744677337 0 -0.058000192015007383 -0.073011667883306972 0 -0.060830035872249492 -0.064558057335980773 0 -0.048784805137481749 -0.081200653853927454 0 -0.058000192015007383 -0.073011667883306972 0 -0.049479852383656611 -0.067543566470139038 0 -0.069466171350113709 -0.1135628440840601 0 -0.054384952187449757 -0.110609208962567 0 -0.059238207921678762 -0.13024384051707169 0 -0.054384952187449757 -0.110609208962567 0 -0.059238207921678762 -0.13024384051707169 0 -0.032945469352336033 -0.1293562392835419 0 -0.066023591375222151 -0.09957098179305135 0 -0.054384952187449757 -0.110609208962567 0 -0.037642160748979789 -0.094071739377162955 0 -0.066023591375222151 -0.09957098179305135 0 -0.037642160748979789 -0.094071739377162955 0 -0.054384952187449757 -0.110609208962567 0 -0.037642160748979789 -0.094071739377162955 0 -0.035661083064217503 -0.11124856921529409 0 -0.054384952187449757 -0.110609208962567 0 -0.032945469352336033 -0.1293562392835419 0 -0.054384952187449757 -0.110609208962567 0 -0.035661083064217503 -0.11124856921529409 0 -0.032945469352336033 -0.1293562392835419 0 -0.01767174996810443 -0.1109570892379047 0 -0.012892303975098539 -0.12786221844410239 0 -0.032945469352336033 -0.1293562392835419 0 -0.035661083064217503 -0.11124856921529409 0 -0.01767174996810443 -0.1109570892379047 0 -0.032945469352336033 -0.1293562392835419 0 -0.0092607301227374331 -0.088572496961274561 0 -0.037642160748979789 -0.094071739377162955 0 -0.01767174996810443 -0.1109570892379047 0 -0.037642160748979789 -0.094071739377162955 0 -0.035661083064217503 -0.11124856921529409 0 -0.01767174996810443 -0.1109570892379047 0 -0.01767174996810443 -0.1109570892379047 0 -0.00044729776891663488 -0.1011528385718463 0 0.005085065621477718 -0.1151057880332567 0 -0.0092607301227374331 -0.088572496961274561 0 -0.01767174996810443 -0.1109570892379047 0 -0.00044729776891663488 -0.1011528385718463 0 -0.01767174996810443 -0.1109570892379047 0 -0.012892303975098539 -0.12786221844410239 0 0.005085065621477718 -0.1151057880332567 0 -0.012892303975098539 -0.12786221844410239 0 0.0027021066240326768 -0.1317064378292063 0 0.005085065621477718 -0.1151057880332567 0 -0.011505986517222349 -0.14810326960451681 0 -0.033736789854580403 -0.16402697950055581 0 -0.032945469352336033 -0.1293562392835419 0 -0.012892303975098539 -0.12786221844410239 0 -0.011505986517222349 -0.14810326960451681 0 0.0027021066240326768 -0.1317064378292063 0 -0.011505986517222349 -0.14810326960451681 0 -0.032945469352336033 -0.1293562392835419 0 -0.012892303975098539 -0.12786221844410239 0 -0.011505986517222349 -0.14810326960451681 0 -0.032945469352336033 -0.1293562392835419 0 -0.011505986517222349 -0.14810326960451681 0 0.009933496317892726 -0.16685029992549011 0 -0.011505986517222349 -0.14810326960451681 0 -0.0085976242789068957 -0.177408956520272 0 0.009933496317892726 -0.16685029992549011 0 -0.0085976242789068957 -0.177408956520272 0 -0.003739977245034012 -0.19168309442994089 0 -0.02712874487570623 -0.18796761311505439 0 -0.0085976242789068957 -0.177408956520272 0 -0.003739977245034012 -0.19168309442994089 0 0.0034571977838801569 -0.17702496179755631 0 -0.0085976242789068957 -0.177408956520272 0 -0.02712874487570623 -0.18796761311505439 0 -0.0085976242789068957 -0.177408956520272 0 -0.033736789854580403 -0.16402697950055581 0 -0.02712874487570623 -0.18796761311505439 0 -0.011505986517222349 -0.14810326960451681 0 -0.0085976242789068957 -0.177408956520272 0 -0.033736789854580403 -0.16402697950055581 0 -0.033736789854580403 -0.16402697950055581 0 -0.041678182321736049 -0.18065303021324261 0 -0.02712874487570623 -0.18796761311505439 0 -0.033736789854580403 -0.16402697950055581 0 -0.041678182321736049 -0.18065303021324261 0 -0.060187329084152079 -0.17209125852752319 0 -0.041678182321736049 -0.18065303021324261 0 -0.060187329084152079 -0.17209125852752319 0 -0.045659865472505487 -0.198526269709837 0 -0.060187329084152079 -0.17209125852752319 0 -0.045659865472505487 -0.198526269709837 0 -0.033736789854580403 -0.16402697950055581 0 -0.060187329084152079 -0.17209125852752319 0 -0.051699405537506939 -0.14899167338562519 0 -0.060187329084152079 -0.17209125852752319 0 -0.051699405537506939 -0.14899167338562519 0 -0.072389231474787458 -0.1492400490994332 0 -0.051699405537506939 -0.14899167338562519 0 -0.059238207921678762 -0.13024384051707169 0 -0.072389231474787458 -0.1492400490994332 0 -0.033736789854580403 -0.16402697950055581 0 -0.051699405537506939 -0.14899167338562519 0 -0.032945469352336033 -0.1293562392835419 0 -0.051699405537506939 -0.14899167338562519 0 -0.059238207921678762 -0.13024384051707169 0 -0.032945469352336033 -0.1293562392835419 0 -0.025857267464119819 -0.25506418495113531 0 -0.02368513365757598 -0.23851275990414511 0 -0.036167443228362108 -0.24337299090061551 0 -0.01269776775011346 -0.25850600500130039 0 -0.02368513365757598 -0.23851275990414511 0 -0.01269776775011346 -0.25850600500130039 0 -0.02368513365757598 -0.23851275990414511 0 -0.01082738352359053 -0.24876902592697839 0 -0.02368513365757598 -0.23851275990414511 0 -0.0067432183097289999 -0.239968376336817 0 -0.0090267388034834407 -0.23007068799598671 0 -0.02368513365757598 -0.23851275990414511 0 -0.01082738352359053 -0.24876902592697839 0 -0.0067432183097289999 -0.239968376336817 0 -0.01082738352359053 -0.24876902592697839 0 -0.0029313858115674811 -0.24854412401401971 0 -0.0067432183097289999 -0.239968376336817 0 -0.0029313858115674811 -0.24854412401401971 0 -0.0067432183097289999 -0.239968376336817 0 0.0026199421412959989 -0.2430643023623929 0 -0.0067432183097289999 -0.239968376336817 0 0.0026199421412959989 -0.2430643023623929 0 0.0017465435191736189 -0.23378549097037141 0 -0.0067432183097289999 -0.239968376336817 0 -0.0090267388034834407 -0.23007068799598671 0 0.0017465435191736189 -0.23378549097037141 0 -0.0090267388034834407 -0.23007068799598671 0 -0.00080535468136348092 -0.21995366459000901 0 -0.01839049427805331 -0.2195873775130934 0 -0.0090267388034834407 -0.23007068799598671 0 -0.00080535468136348092 -0.21995366459000901 0 0.0017465435191736189 -0.23378549097037141 0 -0.02368513365757598 -0.23851275990414511 0 -0.0090267388034834407 -0.23007068799598671 0 -0.01839049427805331 -0.2195873775130934 0 -0.02368513365757598 -0.23851275990414511 0 -0.01839049427805331 -0.2195873775130934 0 -0.034672499565036527 -0.2185195148069887 0 -0.02368513365757598 -0.23851275990414511 0 -0.034672499565036527 -0.2185195148069887 0 -0.01839049427805331 -0.2195873775130934 0 -0.027127261386640289 -0.20489204062456881 0 -0.034672499565036527 -0.2185195148069887 0 -0.01839049427805331 -0.2195873775130934 0 -0.027127261386640289 -0.20489204062456881 0 -0.01084996336714465 -0.20584666152463099 0 -0.00080535468136348092 -0.21995366459000901 0 -0.01839049427805331 -0.2195873775130934 0 -0.01084996336714465 -0.20584666152463099 0 -0.00080535468136348092 -0.21995366459000901 0 -0.01084996336714465 -0.20584666152463099 0 0.01016515501406726 -0.20926501301563591 0 -0.01084996336714465 -0.20584666152463099 0 -0.003739977245034012 -0.19168309442994089 0 0.01016515501406726 -0.20926501301563591 0 -0.01084996336714465 -0.20584666152463099 0 -0.003739977245034012 -0.19168309442994089 0 -0.02712874487570623 -0.18796761311505439 0 -0.027127261386640289 -0.20489204062456881 0 -0.01084996336714465 -0.20584666152463099 0 -0.02712874487570623 -0.18796761311505439 0 -0.041678182321736049 -0.18065303021324261 0 -0.02712874487570623 -0.18796761311505439 0 -0.045659865472505487 -0.198526269709837 0 -0.02712874487570623 -0.18796761311505439 0 -0.045659865472505487 -0.198526269709837 0 -0.027127261386640289 -0.20489204062456881 0 -0.02712874487570623 -0.18796761311505439 0 -0.045659865472505487 -0.198526269709837 0 -0.045659865472505487 -0.198526269709837 0 -0.067682806497079445 -0.21107449474949169 0 -0.062708331551170268 -0.19442045911658551 0 -0.060187329084152079 -0.17209125852752319 0 -0.045659865472505487 -0.198526269709837 0 -0.062708331551170268 -0.19442045911658551 0 -0.045659865472505487 -0.198526269709837 0 -0.067682806497079445 -0.21107449474949169 0 -0.045659865472505487 -0.198526269709837 0 -0.054546183461555722 -0.22015285450131489 0 -0.067682806497079445 -0.21107449474949169 0 -0.045659865472505487 -0.198526269709837 0 -0.034672499565036527 -0.2185195148069887 0 -0.054546183461555722 -0.22015285450131489 0 -0.045659865472505487 -0.198526269709837 0 -0.034672499565036527 -0.2185195148069887 0 -0.027127261386640289 -0.20489204062456881 0 -0.045659865472505487 -0.198526269709837 0 -0.034672499565036527 -0.2185195148069887 0 -0.034672499565036527 -0.2185195148069887 0 -0.044145410485190079 -0.23242073182379891 0 -0.054546183461555722 -0.22015285450131489 0 -0.02368513365757598 -0.23851275990414511 0 -0.034672499565036527 -0.2185195148069887 0 -0.044145410485190079 -0.23242073182379891 0 -0.044145410485190079 -0.23242073182379891 0 -0.054546183461555722 -0.22015285450131489 0 -0.061280333386656921 -0.23284462843810469 0 -0.061280333386656921 -0.23284462843810469 0 -0.050191684441297867 -0.2485850187836515 0 -0.071591358857016049 -0.2429226102204386 0 -0.050191684441297867 -0.2485850187836515 0 -0.071591358857016049 -0.2429226102204386 0 -0.056939497423126581 -0.24878681181634871 0 -0.050191684441297867 -0.2485850187836515 0 -0.071591358857016049 -0.2429226102204386 0 -0.044145410485190079 -0.23242073182379891 0 -0.061280333386656921 -0.23284462843810469 0 -0.050191684441297867 -0.2485850187836515 0 -0.041398382443623198 -0.25192549838374201 0 -0.056939497423126581 -0.24878681181634871 0 -0.050191684441297867 -0.2485850187836515 0 -0.044145410485190079 -0.23242073182379891 0 -0.050191684441297867 -0.2485850187836515 0 -0.036167443228362108 -0.24337299090061551 0 -0.02368513365757598 -0.23851275990414511 0 -0.044145410485190079 -0.23242073182379891 0 -0.036167443228362108 -0.24337299090061551 0 -0.025857267464119819 -0.25506418495113531 0 -0.050191684441297867 -0.2485850187836515 0 -0.036167443228362108 -0.24337299090061551 0 -0.097628444613881649 -0.25834262822693399 0 -0.087470553331264578 -0.24262075389877999 0 -0.077955776651182085 -0.24454236002529731 0 -0.087470553331264578 -0.24262075389877999 0 -0.087928467376508473 -0.23859976953689591 0 -0.1005617376665941 -0.23997685579502359 0 -0.087928467376508473 -0.23859976953689591 0 -0.07453604668454375 -0.2421434382925548 0 -0.07383618536286593 -0.22753148747966839 0 -0.087928467376508473 -0.23859976953689591 0 -0.07453604668454375 -0.2421434382925548 0 -0.087928467376508473 -0.23859976953689591 0 -0.077955776651182085 -0.24454236002529731 0 -0.07453604668454375 -0.2421434382925548 0 -0.087470553331264578 -0.24262075389877999 0 -0.087928467376508473 -0.23859976953689591 0 -0.077955776651182085 -0.24454236002529731 0 -0.087470553331264578 -0.24262075389877999 0 -0.077955776651182085 -0.24454236002529731 0 -0.056939497423126581 -0.24878681181634871 0 -0.077955776651182085 -0.24454236002529731 0 -0.071591358857016049 -0.2429226102204386 0 -0.056939497423126581 -0.24878681181634871 0 -0.077955776651182085 -0.24454236002529731 0 -0.077955776651182085 -0.24454236002529731 0 -0.071591358857016049 -0.2429226102204386 0 -0.07453604668454375 -0.2421434382925548 0 -0.077955776651182085 -0.24454236002529731 0 -0.07453604668454375 -0.2421434382925548 0 -0.071591358857016049 -0.2429226102204386 0 -0.07453604668454375 -0.2421434382925548 0 -0.056939497423126581 -0.24878681181634871 0 -0.071591358857016049 -0.2429226102204386 0 -0.061280333386656921 -0.23284462843810469 0 -0.071591358857016049 -0.2429226102204386 0 -0.07453604668454375 -0.2421434382925548 0 -0.061280333386656921 -0.23284462843810469 0 -0.07453604668454375 -0.2421434382925548 0 -0.07383618536286593 -0.22753148747966839 0 -0.089705747521653334 -0.22362271978914661 0 -0.067682806497079445 -0.21107449474949169 0 -0.054546183461555722 -0.22015285450131489 0 -0.061280333386656921 -0.23284462843810469 0 -0.07383618536286593 -0.22753148747966839 0 -0.054546183461555722 -0.22015285450131489 0 -0.07383618536286593 -0.22753148747966839 0 -0.067682806497079445 -0.21107449474949169 0 -0.061280333386656921 -0.23284462843810469 0 -0.07453604668454375 -0.2421434382925548 0 -0.07383618536286593 -0.22753148747966839 0 -0.087928467376508473 -0.23859976953689591 0 -0.07383618536286593 -0.22753148747966839 0 -0.089705747521653334 -0.22362271978914661 0 -0.087928467376508473 -0.23859976953689591 0 -0.089705747521653334 -0.22362271978914661 0 -0.1005617376665941 -0.23997685579502359 0 -0.089705747521653334 -0.22362271978914661 0 -0.067682806497079445 -0.21107449474949169 0 -0.089705747521653334 -0.22362271978914661 0 -0.084027466008495671 -0.20735524824550181 0 -0.09921486728828334 -0.20109800384388701 0 -0.089705747521653334 -0.22362271978914661 0 -0.084027466008495671 -0.20735524824550181 0 -0.067682806497079445 -0.21107449474949169 0 -0.084027466008495671 -0.20735524824550181 0 -0.067682806497079445 -0.21107449474949169 0 -0.079506442726966622 -0.19362577459948219 0 -0.067682806497079445 -0.21107449474949169 0 -0.062708331551170268 -0.19442045911658551 0 -0.079506442726966622 -0.19362577459948219 0 -0.079506442726966622 -0.19362577459948219 0 -0.09921486728828334 -0.20109800384388701 0 -0.089369030920126963 -0.1732707743578942 0 -0.084027466008495671 -0.20735524824550181 0 -0.079506442726966622 -0.19362577459948219 0 -0.09921486728828334 -0.20109800384388701 0 -0.09921486728828334 -0.20109800384388701 0 -0.1156293974943295 -0.1822747327150937 0 -0.1210853022939376 -0.205467400633562 0 -0.1156293974943295 -0.1822747327150937 0 -0.13505851963374399 -0.18906788910329131 0 -0.09921486728828334 -0.20109800384388701 0 -0.1210853022939376 -0.205467400633562 0 -0.1156293974943295 -0.1822747327150937 0 -0.1210853022939376 -0.205467400633562 0 -0.10755849924533691 -0.2178899443088799 0 -0.11989889803527461 -0.22145143588075511 0 -0.1210853022939376 -0.205467400633562 0 -0.11989889803527461 -0.22145143588075511 0 -0.13086176299679239 -0.21746526838305219 0 -0.089705747521653334 -0.22362271978914661 0 -0.09921486728828334 -0.20109800384388701 0 -0.10755849924533691 -0.2178899443088799 0 -0.09921486728828334 -0.20109800384388701 0 -0.1210853022939376 -0.205467400633562 0 -0.10755849924533691 -0.2178899443088799 0 -0.089705747521653334 -0.22362271978914661 0 -0.11172868854622731 -0.23617094482880149 0 -0.1005617376665941 -0.23997685579502359 0 -0.089705747521653334 -0.22362271978914661 0 -0.11172868854622731 -0.23617094482880149 0 -0.089705747521653334 -0.22362271978914661 0 -0.10755849924533691 -0.2178899443088799 0 -0.11172868854622731 -0.23617094482880149 0 -0.11989889803527461 -0.22145143588075511 0 -0.11172868854622731 -0.23617094482880149 0 -0.127825895831608 -0.22987551408160201 0 -0.10755849924533691 -0.2178899443088799 0 -0.11989889803527461 -0.22145143588075511 0 -0.11172868854622731 -0.23617094482880149 0 -0.13218950310710981 -0.25272660122947088 0 -0.1218823470606431 -0.24640061544388489 0 -0.1098930818979398 -0.24798588601512411 0 -0.11172868854622731 -0.23617094482880149 0 -0.13375162957080131 -0.24871916986845621 0 -0.11172868854622731 -0.23617094482880149 0 -0.1218823470606431 -0.24640061544388489 0 -0.13375162957080131 -0.24871916986845621 0 -0.11172868854622731 -0.23617094482880149 0 -0.13375162957080131 -0.24871916986845621 0 -0.127825895831608 -0.22987551408160201 0 -0.11172868854622731 -0.23617094482880149 0 -0.1218823470606431 -0.24640061544388489 0 -0.1098930818979398 -0.24798588601512411 0 -0.097628444613881649 -0.25834262822693399 0 -0.087470553331264578 -0.24262075389877999 0 -0.1098930818979398 -0.24798588601512411 0 -0.087470553331264578 -0.24262075389877999 0 -0.1098930818979398 -0.24798588601512411 0 -0.1005617376665941 -0.23997685579502359 0 -0.087470553331264578 -0.24262075389877999 0 -0.1098930818979398 -0.24798588601512411 0 -0.11172868854622731 -0.23617094482880149 0 -0.1098930818979398 -0.24798588601512411 0 -0.1005617376665941 -0.23997685579502359 0 -0.087470553331264578 -0.24262075389877999 0 -0.1005617376665941 -0.23997685579502359 0 -0.072389231474787458 -0.1492400490994332 0 -0.089369030920126963 -0.1732707743578942 0 -0.096011965921864201 -0.14265464397282879 0 -0.077516787342341589 -0.1242022911324857 0 -0.093262550211769629 -0.1231040070079162 0 -0.096011965921864201 -0.14265464397282879 0 -0.077516787342341589 -0.1242022911324857 0 -0.072389231474787458 -0.1492400490994332 0 -0.096011965921864201 -0.14265464397282879 0 -0.077516787342341589 -0.1242022911324857 0 -0.059238207921678762 -0.13024384051707169 0 -0.072389231474787458 -0.1492400490994332 0 -0.060187329084152079 -0.17209125852752319 0 -0.072389231474787458 -0.1492400490994332 0 -0.089369030920126963 -0.1732707743578942 0 -0.060187329084152079 -0.17209125852752319 0 -0.079506442726966622 -0.19362577459948219 0 -0.089369030920126963 -0.1732707743578942 0 -0.060187329084152079 -0.17209125852752319 0 -0.062708331551170268 -0.19442045911658551 0 -0.079506442726966622 -0.19362577459948219 0 -0.089369030920126963 -0.1732707743578942 0 -0.1107512355661594 -0.16096683979900789 0 -0.096011965921864201 -0.14265464397282879 0 -0.09921486728828334 -0.20109800384388701 0 -0.089369030920126963 -0.1732707743578942 0 -0.1156293974943295 -0.1822747327150937 0 -0.089369030920126963 -0.1732707743578942 0 -0.1156293974943295 -0.1822747327150937 0 -0.1107512355661594 -0.16096683979900789 0 -0.1156293974943295 -0.1822747327150937 0 -0.13204392770037571 -0.1634514615863005 0 -0.1156293974943295 -0.1822747327150937 0 -0.1107512355661594 -0.16096683979900789 0 -0.13204392770037571 -0.1634514615863005 0 -0.1107512355661594 -0.16096683979900789 0 -0.12070185579410091 -0.1431825863629223 0 -0.13204392770037571 -0.1634514615863005 0 -0.1107512355661594 -0.16096683979900789 0 -0.12070185579410091 -0.1431825863629223 0 -0.096011965921864201 -0.14265464397282879 0 -0.1071147179002416 -0.1244919901550422 0 -0.12070185579410091 -0.1431825863629223 0 -0.096011965921864201 -0.14265464397282879 0 -0.093262550211769629 -0.1231040070079162 0 -0.1071147179002416 -0.1244919901550422 0 -0.096011965921864201 -0.14265464397282879 0 -0.1071147179002416 -0.1244919901550422 0 -0.12070185579410091 -0.1431825863629223 0 -0.1306137014228527 -0.1212095633787966 0 -0.12070185579410091 -0.1431825863629223 0 -0.14845845790642179 -0.14462819045750719 0 -0.1306137014228527 -0.1212095633787966 0 -0.14845845790642179 -0.14462819045750719 0 -0.1306137014228527 -0.1212095633787966 0 -0.15036797716661271 -0.14243845987679379 0 -0.14845845790642179 -0.14462819045750719 0 -0.1306137014228527 -0.1212095633787966 0 -0.15406265534163929 -0.1294064941378926 0 -0.15036797716661271 -0.14243845987679379 0 -0.1306137014228527 -0.1212095633787966 0 -0.15406265534163929 -0.1294064941378926 0 -0.15036797716661271 -0.14243845987679379 0 -0.1564494690737798 -0.13971242061594299 0 -0.1543278084257422 -0.1453912472931165 0 -0.14845845790642179 -0.14462819045750719 0 -0.15894149653025619 -0.15184230729274609 0 -0.15519343748037609 -0.14309809199123349 0 -0.15036797716661271 -0.14243845987679379 0 -0.1564494690737798 -0.13971242061594299 0 -0.1543278084257422 -0.1453912472931165 0 -0.15519343748037609 -0.14309809199123349 0 -0.15036797716661271 -0.14243845987679379 0 -0.1543278084257422 -0.1453912472931165 0 -0.15036797716661271 -0.14243845987679379 0 -0.14845845790642179 -0.14462819045750719 0 -0.15036797716661271 -0.14243845987679379 0 -0.14845845790642179 -0.14462819045750719 0 -0.12070185579410091 -0.1431825863629223 0 -0.14845845790642179 -0.14462819045750719 0 -0.13204392770037571 -0.1634514615863005 0 -0.14845845790642179 -0.14462819045750719 0 -0.13204392770037571 -0.1634514615863005 0 -0.13204392770037571 -0.1634514615863005 0 -0.1475860696211248 -0.17640031700015249 0 -0.13505851963374399 -0.18906788910329131 0 -0.1156293974943295 -0.1822747327150937 0 -0.13204392770037571 -0.1634514615863005 0 -0.13505851963374399 -0.18906788910329131 0 -0.1475860696211248 -0.17640031700015249 0 -0.1655722477793394 -0.1670875310098065 0 -0.15496537504316019 -0.19429807729602311 0 -0.1475860696211248 -0.17640031700015249 0 -0.13505851963374399 -0.18906788910329131 0 -0.15496537504316019 -0.19429807729602311 0 -0.1475860696211248 -0.17640031700015249 0 -0.14862352044039201 -0.16347018067920821 0 -0.1655722477793394 -0.1670875310098065 0 -0.14845845790642179 -0.14462819045750719 0 -0.13204392770037571 -0.1634514615863005 0 -0.14862352044039201 -0.16347018067920821 0 -0.14845845790642179 -0.14462819045750719 0 -0.14862352044039201 -0.16347018067920821 0 -0.1655722477793394 -0.1670875310098065 0 -0.13204392770037571 -0.1634514615863005 0 -0.1475860696211248 -0.17640031700015249 0 -0.14862352044039201 -0.16347018067920821 0 -0.1655722477793394 -0.1670875310098065 0 -0.1716614177265566 -0.15146656102038991 0 -0.1655722477793394 -0.1670875310098065 0 -0.15894149653025619 -0.15184230729274609 0 -0.1716614177265566 -0.15146656102038991 0 -0.1655722477793394 -0.1670875310098065 0 -0.17557921295501691 -0.18022020591375351 0 -0.1689483943248192 -0.19264195369377959 0 -0.1655722477793394 -0.1670875310098065 0 -0.15496537504316019 -0.19429807729602311 0 -0.1689483943248192 -0.19264195369377959 0 -0.1655722477793394 -0.1670875310098065 0 -0.15496537504316019 -0.19429807729602311 0 -0.1655722477793394 -0.1670875310098065 0 -0.17557921295501691 -0.18022020591375351 0 -0.17557921295501691 -0.18022020591375351 0 -0.18239484980351819 -0.16464781923938721 0 -0.1907059301477185 -0.18468107337543721 0 -0.1655722477793394 -0.1670875310098065 0 -0.17557921295501691 -0.18022020591375351 0 -0.18239484980351819 -0.16464781923938721 0 -0.1655722477793394 -0.1670875310098065 0 -0.18239484980351819 -0.16464781923938721 0 -0.1716614177265566 -0.15146656102038991 0 -0.18239484980351819 -0.16464781923938721 0 -0.1716614177265566 -0.15146656102038991 0 -0.1894311146879058 -0.1465309504005988 0 -0.17775058767377289 -0.13584559103097291 0 -0.1716614177265566 -0.15146656102038991 0 -0.1894311146879058 -0.1465309504005988 0 -0.17775058767377289 -0.13584559103097291 0 -0.1716614177265566 -0.15146656102038991 0 -0.17775058767377289 -0.13584559103097291 0 -0.1894311146879058 -0.1465309504005988 0 -0.17775058767377289 -0.13584559103097291 0 -0.19823449762692411 -0.13229999761030051 0 -0.18534812722118199 -0.1163550958908785 0 -0.17775058767377289 -0.13584559103097291 0 -0.18534812722118199 -0.1163550958908785 0 -0.15406265534163929 -0.1294064941378926 0 -0.16394560233522651 -0.1386698702264933 0 -0.15606779039194271 -0.1160101434681408 0 -0.17775058767377289 -0.13584559103097291 0 -0.16394560233522651 -0.1386698702264933 0 -0.15606779039194271 -0.1160101434681408 0 -0.17775058767377289 -0.13584559103097291 0 -0.15606779039194271 -0.1160101434681408 0 -0.15406265534163929 -0.1294064941378926 0 -0.16394560233522651 -0.1386698702264933 0 -0.1564494690737798 -0.13971242061594299 0 -0.16394560233522651 -0.1386698702264933 0 -0.1564494690737798 -0.13971242061594299 0 -0.15962849525536979 -0.1448502401790808 0 -0.14845845790642179 -0.14462819045750719 0 -0.1655722477793394 -0.1670875310098065 0 -0.14845845790642179 -0.14462819045750719 0 -0.1655722477793394 -0.1670875310098065 0 -0.15894149653025619 -0.15184230729274609 0 -0.15519343748037609 -0.14309809199123349 0 -0.1564494690737798 -0.13971242061594299 0 -0.15962849525536979 -0.1448502401790808 0 -0.1543278084257422 -0.1453912472931165 0 -0.15519343748037609 -0.14309809199123349 0 -0.15962849525536979 -0.1448502401790808 0 -0.1543278084257422 -0.1453912472931165 0 -0.15962849525536979 -0.1448502401790808 0 -0.15894149653025619 -0.15184230729274609 0 -0.15962849525536979 -0.1448502401790808 0 -0.15894149653025619 -0.15184230729274609 0 -0.1716614177265566 -0.15146656102038991 0 -0.17775058767377289 -0.13584559103097291 0 -0.16394560233522651 -0.1386698702264933 0 -0.1716614177265566 -0.15146656102038991 0 -0.16394560233522651 -0.1386698702264933 0 -0.15962849525536979 -0.1448502401790808 0 -0.1716614177265566 -0.15146656102038991 0 -0.1534429259631987 -0.25724555178864622 0 -0.15289321433053751 -0.246830478479277 0 -0.1378886282313006 -0.2381062402767252 0 -0.1534429259631987 -0.25724555178864622 0 -0.1378886282313006 -0.2381062402767252 0 -0.15348527020851541 -0.23913552791147211 0 -0.1378886282313006 -0.2381062402767252 0 -0.15430752157141919 -0.22794821467022949 0 -0.15289321433053751 -0.246830478479277 0 -0.15348527020851541 -0.23913552791147211 0 -0.1601832428566283 -0.24550858739866141 0 -0.15289321433053751 -0.246830478479277 0 -0.15348527020851541 -0.23913552791147211 0 -0.1378886282313006 -0.2381062402767252 0 -0.1459019403517107 -0.25564217047089421 0 -0.13375162957080131 -0.24871916986845621 0 -0.1378886282313006 -0.2381062402767252 0 -0.13375162957080131 -0.24871916986845621 0 -0.1378886282313006 -0.2381062402767252 0 -0.127825895831608 -0.22987551408160201 0 -0.13375162957080131 -0.24871916986845621 0 -0.1378886282313006 -0.2381062402767252 0 -0.13218950310710981 -0.25272660122947088 0 -0.1218823470606431 -0.24640061544388489 0 -0.13375162957080131 -0.24871916986845621 0 -0.127825895831608 -0.22987551408160201 0 -0.14435850230698141 -0.22150862358223991 0 -0.13086176299679239 -0.21746526838305219 0 -0.1378886282313006 -0.2381062402767252 0 -0.127825895831608 -0.22987551408160201 0 -0.14435850230698141 -0.22150862358223991 0 -0.11989889803527461 -0.22145143588075511 0 -0.127825895831608 -0.22987551408160201 0 -0.13086176299679239 -0.21746526838305219 0 -0.1378886282313006 -0.2381062402767252 0 -0.14435850230698141 -0.22150862358223991 0 -0.14435850230698141 -0.22150862358223991 0 -0.15430752157141919 -0.22794821467022949 0 -0.16410544360365359 -0.21493654602220469 0 -0.1378886282313006 -0.2381062402767252 0 -0.14435850230698141 -0.22150862358223991 0 -0.15430752157141919 -0.22794821467022949 0 -0.14435850230698141 -0.22150862358223991 0 -0.15496537504316019 -0.19429807729602311 0 -0.14435850230698141 -0.22150862358223991 0 -0.1373527607074172 -0.20563907323320921 0 -0.15496537504316019 -0.19429807729602311 0 -0.14435850230698141 -0.22150862358223991 0 -0.15496537504316019 -0.19429807729602311 0 -0.16410544360365359 -0.21493654602220469 0 -0.14435850230698141 -0.22150862358223991 0 -0.1373527607074172 -0.20563907323320921 0 -0.13086176299679239 -0.21746526838305219 0 -0.1210853022939376 -0.205467400633562 0 -0.1373527607074172 -0.20563907323320921 0 -0.13086176299679239 -0.21746526838305219 0 -0.1210853022939376 -0.205467400633562 0 -0.1373527607074172 -0.20563907323320921 0 -0.13505851963374399 -0.18906788910329131 0 -0.1373527607074172 -0.20563907323320921 0 -0.13505851963374399 -0.18906788910329131 0 -0.15496537504316019 -0.19429807729602311 0 -0.1689483943248192 -0.19264195369377959 0 -0.17994482166635981 -0.2014366202218163 0 -0.16410544360365359 -0.21493654602220469 0 -0.15496537504316019 -0.19429807729602311 0 -0.1689483943248192 -0.19264195369377959 0 -0.16410544360365359 -0.21493654602220469 0 -0.17557921295501691 -0.18022020591375351 0 -0.1689483943248192 -0.19264195369377959 0 -0.17994482166635981 -0.2014366202218163 0 -0.17557921295501691 -0.18022020591375351 0 -0.17994482166635981 -0.2014366202218163 0 -0.1907059301477185 -0.18468107337543721 0 -0.17994482166635981 -0.2014366202218163 0 -0.1784102433228649 -0.21681777692650089 0 -0.16410544360365359 -0.21493654602220469 0 -0.17994482166635981 -0.2014366202218163 0 -0.18904495760185211 -0.20873870471059999 0 -0.19252771524915421 -0.19930647688205899 0 -0.17994482166635981 -0.2014366202218163 0 -0.1784102433228649 -0.21681777692650089 0 -0.18904495760185211 -0.20873870471059999 0 -0.1784102433228649 -0.21681777692650089 0 -0.19175951728552271 -0.21959172261586679 0 -0.18904495760185211 -0.20873870471059999 0 -0.15430752157141919 -0.22794821467022949 0 -0.16410544360365359 -0.21493654602220469 0 -0.16877954452522659 -0.2255120540677526 0 -0.15430752157141919 -0.22794821467022949 0 -0.16877954452522659 -0.2255120540677526 0 -0.16324537569009509 -0.2357306359809743 0 -0.15348527020851541 -0.23913552791147211 0 -0.15430752157141919 -0.22794821467022949 0 -0.16324537569009509 -0.2357306359809743 0 -0.16877954452522659 -0.2255120540677526 0 -0.17781387366555559 -0.23090770197000129 0 -0.16324537569009509 -0.2357306359809743 0 -0.1784102433228649 -0.21681777692650089 0 -0.16410544360365359 -0.21493654602220469 0 -0.16877954452522659 -0.2255120540677526 0 -0.1784102433228649 -0.21681777692650089 0 -0.16877954452522659 -0.2255120540677526 0 -0.17781387366555559 -0.23090770197000129 0 -0.1784102433228649 -0.21681777692650089 0 -0.17781387366555559 -0.23090770197000129 0 -0.19175951728552271 -0.21959172261586679 0 -0.17781387366555559 -0.23090770197000129 0 -0.1805311654956796 -0.2411950136452527 0 -0.19410287643929239 -0.23312434657521411 0 -0.17781387366555559 -0.23090770197000129 0 -0.1805311654956796 -0.2411950136452527 0 -0.16955513552828311 -0.24305067226283769 0 -0.17679077873490559 -0.25046109420941731 0 -0.1805311654956796 -0.2411950136452527 0 -0.18863044441395099 -0.24733650333174401 0 -0.17679077873490559 -0.25046109420941731 0 -0.1805311654956796 -0.2411950136452527 0 -0.16955513552828311 -0.24305067226283769 0 -0.16709258238786229 -0.25188408856254202 0 -0.17679077873490559 -0.25046109420941731 0 -0.16955513552828311 -0.24305067226283769 0 -0.16709258238786229 -0.25188408856254202 0 -0.16955513552828311 -0.24305067226283769 0 -0.1601832428566283 -0.24550858739866141 0 -0.17781387366555559 -0.23090770197000129 0 -0.16955513552828311 -0.24305067226283769 0 -0.16324537569009509 -0.2357306359809743 0 -0.16955513552828311 -0.24305067226283769 0 -0.16324537569009509 -0.2357306359809743 0 -0.1601832428566283 -0.24550858739866141 0 -0.15348527020851541 -0.23913552791147211 0 -0.16324537569009509 -0.2357306359809743 0 -0.1601832428566283 -0.24550858739866141 0 -0.1593809120407062 -0.25278805690175971 0 -0.15289321433053751 -0.246830478479277 0 -0.1601832428566283 -0.24550858739866141 0 -0.20565562739327201 -0.24334207984173631 0 -0.19410287643929239 -0.23312434657521411 0 -0.21201774175915139 -0.2290986139018284 0 -0.21472073189145299 -0.25725591714607071 0 -0.20565562739327201 -0.24334207984173631 0 -0.22837296648480071 -0.23789375384220129 0 -0.20565562739327201 -0.24334207984173631 0 -0.21201774175915139 -0.2290986139018284 0 -0.22837296648480071 -0.23789375384220129 0 -0.20565562739327201 -0.24334207984173631 0 -0.18863044441395099 -0.24733650333174401 0 -0.19410287643929239 -0.23312434657521411 0 -0.1805311654956796 -0.2411950136452527 0 -0.18863044441395099 -0.24733650333174401 0 -0.19410287643929239 -0.23312434657521411 0 -0.17781387366555559 -0.23090770197000129 0 -0.19410287643929239 -0.23312434657521411 0 -0.19175951728552271 -0.21959172261586679 0 -0.19410287643929239 -0.23312434657521411 0 -0.19175951728552271 -0.21959172261586679 0 -0.20443040571370949 -0.21985141578154491 0 -0.21201774175915139 -0.2290986139018284 0 -0.20443040571370949 -0.21985141578154491 0 -0.22630383013383959 -0.21240708539258099 0 -0.19410287643929239 -0.23312434657521411 0 -0.21201774175915139 -0.2290986139018284 0 -0.20443040571370949 -0.21985141578154491 0 -0.20157622681128409 -0.2075672839719423 0 -0.21557055542943429 -0.1904257004922347 0 -0.22630383013383959 -0.21240708539258099 0 -0.20157622681128409 -0.2075672839719423 0 -0.22630383013383959 -0.21240708539258099 0 -0.20443040571370949 -0.21985141578154491 0 -0.20157622681128409 -0.2075672839719423 0 -0.22630383013383959 -0.21240708539258099 0 -0.19175951728552271 -0.21959172261586679 0 -0.20443040571370949 -0.21985141578154491 0 -0.20157622681128409 -0.2075672839719423 0 -0.19175951728552271 -0.21959172261586679 0 -0.20157622681128409 -0.2075672839719423 0 -0.19175951728552271 -0.21959172261586679 0 -0.18904495760185211 -0.20873870471059999 0 -0.20157622681128409 -0.2075672839719423 0 -0.18904495760185211 -0.20873870471059999 0 -0.20157622681128409 -0.2075672839719423 0 -0.19252771524915421 -0.19930647688205899 0 -0.17994482166635981 -0.2014366202218163 0 -0.19252771524915421 -0.19930647688205899 0 -0.1907059301477185 -0.18468107337543721 0 -0.20157622681128409 -0.2075672839719423 0 -0.19252771524915421 -0.19930647688205899 0 -0.20187756758401409 -0.19506767240709361 0 -0.19252771524915421 -0.19930647688205899 0 -0.20187756758401409 -0.19506767240709361 0 -0.1907059301477185 -0.18468107337543721 0 -0.20157622681128409 -0.2075672839719423 0 -0.21557055542943429 -0.1904257004922347 0 -0.20187756758401409 -0.19506767240709361 0 -0.21557055542943429 -0.1904257004922347 0 -0.2038146335316797 -0.1820121315948606 0 -0.20157622681128409 -0.2075672839719423 0 -0.20187756758401409 -0.19506767240709361 0 -0.21557055542943429 -0.1904257004922347 0 -0.21557055542943429 -0.1904257004922347 0 -0.23533053747689989 -0.1962925907305976 0 -0.22630383013383959 -0.21240708539258099 0 -0.23533053747689989 -0.1962925907305976 0 -0.25103143345639523 -0.21724688681321891 0 -0.25418198431724581 -0.18809916394242601 0 -0.22630383013383959 -0.21240708539258099 0 -0.25103143345639523 -0.21724688681321891 0 -0.23533053747689989 -0.1962925907305976 0 -0.22630383013383959 -0.21240708539258099 0 -0.25103143345639523 -0.21724688681321891 0 -0.21201774175915139 -0.2290986139018284 0 -0.22630383013383959 -0.21240708539258099 0 -0.22837296648480071 -0.23789375384220129 0 -0.22630383013383959 -0.21240708539258099 0 -0.22837296648480071 -0.23789375384220129 0 -0.25103143345639523 -0.21724688681321891 0 -0.22837296648480071 -0.23789375384220129 0 -0.25431856302814809 -0.24833495949118861 0 -0.25103143345639523 -0.21724688681321891 0 -0.2335542019388327 -0.26090262277066528 0 -0.22837296648480071 -0.23789375384220129 0 -0.25431856302814809 -0.24833495949118861 0 -0.20708483324238849 -0.15128624944667929 0 -0.22647357207813959 -0.15205360930679629 0 -0.2195633859389316 -0.1340578990397249 0 -0.20708483324238849 -0.15128624944667929 0 -0.19823449762692411 -0.13229999761030051 0 -0.2195633859389316 -0.1340578990397249 0 -0.19823449762692411 -0.13229999761030051 0 -0.2195633859389316 -0.1340578990397249 0 -0.21022893699736381 -0.1097241998529486 0 -0.17775058767377289 -0.13584559103097291 0 -0.19823449762692411 -0.13229999761030051 0 -0.1894311146879058 -0.1465309504005988 0 -0.20708483324238849 -0.15128624944667929 0 -0.1894311146879058 -0.1465309504005988 0 -0.19351686899232889 -0.15854259719770419 0 -0.20708483324238849 -0.15128624944667929 0 -0.19823449762692411 -0.13229999761030051 0 -0.1894311146879058 -0.1465309504005988 0 -0.20708483324238849 -0.15128624944667929 0 -0.19351686899232889 -0.15854259719770419 0 -0.19880271024428661 -0.17007658736909009 0 -0.18239484980351819 -0.16464781923938721 0 -0.1894311146879058 -0.1465309504005988 0 -0.19351686899232889 -0.15854259719770419 0 -0.18239484980351819 -0.16464781923938721 0 -0.19351686899232889 -0.15854259719770419 0 -0.19880271024428661 -0.17007658736909009 0 -0.18239484980351819 -0.16464781923938721 0 -0.19880271024428661 -0.17007658736909009 0 -0.1907059301477185 -0.18468107337543721 0 -0.19880271024428661 -0.17007658736909009 0 -0.1907059301477185 -0.18468107337543721 0 -0.2038146335316797 -0.1820121315948606 0 -0.20187756758401409 -0.19506767240709361 0 -0.1907059301477185 -0.18468107337543721 0 -0.2038146335316797 -0.1820121315948606 0 -0.21557055542943429 -0.1904257004922347 0 -0.2038146335316797 -0.1820121315948606 0 -0.21355186476225221 -0.16985639920369799 0 -0.19880271024428661 -0.17007658736909009 0 -0.2038146335316797 -0.1820121315948606 0 -0.21355186476225221 -0.16985639920369799 0 -0.20708483324238849 -0.15128624944667929 0 -0.21355186476225221 -0.16985639920369799 0 -0.22647357207813959 -0.15205360930679629 0 -0.20708483324238849 -0.15128624944667929 0 -0.19880271024428661 -0.17007658736909009 0 -0.21355186476225221 -0.16985639920369799 0 -0.22956488404758479 -0.1732841170125273 0 -0.2435592126657353 -0.1561425335328199 0 -0.22647357207813959 -0.15205360930679629 0 -0.21355186476225221 -0.16985639920369799 0 -0.22956488404758479 -0.1732841170125273 0 -0.22647357207813959 -0.15205360930679629 0 -0.21557055542943429 -0.1904257004922347 0 -0.21355186476225221 -0.16985639920369799 0 -0.22956488404758479 -0.1732841170125273 0 -0.21557055542943429 -0.1904257004922347 0 -0.22956488404758479 -0.1732841170125273 0 -0.21557055542943429 -0.1904257004922347 0 -0.23533053747689989 -0.1962925907305976 0 -0.22956488404758479 -0.1732841170125273 0 -0.23533053747689989 -0.1962925907305976 0 -0.22956488404758479 -0.1732841170125273 0 -0.25418198431724581 -0.18809916394242601 0 -0.22956488404758479 -0.1732841170125273 0 -0.25418198431724581 -0.18809916394242601 0 -0.2565438833259911 -0.1687602707777138 0 -0.22956488404758479 -0.1732841170125273 0 -0.2435592126657353 -0.1561425335328199 0 -0.22956488404758479 -0.1732841170125273 0 -0.2435592126657353 -0.1561425335328199 0 -0.2565438833259911 -0.1687602707777138 0 -0.2435592126657353 -0.1561425335328199 0 -0.22647357207813959 -0.15205360930679629 0 -0.2432602079730701 -0.13485583854350039 0 -0.22647357207813959 -0.15205360930679629 0 -0.2195633859389316 -0.1340578990397249 0 -0.2432602079730701 -0.13485583854350039 0 -0.2195633859389316 -0.1340578990397249 0 -0.2432602079730701 -0.13485583854350039 0 -0.23065476516460279 -0.11957242830579699 0 -0.2432602079730701 -0.13485583854350039 0 -0.2499653418643101 -0.1102460646797562 0 -0.23065476516460279 -0.11957242830579699 0 -0.2499653418643101 -0.1102460646797562 0 -0.2308399038819596 -0.1034577205422559 0 -0.23065476516460279 -0.11957242830579699 0 -0.2308399038819596 -0.1034577205422559 0 -0.25308440776240432 -0.086371671251396109 0 -0.2499653418643101 -0.1102460646797562 0 -0.2308399038819596 -0.1034577205422559 0 -0.25308440776240432 -0.086371671251396109 0 -0.2308399038819596 -0.1034577205422559 0 -0.21022893699736381 -0.1097241998529486 0 -0.21520721362926831 -0.098298511723915558 0 -0.2308399038819596 -0.1034577205422559 0 -0.22013457808717909 -0.089221868029860679 0 -0.21520721362926831 -0.098298511723915558 0 -0.2308399038819596 -0.1034577205422559 0 -0.23065476516460279 -0.11957242830579699 0 -0.21022893699736381 -0.1097241998529486 0 -0.2195633859389316 -0.1340578990397249 0 -0.23065476516460279 -0.11957242830579699 0 -0.21022893699736381 -0.1097241998529486 0 -0.2335598957907816 -0.079883889973887123 0 -0.24475965461883589 -0.059498385283178377 0 -0.2582325144520296 -0.070050845257802419 0 -0.2335598957907816 -0.079883889973887123 0 -0.2582325144520296 -0.070050845257802419 0 -0.25308440776240432 -0.086371671251396109 0 -0.2308399038819596 -0.1034577205422559 0 -0.2335598957907816 -0.079883889973887123 0 -0.25308440776240432 -0.086371671251396109 0 -0.2308399038819596 -0.1034577205422559 0 -0.22013457808717909 -0.089221868029860679 0 -0.2335598957907816 -0.079883889973887123 0 -0.22013457808717909 -0.089221868029860679 0 -0.2335598957907816 -0.079883889973887123 0 -0.21963876375789801 -0.077814354495200549 0 -0.2335598957907816 -0.079883889973887123 0 -0.21595644614104051 -0.065738508165203102 0 -0.24475965461883589 -0.059498385283178377 0 -0.21595644614104051 -0.065738508165203102 0 -0.24475965461883589 -0.059498385283178377 0 -0.2335598957907816 -0.079883889973887123 0 -0.21963876375789801 -0.077814354495200549 0 -0.21595644614104051 -0.065738508165203102 0 -0.20438945881064449 -0.068244458930106389 0 -0.21100771399754009 -0.086966924160961745 0 -0.21595644614104051 -0.065738508165203102 0 -0.21100771399754009 -0.086966924160961745 0 -0.20438945881064449 -0.068244458930106389 0 -0.21595644614104051 -0.065738508165203102 0 -0.21100771399754009 -0.086966924160961745 0 -0.21963876375789801 -0.077814354495200549 0 -0.21595644614104051 -0.065738508165203102 0 -0.21100771399754009 -0.086966924160961745 0 -0.20438945881064449 -0.068244458930106389 0 -0.21595644614104051 -0.065738508165203102 0 -0.20438945881064449 -0.068244458930106389 0 -0.21595644614104051 -0.065738508165203102 0 -0.20711132549122371 -0.057203435059411119 0 -0.20438945881064449 -0.068244458930106389 0 -0.21100771399754009 -0.086966924160961745 0 -0.19851231957361129 -0.085310821531315487 0 -0.22013457808717909 -0.089221868029860679 0 -0.21963876375789801 -0.077814354495200549 0 -0.21100771399754009 -0.086966924160961745 0 -0.22013457808717909 -0.089221868029860679 0 -0.21100771399754009 -0.086966924160961745 0 -0.21520721362926831 -0.098298511723915558 0 -0.21100771399754009 -0.086966924160961745 0 -0.19851231957361129 -0.085310821531315487 0 -0.20550431009004061 -0.095676697317907802 0 -0.21100771399754009 -0.086966924160961745 0 -0.21520721362926831 -0.098298511723915558 0 -0.20550431009004061 -0.095676697317907802 0 -0.19851231957361129 -0.085310821531315487 0 -0.18118326058104209 -0.08825419183970401 0 -0.18409944718507371 -0.07264022497537044 0 -0.19851231957361129 -0.085310821531315487 0 -0.19294566676858971 -0.096864600750783431 0 -0.18118326058104209 -0.08825419183970401 0 -0.19851231957361129 -0.085310821531315487 0 -0.20550431009004061 -0.095676697317907802 0 -0.19294566676858971 -0.096864600750783431 0 -0.20438945881064449 -0.068244458930106389 0 -0.19851231957361129 -0.085310821531315487 0 -0.18409944718507371 -0.07264022497537044 0 -0.20438945881064449 -0.068244458930106389 0 -0.18409944718507371 -0.07264022497537044 0 -0.18769526278089041 -0.057829612445021099 0 -0.20438945881064449 -0.068244458930106389 0 -0.18409944718507371 -0.07264022497537044 0 -0.21022893699736381 -0.1097241998529486 0 -0.21520721362926831 -0.098298511723915558 0 -0.20550431009004061 -0.095676697317907802 0 -0.21022893699736381 -0.1097241998529486 0 -0.20550431009004061 -0.095676697317907802 0 -0.19294566676858971 -0.096864600750783431 0 -0.19294566676858971 -0.096864600750783431 0 -0.18534812722118199 -0.1163550958908785 0 -0.21022893699736381 -0.1097241998529486 0 -0.19294566676858971 -0.096864600750783431 0 -0.18534812722118199 -0.1163550958908785 0 -0.19823449762692411 -0.13229999761030051 0 -0.21022893699736381 -0.1097241998529486 0 -0.18534812722118199 -0.1163550958908785 0 -0.18534812722118199 -0.1163550958908785 0 -0.17423934197139679 -0.1017815859784342 0 -0.15606779039194271 -0.1160101434681408 0 -0.17775058767377289 -0.13584559103097291 0 -0.18534812722118199 -0.1163550958908785 0 -0.15606779039194271 -0.1160101434681408 0 -0.16057304666404501 -0.10079887419961479 0 -0.17423934197139679 -0.1017815859784342 0 -0.15606779039194271 -0.1160101434681408 0 -0.16057304666404501 -0.10079887419961479 0 -0.16746185343044401 -0.091445336260546128 0 -0.1570966781871318 -0.090327755750333361 0 -0.16057304666404501 -0.10079887419961479 0 -0.17423934197139679 -0.1017815859784342 0 -0.16746185343044401 -0.091445336260546128 0 -0.17423934197139679 -0.1017815859784342 0 -0.18118326058104209 -0.08825419183970401 0 -0.16746185343044401 -0.091445336260546128 0 -0.19294566676858971 -0.096864600750783431 0 -0.18534812722118199 -0.1163550958908785 0 -0.17423934197139679 -0.1017815859784342 0 -0.19294566676858971 -0.096864600750783431 0 -0.17423934197139679 -0.1017815859784342 0 -0.18118326058104209 -0.08825419183970401 0 -0.18118326058104209 -0.08825419183970401 0 -0.18409944718507371 -0.07264022497537044 0 -0.16915717098214109 -0.081397787743409861 0 -0.18118326058104209 -0.08825419183970401 0 -0.16746185343044401 -0.091445336260546128 0 -0.16915717098214109 -0.081397787743409861 0 -0.18409944718507371 -0.07264022497537044 0 -0.1702117591297739 -0.06777753321031553 0 -0.16380943555950259 -0.077035991020633382 0 -0.18409944718507371 -0.07264022497537044 0 -0.16380943555950259 -0.077035991020633382 0 -0.16915717098214109 -0.081397787743409861 0 -0.18409944718507371 -0.07264022497537044 0 -0.17187825396406881 -0.057945450019426657 0 -0.18769526278089041 -0.057829612445021099 0 -0.18409944718507371 -0.07264022497537044 0 -0.16380943555950259 -0.077035991020633382 0 -0.18409944718507371 -0.07264022497537044 0 -0.1702117591297739 -0.06777753321031553 0 -0.17187825396406881 -0.057945450019426657 0 -0.16380943555950259 -0.077035991020633382 0 -0.16105989981045041 -0.063488466825831633 0 -0.14595160177326619 -0.062470528310013429 0 -0.1702117591297739 -0.06777753321031553 0 -0.16105989981045041 -0.063488466825831633 0 -0.17187825396406881 -0.057945450019426657 0 -0.1702117591297739 -0.06777753321031553 0 -0.16380943555950259 -0.077035991020633382 0 -0.16105989981045041 -0.063488466825831633 0 -0.16380943555950259 -0.077035991020633382 0 -0.16109871639751261 -0.084134952385501949 0 -0.14796844382834351 -0.080467891152587012 0 -0.16746185343044401 -0.091445336260546128 0 -0.16915717098214109 -0.081397787743409861 0 -0.16109871639751261 -0.084134952385501949 0 -0.16380943555950259 -0.077035991020633382 0 -0.16915717098214109 -0.081397787743409861 0 -0.16109871639751261 -0.084134952385501949 0 -0.16380943555950259 -0.077035991020633382 0 -0.16915717098214109 -0.081397787743409861 0 -0.16746185343044401 -0.091445336260546128 0 -0.16109871639751261 -0.084134952385501949 0 -0.1570966781871318 -0.090327755750333361 0 -0.16380943555950259 -0.077035991020633382 0 -0.14796844382834351 -0.080467891152587012 0 -0.14796844382834351 -0.080467891152587012 0 -0.13497135686491851 -0.078315161523928284 0 -0.1484932433812913 -0.094043062253026791 0 -0.1570966781871318 -0.090327755750333361 0 -0.14796844382834351 -0.080467891152587012 0 -0.1484932433812913 -0.094043062253026791 0 -0.16109871639751261 -0.084134952385501949 0 -0.1570966781871318 -0.090327755750333361 0 -0.14796844382834351 -0.080467891152587012 0 -0.16380943555950259 -0.077035991020633382 0 -0.14796844382834351 -0.080467891152587012 0 -0.14595160177326619 -0.062470528310013429 0 -0.16380943555950259 -0.077035991020633382 0 -0.14595160177326619 -0.062470528310013429 0 -0.14796844382834351 -0.080467891152587012 0 -0.13497135686491851 -0.078315161523928284 0 -0.14595160177326619 -0.062470528310013429 0 -0.1158705629695205 -0.060236298698018297 0 -0.13497135686491851 -0.078315161523928284 0 -0.1158705629695205 -0.060236298698018297 0 -0.13497135686491851 -0.078315161523928284 0 -0.13122182239868371 -0.062231763532838429 0 -0.13497135686491851 -0.078315161523928284 0 -0.13122182239868371 -0.062231763532838429 0 -0.14595160177326619 -0.062470528310013429 0 -0.112702195828283 -0.076339248342475546 0 -0.13497135686491851 -0.078315161523928284 0 -0.13438499311011279 -0.096174695905308166 0 -0.13497135686491851 -0.078315161523928284 0 -0.13438499311011279 -0.096174695905308166 0 -0.1484932433812913 -0.094043062253026791 0 -0.11276894493928399 -0.097790936300085646 0 -0.13438499311011279 -0.096174695905308166 0 -0.1306137014228527 -0.1212095633787966 0 -0.13438499311011279 -0.096174695905308166 0 -0.1306137014228527 -0.1212095633787966 0 -0.15606779039194271 -0.1160101434681408 0 -0.15406265534163929 -0.1294064941378926 0 -0.1306137014228527 -0.1212095633787966 0 -0.15606779039194271 -0.1160101434681408 0 -0.13438499311011279 -0.096174695905308166 0 -0.15606779039194271 -0.1160101434681408 0 -0.1484932433812913 -0.094043062253026791 0 -0.16057304666404501 -0.10079887419961479 0 -0.15606779039194271 -0.1160101434681408 0 -0.1484932433812913 -0.094043062253026791 0 -0.13438499311011279 -0.096174695905308166 0 -0.15606779039194271 -0.1160101434681408 0 -0.16057304666404501 -0.10079887419961479 0 -0.1570966781871318 -0.090327755750333361 0 -0.1484932433812913 -0.094043062253026791 0 -0.14513665439653431 -0.02122229521611602 0 -0.15148395360685291 -0.031475856168514699 0 -0.16129500549156001 -0.024264335985147129 0 -0.14513665439653431 -0.02122229521611602 0 -0.1346415055917565 -0.031432898451717602 0 -0.15148395360685291 -0.031475856168514699 0 -0.14513665439653431 -0.02122229521611602 0 -0.15327979458335059 -0.01391829646419882 0 -0.16129500549156001 -0.024264335985147129 0 -0.1412848112475209 -0.008091449167619497 0 -0.15773416148281841 -0.0035868741371463562 0 -0.14801408494475049 0.0031182785745780331 0 -0.15327979458335059 -0.01391829646419882 0 -0.1412848112475209 -0.008091449167619497 0 -0.15773416148281841 -0.0035868741371463562 0 -0.14513665439653431 -0.02122229521611602 0 -0.15327979458335059 -0.01391829646419882 0 -0.1412848112475209 -0.008091449167619497 0 -0.1236693299605585 -0.0137973575501921 0 -0.1412848112475209 -0.008091449167619497 0 -0.12735709500343681 0.004015926865657337 0 -0.1412848112475209 -0.008091449167619497 0 -0.12735709500343681 0.004015926865657337 0 -0.14801408494475049 0.0031182785745780331 0 -0.1236693299605585 -0.0137973575501921 0 -0.1412848112475209 -0.008091449167619497 0 -0.13426109495296229 -0.02049569832685658 0 -0.1236693299605585 -0.0137973575501921 0 -0.1221370268088495 -0.025998648103035 0 -0.13426109495296229 -0.02049569832685658 0 -0.14513665439653431 -0.02122229521611602 0 -0.1412848112475209 -0.008091449167619497 0 -0.13426109495296229 -0.02049569832685658 0 -0.14513665439653431 -0.02122229521611602 0 -0.13426109495296229 -0.02049569832685658 0 -0.1346415055917565 -0.031432898451717602 0 -0.1221370268088495 -0.025998648103035 0 -0.12530131535501859 -0.034952786400489197 0 -0.1346415055917565 -0.031432898451717602 0 -0.1221370268088495 -0.025998648103035 0 -0.13426109495296229 -0.02049569832685658 0 -0.1346415055917565 -0.031432898451717602 0 -0.12530131535501859 -0.034952786400489197 0 -0.1346415055917565 -0.031432898451717602 0 -0.12809376798702951 -0.047905065599393698 0 -0.1346415055917565 -0.031432898451717602 0 -0.12809376798702951 -0.047905065599393698 0 -0.14629371500633531 -0.042796653234188263 0 -0.12809376798702951 -0.047905065599393698 0 -0.14595160177326619 -0.062470528310013429 0 -0.12809376798702951 -0.047905065599393698 0 -0.14595160177326619 -0.062470528310013429 0 -0.14629371500633531 -0.042796653234188263 0 -0.13122182239868371 -0.062231763532838429 0 -0.12809376798702951 -0.047905065599393698 0 -0.14595160177326619 -0.062470528310013429 0 -0.1158705629695205 -0.060236298698018297 0 -0.13122182239868371 -0.062231763532838429 0 -0.12809376798702951 -0.047905065599393698 0 -0.14595160177326619 -0.062470528310013429 0 -0.14629371500633531 -0.042796653234188263 0 -0.15696853651444401 -0.052603520026387289 0 -0.16105989981045041 -0.063488466825831633 0 -0.14595160177326619 -0.062470528310013429 0 -0.15696853651444401 -0.052603520026387289 0 -0.15148395360685291 -0.031475856168514699 0 -0.14629371500633531 -0.042796653234188263 0 -0.16402488563849801 -0.041062174760887443 0 -0.1346415055917565 -0.031432898451717602 0 -0.15148395360685291 -0.031475856168514699 0 -0.14629371500633531 -0.042796653234188263 0 -0.14629371500633531 -0.042796653234188263 0 -0.16402488563849801 -0.041062174760887443 0 -0.15696853651444401 -0.052603520026387289 0 -0.15148395360685291 -0.031475856168514699 0 -0.16402488563849801 -0.041062174760887443 0 -0.16129500549156001 -0.024264335985147129 0 -0.16402488563849801 -0.041062174760887443 0 -0.17409393016306191 -0.030370879776367592 0 -0.16129500549156001 -0.024264335985147129 0 -0.16402488563849801 -0.041062174760887443 0 -0.15696853651444401 -0.052603520026387289 0 -0.17187825396406881 -0.057945450019426657 0 -0.16105989981045041 -0.063488466825831633 0 -0.15696853651444401 -0.052603520026387289 0 -0.17187825396406881 -0.057945450019426657 0 -0.16402488563849801 -0.041062174760887443 0 -0.17187825396406881 -0.057945450019426657 0 -0.18133558272394029 -0.043618149437272283 0 -0.17187825396406881 -0.057945450019426657 0 -0.18133558272394029 -0.043618149437272283 0 -0.18769526278089041 -0.057829612445021099 0 -0.18133558272394029 -0.043618149437272283 0 -0.17409393016306191 -0.030370879776367592 0 -0.18915768363079971 -0.025155098795753519 0 -0.16402488563849801 -0.041062174760887443 0 -0.18133558272394029 -0.043618149437272283 0 -0.17409393016306191 -0.030370879776367592 0 -0.17409393016306191 -0.030370879776367592 0 -0.17549551533112251 -0.014893414490097231 0 -0.18915768363079971 -0.025155098795753519 0 -0.16129500549156001 -0.024264335985147129 0 -0.16350931143073591 -0.01273440345064396 0 -0.17549551533112251 -0.014893414490097231 0 -0.17409393016306191 -0.030370879776367592 0 -0.16129500549156001 -0.024264335985147129 0 -0.17549551533112251 -0.014893414490097231 0 -0.15327979458335059 -0.01391829646419882 0 -0.16129500549156001 -0.024264335985147129 0 -0.16350931143073591 -0.01273440345064396 0 -0.15773416148281841 -0.0035868741371463562 0 -0.16716832075785379 -0.0032078365625175 0 -0.1619193683370386 0.0066468078375689294 0 -0.15773416148281841 -0.0035868741371463562 0 -0.16350931143073591 -0.01273440345064396 0 -0.16716832075785379 -0.0032078365625175 0 -0.15327979458335059 -0.01391829646419882 0 -0.15773416148281841 -0.0035868741371463562 0 -0.16350931143073591 -0.01273440345064396 0 -0.16350931143073591 -0.01273440345064396 0 -0.16716832075785379 -0.0032078365625175 0 -0.17549551533112251 -0.014893414490097231 0 -0.17549551533112251 -0.014893414490097231 0 -0.18154179604087481 -0.0036104187285780349 0 -0.18915768363079971 -0.025155098795753519 0 -0.18154179604087481 -0.0036104187285780349 0 -0.18915768363079971 -0.025155098795753519 0 -0.17549551533112251 -0.014893414490097231 0 -0.17584419881677341 0.0071523107965592754 0 -0.17549551533112251 -0.014893414490097231 0 -0.18154179604087481 -0.0036104187285780349 0 -0.17584419881677341 0.0071523107965592754 0 -0.16716832075785379 -0.0032078365625175 0 -0.17549551533112251 -0.014893414490097231 0 -0.17584419881677341 0.0071523107965592754 0 -0.18154179604087481 -0.0036104187285780349 0 -0.19066530249761049 -0.0041303576494283751 0 -0.18915768363079971 -0.025155098795753519 0 -0.18154179604087481 -0.0036104187285780349 0 -0.19066530249761049 -0.0041303576494283751 0 -0.18717715497560061 0.0062623078557712403 0 -0.19066530249761049 -0.0041303576494283751 0 -0.1989264366345522 -0.0080023544535597537 0 -0.18915768363079971 -0.025155098795753519 0 -0.19066530249761049 -0.0041303576494283751 0 -0.1989264366345522 -0.0080023544535597537 0 -0.1965234412062255 0.0098537758749781944 0 -0.1989264366345522 -0.0080023544535597537 0 -0.2007918169376324 -0.0191738513677071 0 -0.20680177871376751 -0.0119671669755851 0 -0.18915768363079971 -0.025155098795753519 0 -0.2007918169376324 -0.0191738513677071 0 -0.21013076049929519 -0.028334228638799381 0 -0.1989264366345522 -0.0080023544535597537 0 -0.18915768363079971 -0.025155098795753519 0 -0.2007918169376324 -0.0191738513677071 0 -0.2007918169376324 -0.0191738513677071 0 -0.21013076049929519 -0.028334228638799381 0 -0.20680177871376751 -0.0119671669755851 0 -0.21013076049929519 -0.028334228638799381 0 -0.21702438745170211 -0.0043907958627755336 0 -0.21921501925093501 -0.017985606360015789 0 -0.21013076049929519 -0.028334228638799381 0 -0.21702438745170211 -0.0043907958627755336 0 -0.21013076049929519 -0.028334228638799381 0 -0.22271521407306469 -0.037269361340154371 0 -0.21921501925093501 -0.017985606360015789 0 -0.21013076049929519 -0.028334228638799381 0 -0.21702438745170211 -0.0043907958627755336 0 -0.20680177871376751 -0.0119671669755851 0 -0.1989264366345522 -0.0080023544535597537 0 -0.20680177871376751 -0.0119671669755851 0 -0.20713549204565579 6.5395444916274768e-05 0 -0.21702438745170211 -0.0043907958627755336 0 -0.20680177871376751 -0.0119671669755851 0 -0.20713549204565579 6.5395444916274768e-05 0 -0.20438945881064449 -0.068244458930106389 0 -0.1967735712207245 -0.046699778862929052 0 -0.20438945881064449 -0.068244458930106389 0 -0.18769526278089041 -0.057829612445021099 0 -0.1967735712207245 -0.046699778862929052 0 -0.20438945881064449 -0.068244458930106389 0 -0.1967735712207245 -0.046699778862929052 0 -0.20711132549122371 -0.057203435059411119 0 -0.18133558272394029 -0.043618149437272283 0 -0.18769526278089041 -0.057829612445021099 0 -0.1967735712207245 -0.046699778862929052 0 -0.18133558272394029 -0.043618149437272283 0 -0.18915768363079971 -0.025155098795753519 0 -0.1967735712207245 -0.046699778862929052 0 -0.18915768363079971 -0.025155098795753519 0 -0.1967735712207245 -0.046699778862929052 0 -0.18915768363079971 -0.025155098795753519 0 -0.21013076049929519 -0.028334228638799381 0 -0.1967735712207245 -0.046699778862929052 0 -0.21013076049929519 -0.028334228638799381 0 -0.21132582579248671 -0.048130994279405613 0 -0.22271521407306469 -0.037269361340154371 0 -0.21013076049929519 -0.028334228638799381 0 -0.1967735712207245 -0.046699778862929052 0 -0.21132582579248671 -0.048130994279405613 0 -0.21595644614104051 -0.065738508165203102 0 -0.21132582579248671 -0.048130994279405613 0 -0.22271521407306469 -0.037269361340154371 0 -0.21595644614104051 -0.065738508165203102 0 -0.21132582579248671 -0.048130994279405613 0 -0.20711132549122371 -0.057203435059411119 0 -0.1967735712207245 -0.046699778862929052 0 -0.21132582579248671 -0.048130994279405613 0 -0.20711132549122371 -0.057203435059411119 0 -0.21595644614104051 -0.065738508165203102 0 -0.2284172135094342 -0.053659916570315727 0 -0.24475965461883589 -0.059498385283178377 0 -0.21595644614104051 -0.065738508165203102 0 -0.2284172135094342 -0.053659916570315727 0 -0.22271521407306469 -0.037269361340154371 0 -0.21595644614104051 -0.065738508165203102 0 -0.22271521407306469 -0.037269361340154371 0 -0.2284172135094342 -0.053659916570315727 0 -0.22271521407306469 -0.037269361340154371 0 -0.23903543051913109 -0.043198085603962481 0 -0.22271521407306469 -0.037269361340154371 0 -0.23903543051913109 -0.043198085603962481 0 -0.24161885061771041 -0.026720350447010301 0 -0.23903543051913109 -0.043198085603962481 0 -0.24161885061771041 -0.026720350447010301 0 -0.25766621977661042 -0.038842414379153638 0 -0.23903543051913109 -0.043198085603962481 0 -0.24475965461883589 -0.059498385283178377 0 -0.25766621977661042 -0.038842414379153638 0 -0.2284172135094342 -0.053659916570315727 0 -0.23903543051913109 -0.043198085603962481 0 -0.24475965461883589 -0.059498385283178377 0 -0.22947398200509031 -0.0088002145151058891 0 -0.22867745033346079 0.0038692188645070222 0 -0.2401015516947359 0.00075261550232862703 0 -0.21702438745170211 -0.0043907958627755336 0 -0.22947398200509031 -0.0088002145151058891 0 -0.22867745033346079 0.0038692188645070222 0 -0.21702438745170211 -0.0043907958627755336 0 -0.22947398200509031 -0.0088002145151058891 0 -0.21921501925093501 -0.017985606360015789 0 -0.22271521407306469 -0.037269361340154371 0 -0.22947398200509031 -0.0088002145151058891 0 -0.21921501925093501 -0.017985606360015789 0 -0.22271521407306469 -0.037269361340154371 0 -0.22947398200509031 -0.0088002145151058891 0 -0.22271521407306469 -0.037269361340154371 0 -0.22947398200509031 -0.0088002145151058891 0 -0.24161885061771041 -0.026720350447010301 0 -0.22947398200509031 -0.0088002145151058891 0 -0.24161885061771041 -0.026720350447010301 0 -0.2437457614006571 -0.011962382738850049 0 -0.24161885061771041 -0.026720350447010301 0 -0.2437457614006571 -0.011962382738850049 0 -0.2598032925822476 -0.0188915667982569 0 -0.22947398200509031 -0.0088002145151058891 0 -0.2437457614006571 -0.011962382738850049 0 -0.2401015516947359 0.00075261550232862703 0 -0.2437457614006571 -0.011962382738850049 0 -0.25267499080189931 -0.0034516002120552492 0 -0.2401015516947359 0.00075261550232862703 0 -0.25267499080189931 -0.0034516002120552492 0 -0.2598032925822476 -0.0188915667982569 0 -0.26909988492935111 -0.0018655285383734981 0 -0.2437457614006571 -0.011962382738850049 0 -0.25267499080189931 -0.0034516002120552492 0 -0.2598032925822476 -0.0188915667982569 0 -0.2598032925822476 -0.0188915667982569 0 -0.27267419604841259 -0.026924212746328481 0 -0.25766621977661042 -0.038842414379153638 0 -0.24161885061771041 -0.026720350447010301 0 -0.2598032925822476 -0.0188915667982569 0 -0.25766621977661042 -0.038842414379153638 0 -0.2598032925822476 -0.0188915667982569 0 -0.27267419604841259 -0.026924212746328481 0 -0.27804425228895369 -0.016131696666228459 0 -0.27267419604841259 -0.026924212746328481 0 -0.27804425228895369 -0.016131696666228459 0 -0.28378415359151371 -0.031280105512012511 0 -0.27804425228895369 -0.016131696666228459 0 -0.26909988492935111 -0.0018655285383734981 0 -0.2917254884257266 -0.0017566381736345419 0 -0.2598032925822476 -0.0188915667982569 0 -0.27804425228895369 -0.016131696666228459 0 -0.26909988492935111 -0.0018655285383734981 0 -0.27804425228895369 -0.016131696666228459 0 -0.2917254884257266 -0.0017566381736345419 0 -0.2928870998243559 -0.020527937726781 0 -0.27804425228895369 -0.016131696666228459 0 -0.2928870998243559 -0.020527937726781 0 -0.28378415359151371 -0.031280105512012511 0 -0.2928870998243559 -0.020527937726781 0 -0.29943422057661201 -0.032203920876667472 0 -0.28378415359151371 -0.031280105512012511 0 -0.2928870998243559 -0.020527937726781 0 -0.31144738423897378 -0.02126732740536201 0 -0.29943422057661201 -0.032203920876667472 0 -0.31144738423897378 -0.02126732740536201 0 -0.31110423911055801 -0.035316851109560482 0 -0.29943422057661201 -0.032203920876667472 0 -0.2917254884257266 -0.0017566381736345419 0 -0.31144738423897378 -0.02126732740536201 0 -0.31177688145040278 0.0050359958776742568 0 -0.2917254884257266 -0.0017566381736345419 0 -0.2928870998243559 -0.020527937726781 0 -0.31144738423897378 -0.02126732740536201 0 -0.2917254884257266 -0.0017566381736345419 0 -0.31144738423897378 -0.02126732740536201 0 -0.30323190850646392 -0.052883144282766713 0 -0.3023660715744253 -0.047018139519123002 0 -0.29757341552329353 -0.05219957266967655 0 -0.29931176789370939 -0.061629941742321552 0 -0.30659897303184058 -0.057135789817405573 0 -0.30728911182784302 -0.064893595009923935 0 -0.30323190850646392 -0.052883144282766713 0 -0.29931176789370939 -0.061629941742321552 0 -0.30659897303184058 -0.057135789817405573 0 -0.30323190850646392 -0.052883144282766713 0 -0.29757341552329353 -0.05219957266967655 0 -0.29931176789370939 -0.061629941742321552 0 -0.30659897303184058 -0.057135789817405573 0 -0.30728911182784302 -0.064893595009923935 0 -0.31405483352543062 -0.056831087900065053 0 -0.30323190850646392 -0.052883144282766713 0 -0.3023660715744253 -0.047018139519123002 0 -0.31025625293594222 -0.050033124508212908 0 -0.30659897303184058 -0.057135789817405573 0 -0.31025625293594222 -0.050033124508212908 0 -0.31405483352543062 -0.056831087900065053 0 -0.30323190850646392 -0.052883144282766713 0 -0.30659897303184058 -0.057135789817405573 0 -0.31025625293594222 -0.050033124508212908 0 -0.3023660715744253 -0.047018139519123002 0 -0.31110423911055801 -0.035316851109560482 0 -0.29943422057661201 -0.032203920876667472 0 -0.3023660715744253 -0.047018139519123002 0 -0.29943422057661201 -0.032203920876667472 0 -0.29166722635019171 -0.038853801873014321 0 -0.29943422057661201 -0.032203920876667472 0 -0.29166722635019171 -0.038853801873014321 0 -0.28378415359151371 -0.031280105512012511 0 -0.3023660715744253 -0.047018139519123002 0 -0.29166722635019171 -0.038853801873014321 0 -0.28390051605192418 -0.042754285685484159 0 -0.29166722635019171 -0.038853801873014321 0 -0.28378415359151371 -0.031280105512012511 0 -0.28390051605192418 -0.042754285685484159 0 -0.3023660715744253 -0.047018139519123002 0 -0.28390051605192418 -0.042754285685484159 0 -0.27356286309663053 -0.053258262401150697 0 -0.3023660715744253 -0.047018139519123002 0 -0.27356286309663053 -0.053258262401150697 0 -0.29757341552329353 -0.05219957266967655 0 -0.27356286309663053 -0.053258262401150697 0 -0.27532891164284878 -0.069285621960536392 0 -0.29757341552329353 -0.05219957266967655 0 -0.27532891164284878 -0.069285621960536392 0 -0.3023660715744253 -0.047018139519123002 0 -0.29757341552329353 -0.05219957266967655 0 -0.27356286309663053 -0.053258262401150697 0 -0.29757341552329353 -0.05219957266967655 0 -0.29931176789370939 -0.061629941742321552 0 -0.27532891164284878 -0.069285621960536392 0 -0.27267419604841259 -0.026924212746328481 0 -0.27375437843427658 -0.039043607324579933 0 -0.25766621977661042 -0.038842414379153638 0 -0.27356286309663053 -0.053258262401150697 0 -0.27375437843427658 -0.039043607324579933 0 -0.25766621977661042 -0.038842414379153638 0 -0.28378415359151371 -0.031280105512012511 0 -0.28390051605192418 -0.042754285685484159 0 -0.27375437843427658 -0.039043607324579933 0 -0.27267419604841259 -0.026924212746328481 0 -0.28378415359151371 -0.031280105512012511 0 -0.27375437843427658 -0.039043607324579933 0 -0.28390051605192418 -0.042754285685484159 0 -0.27356286309663053 -0.053258262401150697 0 -0.27375437843427658 -0.039043607324579933 0 -0.24475965461883589 -0.059498385283178377 0 -0.27356286309663053 -0.053258262401150697 0 -0.2582325144520296 -0.070050845257802419 0 -0.24475965461883589 -0.059498385283178377 0 -0.27356286309663053 -0.053258262401150697 0 -0.24475965461883589 -0.059498385283178377 0 -0.27356286309663053 -0.053258262401150697 0 -0.25766621977661042 -0.038842414379153638 0 -0.2582325144520296 -0.070050845257802419 0 -0.25308440776240432 -0.086371671251396109 0 -0.27532891164284878 -0.069285621960536392 0 -0.25308440776240432 -0.086371671251396109 0 -0.27532891164284878 -0.069285621960536392 0 -0.25308440776240432 -0.086371671251396109 0 -0.27361062541114611 -0.085405998149086934 0 -0.26907394573302829 -0.10103393024372311 0 -0.27361062541114611 -0.085405998149086934 0 -0.26907394573302829 -0.10103393024372311 0 -0.28494676303449051 -0.09097811142482605 0 -0.25308440776240432 -0.086371671251396109 0 -0.27361062541114611 -0.085405998149086934 0 -0.27532891164284878 -0.069285621960536392 0 -0.27356286309663053 -0.053258262401150697 0 -0.2582325144520296 -0.070050845257802419 0 -0.27532891164284878 -0.069285621960536392 0 -0.27361062541114611 -0.085405998149086934 0 -0.27532891164284878 -0.069285621960536392 0 -0.28561909888295839 -0.079360655864953042 0 -0.2432602079730701 -0.13485583854350039 0 -0.2499653418643101 -0.1102460646797562 0 -0.26490928006600228 -0.12397715003998409 0 -0.2499653418643101 -0.1102460646797562 0 -0.26490928006600228 -0.12397715003998409 0 -0.26907394573302829 -0.10103393024372311 0 -0.2499653418643101 -0.1102460646797562 0 -0.25308440776240432 -0.086371671251396109 0 -0.26907394573302829 -0.10103393024372311 0 -0.26907394573302829 -0.10103393024372311 0 -0.28789548083438649 -0.11161882002010511 0 -0.28494676303449051 -0.09097811142482605 0 -0.26490928006600228 -0.12397715003998409 0 -0.28789548083438649 -0.11161882002010511 0 -0.28428672055728371 -0.13281235115180859 0 -0.26490928006600228 -0.12397715003998409 0 -0.26907394573302829 -0.10103393024372311 0 -0.28789548083438649 -0.11161882002010511 0 -0.28789548083438649 -0.11161882002010511 0 -0.28428672055728371 -0.13281235115180859 0 -0.30877835781368662 -0.12931532841693749 0 -0.28789548083438649 -0.11161882002010511 0 -0.29765529442092259 -0.094840601490837839 0 -0.28494676303449051 -0.09097811142482605 0 -0.30761934067920371 -0.1042503242997595 0 -0.29765529442092259 -0.094840601490837839 0 -0.30832877355579341 -0.086934752854072747 0 -0.30761934067920371 -0.1042503242997595 0 -0.30832877355579341 -0.086934752854072747 0 -0.31968159473222052 -0.091584555267719248 0 -0.28789548083438649 -0.11161882002010511 0 -0.30761934067920371 -0.1042503242997595 0 -0.29765529442092259 -0.094840601490837839 0 -0.28789548083438649 -0.11161882002010511 0 -0.30761934067920371 -0.1042503242997595 0 -0.30877835781368662 -0.12931532841693749 0 -0.29931176789370939 -0.061629941742321552 0 -0.27532891164284878 -0.069285621960536392 0 -0.29568251685582603 -0.071589435967753134 0 -0.27532891164284878 -0.069285621960536392 0 -0.29568251685582603 -0.071589435967753134 0 -0.28561909888295839 -0.079360655864953042 0 -0.29568251685582603 -0.071589435967753134 0 -0.28561909888295839 -0.079360655864953042 0 -0.29849490204505058 -0.081938345925378783 0 -0.27361062541114611 -0.085405998149086934 0 -0.28561909888295839 -0.079360655864953042 0 -0.28494676303449051 -0.09097811142482605 0 -0.29765529442092259 -0.094840601490837839 0 -0.28494676303449051 -0.09097811142482605 0 -0.29849490204505058 -0.081938345925378783 0 -0.28561909888295839 -0.079360655864953042 0 -0.28494676303449051 -0.09097811142482605 0 -0.29849490204505058 -0.081938345925378783 0 -0.29849490204505058 -0.081938345925378783 0 -0.30832877355579341 -0.086934752854072747 0 -0.3066986514807607 -0.074546990101646726 0 -0.29765529442092259 -0.094840601490837839 0 -0.29849490204505058 -0.081938345925378783 0 -0.30832877355579341 -0.086934752854072747 0 -0.30832877355579341 -0.086934752854072747 0 -0.3066986514807607 -0.074546990101646726 0 -0.31636087034116728 -0.076704125898778439 0 -0.3066986514807607 -0.074546990101646726 0 -0.31411021802290889 -0.069356746280106005 0 -0.31636087034116728 -0.076704125898778439 0 -0.29568251685582603 -0.071589435967753134 0 -0.29849490204505058 -0.081938345925378783 0 -0.3066986514807607 -0.074546990101646726 0 -0.29568251685582603 -0.071589435967753134 0 -0.3066986514807607 -0.074546990101646726 0 -0.30728911182784302 -0.064893595009923935 0 -0.29931176789370939 -0.061629941742321552 0 -0.29568251685582603 -0.071589435967753134 0 -0.30728911182784302 -0.064893595009923935 0 -0.3066986514807607 -0.074546990101646726 0 -0.30728911182784302 -0.064893595009923935 0 -0.31411021802290889 -0.069356746280106005 0 -0.30728911182784302 -0.064893595009923935 0 -0.31630436981946819 -0.062936971351065629 0 -0.31411021802290889 -0.069356746280106005 0 -0.31630436981946819 -0.062936971351065629 0 -0.31411021802290889 -0.069356746280106005 0 -0.32389808664530562 -0.067702049039115322 0 -0.31630436981946819 -0.062936971351065629 0 -0.32389808664530562 -0.067702049039115322 0 -0.32481687078849097 -0.058022226865728103 0 -0.32389808664530562 -0.067702049039115322 0 -0.3259684841043719 -0.075020057435826168 0 -0.31636087034116728 -0.076704125898778439 0 -0.31411021802290889 -0.069356746280106005 0 -0.32389808664530562 -0.067702049039115322 0 -0.31636087034116728 -0.076704125898778439 0 -0.30832877355579341 -0.086934752854072747 0 -0.32608803180755441 -0.084321365842938284 0 -0.30832877355579341 -0.086934752854072747 0 -0.31968159473222052 -0.091584555267719248 0 -0.32608803180755441 -0.084321365842938284 0 -0.30832877355579341 -0.086934752854072747 0 -0.31636087034116728 -0.076704125898778439 0 -0.32608803180755441 -0.084321365842938284 0 -0.31968159473222052 -0.091584555267719248 0 -0.32608803180755441 -0.084321365842938284 0 -0.3259684841043719 -0.075020057435826168 0 -0.31636087034116728 -0.076704125898778439 0 -0.32608803180755441 -0.084321365842938284 0 -0.31968159473222052 -0.091584555267719248 0 -0.32608803180755441 -0.084321365842938284 0 -0.34030971713070318 -0.087052614945596102 0 -0.32608803180755441 -0.084321365842938284 0 -0.34030971713070318 -0.087052614945596102 0 -0.34745734249292459 -0.081176736816750444 0 -0.32608803180755441 -0.084321365842938284 0 -0.33752694762346008 -0.07135268896247253 0 -0.34745734249292459 -0.081176736816750444 0 -0.32608803180755441 -0.084321365842938284 0 -0.34745734249292459 -0.081176736816750444 0 -0.33752694762346008 -0.07135268896247253 0 -0.3489658634393657 -0.058384012082006782 0 -0.33645864726091979 -0.05858208772264157 0 -0.33752694762346008 -0.07135268896247253 0 -0.3489658634393657 -0.058384012082006782 0 -0.32389808664530562 -0.067702049039115322 0 -0.33752694762346008 -0.07135268896247253 0 -0.33645864726091979 -0.05858208772264157 0 -0.3259684841043719 -0.075020057435826168 0 -0.32608803180755441 -0.084321365842938284 0 -0.33752694762346008 -0.07135268896247253 0 -0.32608803180755441 -0.084321365842938284 0 -0.33752694762346008 -0.07135268896247253 0 -0.32389808664530562 -0.067702049039115322 0 -0.3259684841043719 -0.075020057435826168 0 -0.33752694762346008 -0.07135268896247253 0 -0.32454403747219479 -0.1081839716812668 0 -0.30877835781368662 -0.12931532841693749 0 -0.30761934067920371 -0.1042503242997595 0 -0.32454403747219479 -0.1081839716812668 0 -0.30877835781368662 -0.12931532841693749 0 -0.32454403747219479 -0.1081839716812668 0 -0.33570809008837621 -0.11845594114356341 0 -0.30877835781368662 -0.12931532841693749 0 -0.30761934067920371 -0.1042503242997595 0 -0.31968159473222052 -0.091584555267719248 0 -0.32454403747219479 -0.1081839716812668 0 -0.34030971713070318 -0.087052614945596102 0 -0.32454403747219479 -0.1081839716812668 0 -0.34278855512837281 -0.1049294584887832 0 -0.31968159473222052 -0.091584555267719248 0 -0.34030971713070318 -0.087052614945596102 0 -0.32454403747219479 -0.1081839716812668 0 -0.34030971713070318 -0.087052614945596102 0 -0.32454403747219479 -0.1081839716812668 0 -0.32454403747219479 -0.1081839716812668 0 -0.34278855512837281 -0.1049294584887832 0 -0.33570809008837621 -0.11845594114356341 0 -0.33570809008837621 -0.11845594114356341 0 -0.35404294059136687 -0.1217835462641018 0 -0.33688620478323589 -0.13358080389391511 0 -0.34278855512837281 -0.1049294584887832 0 -0.35404294059136687 -0.1217835462641018 0 -0.35932798989652742 -0.1047455147758234 0 -0.34278855512837281 -0.1049294584887832 0 -0.33570809008837621 -0.11845594114356341 0 -0.35404294059136687 -0.1217835462641018 0 -0.34278855512837281 -0.1049294584887832 0 -0.35932798989652742 -0.1047455147758234 0 -0.35079718399447979 -0.093651592615473511 0 -0.34030971713070318 -0.087052614945596102 0 -0.34278855512837281 -0.1049294584887832 0 -0.35079718399447979 -0.093651592615473511 0 -0.35932798989652742 -0.1047455147758234 0 -0.35079718399447979 -0.093651592615473511 0 -0.36132419909701757 -0.091459041133748031 0 -0.35932798989652742 -0.1047455147758234 0 -0.37367929427193591 -0.1014825750548952 0 -0.37212838853434238 -0.11808059788504249 0 -0.35932798989652742 -0.1047455147758234 0 -0.37367929427193591 -0.1014825750548952 0 -0.36132419909701757 -0.091459041133748031 0 -0.35404294059136687 -0.1217835462641018 0 -0.37212838853434238 -0.11808059788504249 0 -0.37028068739271691 -0.13083580994494901 0 -0.35404294059136687 -0.1217835462641018 0 -0.35932798989652742 -0.1047455147758234 0 -0.37212838853434238 -0.11808059788504249 0 -0.35069420168351129 -0.07223638641294812 0 -0.34745734249292459 -0.081176736816750444 0 -0.36882665317829499 -0.078032107790563188 0 -0.36882665317829499 -0.078032107790563188 0 -0.3489658634393657 -0.058384012082006782 0 -0.35069420168351129 -0.07223638641294812 0 -0.36882665317829499 -0.078032107790563188 0 -0.3489658634393657 -0.058384012082006782 0 -0.33752694762346008 -0.07135268896247253 0 -0.35069420168351129 -0.07223638641294812 0 -0.3489658634393657 -0.058384012082006782 0 -0.33752694762346008 -0.07135268896247253 0 -0.35069420168351129 -0.07223638641294812 0 -0.34745734249292459 -0.081176736816750444 0 -0.34745734249292459 -0.081176736816750444 0 -0.36882665317829499 -0.078032107790563188 0 -0.34745734249292459 -0.081176736816750444 0 -0.36132419909701757 -0.091459041133748031 0 -0.36882665317829499 -0.078032107790563188 0 -0.34030971713070318 -0.087052614945596102 0 -0.34745734249292459 -0.081176736816750444 0 -0.35079718399447979 -0.093651592615473511 0 -0.34745734249292459 -0.081176736816750444 0 -0.35079718399447979 -0.093651592615473511 0 -0.36132419909701757 -0.091459041133748031 0 -0.37367929427193591 -0.1014825750548952 0 -0.36132419909701757 -0.091459041133748031 0 -0.36882665317829499 -0.078032107790563188 0 -0.36882665317829499 -0.078032107790563188 0 -0.36862349457690058 -0.057461967220355487 0 -0.3489658634393657 -0.058384012082006782 0 -0.36882665317829499 -0.078032107790563188 0 -0.36862349457690058 -0.057461967220355487 0 -0.37947166312044489 -0.067272628224985004 0 -0.36862349457690058 -0.057461967220355487 0 -0.3489658634393657 -0.058384012082006782 0 -0.36066681755822472 -0.045118253717945672 0 -0.36862349457690058 -0.057461967220355487 0 -0.37355784227175309 -0.045246792894939887 0 -0.3815482533063424 -0.052412606119804542 0 -0.36862349457690058 -0.057461967220355487 0 -0.36066681755822472 -0.045118253717945672 0 -0.37355784227175309 -0.045246792894939887 0 -0.3489658634393657 -0.058384012082006782 0 -0.36066681755822472 -0.045118253717945672 0 -0.3489658634393657 -0.058384012082006782 0 -0.34511111307690212 -0.046137334811030092 0 -0.36066681755822472 -0.045118253717945672 0 -0.35304062521722218 -0.036039659744318157 0 -0.3553139768507978 -0.023567241021099371 0 -0.33371347875736079 -0.040226824134751989 0 -0.34511111307690212 -0.046137334811030092 0 -0.35304062521722218 -0.036039659744318157 0 -0.33371347875736079 -0.040226824134751989 0 -0.34511111307690212 -0.046137334811030092 0 -0.35304062521722218 -0.036039659744318157 0 -0.36066681755822472 -0.045118253717945672 0 -0.36066681755822472 -0.045118253717945672 0 -0.37236777167708351 -0.031852495353884333 0 -0.35304062521722218 -0.036039659744318157 0 -0.37236777167708351 -0.031852495353884333 0 -0.35304062521722218 -0.036039659744318157 0 -0.36066681755822472 -0.045118253717945672 0 -0.37236777167708351 -0.031852495353884333 0 -0.36066681755822472 -0.045118253717945672 0 -0.37355784227175309 -0.045246792894939887 0 -0.37236777167708351 -0.031852495353884333 0 -0.37236777167708351 -0.031852495353884333 0 -0.3739022591900184 -0.02415390189740213 0 -0.36770044175442279 -0.02036669541201027 0 -0.37236777167708351 -0.031852495353884333 0 -0.36770044175442279 -0.02036669541201027 0 -0.3553139768507978 -0.023567241021099371 0 -0.36770044175442279 -0.02036669541201027 0 -0.35847393927256738 -0.010652033510738681 0 -0.38297625517291389 -0.017448943304264108 0 -0.35304062521722218 -0.036039659744318157 0 -0.37236777167708351 -0.031852495353884333 0 -0.3553139768507978 -0.023567241021099371 0 -0.3739022591900184 -0.02415390189740213 0 -0.36770044175442279 -0.02036669541201027 0 -0.38297625517291389 -0.017448943304264108 0 -0.36770044175442279 -0.02036669541201027 0 -0.35847393927256738 -0.010652033510738681 0 -0.3553139768507978 -0.023567241021099371 0 -0.35847393927256738 -0.010652033510738681 0 -0.38297625517291389 -0.017448943304264108 0 -0.37278444596104371 -0.0079457960458173115 0 -0.35847393927256738 -0.010652033510738681 0 -0.38297625517291389 -0.017448943304264108 0 -0.37474494217865062 -0.0022388935110706832 0 -0.37278444596104371 -0.0079457960458173115 0 -0.36307869926690151 -0.00068504054922277494 0 -0.37278444596104371 -0.0079457960458173115 0 -0.36307869926690151 -0.00068504054922277494 0 -0.35847393927256738 -0.010652033510738681 0 -0.36307869926690151 -0.00068504054922277494 0 -0.34718119132474479 -0.01384164818341615 0 -0.36064890389212972 0.0125435277679194 0 -0.36307869926690151 -0.00068504054922277494 0 -0.35847393927256738 -0.010652033510738681 0 -0.34718119132474479 -0.01384164818341615 0 -0.34718119132474479 -0.01384164818341615 0 -0.36064890389212972 0.0125435277679194 0 -0.34718119132474479 -0.01384164818341615 0 -0.3553139768507978 -0.023567241021099371 0 -0.33371347875736079 -0.040226824134751989 0 -0.35847393927256738 -0.010652033510738681 0 -0.34718119132474479 -0.01384164818341615 0 -0.3553139768507978 -0.023567241021099371 0 -0.34718119132474479 -0.01384164818341615 0 -0.33035884889608558 -0.02420969997450095 0 -0.33371347875736079 -0.040226824134751989 0 -0.34718119132474479 -0.01384164818341615 0 -0.33371347875736079 -0.040226824134751989 0 -0.34718119132474479 -0.01384164818341615 0 -0.32828291010712762 -0.0049346835118845543 0 -0.34055428987364128 0.0059527955302196532 0 -0.34718119132474479 -0.01384164818341615 0 -0.33035884889608558 -0.02420969997450095 0 -0.32828291010712762 -0.0049346835118845543 0 -0.31144738423897378 -0.02126732740536201 0 -0.32828291010712762 -0.0049346835118845543 0 -0.31177688145040278 0.0050359958776742568 0 -0.31144738423897378 -0.02126732740536201 0 -0.33116928005221918 -0.040778016637091109 0 -0.31144738423897378 -0.02126732740536201 0 -0.33035884889608558 -0.02420969997450095 0 -0.32828291010712762 -0.0049346835118845543 0 -0.31144738423897378 -0.02126732740536201 0 -0.33035884889608558 -0.02420969997450095 0 -0.33116928005221918 -0.040778016637091109 0 -0.3023660715744253 -0.047018139519123002 0 -0.31110423911055801 -0.035316851109560482 0 -0.33116928005221918 -0.040778016637091109 0 -0.3023660715744253 -0.047018139519123002 0 -0.31025625293594222 -0.050033124508212908 0 -0.33116928005221918 -0.040778016637091109 0 -0.3023660715744253 -0.047018139519123002 0 -0.33116928005221918 -0.040778016637091109 0 -0.31144738423897378 -0.02126732740536201 0 -0.31110423911055801 -0.035316851109560482 0 -0.33116928005221918 -0.040778016637091109 0 -0.31025625293594222 -0.050033124508212908 0 -0.31770057673851387 -0.05020147555903863 0 -0.33116928005221918 -0.040778016637091109 0 -0.31025625293594222 -0.050033124508212908 0 -0.31770057673851387 -0.05020147555903863 0 -0.31405483352543062 -0.056831087900065053 0 -0.31770057673851387 -0.05020147555903863 0 -0.31405483352543062 -0.056831087900065053 0 -0.31936567051967829 -0.054711673150449433 0 -0.31630436981946819 -0.062936971351065629 0 -0.31936567051967829 -0.054711673150449433 0 -0.32481687078849097 -0.058022226865728103 0 -0.30728911182784302 -0.064893595009923935 0 -0.31630436981946819 -0.062936971351065629 0 -0.31405483352543062 -0.056831087900065053 0 -0.31630436981946819 -0.062936971351065629 0 -0.31405483352543062 -0.056831087900065053 0 -0.31936567051967829 -0.054711673150449433 0 -0.31770057673851387 -0.05020147555903863 0 -0.32448711316898249 -0.050622394842538963 0 -0.33116928005221918 -0.040778016637091109 0 -0.31936567051967829 -0.054711673150449433 0 -0.32481687078849097 -0.058022226865728103 0 -0.32448711316898249 -0.050622394842538963 0 -0.31770057673851387 -0.05020147555903863 0 -0.31936567051967829 -0.054711673150449433 0 -0.32448711316898249 -0.050622394842538963 0 -0.32481687078849097 -0.058022226865728103 0 -0.32770904195502032 -0.053173566283506987 0 -0.32448711316898249 -0.050622394842538963 0 -0.32770904195502032 -0.053173566283506987 0 -0.32448711316898249 -0.050622394842538963 0 -0.32972533979495861 -0.048040159006195682 0 -0.3489658634393657 -0.058384012082006782 0 -0.34511111307690212 -0.046137334811030092 0 -0.3326728772282519 -0.042265511425067279 0 -0.32972533979495861 -0.048040159006195682 0 -0.33645864726091979 -0.05858208772264157 0 -0.3326728772282519 -0.042265511425067279 0 -0.3489658634393657 -0.058384012082006782 0 -0.3326728772282519 -0.042265511425067279 0 -0.32770904195502032 -0.053173566283506987 0 -0.32972533979495861 -0.048040159006195682 0 -0.33645864726091979 -0.05858208772264157 0 -0.3489658634393657 -0.058384012082006782 0 -0.33645864726091979 -0.05858208772264157 0 -0.3326728772282519 -0.042265511425067279 0 -0.32389808664530562 -0.067702049039115322 0 -0.32481687078849097 -0.058022226865728103 0 -0.33645864726091979 -0.05858208772264157 0 -0.32481687078849097 -0.058022226865728103 0 -0.32770904195502032 -0.053173566283506987 0 -0.33645864726091979 -0.05858208772264157 0 -0.34511111307690212 -0.046137334811030092 0 -0.33371347875736079 -0.040226824134751989 0 -0.3326728772282519 -0.042265511425067279 0 -0.33035884889608558 -0.02420969997450095 0 -0.33116928005221918 -0.040778016637091109 0 -0.33371347875736079 -0.040226824134751989 0 -0.35304062521722218 -0.036039659744318157 0 -0.33371347875736079 -0.040226824134751989 0 -0.32448711316898249 -0.050622394842538963 0 -0.32972533979495861 -0.048040159006195682 0 -0.33116928005221918 -0.040778016637091109 0 -0.33116928005221918 -0.040778016637091109 0 -0.3326728772282519 -0.042265511425067279 0 -0.32972533979495861 -0.048040159006195682 0 -0.3326728772282519 -0.042265511425067279 0 -0.32972533979495861 -0.048040159006195682 0 -0.33116928005221918 -0.040778016637091109 0 -0.3326728772282519 -0.042265511425067279 0 -0.33116928005221918 -0.040778016637091109 0 -0.33371347875736079 -0.040226824134751989 0 -0.33116928005221918 -0.040778016637091109 0 -0.33371347875736079 -0.040226824134751989 0 -0.3326728772282519 -0.042265511425067279 0 -0.33371347875736079 -0.040226824134751989 0 -0.3326728772282519 -0.042265511425067279 0 -0.2907170577323625 -0.25177677077710309 0 -0.30853150187083839 -0.25429835417001312 0 -0.30748271917561598 -0.2431056607245809 0 -0.30748271917561598 -0.2431056607245809 0 -0.3004866401015065 -0.2269264896544945 0 -0.32066485276457768 -0.2334308190911655 0 -0.2907170577323625 -0.25177677077710309 0 -0.30748271917561598 -0.2431056607245809 0 -0.3004866401015065 -0.2269264896544945 0 -0.30853150187083839 -0.25429835417001312 0 -0.30748271917561598 -0.2431056607245809 0 -0.32023222063025569 -0.2489608815952247 0 -0.3004866401015065 -0.2269264896544945 0 -0.27575903677895092 -0.22208668823385669 0 -0.3004866401015065 -0.2269264896544945 0 -0.27309361240676189 -0.24179026653703889 0 -0.27575903677895092 -0.22208668823385669 0 -0.3004866401015065 -0.2269264896544945 0 -0.27575903677895092 -0.22208668823385669 0 -0.29482007196541532 -0.2089319155152673 0 -0.2907170577323625 -0.25177677077710309 0 -0.3004866401015065 -0.2269264896544945 0 -0.27309361240676189 -0.24179026653703889 0 -0.27309361240676189 -0.24179026653703889 0 -0.25431856302814809 -0.24833495949118861 0 -0.25103143345639523 -0.21724688681321891 0 -0.27575903677895092 -0.22208668823385669 0 -0.25103143345639523 -0.21724688681321891 0 -0.27309361240676189 -0.24179026653703889 0 -0.27575903677895092 -0.22208668823385669 0 -0.25103143345639523 -0.21724688681321891 0 -0.27575903677895092 -0.22208668823385669 0 -0.25103143345639523 -0.21724688681321891 0 -0.27708552823660842 -0.19790031786117671 0 -0.25103143345639523 -0.21724688681321891 0 -0.25418198431724581 -0.18809916394242601 0 -0.27708552823660842 -0.19790031786117671 0 -0.27708552823660842 -0.19790031786117671 0 -0.29482007196541532 -0.2089319155152673 0 -0.30195969341908391 -0.19078830755985379 0 -0.29482007196541532 -0.2089319155152673 0 -0.30195969341908391 -0.19078830755985379 0 -0.32674672588845421 -0.2120308859258328 0 -0.3004866401015065 -0.2269264896544945 0 -0.29482007196541532 -0.2089319155152673 0 -0.32674672588845421 -0.2120308859258328 0 -0.27575903677895092 -0.22208668823385669 0 -0.27708552823660842 -0.19790031786117671 0 -0.29482007196541532 -0.2089319155152673 0 -0.30195969341908391 -0.19078830755985379 0 -0.30674796742087651 -0.1684647150882764 0 -0.32123008678095788 -0.18729232698745699 0 -0.30674796742087651 -0.1684647150882764 0 -0.2930126781551784 -0.15044668515260809 0 -0.3206808779707625 -0.15110047818677941 0 -0.27724699849667023 -0.17157804188827869 0 -0.2930126781551784 -0.15044668515260809 0 -0.30674796742087651 -0.1684647150882764 0 -0.27724699849667023 -0.17157804188827869 0 -0.2930126781551784 -0.15044668515260809 0 -0.27708552823660842 -0.19790031786117671 0 -0.30195969341908391 -0.19078830755985379 0 -0.27724699849667023 -0.17157804188827869 0 -0.30195969341908391 -0.19078830755985379 0 -0.30674796742087651 -0.1684647150882764 0 -0.27724699849667023 -0.17157804188827869 0 -0.25418198431724581 -0.18809916394242601 0 -0.27708552823660842 -0.19790031786117671 0 -0.27724699849667023 -0.17157804188827869 0 -0.25418198431724581 -0.18809916394242601 0 -0.2565438833259911 -0.1687602707777138 0 -0.27724699849667023 -0.17157804188827869 0 -0.2435592126657353 -0.1561425335328199 0 -0.2565438833259911 -0.1687602707777138 0 -0.26683780591716472 -0.14870377212940841 0 -0.27724699849667023 -0.17157804188827869 0 -0.26683780591716472 -0.14870377212940841 0 -0.2930126781551784 -0.15044668515260809 0 -0.2565438833259911 -0.1687602707777138 0 -0.27724699849667023 -0.17157804188827869 0 -0.26683780591716472 -0.14870377212940841 0 -0.2435592126657353 -0.1561425335328199 0 -0.2432602079730701 -0.13485583854350039 0 -0.26683780591716472 -0.14870377212940841 0 -0.2432602079730701 -0.13485583854350039 0 -0.26490928006600228 -0.12397715003998409 0 -0.26683780591716472 -0.14870377212940841 0 -0.26490928006600228 -0.12397715003998409 0 -0.26683780591716472 -0.14870377212940841 0 -0.28428672055728371 -0.13281235115180859 0 -0.28428672055728371 -0.13281235115180859 0 -0.2930126781551784 -0.15044668515260809 0 -0.30877835781368662 -0.12931532841693749 0 -0.26683780591716472 -0.14870377212940841 0 -0.28428672055728371 -0.13281235115180859 0 -0.2930126781551784 -0.15044668515260809 0 -0.2930126781551784 -0.15044668515260809 0 -0.30877835781368662 -0.12931532841693749 0 -0.3206808779707625 -0.15110047818677941 0 -0.2930126781551784 -0.15044668515260809 0 -0.30877835781368662 -0.12931532841693749 0 -0.33570809008837621 -0.11845594114356341 0 -0.30877835781368662 -0.12931532841693749 0 -0.33688620478323589 -0.13358080389391511 0 -0.30877835781368662 -0.12931532841693749 0 -0.3206808779707625 -0.15110047818677941 0 -0.33688620478323589 -0.13358080389391511 0 -0.3206808779707625 -0.15110047818677941 0 -0.33688620478323589 -0.13358080389391511 0 -0.34399943231138669 -0.15408109000358611 0 -0.33688620478323589 -0.13358080389391511 0 -0.35929992868189681 -0.1386942596847188 0 -0.35404294059136687 -0.1217835462641018 0 -0.33688620478323589 -0.13358080389391511 0 -0.35929992868189681 -0.1386942596847188 0 -0.35404294059136687 -0.1217835462641018 0 -0.35929992868189681 -0.1386942596847188 0 -0.37028068739271691 -0.13083580994494901 0 -0.35929992868189681 -0.1386942596847188 0 -0.37028068739271691 -0.13083580994494901 0 -0.3804539816512269 -0.14482329966991631 0 -0.35929992868189681 -0.1386942596847188 0 -0.3804539816512269 -0.14482329966991631 0 -0.35929992868189681 -0.1386942596847188 0 -0.3655172116091886 -0.15688196674787641 0 -0.3804539816512269 -0.14482329966991631 0 -0.3655172116091886 -0.15688196674787641 0 -0.3804539816512269 -0.14482329966991631 0 -0.3655172116091886 -0.15688196674787641 0 -0.37839901512320262 -0.15996290040625341 0 -0.3804539816512269 -0.14482329966991631 0 -0.33688620478323589 -0.13358080389391511 0 -0.35929992868189681 -0.1386942596847188 0 -0.34399943231138669 -0.15408109000358611 0 -0.35929992868189681 -0.1386942596847188 0 -0.34399943231138669 -0.15408109000358611 0 -0.3655172116091886 -0.15688196674787641 0 -0.34399943231138669 -0.15408109000358611 0 -0.35323542112630057 -0.1671812377988513 0 -0.3655172116091886 -0.15688196674787641 0 -0.3655172116091886 -0.15688196674787641 0 -0.37378547386561772 -0.17392500984250869 0 -0.37839901512320262 -0.15996290040625341 0 -0.35323542112630057 -0.1671812377988513 0 -0.3655172116091886 -0.15688196674787641 0 -0.37378547386561772 -0.17392500984250869 0 -0.37378547386561772 -0.17392500984250869 0 -0.35240556330307887 -0.18479875362473361 0 -0.36895563931783232 -0.19259611207654981 0 -0.35323542112630057 -0.1671812377988513 0 -0.37378547386561772 -0.17392500984250869 0 -0.35240556330307887 -0.18479875362473361 0 -0.35323542112630057 -0.1671812377988513 0 -0.35240556330307887 -0.18479875362473361 0 -0.33400288196205857 -0.17193246321376471 0 -0.35240556330307887 -0.18479875362473361 0 -0.33400288196205857 -0.17193246321376471 0 -0.33669316521431608 -0.19324526314955739 0 -0.33400288196205857 -0.17193246321376471 0 -0.32123008678095788 -0.18729232698745699 0 -0.33669316521431608 -0.19324526314955739 0 -0.3206808779707625 -0.15110047818677941 0 -0.34399943231138669 -0.15408109000358611 0 -0.33400288196205857 -0.17193246321376471 0 -0.34399943231138669 -0.15408109000358611 0 -0.35323542112630057 -0.1671812377988513 0 -0.33400288196205857 -0.17193246321376471 0 -0.30674796742087651 -0.1684647150882764 0 -0.3206808779707625 -0.15110047818677941 0 -0.33400288196205857 -0.17193246321376471 0 -0.30674796742087651 -0.1684647150882764 0 -0.33400288196205857 -0.17193246321376471 0 -0.32123008678095788 -0.18729232698745699 0 -0.30195969341908391 -0.19078830755985379 0 -0.32123008678095788 -0.18729232698745699 0 -0.32674672588845421 -0.2120308859258328 0 -0.32674672588845421 -0.2120308859258328 0 -0.35024140450074381 -0.20994798342056251 0 -0.32674672588845421 -0.2120308859258328 0 -0.33669316521431608 -0.19324526314955739 0 -0.35024140450074381 -0.20994798342056251 0 -0.32674672588845421 -0.2120308859258328 0 -0.35024140450074381 -0.20994798342056251 0 -0.3377174746324717 -0.2284461722996495 0 -0.32123008678095788 -0.18729232698745699 0 -0.32674672588845421 -0.2120308859258328 0 -0.33669316521431608 -0.19324526314955739 0 -0.35240556330307887 -0.18479875362473361 0 -0.36895563931783232 -0.19259611207654981 0 -0.35024140450074381 -0.20994798342056251 0 -0.35240556330307887 -0.18479875362473361 0 -0.33669316521431608 -0.19324526314955739 0 -0.35024140450074381 -0.20994798342056251 0 -0.36895563931783232 -0.19259611207654981 0 -0.37373608311303341 -0.20786508091529229 0 -0.35024140450074381 -0.20994798342056251 0 -0.37373608311303341 -0.20786508091529229 0 -0.35024140450074381 -0.20994798342056251 0 -0.37373608311303341 -0.20786508091529229 0 -0.35024140450074381 -0.20994798342056251 0 -0.36602803805366552 -0.21914337572849349 0 -0.37373608311303341 -0.20786508091529229 0 -0.36602803805366552 -0.21914337572849349 0 -0.37785639846487218 -0.21906994256996459 0 -0.35024140450074381 -0.20994798342056251 0 -0.357966965356528 -0.23170644806675769 0 -0.3377174746324717 -0.2284461722996495 0 -0.35024140450074381 -0.20994798342056251 0 -0.357966965356528 -0.23170644806675769 0 -0.36602803805366552 -0.21914337572849349 0 -0.357966965356528 -0.23170644806675769 0 -0.36602803805366552 -0.21914337572849349 0 -0.36983275924353248 -0.22875232439276311 0 -0.36602803805366552 -0.21914337572849349 0 -0.36983275924353248 -0.22875232439276311 0 -0.37785639846487218 -0.21906994256996459 0 -0.357966965356528 -0.23170644806675769 0 -0.36983275924353248 -0.22875232439276311 0 -0.37747963509906429 -0.24508953120583671 0 -0.35872453044413888 -0.25078889886649508 0 -0.357966965356528 -0.23170644806675769 0 -0.37747963509906429 -0.24508953120583671 0 -0.357966965356528 -0.23170644806675769 0 -0.34395992200845399 -0.24382677409400949 0 -0.3377174746324717 -0.2284461722996495 0 -0.35872453044413888 -0.25078889886649508 0 -0.357966965356528 -0.23170644806675769 0 -0.34395992200845399 -0.24382677409400949 0 -0.33345250408021371 -0.25331871279766999 0 -0.34395992200845399 -0.24382677409400949 0 -0.33132333615916232 -0.2411148243472106 0 -0.33345250408021371 -0.25331871279766999 0 -0.33132333615916232 -0.2411148243472106 0 -0.32023222063025569 -0.2489608815952247 0 -0.34395992200845399 -0.24382677409400949 0 -0.33132333615916232 -0.2411148243472106 0 -0.3377174746324717 -0.2284461722996495 0 -0.32674672588845421 -0.2120308859258328 0 -0.3377174746324717 -0.2284461722996495 0 -0.32066485276457768 -0.2334308190911655 0 -0.33132333615916232 -0.2411148243472106 0 -0.3377174746324717 -0.2284461722996495 0 -0.32066485276457768 -0.2334308190911655 0 -0.3004866401015065 -0.2269264896544945 0 -0.32674672588845421 -0.2120308859258328 0 -0.32066485276457768 -0.2334308190911655 0 -0.30748271917561598 -0.2431056607245809 0 -0.32066485276457768 -0.2334308190911655 0 -0.32023222063025569 -0.2489608815952247 0 -0.33132333615916232 -0.2411148243472106 0 -0.32066485276457768 -0.2334308190911655 0 -0.32023222063025569 -0.2489608815952247 0 -0.43445882011373449 -0.25478651907497341 0 -0.43806130733353449 -0.23541812032183559 0 -0.43445882011373449 -0.25478651907497341 0 -0.4258852610480256 -0.24284815888716721 0 -0.43806130733353449 -0.23541812032183559 0 -0.4258852610480256 -0.24284815888716721 0 -0.42538833238501789 -0.2333934851751748 0 -0.41698539980062188 -0.23875950084572559 0 -0.43445882011373449 -0.25478651907497341 0 -0.4258852610480256 -0.24284815888716721 0 -0.42335340856967768 -0.24893549408922019 0 -0.4258852610480256 -0.24284815888716721 0 -0.42538833238501789 -0.2333934851751748 0 -0.43806130733353449 -0.23541812032183559 0 -0.43091611572645672 -0.22699763907763329 0 -0.42538833238501789 -0.2333934851751748 0 -0.43806130733353449 -0.23541812032183559 0 -0.43091611572645672 -0.22699763907763329 0 -0.44166379455333399 -0.21604972156869759 0 -0.43806130733353449 -0.23541812032183559 0 -0.43091611572645672 -0.22699763907763329 0 -0.43133498143110582 -0.21921018883561361 0 -0.44166379455333399 -0.21604972156869759 0 -0.43133498143110582 -0.21921018883561361 0 -0.4232485836513401 -0.22477446532261011 0 -0.4232102070061276 -0.21869015764887889 0 -0.43091611572645672 -0.22699763907763329 0 -0.43133498143110582 -0.21921018883561361 0 -0.4232485836513401 -0.22477446532261011 0 -0.43091611572645672 -0.22699763907763329 0 -0.4232485836513401 -0.22477446532261011 0 -0.42538833238501789 -0.2333934851751748 0 -0.4232485836513401 -0.22477446532261011 0 -0.42538833238501789 -0.2333934851751748 0 -0.41731365953457839 -0.2310953018814938 0 -0.4232485836513401 -0.22477446532261011 0 -0.41731365953457839 -0.2310953018814938 0 -0.4121948509493269 -0.2247325638453028 0 -0.41731365953457839 -0.2310953018814938 0 -0.4080561583250083 -0.23272886934204159 0 -0.41698539980062188 -0.23875950084572559 0 -0.4232485836513401 -0.22477446532261011 0 -0.4121948509493269 -0.2247325638453028 0 -0.41685681033243982 -0.21746512418924929 0 -0.4232485836513401 -0.22477446532261011 0 -0.41685681033243982 -0.21746512418924929 0 -0.4232102070061276 -0.21869015764887889 0 -0.4121948509493269 -0.2247325638453028 0 -0.4080561583250083 -0.23272886934204159 0 -0.39971520205611372 -0.2221352637332015 0 -0.4121948509493269 -0.2247325638453028 0 -0.40807454407470489 -0.21592977391801271 0 -0.41685681033243982 -0.21746512418924929 0 -0.4121948509493269 -0.2247325638453028 0 -0.39971520205611372 -0.2221352637332015 0 -0.40807454407470489 -0.21592977391801271 0 -0.41731365953457839 -0.2310953018814938 0 -0.4121948509493269 -0.2247325638453028 0 -0.4080561583250083 -0.23272886934204159 0 -0.4080561583250083 -0.23272886934204159 0 -0.40983148527785651 -0.24118391776602099 0 -0.41698539980062188 -0.23875950084572559 0 -0.42538833238501789 -0.2333934851751748 0 -0.41731365953457839 -0.2310953018814938 0 -0.41698539980062188 -0.23875950084572559 0 -0.40983148527785651 -0.24118391776602099 0 -0.41698539980062188 -0.23875950084572559 0 -0.41627810448972868 -0.24641300060905449 0 -0.4258852610480256 -0.24284815888716721 0 -0.42335340856967768 -0.24893549408922019 0 -0.41627810448972868 -0.24641300060905449 0 -0.4258852610480256 -0.24284815888716721 0 -0.41698539980062188 -0.23875950084572559 0 -0.41627810448972868 -0.24641300060905449 0 -0.41679144862722167 -0.25169429778568547 0 -0.42335340856967768 -0.24893549408922019 0 -0.41627810448972868 -0.24641300060905449 0 -0.41385673751816382 -0.25312989710486528 0 -0.41627810448972868 -0.24641300060905449 0 -0.4086566941719203 -0.24778871483445111 0 -0.40983148527785651 -0.24118391776602099 0 -0.41627810448972868 -0.24641300060905449 0 -0.4086566941719203 -0.24778871483445111 0 -0.40282532782868952 -0.25224285689579767 0 -0.4086566941719203 -0.24778871483445111 0 -0.40022281387448849 -0.24084313907701979 0 -0.40983148527785651 -0.24118391776602099 0 -0.4086566941719203 -0.24778871483445111 0 -0.40022281387448849 -0.24084313907701979 0 -0.4080561583250083 -0.23272886934204159 0 -0.40983148527785651 -0.24118391776602099 0 -0.40022281387448849 -0.24084313907701979 0 -0.40022281387448849 -0.24084313907701979 0 -0.3903832871219331 -0.2411545733314838 0 -0.38772777019650018 -0.2315142496456449 0 -0.3938256931015453 -0.25037754026629511 0 -0.40022281387448849 -0.24084313907701979 0 -0.3903832871219331 -0.2411545733314838 0 -0.3938256931015453 -0.25037754026629511 0 -0.3903832871219331 -0.2411545733314838 0 -0.37747963509906429 -0.24508953120583671 0 -0.3903832871219331 -0.2411545733314838 0 -0.37747963509906429 -0.24508953120583671 0 -0.38772777019650018 -0.2315142496456449 0 -0.37747963509906429 -0.24508953120583671 0 -0.37785639846487218 -0.21906994256996459 0 -0.37747963509906429 -0.24508953120583671 0 -0.37785639846487218 -0.21906994256996459 0 -0.38772777019650018 -0.2315142496456449 0 -0.36983275924353248 -0.22875232439276311 0 -0.37747963509906429 -0.24508953120583671 0 -0.37785639846487218 -0.21906994256996459 0 -0.37785639846487218 -0.21906994256996459 0 -0.38772777019650018 -0.2315142496456449 0 -0.38790285805175961 -0.2167146319195192 0 -0.4080561583250083 -0.23272886934204159 0 -0.40022281387448849 -0.24084313907701979 0 -0.39971520205611372 -0.2221352637332015 0 -0.40022281387448849 -0.24084313907701979 0 -0.39971520205611372 -0.2221352637332015 0 -0.38772777019650018 -0.2315142496456449 0 -0.39971520205611372 -0.2221352637332015 0 -0.38790285805175961 -0.2167146319195192 0 -0.40022281387448849 -0.24084313907701979 0 -0.38772777019650018 -0.2315142496456449 0 -0.39971520205611372 -0.2221352637332015 0 -0.39971520205611372 -0.2221352637332015 0 -0.39723076172532301 -0.205782178410022 0 -0.40807454407470489 -0.21592977391801271 0 -0.39971520205611372 -0.2221352637332015 0 -0.39723076172532301 -0.205782178410022 0 -0.38790285805175961 -0.2167146319195192 0 -0.39723076172532301 -0.205782178410022 0 -0.41303892827123678 -0.21093405469715851 0 -0.40807454407470489 -0.21592977391801271 0 -0.37373608311303341 -0.20786508091529229 0 -0.39723076172532301 -0.205782178410022 0 -0.38370630256805799 -0.1971119561512929 0 -0.37373608311303341 -0.20786508091529229 0 -0.39723076172532301 -0.205782178410022 0 -0.38790285805175961 -0.2167146319195192 0 -0.37373608311303341 -0.20786508091529229 0 -0.39723076172532301 -0.205782178410022 0 -0.37373608311303341 -0.20786508091529229 0 -0.37785639846487218 -0.21906994256996459 0 -0.38790285805175961 -0.2167146319195192 0 -0.36895563931783232 -0.19259611207654981 0 -0.38370630256805799 -0.1971119561512929 0 -0.3831693110633177 -0.1873742460103984 0 -0.36895563931783232 -0.19259611207654981 0 -0.37373608311303341 -0.20786508091529229 0 -0.38370630256805799 -0.1971119561512929 0 -0.38370630256805799 -0.1971119561512929 0 -0.39543971762078378 -0.19194216334420211 0 -0.3831693110633177 -0.1873742460103984 0 -0.39723076172532301 -0.205782178410022 0 -0.38370630256805799 -0.1971119561512929 0 -0.39543971762078378 -0.19194216334420211 0 -0.39723076172532301 -0.205782178410022 0 -0.39543971762078378 -0.19194216334420211 0 -0.40534117689708921 -0.19634387975323889 0 -0.39543971762078378 -0.19194216334420211 0 -0.40534117689708921 -0.19634387975323889 0 -0.40730162077548249 -0.18407395049314179 0 -0.39723076172532301 -0.205782178410022 0 -0.40534117689708921 -0.19634387975323889 0 -0.42072544033761272 -0.20369927590475301 0 -0.42032122747045741 -0.1927313373696285 0 -0.42072544033761272 -0.20369927590475301 0 -0.40730162077548249 -0.18407395049314179 0 -0.42072544033761272 -0.20369927590475301 0 -0.40730162077548249 -0.18407395049314179 0 -0.40534117689708921 -0.19634387975323889 0 -0.42072544033761272 -0.20369927590475301 0 -0.40730162077548249 -0.18407395049314179 0 -0.39723076172532301 -0.205782178410022 0 -0.41303892827123678 -0.21093405469715851 0 -0.42072544033761272 -0.20369927590475301 0 -0.39723076172532301 -0.205782178410022 0 -0.42072544033761272 -0.20369927590475301 0 -0.41303892827123678 -0.21093405469715851 0 -0.40807454407470489 -0.21592977391801271 0 -0.41685681033243982 -0.21746512418924929 0 -0.41303892827123678 -0.21093405469715851 0 -0.41685681033243982 -0.21746512418924929 0 -0.42140045260962489 -0.21331085224804261 0 -0.41685681033243982 -0.21746512418924929 0 -0.42140045260962489 -0.21331085224804261 0 -0.4232102070061276 -0.21869015764887889 0 -0.41303892827123678 -0.21093405469715851 0 -0.42140045260962489 -0.21331085224804261 0 -0.42072544033761272 -0.20369927590475301 0 -0.42512182626149492 -0.2033095177213731 0 -0.43378961613155448 -0.20908682079381441 0 -0.44184138868315109 -0.20247798044170351 0 -0.42072544033761272 -0.20369927590475301 0 -0.42512182626149492 -0.2033095177213731 0 -0.43133498143110582 -0.21921018883561361 0 -0.42072544033761272 -0.20369927590475301 0 -0.42512182626149492 -0.2033095177213731 0 -0.43133498143110582 -0.21921018883561361 0 -0.42512182626149492 -0.2033095177213731 0 -0.43378961613155448 -0.20908682079381441 0 -0.43133498143110582 -0.21921018883561361 0 -0.42140045260962489 -0.21331085224804261 0 -0.4232102070061276 -0.21869015764887889 0 -0.43133498143110582 -0.21921018883561361 0 -0.42072544033761272 -0.20369927590475301 0 -0.43133498143110582 -0.21921018883561361 0 -0.42140045260962489 -0.21331085224804261 0 -0.42072544033761272 -0.20369927590475301 0 -0.43133498143110582 -0.21921018883561361 0 -0.43378961613155448 -0.20908682079381441 0 -0.44166379455333399 -0.21604972156869759 0 -0.42032122747045741 -0.1927313373696285 0 -0.44184138868315109 -0.20247798044170351 0 -0.42032122747045741 -0.1927313373696285 0 -0.43099962817645188 -0.18319011649723049 0 -0.43833565968517207 -0.19112957676178299 0 -0.42032122747045741 -0.1927313373696285 0 -0.42512182626149492 -0.2033095177213731 0 -0.44184138868315109 -0.20247798044170351 0 -0.42032122747045741 -0.1927313373696285 0 -0.43833565968517207 -0.19112957676178299 0 -0.44184138868315109 -0.20247798044170351 0 -0.42032122747045741 -0.1927313373696285 0 -0.42072544033761272 -0.20369927590475301 0 -0.42512182626149492 -0.2033095177213731 0 -0.42549584187692119 -0.17333418479170171 0 -0.43099962817645188 -0.18319011649723049 0 -0.41834400919125792 -0.18158621355319651 0 -0.42032122747045741 -0.1927313373696285 0 -0.43099962817645188 -0.18319011649723049 0 -0.41834400919125792 -0.18158621355319651 0 -0.43099962817645188 -0.18319011649723049 0 -0.43495901877196291 -0.17485617288990979 0 -0.44455133712372419 -0.18300714728765441 0 -0.42549584187692119 -0.17333418479170171 0 -0.43099962817645188 -0.18319011649723049 0 -0.43495901877196291 -0.17485617288990979 0 -0.42549584187692119 -0.17333418479170171 0 -0.43495901877196291 -0.17485617288990979 0 -0.43155613508544272 -0.1669321437644439 0 -0.43495901877196291 -0.17485617288990979 0 -0.43155613508544272 -0.1669321437644439 0 -0.44219215159727421 -0.16781727210851849 0 -0.43155613508544272 -0.1669321437644439 0 -0.43166640735559808 -0.1552039120346444 0 -0.44219215159727421 -0.16781727210851849 0 -0.43155613508544272 -0.1669321437644439 0 -0.4214232379976206 -0.16216052115063159 0 -0.43166640735559808 -0.1552039120346444 0 -0.42549584187692119 -0.17333418479170171 0 -0.43155613508544272 -0.1669321437644439 0 -0.4214232379976206 -0.16216052115063159 0 -0.42549584187692119 -0.17333418479170171 0 -0.4214232379976206 -0.16216052115063159 0 -0.41110577652129249 -0.1670682470007229 0 -0.4214232379976206 -0.16216052115063159 0 -0.41110577652129249 -0.1670682470007229 0 -0.40669002996807779 -0.1495058137550834 0 -0.41110577652129249 -0.1670682470007229 0 -0.41834400919125792 -0.18158621355319651 0 -0.40730162077548249 -0.18407395049314179 0 -0.42549584187692119 -0.17333418479170171 0 -0.41110577652129249 -0.1670682470007229 0 -0.41834400919125792 -0.18158621355319651 0 -0.42032122747045741 -0.1927313373696285 0 -0.41834400919125792 -0.18158621355319651 0 -0.40730162077548249 -0.18407395049314179 0 -0.39543971762078378 -0.19194216334420211 0 -0.40730162077548249 -0.18407395049314179 0 -0.39267839793348491 -0.17927693187167279 0 -0.40730162077548249 -0.18407395049314179 0 -0.39267839793348491 -0.17927693187167279 0 -0.39387780121335469 -0.16444862508152899 0 -0.40730162077548249 -0.18407395049314179 0 -0.39387780121335469 -0.16444862508152899 0 -0.37378547386561772 -0.17392500984250869 0 -0.36895563931783232 -0.19259611207654981 0 -0.3831693110633177 -0.1873742460103984 0 -0.37378547386561772 -0.17392500984250869 0 -0.39267839793348491 -0.17927693187167279 0 -0.3831693110633177 -0.1873742460103984 0 -0.37378547386561772 -0.17392500984250869 0 -0.39267839793348491 -0.17927693187167279 0 -0.39387780121335469 -0.16444862508152899 0 -0.39543971762078378 -0.19194216334420211 0 -0.39267839793348491 -0.17927693187167279 0 -0.3831693110633177 -0.1873742460103984 0 -0.37378547386561772 -0.17392500984250869 0 -0.37839901512320262 -0.15996290040625341 0 -0.39387780121335469 -0.16444862508152899 0 -0.37839901512320262 -0.15996290040625341 0 -0.39387780121335469 -0.16444862508152899 0 -0.3804539816512269 -0.14482329966991631 0 -0.41110577652129249 -0.1670682470007229 0 -0.39387780121335469 -0.16444862508152899 0 -0.40669002996807779 -0.1495058137550834 0 -0.41110577652129249 -0.1670682470007229 0 -0.40730162077548249 -0.18407395049314179 0 -0.39387780121335469 -0.16444862508152899 0 -0.39387780121335469 -0.16444862508152899 0 -0.3804539816512269 -0.14482329966991631 0 -0.40669002996807779 -0.1495058137550834 0 -0.3804539816512269 -0.14482329966991631 0 -0.39647179587780151 -0.13189450107720049 0 -0.40669002996807779 -0.1495058137550834 0 -0.3804539816512269 -0.14482329966991631 0 -0.40669002996807779 -0.1495058137550834 0 -0.39387780121335469 -0.16444862508152899 0 -0.3804539816512269 -0.14482329966991631 0 -0.3804539816512269 -0.14482329966991631 0 -0.38278168804071749 -0.12940228238898679 0 -0.39647179587780151 -0.13189450107720049 0 -0.3804539816512269 -0.14482329966991631 0 -0.39647179587780151 -0.13189450107720049 0 -0.37212838853434238 -0.11808059788504249 0 -0.37028068739271691 -0.13083580994494901 0 -0.38278168804071749 -0.12940228238898679 0 -0.37028068739271691 -0.13083580994494901 0 -0.3804539816512269 -0.14482329966991631 0 -0.38278168804071749 -0.12940228238898679 0 -0.38278168804071749 -0.12940228238898679 0 -0.39647179587780151 -0.13189450107720049 0 -0.39044023874876249 -0.11757149150947201 0 -0.39647179587780151 -0.13189450107720049 0 -0.40828286160401828 -0.1310364195873514 0 -0.40669002996807779 -0.1495058137550834 0 -0.39647179587780151 -0.13189450107720049 0 -0.40828286160401828 -0.1310364195873514 0 -0.41122993917504558 -0.1199812866788818 0 -0.39647179587780151 -0.13189450107720049 0 -0.41122993917504558 -0.1199812866788818 0 -0.40828286160401828 -0.1310364195873514 0 -0.41930562378398423 -0.12797048681614909 0 -0.41122993917504558 -0.1199812866788818 0 -0.41930562378398423 -0.12797048681614909 0 -0.41533589961201212 -0.13938201891822019 0 -0.4273858072007774 -0.14414008567558009 0 -0.40828286160401828 -0.1310364195873514 0 -0.41533589961201212 -0.13938201891822019 0 -0.40669002996807779 -0.1495058137550834 0 -0.40828286160401828 -0.1310364195873514 0 -0.41930562378398423 -0.12797048681614909 0 -0.41533589961201212 -0.13938201891822019 0 -0.40669002996807779 -0.1495058137550834 0 -0.43166640735559808 -0.1552039120346444 0 -0.4214232379976206 -0.16216052115063159 0 -0.40669002996807779 -0.1495058137550834 0 -0.43166640735559808 -0.1552039120346444 0 -0.41533589961201212 -0.13938201891822019 0 -0.40669002996807779 -0.1495058137550834 0 -0.4273858072007774 -0.14414008567558009 0 -0.40669002996807779 -0.1495058137550834 0 -0.4273858072007774 -0.14414008567558009 0 -0.43166640735559808 -0.1552039120346444 0 -0.43166640735559808 -0.1552039120346444 0 -0.43525592456887258 -0.14374997194848471 0 -0.44410307239699631 -0.15282998285397989 0 -0.4273858072007774 -0.14414008567558009 0 -0.43166640735559808 -0.1552039120346444 0 -0.43525592456887258 -0.14374997194848471 0 -0.41930562378398423 -0.12797048681614909 0 -0.43525592456887258 -0.14374997194848471 0 -0.41930562378398423 -0.12797048681614909 0 -0.4273858072007774 -0.14414008567558009 0 -0.43525592456887258 -0.14374997194848471 0 -0.41930562378398423 -0.12797048681614909 0 -0.4273858072007774 -0.14414008567558009 0 -0.41930562378398423 -0.12797048681614909 0 -0.43525592456887258 -0.14374997194848471 0 -0.43389101300267191 -0.13422730327376839 0 -0.41930562378398423 -0.12797048681614909 0 -0.43389101300267191 -0.13422730327376839 0 -0.4149348530849476 -0.1169905694289516 0 -0.43389101300267191 -0.13422730327376839 0 -0.4149348530849476 -0.1169905694289516 0 -0.43389101300267191 -0.13422730327376839 0 -0.43160182387889101 -0.1187955019330571 0 -0.44085253015216358 -0.1237950587173612 0 -0.43389101300267191 -0.13422730327376839 0 -0.44872577578551592 -0.13320174295465559 0 -0.452847172920396 -0.1514640371185853 0 -0.44872577578551592 -0.13320174295465559 0 -0.45896755277767909 -0.12575633132281341 0 -0.45000974795797011 -0.119430952696417 0 -0.44872577578551592 -0.13320174295465559 0 -0.45000974795797011 -0.119430952696417 0 -0.44085253015216358 -0.1237950587173612 0 -0.43389101300267191 -0.13422730327376839 0 -0.44872577578551592 -0.13320174295465559 0 -0.44085253015216358 -0.1237950587173612 0 -0.43525592456887258 -0.14374997194848471 0 -0.43389101300267191 -0.13422730327376839 0 -0.452847172920396 -0.1514640371185853 0 -0.43525592456887258 -0.14374997194848471 0 -0.44410307239699631 -0.15282998285397989 0 -0.452847172920396 -0.1514640371185853 0 -0.44872577578551592 -0.13320174295465559 0 -0.452847172920396 -0.1514640371185853 0 -0.456386085566235 -0.14096643446963419 0 -0.43389101300267191 -0.13422730327376839 0 -0.452847172920396 -0.1514640371185853 0 -0.44410307239699631 -0.15282998285397989 0 -0.452847172920396 -0.1514640371185853 0 -0.45664278474311831 -0.16090201031420531 0 -0.452847172920396 -0.1514640371185853 0 -0.456386085566235 -0.14096643446963419 0 -0.46738274896045578 -0.15003021006820461 0 -0.452847172920396 -0.1514640371185853 0 -0.46738274896045578 -0.15003021006820461 0 -0.45664278474311831 -0.16090201031420531 0 -0.456386085566235 -0.14096643446963419 0 -0.46738274896045578 -0.15003021006820461 0 -0.47200539146090159 -0.13839174763128981 0 -0.456386085566235 -0.14096643446963419 0 -0.47200539146090159 -0.13839174763128981 0 -0.47750202174635031 -0.1215216316744509 0 -0.456386085566235 -0.14096643446963419 0 -0.45896755277767909 -0.12575633132281341 0 -0.47750202174635031 -0.1215216316744509 0 -0.456386085566235 -0.14096643446963419 0 -0.47750202174635031 -0.1215216316744509 0 -0.44872577578551592 -0.13320174295465559 0 -0.456386085566235 -0.14096643446963419 0 -0.45896755277767909 -0.12575633132281341 0 -0.47200539146090159 -0.13839174763128981 0 -0.48675070957056549 -0.14104871431286931 0 -0.47750202174635031 -0.1215216316744509 0 -0.50000000000000011 -0.12648838757554831 0 -0.48675070957056549 -0.14104871431286931 0 -0.5 -0.15043640832747529 0 -0.50000000000000011 -0.12648838757554831 0 -0.48675070957056549 -0.14104871431286931 0 -0.47750202174635031 -0.1215216316744509 0 -0.48675070957056549 -0.14104871431286931 0 -0.5 -0.15043640832747529 0 -0.48062174440056549 -0.15969986187448909 0 -0.46738274896045578 -0.15003021006820461 0 -0.47200539146090159 -0.13839174763128981 0 -0.48675070957056549 -0.14104871431286931 0 -0.48675070957056549 -0.14104871431286931 0 -0.48062174440056549 -0.15969986187448909 0 -0.46738274896045578 -0.15003021006820461 0 -0.48675070957056549 -0.14104871431286931 0 -0.48062174440056549 -0.15969986187448909 0 -0.48062174440056549 -0.15969986187448909 0 -0.46548313673471758 -0.16971310035941381 0 -0.46753260370971428 -0.1600862956540782 0 -0.46738274896045578 -0.15003021006820461 0 -0.48062174440056549 -0.15969986187448909 0 -0.46753260370971428 -0.1600862956540782 0 -0.48062174440056549 -0.15969986187448909 0 -0.47449277923056221 -0.17835100943610771 0 -0.46548313673471758 -0.16971310035941381 0 -0.48062174440056549 -0.15969986187448909 0 -0.47449277923056221 -0.17835100943610771 0 -0.5 -0.15043640832747529 0 -0.48062174440056549 -0.15969986187448909 0 -0.49999999999999828 -0.17438442907940241 0 -0.48062174440056549 -0.15969986187448909 0 -0.49999999999999828 -0.17438442907940241 0 -0.47449277923056221 -0.17835100943610771 0 -0.49999999999999828 -0.17438442907940241 0 -0.47449277923056221 -0.17835100943610771 0 -0.49999999999999828 -0.17438442907940241 0 -0.47449277923056221 -0.17835100943610771 0 -0.48549376880548989 -0.19132810400505559 0 -0.47449277923056221 -0.17835100943610771 0 -0.46892716456320649 -0.19528781647494389 0 -0.47449277923056221 -0.17835100943610771 0 -0.45952205817714309 -0.18067907836188021 0 -0.46892716456320649 -0.19528781647494389 0 -0.45952205817714309 -0.18067907836188021 0 -0.46548313673471758 -0.16971310035941381 0 -0.45289664290439807 -0.17180374819378549 0 -0.47449277923056221 -0.17835100943610771 0 -0.45952205817714309 -0.18067907836188021 0 -0.47449277923056221 -0.17835100943610771 0 -0.45952205817714309 -0.18067907836188021 0 -0.46548313673471758 -0.16971310035941381 0 -0.46548313673471758 -0.16971310035941381 0 -0.46753260370971428 -0.1600862956540782 0 -0.45664278474311831 -0.16090201031420531 0 -0.46738274896045578 -0.15003021006820461 0 -0.46753260370971428 -0.1600862956540782 0 -0.45664278474311831 -0.16090201031420531 0 -0.46548313673471758 -0.16971310035941381 0 -0.45664278474311831 -0.16090201031420531 0 -0.45289664290439807 -0.17180374819378549 0 -0.45664278474311831 -0.16090201031420531 0 -0.45289664290439807 -0.17180374819378549 0 -0.44219215159727421 -0.16781727210851849 0 -0.43166640735559808 -0.1552039120346444 0 -0.45664278474311831 -0.16090201031420531 0 -0.44219215159727421 -0.16781727210851849 0 -0.43166640735559808 -0.1552039120346444 0 -0.45664278474311831 -0.16090201031420531 0 -0.43166640735559808 -0.1552039120346444 0 -0.44410307239699631 -0.15282998285397989 0 -0.45664278474311831 -0.16090201031420531 0 -0.43495901877196291 -0.17485617288990979 0 -0.44219215159727421 -0.16781727210851849 0 -0.44455133712372419 -0.18300714728765441 0 -0.43099962817645188 -0.18319011649723049 0 -0.44455133712372419 -0.18300714728765441 0 -0.43833565968517207 -0.19112957676178299 0 -0.45952205817714309 -0.18067907836188021 0 -0.44455133712372419 -0.18300714728765441 0 -0.45396471697207569 -0.194241302212698 0 -0.45952205817714309 -0.18067907836188021 0 -0.44455133712372419 -0.18300714728765441 0 -0.45952205817714309 -0.18067907836188021 0 -0.45289664290439807 -0.17180374819378549 0 -0.44455133712372419 -0.18300714728765441 0 -0.45289664290439807 -0.17180374819378549 0 -0.44219215159727421 -0.16781727210851849 0 -0.44455133712372419 -0.18300714728765441 0 -0.44455133712372419 -0.18300714728765441 0 -0.43833565968517207 -0.19112957676178299 0 -0.45396471697207569 -0.194241302212698 0 -0.43833565968517207 -0.19112957676178299 0 -0.44184138868315109 -0.20247798044170351 0 -0.45396471697207569 -0.194241302212698 0 -0.44184138868315109 -0.20247798044170351 0 -0.46336154989584488 -0.2122246235137781 0 -0.45396471697207569 -0.194241302212698 0 -0.44184138868315109 -0.20247798044170351 0 -0.46336154989584488 -0.2122246235137781 0 -0.45338394269579491 -0.2190794284651259 0 -0.43378961613155448 -0.20908682079381441 0 -0.44184138868315109 -0.20247798044170351 0 -0.44166379455333399 -0.21604972156869759 0 -0.44184138868315109 -0.20247798044170351 0 -0.44166379455333399 -0.21604972156869759 0 -0.45338394269579491 -0.2190794284651259 0 -0.44184138868315109 -0.20247798044170351 0 -0.46336154989584488 -0.2122246235137781 0 -0.46336154989584488 -0.2122246235137781 0 -0.46892716456320649 -0.19528781647494389 0 -0.46336154989584488 -0.2122246235137781 0 -0.45396471697207569 -0.194241302212698 0 -0.46892716456320649 -0.19528781647494389 0 -0.45952205817714309 -0.18067907836188021 0 -0.45396471697207569 -0.194241302212698 0 -0.46892716456320649 -0.19528781647494389 0 -0.47449277923056221 -0.17835100943610771 0 -0.46892716456320649 -0.19528781647494389 0 -0.48549376880548989 -0.19132810400505559 0 -0.46892716456320649 -0.19528781647494389 0 -0.48549376880548989 -0.19132810400505559 0 -0.47978640147694102 -0.20418872613165631 0 -0.5 -0.20182215567114031 0 -0.48549376880548989 -0.19132810400505559 0 -0.47978640147694102 -0.20418872613165631 0 -0.49999999999999828 -0.17438442907940241 0 -0.5 -0.20182215567114031 0 -0.48549376880548989 -0.19132810400505559 0 -0.5 -0.20182215567114031 0 -0.48114952412016337 -0.22028093099336349 0 -0.49893749834448198 -0.22833723847294871 0 -0.5 -0.20182215567114031 0 -0.47978640147694102 -0.20418872613165631 0 -0.48114952412016337 -0.22028093099336349 0 -0.46336154989584488 -0.2122246235137781 0 -0.48114952412016337 -0.22028093099336349 0 -0.46336154989584488 -0.2122246235137781 0 -0.47978640147694102 -0.20418872613165631 0 -0.48114952412016337 -0.22028093099336349 0 -0.46336154989584488 -0.2122246235137781 0 -0.46892716456320649 -0.19528781647494389 0 -0.47978640147694102 -0.20418872613165631 0 -0.46336154989584488 -0.2122246235137781 0 -0.48114952412016337 -0.22028093099336349 0 -0.46857810181099829 -0.22486784275082261 0 -0.48114952412016337 -0.22028093099336349 0 -0.48798868478634799 -0.231470988200419 0 -0.47142395938804471 -0.23802335247430181 0 -0.48114952412016337 -0.22028093099336349 0 -0.47142395938804471 -0.23802335247430181 0 -0.46857810181099829 -0.22486784275082261 0 -0.48114952412016337 -0.22028093099336349 0 -0.48798868478634799 -0.231470988200419 0 -0.49893749834448198 -0.22833723847294871 0 -0.48114952412016337 -0.22028093099336349 0 -0.49893749834448198 -0.22833723847294871 0 -0.48798868478634799 -0.231470988200419 0 -0.49893749834448198 -0.22833723847294871 0 -0.4875835208682564 -0.24248539692068891 0 -0.5 -0.25669760885461612 0 -0.49893749834448198 -0.22833723847294871 0 -0.4875835208682564 -0.24248539692068891 0 -0.48798868478634799 -0.231470988200419 0 -0.4875835208682564 -0.24248539692068891 0 -0.47142395938804471 -0.23802335247430181 0 -0.47878778985378329 -0.25835102983948688 0 -0.4875835208682564 -0.24248539692068891 0 -0.47142395938804471 -0.23802335247430181 0 -0.45662330498375908 -0.25656877445722759 0 -0.47142395938804471 -0.23802335247430181 0 -0.45034617445999431 -0.24335722649563979 0 -0.47142395938804471 -0.23802335247430181 0 -0.45735065046854989 -0.23051648340969341 0 -0.45034617445999431 -0.24335722649563979 0 -0.46336154989584488 -0.2122246235137781 0 -0.46857810181099829 -0.22486784275082261 0 -0.45735065046854989 -0.23051648340969341 0 -0.46336154989584488 -0.2122246235137781 0 -0.45735065046854989 -0.23051648340969341 0 -0.47142395938804471 -0.23802335247430181 0 -0.46857810181099829 -0.22486784275082261 0 -0.45735065046854989 -0.23051648340969341 0 -0.46336154989584488 -0.2122246235137781 0 -0.45338394269579491 -0.2190794284651259 0 -0.45735065046854989 -0.23051648340969341 0 -0.45338394269579491 -0.2190794284651259 0 -0.45735065046854989 -0.23051648340969341 0 -0.43806130733353449 -0.23541812032183559 0 -0.44166379455333399 -0.21604972156869759 0 -0.43806130733353449 -0.23541812032183559 0 -0.44166379455333399 -0.21604972156869759 0 -0.45338394269579491 -0.2190794284651259 0 -0.43806130733353449 -0.23541812032183559 0 -0.45735065046854989 -0.23051648340969341 0 -0.45034617445999431 -0.24335722649563979 0 -0.43806130733353449 -0.23541812032183559 0 -0.43445882011373449 -0.25478651907497341 0 -0.45034617445999431 -0.24335722649563979 0 -0.43806130733353449 -0.23541812032183559 0 -0.41324955929443102 -0.038374170610562031 0 -0.41005136228565903 -0.05540387285823338 0 -0.42435348212729052 -0.04457483879584373 0 -0.41324955929443102 -0.038374170610562031 0 -0.41005136228565903 -0.05540387285823338 0 -0.39900851660089293 -0.046429079601448257 0 -0.41324955929443102 -0.038374170610562031 0 -0.40747857107326091 -0.02424585309778798 0 -0.40045416304880688 -0.034240371911693122 0 -0.41005136228565903 -0.05540387285823338 0 -0.4246600563061857 -0.059067830999859447 0 -0.41422906440869389 -0.068128229862373102 0 -0.41005136228565903 -0.05540387285823338 0 -0.4246600563061857 -0.059067830999859447 0 -0.42435348212729052 -0.04457483879584373 0 -0.4246600563061857 -0.059067830999859447 0 -0.42435348212729052 -0.04457483879584373 0 -0.43957367317472601 -0.045089571971719818 0 -0.4246600563061857 -0.059067830999859447 0 -0.43957367317472601 -0.045089571971719818 0 -0.44544580640037118 -0.056213229689383748 0 -0.41324955929443102 -0.038374170610562031 0 -0.42435348212729052 -0.04457483879584373 0 -0.42981912379901888 -0.030443092666165631 0 -0.42435348212729052 -0.04457483879584373 0 -0.42981912379901888 -0.030443092666165631 0 -0.43957367317472601 -0.045089571971719818 0 -0.41302196833726168 -0.01226972299954816 0 -0.4392085005598273 -0.024676348383282701 0 -0.42659341977192161 -0.010103830507352861 0 -0.41302196833726168 -0.01226972299954816 0 -0.4392085005598273 -0.024676348383282701 0 -0.42981912379901888 -0.030443092666165631 0 -0.41673372021425997 -0.022240754673565791 0 -0.4392085005598273 -0.024676348383282701 0 -0.41302196833726168 -0.01226972299954816 0 -0.41673372021425997 -0.022240754673565791 0 -0.4392085005598273 -0.024676348383282701 0 -0.43741768347029059 -0.01288367903972009 0 -0.42659341977192161 -0.010103830507352861 0 -0.4392085005598273 -0.024676348383282701 0 -0.4441818909265971 -0.00998157505946092 0 -0.42578104856505677 0.0031949168855625672 0 -0.43741768347029059 -0.01288367903972009 0 -0.4441818909265971 -0.00998157505946092 0 -0.42578104856505677 0.0031949168855625672 0 -0.43741768347029059 -0.01288367903972009 0 -0.42659341977192161 -0.010103830507352861 0 -0.42578104856505677 0.0031949168855625672 0 -0.43741768347029059 -0.01288367903972009 0 -0.42578104856505677 0.0031949168855625672 0 -0.42659341977192161 -0.010103830507352861 0 -0.41753789792717189 -0.0038843189997757009 0 -0.42578104856505677 0.0031949168855625672 0 -0.42659341977192161 -0.010103830507352861 0 -0.41753789792717189 -0.0038843189997757009 0 -0.41302196833726168 -0.01226972299954816 0 -0.41753789792717189 -0.0038843189997757009 0 -0.41302196833726168 -0.01226972299954816 0 -0.40771050441737638 -0.0035262849216432719 0 -0.41753789792717189 -0.0038843189997757009 0 -0.40771050441737638 -0.0035262849216432719 0 -0.41105156913745711 0.0034129409419674369 0 -0.42981912379901888 -0.030443092666165631 0 -0.40747857107326091 -0.02424585309778798 0 -0.41324955929443102 -0.038374170610562031 0 -0.42981912379901888 -0.030443092666165631 0 -0.40747857107326091 -0.02424585309778798 0 -0.42981912379901888 -0.030443092666165631 0 -0.41673372021425997 -0.022240754673565791 0 -0.40747857107326091 -0.02424585309778798 0 -0.41302196833726168 -0.01226972299954816 0 -0.41673372021425997 -0.022240754673565791 0 -0.40747857107326091 -0.02424585309778798 0 -0.41673372021425997 -0.022240754673565791 0 -0.40747857107326091 -0.02424585309778798 0 -0.40747857107326091 -0.02424585309778798 0 -0.38992317137517202 -0.02804917422583518 0 -0.40747857107326091 -0.02424585309778798 0 -0.38992317137517202 -0.02804917422583518 0 -0.38297625517291389 -0.017448943304264108 0 -0.40747857107326091 -0.02424585309778798 0 -0.38992317137517202 -0.02804917422583518 0 -0.40045416304880688 -0.034240371911693122 0 -0.40747857107326091 -0.02424585309778798 0 -0.39567459441968961 -0.012635194689989219 0 -0.38297625517291389 -0.017448943304264108 0 -0.40747857107326091 -0.02424585309778798 0 -0.38297625517291389 -0.017448943304264108 0 -0.41302196833726168 -0.01226972299954816 0 -0.40747857107326091 -0.02424585309778798 0 -0.39567459441968961 -0.012635194689989219 0 -0.41302196833726168 -0.01226972299954816 0 -0.40771050441737638 -0.0035262849216432719 0 -0.38683543611469601 0.0001369023841863784 0 -0.41302196833726168 -0.01226972299954816 0 -0.39567459441968961 -0.012635194689989219 0 -0.38683543611469601 0.0001369023841863784 0 -0.41302196833726168 -0.01226972299954816 0 -0.38683543611469601 0.0001369023841863784 0 -0.40771050441737638 -0.0035262849216432719 0 -0.38683543611469601 0.0001369023841863784 0 -0.40226596945639398 0.0014711925349297271 0 -0.39567459441968961 -0.012635194689989219 0 -0.38502252263107412 -0.0084426060797158468 0 -0.38683543611469601 0.0001369023841863784 0 -0.39567459441968961 -0.012635194689989219 0 -0.38502252263107412 -0.0084426060797158468 0 -0.38297625517291389 -0.017448943304264108 0 -0.38502252263107412 -0.0084426060797158468 0 -0.38009964520605882 -0.0090403485437739461 0 -0.38297625517291389 -0.017448943304264108 0 -0.37278444596104371 -0.0079457960458173115 0 -0.38009964520605882 -0.0090403485437739461 0 -0.38297625517291389 -0.017448943304264108 0 -0.37474494217865062 -0.0022388935110706832 0 -0.38502252263107412 -0.0084426060797158468 0 -0.38683543611469601 0.0001369023841863784 0 -0.37474494217865062 -0.0022388935110706832 0 -0.38502252263107412 -0.0084426060797158468 0 -0.38009964520605882 -0.0090403485437739461 0 -0.37474494217865062 -0.0022388935110706832 0 -0.37278444596104371 -0.0079457960458173115 0 -0.38009964520605882 -0.0090403485437739461 0 -0.37236777167708351 -0.031852495353884333 0 -0.38992317137517202 -0.02804917422583518 0 -0.37990921189048049 -0.023302515363219579 0 -0.37236777167708351 -0.031852495353884333 0 -0.38992317137517202 -0.02804917422583518 0 -0.38992317137517202 -0.02804917422583518 0 -0.38297625517291389 -0.017448943304264108 0 -0.37990921189048049 -0.023302515363219579 0 -0.3739022591900184 -0.02415390189740213 0 -0.38297625517291389 -0.017448943304264108 0 -0.37990921189048049 -0.023302515363219579 0 -0.37236777167708351 -0.031852495353884333 0 -0.3739022591900184 -0.02415390189740213 0 -0.37990921189048049 -0.023302515363219579 0 -0.37236777167708351 -0.031852495353884333 0 -0.37990921189048049 -0.023302515363219579 0 -0.38458287424021398 -0.039388642062709187 0 -0.39900851660089293 -0.046429079601448257 0 -0.3815482533063424 -0.052412606119804542 0 -0.37355784227175309 -0.045246792894939887 0 -0.37236777167708351 -0.031852495353884333 0 -0.38458287424021398 -0.039388642062709187 0 -0.37236777167708351 -0.031852495353884333 0 -0.38992317137517202 -0.02804917422583518 0 -0.38458287424021398 -0.039388642062709187 0 -0.37355784227175309 -0.045246792894939887 0 -0.38458287424021398 -0.039388642062709187 0 -0.3815482533063424 -0.052412606119804542 0 -0.38458287424021398 -0.039388642062709187 0 -0.39900851660089293 -0.046429079601448257 0 -0.40045416304880688 -0.034240371911693122 0 -0.38992317137517202 -0.02804917422583518 0 -0.38458287424021398 -0.039388642062709187 0 -0.40045416304880688 -0.034240371911693122 0 -0.41324955929443102 -0.038374170610562031 0 -0.39900851660089293 -0.046429079601448257 0 -0.40045416304880688 -0.034240371911693122 0 -0.39900851660089293 -0.046429079601448257 0 -0.39626447370361728 -0.06091275685647668 0 -0.3815482533063424 -0.052412606119804542 0 -0.41005136228565903 -0.05540387285823338 0 -0.39626447370361728 -0.06091275685647668 0 -0.40517181862379281 -0.066558370858305557 0 -0.41005136228565903 -0.05540387285823338 0 -0.39900851660089293 -0.046429079601448257 0 -0.39626447370361728 -0.06091275685647668 0 -0.36862349457690058 -0.057461967220355487 0 -0.3815482533063424 -0.052412606119804542 0 -0.37947166312044489 -0.067272628224985004 0 -0.3815482533063424 -0.052412606119804542 0 -0.37947166312044489 -0.067272628224985004 0 -0.39260231949431601 -0.074533368335879327 0 -0.36882665317829499 -0.078032107790563188 0 -0.39260231949431601 -0.074533368335879327 0 -0.39626447370361728 -0.06091275685647668 0 -0.3815482533063424 -0.052412606119804542 0 -0.39260231949431601 -0.074533368335879327 0 -0.3815482533063424 -0.052412606119804542 0 -0.39260231949431601 -0.074533368335879327 0 -0.36882665317829499 -0.078032107790563188 0 -0.37947166312044489 -0.067272628224985004 0 -0.39260231949431601 -0.074533368335879327 0 -0.36882665317829499 -0.078032107790563188 0 -0.39260231949431601 -0.074533368335879327 0 -0.39002829617667018 -0.099006697234722524 0 -0.36882665317829499 -0.078032107790563188 0 -0.39002829617667018 -0.099006697234722524 0 -0.37367929427193591 -0.1014825750548952 0 -0.36882665317829499 -0.078032107790563188 0 -0.39002829617667018 -0.099006697234722524 0 -0.39260231949431601 -0.074533368335879327 0 -0.39002829617667018 -0.099006697234722524 0 -0.39510370691593599 -0.098958215311000047 0 -0.39260231949431601 -0.074533368335879327 0 -0.40274583300482147 -0.094831984843681591 0 -0.39260231949431601 -0.074533368335879327 0 -0.39510370691593599 -0.098958215311000047 0 -0.40274583300482147 -0.094831984843681591 0 -0.40361170428446441 -0.083317353290434007 0 -0.39260231949431601 -0.074533368335879327 0 -0.40274583300482147 -0.094831984843681591 0 -0.40361170428446441 -0.083317353290434007 0 -0.39867569396630093 -0.073639632925658519 0 -0.40696916935602839 -0.074517235882718885 0 -0.39867569396630093 -0.073639632925658519 0 -0.40517181862379281 -0.066558370858305557 0 -0.40696916935602839 -0.074517235882718885 0 -0.39626447370361728 -0.06091275685647668 0 -0.39867569396630093 -0.073639632925658519 0 -0.40517181862379281 -0.066558370858305557 0 -0.39626447370361728 -0.06091275685647668 0 -0.39867569396630093 -0.073639632925658519 0 -0.39260231949431601 -0.074533368335879327 0 -0.40361170428446441 -0.083317353290434007 0 -0.39867569396630093 -0.073639632925658519 0 -0.39260231949431601 -0.074533368335879327 0 -0.39867569396630093 -0.073639632925658519 0 -0.39260231949431601 -0.074533368335879327 0 -0.37212838853434238 -0.11808059788504249 0 -0.38278168804071749 -0.12940228238898679 0 -0.39044023874876249 -0.11757149150947201 0 -0.37367929427193591 -0.1014825750548952 0 -0.37212838853434238 -0.11808059788504249 0 -0.39044023874876249 -0.11757149150947201 0 -0.37367929427193591 -0.1014825750548952 0 -0.39044023874876249 -0.11757149150947201 0 -0.39002829617667018 -0.099006697234722524 0 -0.39510370691593599 -0.098958215311000047 0 -0.40274583300482147 -0.094831984843681591 0 -0.41288934651532883 -0.11513060135148299 0 -0.39002829617667018 -0.099006697234722524 0 -0.39510370691593599 -0.098958215311000047 0 -0.41122993917504558 -0.1199812866788818 0 -0.39510370691593599 -0.098958215311000047 0 -0.41288934651532883 -0.11513060135148299 0 -0.39647179587780151 -0.13189450107720049 0 -0.39044023874876249 -0.11757149150947201 0 -0.41122993917504558 -0.1199812866788818 0 -0.39002829617667018 -0.099006697234722524 0 -0.41122993917504558 -0.1199812866788818 0 -0.39044023874876249 -0.11757149150947201 0 -0.39002829617667018 -0.099006697234722524 0 -0.41122993917504558 -0.1199812866788818 0 -0.39510370691593599 -0.098958215311000047 0 -0.41122993917504558 -0.1199812866788818 0 -0.41288934651532883 -0.11513060135148299 0 -0.41930562378398423 -0.12797048681614909 0 -0.41122993917504558 -0.1199812866788818 0 -0.4149348530849476 -0.1169905694289516 0 -0.41930562378398423 -0.12797048681614909 0 -0.41122993917504558 -0.1199812866788818 0 -0.41930562378398423 -0.12797048681614909 0 -0.4149348530849476 -0.1169905694289516 0 -0.41122993917504558 -0.1199812866788818 0 -0.41288934651532883 -0.11513060135148299 0 -0.4149348530849476 -0.1169905694289516 0 -0.41122993917504558 -0.1199812866788818 0 -0.4149348530849476 -0.1169905694289516 0 -0.41288934651532883 -0.11513060135148299 0 -0.4149348530849476 -0.1169905694289516 0 -0.41288934651532883 -0.11513060135148299 0 -0.4149348530849476 -0.1169905694289516 0 -0.41458672172207622 -0.10427776634057311 0 -0.40274583300482147 -0.094831984843681591 0 -0.41288934651532883 -0.11513060135148299 0 -0.4149348530849476 -0.1169905694289516 0 -0.41458672172207622 -0.10427776634057311 0 -0.43059848591229039 -0.1043464168163742 0 -0.40274583300482147 -0.094831984843681591 0 -0.41288934651532883 -0.11513060135148299 0 -0.41458672172207622 -0.10427776634057311 0 -0.41458672172207622 -0.10427776634057311 0 -0.41348552386521947 -0.090840815536544176 0 -0.43025813067654672 -0.08737754853092726 0 -0.40274583300482147 -0.094831984843681591 0 -0.41458672172207622 -0.10427776634057311 0 -0.41348552386521947 -0.090840815536544176 0 -0.43059848591229039 -0.1043464168163742 0 -0.43025813067654672 -0.08737754853092726 0 -0.44626211873963212 -0.091702264203795431 0 -0.41458672172207622 -0.10427776634057311 0 -0.43059848591229039 -0.1043464168163742 0 -0.43025813067654672 -0.08737754853092726 0 -0.41458672172207622 -0.10427776634057311 0 -0.43025813067654672 -0.08737754853092726 0 -0.4149348530849476 -0.1169905694289516 0 -0.43059848591229039 -0.1043464168163742 0 -0.43160182387889101 -0.1187955019330571 0 -0.4149348530849476 -0.1169905694289516 0 -0.43059848591229039 -0.1043464168163742 0 -0.43389101300267191 -0.13422730327376839 0 -0.4149348530849476 -0.1169905694289516 0 -0.43160182387889101 -0.1187955019330571 0 -0.43059848591229039 -0.1043464168163742 0 -0.43160182387889101 -0.1187955019330571 0 -0.44003429013576911 -0.11331979272890801 0 -0.43160182387889101 -0.1187955019330571 0 -0.44085253015216358 -0.1237950587173612 0 -0.44003429013576911 -0.11331979272890801 0 -0.41422906440869389 -0.068128229862373102 0 -0.41539885585273961 -0.080089681603359497 0 -0.42594434486026628 -0.073522222089585226 0 -0.4246600563061857 -0.059067830999859447 0 -0.41422906440869389 -0.068128229862373102 0 -0.42594434486026628 -0.073522222089585226 0 -0.41005136228565903 -0.05540387285823338 0 -0.40517181862379281 -0.066558370858305557 0 -0.41422906440869389 -0.068128229862373102 0 -0.40517181862379281 -0.066558370858305557 0 -0.41422906440869389 -0.068128229862373102 0 -0.40696916935602839 -0.074517235882718885 0 -0.41422906440869389 -0.068128229862373102 0 -0.40696916935602839 -0.074517235882718885 0 -0.41539885585273961 -0.080089681603359497 0 -0.41348552386521947 -0.090840815536544176 0 -0.41539885585273961 -0.080089681603359497 0 -0.43025813067654672 -0.08737754853092726 0 -0.40361170428446441 -0.083317353290434007 0 -0.41348552386521947 -0.090840815536544176 0 -0.41539885585273961 -0.080089681603359497 0 -0.40361170428446441 -0.083317353290434007 0 -0.40696916935602839 -0.074517235882718885 0 -0.41539885585273961 -0.080089681603359497 0 -0.40361170428446441 -0.083317353290434007 0 -0.40274583300482147 -0.094831984843681591 0 -0.41348552386521947 -0.090840815536544176 0 -0.41539885585273961 -0.080089681603359497 0 -0.43025813067654672 -0.08737754853092726 0 -0.42594434486026628 -0.073522222089585226 0 -0.4246600563061857 -0.059067830999859447 0 -0.44592953963101739 -0.07047733072128165 0 -0.43025813067654672 -0.08737754853092726 0 -0.42594434486026628 -0.073522222089585226 0 -0.44592953963101739 -0.07047733072128165 0 -0.4246600563061857 -0.059067830999859447 0 -0.42594434486026628 -0.073522222089585226 0 -0.44592953963101739 -0.07047733072128165 0 -0.44592953963101739 -0.07047733072128165 0 -0.45893666683642192 -0.056450303318209168 0 -0.44592953963101739 -0.07047733072128165 0 -0.44626211873963212 -0.091702264203795431 0 -0.46192575156697407 -0.079058111591217034 0 -0.43025813067654672 -0.08737754853092726 0 -0.44592953963101739 -0.07047733072128165 0 -0.43025813067654672 -0.08737754853092726 0 -0.44592953963101739 -0.07047733072128165 0 -0.44626211873963212 -0.091702264203795431 0 -0.44626211873963212 -0.091702264203795431 0 -0.46631049206888459 -0.091444160656324658 0 -0.46192575156697407 -0.079058111591217034 0 -0.44626211873963212 -0.091702264203795431 0 -0.46192575156697407 -0.079058111591217034 0 -0.46631049206888459 -0.091444160656324658 0 -0.46192575156697407 -0.079058111591217034 0 -0.47702460168979111 -0.087157524427869615 0 -0.44592953963101739 -0.07047733072128165 0 -0.46192575156697407 -0.079058111591217034 0 -0.45893666683642192 -0.056450303318209168 0 -0.46192575156697407 -0.079058111591217034 0 -0.47491389520024407 -0.068573693827893439 0 -0.45893666683642192 -0.056450303318209168 0 -0.46192575156697407 -0.079058111591217034 0 -0.47491389520024407 -0.068573693827893439 0 -0.44592953963101739 -0.07047733072128165 0 -0.46192575156697407 -0.079058111591217034 0 -0.45000974795797011 -0.119430952696417 0 -0.44085253015216358 -0.1237950587173612 0 -0.44003429013576911 -0.11331979272890801 0 -0.45000974795797011 -0.119430952696417 0 -0.44003429013576911 -0.11331979272890801 0 -0.44926481423485548 -0.10476542824413421 0 -0.43059848591229039 -0.1043464168163742 0 -0.44626211873963212 -0.091702264203795431 0 -0.43059848591229039 -0.1043464168163742 0 -0.44626211873963212 -0.091702264203795431 0 -0.44926481423485548 -0.10476542824413421 0 -0.43059848591229039 -0.1043464168163742 0 -0.44003429013576911 -0.11331979272890801 0 -0.44926481423485548 -0.10476542824413421 0 -0.44626211873963212 -0.091702264203795431 0 -0.44926481423485548 -0.10476542824413421 0 -0.46153012095291662 -0.1019472767233552 0 -0.44626211873963212 -0.091702264203795431 0 -0.46631049206888459 -0.091444160656324658 0 -0.46153012095291662 -0.1019472767233552 0 -0.46631049206888459 -0.091444160656324658 0 -0.46153012095291662 -0.1019472767233552 0 -0.4710589232177344 -0.098453604121520433 0 -0.46153012095291662 -0.1019472767233552 0 -0.46221413283232399 -0.11366089481890911 0 -0.47430793409480421 -0.10627177682285049 0 -0.44926481423485548 -0.10476542824413421 0 -0.46153012095291662 -0.1019472767233552 0 -0.46221413283232399 -0.11366089481890911 0 -0.45896755277767909 -0.12575633132281341 0 -0.46221413283232399 -0.11366089481890911 0 -0.47750202174635031 -0.1215216316744509 0 -0.45000974795797011 -0.119430952696417 0 -0.44926481423485548 -0.10476542824413421 0 -0.46221413283232399 -0.11366089481890911 0 -0.45896755277767909 -0.12575633132281341 0 -0.45000974795797011 -0.119430952696417 0 -0.46221413283232399 -0.11366089481890911 0 -0.47750202174635031 -0.1215216316744509 0 -0.47430793409480421 -0.10627177682285049 0 -0.48673501487359588 -0.1010237797652184 0 -0.46221413283232399 -0.11366089481890911 0 -0.47750202174635031 -0.1215216316744509 0 -0.47430793409480421 -0.10627177682285049 0 -0.47430793409480421 -0.10627177682285049 0 -0.47745372589702628 -0.099742000537211661 0 -0.48673501487359588 -0.1010237797652184 0 -0.46153012095291662 -0.1019472767233552 0 -0.47430793409480421 -0.10627177682285049 0 -0.4710589232177344 -0.098453604121520433 0 -0.46631049206888459 -0.091444160656324658 0 -0.4710589232177344 -0.098453604121520433 0 -0.47771303140197108 -0.093218841439257433 0 -0.47430793409480421 -0.10627177682285049 0 -0.4710589232177344 -0.098453604121520433 0 -0.47745372589702628 -0.099742000537211661 0 -0.4710589232177344 -0.098453604121520433 0 -0.47745372589702628 -0.099742000537211661 0 -0.47771303140197108 -0.093218841439257433 0 -0.47745372589702628 -0.099742000537211661 0 -0.48673501487359588 -0.1010237797652184 0 -0.47771303140197108 -0.093218841439257433 0 -0.48673501487359588 -0.1010237797652184 0 -0.47771303140197108 -0.093218841439257433 0 -0.47702460168979111 -0.087157524427869615 0 -0.47750202174635031 -0.1215216316744509 0 -0.48673501487359588 -0.1010237797652184 0 -0.4986179579264654 -0.1020768288792674 0 -0.48673501487359588 -0.1010237797652184 0 -0.49842317329231273 -0.098636270432611556 0 -0.47702460168979111 -0.087157524427869615 0 -0.48673501487359588 -0.1010237797652184 0 -0.49842317329231273 -0.098636270432611556 0 -0.4986179579264654 -0.1020768288792674 0 -0.49999999999999939 -0.099482120969144883 0 -0.49842317329231273 -0.098636270432611556 0 -0.4986179579264654 -0.1020768288792674 0 -0.49842317329231273 -0.098636270432611556 0 -0.4986179579264654 -0.1020768288792674 0 -0.49999999999999939 -0.099482120969144883 0 -0.49842317329231273 -0.098636270432611556 0 -0.50000000000000011 -0.12648838757554831 0 -0.47750202174635031 -0.1215216316744509 0 -0.4986179579264654 -0.1020768288792674 0 -0.47750202174635031 -0.1215216316744509 0 -0.4986179579264654 -0.1020768288792674 0 -0.47491389520024407 -0.068573693827893439 0 -0.47702460168979111 -0.087157524427869615 0 -0.4847984782487687 -0.075944598732494498 0 -0.47491389520024407 -0.068573693827893439 0 -0.47702460168979111 -0.087157524427869615 0 -0.47967839073812912 -0.064727650616396362 0 -0.4847984782487687 -0.075944598732494498 0 -0.48794163871831331 -0.064119883023254248 0 -0.47967839073812912 -0.064727650616396362 0 -0.47491389520024407 -0.068573693827893439 0 -0.4847984782487687 -0.075944598732494498 0 -0.47967839073812912 -0.064727650616396362 0 -0.47491389520024407 -0.068573693827893439 0 -0.46192575156697407 -0.079058111591217034 0 -0.47702460168979111 -0.087157524427869615 0 -0.46192575156697407 -0.079058111591217034 0 -0.47491389520024407 -0.068573693827893439 0 -0.47702460168979111 -0.087157524427869615 0 -0.46631049206888459 -0.091444160656324658 0 -0.47771303140197108 -0.093218841439257433 0 -0.47702460168979111 -0.087157524427869615 0 -0.47771303140197108 -0.093218841439257433 0 -0.47702460168979111 -0.087157524427869615 0 -0.49842317329231273 -0.098636270432611556 0 -0.49712708577170861 -0.075742961183477536 0 -0.4847984782487687 -0.075944598732494498 0 -0.49999999999999939 -0.099482120969144883 0 -0.49842317329231273 -0.098636270432611556 0 -0.5 -0.078030389970551228 0 -0.49842317329231273 -0.098636270432611556 0 -0.49712708577170861 -0.075742961183477536 0 -0.49842317329231273 -0.098636270432611556 0 -0.5 -0.078030389970551228 0 -0.49712708577170861 -0.075742961183477536 0 -0.49842317329231273 -0.098636270432611556 0 -0.47702460168979111 -0.087157524427869615 0 -0.4847984782487687 -0.075944598732494498 0 -0.49842317329231273 -0.098636270432611556 0 -0.47702460168979111 -0.087157524427869615 0 -0.5 -0.078030389970551228 0 -0.49712708577170861 -0.075742961183477536 0 -0.49999999999999928 -0.056578658971957581 0 -0.49712708577170861 -0.075742961183477536 0 -0.49583099825110311 -0.052849651934343489 0 -0.49712708577170861 -0.075742961183477536 0 -0.48794163871831331 -0.064119883023254248 0 -0.49583099825110311 -0.052849651934343489 0 -0.49712708577170861 -0.075742961183477536 0 -0.4847984782487687 -0.075944598732494498 0 -0.48794163871831331 -0.064119883023254248 0 -0.49712708577170861 -0.075742961183477536 0 -0.49999999999999928 -0.056578658971957581 0 -0.49583099825110311 -0.052849651934343489 0 -0.49583099825110311 -0.052849651934343489 0 -0.47748890114140963 -0.036443372127734748 0 -0.48227324058185622 -0.051334552649559453 0 -0.49999999999999928 -0.056578658971957581 0 -0.49583099825110311 -0.052849651934343489 0 -0.49999999999999928 -0.056578658971957581 0 -0.50000000000000144 -0.053559852644015388 0 -0.49583099825110311 -0.052849651934343489 0 -0.48794163871831331 -0.064119883023254248 0 -0.49583099825110311 -0.052849651934343489 0 -0.48227324058185622 -0.051334552649559453 0 -0.50000000000000144 -0.053559852644015388 0 -0.49583099825110311 -0.052849651934343489 0 -0.48598145264485831 -0.02728491224803695 0 -0.49583099825110311 -0.052849651934343489 0 -0.47748890114140963 -0.036443372127734748 0 -0.48598145264485831 -0.02728491224803695 0 -0.50000000000000144 -0.053559852644015388 0 -0.48598145264485831 -0.02728491224803695 0 -0.50000000000000144 -0.053559852644015388 0 -0.48598145264485831 -0.02728491224803695 0 -0.5 -0.025161366008633609 0 -0.49583099825110311 -0.052849651934343489 0 -0.47748890114140963 -0.036443372127734748 0 -0.47748890114140963 -0.036443372127734748 0 -0.48598145264485831 -0.02728491224803695 0 -0.47748890114140963 -0.036443372127734748 0 -0.47194379404182718 -0.042423275915137587 0 -0.48227324058185622 -0.051334552649559453 0 -0.47748890114140963 -0.036443372127734748 0 -0.47194379404182718 -0.042423275915137587 0 -0.47748890114140963 -0.036443372127734748 0 -0.47194379404182718 -0.042423275915137587 0 -0.47056077858213702 -0.03024644074295027 0 -0.47194379404182718 -0.042423275915137587 0 -0.46539503278239303 -0.037082973767017267 0 -0.47056077858213702 -0.03024644074295027 0 -0.47194379404182718 -0.042423275915137587 0 -0.47056077858213702 -0.03024644074295027 0 -0.47748890114140963 -0.036443372127734748 0 -0.47056077858213702 -0.03024644074295027 0 -0.47748890114140963 -0.036443372127734748 0 -0.47056077858213702 -0.03024644074295027 0 -0.47745882259212458 -0.028728106929589409 0 -0.47967839073812912 -0.064727650616396362 0 -0.47491389520024407 -0.068573693827893439 0 -0.47194379404182718 -0.042423275915137587 0 -0.47967839073812912 -0.064727650616396362 0 -0.47194379404182718 -0.042423275915137587 0 -0.48227324058185622 -0.051334552649559453 0 -0.47491389520024407 -0.068573693827893439 0 -0.47194379404182718 -0.042423275915137587 0 -0.47967839073812912 -0.064727650616396362 0 -0.48794163871831331 -0.064119883023254248 0 -0.48227324058185622 -0.051334552649559453 0 -0.47491389520024407 -0.068573693827893439 0 -0.47194379404182718 -0.042423275915137587 0 -0.45893666683642192 -0.056450303318209168 0 -0.45893666683642192 -0.056450303318209168 0 -0.45743491846808387 -0.04563500224908737 0 -0.44544580640037118 -0.056213229689383748 0 -0.47194379404182718 -0.042423275915137587 0 -0.45893666683642192 -0.056450303318209168 0 -0.45743491846808387 -0.04563500224908737 0 -0.47194379404182718 -0.042423275915137587 0 -0.45893666683642192 -0.056450303318209168 0 -0.46539503278239303 -0.037082973767017267 0 -0.44890774518284438 -0.02927164544362729 0 -0.46539503278239303 -0.037082973767017267 0 -0.45215967652477718 -0.036640332234541717 0 -0.44890774518284438 -0.02927164544362729 0 -0.46539503278239303 -0.037082973767017267 0 -0.44890774518284438 -0.02927164544362729 0 -0.46189821575704781 -0.02986243911986371 0 -0.47194379404182718 -0.042423275915137587 0 -0.46539503278239303 -0.037082973767017267 0 -0.45743491846808387 -0.04563500224908737 0 -0.46539503278239303 -0.037082973767017267 0 -0.46189821575704781 -0.02986243911986371 0 -0.47056077858213702 -0.03024644074295027 0 -0.46539503278239303 -0.037082973767017267 0 -0.45743491846808387 -0.04563500224908737 0 -0.45215967652477718 -0.036640332234541717 0 -0.42981912379901888 -0.030443092666165631 0 -0.45215967652477718 -0.036640332234541717 0 -0.45743491846808387 -0.04563500224908737 0 -0.45215967652477718 -0.036640332234541717 0 -0.43957367317472601 -0.045089571971719818 0 -0.42981912379901888 -0.030443092666165631 0 -0.45215967652477718 -0.036640332234541717 0 -0.43957367317472601 -0.045089571971719818 0 -0.45743491846808387 -0.04563500224908737 0 -0.43957367317472601 -0.045089571971719818 0 -0.44544580640037118 -0.056213229689383748 0 -0.4246600563061857 -0.059067830999859447 0 -0.44592953963101739 -0.07047733072128165 0 -0.44544580640037118 -0.056213229689383748 0 -0.44592953963101739 -0.07047733072128165 0 -0.45893666683642192 -0.056450303318209168 0 -0.44544580640037118 -0.056213229689383748 0 -0.4441818909265971 -0.00998157505946092 0 -0.45588653083934588 0.00041698580085632909 0 -0.44737850259376799 0.0077656591989471307 0 -0.4441818909265971 -0.00998157505946092 0 -0.4570262928383732 -0.018140378997512391 0 -0.45633913854906122 -0.0094275687658610888 0 -0.4441818909265971 -0.00998157505946092 0 -0.45633913854906122 -0.0094275687658610888 0 -0.45588653083934588 0.00041698580085632909 0 -0.43741768347029059 -0.01288367903972009 0 -0.4441818909265971 -0.00998157505946092 0 -0.44890774518284438 -0.02927164544362729 0 -0.42981912379901888 -0.030443092666165631 0 -0.45215967652477718 -0.036640332234541717 0 -0.4392085005598273 -0.024676348383282701 0 -0.4441818909265971 -0.00998157505946092 0 -0.44890774518284438 -0.02927164544362729 0 -0.46258273328813732 -0.023158067004484729 0 -0.43741768347029059 -0.01288367903972009 0 -0.44890774518284438 -0.02927164544362729 0 -0.43741768347029059 -0.01288367903972009 0 -0.4392085005598273 -0.024676348383282701 0 -0.44890774518284438 -0.02927164544362729 0 -0.4392085005598273 -0.024676348383282701 0 -0.44890774518284438 -0.02927164544362729 0 -0.45215967652477718 -0.036640332234541717 0 -0.4392085005598273 -0.024676348383282701 0 -0.44890774518284438 -0.02927164544362729 0 -0.4441818909265971 -0.00998157505946092 0 -0.46258273328813732 -0.023158067004484729 0 -0.46258273328813732 -0.023158067004484729 0 -0.46826183959192841 -0.01000530680732737 0 -0.47056077858213702 -0.03024644074295027 0 -0.4441818909265971 -0.00998157505946092 0 -0.4570262928383732 -0.018140378997512391 0 -0.46258273328813732 -0.023158067004484729 0 -0.4570262928383732 -0.018140378997512391 0 -0.46258273328813732 -0.023158067004484729 0 -0.44890774518284438 -0.02927164544362729 0 -0.46189821575704781 -0.02986243911986371 0 -0.46258273328813732 -0.023158067004484729 0 -0.46258273328813732 -0.023158067004484729 0 -0.47056077858213702 -0.03024644074295027 0 -0.46189821575704781 -0.02986243911986371 0 -0.46258273328813732 -0.023158067004484729 0 -0.47056077858213702 -0.03024644074295027 0 -0.4570262928383732 -0.018140378997512391 0 -0.46258273328813732 -0.023158067004484729 0 -0.46826183959192841 -0.01000530680732737 0 -0.4570262928383732 -0.018140378997512391 0 -0.46826183959192841 -0.01000530680732737 0 -0.45633913854906122 -0.0094275687658610888 0 -0.46826183959192841 -0.01000530680732737 0 -0.45633913854906122 -0.0094275687658610888 0 -0.45588653083934588 0.00041698580085632909 0 -0.46826183959192841 -0.01000530680732737 0 -0.47597217662329228 -0.0085245425598697612 0 -0.4659629006017233 0.010235827128295859 0 -0.46826183959192841 -0.01000530680732737 0 -0.47597217662329228 -0.0085245425598697612 0 -0.47580415800009379 -0.02093770259963601 0 -0.47597217662329228 -0.0085245425598697612 0 -0.48922725890134677 -0.010453537226696331 0 -0.48082517856277007 0.001845263919603602 0 -0.47597217662329228 -0.0085245425598697612 0 -0.47580415800009379 -0.02093770259963601 0 -0.48598145264485831 -0.02728491224803695 0 -0.47597217662329228 -0.0085245425598697612 0 -0.48598145264485831 -0.02728491224803695 0 -0.46826183959192841 -0.01000530680732737 0 -0.47056077858213702 -0.03024644074295027 0 -0.47580415800009379 -0.02093770259963601 0 -0.47597217662329228 -0.0085245425598697612 0 -0.48598145264485831 -0.02728491224803695 0 -0.4893389393206713 -0.02366416211133009 0 -0.46826183959192841 -0.01000530680732737 0 -0.47056077858213702 -0.03024644074295027 0 -0.47056077858213702 -0.03024644074295027 0 -0.47580415800009379 -0.02093770259963601 0 -0.47745882259212458 -0.028728106929589409 0 -0.47580415800009379 -0.02093770259963601 0 -0.47745882259212458 -0.028728106929589409 0 -0.48598145264485831 -0.02728491224803695 0 -0.47748890114140963 -0.036443372127734748 0 -0.47745882259212458 -0.028728106929589409 0 -0.48598145264485831 -0.02728491224803695 0 -0.48598145264485831 -0.02728491224803695 0 -0.4893389393206713 -0.02366416211133009 0 -0.5 -0.025161366008633609 0 -0.48598145264485831 -0.02728491224803695 0 -0.4893389393206713 -0.02366416211133009 0 -0.4893389393206713 -0.02366416211133009 0 -0.5 -0.025161366008633609 0 -0.48922725890134677 -0.010453537226696331 0 -0.48922725890134677 -0.010453537226696331 0 -0.5 0.0032371206267481911 0 -0.48082517856277007 0.001845263919603602 0 -0.5 -0.025161366008633609 0 -0.48922725890134677 -0.010453537226696331 0 -0.5 0.0032371206267481911 0 -0.47597217662329228 -0.0085245425598697612 0 -0.4893389393206713 -0.02366416211133009 0 -0.48922725890134677 -0.010453537226696331 0 -0.5 0.0032371206267481911 0 -0.48596576445654982 0.01457961489688041 0 -0.48082517856277007 0.001845263919603602 0 -0.48596576445654982 0.01457961489688041 0 -0.47541999506787802 0.025418180444172121 0 -0.5 0.031635607262129987 0 -0.5 0.0032371206267481911 0 -0.48596576445654982 0.01457961489688041 0 -0.5 0.031635607262129987 0 -0.48596576445654982 0.01457961489688041 0 -0.47541999506787802 0.025418180444172121 0 -0.47401658579892991 0.013489912392399149 0 -0.47541999506787802 0.025418180444172121 0 -0.46963945276383978 0.01793989872667965 0 -0.47401658579892991 0.013489912392399149 0 -0.47597217662329228 -0.0085245425598697612 0 -0.48082517856277007 0.001845263919603602 0 -0.4659629006017233 0.010235827128295859 0 -0.47401658579892991 0.013489912392399149 0 -0.48082517856277007 0.001845263919603602 0 -0.4659629006017233 0.010235827128295859 0 -0.46963945276383978 0.01793989872667965 0 -0.47401658579892991 0.013489912392399149 0 -0.4659629006017233 0.010235827128295859 0 -0.47597217662329228 -0.0085245425598697612 0 -0.4659629006017233 0.010235827128295859 0 -0.48596576445654982 0.01457961489688041 0 -0.47401658579892991 0.013489912392399149 0 -0.48082517856277007 0.001845263919603602 0 -0.5 0.060034093897511798 0 -0.47816362815030861 0.043832779932641487 0 -0.48068047186290208 0.063626500276227002 0 -0.47541999506787802 0.025418180444172121 0 -0.5 0.031635607262129987 0 -0.47816362815030861 0.043832779932641487 0 -0.5 0.060034093897511798 0 -0.5 0.031635607262129987 0 -0.47816362815030861 0.043832779932641487 0 -0.47541999506787802 0.025418180444172121 0 -0.47816362815030861 0.043832779932641487 0 -0.46442391639916691 0.036471327701905212 0 -0.47816362815030861 0.043832779932641487 0 -0.46119618507356652 0.049359273152949731 0 -0.48068047186290208 0.063626500276227002 0 -0.46119618507356652 0.049359273152949731 0 -0.46103932749027238 0.064238871702306077 0 -0.48068047186290208 0.063626500276227002 0 -0.46119618507356652 0.049359273152949731 0 -0.44286953411296898 0.045255716157198693 0 -0.46103932749027238 0.064238871702306077 0 -0.47816362815030861 0.043832779932641487 0 -0.46119618507356652 0.049359273152949731 0 -0.46442391639916691 0.036471327701905212 0 -0.46119618507356652 0.049359273152949731 0 -0.46442391639916691 0.036471327701905212 0 -0.45082509298125129 0.038608595210277222 0 -0.46442391639916691 0.036471327701905212 0 -0.45082509298125129 0.038608595210277222 0 -0.4583939967914884 0.024422211169287101 0 -0.45082509298125129 0.038608595210277222 0 -0.4583939967914884 0.024422211169287101 0 -0.46119618507356652 0.049359273152949731 0 -0.45082509298125129 0.038608595210277222 0 -0.44286953411296898 0.045255716157198693 0 -0.45082509298125129 0.038608595210277222 0 -0.4405409619944019 0.035432846457562263 0 -0.4458839614772655 0.023387518650519249 0 -0.45082509298125129 0.038608595210277222 0 -0.4405409619944019 0.035432846457562263 0 -0.44286953411296898 0.045255716157198693 0 -0.4405409619944019 0.035432846457562263 0 -0.44286953411296898 0.045255716157198693 0 -0.43229092530358848 0.04451632412921195 0 -0.44286953411296898 0.045255716157198693 0 -0.44282721760043869 0.062046251170956107 0 -0.46103932749027238 0.064238871702306077 0 -0.44286953411296898 0.045255716157198693 0 -0.44282721760043869 0.062046251170956107 0 -0.43188097302969042 0.056955122555226501 0 -0.44286953411296898 0.045255716157198693 0 -0.46103932749027238 0.064238871702306077 0 -0.46826183959192841 -0.01000530680732737 0 -0.45588653083934588 0.00041698580085632909 0 -0.4659629006017233 0.010235827128295859 0 -0.46826183959192841 -0.01000530680732737 0 -0.4659629006017233 0.010235827128295859 0 -0.45609316173783881 0.014082317838893479 0 -0.45588653083934588 0.00041698580085632909 0 -0.4659629006017233 0.010235827128295859 0 -0.46963945276383978 0.01793989872667965 0 -0.4659629006017233 0.010235827128295859 0 -0.4583939967914884 0.024422211169287101 0 -0.4659629006017233 0.010235827128295859 0 -0.4583939967914884 0.024422211169287101 0 -0.47541999506787802 0.025418180444172121 0 -0.46963945276383978 0.01793989872667965 0 -0.4583939967914884 0.024422211169287101 0 -0.47541999506787802 0.025418180444172121 0 -0.46442391639916691 0.036471327701905212 0 -0.4583939967914884 0.024422211169287101 0 -0.45609316173783881 0.014082317838893479 0 -0.4659629006017233 0.010235827128295859 0 -0.4583939967914884 0.024422211169287101 0 -0.45609316173783881 0.014082317838893479 0 -0.4583939967914884 0.024422211169287101 0 -0.4458839614772655 0.023387518650519249 0 -0.45082509298125129 0.038608595210277222 0 -0.4583939967914884 0.024422211169287101 0 -0.4458839614772655 0.023387518650519249 0 -0.4405409619944019 0.035432846457562263 0 -0.4458839614772655 0.023387518650519249 0 -0.43566193494816191 0.02574822372494872 0 -0.4458839614772655 0.023387518650519249 0 -0.4359559447540089 0.01018896392150693 0 -0.43566193494816191 0.02574822372494872 0 -0.4441818909265971 -0.00998157505946092 0 -0.44737850259376799 0.0077656591989471307 0 -0.4359559447540089 0.01018896392150693 0 -0.4458839614772655 0.023387518650519249 0 -0.44737850259376799 0.0077656591989471307 0 -0.4359559447540089 0.01018896392150693 0 -0.45609316173783881 0.014082317838893479 0 -0.4458839614772655 0.023387518650519249 0 -0.44737850259376799 0.0077656591989471307 0 -0.45609316173783881 0.014082317838893479 0 -0.45588653083934588 0.00041698580085632909 0 -0.44737850259376799 0.0077656591989471307 0 -0.4441818909265971 -0.00998157505946092 0 -0.4359559447540089 0.01018896392150693 0 -0.42578104856505677 0.0031949168855625672 0 -0.42578104856505677 0.0031949168855625672 0 -0.41622595309658328 0.016397403714119251 0 -0.42870406893849561 0.019163111370922251 0 -0.4359559447540089 0.01018896392150693 0 -0.42578104856505677 0.0031949168855625672 0 -0.42870406893849561 0.019163111370922251 0 -0.41753789792717189 -0.0038843189997757009 0 -0.42578104856505677 0.0031949168855625672 0 -0.41105156913745711 0.0034129409419674369 0 -0.42578104856505677 0.0031949168855625672 0 -0.40852807671777941 0.0155494406680463 0 -0.41622595309658328 0.016397403714119251 0 -0.42578104856505677 0.0031949168855625672 0 -0.40852807671777941 0.0155494406680463 0 -0.41105156913745711 0.0034129409419674369 0 -0.42578104856505677 0.0031949168855625672 0 -0.40852807671777941 0.0155494406680463 0 -0.42578104856505677 0.0031949168855625672 0 -0.41622595309658328 0.016397403714119251 0 -0.40852807671777941 0.0155494406680463 0 -0.41105156913745711 0.0034129409419674369 0 -0.40262572535869262 0.0089097845909437267 0 -0.40771050441737638 -0.0035262849216432719 0 -0.41105156913745711 0.0034129409419674369 0 -0.40226596945639398 0.0014711925349297271 0 -0.40667085762811028 0.029599890542676258 0 -0.41622595309658328 0.016397403714119251 0 -0.42870406893849561 0.019163111370922251 0 -0.40667085762811028 0.029599890542676258 0 -0.42870406893849561 0.019163111370922251 0 -0.40667085762811028 0.029599890542676258 0 -0.41990433555607742 0.03061685230769556 0 -0.42870406893849561 0.019163111370922251 0 -0.40852807671777941 0.0155494406680463 0 -0.40667085762811028 0.029599890542676258 0 -0.41622595309658328 0.016397403714119251 0 -0.40667085762811028 0.029599890542676258 0 -0.41622595309658328 0.016397403714119251 0 -0.41990433555607742 0.03061685230769556 0 -0.4284463216954002 0.029357354603554459 0 -0.42870406893849561 0.019163111370922251 0 -0.4359559447540089 0.01018896392150693 0 -0.42870406893849561 0.019163111370922251 0 -0.43566193494816191 0.02574822372494872 0 -0.4284463216954002 0.029357354603554459 0 -0.42870406893849561 0.019163111370922251 0 -0.43566193494816191 0.02574822372494872 0 -0.4284463216954002 0.029357354603554459 0 -0.43566193494816191 0.02574822372494872 0 -0.43264023121812112 0.033917661463996759 0 -0.4405409619944019 0.035432846457562263 0 -0.43264023121812112 0.033917661463996759 0 -0.43229092530358848 0.04451632412921195 0 -0.43264023121812112 0.033917661463996759 0 -0.43229092530358848 0.04451632412921195 0 -0.42532103781614489 0.037340924150209003 0 -0.4405409619944019 0.035432846457562263 0 -0.43566193494816191 0.02574822372494872 0 -0.43264023121812112 0.033917661463996759 0 -0.43229092530358848 0.04451632412921195 0 -0.42532103781614489 0.037340924150209003 0 -0.42042490988599091 0.046091327469671317 0 -0.4284463216954002 0.029357354603554459 0 -0.43264023121812112 0.033917661463996759 0 -0.42532103781614489 0.037340924150209003 0 -0.41990433555607742 0.03061685230769556 0 -0.4284463216954002 0.029357354603554459 0 -0.42532103781614489 0.037340924150209003 0 -0.43229092530358848 0.04451632412921195 0 -0.43188097302969042 0.056955122555226501 0 -0.42585725303016408 0.051510102087770737 0 -0.44286953411296898 0.045255716157198693 0 -0.43229092530358848 0.04451632412921195 0 -0.43188097302969042 0.056955122555226501 0 -0.43229092530358848 0.04451632412921195 0 -0.42585725303016408 0.051510102087770737 0 -0.42042490988599091 0.046091327469671317 0 -0.43188097302969042 0.056955122555226501 0 -0.41883220390138681 0.058477634196973202 0 -0.43131469147834472 0.070632617455275076 0 -0.43188097302969042 0.056955122555226501 0 -0.42585725303016408 0.051510102087770737 0 -0.41883220390138681 0.058477634196973202 0 -0.41883220390138681 0.058477634196973202 0 -0.40840220717331749 0.048304634434869917 0 -0.39985653820026013 0.060860810446949978 0 -0.42585725303016408 0.051510102087770737 0 -0.41883220390138681 0.058477634196973202 0 -0.42042490988599091 0.046091327469671317 0 -0.41883220390138681 0.058477634196973202 0 -0.40840220717331749 0.048304634434869917 0 -0.42042490988599091 0.046091327469671317 0 -0.41990433555607742 0.03061685230769556 0 -0.42532103781614489 0.037340924150209003 0 -0.4122967326089878 0.037821593301397609 0 -0.42532103781614489 0.037340924150209003 0 -0.42042490988599091 0.046091327469671317 0 -0.4122967326089878 0.037821593301397609 0 -0.40840220717331749 0.048304634434869917 0 -0.4122967326089878 0.037821593301397609 0 -0.40579981868685489 0.041495006097714962 0 -0.40840220717331749 0.048304634434869917 0 -0.42042490988599091 0.046091327469671317 0 -0.4122967326089878 0.037821593301397609 0 -0.4122967326089878 0.037821593301397609 0 -0.40278544391907911 0.034968452634622761 0 -0.40579981868685489 0.041495006097714962 0 -0.40667085762811028 0.029599890542676258 0 -0.4122967326089878 0.037821593301397609 0 -0.40278544391907911 0.034968452634622761 0 -0.40667085762811028 0.029599890542676258 0 -0.41990433555607742 0.03061685230769556 0 -0.4122967326089878 0.037821593301397609 0 -0.40667085762811028 0.029599890542676258 0 -0.40278544391907911 0.034968452634622761 0 -0.40667085762811028 0.029599890542676258 0 -0.38856614517843069 0.038175802748282091 0 -0.40667085762811028 0.029599890542676258 0 -0.38856614517843069 0.038175802748282091 0 -0.39127510487050182 0.027903964450529759 0 -0.40667085762811028 0.029599890542676258 0 -0.40278544391907911 0.034968452634622761 0 -0.38856614517843069 0.038175802748282091 0 -0.40278544391907911 0.034968452634622761 0 -0.40579981868685489 0.041495006097714962 0 -0.3977250587697031 0.045015474274426849 0 -0.40840220717331749 0.048304634434869917 0 -0.40579981868685489 0.041495006097714962 0 -0.3977250587697031 0.045015474274426849 0 -0.40278544391907911 0.034968452634622761 0 -0.3977250587697031 0.045015474274426849 0 -0.38856614517843069 0.038175802748282091 0 -0.40840220717331749 0.048304634434869917 0 -0.3977250587697031 0.045015474274426849 0 -0.39985653820026013 0.060860810446949978 0 -0.3977250587697031 0.045015474274426849 0 -0.39985653820026013 0.060860810446949978 0 -0.38472691017257071 0.052921849058569698 0 -0.39985653820026013 0.060860810446949978 0 -0.38472691017257071 0.052921849058569698 0 -0.38510762700538009 0.066428587654483159 0 -0.38472691017257071 0.052921849058569698 0 -0.37046143272875132 0.04675171495388801 0 -0.37000681959492809 0.05831264468359916 0 -0.38472691017257071 0.052921849058569698 0 -0.38510762700538009 0.066428587654483159 0 -0.37000681959492809 0.05831264468359916 0 -0.38856614517843069 0.038175802748282091 0 -0.37871402691879819 0.03757115751491092 0 -0.37046143272875132 0.04675171495388801 0 -0.38856614517843069 0.038175802748282091 0 -0.37046143272875132 0.04675171495388801 0 -0.38472691017257071 0.052921849058569698 0 -0.38856614517843069 0.038175802748282091 0 -0.37046143272875132 0.04675171495388801 0 -0.38856614517843069 0.038175802748282091 0 -0.38315308642314733 0.033917821982192238 0 -0.39127510487050182 0.027903964450529759 0 -0.38856614517843069 0.038175802748282091 0 -0.38315308642314733 0.033917821982192238 0 -0.37871402691879819 0.03757115751491092 0 -0.3977250587697031 0.045015474274426849 0 -0.38472691017257071 0.052921849058569698 0 -0.38856614517843069 0.038175802748282091 0 -0.37871402691879819 0.03757115751491092 0 -0.3764786745208083 0.032098692741998169 0 -0.37046143272875132 0.04675171495388801 0 -0.38315308642314733 0.033917821982192238 0 -0.3764786745208083 0.032098692741998169 0 -0.38155727091044611 0.028316364585127811 0 -0.38315308642314733 0.033917821982192238 0 -0.37871402691879819 0.03757115751491092 0 -0.3764786745208083 0.032098692741998169 0 -0.3764786745208083 0.032098692741998169 0 -0.38155727091044611 0.028316364585127811 0 -0.37960108001976323 0.022263106047543741 0 -0.37960108001976323 0.022263106047543741 0 -0.37998819155715241 0.0057865511937031933 0 -0.37123175334181557 0.027162262264614271 0 -0.3764786745208083 0.032098692741998169 0 -0.37960108001976323 0.022263106047543741 0 -0.37123175334181557 0.027162262264614271 0 -0.38155727091044611 0.028316364585127811 0 -0.38533699425949169 0.022674384769296389 0 -0.37960108001976323 0.022263106047543741 0 -0.38155727091044611 0.028316364585127811 0 -0.38533699425949169 0.022674384769296389 0 -0.39127510487050182 0.027903964450529759 0 -0.38315308642314733 0.033917821982192238 0 -0.38155727091044611 0.028316364585127811 0 -0.39127510487050182 0.027903964450529759 0 -0.39054146691731162 0.018060194648231769 0 -0.38533699425949169 0.022674384769296389 0 -0.39127510487050182 0.027903964450529759 0 -0.38533699425949169 0.022674384769296389 0 -0.3837100485794358 0.01682829411504885 0 -0.37960108001976323 0.022263106047543741 0 -0.39054146691731162 0.018060194648231769 0 -0.38533699425949169 0.022674384769296389 0 -0.3837100485794358 0.01682829411504885 0 -0.3837100485794358 0.01682829411504885 0 -0.37960108001976323 0.022263106047543741 0 -0.37998819155715241 0.0057865511937031933 0 -0.37998819155715241 0.0057865511937031933 0 -0.38683543611469601 0.0001369023841863784 0 -0.36064890389212972 0.0125435277679194 0 -0.37998819155715241 0.0057865511937031933 0 -0.38683543611469601 0.0001369023841863784 0 -0.38901012294298121 0.0062908016400105649 0 -0.38683543611469601 0.0001369023841863784 0 -0.38901012294298121 0.0062908016400105649 0 -0.39501457079486157 0.0055715078560810288 0 -0.37998819155715241 0.0057865511937031933 0 -0.38901012294298121 0.0062908016400105649 0 -0.38744744785130802 0.01185902438546781 0 -0.3837100485794358 0.01682829411504885 0 -0.37998819155715241 0.0057865511937031933 0 -0.38744744785130802 0.01185902438546781 0 -0.38901012294298121 0.0062908016400105649 0 -0.38744744785130802 0.01185902438546781 0 -0.39422738021243581 0.01127211946813913 0 -0.39054146691731162 0.018060194648231769 0 -0.3837100485794358 0.01682829411504885 0 -0.38744744785130802 0.01185902438546781 0 -0.39054146691731162 0.018060194648231769 0 -0.39422738021243581 0.01127211946813913 0 -0.39743955081534421 0.016339100765178138 0 -0.39054146691731162 0.018060194648231769 0 -0.38744744785130802 0.01185902438546781 0 -0.39422738021243581 0.01127211946813913 0 -0.39422738021243581 0.01127211946813913 0 -0.39501457079486157 0.0055715078560810288 0 -0.40262572535869262 0.0089097845909437267 0 -0.39422738021243581 0.01127211946813913 0 -0.40262572535869262 0.0089097845909437267 0 -0.39743955081534421 0.016339100765178138 0 -0.38683543611469601 0.0001369023841863784 0 -0.39501457079486157 0.0055715078560810288 0 -0.40226596945639398 0.0014711925349297271 0 -0.38901012294298121 0.0062908016400105649 0 -0.39422738021243581 0.01127211946813913 0 -0.39501457079486157 0.0055715078560810288 0 -0.41105156913745711 0.0034129409419674369 0 -0.40226596945639398 0.0014711925349297271 0 -0.40262572535869262 0.0089097845909437267 0 -0.39501457079486157 0.0055715078560810288 0 -0.40226596945639398 0.0014711925349297271 0 -0.40262572535869262 0.0089097845909437267 0 -0.40852807671777941 0.0155494406680463 0 -0.40262572535869262 0.0089097845909437267 0 -0.39743955081534421 0.016339100765178138 0 -0.40852807671777941 0.0155494406680463 0 -0.39127510487050182 0.027903964450529759 0 -0.40852807671777941 0.0155494406680463 0 -0.40667085762811028 0.029599890542676258 0 -0.39127510487050182 0.027903964450529759 0 -0.40852807671777941 0.0155494406680463 0 -0.39127510487050182 0.027903964450529759 0 -0.39743955081534421 0.016339100765178138 0 -0.39054146691731162 0.018060194648231769 0 -0.39127510487050182 0.027903964450529759 0 -0.39743955081534421 0.016339100765178138 0 -0.39792088922733271 0.1160922105611595 0 -0.40104213778508202 0.092866093853817611 0 -0.41467909406405851 0.1139188519362445 0 -0.39792088922733271 0.1160922105611595 0 -0.3782625711058698 0.101617738696854 0 -0.40104213778508202 0.092866093853817611 0 -0.3782625711058698 0.101617738696854 0 -0.38372255811484618 0.13025780258704611 0 -0.3782625711058698 0.101617738696854 0 -0.38372255811484618 0.13025780258704611 0 -0.36747352968705388 0.12273486311700831 0 -0.39792088922733271 0.1160922105611595 0 -0.3782625711058698 0.101617738696854 0 -0.38372255811484618 0.13025780258704611 0 -0.39792088922733271 0.1160922105611595 0 -0.3782625711058698 0.101617738696854 0 -0.3782625711058698 0.101617738696854 0 -0.40104213778508202 0.092866093853817611 0 -0.37470600383380392 0.082961959162170973 0 -0.39520328107527708 0.075997639864115257 0 -0.40104213778508202 0.092866093853817611 0 -0.37470600383380392 0.082961959162170973 0 -0.3782625711058698 0.101617738696854 0 -0.37470600383380392 0.082961959162170973 0 -0.40104213778508202 0.092866093853817611 0 -0.37470600383380392 0.082961959162170973 0 -0.38510762700538009 0.066428587654483159 0 -0.37000681959492809 0.05831264468359916 0 -0.37470600383380392 0.082961959162170973 0 -0.38510762700538009 0.066428587654483159 0 -0.39520328107527708 0.075997639864115257 0 -0.37470600383380392 0.082961959162170973 0 -0.39985653820026013 0.060860810446949978 0 -0.39520328107527708 0.075997639864115257 0 -0.41322693425173768 0.074694678089132868 0 -0.39985653820026013 0.060860810446949978 0 -0.38510762700538009 0.066428587654483159 0 -0.39520328107527708 0.075997639864115257 0 -0.39520328107527708 0.075997639864115257 0 -0.40104213778508202 0.092866093853817611 0 -0.41322693425173768 0.074694678089132868 0 -0.40104213778508202 0.092866093853817611 0 -0.41322693425173768 0.074694678089132868 0 -0.42957324029363853 0.085693113452461764 0 -0.41883220390138681 0.058477634196973202 0 -0.41322693425173768 0.074694678089132868 0 -0.43131469147834472 0.070632617455275076 0 -0.41883220390138681 0.058477634196973202 0 -0.39985653820026013 0.060860810446949978 0 -0.41322693425173768 0.074694678089132868 0 -0.43131469147834472 0.070632617455275076 0 -0.42957324029363853 0.085693113452461764 0 -0.4470315618909167 0.073148927984774167 0 -0.41322693425173768 0.074694678089132868 0 -0.43131469147834472 0.070632617455275076 0 -0.42957324029363853 0.085693113452461764 0 -0.44282721760043869 0.062046251170956107 0 -0.43188097302969042 0.056955122555226501 0 -0.43131469147834472 0.070632617455275076 0 -0.42957324029363853 0.085693113452461764 0 -0.42737827173636012 0.1027702285454639 0 -0.44343173260412461 0.097571970950778963 0 -0.40104213778508202 0.092866093853817611 0 -0.42737827173636012 0.1027702285454639 0 -0.41467909406405851 0.1139188519362445 0 -0.40104213778508202 0.092866093853817611 0 -0.42737827173636012 0.1027702285454639 0 -0.40104213778508202 0.092866093853817611 0 -0.42957324029363853 0.085693113452461764 0 -0.42737827173636012 0.1027702285454639 0 -0.39792088922733271 0.1160922105611595 0 -0.41467909406405851 0.1139188519362445 0 -0.417579207348795 0.13056668242546571 0 -0.39792088922733271 0.1160922105611595 0 -0.417579207348795 0.13056668242546571 0 -0.41467909406405851 0.1139188519362445 0 -0.42608096723388439 0.1205091241492761 0 -0.417579207348795 0.13056668242546571 0 -0.42737827173636012 0.1027702285454639 0 -0.41467909406405851 0.1139188519362445 0 -0.42608096723388439 0.1205091241492761 0 -0.42737827173636012 0.1027702285454639 0 -0.42608096723388439 0.1205091241492761 0 -0.43826405507869293 0.1195835460605416 0 -0.42608096723388439 0.1205091241492761 0 -0.43826405507869293 0.1195835460605416 0 -0.43293323699752101 0.1317554923945817 0 -0.43826405507869293 0.1195835460605416 0 -0.45371440568763749 0.1126743632371118 0 -0.44901593584904892 0.12912088192892021 0 -0.42737827173636012 0.1027702285454639 0 -0.43826405507869293 0.1195835460605416 0 -0.45371440568763749 0.1126743632371118 0 -0.4523882543875366 0.10983005993361 0 -0.45371440568763749 0.1126743632371118 0 -0.42737827173636012 0.1027702285454639 0 -0.4523882543875366 0.10983005993361 0 -0.44343173260412461 0.097571970950778963 0 -0.42737827173636012 0.1027702285454639 0 -0.4523882543875366 0.10983005993361 0 -0.45371440568763749 0.1126743632371118 0 -0.42737827173636012 0.1027702285454639 0 -0.45371440568763749 0.1126743632371118 0 -0.44343173260412461 0.097571970950778963 0 -0.45084974973894648 0.096020795281878568 0 -0.45306155814551219 0.1028275296158008 0 -0.44343173260412461 0.097571970950778963 0 -0.45084974973894648 0.096020795281878568 0 -0.44733932132275389 0.088290098875458828 0 -0.4523882543875366 0.10983005993361 0 -0.44343173260412461 0.097571970950778963 0 -0.45306155814551219 0.1028275296158008 0 -0.4523882543875366 0.10983005993361 0 -0.45306155814551219 0.1028275296158008 0 -0.45661100561120399 0.109540819014999 0 -0.45306155814551219 0.1028275296158008 0 -0.46084618436187341 0.10490351706993729 0 -0.45661100561120399 0.109540819014999 0 -0.45306155814551219 0.1028275296158008 0 -0.46084618436187341 0.10490351706993729 0 -0.45799439118323759 0.099220837031069903 0 -0.46084618436187341 0.10490351706993729 0 -0.4635407771028337 0.1124237257980706 0 -0.45661100561120399 0.109540819014999 0 -0.45799439118323759 0.099220837031069903 0 -0.46723244863383712 0.097971273043108306 0 -0.45594156200913483 0.091684632610025046 0 -0.45084974973894648 0.096020795281878568 0 -0.45799439118323759 0.099220837031069903 0 -0.45594156200913483 0.091684632610025046 0 -0.45084974973894648 0.096020795281878568 0 -0.45306155814551219 0.1028275296158008 0 -0.45799439118323759 0.099220837031069903 0 -0.46084618436187341 0.10490351706993729 0 -0.45799439118323759 0.099220837031069903 0 -0.46723244863383712 0.097971273043108306 0 -0.46084618436187341 0.10490351706993729 0 -0.46723244863383712 0.097971273043108306 0 -0.46686982756835349 0.1074114054382402 0 -0.46084618436187341 0.10490351706993729 0 -0.46686982756835349 0.1074114054382402 0 -0.4635407771028337 0.1124237257980706 0 -0.45371440568763749 0.1126743632371118 0 -0.46425598871103851 0.13528374379222011 0 -0.4635407771028337 0.1124237257980706 0 -0.45674497769142258 0.1138140594952527 0 -0.46958882025875243 0.12035793204680111 0 -0.46686982756835349 0.1074114054382402 0 -0.4635407771028337 0.1124237257980706 0 -0.47044075898603932 0.11380610730348489 0 -0.4635407771028337 0.1124237257980706 0 -0.46958882025875243 0.12035793204680111 0 -0.47044075898603932 0.11380610730348489 0 -0.45674497769142258 0.1138140594952527 0 -0.45371440568763749 0.1126743632371118 0 -0.46425598871103851 0.13528374379222011 0 -0.45674497769142258 0.1138140594952527 0 -0.46958882025875243 0.12035793204680111 0 -0.46425598871103851 0.13528374379222011 0 -0.4523882543875366 0.10983005993361 0 -0.45661100561120399 0.109540819014999 0 -0.45371440568763749 0.1126743632371118 0 -0.45674497769142258 0.1138140594952527 0 -0.45661100561120399 0.109540819014999 0 -0.45371440568763749 0.1126743632371118 0 -0.45674497769142258 0.1138140594952527 0 -0.45371440568763749 0.1126743632371118 0 -0.4635407771028337 0.1124237257980706 0 -0.45674497769142258 0.1138140594952527 0 -0.45661100561120399 0.109540819014999 0 -0.44282721760043869 0.062046251170956107 0 -0.4470315618909167 0.073148927984774167 0 -0.46103932749027238 0.064238871702306077 0 -0.44282721760043869 0.062046251170956107 0 -0.43131469147834472 0.070632617455275076 0 -0.4470315618909167 0.073148927984774167 0 -0.42957324029363853 0.085693113452461764 0 -0.44343173260412461 0.097571970950778963 0 -0.44733932132275389 0.088290098875458828 0 -0.42957324029363853 0.085693113452461764 0 -0.4470315618909167 0.073148927984774167 0 -0.44733932132275389 0.088290098875458828 0 -0.4470315618909167 0.073148927984774167 0 -0.44733932132275389 0.088290098875458828 0 -0.46047789149500767 0.082617330138573752 0 -0.45084974973894648 0.096020795281878568 0 -0.44733932132275389 0.088290098875458828 0 -0.45594156200913483 0.091684632610025046 0 -0.44733932132275389 0.088290098875458828 0 -0.45594156200913483 0.091684632610025046 0 -0.46047789149500767 0.082617330138573752 0 -0.46723244863383712 0.097971273043108306 0 -0.45594156200913483 0.091684632610025046 0 -0.46047789149500767 0.082617330138573752 0 -0.46047789149500767 0.082617330138573752 0 -0.46103932749027238 0.064238871702306077 0 -0.47920912086757578 0.083222027247413538 0 -0.4470315618909167 0.073148927984774167 0 -0.46047789149500767 0.082617330138573752 0 -0.46103932749027238 0.064238871702306077 0 -0.46103932749027238 0.064238871702306077 0 -0.48068047186290208 0.063626500276227002 0 -0.47920912086757578 0.083222027247413538 0 -0.46103932749027238 0.064238871702306077 0 -0.47920912086757578 0.083222027247413538 0 -0.46723244863383712 0.097971273043108306 0 -0.46047789149500767 0.082617330138573752 0 -0.47920912086757578 0.083222027247413538 0 -0.48068047186290208 0.063626500276227002 0 -0.47920912086757578 0.083222027247413538 0 -0.5 0.088432580532893601 0 -0.47920912086757578 0.083222027247413538 0 -0.49737891424487929 0.102205182792521 0 -0.47920912086757578 0.083222027247413538 0 -0.5 0.088432580532893601 0 -0.49737891424487929 0.102205182792521 0 -0.5 0.060034093897511798 0 -0.48068047186290208 0.063626500276227002 0 -0.5 0.088432580532893601 0 -0.47827810320487629 0.116675775998883 0 -0.48837893466537508 0.1117690854599766 0 -0.4842723158563047 0.1301441798928954 0 -0.47827810320487629 0.116675775998883 0 -0.47512549980118862 0.10796659812409699 0 -0.48837893466537508 0.1117690854599766 0 -0.47827810320487629 0.116675775998883 0 -0.46958882025875243 0.12035793204680111 0 -0.4842723158563047 0.1301441798928954 0 -0.47827810320487629 0.116675775998883 0 -0.47044075898603932 0.11380610730348489 0 -0.47512549980118862 0.10796659812409699 0 -0.46686982756835349 0.1074114054382402 0 -0.47044075898603932 0.11380610730348489 0 -0.47512549980118862 0.10796659812409699 0 -0.47827810320487629 0.116675775998883 0 -0.46958882025875243 0.12035793204680111 0 -0.47044075898603932 0.11380610730348489 0 -0.46723244863383712 0.097971273043108306 0 -0.47512549980118862 0.10796659812409699 0 -0.48162445158666772 0.1005823670901454 0 -0.46723244863383712 0.097971273043108306 0 -0.47920912086757578 0.083222027247413538 0 -0.48162445158666772 0.1005823670901454 0 -0.46723244863383712 0.097971273043108306 0 -0.46686982756835349 0.1074114054382402 0 -0.47512549980118862 0.10796659812409699 0 -0.47512549980118862 0.10796659812409699 0 -0.48162445158666772 0.1005823670901454 0 -0.48837893466537508 0.1117690854599766 0 -0.48162445158666772 0.1005823670901454 0 -0.49737891424487929 0.102205182792521 0 -0.48837893466537508 0.1117690854599766 0 -0.47920912086757578 0.083222027247413538 0 -0.48162445158666772 0.1005823670901454 0 -0.49737891424487929 0.102205182792521 0 -0.5 0.088432580532893601 0 -0.49737891424487929 0.102205182792521 0 -0.5 0.1168310671682755 0 -0.49737891424487929 0.102205182792521 0 -0.5 0.1168310671682755 0 -0.48837893466537508 0.1117690854599766 0 -0.5 0.1168310671682755 0 -0.48837893466537508 0.1117690854599766 0 -0.4842723158563047 0.1301441798928954 0 -0.5 0.1168310671682755 0 -0.4842723158563047 0.1301441798928954 0 -0.5 0.14522955380365729 0 -0.46958882025875243 0.12035793204680111 0 -0.4842723158563047 0.1301441798928954 0 -0.46425598871103851 0.13528374379222011 0 -0.4842723158563047 0.1301441798928954 0 -0.47479757173443998 0.15789312434732811 0 -0.46425598871103851 0.13528374379222011 0 -0.47479757173443998 0.15789312434732811 0 -0.46425598871103851 0.13528374379222011 0 -0.4842723158563047 0.1301441798928954 0 -0.5 0.14522955380365729 0 -0.47479757173443998 0.15789312434732811 0 -0.5 0.14522955380365729 0 -0.49999999999999972 0.17362804043903909 0 -0.47479757173443998 0.15789312434732811 0 -0.49999999999999972 0.17362804043903909 0 -0.47479757173443998 0.15789312434732811 0 -0.49999999999999972 0.17362804043903909 0 -0.49200992699072321 0.1743962810239672 0 -0.47479757173443998 0.15789312434732811 0 -0.48341269367675271 0.17637066895233999 0 -0.49170634683837577 0.1941587336203292 0 -0.49368671912131301 0.1828531969182482 0 -0.49999999999999972 0.17362804043903909 0 -0.5 0.19278741936367841 0 -0.49368671912131301 0.1828531969182482 0 -0.48341269367675271 0.17637066895233999 0 -0.49170634683837577 0.1941587336203292 0 -0.49368671912131301 0.1828531969182482 0 -0.49999999999999972 0.17362804043903909 0 -0.49200992699072321 0.1743962810239672 0 -0.49200992699072321 0.1743962810239672 0 -0.48341269367675271 0.17637066895233999 0 -0.49368671912131301 0.1828531969182482 0 -0.49200992699072321 0.1743962810239672 0 -0.48341269367675271 0.17637066895233999 0 -0.48341269367675271 0.17637066895233999 0 -0.45591042926964898 0.18268667049205081 0 -0.47274380268756999 0.19288508587190861 0 -0.48341269367675271 0.17637066895233999 0 -0.45591042926964898 0.18268667049205081 0 -0.49200992699072321 0.1743962810239672 0 -0.48341269367675271 0.17637066895233999 0 -0.47479757173443998 0.15789312434732811 0 -0.48341269367675271 0.17637066895233999 0 -0.47479757173443998 0.15789312434732811 0 -0.48341269367675271 0.17637066895233999 0 -0.47479757173443998 0.15789312434732811 0 -0.45723956394668003 0.16387676974864759 0 -0.48341269367675271 0.17637066895233999 0 -0.45723956394668003 0.16387676974864759 0 -0.45591042926964898 0.18268667049205081 0 -0.45591042926964898 0.18268667049205081 0 -0.43992511097516529 0.17411109905454999 0 -0.4284081648625454 0.1890026720317621 0 -0.45591042926964898 0.18268667049205081 0 -0.4284081648625454 0.1890026720317621 0 -0.45723956394668003 0.16387676974864759 0 -0.45591042926964898 0.18268667049205081 0 -0.43992511097516529 0.17411109905454999 0 -0.45723956394668003 0.16387676974864759 0 -0.43992511097516529 0.17411109905454999 0 -0.43892522612619872 0.15930650560997939 0 -0.43892522612619872 0.15930650560997939 0 -0.43796764784210812 0.14528805014891141 0 -0.45386540436598038 0.14482430837095511 0 -0.45723956394668003 0.16387676974864759 0 -0.43892522612619872 0.15930650560997939 0 -0.45386540436598038 0.14482430837095511 0 -0.45386540436598038 0.14482430837095511 0 -0.43293323699752101 0.1317554923945817 0 -0.43826405507869293 0.1195835460605416 0 -0.44901593584904892 0.12912088192892021 0 -0.43293323699752101 0.1317554923945817 0 -0.43796764784210812 0.14528805014891141 0 -0.45386540436598038 0.14482430837095511 0 -0.43293323699752101 0.1317554923945817 0 -0.44901593584904892 0.12912088192892021 0 -0.45386540436598038 0.14482430837095511 0 -0.43293323699752101 0.1317554923945817 0 -0.45371440568763749 0.1126743632371118 0 -0.44901593584904892 0.12912088192892021 0 -0.46425598871103851 0.13528374379222011 0 -0.44901593584904892 0.12912088192892021 0 -0.46425598871103851 0.13528374379222011 0 -0.45386540436598038 0.14482430837095511 0 -0.47479757173443998 0.15789312434732811 0 -0.45723956394668003 0.16387676974864759 0 -0.45386540436598038 0.14482430837095511 0 -0.47479757173443998 0.15789312434732811 0 -0.46425598871103851 0.13528374379222011 0 -0.45386540436598038 0.14482430837095511 0 -0.47479757173443998 0.15789312434732811 0 -0.45386540436598038 0.14482430837095511 0 -0.48226153920099157 0.23766317590200001 0 -0.47864167104372218 0.246590621409366 0 -0.48932095354102823 0.25454658797793611 0 -0.47315400564016008 0.2364435414805684 0 -0.47864167104372218 0.246590621409366 0 -0.46938038244821267 0.25133041049185839 0 -0.47315400564016008 0.2364435414805684 0 -0.48226153920099157 0.23766317590200001 0 -0.47864167104372218 0.246590621409366 0 -0.49106398183666961 0.22759324404760359 0 -0.48932095354102823 0.25454658797793611 0 -0.5 0.23810140997737081 0 -0.49106398183666961 0.22759324404760359 0 -0.48932095354102823 0.25454658797793611 0 -0.48226153920099157 0.23766317590200001 0 -0.49106398183666961 0.22759324404760359 0 -0.48932095354102823 0.25454658797793611 0 -0.5 0.23810140997737081 0 -0.49106398183666961 0.22759324404760359 0 -0.50000000000000022 0.21194679828831781 0 -0.49106398183666961 0.22759324404760359 0 -0.47912708394337772 0.2231418845945258 0 -0.48726644121087642 0.21298690825741631 0 -0.48226153920099157 0.23766317590200001 0 -0.49106398183666961 0.22759324404760359 0 -0.47912708394337772 0.2231418845945258 0 -0.47315400564016008 0.2364435414805684 0 -0.48226153920099157 0.23766317590200001 0 -0.47912708394337772 0.2231418845945258 0 -0.47315400564016008 0.2364435414805684 0 -0.47912708394337772 0.2231418845945258 0 -0.46764368341616458 0.22415830119077751 0 -0.47912708394337772 0.2231418845945258 0 -0.47360767850491831 0.20951316246361981 0 -0.46764368341616458 0.22415830119077751 0 -0.47360767850491831 0.20951316246361981 0 -0.48726644121087642 0.21298690825741631 0 -0.49170634683837577 0.1941587336203292 0 -0.47912708394337772 0.2231418845945258 0 -0.47360767850491831 0.20951316246361981 0 -0.48726644121087642 0.21298690825741631 0 -0.49106398183666961 0.22759324404760359 0 -0.50000000000000022 0.21194679828831781 0 -0.48726644121087642 0.21298690825741631 0 -0.50000000000000022 0.21194679828831781 0 -0.48726644121087642 0.21298690825741631 0 -0.49170634683837577 0.1941587336203292 0 -0.50000000000000022 0.21194679828831781 0 -0.49170634683837577 0.1941587336203292 0 -0.50000000000000022 0.21194679828831781 0 -0.5 0.19278741936367841 0 -0.49170634683837577 0.1941587336203292 0 -0.49368671912131301 0.1828531969182482 0 -0.5 0.19278741936367841 0 -0.49170634683837577 0.1941587336203292 0 -0.48341269367675271 0.17637066895233999 0 -0.49170634683837577 0.1941587336203292 0 -0.47274380268756999 0.19288508587190861 0 -0.47360767850491831 0.20951316246361981 0 -0.49170634683837577 0.1941587336203292 0 -0.47274380268756999 0.19288508587190861 0 -0.47360767850491831 0.20951316246361981 0 -0.47274380268756999 0.19288508587190861 0 -0.45820261548712909 0.20353130823034371 0 -0.45591042926964898 0.18268667049205081 0 -0.47274380268756999 0.19288508587190861 0 -0.45820261548712909 0.20353130823034371 0 -0.45591042926964898 0.18268667049205081 0 -0.43516662619925378 0.20614333559983469 0 -0.4284081648625454 0.1890026720317621 0 -0.45591042926964898 0.18268667049205081 0 -0.45820261548712909 0.20353130823034371 0 -0.43516662619925378 0.20614333559983469 0 -0.44192508753596349 0.22328399916790689 0 -0.43516662619925378 0.20614333559983469 0 -0.45032248765871591 0.2151961798839368 0 -0.44192508753596349 0.22328399916790689 0 -0.43516662619925378 0.20614333559983469 0 -0.45032248765871591 0.2151961798839368 0 -0.45820261548712909 0.20353130823034371 0 -0.43516662619925378 0.20614333559983469 0 -0.45032248765871591 0.2151961798839368 0 -0.46109406183397039 0.21551848415653921 0 -0.45620465585954723 0.2251951411450015 0 -0.45032248765871591 0.2151961798839368 0 -0.45820261548712909 0.20353130823034371 0 -0.46109406183397039 0.21551848415653921 0 -0.47360767850491831 0.20951316246361981 0 -0.45820261548712909 0.20353130823034371 0 -0.46109406183397039 0.21551848415653921 0 -0.47360767850491831 0.20951316246361981 0 -0.46109406183397039 0.21551848415653921 0 -0.46764368341616458 0.22415830119077751 0 -0.47315400564016008 0.2364435414805684 0 -0.46764368341616458 0.22415830119077751 0 -0.45925329591452863 0.2407771106774913 0 -0.46764368341616458 0.22415830119077751 0 -0.45620465585954723 0.2251951411450015 0 -0.45925329591452863 0.2407771106774913 0 -0.46109406183397039 0.21551848415653921 0 -0.46764368341616458 0.22415830119077751 0 -0.45620465585954723 0.2251951411450015 0 -0.45032248765871591 0.2151961798839368 0 -0.45620465585954723 0.2251951411450015 0 -0.44192508753596349 0.22328399916790689 0 -0.44192508753596349 0.22328399916790689 0 -0.44062222049055039 0.24203477259657111 0 -0.43146145522804691 0.2313120115293863 0 -0.45620465585954723 0.2251951411450015 0 -0.44062222049055039 0.24203477259657111 0 -0.45620465585954723 0.2251951411450015 0 -0.44192508753596349 0.22328399916790689 0 -0.44062222049055039 0.24203477259657111 0 -0.44062222049055039 0.24203477259657111 0 -0.45046339488490522 0.249057113070103 0 -0.44442574262614493 0.25832327296872359 0 -0.44062222049055039 0.24203477259657111 0 -0.45046339488490522 0.249057113070103 0 -0.45925329591452863 0.2407771106774913 0 -0.45620465585954723 0.2251951411450015 0 -0.44062222049055039 0.24203477259657111 0 -0.45925329591452863 0.2407771106774913 0 -0.45046339488490522 0.249057113070103 0 -0.45925329591452863 0.2407771106774913 0 -0.45807104112411212 0.25534721177055669 0 -0.45925329591452863 0.2407771106774913 0 -0.46938038244821267 0.25133041049185839 0 -0.45807104112411212 0.25534721177055669 0 -0.47315400564016008 0.2364435414805684 0 -0.45925329591452863 0.2407771106774913 0 -0.46938038244821267 0.25133041049185839 0 -0.4198454647722451 0.23985190764030939 0 -0.40081965837488509 0.24074316727492401 0 -0.40585136056822319 0.25674789398696107 0 -0.4198454647722451 0.23985190764030939 0 -0.405480724964072 0.22581663549259839 0 -0.40081965837488509 0.24074316727492401 0 -0.44062222049055039 0.24203477259657111 0 -0.4198454647722451 0.23985190764030939 0 -0.42503978512155383 0.25887440404814072 0 -0.44062222049055039 0.24203477259657111 0 -0.4198454647722451 0.23985190764030939 0 -0.43146145522804691 0.2313120115293863 0 -0.4198454647722451 0.23985190764030939 0 -0.43146145522804691 0.2313120115293863 0 -0.42370673975344808 0.22056464269113771 0 -0.44192508753596349 0.22328399916790689 0 -0.43146145522804691 0.2313120115293863 0 -0.42370673975344808 0.22056464269113771 0 -0.4198454647722451 0.23985190764030939 0 -0.42370673975344808 0.22056464269113771 0 -0.405480724964072 0.22581663549259839 0 -0.42370673975344808 0.22056464269113771 0 -0.40708390191205951 0.20882890034131879 0 -0.405480724964072 0.22581663549259839 0 -0.42370673975344808 0.22056464269113771 0 -0.40708390191205951 0.20882890034131879 0 -0.42107335870595469 0.2022269477122331 0 -0.44192508753596349 0.22328399916790689 0 -0.42370673975344808 0.22056464269113771 0 -0.43516662619925378 0.20614333559983469 0 -0.42370673975344808 0.22056464269113771 0 -0.43516662619925378 0.20614333559983469 0 -0.42107335870595469 0.2022269477122331 0 -0.43516662619925378 0.20614333559983469 0 -0.4284081648625454 0.1890026720317621 0 -0.42107335870595469 0.2022269477122331 0 -0.43516662619925378 0.20614333559983469 0 -0.4284081648625454 0.1890026720317621 0 -0.4284081648625454 0.1890026720317621 0 -0.40915969581062839 0.19342315750049971 0 -0.4284081648625454 0.1890026720317621 0 -0.42107335870595469 0.2022269477122331 0 -0.40915969581062839 0.19342315750049971 0 -0.40708390191205951 0.20882890034131879 0 -0.42107335870595469 0.2022269477122331 0 -0.40915969581062839 0.19342315750049971 0 -0.40708390191205951 0.20882890034131879 0 -0.40915969581062839 0.19342315750049971 0 -0.38991122675871148 0.19784364296923759 0 -0.40915969581062839 0.19342315750049971 0 -0.38991122675871148 0.19784364296923759 0 -0.40915969581062839 0.19342315750049971 0 -0.38991122675871148 0.19784364296923759 0 -0.39569501158598158 0.17813944679546001 0 -0.39158905321283283 0.2136173787495643 0 -0.38435338999826391 0.22831720607051781 0 -0.36414166766971379 0.2074649771098355 0 -0.38991122675871148 0.19784364296923759 0 -0.39158905321283283 0.2136173787495643 0 -0.36414166766971379 0.2074649771098355 0 -0.40708390191205951 0.20882890034131879 0 -0.39158905321283283 0.2136173787495643 0 -0.405480724964072 0.22581663549259839 0 -0.40708390191205951 0.20882890034131879 0 -0.38991122675871148 0.19784364296923759 0 -0.39158905321283283 0.2136173787495643 0 -0.405480724964072 0.22581663549259839 0 -0.38435338999826391 0.22831720607051781 0 -0.40081965837488509 0.24074316727492401 0 -0.39158905321283283 0.2136173787495643 0 -0.405480724964072 0.22581663549259839 0 -0.38435338999826391 0.22831720607051781 0 -0.37619177155740557 0.24036243622333081 0 -0.38790582398472923 0.24962922847932231 0 -0.36318679658289171 0.25196182354824148 0 -0.38435338999826391 0.22831720607051781 0 -0.37619177155740557 0.24036243622333081 0 -0.38790582398472923 0.24962922847932231 0 -0.38435338999826391 0.22831720607051781 0 -0.38790582398472923 0.24962922847932231 0 -0.40081965837488509 0.24074316727492401 0 -0.38790582398472923 0.24962922847932231 0 -0.40081965837488509 0.24074316727492401 0 -0.40585136056822319 0.25674789398696107 0 -0.40926453963391513 0.14045102348790381 0 -0.42614672387873248 0.14526589422012931 0 -0.41883635224822963 0.16472684775983329 0 -0.40926453963391513 0.14045102348790381 0 -0.41883635224822963 0.16472684775983329 0 -0.40926453963391513 0.14045102348790381 0 -0.41883635224822963 0.16472684775983329 0 -0.40029434983296169 0.15790366282291429 0 -0.40926453963391513 0.14045102348790381 0 -0.417579207348795 0.13056668242546571 0 -0.40026410281127539 0.13237877311027449 0 -0.40926453963391513 0.14045102348790381 0 -0.417579207348795 0.13056668242546571 0 -0.42614672387873248 0.14526589422012931 0 -0.417579207348795 0.13056668242546571 0 -0.43293323699752101 0.1317554923945817 0 -0.42614672387873248 0.14526589422012931 0 -0.42608096723388439 0.1205091241492761 0 -0.417579207348795 0.13056668242546571 0 -0.43293323699752101 0.1317554923945817 0 -0.43796764784210812 0.14528805014891141 0 -0.43293323699752101 0.1317554923945817 0 -0.42614672387873248 0.14526589422012931 0 -0.43892522612619872 0.15930650560997939 0 -0.43796764784210812 0.14528805014891141 0 -0.42614672387873248 0.14526589422012931 0 -0.43892522612619872 0.15930650560997939 0 -0.42614672387873248 0.14526589422012931 0 -0.41883635224822963 0.16472684775983329 0 -0.43992511097516529 0.17411109905454999 0 -0.43892522612619872 0.15930650560997939 0 -0.41883635224822963 0.16472684775983329 0 -0.4284081648625454 0.1890026720317621 0 -0.41883635224822963 0.16472684775983329 0 -0.43992511097516529 0.17411109905454999 0 -0.4284081648625454 0.1890026720317621 0 -0.41883635224822963 0.16472684775983329 0 -0.40915969581062839 0.19342315750049971 0 -0.41883635224822963 0.16472684775983329 0 -0.39569501158598158 0.17813944679546001 0 -0.4284081648625454 0.1890026720317621 0 -0.40915969581062839 0.19342315750049971 0 -0.41883635224822963 0.16472684775983329 0 -0.40029434983296169 0.15790366282291429 0 -0.39569501158598158 0.17813944679546001 0 -0.38484252596519369 0.16167484958157691 0 -0.41883635224822963 0.16472684775983329 0 -0.40029434983296169 0.15790366282291429 0 -0.39569501158598158 0.17813944679546001 0 -0.39569501158598158 0.17813944679546001 0 -0.38484252596519369 0.16167484958157691 0 -0.36525228834216061 0.17922160577889321 0 -0.38991122675871148 0.19784364296923759 0 -0.39569501158598158 0.17813944679546001 0 -0.36525228834216061 0.17922160577889321 0 -0.39283331973148827 0.14452614648979731 0 -0.38372255811484618 0.13025780258704611 0 -0.36636290901460722 0.1509782344479508 0 -0.38484252596519369 0.16167484958157691 0 -0.39283331973148827 0.14452614648979731 0 -0.36636290901460722 0.1509782344479508 0 -0.40029434983296169 0.15790366282291429 0 -0.38484252596519369 0.16167484958157691 0 -0.39283331973148827 0.14452614648979731 0 -0.40926453963391513 0.14045102348790381 0 -0.40029434983296169 0.15790366282291429 0 -0.39283331973148827 0.14452614648979731 0 -0.39283331973148827 0.14452614648979731 0 -0.40026410281127539 0.13237877311027449 0 -0.38372255811484618 0.13025780258704611 0 -0.39792088922733271 0.1160922105611595 0 -0.417579207348795 0.13056668242546571 0 -0.40026410281127539 0.13237877311027449 0 -0.39792088922733271 0.1160922105611595 0 -0.40026410281127539 0.13237877311027449 0 -0.38372255811484618 0.13025780258704611 0 -0.40926453963391513 0.14045102348790381 0 -0.39283331973148827 0.14452614648979731 0 -0.40026410281127539 0.13237877311027449 0 -0.38372255811484618 0.13025780258704611 0 -0.36636290901460722 0.1509782344479508 0 -0.36747352968705388 0.12273486311700831 0 -0.36636290901460722 0.1509782344479508 0 -0.36747352968705388 0.12273486311700831 0 -0.35528769071996391 0.12689780186549679 0 -0.36636290901460722 0.1509782344479508 0 -0.36747352968705388 0.12273486311700831 0 -0.35528769071996391 0.12689780186549679 0 -0.33512599087492562 0.1447950320020088 0 -0.35528769071996391 0.12689780186549679 0 -0.35168351666373848 0.14314256241625531 0 -0.33512599087492562 0.1447950320020088 0 -0.35528769071996391 0.12689780186549679 0 -0.33512599087492562 0.1447950320020088 0 -0.34115039425197219 0.12498493974687711 0 -0.35528769071996391 0.12689780186549679 0 -0.35168351666373848 0.14314256241625531 0 -0.36636290901460722 0.1509782344479508 0 -0.35168351666373848 0.14314256241625531 0 -0.36636290901460722 0.1509782344479508 0 -0.34333519974196419 0.16612441953572921 0 -0.38484252596519369 0.16167484958157691 0 -0.36636290901460722 0.1509782344479508 0 -0.36525228834216061 0.17922160577889321 0 -0.36636290901460722 0.1509782344479508 0 -0.36525228834216061 0.17922160577889321 0 -0.36525228834216061 0.17922160577889321 0 -0.34333519974196419 0.16612441953572921 0 -0.34654591437965571 0.19533490523866279 0 -0.36636290901460722 0.1509782344479508 0 -0.36525228834216061 0.17922160577889321 0 -0.34333519974196419 0.16612441953572921 0 -0.34333519974196419 0.16612441953572921 0 -0.31496429102988749 0.16269226213852109 0 -0.33512599087492562 0.1447950320020088 0 -0.34333519974196419 0.16612441953572921 0 -0.34654591437965571 0.19533490523866279 0 -0.32412519241006588 0.1878495682783011 0 -0.31496429102988749 0.16269226213852109 0 -0.32412519241006588 0.1878495682783011 0 -0.34333519974196419 0.16612441953572921 0 -0.31496429102988749 0.16269226213852109 0 -0.32412519241006588 0.1878495682783011 0 -0.31303823693556859 0.17707572181323081 0 -0.31496429102988749 0.16269226213852109 0 -0.32412519241006588 0.1878495682783011 0 -0.31303823693556859 0.17707572181323081 0 -0.32412519241006588 0.1878495682783011 0 -0.3108046026399135 0.18379038091696129 0 -0.31496429102988749 0.16269226213852109 0 -0.31353256245119709 0.1587605055712967 0 -0.31354631638020197 0.13395604467094269 0 -0.33512599087492562 0.1447950320020088 0 -0.3122891553291075 0.14635758184588041 0 -0.31353256245119709 0.1587605055712967 0 -0.33512599087492562 0.1447950320020088 0 -0.3122891553291075 0.14635758184588041 0 -0.31496429102988749 0.16269226213852109 0 -0.31353256245119709 0.1587605055712967 0 -0.33512599087492562 0.1447950320020088 0 -0.31496429102988749 0.16269226213852109 0 -0.33512599087492562 0.1447950320020088 0 -0.31354631638020197 0.13395604467094269 0 -0.32917568526667751 0.12578156900391591 0 -0.33512599087492562 0.1447950320020088 0 -0.31354631638020197 0.13395604467094269 0 -0.32917568526667751 0.12578156900391591 0 -0.32114709127587232 0.11611322513389059 0 -0.32917568526667751 0.12578156900391591 0 -0.33512599087492562 0.1447950320020088 0 -0.34115039425197219 0.12498493974687711 0 -0.35168351666373848 0.14314256241625531 0 -0.34333519974196419 0.16612441953572921 0 -0.33512599087492562 0.1447950320020088 0 -0.36303104699726713 0.23570834844077809 0 -0.34244699517042121 0.23816418055786151 0 -0.36318679658289171 0.25196182354824148 0 -0.34244699517042121 0.23816418055786151 0 -0.36318679658289171 0.25196182354824148 0 -0.33952374355129727 0.25899057541505788 0 -0.37619177155740557 0.24036243622333081 0 -0.36303104699726713 0.23570834844077809 0 -0.36318679658289171 0.25196182354824148 0 -0.38435338999826391 0.22831720607051781 0 -0.37619177155740557 0.24036243622333081 0 -0.36303104699726713 0.23570834844077809 0 -0.38435338999826391 0.22831720607051781 0 -0.36303104699726713 0.23570834844077809 0 -0.36414166766971379 0.2074649771098355 0 -0.36303104699726713 0.23570834844077809 0 -0.36414166766971379 0.2074649771098355 0 -0.36303104699726713 0.23570834844077809 0 -0.35084793517488477 0.2210857468323085 0 -0.34244699517042121 0.23816418055786151 0 -0.36303104699726713 0.23570834844077809 0 -0.35084793517488477 0.2210857468323085 0 -0.36414166766971379 0.2074649771098355 0 -0.35084793517488477 0.2210857468323085 0 -0.36414166766971379 0.2074649771098355 0 -0.34654591437965571 0.19533490523866279 0 -0.36525228834216061 0.17922160577889321 0 -0.36414166766971379 0.2074649771098355 0 -0.38991122675871148 0.19784364296923759 0 -0.36525228834216061 0.17922160577889321 0 -0.36414166766971379 0.2074649771098355 0 -0.36525228834216061 0.17922160577889321 0 -0.36414166766971379 0.2074649771098355 0 -0.34654591437965571 0.19533490523866279 0 -0.32412519241006588 0.1878495682783011 0 -0.33328609379024349 0.2130068744180813 0 -0.34654591437965571 0.19533490523866279 0 -0.32412519241006588 0.1878495682783011 0 -0.33328609379024349 0.2130068744180813 0 -0.32412519241006588 0.1878495682783011 0 -0.33328609379024349 0.2130068744180813 0 -0.31080006153106382 0.20197173666100501 0 -0.32412519241006588 0.1878495682783011 0 -0.31080006153106382 0.20197173666100501 0 -0.3108046026399135 0.18379038091696129 0 -0.33328609379024349 0.2130068744180813 0 -0.31873218963182409 0.22654972870499029 0 -0.31080006153106382 0.20197173666100501 0 -0.35084793517488477 0.2210857468323085 0 -0.34654591437965571 0.19533490523866279 0 -0.33328609379024349 0.2130068744180813 0 -0.35084793517488477 0.2210857468323085 0 -0.33328609379024349 0.2130068744180813 0 -0.34244699517042121 0.23816418055786151 0 -0.33328609379024349 0.2130068744180813 0 -0.34244699517042121 0.23816418055786151 0 -0.33328609379024349 0.2130068744180813 0 -0.31873218963182409 0.22654972870499029 0 -0.34244699517042121 0.23816418055786151 0 -0.31873218963182409 0.22654972870499029 0 -0.32200613725511351 0.24850726385495631 0 -0.34244699517042121 0.23816418055786151 0 -0.31873218963182409 0.22654972870499029 0 -0.32200613725511351 0.24850726385495631 0 -0.30672251365844311 0.23743048015470111 0 -0.32200613725511351 0.24850726385495631 0 -0.34244699517042121 0.23816418055786151 0 -0.33952374355129727 0.25899057541505788 0 -0.29125564533142001 0.24067530578368901 0 -0.30672251365844311 0.23743048015470111 0 -0.30640548876467488 0.25787073169030861 0 -0.32200613725511351 0.24850726385495631 0 -0.30672251365844311 0.23743048015470111 0 -0.30640548876467488 0.25787073169030861 0 -0.29125564533142001 0.24067530578368901 0 -0.30672251365844311 0.23743048015470111 0 -0.29521310730918271 0.21354937073956171 0 -0.31873218963182409 0.22654972870499029 0 -0.30672251365844311 0.23743048015470111 0 -0.29521310730918271 0.21354937073956171 0 -0.29125564533142001 0.24067530578368901 0 -0.29521310730918271 0.21354937073956171 0 -0.29125564533142001 0.24067530578368901 0 -0.29521310730918271 0.21354937073956171 0 -0.27258595833473342 0.22149207507906341 0 -0.29521310730918271 0.21354937073956171 0 -0.28878760701375322 0.1984352968903606 0 -0.27490594785389072 0.20112241201531189 0 -0.31873218963182409 0.22654972870499029 0 -0.29521310730918271 0.21354937073956171 0 -0.31080006153106382 0.20197173666100501 0 -0.29521310730918271 0.21354937073956171 0 -0.29917056928694541 0.1864234356954344 0 -0.29521310730918271 0.21354937073956171 0 -0.31080006153106382 0.20197173666100501 0 -0.29917056928694541 0.1864234356954344 0 -0.31080006153106382 0.20197173666100501 0 -0.3108046026399135 0.18379038091696129 0 -0.29917056928694541 0.1864234356954344 0 -0.28878760701375322 0.1984352968903606 0 -0.29917056928694541 0.1864234356954344 0 -0.28955343229492791 0.1852490896997587 0 -0.29521310730918271 0.21354937073956171 0 -0.28878760701375322 0.1984352968903606 0 -0.29917056928694541 0.1864234356954344 0 -0.28878760701375322 0.1984352968903606 0 -0.27938784373491388 0.18917199981814359 0 -0.28955343229492791 0.1852490896997587 0 -0.27938784373491388 0.18917199981814359 0 -0.27490594785389072 0.20112241201531189 0 -0.26439180367967152 0.18225540552070321 0 -0.28878760701375322 0.1984352968903606 0 -0.27938784373491388 0.18917199981814359 0 -0.27490594785389072 0.20112241201531189 0 -0.27490594785389072 0.20112241201531189 0 -0.25370102580463139 0.2052288024824625 0 -0.26439180367967152 0.18225540552070321 0 -0.25370102580463139 0.2052288024824625 0 -0.26439180367967152 0.18225540552070321 0 -0.23359887481107691 0.1809086922627815 0 -0.27490594785389072 0.20112241201531189 0 -0.25370102580463139 0.2052288024824625 0 -0.27258595833473342 0.22149207507906341 0 -0.29521310730918271 0.21354937073956171 0 -0.27490594785389072 0.20112241201531189 0 -0.27258595833473342 0.22149207507906341 0 -0.29125564533142001 0.24067530578368901 0 -0.27258595833473342 0.22149207507906341 0 -0.26834113505385238 0.23837358332174549 0 -0.27258595833473342 0.22149207507906341 0 -0.25272375818517617 0.22994970808158929 0 -0.26834113505385238 0.23837358332174549 0 -0.25370102580463139 0.2052288024824625 0 -0.27258595833473342 0.22149207507906341 0 -0.25272375818517617 0.22994970808158929 0 -0.25272375818517617 0.22994970808158929 0 -0.25621817608628389 0.2460965770837312 0 -0.26834113505385238 0.23837358332174549 0 -0.25621817608628389 0.2460965770837312 0 -0.26834113505385238 0.23837358332174549 0 -0.26892213733164849 0.25365425058065472 0 -0.29125564533142001 0.24067530578368901 0 -0.26834113505385238 0.23837358332174549 0 -0.26892213733164849 0.25365425058065472 0 -0.29370567785695612 0.15770531643225719 0 -0.28412418886142132 0.16518528890623771 0 -0.28065913062351988 0.14575155473079041 0 -0.30159211447790629 0.14759241864651959 0 -0.29370567785695612 0.15770531643225719 0 -0.28065913062351988 0.14575155473079041 0 -0.29682817834931757 0.13068013418198679 0 -0.30159211447790629 0.14759241864651959 0 -0.28065913062351988 0.14575155473079041 0 -0.29682817834931757 0.13068013418198679 0 -0.28065913062351988 0.14575155473079041 0 -0.28285123447775751 0.1183560919224374 0 -0.31354631638020197 0.13395604467094269 0 -0.29682817834931757 0.13068013418198679 0 -0.30159211447790629 0.14759241864651959 0 -0.31354631638020197 0.13395604467094269 0 -0.3122891553291075 0.14635758184588041 0 -0.30159211447790629 0.14759241864651959 0 -0.31353256245119709 0.1587605055712967 0 -0.3122891553291075 0.14635758184588041 0 -0.30159211447790629 0.14759241864651959 0 -0.31496429102988749 0.16269226213852109 0 -0.31353256245119709 0.1587605055712967 0 -0.30488677357152572 0.1641353808659653 0 -0.30159211447790629 0.14759241864651959 0 -0.30488677357152572 0.1641353808659653 0 -0.29370567785695612 0.15770531643225719 0 -0.31353256245119709 0.1587605055712967 0 -0.30159211447790629 0.14759241864651959 0 -0.30488677357152572 0.1641353808659653 0 -0.31496429102988749 0.16269226213852109 0 -0.30225886166240762 0.17397067591913981 0 -0.31303823693556859 0.17707572181323081 0 -0.31496429102988749 0.16269226213852109 0 -0.30225886166240762 0.17397067591913981 0 -0.31496429102988749 0.16269226213852109 0 -0.30488677357152572 0.1641353808659653 0 -0.30225886166240762 0.17397067591913981 0 -0.30488677357152572 0.1641353808659653 0 -0.30225886166240762 0.17397067591913981 0 -0.29597535979189887 0.1670989905046398 0 -0.30488677357152572 0.1641353808659653 0 -0.29370567785695612 0.15770531643225719 0 -0.29597535979189887 0.1670989905046398 0 -0.31303823693556859 0.17707572181323081 0 -0.3108046026399135 0.18379038091696129 0 -0.30225886166240762 0.17397067591913981 0 -0.30225886166240762 0.17397067591913981 0 -0.29917056928694541 0.1864234356954344 0 -0.28955343229492791 0.1852490896997587 0 -0.3108046026399135 0.18379038091696129 0 -0.30225886166240762 0.17397067591913981 0 -0.29917056928694541 0.1864234356954344 0 -0.30225886166240762 0.17397067591913981 0 -0.28955343229492791 0.1852490896997587 0 -0.30225886166240762 0.17397067591913981 0 -0.28955343229492791 0.1852490896997587 0 -0.29024545837739651 0.173916500811098 0 -0.28955343229492791 0.1852490896997587 0 -0.29024545837739651 0.173916500811098 0 -0.27889874324695868 0.17762520371433099 0 -0.29024545837739651 0.173916500811098 0 -0.28412418886142132 0.16518528890623771 0 -0.27889874324695868 0.17762520371433099 0 -0.27938784373491388 0.18917199981814359 0 -0.28955343229492791 0.1852490896997587 0 -0.27889874324695868 0.17762520371433099 0 -0.29370567785695612 0.15770531643225719 0 -0.29597535979189887 0.1670989905046398 0 -0.28412418886142132 0.16518528890623771 0 -0.30225886166240762 0.17397067591913981 0 -0.29024545837739651 0.173916500811098 0 -0.29597535979189887 0.1670989905046398 0 -0.29024545837739651 0.173916500811098 0 -0.29597535979189887 0.1670989905046398 0 -0.28412418886142132 0.16518528890623771 0 -0.28412418886142132 0.16518528890623771 0 -0.26844272787379447 0.16268744982768751 0 -0.27889874324695868 0.17762520371433099 0 -0.28412418886142132 0.16518528890623771 0 -0.26844272787379447 0.16268744982768751 0 -0.28065913062351988 0.14575155473079041 0 -0.26844272787379447 0.16268744982768751 0 -0.27889874324695868 0.17762520371433099 0 -0.26439180367967152 0.18225540552070321 0 -0.27938784373491388 0.18917199981814359 0 -0.27889874324695868 0.17762520371433099 0 -0.26439180367967152 0.18225540552070321 0 -0.26844272787379447 0.16268744982768751 0 -0.26439180367967152 0.18225540552070321 0 -0.247018622616726 0.15992587597476091 0 -0.26844272787379447 0.16268744982768751 0 -0.25846103874104392 0.14702121199507179 0 -0.247018622616726 0.15992587597476091 0 -0.26844272787379447 0.16268744982768751 0 -0.25846103874104392 0.14702121199507179 0 -0.28065913062351988 0.14575155473079041 0 -0.25846103874104392 0.14702121199507179 0 -0.28065913062351988 0.14575155473079041 0 -0.25922316449870308 0.12628093809151891 0 -0.28065913062351988 0.14575155473079041 0 -0.25922316449870308 0.12628093809151891 0 -0.28285123447775751 0.1183560919224374 0 -0.25846103874104392 0.14702121199507179 0 -0.25922316449870308 0.12628093809151891 0 -0.2369615480924761 0.1404602413506009 0 -0.25922316449870308 0.12628093809151891 0 -0.25136603029008331 0.1103208693098497 0 -0.26687835675477128 0.1014348965859585 0 -0.25136603029008331 0.1103208693098497 0 -0.26687835675477128 0.1014348965859585 0 -0.24377998071086901 0.096378574065869249 0 -0.26687835675477128 0.1014348965859585 0 -0.28737892951993471 0.098967158637655914 0 -0.27569457229827071 0.081243623470509244 0 -0.26687835675477128 0.1014348965859585 0 -0.28285123447775751 0.1183560919224374 0 -0.28737892951993471 0.098967158637655914 0 -0.25922316449870308 0.12628093809151891 0 -0.26687835675477128 0.1014348965859585 0 -0.28285123447775751 0.1183560919224374 0 -0.29682817834931757 0.13068013418198679 0 -0.28285123447775751 0.1183560919224374 0 -0.30549209578720232 0.10774456093924389 0 -0.28285123447775751 0.1183560919224374 0 -0.28737892951993471 0.098967158637655914 0 -0.30549209578720232 0.10774456093924389 0 -0.28737892951993471 0.098967158637655914 0 -0.30549209578720232 0.10774456093924389 0 -0.29743787519420251 0.08153307720754506 0 -0.30549209578720232 0.10774456093924389 0 -0.29743787519420251 0.08153307720754506 0 -0.31354631638020197 0.13395604467094269 0 -0.29682817834931757 0.13068013418198679 0 -0.30549209578720232 0.10774456093924389 0 -0.31354631638020197 0.13395604467094269 0 -0.30549209578720232 0.10774456093924389 0 -0.29926204670725021 0.066629363318123747 0 -0.30931237829482389 0.073252958087475881 0 -0.31697319293959142 0.061410437985649477 0 -0.29926204670725021 0.066629363318123747 0 -0.30931237829482389 0.073252958087475881 0 -0.29743787519420251 0.08153307720754506 0 -0.30549209578720232 0.10774456093924389 0 -0.29743787519420251 0.08153307720754506 0 -0.31312795334666071 0.083579729522452809 0 -0.30931237829482389 0.073252958087475881 0 -0.29743787519420251 0.08153307720754506 0 -0.31312795334666071 0.083579729522452809 0 -0.28737892951993471 0.098967158637655914 0 -0.29743787519420251 0.08153307720754506 0 -0.27569457229827071 0.081243623470509244 0 -0.29743787519420251 0.08153307720754506 0 -0.28743776060402371 0.060458689408765323 0 -0.28938365460120269 0.05532159347584624 0 -0.29743787519420251 0.08153307720754506 0 -0.28938365460120269 0.05532159347584624 0 -0.29926204670725021 0.066629363318123747 0 -0.29743787519420251 0.08153307720754506 0 -0.28938365460120269 0.05532159347584624 0 -0.29743787519420251 0.08153307720754506 0 -0.27569457229827071 0.081243623470509244 0 -0.28743776060402371 0.060458689408765323 0 -0.27569457229827071 0.081243623470509244 0 -0.26257114212692878 0.06573449919026883 0 -0.28743776060402371 0.060458689408765323 0 -0.26257114212692878 0.06573449919026883 0 -0.28743776060402371 0.060458689408765323 0 -0.26687835675477128 0.1014348965859585 0 -0.25261226255175379 0.080423606239198905 0 -0.24377998071086901 0.096378574065869249 0 -0.26687835675477128 0.1014348965859585 0 -0.27569457229827071 0.081243623470509244 0 -0.25261226255175379 0.080423606239198905 0 -0.26257114212692878 0.06573449919026883 0 -0.23770452364983391 0.071010308971772351 0 -0.25261226255175379 0.080423606239198905 0 -0.26257114212692878 0.06573449919026883 0 -0.23770452364983391 0.071010308971772351 0 -0.27569457229827071 0.081243623470509244 0 -0.25261226255175379 0.080423606239198905 0 -0.26257114212692878 0.06573449919026883 0 -0.2522816967992324 0.037264740289820159 0 -0.27263172987273521 0.051913181220590639 0 -0.24906194248509719 0.058488871325365822 0 -0.26257114212692878 0.06573449919026883 0 -0.27263172987273521 0.051913181220590639 0 -0.24906194248509719 0.058488871325365822 0 -0.2522816967992324 0.037264740289820159 0 -0.2684979789729644 0.03593820420606865 0 -0.27263172987273521 0.051913181220590639 0 -0.2684979789729644 0.03593820420606865 0 -0.27263172987273521 0.051913181220590639 0 -0.28132943400820298 0.02911010974414751 0 -0.27263172987273521 0.051913181220590639 0 -0.28132943400820298 0.02911010974414751 0 -0.28938365460120269 0.05532159347584624 0 -0.26257114212692878 0.06573449919026883 0 -0.27263172987273521 0.051913181220590639 0 -0.28743776060402371 0.060458689408765323 0 -0.25267499080189931 -0.0034516002120552492 0 -0.26909988492935111 -0.0018655285383734981 0 -0.25157722050270093 0.012682655753942951 0 -0.26909988492935111 -0.0018655285383734981 0 -0.25157722050270093 0.012682655753942951 0 -0.27200359261247947 0.017754051058092819 0 -0.2522816967992324 0.037264740289820159 0 -0.25157722050270093 0.012682655753942951 0 -0.27200359261247947 0.017754051058092819 0 -0.2522816967992324 0.037264740289820159 0 -0.2684979789729644 0.03593820420606865 0 -0.27200359261247947 0.017754051058092819 0 -0.2522816967992324 0.037264740289820159 0 -0.27200359261247947 0.017754051058092819 0 -0.27200359261247947 0.017754051058092819 0 -0.28831373269731447 0.017122983851404761 0 -0.28132943400820298 0.02911010974414751 0 -0.2684979789729644 0.03593820420606865 0 -0.27200359261247947 0.017754051058092819 0 -0.28132943400820298 0.02911010974414751 0 -0.26909988492935111 -0.0018655285383734981 0 -0.2917254884257266 -0.0017566381736345419 0 -0.27200359261247947 0.017754051058092819 0 -0.2917254884257266 -0.0017566381736345419 0 -0.27200359261247947 0.017754051058092819 0 -0.28831373269731447 0.017122983851404761 0 -0.2917254884257266 -0.0017566381736345419 0 -0.28831373269731447 0.017122983851404761 0 -0.29997880334656019 0.01439552450637107 0 -0.2917254884257266 -0.0017566381736345419 0 -0.27200359261247947 0.017754051058092819 0 -0.28831373269731447 0.017122983851404761 0 -0.29656482898857922 0.02610767777843559 0 -0.29997880334656019 0.01439552450637107 0 -0.28831373269731447 0.017122983851404761 0 -0.28132943400820298 0.02911010974414751 0 -0.29656482898857922 0.02610767777843559 0 -0.28132943400820298 0.02911010974414751 0 -0.29656482898857922 0.02610767777843559 0 -0.29344050585463782 0.03493273697686209 0 -0.29656482898857922 0.02610767777843559 0 -0.31039051656375261 0.022327184027059441 0 -0.30541723396373921 0.038711125382435783 0 -0.31039051656375261 0.022327184027059441 0 -0.30541723396373921 0.038711125382435783 0 -0.32038394146944787 0.031620215762440292 0 -0.29656482898857922 0.02610767777843559 0 -0.31039051656375261 0.022327184027059441 0 -0.29997880334656019 0.01439552450637107 0 -0.31039051656375261 0.022327184027059441 0 -0.31177688145040278 0.0050359958776742568 0 -0.29997880334656019 0.01439552450637107 0 -0.2917254884257266 -0.0017566381736345419 0 -0.31177688145040278 0.0050359958776742568 0 -0.29997880334656019 0.01439552450637107 0 -0.27263172987273521 0.051913181220590639 0 -0.28743776060402371 0.060458689408765323 0 -0.28938365460120269 0.05532159347584624 0 -0.28938365460120269 0.05532159347584624 0 -0.29045052645802971 0.045802035002429492 0 -0.29738278035354182 0.050541329601553678 0 -0.28938365460120269 0.05532159347584624 0 -0.29738278035354182 0.050541329601553678 0 -0.29780899910201009 0.056562827273038227 0 -0.29926204670725021 0.066629363318123747 0 -0.28938365460120269 0.05532159347584624 0 -0.29780899910201009 0.056562827273038227 0 -0.28132943400820298 0.02911010974414751 0 -0.28938365460120269 0.05532159347584624 0 -0.29045052645802971 0.045802035002429492 0 -0.28132943400820298 0.02911010974414751 0 -0.28938365460120269 0.05532159347584624 0 -0.28132943400820298 0.02911010974414751 0 -0.29344050585463782 0.03493273697686209 0 -0.29045052645802971 0.045802035002429492 0 -0.29344050585463782 0.03493273697686209 0 -0.29045052645802971 0.045802035002429492 0 -0.30541723396373921 0.038711125382435783 0 -0.29045052645802971 0.045802035002429492 0 -0.30541723396373921 0.038711125382435783 0 -0.29738278035354182 0.050541329601553678 0 -0.29045052645802971 0.045802035002429492 0 -0.30541723396373921 0.038711125382435783 0 -0.29656482898857922 0.02610767777843559 0 -0.29344050585463782 0.03493273697686209 0 -0.30541723396373921 0.038711125382435783 0 -0.30541723396373921 0.038711125382435783 0 -0.30520751474604563 0.05375902269662923 0 -0.31780711793698518 0.045521831715634557 0 -0.29926204670725021 0.066629363318123747 0 -0.30520751474604563 0.05375902269662923 0 -0.31697319293959142 0.061410437985649477 0 -0.30541723396373921 0.038711125382435783 0 -0.30520751474604563 0.05375902269662923 0 -0.29738278035354182 0.050541329601553678 0 -0.30520751474604563 0.05375902269662923 0 -0.29738278035354182 0.050541329601553678 0 -0.29780899910201009 0.056562827273038227 0 -0.29926204670725021 0.066629363318123747 0 -0.30520751474604563 0.05375902269662923 0 -0.29780899910201009 0.056562827273038227 0 -0.32553678940662539 0.052415823907368687 0 -0.31780711793698518 0.045521831715634557 0 -0.33422422494732851 0.04449049745268327 0 -0.31697319293959142 0.061410437985649477 0 -0.32553678940662539 0.052415823907368687 0 -0.31780711793698518 0.045521831715634557 0 -0.30520751474604563 0.05375902269662923 0 -0.31697319293959142 0.061410437985649477 0 -0.31780711793698518 0.045521831715634557 0 -0.31697319293959142 0.061410437985649477 0 -0.32808937753058609 0.059947696530402161 0 -0.32553678940662539 0.052415823907368687 0 -0.31780711793698518 0.045521831715634557 0 -0.32038394146944787 0.031620215762440292 0 -0.33422422494732851 0.04449049745268327 0 -0.30541723396373921 0.038711125382435783 0 -0.31780711793698518 0.045521831715634557 0 -0.32038394146944787 0.031620215762440292 0 -0.30541723396373921 0.038711125382435783 0 -0.32038394146944787 0.031620215762440292 0 -0.32038394146944787 0.031620215762440292 0 -0.33422422494732851 0.04449049745268327 0 -0.33422422494732851 0.04449049745268327 0 -0.34051642268078958 0.02208187176518148 0 -0.34924074101412461 0.03711639968071382 0 -0.32038394146944787 0.031620215762440292 0 -0.33422422494732851 0.04449049745268327 0 -0.34051642268078958 0.02208187176518148 0 -0.33422422494732851 0.04449049745268327 0 -0.34715076893326918 0.04673829876922056 0 -0.34924074101412461 0.03711639968071382 0 -0.33422422494732851 0.04449049745268327 0 -0.34806450842520742 0.057360779142928031 0 -0.34715076893326918 0.04673829876922056 0 -0.33422422494732851 0.04449049745268327 0 -0.34806450842520742 0.057360779142928031 0 -0.33422422494732851 0.04449049745268327 0 -0.33482930480244999 0.055095026294593591 0 -0.34806450842520742 0.057360779142928031 0 -0.3407399656121517 0.06083029771636933 0 -0.33482930480244999 0.055095026294593591 0 -0.33440717105718593 0.063083878638897639 0 -0.3407399656121517 0.06083029771636933 0 -0.33482930480244999 0.055095026294593591 0 -0.34806450842520742 0.057360779142928031 0 -0.32808937753058609 0.059947696530402161 0 -0.33482930480244999 0.055095026294593591 0 -0.33440717105718593 0.063083878638897639 0 -0.32808937753058609 0.059947696530402161 0 -0.32553678940662539 0.052415823907368687 0 -0.33482930480244999 0.055095026294593591 0 -0.32553678940662539 0.052415823907368687 0 -0.33422422494732851 0.04449049745268327 0 -0.33482930480244999 0.055095026294593591 0 -0.31039051656375261 0.022327184027059441 0 -0.31177688145040278 0.0050359958776742568 0 -0.3261420213634148 0.01391490981329808 0 -0.32828291010712762 -0.0049346835118845543 0 -0.31177688145040278 0.0050359958776742568 0 -0.3261420213634148 0.01391490981329808 0 -0.31039051656375261 0.022327184027059441 0 -0.32038394146944787 0.031620215762440292 0 -0.3261420213634148 0.01391490981329808 0 -0.31039051656375261 0.022327184027059441 0 -0.32038394146944787 0.031620215762440292 0 -0.32038394146944787 0.031620215762440292 0 -0.34051642268078958 0.02208187176518148 0 -0.32038394146944787 0.031620215762440292 0 -0.3261420213634148 0.01391490981329808 0 -0.34051642268078958 0.02208187176518148 0 -0.3261420213634148 0.01391490981329808 0 -0.34051642268078958 0.02208187176518148 0 -0.34055428987364128 0.0059527955302196532 0 -0.32828291010712762 -0.0049346835118845543 0 -0.3261420213634148 0.01391490981329808 0 -0.34055428987364128 0.0059527955302196532 0 -0.34051642268078958 0.02208187176518148 0 -0.34055428987364128 0.0059527955302196532 0 -0.36064890389212972 0.0125435277679194 0 -0.34718119132474479 -0.01384164818341615 0 -0.34055428987364128 0.0059527955302196532 0 -0.36064890389212972 0.0125435277679194 0 -0.34051642268078958 0.02208187176518148 0 -0.36064890389212972 0.0125435277679194 0 -0.34051642268078958 0.02208187176518148 0 -0.35699945364537122 0.027147445145089769 0 -0.34924074101412461 0.03711639968071382 0 -0.34051642268078958 0.02208187176518148 0 -0.35699945364537122 0.027147445145089769 0 -0.36064890389212972 0.0125435277679194 0 -0.35699945364537122 0.027147445145089769 0 -0.36163302121541668 0.029781402687577421 0 -0.35940737946489582 0.035374977024224222 0 -0.37998819155715241 0.0057865511937031933 0 -0.36738966121720701 0.029980518529024301 0 -0.37123175334181557 0.027162262264614271 0 -0.37998819155715241 0.0057865511937031933 0 -0.36738966121720701 0.029980518529024301 0 -0.3645477689834325 0.020181962352102071 0 -0.37998819155715241 0.0057865511937031933 0 -0.36738966121720701 0.029980518529024301 0 -0.36273559053419291 0.026622670051971411 0 -0.36738966121720701 0.029980518529024301 0 -0.3645477689834325 0.020181962352102071 0 -0.35699945364537122 0.027147445145089769 0 -0.36163302121541668 0.029781402687577421 0 -0.36273559053419291 0.026622670051971411 0 -0.35699945364537122 0.027147445145089769 0 -0.36273559053419291 0.026622670051971411 0 -0.3645477689834325 0.020181962352102071 0 -0.36163302121541668 0.029781402687577421 0 -0.36273559053419291 0.026622670051971411 0 -0.36738966121720701 0.029980518529024301 0 -0.35699945364537122 0.027147445145089769 0 -0.3645477689834325 0.020181962352102071 0 -0.36064890389212972 0.0125435277679194 0 -0.3645477689834325 0.020181962352102071 0 -0.36064890389212972 0.0125435277679194 0 -0.37998819155715241 0.0057865511937031933 0 -0.3645477689834325 0.020181962352102071 0 -0.36064890389212972 0.0125435277679194 0 -0.38683543611469601 0.0001369023841863784 0 -0.36064890389212972 0.0125435277679194 0 -0.37474494217865062 -0.0022388935110706832 0 -0.38683543611469601 0.0001369023841863784 0 -0.36064890389212972 0.0125435277679194 0 -0.37474494217865062 -0.0022388935110706832 0 -0.36307869926690151 -0.00068504054922277494 0 -0.36064890389212972 0.0125435277679194 0 -0.35479113087726238 0.05417448586434577 0 -0.34715076893326918 0.04673829876922056 0 -0.35593663516940488 0.04278932274017315 0 -0.35479113087726238 0.05417448586434577 0 -0.35147867423579721 0.06053566178096708 0 -0.3622197730044176 0.060127746183944272 0 -0.35479113087726238 0.05417448586434577 0 -0.35147867423579721 0.06053566178096708 0 -0.35479113087726238 0.05417448586434577 0 -0.34806450842520742 0.057360779142928031 0 -0.35147867423579721 0.06053566178096708 0 -0.35479113087726238 0.05417448586434577 0 -0.34806450842520742 0.057360779142928031 0 -0.34806450842520742 0.057360779142928031 0 -0.35147867423579721 0.06053566178096708 0 -0.3447014191436914 0.063951910484466787 0 -0.34806450842520742 0.057360779142928031 0 -0.35147867423579721 0.06053566178096708 0 -0.3407399656121517 0.06083029771636933 0 -0.34806450842520742 0.057360779142928031 0 -0.3407399656121517 0.06083029771636933 0 -0.34806450842520742 0.057360779142928031 0 -0.3447014191436914 0.063951910484466787 0 -0.35479113087726238 0.05417448586434577 0 -0.34806450842520742 0.057360779142928031 0 -0.34715076893326918 0.04673829876922056 0 -0.34715076893326918 0.04673829876922056 0 -0.34924074101412461 0.03711639968071382 0 -0.35593663516940488 0.04278932274017315 0 -0.36738966121720701 0.029980518529024301 0 -0.35479113087726238 0.05417448586434577 0 -0.35593663516940488 0.04278932274017315 0 -0.35699945364537122 0.027147445145089769 0 -0.34924074101412461 0.03711639968071382 0 -0.35940737946489582 0.035374977024224222 0 -0.34924074101412461 0.03711639968071382 0 -0.35593663516940488 0.04278932274017315 0 -0.35940737946489582 0.035374977024224222 0 -0.36738966121720701 0.029980518529024301 0 -0.35479113087726238 0.05417448586434577 0 -0.36677646394688163 0.041367990420506082 0 -0.37123175334181557 0.027162262264614271 0 -0.37046143272875132 0.04675171495388801 0 -0.36738966121720701 0.029980518529024301 0 -0.35479113087726238 0.05417448586434577 0 -0.37123175334181557 0.027162262264614271 0 -0.36677646394688163 0.041367990420506082 0 -0.37046143272875132 0.04675171495388801 0 -0.3764786745208083 0.032098692741998169 0 -0.37123175334181557 0.027162262264614271 0 -0.37046143272875132 0.04675171495388801 0 -0.36163302121541668 0.029781402687577421 0 -0.36738966121720701 0.029980518529024301 0 -0.35940737946489582 0.035374977024224222 0 -0.36738966121720701 0.029980518529024301 0 -0.35593663516940488 0.04278932274017315 0 -0.35940737946489582 0.035374977024224222 0 -0.36738966121720701 0.029980518529024301 0 -0.37123175334181557 0.027162262264614271 0 -0.36677646394688163 0.041367990420506082 0 -0.36677646394688163 0.041367990420506082 0 -0.37046143272875132 0.04675171495388801 0 -0.36802302346639398 0.047906750352184523 0 -0.36677646394688163 0.041367990420506082 0 -0.36802302346639398 0.047906750352184523 0 -0.37046143272875132 0.04675171495388801 0 -0.37000681959492809 0.05831264468359916 0 -0.36802302346639398 0.047906750352184523 0 -0.37000681959492809 0.05831264468359916 0 -0.37046143272875132 0.04675171495388801 0 -0.36802302346639398 0.047906750352184523 0 -0.37000681959492809 0.05831264468359916 0 -0.37046143272875132 0.04675171495388801 0 -0.36802302346639398 0.047906750352184523 0 -0.35479113087726238 0.05417448586434577 0 -0.36802302346639398 0.047906750352184523 0 -0.35479113087726238 0.05417448586434577 0 -0.36802302346639398 0.047906750352184523 0 -0.3622197730044176 0.060127746183944272 0 -0.35479113087726238 0.05417448586434577 0 -0.36677646394688163 0.041367990420506082 0 -0.36802302346639398 0.047906750352184523 0 -0.36802302346639398 0.047906750352184523 0 -0.3622197730044176 0.060127746183944272 0 -0.37000681959492809 0.05831264468359916 0 -0.35147867423579721 0.06053566178096708 0 -0.36926886504626422 0.077079019973005369 0 -0.3622197730044176 0.060127746183944272 0 -0.37000681959492809 0.05831264468359916 0 -0.36926886504626422 0.077079019973005369 0 -0.37000681959492809 0.05831264468359916 0 -0.36926886504626422 0.077079019973005369 0 -0.37079498002478778 0.078498176574577722 0 -0.36926886504626422 0.077079019973005369 0 -0.34551673285671652 0.071984855543133663 0 -0.36912013352382872 0.080861301107253064 0 -0.37000681959492809 0.05831264468359916 0 -0.37079498002478778 0.078498176574577722 0 -0.37470600383380392 0.082961959162170973 0 -0.35147867423579721 0.06053566178096708 0 -0.3622197730044176 0.060127746183944272 0 -0.36926886504626422 0.077079019973005369 0 -0.37000681959492809 0.05831264468359916 0 -0.37470600383380392 0.082961959162170973 0 -0.37000681959492809 0.05831264468359916 0 -0.36926886504626422 0.077079019973005369 0 -0.36926886504626422 0.077079019973005369 0 -0.37079498002478778 0.078498176574577722 0 -0.34551673285671652 0.071984855543133663 0 -0.34763839367566191 0.079069075487607554 0 -0.36912013352382872 0.080861301107253064 0 -0.34551673285671652 0.071984855543133663 0 -0.36912013352382872 0.080861301107253064 0 -0.35147867423579721 0.06053566178096708 0 -0.36926886504626422 0.077079019973005369 0 -0.34551673285671652 0.071984855543133663 0 -0.34408269824063842 0.074738747125954852 0 -0.34763839367566191 0.079069075487607554 0 -0.34179116264722731 0.080399472229040897 0 -0.34408269824063842 0.074738747125954852 0 -0.34551673285671652 0.071984855543133663 0 -0.34763839367566191 0.079069075487607554 0 -0.34408269824063842 0.074738747125954852 0 -0.34551673285671652 0.071984855543133663 0 -0.35147867423579721 0.06053566178096708 0 -0.34551673285671652 0.071984855543133663 0 -0.3447014191436914 0.063951910484466787 0 -0.35147867423579721 0.06053566178096708 0 -0.34551673285671652 0.071984855543133663 0 -0.34763839367566191 0.079069075487607554 0 -0.36858415035949882 0.094491491786065696 0 -0.34763839367566191 0.079069075487607554 0 -0.36858415035949882 0.094491491786065696 0 -0.35198293914272999 0.094145145766245733 0 -0.34456144318064219 0.08667329674911145 0 -0.34763839367566191 0.079069075487607554 0 -0.35198293914272999 0.094145145766245733 0 -0.34456144318064219 0.08667329674911145 0 -0.35198293914272999 0.094145145766245733 0 -0.34431035454597703 0.093789606507308373 0 -0.34456144318064219 0.08667329674911145 0 -0.34763839367566191 0.079069075487607554 0 -0.34179116264722731 0.080399472229040897 0 -0.3782625711058698 0.101617738696854 0 -0.37470600383380392 0.082961959162170973 0 -0.36858415035949882 0.094491491786065696 0 -0.34763839367566191 0.079069075487607554 0 -0.36912013352382872 0.080861301107253064 0 -0.36858415035949882 0.094491491786065696 0 -0.36926886504626422 0.077079019973005369 0 -0.37079498002478778 0.078498176574577722 0 -0.36912013352382872 0.080861301107253064 0 -0.36926886504626422 0.077079019973005369 0 -0.36912013352382872 0.080861301107253064 0 -0.36912013352382872 0.080861301107253064 0 -0.37470600383380392 0.082961959162170973 0 -0.37079498002478778 0.078498176574577722 0 -0.36912013352382872 0.080861301107253064 0 -0.37470600383380392 0.082961959162170973 0 -0.36912013352382872 0.080861301107253064 0 -0.37470600383380392 0.082961959162170973 0 -0.36858415035949882 0.094491491786065696 0 -0.36912013352382872 0.080861301107253064 0 -0.36858415035949882 0.094491491786065696 0 -0.36858415035949882 0.094491491786065696 0 -0.36747352968705388 0.12273486311700831 0 -0.3782625711058698 0.101617738696854 0 -0.36858415035949882 0.094491491786065696 0 -0.36858415035949882 0.094491491786065696 0 -0.36006702585218792 0.10838608290929221 0 -0.35198293914272999 0.094145145766245733 0 -0.36858415035949882 0.094491491786065696 0 -0.36006702585218792 0.10838608290929221 0 -0.36747352968705388 0.12273486311700831 0 -0.3782625711058698 0.101617738696854 0 -0.36858415035949882 0.094491491786065696 0 -0.36747352968705388 0.12273486311700831 0 -0.36006702585218792 0.10838608290929221 0 -0.36747352968705388 0.12273486311700831 0 -0.35832203275528268 0.1183511860346923 0 -0.35528769071996391 0.12689780186549679 0 -0.36747352968705388 0.12273486311700831 0 -0.35832203275528268 0.1183511860346923 0 -0.35528769071996391 0.12689780186549679 0 -0.35832203275528268 0.1183511860346923 0 -0.35045988476192508 0.115385996246972 0 -0.36006702585218792 0.10838608290929221 0 -0.35832203275528268 0.1183511860346923 0 -0.35045988476192508 0.115385996246972 0 -0.35045988476192508 0.115385996246972 0 -0.34547580274860562 0.10394098399483009 0 -0.33570271963636877 0.11206429961599181 0 -0.35528769071996391 0.12689780186549679 0 -0.35045988476192508 0.115385996246972 0 -0.34115039425197219 0.12498493974687711 0 -0.36006702585218792 0.10838608290929221 0 -0.35198293914272999 0.094145145766245733 0 -0.34547580274860562 0.10394098399483009 0 -0.36006702585218792 0.10838608290929221 0 -0.35045988476192508 0.115385996246972 0 -0.34547580274860562 0.10394098399483009 0 -0.35198293914272999 0.094145145766245733 0 -0.34547580274860562 0.10394098399483009 0 -0.34431035454597703 0.093789606507308373 0 -0.34547580274860562 0.10394098399483009 0 -0.34431035454597703 0.093789606507308373 0 -0.335413749579693 0.097286071719103154 0 -0.34547580274860562 0.10394098399483009 0 -0.335413749579693 0.097286071719103154 0 -0.33570271963636877 0.11206429961599181 0 -0.335413749579693 0.097286071719103154 0 -0.33570271963636877 0.11206429961599181 0 -0.32444247844199348 0.1047035033472971 0 -0.35045988476192508 0.115385996246972 0 -0.34115039425197219 0.12498493974687711 0 -0.33570271963636877 0.11206429961599181 0 -0.32917568526667751 0.12578156900391591 0 -0.33570271963636877 0.11206429961599181 0 -0.32114709127587232 0.11611322513389059 0 -0.32917568526667751 0.12578156900391591 0 -0.34115039425197219 0.12498493974687711 0 -0.33570271963636877 0.11206429961599181 0 -0.31354631638020197 0.13395604467094269 0 -0.30549209578720232 0.10774456093924389 0 -0.32114709127587232 0.11611322513389059 0 -0.30549209578720232 0.10774456093924389 0 -0.32114709127587232 0.11611322513389059 0 -0.32444247844199348 0.1047035033472971 0 -0.33570271963636877 0.11206429961599181 0 -0.32114709127587232 0.11611322513389059 0 -0.32444247844199348 0.1047035033472971 0 -0.30549209578720232 0.10774456093924389 0 -0.32444247844199348 0.1047035033472971 0 -0.32445673593083119 0.090309359328255762 0 -0.30549209578720232 0.10774456093924389 0 -0.32445673593083119 0.090309359328255762 0 -0.31312795334666071 0.083579729522452809 0 -0.335413749579693 0.097286071719103154 0 -0.32444247844199348 0.1047035033472971 0 -0.32445673593083119 0.090309359328255762 0 -0.32445673593083119 0.090309359328255762 0 -0.3275606083710243 0.080211281293741998 0 -0.31312795334666071 0.083579729522452809 0 -0.3275606083710243 0.080211281293741998 0 -0.31312795334666071 0.083579729522452809 0 -0.31976082328641481 0.073112182403608325 0 -0.30931237829482389 0.073252958087475881 0 -0.31312795334666071 0.083579729522452809 0 -0.31976082328641481 0.073112182403608325 0 -0.30931237829482389 0.073252958087475881 0 -0.31697319293959142 0.061410437985649477 0 -0.31976082328641481 0.073112182403608325 0 -0.31697319293959142 0.061410437985649477 0 -0.31976082328641481 0.073112182403608325 0 -0.32886731949388731 0.069155273298144179 0 -0.31697319293959142 0.061410437985649477 0 -0.32808937753058609 0.059947696530402161 0 -0.32886731949388731 0.069155273298144179 0 -0.3275606083710243 0.080211281293741998 0 -0.31976082328641481 0.073112182403608325 0 -0.32886731949388731 0.069155273298144179 0 -0.32886731949388731 0.069155273298144179 0 -0.33770721458858299 0.069047958238937293 0 -0.336378655355973 0.076693290193422539 0 -0.3275606083710243 0.080211281293741998 0 -0.32886731949388731 0.069155273298144179 0 -0.336378655355973 0.076693290193422539 0 -0.33440717105718593 0.063083878638897639 0 -0.32886731949388731 0.069155273298144179 0 -0.33770721458858299 0.069047958238937293 0 -0.32808937753058609 0.059947696530402161 0 -0.33440717105718593 0.063083878638897639 0 -0.32886731949388731 0.069155273298144179 0 -0.3407399656121517 0.06083029771636933 0 -0.33440717105718593 0.063083878638897639 0 -0.33770721458858299 0.069047958238937293 0 -0.3407399656121517 0.06083029771636933 0 -0.3447014191436914 0.063951910484466787 0 -0.33770721458858299 0.069047958238937293 0 -0.34551673285671652 0.071984855543133663 0 -0.3447014191436914 0.063951910484466787 0 -0.33770721458858299 0.069047958238937293 0 -0.34408269824063842 0.074738747125954852 0 -0.33770721458858299 0.069047958238937293 0 -0.336378655355973 0.076693290193422539 0 -0.34408269824063842 0.074738747125954852 0 -0.34551673285671652 0.071984855543133663 0 -0.33770721458858299 0.069047958238937293 0 -0.34551673285671652 0.071984855543133663 0 -0.33770721458858299 0.069047958238937293 0 -0.34408269824063842 0.074738747125954852 0 -0.336378655355973 0.076693290193422539 0 -0.34179116264722731 0.080399472229040897 0 -0.336378655355973 0.076693290193422539 0 -0.34179116264722731 0.080399472229040897 0 -0.33708436589161489 0.085963183755354639 0 -0.34456144318064219 0.08667329674911145 0 -0.34179116264722731 0.080399472229040897 0 -0.33708436589161489 0.085963183755354639 0 -0.34456144318064219 0.08667329674911145 0 -0.34431035454597703 0.093789606507308373 0 -0.33708436589161489 0.085963183755354639 0 -0.34431035454597703 0.093789606507308373 0 -0.335413749579693 0.097286071719103154 0 -0.33708436589161489 0.085963183755354639 0 -0.335413749579693 0.097286071719103154 0 -0.32445673593083119 0.090309359328255762 0 -0.33708436589161489 0.085963183755354639 0 -0.32445673593083119 0.090309359328255762 0 -0.3275606083710243 0.080211281293741998 0 -0.33708436589161489 0.085963183755354639 0 -0.3275606083710243 0.080211281293741998 0 -0.336378655355973 0.076693290193422539 0 -0.33708436589161489 0.085963183755354639 0 -0.38891458820749281 0.47713565504117422 0 -0.42172655890518862 0.5 0 -0.3640375775585698 0.5 0 -0.38891458820749281 0.47713565504117422 0 -0.37103467036260362 0.45695891695805302 0 -0.36943712044780219 0.47475959506207249 0 -0.39694697642853649 0.45370639251272787 0 -0.37103467036260362 0.45695891695805302 0 -0.38891458820749281 0.47713565504117422 0 -0.39694697642853649 0.45370639251272787 0 -0.37103467036260362 0.45695891695805302 0 -0.38249991962136642 0.44345487931465249 0 -0.39694697642853649 0.45370639251272787 0 -0.37103467036260362 0.45695891695805302 0 -0.38249991962136642 0.44345487931465249 0 -0.39694697642853649 0.45370639251272787 0 -0.40464661760035381 0.43350824459614162 0 -0.38891458820749281 0.47713565504117422 0 -0.39694697642853649 0.45370639251272787 0 -0.41631826774707797 0.4711213942969617 0 -0.39694697642853649 0.45370639251272787 0 -0.42285928249446952 0.45045386806740279 0 -0.41631826774707797 0.4711213942969617 0 -0.42285928249446952 0.45045386806740279 0 -0.42501824733507809 0.43459816807542118 0 -0.40464661760035381 0.43350824459614162 0 -0.39694697642853649 0.45370639251272787 0 -0.42285928249446952 0.45045386806740279 0 -0.39694697642853649 0.45370639251272787 0 -0.42285928249446952 0.45045386806740279 0 -0.40464661760035381 0.43350824459614162 0 -0.42285928249446952 0.45045386806740279 0 -0.43521244088076849 0.46107148678855758 0 -0.44877158856040261 0.44720134362207808 0 -0.42285928249446952 0.45045386806740279 0 -0.44877158856040261 0.44720134362207808 0 -0.42285928249446952 0.45045386806740279 0 -0.43592409671607729 0.44045812782560079 0 -0.44877158856040261 0.44720134362207808 0 -0.42285928249446952 0.45045386806740279 0 -0.43592409671607729 0.44045812782560079 0 -0.42501824733507809 0.43459816807542118 0 -0.42285928249446952 0.45045386806740279 0 -0.43521244088076849 0.46107148678855758 0 -0.41631826774707797 0.4711213942969617 0 -0.41631826774707797 0.4711213942969617 0 -0.42172655890518862 0.5 0 -0.43935827984199688 0.47473889959161758 0 -0.43521244088076849 0.46107148678855758 0 -0.41631826774707797 0.4711213942969617 0 -0.43935827984199688 0.47473889959161758 0 -0.38891458820749281 0.47713565504117422 0 -0.41631826774707797 0.4711213942969617 0 -0.42172655890518862 0.5 0 -0.42172655890518862 0.5 0 -0.43935827984199688 0.47473889959161758 0 -0.47784082473980471 0.47626967285504462 0 -0.42172655890518862 0.5 0 -0.5 0.5 0 -0.47784082473980471 0.47626967285504462 0 -0.43935827984199688 0.47473889959161758 0 -0.47784082473980471 0.47626967285504462 0 -0.4487547857598953 0.46184192836472759 0 -0.5 0.5 0 -0.47784082473980471 0.47626967285504462 0 -0.49999999999999589 0.44077113011354369 0 -0.47784082473980471 0.47626967285504462 0 -0.47438579428019922 0.44398623686781052 0 -0.4627013265822788 0.4545376326069438 0 -0.47784082473980471 0.47626967285504462 0 -0.49999999999999589 0.44077113011354369 0 -0.47438579428019922 0.44398623686781052 0 -0.49999999999999589 0.44077113011354369 0 -0.47438579428019922 0.44398623686781052 0 -0.48180565015534738 0.42787197640755792 0 -0.49999999999999589 0.44077113011354369 0 -0.47438579428019922 0.44398623686781052 0 -0.47438579428019922 0.44398623686781052 0 -0.4627013265822788 0.4545376326069438 0 -0.44877158856040261 0.44720134362207808 0 -0.47438579428019922 0.44398623686781052 0 -0.44877158856040261 0.44720134362207808 0 -0.47438579428019922 0.44398623686781052 0 -0.44877158856040261 0.44720134362207808 0 -0.46289485375526918 0.43579199928955081 0 -0.44877158856040261 0.44720134362207808 0 -0.44878504691792248 0.43547483269414872 0 -0.46289485375526918 0.43579199928955081 0 -0.47784082473980471 0.47626967285504462 0 -0.4627013265822788 0.4545376326069438 0 -0.4487547857598953 0.46184192836472759 0 -0.4627013265822788 0.4545376326069438 0 -0.4487547857598953 0.46184192836472759 0 -0.44877158856040261 0.44720134362207808 0 -0.4487547857598953 0.46184192836472759 0 -0.44877158856040261 0.44720134362207808 0 -0.43521244088076849 0.46107148678855758 0 -0.4487547857598953 0.46184192836472759 0 -0.44877158856040261 0.44720134362207808 0 -0.43521244088076849 0.46107148678855758 0 -0.43935827984199688 0.47473889959161758 0 -0.4487547857598953 0.46184192836472759 0 -0.44877158856040261 0.44720134362207808 0 -0.44508566455651338 0.43839632914573512 0 -0.44878504691792248 0.43547483269414872 0 -0.44877158856040261 0.44720134362207808 0 -0.44878504691792248 0.43547483269414872 0 -0.43592409671607729 0.44045812782560079 0 -0.44877158856040261 0.44720134362207808 0 -0.44508566455651338 0.43839632914573512 0 -0.44531233658805403 0.42513554986162888 0 -0.44878504691792248 0.43547483269414872 0 -0.44880957839306629 0.41410011360809668 0 -0.44878504691792248 0.43547483269414872 0 -0.44880957839306629 0.41410011360809668 0 -0.43788570063392329 0.43164093021736671 0 -0.44531233658805403 0.42513554986162888 0 -0.44878504691792248 0.43547483269414872 0 -0.43592409671607729 0.44045812782560079 0 -0.44508566455651338 0.43839632914573512 0 -0.43788570063392329 0.43164093021736671 0 -0.44508566455651338 0.43839632914573512 0 -0.43788570063392329 0.43164093021736671 0 -0.44878504691792248 0.43547483269414872 0 -0.44508566455651338 0.43839632914573512 0 -0.44878504691792248 0.43547483269414872 0 -0.44531233658805403 0.42513554986162888 0 -0.44880957839306629 0.41410011360809668 0 -0.42391867717568832 0.41711337076656618 0 -0.44880957839306629 0.41410011360809668 0 -0.46585669794528167 0.42199291516666237 0 -0.4641229039382897 0.40091036417177778 0 -0.44878504691792248 0.43547483269414872 0 -0.46585669794528167 0.42199291516666237 0 -0.44878504691792248 0.43547483269414872 0 -0.44880957839306629 0.41410011360809668 0 -0.46585669794528167 0.42199291516666237 0 -0.44878504691792248 0.43547483269414872 0 -0.46585669794528167 0.42199291516666237 0 -0.46289485375526918 0.43579199928955081 0 -0.47438579428019922 0.44398623686781052 0 -0.46289485375526918 0.43579199928955081 0 -0.48180565015534738 0.42787197640755792 0 -0.46585669794528167 0.42199291516666237 0 -0.46289485375526918 0.43579199928955081 0 -0.48180565015534738 0.42787197640755792 0 -0.46585669794528167 0.42199291516666237 0 -0.48292834897264081 0.4085109976391762 0 -0.4641229039382897 0.40091036417177778 0 -0.46585669794528167 0.42199291516666237 0 -0.48292834897264081 0.4085109976391762 0 -0.46585669794528167 0.42199291516666237 0 -0.48180565015534738 0.42787197640755792 0 -0.48292834897264081 0.4085109976391762 0 -0.48292834897264081 0.4085109976391762 0 -0.5 0.41790010511261683 0 -0.5 0.39502908011169002 0 -0.48180565015534738 0.42787197640755792 0 -0.48292834897264081 0.4085109976391762 0 -0.5 0.41790010511261683 0 -0.49999999999999589 0.44077113011354369 0 -0.48180565015534738 0.42787197640755792 0 -0.5 0.41790010511261683 0 -0.48850556386005051 0.3766603246979251 0 -0.5 0.39502908011169002 0 -0.47832653283541199 0.38608194873200979 0 -0.48850556386005051 0.3766603246979251 0 -0.5 0.39502908011169002 0 -0.5 0.36887446842263683 0 -0.48292834897264081 0.4085109976391762 0 -0.5 0.39502908011169002 0 -0.47832653283541199 0.38608194873200979 0 -0.48292834897264081 0.4085109976391762 0 -0.5 0.39502908011169002 0 -0.48292834897264081 0.4085109976391762 0 -0.47832653283541199 0.38608194873200979 0 -0.4641229039382897 0.40091036417177778 0 -0.48850556386005051 0.3766603246979251 0 -0.47832653283541199 0.38608194873200979 0 -0.48259334700195489 0.36409898273387958 0 -0.47832653283541199 0.38608194873200979 0 -0.46059005399087027 0.38292215568240928 0 -0.4641229039382897 0.40091036417177778 0 -0.47832653283541199 0.38608194873200979 0 -0.46059005399087027 0.38292215568240928 0 -0.46572599417265398 0.36772482908493609 0 -0.44880957839306629 0.41410011360809668 0 -0.4641229039382897 0.40091036417177778 0 -0.44883410986820999 0.3927253945220448 0 -0.46059005399087027 0.38292215568240928 0 -0.4641229039382897 0.40091036417177778 0 -0.44883410986820999 0.3927253945220448 0 -0.44880957839306629 0.41410011360809668 0 -0.44883410986820999 0.3927253945220448 0 -0.43699833754743561 0.40294499431243458 0 -0.44880957839306629 0.41410011360809668 0 -0.44883410986820999 0.3927253945220448 0 -0.44883410986820999 0.3927253945220448 0 -0.43978391516082421 0.3912231797547942 0 -0.43699833754743561 0.40294499431243458 0 -0.44883410986820999 0.3927253945220448 0 -0.43978391516082421 0.3912231797547942 0 -0.44802713623065987 0.37645115623263098 0 -0.44883410986820999 0.3927253945220448 0 -0.44885864134335329 0.37135067543599282 0 -0.44883410986820999 0.3927253945220448 0 -0.44802713623065987 0.37645115623263098 0 -0.44885864134335329 0.37135067543599282 0 -0.43978391516082421 0.3912231797547942 0 -0.44802713623065987 0.37645115623263098 0 -0.42527607699699133 0.39277117395206662 0 -0.46059005399087027 0.38292215568240928 0 -0.44883410986820999 0.3927253945220448 0 -0.44885864134335329 0.37135067543599282 0 -0.44802713623065987 0.37645115623263098 0 -0.4250431626101242 0.37647010748543319 0 -0.42527607699699133 0.39277117395206662 0 -0.44802713623065987 0.37645115623263098 0 -0.42527607699699133 0.39277117395206662 0 -0.4250431626101242 0.37647010748543319 0 -0.4134887672477453 0.38574914578498593 0 -0.40122768387689522 0.38158953953487368 0 -0.4250431626101242 0.37647010748543319 0 -0.40122768387689522 0.38158953953487368 0 -0.4250431626101242 0.37647010748543319 0 -0.4134887672477453 0.38574914578498593 0 -0.42527607699699133 0.39277117395206662 0 -0.4250431626101242 0.37647010748543319 0 -0.40122768387689522 0.38158953953487368 0 -0.40086489287733429 0.37467411733839928 0 -0.4134887672477453 0.38574914578498593 0 -0.40798835104355652 0.39359067917546098 0 -0.40557429982823212 0.38794008425198068 0 -0.4134887672477453 0.38574914578498593 0 -0.40122768387689522 0.38158953953487368 0 -0.40557429982823212 0.38794008425198068 0 -0.40798835104355652 0.39359067917546098 0 -0.42527607699699133 0.39277117395206662 0 -0.40252501776332311 0.40909119167150271 0 -0.42527607699699133 0.39277117395206662 0 -0.40252501776332311 0.40909119167150271 0 -0.4134887672477453 0.38574914578498593 0 -0.40798835104355652 0.39359067917546098 0 -0.42527607699699133 0.39277117395206662 0 -0.42527607699699133 0.39277117395206662 0 -0.43699833754743561 0.40294499431243458 0 -0.42391867717568832 0.41711337076656618 0 -0.43978391516082421 0.3912231797547942 0 -0.42527607699699133 0.39277117395206662 0 -0.43699833754743561 0.40294499431243458 0 -0.44880957839306629 0.41410011360809668 0 -0.43699833754743561 0.40294499431243458 0 -0.42391867717568832 0.41711337076656618 0 -0.44531233658805403 0.42513554986162888 0 -0.42391867717568832 0.41711337076656618 0 -0.43788570063392329 0.43164093021736671 0 -0.44531233658805403 0.42513554986162888 0 -0.42391867717568832 0.41711337076656618 0 -0.43788570063392329 0.43164093021736671 0 -0.42391867717568832 0.41711337076656618 0 -0.42501824733507809 0.43459816807542118 0 -0.43592409671607729 0.44045812782560079 0 -0.43788570063392329 0.43164093021736671 0 -0.42501824733507809 0.43459816807542118 0 -0.42391867717568832 0.41711337076656618 0 -0.42501824733507809 0.43459816807542118 0 -0.40464661760035381 0.43350824459614162 0 -0.42527607699699133 0.39277117395206662 0 -0.42391867717568832 0.41711337076656618 0 -0.40252501776332311 0.40909119167150271 0 -0.42391867717568832 0.41711337076656618 0 -0.40252501776332311 0.40909119167150271 0 -0.40464661760035381 0.43350824459614162 0 -0.42391867717568832 0.41711337076656618 0 -0.40252501776332311 0.40909119167150271 0 -0.40252501776332311 0.40909119167150271 0 -0.37875820238401509 0.42613984176471847 0 -0.40252501776332311 0.40909119167150271 0 -0.40464661760035381 0.43350824459614162 0 -0.37875820238401509 0.42613984176471847 0 -0.38249991962136642 0.44345487931465249 0 -0.40464661760035381 0.43350824459614162 0 -0.37875820238401509 0.42613984176471847 0 -0.40252501776332311 0.40909119167150271 0 -0.37875820238401509 0.42613984176471847 0 -0.37769092578324193 0.39977892163450779 0 -0.37769092578324193 0.39977892163450779 0 -0.38963770449155072 0.39285491215608792 0 -0.37686086334024771 0.38257038446795849 0 -0.40252501776332311 0.40909119167150271 0 -0.37769092578324193 0.39977892163450779 0 -0.38963770449155072 0.39285491215608792 0 -0.40252501776332311 0.40909119167150271 0 -0.37769092578324193 0.39977892163450779 0 -0.37686086334024771 0.38257038446795849 0 -0.39363670834615189 0.38450398520198442 0 -0.40086489287733429 0.37467411733839928 0 -0.38963770449155072 0.39285491215608792 0 -0.37686086334024771 0.38257038446795849 0 -0.39363670834615189 0.38450398520198442 0 -0.37686086334024771 0.38257038446795849 0 -0.40086489287733429 0.37467411733839928 0 -0.37686086334024771 0.38257038446795849 0 -0.40086489287733429 0.37467411733839928 0 -0.39033592763893787 0.37070590072739279 0 -0.39363670834615189 0.38450398520198442 0 -0.40122768387689522 0.38158953953487368 0 -0.39959239714473138 0.39083097251260251 0 -0.38963770449155072 0.39285491215608792 0 -0.39363670834615189 0.38450398520198442 0 -0.39959239714473138 0.39083097251260251 0 -0.39363670834615189 0.38450398520198442 0 -0.40122768387689522 0.38158953953487368 0 -0.40086489287733429 0.37467411733839928 0 -0.40122768387689522 0.38158953953487368 0 -0.40557429982823212 0.38794008425198068 0 -0.39959239714473138 0.39083097251260251 0 -0.40798835104355652 0.39359067917546098 0 -0.40557429982823212 0.38794008425198068 0 -0.39959239714473138 0.39083097251260251 0 -0.40252501776332311 0.40909119167150271 0 -0.38963770449155072 0.39285491215608792 0 -0.39959239714473138 0.39083097251260251 0 -0.40798835104355652 0.39359067917546098 0 -0.40252501776332311 0.40909119167150271 0 -0.39959239714473138 0.39083097251260251 0 -0.3926828114571661 0.35541775914535301 0 -0.40105078960399698 0.34662517948293931 0 -0.40586906590548888 0.3393029225754271 0 -0.3926828114571661 0.35541775914535301 0 -0.39400561065841477 0.34382680172727831 0 -0.40586906590548888 0.3393029225754271 0 -0.3926828114571661 0.35541775914535301 0 -0.40586906590548888 0.3393029225754271 0 -0.3926828114571661 0.35541775914535301 0 -0.39969836615416421 0.35756427730283669 0 -0.39341808057325789 0.36431669671432632 0 -0.3926828114571661 0.35541775914535301 0 -0.40105078960399698 0.34662517948293931 0 -0.39969836615416421 0.35756427730283669 0 -0.3926828114571661 0.35541775914535301 0 -0.39400561065841477 0.34382680172727831 0 -0.38539473684528258 0.34837828204789067 0 -0.40105078960399698 0.34662517948293931 0 -0.40525205349158999 0.35429039595711992 0 -0.40888688292129022 0.34941903462410451 0 -0.40105078960399698 0.34662517948293931 0 -0.4080564418273247 0.34368885170405422 0 -0.40888688292129022 0.34941903462410451 0 -0.40105078960399698 0.34662517948293931 0 -0.40525205349158999 0.35429039595711992 0 -0.39969836615416421 0.35756427730283669 0 -0.40525205349158999 0.35429039595711992 0 -0.39969836615416421 0.35756427730283669 0 -0.40553625032349627 0.36037170931698131 0 -0.40553625032349627 0.36037170931698131 0 -0.40544017780568847 0.3661562974108753 0 -0.40025021147547779 0.36436392320030081 0 -0.40544017780568847 0.3661562974108753 0 -0.40025021147547779 0.36436392320030081 0 -0.397742957241214 0.36844985128713797 0 -0.39969836615416421 0.35756427730283669 0 -0.40553625032349627 0.36037170931698131 0 -0.40025021147547779 0.36436392320030081 0 -0.40544017780568847 0.3661562974108753 0 -0.40086489287733429 0.37467411733839928 0 -0.397742957241214 0.36844985128713797 0 -0.40086489287733429 0.37467411733839928 0 -0.397742957241214 0.36844985128713797 0 -0.39033592763893787 0.37070590072739279 0 -0.397742957241214 0.36844985128713797 0 -0.39341808057325789 0.36431669671432632 0 -0.39033592763893787 0.37070590072739279 0 -0.39969836615416421 0.35756427730283669 0 -0.40025021147547779 0.36436392320030081 0 -0.39341808057325789 0.36431669671432632 0 -0.40025021147547779 0.36436392320030081 0 -0.397742957241214 0.36844985128713797 0 -0.39341808057325789 0.36431669671432632 0 -0.3926828114571661 0.35541775914535301 0 -0.39341808057325789 0.36431669671432632 0 -0.37949655700884349 0.37153259571527891 0 -0.37949655700884349 0.37153259571527891 0 -0.37823932191431281 0.35548757599615399 0 -0.37024808467873749 0.36543132639488701 0 -0.3926828114571661 0.35541775914535301 0 -0.37949655700884349 0.37153259571527891 0 -0.37823932191431281 0.35548757599615399 0 -0.3926828114571661 0.35541775914535301 0 -0.37949655700884349 0.37153259571527891 0 -0.39341808057325789 0.36431669671432632 0 -0.39033592763893787 0.37070590072739279 0 -0.37949655700884349 0.37153259571527891 0 -0.37686086334024771 0.38257038446795849 0 -0.39033592763893787 0.37070590072739279 0 -0.37949655700884349 0.37153259571527891 0 -0.37823932191431281 0.35548757599615399 0 -0.38539473684528258 0.34837828204789067 0 -0.3787015959315434 0.33902802614693439 0 -0.3926828114571661 0.35541775914535301 0 -0.37823932191431281 0.35548757599615399 0 -0.38539473684528258 0.34837828204789067 0 -0.3787015959315434 0.33902802614693439 0 -0.37816355277066899 0.32985684687273281 0 -0.39158393304450312 0.32769252248945308 0 -0.39400561065841477 0.34382680172727831 0 -0.38539473684528258 0.34837828204789067 0 -0.3787015959315434 0.33902802614693439 0 -0.39158393304450312 0.32769252248945308 0 -0.37442838800096029 0.32044424157556423 0 -0.37816355277066899 0.32985684687273281 0 -0.39158393304450312 0.32769252248945308 0 -0.37442838800096029 0.32044424157556423 0 -0.38613629988198012 0.31665983269396758 0 -0.39158393304450312 0.32769252248945308 0 -0.37442838800096029 0.32044424157556423 0 -0.38613629988198012 0.31665983269396758 0 -0.37442838800096029 0.32044424157556423 0 -0.37415321332832258 0.31386652142517069 0 -0.39158393304450312 0.32769252248945308 0 -0.4039094095666334 0.320812311378052 0 -0.40925887999808552 0.33516025262174892 0 -0.38613629988198012 0.31665983269396758 0 -0.39830358576524327 0.31266849694114901 0 -0.39158393304450312 0.32769252248945308 0 -0.39830358576524327 0.31266849694114901 0 -0.39158393304450312 0.32769252248945308 0 -0.4039094095666334 0.320812311378052 0 -0.39830358576524327 0.31266849694114901 0 -0.4039094095666334 0.320812311378052 0 -0.40826549608127172 0.31275764886218971 0 -0.3787015959315434 0.33902802614693439 0 -0.40777024278950652 0.33697950655941222 0 -0.39158393304450312 0.32769252248945308 0 -0.40925887999808552 0.33516025262174892 0 -0.39158393304450312 0.32769252248945308 0 -0.40777024278950652 0.33697950655941222 0 -0.40925887999808552 0.33516025262174892 0 -0.3787015959315434 0.33902802614693439 0 -0.39158393304450312 0.32769252248945308 0 -0.40777024278950652 0.33697950655941222 0 -0.39400561065841477 0.34382680172727831 0 -0.3787015959315434 0.33902802614693439 0 -0.40777024278950652 0.33697950655941222 0 -0.39400561065841477 0.34382680172727831 0 -0.40586906590548888 0.3393029225754271 0 -0.40777024278950652 0.33697950655941222 0 -0.40105078960399698 0.34662517948293931 0 -0.40586906590548888 0.3393029225754271 0 -0.40105078960399698 0.34662517948293931 0 -0.40586906590548888 0.3393029225754271 0 -0.4080564418273247 0.34368885170405422 0 -0.4080564418273247 0.34368885170405422 0 -0.41125860555200922 0.34134685969384471 0 -0.40895905381070002 0.33957121871677393 0 -0.40586906590548888 0.3393029225754271 0 -0.4080564418273247 0.34368885170405422 0 -0.40895905381070002 0.33957121871677393 0 -0.4080564418273247 0.34368885170405422 0 -0.41125860555200922 0.34134685969384471 0 -0.41366919887348358 0.34576378073699821 0 -0.41125860555200922 0.34134685969384471 0 -0.41273643032526569 0.33662953043248711 0 -0.41433336845197538 0.3415594658204692 0 -0.41125860555200922 0.34134685969384471 0 -0.41433336845197538 0.3415594658204692 0 -0.41366919887348358 0.34576378073699821 0 -0.41125860555200922 0.34134685969384471 0 -0.41273643032526569 0.33662953043248711 0 -0.40895905381070002 0.33957121871677393 0 -0.41273643032526569 0.33662953043248711 0 -0.40777024278950652 0.33697950655941222 0 -0.41273643032526569 0.33662953043248711 0 -0.40895905381070002 0.33957121871677393 0 -0.40777024278950652 0.33697950655941222 0 -0.41273643032526569 0.33662953043248711 0 -0.40777024278950652 0.33697950655941222 0 -0.40925887999808552 0.33516025262174892 0 -0.40777024278950652 0.33697950655941222 0 -0.40925887999808552 0.33516025262174892 0 -0.40586906590548888 0.3393029225754271 0 -0.40895905381070002 0.33957121871677393 0 -0.40777024278950652 0.33697950655941222 0 -0.40586906590548888 0.3393029225754271 0 -0.40777024278950652 0.33697950655941222 0 -0.41273643032526569 0.33662953043248711 0 -0.40925887999808552 0.33516025262174892 0 -0.40925887999808552 0.33516025262174892 0 -0.42024067891477529 0.32173946694831868 0 -0.40925887999808552 0.33516025262174892 0 -0.42071708592719742 0.33131558094746122 0 -0.42024067891477529 0.32173946694831868 0 -0.41273643032526569 0.33662953043248711 0 -0.40925887999808552 0.33516025262174892 0 -0.42071708592719742 0.33131558094746122 0 -0.41273643032526569 0.33662953043248711 0 -0.4199209072431685 0.34318781838679219 0 -0.41433336845197538 0.3415594658204692 0 -0.4199209072431685 0.34318781838679219 0 -0.41433336845197538 0.3415594658204692 0 -0.41366919887348358 0.34576378073699821 0 -0.40925887999808552 0.33516025262174892 0 -0.41892768793075841 0.31754462100172592 0 -0.42141481873501418 0.31567829233095179 0 -0.40925887999808552 0.33516025262174892 0 -0.411263050936583 0.31954773430139438 0 -0.41892768793075841 0.31754462100172592 0 -0.40925887999808552 0.33516025262174892 0 -0.42141481873501418 0.31567829233095179 0 -0.40925887999808552 0.33516025262174892 0 -0.42024067891477529 0.32173946694831868 0 -0.42141481873501418 0.31567829233095179 0 -0.411263050936583 0.31954773430139438 0 -0.40826549608127172 0.31275764886218971 0 -0.41647318301620623 0.31168328686166002 0 -0.4039094095666334 0.320812311378052 0 -0.411263050936583 0.31954773430139438 0 -0.40826549608127172 0.31275764886218971 0 -0.4039094095666334 0.320812311378052 0 -0.40925887999808552 0.33516025262174892 0 -0.411263050936583 0.31954773430139438 0 -0.411263050936583 0.31954773430139438 0 -0.41892768793075841 0.31754462100172592 0 -0.41647318301620623 0.31168328686166002 0 -0.41892768793075841 0.31754462100172592 0 -0.42141481873501418 0.31567829233095179 0 -0.41892768793075841 0.31754462100172592 0 -0.42141481873501418 0.31567829233095179 0 -0.41647318301620623 0.31168328686166002 0 -0.42024067891477529 0.32173946694831868 0 -0.43790895006943947 0.32081412042189511 0 -0.43122247783146522 0.30831868127488848 0 -0.42024067891477529 0.32173946694831868 0 -0.42938605365092247 0.3272194948190838 0 -0.43790895006943947 0.32081412042189511 0 -0.42024067891477529 0.32173946694831868 0 -0.42141481873501418 0.31567829233095179 0 -0.43122247783146522 0.30831868127488848 0 -0.42024067891477529 0.32173946694831868 0 -0.43122247783146522 0.30831868127488848 0 -0.42071708592719742 0.33131558094746122 0 -0.42024067891477529 0.32173946694831868 0 -0.42938605365092247 0.3272194948190838 0 -0.42938605365092247 0.3272194948190838 0 -0.43674098495811231 0.33493788649063261 0 -0.43790895006943947 0.32081412042189511 0 -0.43790895006943947 0.32081412042189511 0 -0.4401847358662575 0.3127477530096977 0 -0.43122247783146522 0.30831868127488848 0 -0.41273643032526569 0.33662953043248711 0 -0.43674098495811231 0.33493788649063261 0 -0.42071708592719742 0.33131558094746122 0 -0.42938605365092247 0.3272194948190838 0 -0.43674098495811231 0.33493788649063261 0 -0.41273643032526569 0.33662953043248711 0 -0.4199209072431685 0.34318781838679219 0 -0.43385085243219867 0.34555045147446217 0 -0.41273643032526569 0.33662953043248711 0 -0.42071708592719742 0.33131558094746122 0 -0.43674098495811231 0.33493788649063261 0 -0.41273643032526569 0.33662953043248711 0 -0.43385085243219867 0.34555045147446217 0 -0.41273643032526569 0.33662953043248711 0 -0.43674098495811231 0.33493788649063261 0 -0.43385085243219867 0.34555045147446217 0 -0.43385085243219867 0.34555045147446217 0 -0.4302486007270056 0.35272204188882378 0 -0.42573384958437638 0.34916959158482058 0 -0.43385085243219867 0.34555045147446217 0 -0.43539550265875948 0.35741731211322858 0 -0.44110397924445488 0.35756373905142852 0 -0.43539550265875948 0.35741731211322858 0 -0.4302486007270056 0.35272204188882378 0 -0.42757171946388478 0.35850981688022993 0 -0.43385085243219867 0.34555045147446217 0 -0.43539550265875948 0.35741731211322858 0 -0.4302486007270056 0.35272204188882378 0 -0.4302486007270056 0.35272204188882378 0 -0.42480748600639012 0.35482075793933809 0 -0.42573384958437638 0.34916959158482058 0 -0.4302486007270056 0.35272204188882378 0 -0.42757171946388478 0.35850981688022993 0 -0.42480748600639012 0.35482075793933809 0 -0.42757171946388478 0.35850981688022993 0 -0.42480748600639012 0.35482075793933809 0 -0.42195212413097077 0.36043988011418487 0 -0.4199209072431685 0.34318781838679219 0 -0.43385085243219867 0.34555045147446217 0 -0.42573384958437638 0.34916959158482058 0 -0.42480748600639012 0.35482075793933809 0 -0.42573384958437638 0.34916959158482058 0 -0.41984140151311927 0.3495668882346864 0 -0.4199209072431685 0.34318781838679219 0 -0.42573384958437638 0.34916959158482058 0 -0.41984140151311927 0.3495668882346864 0 -0.4199209072431685 0.34318781838679219 0 -0.41984140151311927 0.3495668882346864 0 -0.41366919887348358 0.34576378073699821 0 -0.41984140151311927 0.3495668882346864 0 -0.41366919887348358 0.34576378073699821 0 -0.41404230344944593 0.35073751764187411 0 -0.42480748600639012 0.35482075793933809 0 -0.41984140151311927 0.3495668882346864 0 -0.41755863725870102 0.35684421707679032 0 -0.42480748600639012 0.35482075793933809 0 -0.41755863725870102 0.35684421707679032 0 -0.42195212413097077 0.36043988011418487 0 -0.41984140151311927 0.3495668882346864 0 -0.41755863725870102 0.35684421707679032 0 -0.41404230344944593 0.35073751764187411 0 -0.41755863725870102 0.35684421707679032 0 -0.41125051028190041 0.35540848222164118 0 -0.41404230344944593 0.35073751764187411 0 -0.41125051028190041 0.35540848222164118 0 -0.40888688292129022 0.34941903462410451 0 -0.41404230344944593 0.35073751764187411 0 -0.41755863725870102 0.35684421707679032 0 -0.41125051028190041 0.35540848222164118 0 -0.41142088061722581 0.36176204086772412 0 -0.40553625032349627 0.36037170931698131 0 -0.41125051028190041 0.35540848222164118 0 -0.41142088061722581 0.36176204086772412 0 -0.40525205349158999 0.35429039595711992 0 -0.40553625032349627 0.36037170931698131 0 -0.41125051028190041 0.35540848222164118 0 -0.40525205349158999 0.35429039595711992 0 -0.41125051028190041 0.35540848222164118 0 -0.40888688292129022 0.34941903462410451 0 -0.4080564418273247 0.34368885170405422 0 -0.40888688292129022 0.34941903462410451 0 -0.41366919887348358 0.34576378073699821 0 -0.40888688292129022 0.34941903462410451 0 -0.41366919887348358 0.34576378073699821 0 -0.41404230344944593 0.35073751764187411 0 -0.4250431626101242 0.37647010748543319 0 -0.40086489287733429 0.37467411733839928 0 -0.42486892241442098 0.36677785020884007 0 -0.40086489287733429 0.37467411733839928 0 -0.42486892241442098 0.36677785020884007 0 -0.40086489287733429 0.37467411733839928 0 -0.41378193274770297 0.36450427419225789 0 -0.42486892241442098 0.36677785020884007 0 -0.40544017780568847 0.3661562974108753 0 -0.40086489287733429 0.37467411733839928 0 -0.41378193274770297 0.36450427419225789 0 -0.40544017780568847 0.3661562974108753 0 -0.41142088061722581 0.36176204086772412 0 -0.41378193274770297 0.36450427419225789 0 -0.40553625032349627 0.36037170931698131 0 -0.40544017780568847 0.3661562974108753 0 -0.41142088061722581 0.36176204086772412 0 -0.41755863725870102 0.35684421707679032 0 -0.41378193274770297 0.36450427419225789 0 -0.42195212413097077 0.36043988011418487 0 -0.41378193274770297 0.36450427419225789 0 -0.42486892241442098 0.36677785020884007 0 -0.42195212413097077 0.36043988011418487 0 -0.41755863725870102 0.35684421707679032 0 -0.41142088061722581 0.36176204086772412 0 -0.41378193274770297 0.36450427419225789 0 -0.4250431626101242 0.37647010748543319 0 -0.44885864134335329 0.37135067543599282 0 -0.4250431626101242 0.37647010748543319 0 -0.42486892241442098 0.36677785020884007 0 -0.44885864134335329 0.37135067543599282 0 -0.42486892241442098 0.36677785020884007 0 -0.448872951951507 0.35888158307927881 0 -0.43539550265875948 0.35741731211322858 0 -0.42486892241442098 0.36677785020884007 0 -0.44110397924445488 0.35756373905142852 0 -0.43539550265875948 0.35741731211322858 0 -0.42757171946388478 0.35850981688022993 0 -0.42486892241442098 0.36677785020884007 0 -0.42757171946388478 0.35850981688022993 0 -0.42486892241442098 0.36677785020884007 0 -0.42195212413097077 0.36043988011418487 0 -0.42486892241442098 0.36677785020884007 0 -0.44885864134335329 0.37135067543599282 0 -0.448872951951507 0.35888158307927881 0 -0.44802713623065987 0.37645115623263098 0 -0.4250431626101242 0.37647010748543319 0 -0.44885864134335329 0.37135067543599282 0 -0.42486892241442098 0.36677785020884007 0 -0.44110397924445488 0.35756373905142852 0 -0.448872951951507 0.35888158307927881 0 -0.44885864134335329 0.37135067543599282 0 -0.448872951951507 0.35888158307927881 0 -0.44885864134335329 0.37135067543599282 0 -0.448872951951507 0.35888158307927881 0 -0.45634368000688869 0.36512471152292858 0 -0.43385085243219867 0.34555045147446217 0 -0.45496527453913199 0.35447137251643651 0 -0.44889299330712729 0.34242966823447613 0 -0.43385085243219867 0.34555045147446217 0 -0.45496527453913199 0.35447137251643651 0 -0.43385085243219867 0.34555045147446217 0 -0.44887533288597797 0.35680703170406669 0 -0.45496527453913199 0.35447137251643651 0 -0.43385085243219867 0.34555045147446217 0 -0.44110397924445488 0.35756373905142852 0 -0.44887533288597797 0.35680703170406669 0 -0.44110397924445488 0.35756373905142852 0 -0.44887533288597797 0.35680703170406669 0 -0.448872951951507 0.35888158307927881 0 -0.44887533288597797 0.35680703170406669 0 -0.448872951951507 0.35888158307927881 0 -0.44887533288597797 0.35680703170406669 0 -0.448872951951507 0.35888158307927881 0 -0.45496527453913199 0.35447137251643651 0 -0.448872951951507 0.35888158307927881 0 -0.45496527453913199 0.35447137251643651 0 -0.47186707529616939 0.3513175305497272 0 -0.448872951951507 0.35888158307927881 0 -0.47186707529616939 0.3513175305497272 0 -0.448872951951507 0.35888158307927881 0 -0.45634368000688869 0.36512471152292858 0 -0.47186707529616939 0.3513175305497272 0 -0.45911772068334677 0.34536620346235469 0 -0.45496527453913199 0.35447137251643651 0 -0.47186707529616939 0.3513175305497272 0 -0.45911772068334677 0.34536620346235469 0 -0.45496527453913199 0.35447137251643651 0 -0.44889299330712729 0.34242966823447613 0 -0.46572599417265398 0.36772482908493609 0 -0.45634368000688869 0.36512471152292858 0 -0.47186707529616939 0.3513175305497272 0 -0.46059005399087027 0.38292215568240928 0 -0.44885864134335329 0.37135067543599282 0 -0.46572599417265398 0.36772482908493609 0 -0.44885864134335329 0.37135067543599282 0 -0.46572599417265398 0.36772482908493609 0 -0.44885864134335329 0.37135067543599282 0 -0.46572599417265398 0.36772482908493609 0 -0.45634368000688869 0.36512471152292858 0 -0.47832653283541199 0.38608194873200979 0 -0.46572599417265398 0.36772482908493609 0 -0.48259334700195489 0.36409898273387958 0 -0.46572599417265398 0.36772482908493609 0 -0.48259334700195489 0.36409898273387958 0 -0.47186707529616939 0.3513175305497272 0 -0.46572599417265398 0.36772482908493609 0 -0.48259334700195489 0.36409898273387958 0 -0.47186707529616939 0.3513175305497272 0 -0.494861198640831 0.34375347802017348 0 -0.47186707529616939 0.3513175305497272 0 -0.48536711719674469 0.35339641184703091 0 -0.494861198640831 0.34375347802017348 0 -0.48259334700195489 0.36409898273387958 0 -0.47186707529616939 0.3513175305497272 0 -0.48536711719674469 0.35339641184703091 0 -0.48259334700195489 0.36409898273387958 0 -0.49214684784802371 0.35441565608434311 0 -0.48536711719674469 0.35339641184703091 0 -0.49214684784802371 0.35441565608434311 0 -0.5 0.36887446842263683 0 -0.5 0.34271985673358363 0 -0.49214684784802371 0.35441565608434311 0 -0.48536711719674469 0.35339641184703091 0 -0.494861198640831 0.34375347802017348 0 -0.49214684784802371 0.35441565608434311 0 -0.494861198640831 0.34375347802017348 0 -0.5 0.34271985673358363 0 -0.48850556386005051 0.3766603246979251 0 -0.48259334700195489 0.36409898273387958 0 -0.5 0.36887446842263683 0 -0.48259334700195489 0.36409898273387958 0 -0.49214684784802371 0.35441565608434311 0 -0.5 0.36887446842263683 0 -0.485708092488497 0.3189911195031831 0 -0.5 0.31656524504453032 0 -0.48475009422380527 0.3315545986069256 0 -0.485708092488497 0.3189911195031831 0 -0.5 0.31656524504453032 0 -0.48583489694974541 0.30845327583860088 0 -0.5 0.31656524504453032 0 -0.5 0.34271985673358363 0 -0.48475009422380527 0.3315545986069256 0 -0.494861198640831 0.34375347802017348 0 -0.5 0.34271985673358363 0 -0.48475009422380527 0.3315545986069256 0 -0.48475009422380527 0.3315545986069256 0 -0.46074553959095882 0.3332462425487791 0 -0.47186707529616939 0.3513175305497272 0 -0.494861198640831 0.34375347802017348 0 -0.48475009422380527 0.3315545986069256 0 -0.47186707529616939 0.3513175305497272 0 -0.48475009422380527 0.3315545986069256 0 -0.46074553959095882 0.3332462425487791 0 -0.48475009422380527 0.3315545986069256 0 -0.47224737878043732 0.31939135852267558 0 -0.46074553959095882 0.3332462425487791 0 -0.485708092488497 0.3189911195031831 0 -0.48475009422380527 0.3315545986069256 0 -0.47224737878043732 0.31939135852267558 0 -0.485708092488497 0.3189911195031831 0 -0.47224737878043732 0.31939135852267558 0 -0.48583489694974541 0.30845327583860088 0 -0.47224737878043732 0.31939135852267558 0 -0.46258830912673421 0.31343425170936878 0 -0.46074553959095882 0.3332462425487791 0 -0.46258830912673421 0.31343425170936878 0 -0.46074553959095882 0.3332462425487791 0 -0.45107709460752138 0.31557533431346357 0 -0.45911772068334677 0.34536620346235469 0 -0.47186707529616939 0.3513175305497272 0 -0.46074553959095882 0.3332462425487791 0 -0.45911772068334677 0.34536620346235469 0 -0.46074553959095882 0.3332462425487791 0 -0.44889299330712729 0.34242966823447613 0 -0.43674098495811231 0.33493788649063261 0 -0.46074553959095882 0.3332462425487791 0 -0.43674098495811231 0.33493788649063261 0 -0.46074553959095882 0.3332462425487791 0 -0.44889299330712729 0.34242966823447613 0 -0.43674098495811231 0.33493788649063261 0 -0.46074553959095882 0.3332462425487791 0 -0.43790895006943947 0.32081412042189511 0 -0.43674098495811231 0.33493788649063261 0 -0.43385085243219867 0.34555045147446217 0 -0.44889299330712729 0.34242966823447613 0 -0.46074553959095882 0.3332462425487791 0 -0.45107709460752138 0.31557533431346357 0 -0.43790895006943947 0.32081412042189511 0 -0.45107709460752138 0.31557533431346357 0 -0.43790895006943947 0.32081412042189511 0 -0.4401847358662575 0.3127477530096977 0 -0.44444415583193408 0.29216055381020578 0 -0.43122247783146522 0.30831868127488848 0 -0.44810052680614793 0.29565349026271098 0 -0.43122247783146522 0.30831868127488848 0 -0.44368336155109173 0.30649675881006838 0 -0.44810052680614793 0.29565349026271098 0 -0.43122247783146522 0.30831868127488848 0 -0.4401847358662575 0.3127477530096977 0 -0.44368336155109173 0.30649675881006838 0 -0.43122247783146522 0.30831868127488848 0 -0.44444415583193408 0.29216055381020578 0 -0.44810052680614793 0.29565349026271098 0 -0.43122247783146522 0.30831868127488848 0 -0.45107709460752138 0.31557533431346357 0 -0.4401847358662575 0.3127477530096977 0 -0.44368336155109173 0.30649675881006838 0 -0.44368336155109173 0.30649675881006838 0 -0.44996115485610377 0.3015940899144034 0 -0.4551770389262465 0.30483297142504889 0 -0.44368336155109173 0.30649675881006838 0 -0.44996115485610377 0.3015940899144034 0 -0.44810052680614793 0.29565349026271098 0 -0.45288369214092922 0.29939313915978533 0 -0.44996115485610377 0.3015940899144034 0 -0.44810052680614793 0.29565349026271098 0 -0.45288369214092922 0.29939313915978533 0 -0.44996115485610377 0.3015940899144034 0 -0.4551770389262465 0.30483297142504889 0 -0.45107709460752138 0.31557533431346357 0 -0.44368336155109173 0.30649675881006838 0 -0.4551770389262465 0.30483297142504889 0 -0.44702735364695217 0.27675533545947301 0 -0.43422108619098299 0.29621681389521232 0 -0.44444415583193408 0.29216055381020578 0 -0.44702735364695217 0.27675533545947301 0 -0.43422108619098299 0.29621681389521232 0 -0.44702735364695217 0.27675533545947301 0 -0.43274811138672559 0.28469846643612018 0 -0.43422108619098299 0.29621681389521232 0 -0.44810052680614793 0.29565349026271098 0 -0.4493542421043164 0.28919027156790111 0 -0.45395006383388498 0.28587005882998617 0 -0.44444415583193408 0.29216055381020578 0 -0.44810052680614793 0.29565349026271098 0 -0.4493542421043164 0.28919027156790111 0 -0.44444415583193408 0.29216055381020578 0 -0.4493542421043164 0.28919027156790111 0 -0.44702735364695217 0.27675533545947301 0 -0.4493542421043164 0.28919027156790111 0 -0.45395006383388498 0.28587005882998617 0 -0.44702735364695217 0.27675533545947301 0 -0.44810052680614793 0.29565349026271098 0 -0.45395006383388498 0.28587005882998617 0 -0.46497857578083068 0.28298829925053381 0 -0.44810052680614793 0.29565349026271098 0 -0.4593999708052337 0.29480301670676529 0 -0.46497857578083068 0.28298829925053381 0 -0.44810052680614793 0.29565349026271098 0 -0.46497857578083068 0.28298829925053381 0 -0.45288369214092922 0.29939313915978533 0 -0.44810052680614793 0.29565349026271098 0 -0.4593999708052337 0.29480301670676529 0 -0.4593999708052337 0.29480301670676529 0 -0.46827174088950307 0.29409138505043392 0 -0.46497857578083068 0.28298829925053381 0 -0.46258830912673421 0.31343425170936878 0 -0.45107709460752138 0.31557533431346357 0 -0.4551770389262465 0.30483297142504889 0 -0.45288369214092922 0.29939313915978533 0 -0.4593999708052337 0.29480301670676529 0 -0.4551770389262465 0.30483297142504889 0 -0.4593999708052337 0.29480301670676529 0 -0.4551770389262465 0.30483297142504889 0 -0.46625021185001803 0.30380681263807602 0 -0.4593999708052337 0.29480301670676529 0 -0.46827174088950307 0.29409138505043392 0 -0.46625021185001803 0.30380681263807602 0 -0.47224737878043732 0.31939135852267558 0 -0.46258830912673421 0.31343425170936878 0 -0.46625021185001803 0.30380681263807602 0 -0.46258830912673421 0.31343425170936878 0 -0.4551770389262465 0.30483297142504889 0 -0.46625021185001803 0.30380681263807602 0 -0.47551717359816043 0.30301602212345602 0 -0.4769183937012712 0.29196404103452073 0 -0.48583489694974541 0.30845327583860088 0 -0.47224737878043732 0.31939135852267558 0 -0.46625021185001803 0.30380681263807602 0 -0.47551717359816043 0.30301602212345602 0 -0.47224737878043732 0.31939135852267558 0 -0.47551717359816043 0.30301602212345602 0 -0.48583489694974541 0.30845327583860088 0 -0.46827174088950307 0.29409138505043392 0 -0.46625021185001803 0.30380681263807602 0 -0.47551717359816043 0.30301602212345602 0 -0.46827174088950307 0.29409138505043392 0 -0.46497857578083068 0.28298829925053381 0 -0.4769183937012712 0.29196404103452073 0 -0.4769183937012712 0.29196404103452073 0 -0.48757792524538679 0.2814999319082685 0 -0.48583489694974541 0.30845327583860088 0 -0.46827174088950307 0.29409138505043392 0 -0.47551717359816043 0.30301602212345602 0 -0.4769183937012712 0.29196404103452073 0 -0.46497857578083068 0.28298829925053381 0 -0.47783287987075052 0.28169384510791978 0 -0.4769183937012712 0.29196404103452073 0 -0.47783287987075052 0.28169384510791978 0 -0.4769183937012712 0.29196404103452073 0 -0.48757792524538679 0.2814999319082685 0 -0.5 0.29041063335547701 0 -0.48757792524538679 0.2814999319082685 0 -0.48583489694974541 0.30845327583860088 0 -0.48757792524538679 0.2814999319082685 0 -0.48583489694974541 0.30845327583860088 0 -0.5 0.31656524504453032 0 -0.5 0.29041063335547701 0 -0.48583489694974541 0.30845327583860088 0 -0.5 0.23810140997737081 0 -0.5 0.26425602166642381 0 -0.48932095354102823 0.25454658797793611 0 -0.48757792524538679 0.2814999319082685 0 -0.48932095354102823 0.25454658797793611 0 -0.48366697684514259 0.26703881783025729 0 -0.48757792524538679 0.2814999319082685 0 -0.5 0.26425602166642381 0 -0.48932095354102823 0.25454658797793611 0 -0.48757792524538679 0.2814999319082685 0 -0.48932095354102823 0.25454658797793611 0 -0.5 0.29041063335547701 0 -0.48757792524538679 0.2814999319082685 0 -0.5 0.26425602166642381 0 -0.46497857578083068 0.28298829925053381 0 -0.48185662475551339 0.27032310823835648 0 -0.46497857578083068 0.28298829925053381 0 -0.47783287987075052 0.28169384510791978 0 -0.48185662475551339 0.27032310823835648 0 -0.48366697684514259 0.26703881783025729 0 -0.45893043448094739 0.2699305570534084 0 -0.48757792524538679 0.2814999319082685 0 -0.48366697684514259 0.26703881783025729 0 -0.48185662475551339 0.27032310823835648 0 -0.48366697684514259 0.26703881783025729 0 -0.48185662475551339 0.27032310823835648 0 -0.47235815296560851 0.27257019559313889 0 -0.46497857578083068 0.28298829925053381 0 -0.48185662475551339 0.27032310823835648 0 -0.47235815296560851 0.27257019559313889 0 -0.48366697684514259 0.26703881783025729 0 -0.46959483388743167 0.25994315597580908 0 -0.45893043448094739 0.2699305570534084 0 -0.48366697684514259 0.26703881783025729 0 -0.47235815296560851 0.27257019559313889 0 -0.45893043448094739 0.2699305570534084 0 -0.47783287987075052 0.28169384510791978 0 -0.48757792524538679 0.2814999319082685 0 -0.48185662475551339 0.27032310823835648 0 -0.48932095354102823 0.25454658797793611 0 -0.48366697684514259 0.26703881783025729 0 -0.47792533453874358 0.25606878273296479 0 -0.48366697684514259 0.26703881783025729 0 -0.46959483388743167 0.25994315597580908 0 -0.47792533453874358 0.25606878273296479 0 -0.47864167104372218 0.246590621409366 0 -0.48932095354102823 0.25454658797793611 0 -0.47792533453874358 0.25606878273296479 0 -0.47864167104372218 0.246590621409366 0 -0.47792533453874358 0.25606878273296479 0 -0.46938038244821267 0.25133041049185839 0 -0.46959483388743167 0.25994315597580908 0 -0.47792533453874358 0.25606878273296479 0 -0.46938038244821267 0.25133041049185839 0 -0.46959483388743167 0.25994315597580908 0 -0.46938038244821267 0.25133041049185839 0 -0.45807104112411212 0.25534721177055669 0 -0.46959483388743167 0.25994315597580908 0 -0.45807104112411212 0.25534721177055669 0 -0.45893043448094739 0.2699305570534084 0 -0.45807104112411212 0.25534721177055669 0 -0.45893043448094739 0.2699305570534084 0 -0.44442574262614493 0.25832327296872359 0 -0.45395006383388498 0.28587005882998617 0 -0.46497857578083068 0.28298829925053381 0 -0.45893043448094739 0.2699305570534084 0 -0.45395006383388498 0.28587005882998617 0 -0.45893043448094739 0.2699305570534084 0 -0.44702735364695217 0.27675533545947301 0 -0.46497857578083068 0.28298829925053381 0 -0.47235815296560851 0.27257019559313889 0 -0.45893043448094739 0.2699305570534084 0 -0.45893043448094739 0.2699305570534084 0 -0.43419389211675241 0.27282229627655952 0 -0.45893043448094739 0.2699305570534084 0 -0.44442574262614493 0.25832327296872359 0 -0.43419389211675241 0.27282229627655952 0 -0.45893043448094739 0.2699305570534084 0 -0.44702735364695217 0.27675533545947301 0 -0.43419389211675241 0.27282229627655952 0 -0.44702735364695217 0.27675533545947301 0 -0.43419389211675241 0.27282229627655952 0 -0.43274811138672559 0.28469846643612018 0 -0.45046339488490522 0.249057113070103 0 -0.45807104112411212 0.25534721177055669 0 -0.44442574262614493 0.25832327296872359 0 -0.44062222049055039 0.24203477259657111 0 -0.44442574262614493 0.25832327296872359 0 -0.42503978512155383 0.25887440404814072 0 -0.44062222049055039 0.24203477259657111 0 -0.42503978512155383 0.25887440404814072 0 -0.44442574262614493 0.25832327296872359 0 -0.42503978512155383 0.25887440404814072 0 -0.43419389211675241 0.27282229627655952 0 -0.42503978512155383 0.25887440404814072 0 -0.40945734975255721 0.27571403549971041 0 -0.40585136056822319 0.25674789398696107 0 -0.4198454647722451 0.23985190764030939 0 -0.42503978512155383 0.25887440404814072 0 -0.40585136056822319 0.25674789398696107 0 -0.40945734975255721 0.27571403549971041 0 -0.43419389211675241 0.27282229627655952 0 -0.42503978512155383 0.25887440404814072 0 -0.40945734975255721 0.27571403549971041 0 -0.42503978512155383 0.25887440404814072 0 -0.40945734975255721 0.27571403549971041 0 -0.43419389211675241 0.27282229627655952 0 -0.40945734975255721 0.27571403549971041 0 -0.43419389211675241 0.27282229627655952 0 -0.4229835889384117 0.28415291652507912 0 -0.43419389211675241 0.27282229627655952 0 -0.43274811138672559 0.28469846643612018 0 -0.4229835889384117 0.28415291652507912 0 -0.43274811138672559 0.28469846643612018 0 -0.43422108619098299 0.29621681389521232 0 -0.42519236151645012 0.29288975242762622 0 -0.43274811138672559 0.28469846643612018 0 -0.42519236151645012 0.29288975242762622 0 -0.4229835889384117 0.28415291652507912 0 -0.42141481873501418 0.31567829233095179 0 -0.43422108619098299 0.29621681389521232 0 -0.42141481873501418 0.31567829233095179 0 -0.43422108619098299 0.29621681389521232 0 -0.42237726971740519 0.30236741203524931 0 -0.44444415583193408 0.29216055381020578 0 -0.43422108619098299 0.29621681389521232 0 -0.43122247783146522 0.30831868127488848 0 -0.42141481873501418 0.31567829233095179 0 -0.43422108619098299 0.29621681389521232 0 -0.43122247783146522 0.30831868127488848 0 -0.43422108619098299 0.29621681389521232 0 -0.42519236151645012 0.29288975242762622 0 -0.42237726971740519 0.30236741203524931 0 -0.42141481873501418 0.31567829233095179 0 -0.43122247783146522 0.30831868127488848 0 -0.42237726971740519 0.30236741203524931 0 -0.41647318301620623 0.31168328686166002 0 -0.40812109447663159 0.30329838776079099 0 -0.42141481873501418 0.31567829233095179 0 -0.42237726971740519 0.30236741203524931 0 -0.41647318301620623 0.31168328686166002 0 -0.42237726971740519 0.30236741203524931 0 -0.40812109447663159 0.30329838776079099 0 -0.41256551749876041 0.29129965580367562 0 -0.40826549608127172 0.31275764886218971 0 -0.41647318301620623 0.31168328686166002 0 -0.40812109447663159 0.30329838776079099 0 -0.40945734975255721 0.27571403549971041 0 -0.4229835889384117 0.28415291652507912 0 -0.41256551749876041 0.29129965580367562 0 -0.42519236151645012 0.29288975242762622 0 -0.4229835889384117 0.28415291652507912 0 -0.41256551749876041 0.29129965580367562 0 -0.42519236151645012 0.29288975242762622 0 -0.42237726971740519 0.30236741203524931 0 -0.41256551749876041 0.29129965580367562 0 -0.40945734975255721 0.27571403549971041 0 -0.39180528154043992 0.29479027846244049 0 -0.39350738277932218 0.27757861076756318 0 -0.40945734975255721 0.27571403549971041 0 -0.39180528154043992 0.29479027846244049 0 -0.40812109447663159 0.30329838776079099 0 -0.41256551749876041 0.29129965580367562 0 -0.39180528154043992 0.29479027846244049 0 -0.40945734975255721 0.27571403549971041 0 -0.41256551749876041 0.29129965580367562 0 -0.39180528154043992 0.29479027846244049 0 -0.38613629988198012 0.31665983269396758 0 -0.39830358576524327 0.31266849694114901 0 -0.39180528154043992 0.29479027846244049 0 -0.39830358576524327 0.31266849694114901 0 -0.40812109447663159 0.30329838776079099 0 -0.39180528154043992 0.29479027846244049 0 -0.39830358576524327 0.31266849694114901 0 -0.40826549608127172 0.31275764886218971 0 -0.40812109447663159 0.30329838776079099 0 -0.39180528154043992 0.29479027846244049 0 -0.37819889022761238 0.29924868842846319 0 -0.37415321332832258 0.31386652142517069 0 -0.38613629988198012 0.31665983269396758 0 -0.39180528154043992 0.29479027846244049 0 -0.37415321332832258 0.31386652142517069 0 -0.39180528154043992 0.29479027846244049 0 -0.37415321332832258 0.31386652142517069 0 -0.39180528154043992 0.29479027846244049 0 -0.37819889022761238 0.29924868842846319 0 -0.37870614451813112 0.28175948497688769 0 -0.39180528154043992 0.29479027846244049 0 -0.37870614451813112 0.28175948497688769 0 -0.39350738277932218 0.27757861076756318 0 -0.37870614451813112 0.28175948497688769 0 -0.37647038179830861 0.26645711442365799 0 -0.39350738277932218 0.27757861076756318 0 -0.37647038179830861 0.26645711442365799 0 -0.39336972403141229 0.26369738761855421 0 -0.39350738277932218 0.27757861076756318 0 -0.38790582398472923 0.24962922847932231 0 -0.37647038179830861 0.26645711442365799 0 -0.39336972403141229 0.26369738761855421 0 -0.38790582398472923 0.24962922847932231 0 -0.37647038179830861 0.26645711442365799 0 -0.36318679658289171 0.25196182354824148 0 -0.40945734975255721 0.27571403549971041 0 -0.40585136056822319 0.25674789398696107 0 -0.39336972403141229 0.26369738761855421 0 -0.38790582398472923 0.24962922847932231 0 -0.40585136056822319 0.25674789398696107 0 -0.39336972403141229 0.26369738761855421 0 -0.40945734975255721 0.27571403549971041 0 -0.39336972403141229 0.26369738761855421 0 -0.39350738277932218 0.27757861076756318 0 -0.40945734975255721 0.27571403549971041 0 -0.39350738277932218 0.27757861076756318 0 -0.35583614606747688 0.27501819518035592 0 -0.36318679658289171 0.25196182354824148 0 -0.33952374355129727 0.25899057541505788 0 -0.37647038179830861 0.26645711442365799 0 -0.35583614606747688 0.27501819518035592 0 -0.36318679658289171 0.25196182354824148 0 -0.37870614451813112 0.28175948497688769 0 -0.37647038179830861 0.26645711442365799 0 -0.35583614606747688 0.27501819518035592 0 -0.37819889022761238 0.29924868842846319 0 -0.37870614451813112 0.28175948497688769 0 -0.36775571630023218 0.2927315942663431 0 -0.37870614451813112 0.28175948497688769 0 -0.35583614606747688 0.27501819518035592 0 -0.36775571630023218 0.2927315942663431 0 -0.37819889022761238 0.29924868842846319 0 -0.36899777432263853 0.30469822459034263 0 -0.37415321332832258 0.31386652142517069 0 -0.36899777432263853 0.30469822459034263 0 -0.36272901898995358 0.31473918551029578 0 -0.37415321332832258 0.31386652142517069 0 -0.37819889022761238 0.29924868842846319 0 -0.36775571630023218 0.2927315942663431 0 -0.36899777432263853 0.30469822459034263 0 -0.36775571630023218 0.2927315942663431 0 -0.36899777432263853 0.30469822459034263 0 -0.35931620367806588 0.30475084950198522 0 -0.36775571630023218 0.2927315942663431 0 -0.35931620367806588 0.30475084950198522 0 -0.35261706249820868 0.29381533636168528 0 -0.36899777432263853 0.30469822459034263 0 -0.35931620367806588 0.30475084950198522 0 -0.36272901898995358 0.31473918551029578 0 -0.35931620367806588 0.30475084950198522 0 -0.35261706249820868 0.29381533636168528 0 -0.34344143829887858 0.30736403781452232 0 -0.35931620367806588 0.30475084950198522 0 -0.34344143829887858 0.30736403781452232 0 -0.35467675850453528 0.31743756764607989 0 -0.35931620367806588 0.30475084950198522 0 -0.35467675850453528 0.31743756764607989 0 -0.36272901898995358 0.31473918551029578 0 -0.35583614606747688 0.27501819518035592 0 -0.36775571630023218 0.2927315942663431 0 -0.35261706249820868 0.29381533636168528 0 -0.35583614606747688 0.27501819518035592 0 -0.35261706249820868 0.29381533636168528 0 -0.33673580814638959 0.28921200504521999 0 -0.35261706249820868 0.29381533636168528 0 -0.33673580814638959 0.28921200504521999 0 -0.34344143829887858 0.30736403781452232 0 -0.33673580814638959 0.28921200504521999 0 -0.32075162894010661 0.28280614760534989 0 -0.33379142081270979 0.2734424933293601 0 -0.34344143829887858 0.30736403781452232 0 -0.31699951866320542 0.30755322334125379 0 -0.34344143829887858 0.30736403781452232 0 -0.31699951866320542 0.30755322334125379 0 -0.33459812393413729 0.32207732583041709 0 -0.33673580814638959 0.28921200504521999 0 -0.34344143829887858 0.30736403781452232 0 -0.31699951866320542 0.30755322334125379 0 -0.33673580814638959 0.28921200504521999 0 -0.31699951866320542 0.30755322334125379 0 -0.32075162894010661 0.28280614760534989 0 -0.31699951866320542 0.30755322334125379 0 -0.32075162894010661 0.28280614760534989 0 -0.30493521127791462 0.28695781074044469 0 -0.32075162894010661 0.28280614760534989 0 -0.31931282352829687 0.26617321261290411 0 -0.33379142081270979 0.2734424933293601 0 -0.32075162894010661 0.28280614760534989 0 -0.31931282352829687 0.26617321261290411 0 -0.30493521127791462 0.28695781074044469 0 -0.35583614606747688 0.27501819518035592 0 -0.33673580814638959 0.28921200504521999 0 -0.33379142081270979 0.2734424933293601 0 -0.35583614606747688 0.27501819518035592 0 -0.33379142081270979 0.2734424933293601 0 -0.33952374355129727 0.25899057541505788 0 -0.31931282352829687 0.26617321261290411 0 -0.33379142081270979 0.2734424933293601 0 -0.33952374355129727 0.25899057541505788 0 -0.32200613725511351 0.24850726385495631 0 -0.31931282352829687 0.26617321261290411 0 -0.33952374355129727 0.25899057541505788 0 -0.32200613725511351 0.24850726385495631 0 -0.31931282352829687 0.26617321261290411 0 -0.30640548876467488 0.25787073169030861 0 -0.31931282352829687 0.26617321261290411 0 -0.30640548876467488 0.25787073169030861 0 -0.3010630097917536 0.27273037638764702 0 -0.31931282352829687 0.26617321261290411 0 -0.3010630097917536 0.27273037638764702 0 -0.30493521127791462 0.28695781074044469 0 -0.31931282352829687 0.26617321261290411 0 -0.30493521127791462 0.28695781074044469 0 -0.3010630097917536 0.27273037638764702 0 -0.29309283898050847 0.28048055459605348 0 -0.30493521127791462 0.28695781074044469 0 -0.3010630097917536 0.27273037638764702 0 -0.29309283898050847 0.28048055459605348 0 -0.28156868640737281 0.27216957229852412 0 -0.30640548876467488 0.25787073169030861 0 -0.3010630097917536 0.27273037638764702 0 -0.28156868640737281 0.27216957229852412 0 -0.30640548876467488 0.25787073169030861 0 -0.28156868640737281 0.27216957229852412 0 -0.28729818335365731 0.26780124082781631 0 -0.28156868640737281 0.27216957229852412 0 -0.28729818335365731 0.26780124082781631 0 -0.27880962639343299 0.26078065685839158 0 -0.29309283898050847 0.28048055459605348 0 -0.28156868640737281 0.27216957229852412 0 -0.28401529333418091 0.28255904946725641 0 -0.30640548876467488 0.25787073169030861 0 -0.28156868640737281 0.27216957229852412 0 -0.29125564533142001 0.24067530578368901 0 -0.30640548876467488 0.25787073169030861 0 -0.28729818335365731 0.26780124082781631 0 -0.29125564533142001 0.24067530578368901 0 -0.28729818335365731 0.26780124082781631 0 -0.27880962639343299 0.26078065685839158 0 -0.29125564533142001 0.24067530578368901 0 -0.28729818335365731 0.26780124082781631 0 -0.29125564533142001 0.24067530578368901 0 -0.26892213733164849 0.25365425058065472 0 -0.27880962639343299 0.26078065685839158 0 -0.26892213733164849 0.25365425058065472 0 -0.27880962639343299 0.26078065685839158 0 -0.26500347954306669 0.26960291480127369 0 -0.28156868640737281 0.27216957229852412 0 -0.25673188405007052 0.28646841290673969 0 -0.28156868640737281 0.27216957229852412 0 -0.26500347954306669 0.26960291480127369 0 -0.25673188405007052 0.28646841290673969 0 -0.28156868640737281 0.27216957229852412 0 -0.27880962639343299 0.26078065685839158 0 -0.26500347954306669 0.26960291480127369 0 -0.28156868640737281 0.27216957229852412 0 -0.27479408276187339 0.28687287199942368 0 -0.28401529333418091 0.28255904946725641 0 -0.26500347954306669 0.26960291480127369 0 -0.25265925142613249 0.26128234508680298 0 -0.25673188405007052 0.28646841290673969 0 -0.26892213733164849 0.25365425058065472 0 -0.26500347954306669 0.26960291480127369 0 -0.25265925142613249 0.26128234508680298 0 -0.25621817608628389 0.2460965770837312 0 -0.26892213733164849 0.25365425058065472 0 -0.25265925142613249 0.26128234508680298 0 -0.25505401324638421 0.30366623925853881 0 -0.26661761067819428 0.2958317928062858 0 -0.26721257633701828 0.30790943684761429 0 -0.25505401324638421 0.30366623925853881 0 -0.26721257633701828 0.30790943684761429 0 -0.25901197930261888 0.31383205914145501 0 -0.26721257633701828 0.30790943684761429 0 -0.25901197930261888 0.31383205914145501 0 -0.26528599585519008 0.31471464054907522 0 -0.25505401324638421 0.30366623925853881 0 -0.25901197930261888 0.31383205914145501 0 -0.24885494741763489 0.31718848033418301 0 -0.25505401324638421 0.30366623925853881 0 -0.25673188405007052 0.28646841290673969 0 -0.26661761067819428 0.2958317928062858 0 -0.26661761067819428 0.2958317928062858 0 -0.27573637841232751 0.29432500902679382 0 -0.27326763327687947 0.30016750757533939 0 -0.28156868640737281 0.27216957229852412 0 -0.25673188405007052 0.28646841290673969 0 -0.27479408276187339 0.28687287199942368 0 -0.26661761067819428 0.2958317928062858 0 -0.27479408276187339 0.28687287199942368 0 -0.27573637841232751 0.29432500902679382 0 -0.25673188405007052 0.28646841290673969 0 -0.26661761067819428 0.2958317928062858 0 -0.27479408276187339 0.28687287199942368 0 -0.27479408276187339 0.28687287199942368 0 -0.28401529333418091 0.28255904946725641 0 -0.28313816676434478 0.29069510378855717 0 -0.27479408276187339 0.28687287199942368 0 -0.27573637841232751 0.29432500902679382 0 -0.28313816676434478 0.29069510378855717 0 -0.27573637841232751 0.29432500902679382 0 -0.28086439858034518 0.29805776896436298 0 -0.28313816676434478 0.29069510378855717 0 -0.28086439858034518 0.29805776896436298 0 -0.27753065875984329 0.30327410754998058 0 -0.28274061889410179 0.30278083970340541 0 -0.27753065875984329 0.30327410754998058 0 -0.27514776209796898 0.30785266251660498 0 -0.28274061889410179 0.30278083970340541 0 -0.27753065875984329 0.30327410754998058 0 -0.27326763327687947 0.30016750757533939 0 -0.27348155140824082 0.30658246875079598 0 -0.28086439858034518 0.29805776896436298 0 -0.27753065875984329 0.30327410754998058 0 -0.27326763327687947 0.30016750757533939 0 -0.27573637841232751 0.29432500902679382 0 -0.28086439858034518 0.29805776896436298 0 -0.27326763327687947 0.30016750757533939 0 -0.26661761067819428 0.2958317928062858 0 -0.27326763327687947 0.30016750757533939 0 -0.26721257633701828 0.30790943684761429 0 -0.26721257633701828 0.30790943684761429 0 -0.27514776209796898 0.30785266251660498 0 -0.27123720609067609 0.3158529302113221 0 -0.26721257633701828 0.30790943684761429 0 -0.27348155140824082 0.30658246875079598 0 -0.27514776209796898 0.30785266251660498 0 -0.26721257633701828 0.30790943684761429 0 -0.27514776209796898 0.30785266251660498 0 -0.27326763327687947 0.30016750757533939 0 -0.26721257633701828 0.30790943684761429 0 -0.27348155140824082 0.30658246875079598 0 -0.27514776209796898 0.30785266251660498 0 -0.2851872012256097 0.31550597615259851 0 -0.27753065875984329 0.30327410754998058 0 -0.27348155140824082 0.30658246875079598 0 -0.27514776209796898 0.30785266251660498 0 -0.27348155140824082 0.30658246875079598 0 -0.27514776209796898 0.30785266251660498 0 -0.27514776209796898 0.30785266251660498 0 -0.2905575990275322 0.30774240886798532 0 -0.27514776209796898 0.30785266251660498 0 -0.2905575990275322 0.30774240886798532 0 -0.2851872012256097 0.31550597615259851 0 -0.2896026760048197 0.2969772506180926 0 -0.2905575990275322 0.30774240886798532 0 -0.30493521127791462 0.28695781074044469 0 -0.27514776209796898 0.30785266251660498 0 -0.28274061889410179 0.30278083970340541 0 -0.2905575990275322 0.30774240886798532 0 -0.2905575990275322 0.30774240886798532 0 -0.2851872012256097 0.31550597615259851 0 -0.28274061889410179 0.30278083970340541 0 -0.2896026760048197 0.2969772506180926 0 -0.2905575990275322 0.30774240886798532 0 -0.28086439858034518 0.29805776896436298 0 -0.28274061889410179 0.30278083970340541 0 -0.2896026760048197 0.2969772506180926 0 -0.28401529333418091 0.28255904946725641 0 -0.28313816676434478 0.29069510378855717 0 -0.29095683727235372 0.28753395384208091 0 -0.28086439858034518 0.29805776896436298 0 -0.2896026760048197 0.2969772506180926 0 -0.28313816676434478 0.29069510378855717 0 -0.2896026760048197 0.2969772506180926 0 -0.28313816676434478 0.29069510378855717 0 -0.29095683727235372 0.28753395384208091 0 -0.2896026760048197 0.2969772506180926 0 -0.29095683727235372 0.28753395384208091 0 -0.30493521127791462 0.28695781074044469 0 -0.29309283898050847 0.28048055459605348 0 -0.29095683727235372 0.28753395384208091 0 -0.30493521127791462 0.28695781074044469 0 -0.29309283898050847 0.28048055459605348 0 -0.28401529333418091 0.28255904946725641 0 -0.29095683727235372 0.28753395384208091 0 -0.31699951866320542 0.30755322334125379 0 -0.2905575990275322 0.30774240886798532 0 -0.30563014257680821 0.31779627416788381 0 -0.31699951866320542 0.30755322334125379 0 -0.2905575990275322 0.30774240886798532 0 -0.2905575990275322 0.30774240886798532 0 -0.30493521127791462 0.28695781074044469 0 -0.31699951866320542 0.30755322334125379 0 -0.2905575990275322 0.30774240886798532 0 -0.30493521127791462 0.28695781074044469 0 -0.30538608464820588 0.33090408634228141 0 -0.28942706780696309 0.31873813168532672 0 -0.30563014257680821 0.31779627416788381 0 -0.30538608464820588 0.33090408634228141 0 -0.31811651498789978 0.32488887006413791 0 -0.30563014257680821 0.31779627416788381 0 -0.30538608464820588 0.33090408634228141 0 -0.2937791937433501 0.31637108240395312 0 -0.30538608464820588 0.33090408634228141 0 -0.3017933608705089 0.344447887165377 0 -0.32134510148944728 0.34307004099923799 0 -0.30538608464820588 0.33090408634228141 0 -0.29093013722955491 0.33661105704622479 0 -0.3017933608705089 0.344447887165377 0 -0.30538608464820588 0.33090408634228141 0 -0.29093013722955491 0.33661105704622479 0 -0.2885751077852815 0.32830696870384862 0 -0.29093013722955491 0.33661105704622479 0 -0.28224162025157051 0.34582573333151501 0 -0.3017933608705089 0.344447887165377 0 -0.2885751077852815 0.32830696870384862 0 -0.28146834572906437 0.33465123959114113 0 -0.2790455690922089 0.3243844570517187 0 -0.29093013722955491 0.33661105704622479 0 -0.2885751077852815 0.32830696870384862 0 -0.28146834572906437 0.33465123959114113 0 -0.29093013722955491 0.33661105704622479 0 -0.28146834572906437 0.33465123959114113 0 -0.28224162025157051 0.34582573333151501 0 -0.30538608464820588 0.33090408634228141 0 -0.2885751077852815 0.32830696870384862 0 -0.28942706780696309 0.31873813168532672 0 -0.30538608464820588 0.33090408634228141 0 -0.28942706780696309 0.31873813168532672 0 -0.2937791937433501 0.31637108240395312 0 -0.28942706780696309 0.31873813168532672 0 -0.2937791937433501 0.31637108240395312 0 -0.2851872012256097 0.31550597615259851 0 -0.2905575990275322 0.30774240886798532 0 -0.30563014257680821 0.31779627416788381 0 -0.2937791937433501 0.31637108240395312 0 -0.2905575990275322 0.30774240886798532 0 -0.2937791937433501 0.31637108240395312 0 -0.2851872012256097 0.31550597615259851 0 -0.28942706780696309 0.31873813168532672 0 -0.2937791937433501 0.31637108240395312 0 -0.2885751077852815 0.32830696870384862 0 -0.28942706780696309 0.31873813168532672 0 -0.2790455690922089 0.3243844570517187 0 -0.28942706780696309 0.31873813168532672 0 -0.2790455690922089 0.3243844570517187 0 -0.2851872012256097 0.31550597615259851 0 -0.2790455690922089 0.3243844570517187 0 -0.28942706780696309 0.31873813168532672 0 -0.2851872012256097 0.31550597615259851 0 -0.2790455690922089 0.3243844570517187 0 -0.28942706780696309 0.31873813168532672 0 -0.2851872012256097 0.31550597615259851 0 -0.27514776209796898 0.30785266251660498 0 -0.2851872012256097 0.31550597615259851 0 -0.27699557949655113 0.31645322234696882 0 -0.2851872012256097 0.31550597615259851 0 -0.27699557949655113 0.31645322234696882 0 -0.2790455690922089 0.3243844570517187 0 -0.27514776209796898 0.30785266251660498 0 -0.27699557949655113 0.31645322234696882 0 -0.27123720609067609 0.3158529302113221 0 -0.27001263578126711 0.32263717043347712 0 -0.2790455690922089 0.3243844570517187 0 -0.25910260253645218 0.33523110656146687 0 -0.26721257633701828 0.30790943684761429 0 -0.27123720609067609 0.3158529302113221 0 -0.26528599585519008 0.31471464054907522 0 -0.27699557949655113 0.31645322234696882 0 -0.27123720609067609 0.3158529302113221 0 -0.27001263578126711 0.32263717043347712 0 -0.27123720609067609 0.3158529302113221 0 -0.26528599585519008 0.31471464054907522 0 -0.26368222169044719 0.32126413599590953 0 -0.27123720609067609 0.3158529302113221 0 -0.27001263578126711 0.32263717043347712 0 -0.26368222169044719 0.32126413599590953 0 -0.27699557949655113 0.31645322234696882 0 -0.27001263578126711 0.32263717043347712 0 -0.2790455690922089 0.3243844570517187 0 -0.2790455690922089 0.3243844570517187 0 -0.25910260253645218 0.33523110656146687 0 -0.2790455690922089 0.3243844570517187 0 -0.26824012707650141 0.34000504592112352 0 -0.28146834572906437 0.33465123959114113 0 -0.2790455690922089 0.3243844570517187 0 -0.26824012707650141 0.34000504592112352 0 -0.2790455690922089 0.3243844570517187 0 -0.26824012707650141 0.34000504592112352 0 -0.25910260253645218 0.33523110656146687 0 -0.28146834572906437 0.33465123959114113 0 -0.26824012707650141 0.34000504592112352 0 -0.28224162025157051 0.34582573333151501 0 -0.25910260253645218 0.33523110656146687 0 -0.25407523553642281 0.3497448278934856 0 -0.23915963598069589 0.34607775607121571 0 -0.25910260253645218 0.33523110656146687 0 -0.25407523553642281 0.3497448278934856 0 -0.26309588156361569 0.34576168367824162 0 -0.26824012707650141 0.34000504592112352 0 -0.25910260253645218 0.33523110656146687 0 -0.26309588156361569 0.34576168367824162 0 -0.25910260253645218 0.33523110656146687 0 -0.25451497659773847 0.32559442806853028 0 -0.24843663428782739 0.33758714710907461 0 -0.25451497659773847 0.32559442806853028 0 -0.25901197930261888 0.31383205914145501 0 -0.24885494741763489 0.31718848033418301 0 -0.25451497659773847 0.32559442806853028 0 -0.25901197930261888 0.31383205914145501 0 -0.26368222169044719 0.32126413599590953 0 -0.25901197930261888 0.31383205914145501 0 -0.26528599585519008 0.31471464054907522 0 -0.26368222169044719 0.32126413599590953 0 -0.27001263578126711 0.32263717043347712 0 -0.25910260253645218 0.33523110656146687 0 -0.26368222169044719 0.32126413599590953 0 -0.25910260253645218 0.33523110656146687 0 -0.25451497659773847 0.32559442806853028 0 -0.26368222169044719 0.32126413599590953 0 -0.26470209097228098 0.37140351159401941 0 -0.25562758441007077 0.36194187249828802 0 -0.266880351992417 0.3582272519812631 0 -0.26470209097228098 0.37140351159401941 0 -0.25213085833087667 0.37355178257669552 0 -0.25562758441007077 0.36194187249828802 0 -0.25213085833087667 0.37355178257669552 0 -0.25562758441007077 0.36194187249828802 0 -0.24329038266145239 0.36134909741814653 0 -0.25562758441007077 0.36194187249828802 0 -0.25407523553642281 0.3497448278934856 0 -0.24329038266145239 0.36134909741814653 0 -0.25407523553642281 0.3497448278934856 0 -0.26309588156361569 0.34576168367824162 0 -0.266880351992417 0.3582272519812631 0 -0.25562758441007077 0.36194187249828802 0 -0.25407523553642281 0.3497448278934856 0 -0.266880351992417 0.3582272519812631 0 -0.266880351992417 0.3582272519812631 0 -0.27640009279511962 0.35155878343443242 0 -0.28837447244510311 0.36628710188532532 0 -0.26309588156361569 0.34576168367824162 0 -0.266880351992417 0.3582272519812631 0 -0.27640009279511962 0.35155878343443242 0 -0.26824012707650141 0.34000504592112352 0 -0.26309588156361569 0.34576168367824162 0 -0.27640009279511962 0.35155878343443242 0 -0.26824012707650141 0.34000504592112352 0 -0.27640009279511962 0.35155878343443242 0 -0.28224162025157051 0.34582573333151501 0 -0.266880351992417 0.3582272519812631 0 -0.28837447244510311 0.36628710188532532 0 -0.266880351992417 0.3582272519812631 0 -0.28837447244510311 0.36628710188532532 0 -0.27747916353329311 0.37529003384729942 0 -0.26470209097228098 0.37140351159401941 0 -0.266880351992417 0.3582272519812631 0 -0.27747916353329311 0.37529003384729942 0 -0.28837447244510311 0.36628710188532532 0 -0.28714059247178902 0.37543321948423419 0 -0.27747916353329311 0.37529003384729942 0 -0.28837447244510311 0.36628710188532532 0 -0.28956810344150979 0.35324588380912608 0 -0.30292150033679799 0.36018321991941088 0 -0.28837447244510311 0.36628710188532532 0 -0.29874239202075642 0.37528196759933868 0 -0.28714059247178902 0.37543321948423419 0 -0.28224162025157051 0.34582573333151501 0 -0.3017933608705089 0.344447887165377 0 -0.28224162025157051 0.34582573333151501 0 -0.28956810344150979 0.35324588380912608 0 -0.3017933608705089 0.344447887165377 0 -0.27640009279511962 0.35155878343443242 0 -0.28224162025157051 0.34582573333151501 0 -0.28956810344150979 0.35324588380912608 0 -0.27640009279511962 0.35155878343443242 0 -0.28837447244510311 0.36628710188532532 0 -0.28956810344150979 0.35324588380912608 0 -0.3017933608705089 0.344447887165377 0 -0.31193410579265052 0.3536039280541286 0 -0.30292150033679799 0.36018321991941088 0 -0.28956810344150979 0.35324588380912608 0 -0.3017933608705089 0.344447887165377 0 -0.30292150033679799 0.36018321991941088 0 -0.3017933608705089 0.344447887165377 0 -0.32134510148944728 0.34307004099923799 0 -0.3017933608705089 0.344447887165377 0 -0.31193410579265052 0.3536039280541286 0 -0.32134510148944728 0.34307004099923799 0 -0.31193410579265052 0.3536039280541286 0 -0.30292150033679799 0.36018321991941088 0 -0.31340485972314069 0.36375751913665871 0 -0.28837447244510311 0.36628710188532532 0 -0.30292150033679799 0.36018321991941088 0 -0.30986859289778912 0.37434695178938759 0 -0.28837447244510311 0.36628710188532532 0 -0.30986859289778912 0.37434695178938759 0 -0.28837447244510311 0.36628710188532532 0 -0.30986859289778912 0.37434695178938759 0 -0.29874239202075642 0.37528196759933868 0 -0.30292150033679799 0.36018321991941088 0 -0.30986859289778912 0.37434695178938759 0 -0.31340485972314069 0.36375751913665871 0 -0.30986859289778912 0.37434695178938759 0 -0.31340485972314069 0.36375751913665871 0 -0.32167824364597858 0.36970754211250728 0 -0.31340485972314069 0.36375751913665871 0 -0.32243327870136801 0.35950699838777223 0 -0.32167824364597858 0.36970754211250728 0 -0.32243327870136801 0.35950699838777223 0 -0.32167824364597858 0.36970754211250728 0 -0.33132177355711989 0.36851943955526861 0 -0.32167824364597858 0.36970754211250728 0 -0.33132177355711989 0.36851943955526861 0 -0.33136271335047512 0.38240680169344993 0 -0.32243327870136801 0.35950699838777223 0 -0.33132177355711989 0.36851943955526861 0 -0.33989838930305449 0.35721367281084643 0 -0.33132177355711989 0.36851943955526861 0 -0.34304766554360439 0.37232322735168022 0 -0.33136271335047512 0.38240680169344993 0 -0.33132177355711989 0.36851943955526861 0 -0.34304766554360439 0.37232322735168022 0 -0.33989838930305449 0.35721367281084643 0 -0.33989838930305449 0.35721367281084643 0 -0.32134510148944728 0.34307004099923799 0 -0.33989838930305449 0.35721367281084643 0 -0.32134510148944728 0.34307004099923799 0 -0.3500233487104954 0.34104903357308669 0 -0.32243327870136801 0.35950699838777223 0 -0.33989838930305449 0.35721367281084643 0 -0.32134510148944728 0.34307004099923799 0 -0.31193410579265052 0.3536039280541286 0 -0.32243327870136801 0.35950699838777223 0 -0.32134510148944728 0.34307004099923799 0 -0.31193410579265052 0.3536039280541286 0 -0.31340485972314069 0.36375751913665871 0 -0.32243327870136801 0.35950699838777223 0 -0.30538608464820588 0.33090408634228141 0 -0.32134510148944728 0.34307004099923799 0 -0.30538608464820588 0.33090408634228141 0 -0.32134510148944728 0.34307004099923799 0 -0.31811651498789978 0.32488887006413791 0 -0.32134510148944728 0.34307004099923799 0 -0.31811651498789978 0.32488887006413791 0 -0.33459812393413729 0.32207732583041709 0 -0.31699951866320542 0.30755322334125379 0 -0.30563014257680821 0.31779627416788381 0 -0.31811651498789978 0.32488887006413791 0 -0.31699951866320542 0.30755322334125379 0 -0.31811651498789978 0.32488887006413791 0 -0.33459812393413729 0.32207732583041709 0 -0.32134510148944728 0.34307004099923799 0 -0.34342889555096417 0.33131534648734451 0 -0.3500233487104954 0.34104903357308669 0 -0.32134510148944728 0.34307004099923799 0 -0.33459812393413729 0.32207732583041709 0 -0.34342889555096417 0.33131534648734451 0 -0.32134510148944728 0.34307004099923799 0 -0.3500233487104954 0.34104903357308669 0 -0.3500233487104954 0.34104903357308669 0 -0.35650114511620551 0.33294276438790088 0 -0.36794029410566942 0.33226259727897972 0 -0.34342889555096417 0.33131534648734451 0 -0.3500233487104954 0.34104903357308669 0 -0.35650114511620551 0.33294276438790088 0 -0.33459812393413729 0.32207732583041709 0 -0.34342889555096417 0.33131534648734451 0 -0.35467675850453528 0.31743756764607989 0 -0.34344143829887858 0.30736403781452232 0 -0.33459812393413729 0.32207732583041709 0 -0.35467675850453528 0.31743756764607989 0 -0.35650114511620551 0.33294276438790088 0 -0.35467675850453528 0.31743756764607989 0 -0.36272901898995358 0.31473918551029578 0 -0.34342889555096417 0.33131534648734451 0 -0.35650114511620551 0.33294276438790088 0 -0.35467675850453528 0.31743756764607989 0 -0.35650114511620551 0.33294276438790088 0 -0.36272901898995358 0.31473918551029578 0 -0.37415321332832258 0.31386652142517069 0 -0.35650114511620551 0.33294276438790088 0 -0.37415321332832258 0.31386652142517069 0 -0.35650114511620551 0.33294276438790088 0 -0.37442838800096029 0.32044424157556423 0 -0.37415321332832258 0.31386652142517069 0 -0.37816355277066899 0.32985684687273281 0 -0.37442838800096029 0.32044424157556423 0 -0.36794029410566942 0.33226259727897972 0 -0.3787015959315434 0.33902802614693439 0 -0.3500233487104954 0.34104903357308669 0 -0.36794029410566942 0.33226259727897972 0 -0.35650114511620551 0.33294276438790088 0 -0.37442838800096029 0.32044424157556423 0 -0.36794029410566942 0.33226259727897972 0 -0.3787015959315434 0.33902802614693439 0 -0.3500233487104954 0.34104903357308669 0 -0.3787015959315434 0.33902802614693439 0 -0.37816355277066899 0.32985684687273281 0 -0.36794029410566942 0.33226259727897972 0 -0.3787015959315434 0.33902802614693439 0 -0.3500233487104954 0.34104903357308669 0 -0.36501658974902518 0.35367198233662939 0 -0.37823932191431281 0.35548757599615399 0 -0.3787015959315434 0.33902802614693439 0 -0.36501658974902518 0.35367198233662939 0 -0.37823932191431281 0.35548757599615399 0 -0.36501658974902518 0.35367198233662939 0 -0.37024808467873749 0.36543132639488701 0 -0.36501658974902518 0.35367198233662939 0 -0.37024808467873749 0.36543132639488701 0 -0.35845167711666143 0.37135730462245548 0 -0.37949655700884349 0.37153259571527891 0 -0.37024808467873749 0.36543132639488701 0 -0.36758280318953013 0.37627165255961892 0 -0.37024808467873749 0.36543132639488701 0 -0.35845167711666143 0.37135730462245548 0 -0.36758280318953013 0.37627165255961892 0 -0.36501658974902518 0.35367198233662939 0 -0.35845167711666143 0.37135730462245548 0 -0.35334750121980912 0.35582299833575448 0 -0.34304766554360439 0.37232322735168022 0 -0.33989838930305449 0.35721367281084643 0 -0.35845167711666143 0.37135730462245548 0 -0.33989838930305449 0.35721367281084643 0 -0.35845167711666143 0.37135730462245548 0 -0.35334750121980912 0.35582299833575448 0 -0.33989838930305449 0.35721367281084643 0 -0.35845167711666143 0.37135730462245548 0 -0.33989838930305449 0.35721367281084643 0 -0.3500233487104954 0.34104903357308669 0 -0.35334750121980912 0.35582299833575448 0 -0.3500233487104954 0.34104903357308669 0 -0.36501658974902518 0.35367198233662939 0 -0.35334750121980912 0.35582299833575448 0 -0.35285683380316007 0.39046665159751448 0 -0.36027192889352422 0.40897543894708011 0 -0.34270265381785459 0.40768080501023862 0 -0.34304766554360439 0.37232322735168022 0 -0.35845167711666143 0.37135730462245548 0 -0.35285683380316007 0.39046665159751448 0 -0.37686086334024771 0.38257038446795849 0 -0.35285683380316007 0.39046665159751448 0 -0.37686086334024771 0.38257038446795849 0 -0.35285683380316007 0.39046665159751448 0 -0.36758280318953013 0.37627165255961892 0 -0.35845167711666143 0.37135730462245548 0 -0.35285683380316007 0.39046665159751448 0 -0.36758280318953013 0.37627165255961892 0 -0.37686086334024771 0.38257038446795849 0 -0.37949655700884349 0.37153259571527891 0 -0.36758280318953013 0.37627165255961892 0 -0.37769092578324193 0.39977892163450779 0 -0.35285683380316007 0.39046665159751448 0 -0.37769092578324193 0.39977892163450779 0 -0.37686086334024771 0.38257038446795849 0 -0.35285683380316007 0.39046665159751448 0 -0.37769092578324193 0.39977892163450779 0 -0.35285683380316007 0.39046665159751448 0 -0.36027192889352422 0.40897543894708011 0 -0.37875820238401509 0.42613984176471847 0 -0.37769092578324193 0.39977892163450779 0 -0.36027192889352422 0.40897543894708011 0 -0.37875820238401509 0.42613984176471847 0 -0.36027192889352422 0.40897543894708011 0 -0.36048507512927641 0.42545129427310208 0 -0.37875820238401509 0.42613984176471847 0 -0.36048507512927641 0.42545129427310208 0 -0.35499138700470761 0.44318849185793469 0 -0.37875820238401509 0.42613984176471847 0 -0.35499138700470761 0.44318849185793469 0 -0.34691622899781399 0.42161541908905831 0 -0.33223168701086447 0.43660936806356893 0 -0.35499138700470761 0.44318849185793469 0 -0.36048507512927641 0.42545129427310208 0 -0.34691622899781399 0.42161541908905831 0 -0.35499138700470761 0.44318849185793469 0 -0.36027192889352422 0.40897543894708011 0 -0.34691622899781399 0.42161541908905831 0 -0.34270265381785459 0.40768080501023862 0 -0.36027192889352422 0.40897543894708011 0 -0.36048507512927641 0.42545129427310208 0 -0.34691622899781399 0.42161541908905831 0 -0.34270265381785459 0.40768080501023862 0 -0.32841174735063311 0.41773478988879181 0 -0.32505653004414181 0.39961172552874852 0 -0.34691622899781399 0.42161541908905831 0 -0.34270265381785459 0.40768080501023862 0 -0.32841174735063311 0.41773478988879181 0 -0.34691622899781399 0.42161541908905831 0 -0.32841174735063311 0.41773478988879181 0 -0.33223168701086447 0.43660936806356893 0 -0.32841174735063311 0.41773478988879181 0 -0.33223168701086447 0.43660936806356893 0 -0.31148998866141242 0.43181261152586448 0 -0.32841174735063311 0.41773478988879181 0 -0.31441363705571701 0.41408607272300291 0 -0.32505653004414181 0.39961172552874852 0 -0.32841174735063311 0.41773478988879181 0 -0.31441363705571701 0.41408607272300291 0 -0.31148998866141242 0.43181261152586448 0 -0.32505653004414181 0.39961172552874852 0 -0.31219235154091651 0.39185403334122892 0 -0.30619500853749271 0.39725637532293351 0 -0.32505653004414181 0.39961172552874852 0 -0.31778050989885959 0.38527433798844479 0 -0.31219235154091651 0.39185403334122892 0 -0.35285683380316007 0.39046665159751448 0 -0.32505653004414181 0.39961172552874852 0 -0.33136271335047512 0.38240680169344993 0 -0.35285683380316007 0.39046665159751448 0 -0.34270265381785459 0.40768080501023862 0 -0.32505653004414181 0.39961172552874852 0 -0.35285683380316007 0.39046665159751448 0 -0.32505653004414181 0.39961172552874852 0 -0.35285683380316007 0.39046665159751448 0 -0.33136271335047512 0.38240680169344993 0 -0.34304766554360439 0.37232322735168022 0 -0.35285683380316007 0.39046665159751448 0 -0.33136271335047512 0.38240680169344993 0 -0.30986859289778912 0.37434695178938759 0 -0.32167824364597858 0.36970754211250728 0 -0.33136271335047512 0.38240680169344993 0 -0.30986859289778912 0.37434695178938759 0 -0.33136271335047512 0.38240680169344993 0 -0.32505653004414181 0.39961172552874852 0 -0.33136271335047512 0.38240680169344993 0 -0.31778050989885959 0.38527433798844479 0 -0.30986859289778912 0.37434695178938759 0 -0.33136271335047512 0.38240680169344993 0 -0.31778050989885959 0.38527433798844479 0 -0.30986859289778912 0.37434695178938759 0 -0.31778050989885959 0.38527433798844479 0 -0.30574515252343709 0.38648905476423068 0 -0.30986859289778912 0.37434695178938759 0 -0.30574515252343709 0.38648905476423068 0 -0.29874239202075642 0.37528196759933868 0 -0.30574515252343709 0.38648905476423068 0 -0.29874239202075642 0.37528196759933868 0 -0.29146244090030071 0.40289140707507309 0 -0.31778050989885959 0.38527433798844479 0 -0.30574515252343709 0.38648905476423068 0 -0.31219235154091651 0.39185403334122892 0 -0.32505653004414181 0.39961172552874852 0 -0.30619500853749271 0.39725637532293351 0 -0.29725622628512233 0.40875679945997928 0 -0.32505653004414181 0.39961172552874852 0 -0.29725622628512233 0.40875679945997928 0 -0.30574515252343709 0.38648905476423068 0 -0.30619500853749271 0.39725637532293351 0 -0.29146244090030071 0.40289140707507309 0 -0.30574515252343709 0.38648905476423068 0 -0.31219235154091651 0.39185403334122892 0 -0.30619500853749271 0.39725637532293351 0 -0.30619500853749271 0.39725637532293351 0 -0.29146244090030071 0.40289140707507309 0 -0.29725622628512233 0.40875679945997928 0 -0.29146244090030071 0.40289140707507309 0 -0.2882496590958894 0.39023794275143442 0 -0.278827461574497 0.39790462172635238 0 -0.28396634188800352 0.38487377460497352 0 -0.2882496590958894 0.39023794275143442 0 -0.278827461574497 0.39790462172635238 0 -0.29146244090030071 0.40289140707507309 0 -0.278827461574497 0.39790462172635238 0 -0.27940045790464241 0.41220012044695847 0 -0.29874239202075642 0.37528196759933868 0 -0.29146244090030071 0.40289140707507309 0 -0.29874239202075642 0.37528196759933868 0 -0.29146244090030071 0.40289140707507309 0 -0.2882496590958894 0.39023794275143442 0 -0.29874239202075642 0.37528196759933868 0 -0.28396634188800352 0.38487377460497352 0 -0.28714059247178902 0.37543321948423419 0 -0.29874239202075642 0.37528196759933868 0 -0.28396634188800352 0.38487377460497352 0 -0.2882496590958894 0.39023794275143442 0 -0.28396634188800352 0.38487377460497352 0 -0.28714059247178902 0.37543321948423419 0 -0.27747916353329311 0.37529003384729942 0 -0.28396634188800352 0.38487377460497352 0 -0.27747916353329311 0.37529003384729942 0 -0.26775424033426293 0.38456849691175748 0 -0.28396634188800352 0.38487377460497352 0 -0.26775424033426293 0.38456849691175748 0 -0.278827461574497 0.39790462172635238 0 -0.26470209097228098 0.37140351159401941 0 -0.27747916353329311 0.37529003384729942 0 -0.26775424033426293 0.38456849691175748 0 -0.278827461574497 0.39790462172635238 0 -0.26298604578065232 0.3973558675440883 0 -0.2677584473194361 0.40899541659639099 0 -0.26775424033426293 0.38456849691175748 0 -0.278827461574497 0.39790462172635238 0 -0.26298604578065232 0.3973558675440883 0 -0.26298604578065232 0.3973558675440883 0 -0.25152819264859128 0.38883491631829081 0 -0.2490618870264745 0.40647588616764979 0 -0.26298604578065232 0.3973558675440883 0 -0.2677584473194361 0.40899541659639099 0 -0.2490618870264745 0.40647588616764979 0 -0.25213085833087667 0.37355178257669552 0 -0.26775424033426293 0.38456849691175748 0 -0.25152819264859128 0.38883491631829081 0 -0.26775424033426293 0.38456849691175748 0 -0.26298604578065232 0.3973558675440883 0 -0.25152819264859128 0.38883491631829081 0 -0.26470209097228098 0.37140351159401941 0 -0.25213085833087667 0.37355178257669552 0 -0.26775424033426293 0.38456849691175748 0 -0.2572482915111563 0.42152384209731297 0 -0.26330490497154813 0.43976041958731371 0 -0.24092688658692171 0.43286849171069308 0 -0.2572482915111563 0.42152384209731297 0 -0.27163392734069919 0.42205675226444578 0 -0.26330490497154813 0.43976041958731371 0 -0.2572482915111563 0.42152384209731297 0 -0.2677584473194361 0.40899541659639099 0 -0.2490618870264745 0.40647588616764979 0 -0.2572482915111563 0.42152384209731297 0 -0.2677584473194361 0.40899541659639099 0 -0.27163392734069919 0.42205675226444578 0 -0.27940045790464241 0.41220012044695847 0 -0.27163392734069919 0.42205675226444578 0 -0.28418248977984512 0.43050084655080739 0 -0.2677584473194361 0.40899541659639099 0 -0.27940045790464241 0.41220012044695847 0 -0.27163392734069919 0.42205675226444578 0 -0.278827461574497 0.39790462172635238 0 -0.2677584473194361 0.40899541659639099 0 -0.27940045790464241 0.41220012044695847 0 -0.27163392734069919 0.42205675226444578 0 -0.28418248977984512 0.43050084655080739 0 -0.26330490497154813 0.43976041958731371 0 -0.28418248977984512 0.43050084655080739 0 -0.29943060469912958 0.42576946359573847 0 -0.28981068171355151 0.44369098771903792 0 -0.29146244090030071 0.40289140707507309 0 -0.28418248977984512 0.43050084655080739 0 -0.29146244090030071 0.40289140707507309 0 -0.27940045790464241 0.41220012044695847 0 -0.28418248977984512 0.43050084655080739 0 -0.28418248977984512 0.43050084655080739 0 -0.29725622628512233 0.40875679945997928 0 -0.29943060469912958 0.42576946359573847 0 -0.29146244090030071 0.40289140707507309 0 -0.28418248977984512 0.43050084655080739 0 -0.29725622628512233 0.40875679945997928 0 -0.31441363705571701 0.41408607272300291 0 -0.32505653004414181 0.39961172552874852 0 -0.29725622628512233 0.40875679945997928 0 -0.31441363705571701 0.41408607272300291 0 -0.29725622628512233 0.40875679945997928 0 -0.29943060469912958 0.42576946359573847 0 -0.31441363705571701 0.41408607272300291 0 -0.29943060469912958 0.42576946359573847 0 -0.31148998866141242 0.43181261152586448 0 -0.29943060469912958 0.42576946359573847 0 -0.31148998866141242 0.43181261152586448 0 -0.28981068171355151 0.44369098771903792 0 -0.31148998866141242 0.43181261152586448 0 -0.30120616623050861 0.45239726712555162 0 -0.31718999816658727 0.45065056632578487 0 -0.31148998866141242 0.43181261152586448 0 -0.30120616623050861 0.45239726712555162 0 -0.31148998866141242 0.43181261152586448 0 -0.30120616623050861 0.45239726712555162 0 -0.28981068171355151 0.44369098771903792 0 -0.30120616623050861 0.45239726712555162 0 -0.29092234379960469 0.47298192272523881 0 -0.30745775624609217 0.47728579204436761 0 -0.30120616623050861 0.45239726712555162 0 -0.30745775624609217 0.47728579204436761 0 -0.31718999816658727 0.45065056632578487 0 -0.2852957606144535 0.45730244818253718 0 -0.28186649269177161 0.46567885888970018 0 -0.29092234379960469 0.47298192272523881 0 -0.30120616623050861 0.45239726712555162 0 -0.29092234379960469 0.47298192272523881 0 -0.30120616623050861 0.45239726712555162 0 -0.2852957606144535 0.45730244818253718 0 -0.29092234379960469 0.47298192272523881 0 -0.2852957606144535 0.45730244818253718 0 -0.28186649269177161 0.46567885888970018 0 -0.27690253865938408 0.45811028602654041 0 -0.28418248977984512 0.43050084655080739 0 -0.28981068171355151 0.44369098771903792 0 -0.27690253865938408 0.45811028602654041 0 -0.30120616623050861 0.45239726712555162 0 -0.2852957606144535 0.45730244818253718 0 -0.28981068171355151 0.44369098771903792 0 -0.2852957606144535 0.45730244818253718 0 -0.28981068171355151 0.44369098771903792 0 -0.27690253865938408 0.45811028602654041 0 -0.28418248977984512 0.43050084655080739 0 -0.27690253865938408 0.45811028602654041 0 -0.28418248977984512 0.43050084655080739 0 -0.27690253865938408 0.45811028602654041 0 -0.26330490497154813 0.43976041958731371 0 -0.2852957606144535 0.45730244818253718 0 -0.27690253865938408 0.45811028602654041 0 -0.28186649269177161 0.46567885888970018 0 -0.27690253865938408 0.45811028602654041 0 -0.27835780074514338 0.47366975871288508 0 -0.27690253865938408 0.45811028602654041 0 -0.25345677561811758 0.46036691342989022 0 -0.27690253865938408 0.45811028602654041 0 -0.25345677561811758 0.46036691342989022 0 -0.26590293397843329 0.47057525233348851 0 -0.25345677561811758 0.46036691342989022 0 -0.25315469521642581 0.4750486889203015 0 -0.26590293397843329 0.47057525233348851 0 -0.25345677561811758 0.46036691342989022 0 -0.26330490497154813 0.43976041958731371 0 -0.24129970279445639 0.44943490890582899 0 -0.27690253865938408 0.45811028602654041 0 -0.25345677561811758 0.46036691342989022 0 -0.26330490497154813 0.43976041958731371 0 -0.26169037092037989 0.4910190989046625 0 -0.25397816739109252 0.5 0 -0.27113802145370669 0.49283981386083792 0 -0.26169037092037989 0.4910190989046625 0 -0.25474868654415728 0.48692894813519849 0 -0.26689660829256312 0.48430763362261348 0 -0.26169037092037989 0.4910190989046625 0 -0.25397816739109252 0.5 0 -0.25474868654415728 0.48692894813519849 0 -0.25315469521642581 0.4750486889203015 0 -0.26689660829256312 0.48430763362261348 0 -0.25315469521642581 0.4750486889203015 0 -0.26689660829256312 0.48430763362261348 0 -0.26590293397843329 0.47057525233348851 0 -0.25474868654415728 0.48692894813519849 0 -0.25315469521642581 0.4750486889203015 0 -0.26689660829256312 0.48430763362261348 0 -0.27690253865938408 0.45811028602654041 0 -0.26590293397843329 0.47057525233348851 0 -0.26946370716205509 0.4860372782758946 0 -0.27690253865938408 0.45811028602654041 0 -0.26946370716205509 0.4860372782758946 0 -0.27690253865938408 0.45811028602654041 0 -0.27835780074514338 0.47366975871288508 0 -0.26946370716205509 0.4860372782758946 0 -0.26689660829256312 0.48430763362261348 0 -0.26590293397843329 0.47057525233348851 0 -0.26946370716205509 0.4860372782758946 0 -0.28186649269177161 0.46567885888970018 0 -0.27835780074514338 0.47366975871288508 0 -0.28298297564177088 0.4743823417855309 0 -0.27835780074514338 0.47366975871288508 0 -0.2798907507987049 0.48286402398659151 0 -0.28298297564177088 0.4743823417855309 0 -0.27835780074514338 0.47366975871288508 0 -0.2798907507987049 0.48286402398659151 0 -0.26946370716205509 0.4860372782758946 0 -0.26946370716205509 0.4860372782758946 0 -0.28063852136870049 0.49356657832492562 0 -0.26946370716205509 0.4860372782758946 0 -0.27113802145370669 0.49283981386083792 0 -0.28063852136870049 0.49356657832492562 0 -0.2798907507987049 0.48286402398659151 0 -0.26946370716205509 0.4860372782758946 0 -0.28063852136870049 0.49356657832492562 0 -0.25397816739109252 0.5 0 -0.27113802145370669 0.49283981386083792 0 -0.27742446875513049 0.50000000000000155 0 -0.26689660829256312 0.48430763362261348 0 -0.26946370716205509 0.4860372782758946 0 -0.27113802145370669 0.49283981386083792 0 -0.26169037092037989 0.4910190989046625 0 -0.26689660829256312 0.48430763362261348 0 -0.27113802145370669 0.49283981386083792 0 -0.26689660829256312 0.48430763362261348 0 -0.26946370716205509 0.4860372782758946 0 -0.27113802145370669 0.49283981386083792 0 -0.28063852136870049 0.49356657832492562 0 -0.27742446875513049 0.50000000000000155 0 -0.28063852136870049 0.49356657832492562 0 -0.27742446875513049 0.50000000000000155 0 -0.28063852136870049 0.49356657832492562 0 -0.27742446875513049 0.50000000000000155 0 -0.29018685806186229 0.50000000000000122 0 -0.28063852136870049 0.49356657832492562 0 -0.29018685806186229 0.50000000000000122 0 -0.29092234379960469 0.47298192272523881 0 -0.28063852136870049 0.49356657832492562 0 -0.29018685806186229 0.50000000000000122 0 -0.29018685806186229 0.50000000000000122 0 -0.29092234379960469 0.47298192272523881 0 -0.30745775624609217 0.47728579204436761 0 -0.28063852136870049 0.49356657832492562 0 -0.29092234379960469 0.47298192272523881 0 -0.2798907507987049 0.48286402398659151 0 -0.28063852136870049 0.49356657832492562 0 -0.29092234379960469 0.47298192272523881 0 -0.28186649269177161 0.46567885888970018 0 -0.28298297564177088 0.4743823417855309 0 -0.29092234379960469 0.47298192272523881 0 -0.2798907507987049 0.48286402398659151 0 -0.28298297564177088 0.4743823417855309 0 -0.29092234379960469 0.47298192272523881 0 -0.29018685806186229 0.50000000000000122 0 -0.30745775624609217 0.47728579204436761 0 -0.3640375775585698 0.5 0 -0.30745775624609217 0.47728579204436761 0 -0.33122457162539992 0.46023714195115112 0 -0.3640375775585698 0.5 0 -0.30745775624609217 0.47728579204436761 0 -0.33122457162539992 0.46023714195115112 0 -0.30745775624609217 0.47728579204436761 0 -0.31718999816658727 0.45065056632578487 0 -0.33122457162539992 0.46023714195115112 0 -0.33223168701086447 0.43660936806356893 0 -0.31148998866141242 0.43181261152586448 0 -0.31718999816658727 0.45065056632578487 0 -0.33223168701086447 0.43660936806356893 0 -0.31718999816658727 0.45065056632578487 0 -0.33122457162539992 0.46023714195115112 0 -0.33122457162539992 0.46023714195115112 0 -0.35499138700470761 0.44318849185793469 0 -0.33223168701086447 0.43660936806356893 0 -0.33122457162539992 0.46023714195115112 0 -0.35499138700470761 0.44318849185793469 0 -0.33122457162539992 0.46023714195115112 0 -0.35376164566254242 0.46494380824906301 0 -0.35499138700470761 0.44318849185793469 0 -0.38249991962136642 0.44345487931465249 0 -0.35499138700470761 0.44318849185793469 0 -0.37103467036260362 0.45695891695805302 0 -0.38249991962136642 0.44345487931465249 0 -0.37875820238401509 0.42613984176471847 0 -0.35499138700470761 0.44318849185793469 0 -0.35376164566254242 0.46494380824906301 0 -0.35499138700470761 0.44318849185793469 0 -0.37103467036260362 0.45695891695805302 0 -0.35376164566254242 0.46494380824906301 0 -0.37103467036260362 0.45695891695805302 0 -0.36943712044780219 0.47475959506207249 0 -0.33122457162539992 0.46023714195115112 0 -0.35376164566254242 0.46494380824906301 0 -0.3640375775585698 0.5 0 -0.38891458820749281 0.47713565504117422 0 -0.36943712044780219 0.47475959506207249 0 -0.3640375775585698 0.5 0 -0.35376164566254242 0.46494380824906301 0 -0.36943712044780219 0.47475959506207249 0 -0.3640375775585698 0.5 0 -0.1410608215807003 0.47118489318428192 0 -0.1506389915883973 0.47451242435581331 0 -0.15779819732271971 0.4695739402503486 0 -0.1410608215807003 0.47118489318428192 0 -0.15779819732271971 0.4695739402503486 0 -0.1455325599989582 0.47665965757352818 0 -0.14983465253105441 0.48099067897208148 0 -0.1405957742956809 0.47995063378193648 0 -0.14983465253105441 0.48099067897208148 0 -0.14427471349546869 0.48965289008050411 0 -0.1405957742956809 0.47995063378193648 0 -0.1455325599989582 0.47665965757352818 0 -0.1410608215807003 0.47118489318428192 0 -0.1506389915883973 0.47451242435581331 0 -0.1455325599989582 0.47665965757352818 0 -0.1410608215807003 0.47118489318428192 0 -0.1405957742956809 0.47995063378193648 0 -0.1506389915883973 0.47451242435581331 0 -0.15682389603308189 0.47748605108520858 0 -0.15779819732271971 0.4695739402503486 0 -0.1506389915883973 0.47451242435581331 0 -0.14983465253105441 0.48099067897208148 0 -0.15682389603308189 0.47748605108520858 0 -0.1455325599989582 0.47665965757352818 0 -0.1506389915883973 0.47451242435581331 0 -0.14983465253105441 0.48099067897208148 0 -0.14983465253105441 0.48099067897208148 0 -0.1558122254133027 0.48316327461493752 0 -0.15682389603308189 0.47748605108520858 0 -0.14983465253105441 0.48099067897208148 0 -0.1558122254133027 0.48316327461493752 0 -0.15140604362779489 0.486968875654338 0 -0.1558122254133027 0.48316327461493752 0 -0.15140604362779489 0.486968875654338 0 -0.15545271364459581 0.49281799385228547 0 -0.14983465253105441 0.48099067897208148 0 -0.15140604362779489 0.486968875654338 0 -0.14427471349546869 0.48965289008050411 0 -0.15140604362779489 0.486968875654338 0 -0.15545271364459581 0.49281799385228547 0 -0.14427471349546869 0.48965289008050411 0 -0.15453849507163009 0.5 0 -0.14427471349546869 0.48965289008050411 0 -0.12543772684428189 0.5 0 -0.15453849507163009 0.5 0 -0.15545271364459581 0.49281799385228547 0 -0.14427471349546869 0.48965289008050411 0 -0.14427471349546869 0.48965289008050411 0 -0.12543772684428189 0.5 0 -0.13178312884530541 0.48627570230508688 0 -0.14427471349546869 0.48965289008050411 0 -0.13178312884530541 0.48627570230508688 0 -0.1405957742956809 0.47995063378193648 0 -0.13178312884530541 0.48627570230508688 0 -0.1317912103042716 0.47600940211286807 0 -0.11642361318749669 0.48420448820259387 0 -0.1317912103042716 0.47600940211286807 0 -0.14083201439797821 0.46516349611765162 0 -0.12052644250191399 0.4682622397032008 0 -0.13178312884530541 0.48627570230508688 0 -0.1405957742956809 0.47995063378193648 0 -0.1317912103042716 0.47600940211286807 0 -0.1410608215807003 0.47118489318428192 0 -0.1405957742956809 0.47995063378193648 0 -0.1317912103042716 0.47600940211286807 0 -0.1410608215807003 0.47118489318428192 0 -0.1317912103042716 0.47600940211286807 0 -0.14083201439797821 0.46516349611765162 0 -0.12618187852634369 0.45882241462805679 0 -0.14083201439797821 0.46516349611765162 0 -0.12052644250191399 0.4682622397032008 0 -0.14083201439797821 0.46516349611765162 0 -0.12052644250191399 0.4682622397032008 0 -0.12618187852634369 0.45882241462805679 0 -0.13621980461969219 0.45775649261309698 0 -0.13482926781972801 0.45201676164804122 0 -0.13621980461969219 0.45775649261309698 0 -0.13482926781972801 0.45201676164804122 0 -0.1430360577347192 0.45502329805863873 0 -0.13621980461969219 0.45775649261309698 0 -0.14083201439797821 0.46516349611765162 0 -0.1430360577347192 0.45502329805863873 0 -0.12618187852634369 0.45882241462805679 0 -0.13621980461969219 0.45775649261309698 0 -0.14083201439797821 0.46516349611765162 0 -0.12618187852634369 0.45882241462805679 0 -0.13482926781972801 0.45201676164804122 0 -0.1248743097581413 0.44162978393037222 0 -0.13482926781972801 0.45201676164804122 0 -0.13973201497409549 0.44099892737807922 0 -0.1415241139788854 0.4488412036993919 0 -0.13482926781972801 0.45201676164804122 0 -0.1415241139788854 0.4488412036993919 0 -0.1430360577347192 0.45502329805863873 0 -0.13973201497409549 0.44099892737807922 0 -0.13491063247587859 0.43073185275000708 0 -0.1248743097581413 0.44162978393037222 0 -0.13482926781972801 0.45201676164804122 0 -0.13973201497409549 0.44099892737807922 0 -0.1248743097581413 0.44162978393037222 0 -0.13973201497409549 0.44099892737807922 0 -0.14849911538699881 0.44732582771280882 0 -0.14949031039727409 0.43903968606904947 0 -0.14849911538699881 0.44732582771280882 0 -0.1430360577347192 0.45502329805863873 0 -0.15230793746503779 0.45507497120342549 0 -0.13973201497409549 0.44099892737807922 0 -0.1415241139788854 0.4488412036993919 0 -0.14849911538699881 0.44732582771280882 0 -0.1415241139788854 0.4488412036993919 0 -0.14849911538699881 0.44732582771280882 0 -0.1430360577347192 0.45502329805863873 0 -0.14849911538699881 0.44732582771280882 0 -0.15230793746503779 0.45507497120342549 0 -0.15767924869329919 0.44641741059368378 0 -0.14949031039727409 0.43903968606904947 0 -0.15767924869329919 0.44641741059368378 0 -0.15912083936695831 0.4347249498771325 0 -0.14849911538699881 0.44732582771280882 0 -0.14949031039727409 0.43903968606904947 0 -0.15767924869329919 0.44641741059368378 0 -0.14083201439797821 0.46516349611765162 0 -0.16113758629404229 0.46206475253210239 0 -0.15779819732271971 0.4695739402503486 0 -0.1410608215807003 0.47118489318428192 0 -0.14083201439797821 0.46516349611765162 0 -0.15779819732271971 0.4695739402503486 0 -0.14083201439797821 0.46516349611765162 0 -0.16113758629404229 0.46206475253210239 0 -0.14083201439797821 0.46516349611765162 0 -0.15230793746503779 0.45507497120342549 0 -0.16113758629404229 0.46206475253210239 0 -0.14083201439797821 0.46516349611765162 0 -0.1430360577347192 0.45502329805863873 0 -0.15230793746503779 0.45507497120342549 0 -0.16113758629404229 0.46206475253210239 0 -0.16940388650370539 0.44815354093755089 0 -0.18144315819010631 0.45896600894655282 0 -0.16113758629404229 0.46206475253210239 0 -0.18144315819010631 0.45896600894655282 0 -0.16113758629404229 0.46206475253210239 0 -0.17453557306473899 0.46796298731641428 0 -0.15779819732271971 0.4695739402503486 0 -0.15230793746503779 0.45507497120342549 0 -0.16113758629404229 0.46206475253210239 0 -0.16013216473902109 0.45292766881669072 0 -0.16113758629404229 0.46206475253210239 0 -0.16013216473902109 0.45292766881669072 0 -0.16940388650370539 0.44815354093755089 0 -0.15767924869329919 0.44641741059368378 0 -0.16940388650370539 0.44815354093755089 0 -0.15912083936695831 0.4347249498771325 0 -0.15230793746503779 0.45507497120342549 0 -0.16013216473902109 0.45292766881669072 0 -0.15767924869329919 0.44641741059368378 0 -0.16013216473902109 0.45292766881669072 0 -0.15767924869329919 0.44641741059368378 0 -0.16940388650370539 0.44815354093755089 0 -0.1829590266345629 0.45699162349075462 0 -0.18255950863604661 0.43173185523385532 0 -0.1829590266345629 0.45699162349075462 0 -0.19557533522393281 0.44055915781337712 0 -0.18255950863604661 0.43173185523385532 0 -0.16940388650370539 0.44815354093755089 0 -0.1829590266345629 0.45699162349075462 0 -0.18255950863604661 0.43173185523385532 0 -0.16113758629404229 0.46206475253210239 0 -0.17453557306473899 0.46796298731641428 0 -0.18144315819010631 0.45896600894655282 0 -0.17453557306473899 0.46796298731641428 0 -0.18144315819010631 0.45896600894655282 0 -0.17453557306473899 0.46796298731641428 0 -0.18311948649431831 0.46713679563994498 0 -0.16940388650370539 0.44815354093755089 0 -0.18144315819010631 0.45896600894655282 0 -0.1829590266345629 0.45699162349075462 0 -0.18144315819010631 0.45896600894655282 0 -0.1829590266345629 0.45699162349075462 0 -0.18144315819010631 0.45896600894655282 0 -0.1829865290739871 0.45873048193697258 0 -0.1829590266345629 0.45699162349075462 0 -0.18144315819010631 0.45896600894655282 0 -0.1829865290739871 0.45873048193697258 0 -0.1829865290739871 0.45873048193697258 0 -0.1829590266345629 0.45699162349075462 0 -0.17453557306473899 0.46796298731641428 0 -0.18144315819010631 0.45896600894655282 0 -0.18311948649431831 0.46713679563994498 0 -0.1829865290739871 0.45873048193697258 0 -0.18311948649431831 0.46713679563994498 0 -0.18144315819010631 0.45896600894655282 0 -0.1829865290739871 0.45873048193697258 0 -0.18311948649431831 0.46713679563994498 0 -0.18311948649431831 0.46713679563994498 0 -0.18337937489664821 0.48356839781997168 0 -0.19511197543601369 0.47606725323690458 0 -0.18311948649431831 0.46713679563994498 0 -0.18337937489664821 0.48356839781997168 0 -0.18311948649431831 0.46713679563994498 0 -0.18337937489664821 0.48356839781997168 0 -0.17485937494801759 0.47808814193434568 0 -0.17453557306473899 0.46796298731641428 0 -0.18311948649431831 0.46713679563994498 0 -0.17485937494801759 0.47808814193434568 0 -0.17453557306473899 0.46796298731641428 0 -0.15779819732271971 0.4695739402503486 0 -0.17453557306473899 0.46796298731641428 0 -0.16499414335466689 0.48039049058434952 0 -0.17453557306473899 0.46796298731641428 0 -0.16499414335466689 0.48039049058434952 0 -0.15779819732271971 0.4695739402503486 0 -0.17453557306473899 0.46796298731641428 0 -0.17485937494801759 0.47808814193434568 0 -0.16499414335466689 0.48039049058434952 0 -0.17485937494801759 0.47808814193434568 0 -0.16499414335466689 0.48039049058434952 0 -0.1699453859209171 0.49288017845899518 0 -0.1558122254133027 0.48316327461493752 0 -0.16499414335466689 0.48039049058434952 0 -0.15682389603308189 0.47748605108520858 0 -0.16499414335466689 0.48039049058434952 0 -0.15682389603308189 0.47748605108520858 0 -0.15779819732271971 0.4695739402503486 0 -0.15453849507163009 0.5 0 -0.1699453859209171 0.49288017845899518 0 -0.18363926329897839 0.49999999999999828 0 -0.15453849507163009 0.5 0 -0.15545271364459581 0.49281799385228547 0 -0.1699453859209171 0.49288017845899518 0 -0.15545271364459581 0.49281799385228547 0 -0.16499414335466689 0.48039049058434952 0 -0.1699453859209171 0.49288017845899518 0 -0.15545271364459581 0.49281799385228547 0 -0.16499414335466689 0.48039049058434952 0 -0.1558122254133027 0.48316327461493752 0 -0.15545271364459581 0.49281799385228547 0 -0.16499414335466689 0.48039049058434952 0 -0.18337937489664821 0.48356839781997168 0 -0.18363926329897839 0.49999999999999828 0 -0.18337937489664821 0.48356839781997168 0 -0.1699453859209171 0.49288017845899518 0 -0.18363926329897839 0.49999999999999828 0 -0.18337937489664821 0.48356839781997168 0 -0.17485937494801759 0.47808814193434568 0 -0.1699453859209171 0.49288017845899518 0 -0.18337937489664821 0.48356839781997168 0 -0.18363926329897839 0.49999999999999828 0 -0.19848883175809501 0.48685236178056529 0 -0.18363926329897839 0.49999999999999828 0 -0.19848883175809501 0.48685236178056529 0 -0.20708556466301639 0.5 0 -0.18311948649431831 0.46713679563994498 0 -0.19511197543601369 0.47606725323690458 0 -0.20656524953558469 0.46488016823659339 0 -0.18337937489664821 0.48356839781997168 0 -0.19848883175809501 0.48685236178056529 0 -0.19511197543601369 0.47606725323690458 0 -0.19848883175809501 0.48685236178056529 0 -0.19511197543601369 0.47606725323690458 0 -0.206747867840962 0.47700509082497228 0 -0.19511197543601369 0.47606725323690458 0 -0.206747867840962 0.47700509082497228 0 -0.20656524953558469 0.46488016823659339 0 -0.19848883175809501 0.48685236178056529 0 -0.206747867840962 0.47700509082497228 0 -0.21585796601610141 0.48648558657266339 0 -0.206747867840962 0.47700509082497228 0 -0.21852396914967101 0.47285401242330122 0 -0.20656524953558469 0.46488016823659339 0 -0.206747867840962 0.47700509082497228 0 -0.21852396914967101 0.47285401242330122 0 -0.21585796601610141 0.48648558657266339 0 -0.20708556466301639 0.5 0 -0.21585796601610141 0.48648558657266339 0 -0.23053186602705439 0.5 0 -0.19848883175809501 0.48685236178056529 0 -0.20708556466301639 0.5 0 -0.21585796601610141 0.48648558657266339 0 -0.21585796601610141 0.48648558657266339 0 -0.23053186602705439 0.5 0 -0.2373192826940049 0.48342253064983348 0 -0.21852396914967101 0.47285401242330122 0 -0.2373192826940049 0.48342253064983348 0 -0.23001101257685119 0.46262354083324181 0 -0.21852396914967101 0.47285401242330122 0 -0.21585796601610141 0.48648558657266339 0 -0.2373192826940049 0.48342253064983348 0 -0.25474868654415728 0.48692894813519849 0 -0.25315469521642581 0.4750486889203015 0 -0.2373192826940049 0.48342253064983348 0 -0.25315469521642581 0.4750486889203015 0 -0.2373192826940049 0.48342253064983348 0 -0.23001101257685119 0.46262354083324181 0 -0.25397816739109252 0.5 0 -0.23053186602705439 0.5 0 -0.2373192826940049 0.48342253064983348 0 -0.25397816739109252 0.5 0 -0.25474868654415728 0.48692894813519849 0 -0.2373192826940049 0.48342253064983348 0 -0.26330490497154813 0.43976041958731371 0 -0.24129970279445639 0.44943490890582899 0 -0.24092688658692171 0.43286849171069308 0 -0.24129970279445639 0.44943490890582899 0 -0.2242493546558077 0.44235471361969553 0 -0.24092688658692171 0.43286849171069308 0 -0.25345677561811758 0.46036691342989022 0 -0.23001101257685119 0.46262354083324181 0 -0.25345677561811758 0.46036691342989022 0 -0.24129970279445639 0.44943490890582899 0 -0.23001101257685119 0.46262354083324181 0 -0.25345677561811758 0.46036691342989022 0 -0.25315469521642581 0.4750486889203015 0 -0.23001101257685119 0.46262354083324181 0 -0.24129970279445639 0.44943490890582899 0 -0.23001101257685119 0.46262354083324181 0 -0.2242493546558077 0.44235471361969553 0 -0.23001101257685119 0.46262354083324181 0 -0.2242493546558077 0.44235471361969553 0 -0.2144914677851314 0.45380351874251162 0 -0.2242493546558077 0.44235471361969553 0 -0.20880164963731279 0.443380440886459 0 -0.2144914677851314 0.45380351874251162 0 -0.20880164963731279 0.443380440886459 0 -0.2144914677851314 0.45380351874251162 0 -0.20415969833182021 0.45549933815243238 0 -0.23001101257685119 0.46262354083324181 0 -0.2144914677851314 0.45380351874251162 0 -0.20656524953558469 0.46488016823659339 0 -0.21852396914967101 0.47285401242330122 0 -0.23001101257685119 0.46262354083324181 0 -0.20656524953558469 0.46488016823659339 0 -0.23001101257685119 0.46262354083324181 0 -0.20656524953558469 0.46488016823659339 0 -0.2144914677851314 0.45380351874251162 0 -0.20415969833182021 0.45549933815243238 0 -0.20656524953558469 0.46488016823659339 0 -0.1829865290739871 0.45873048193697258 0 -0.1829590266345629 0.45699162349075462 0 -0.20415969833182021 0.45549933815243238 0 -0.1829865290739871 0.45873048193697258 0 -0.20415969833182021 0.45549933815243238 0 -0.18311948649431831 0.46713679563994498 0 -0.20415969833182021 0.45549933815243238 0 -0.20656524953558469 0.46488016823659339 0 -0.1829865290739871 0.45873048193697258 0 -0.18311948649431831 0.46713679563994498 0 -0.20415969833182021 0.45549933815243238 0 -0.18311948649431831 0.46713679563994498 0 -0.20656524953558469 0.46488016823659339 0 -0.1829590266345629 0.45699162349075462 0 -0.19557533522393281 0.44055915781337712 0 -0.1829590266345629 0.45699162349075462 0 -0.20415969833182021 0.45549933815243238 0 -0.19557533522393281 0.44055915781337712 0 -0.20880164963731279 0.443380440886459 0 -0.20415969833182021 0.45549933815243238 0 -0.19557533522393281 0.44055915781337712 0 -0.19557533522393281 0.44055915781337712 0 -0.20819164381331129 0.42412669213600601 0 -0.19557533522393281 0.44055915781337712 0 -0.19413142888046839 0.4217351031076268 0 -0.18255950863604661 0.43173185523385532 0 -0.19557533522393281 0.44055915781337712 0 -0.19413142888046839 0.4217351031076268 0 -0.20819164381331129 0.42412669213600601 0 -0.19413142888046839 0.4217351031076268 0 -0.20819164381331129 0.42412669213600601 0 -0.2021706660915297 0.40578572337793972 0 -0.19413142888046839 0.4217351031076268 0 -0.2021706660915297 0.40578572337793972 0 -0.18215999063752189 0.40647208697695608 0 -0.20819164381331129 0.42412669213600601 0 -0.22405449890785839 0.40643558214578251 0 -0.2021706660915297 0.40578572337793972 0 -0.20880164963731279 0.443380440886459 0 -0.19557533522393281 0.44055915781337712 0 -0.20819164381331129 0.42412669213600601 0 -0.2242493546558077 0.44235471361969553 0 -0.20880164963731279 0.443380440886459 0 -0.20819164381331129 0.42412669213600601 0 -0.2242493546558077 0.44235471361969553 0 -0.20819164381331129 0.42412669213600601 0 -0.22600929792909111 0.42518400498706249 0 -0.2242493546558077 0.44235471361969553 0 -0.22600929792909111 0.42518400498706249 0 -0.24092688658692171 0.43286849171069308 0 -0.20819164381331129 0.42412669213600601 0 -0.22600929792909111 0.42518400498706249 0 -0.22405449890785839 0.40643558214578251 0 -0.22600929792909111 0.42518400498706249 0 -0.22405449890785839 0.40643558214578251 0 -0.2382988550227183 0.41778448946306668 0 -0.2572482915111563 0.42152384209731297 0 -0.2382988550227183 0.41778448946306668 0 -0.2490618870264745 0.40647588616764979 0 -0.22405449890785839 0.40643558214578251 0 -0.2382988550227183 0.41778448946306668 0 -0.2490618870264745 0.40647588616764979 0 -0.2572482915111563 0.42152384209731297 0 -0.2382988550227183 0.41778448946306668 0 -0.24092688658692171 0.43286849171069308 0 -0.22600929792909111 0.42518400498706249 0 -0.2382988550227183 0.41778448946306668 0 -0.24092688658692171 0.43286849171069308 0 -0.24000210142933509 0.37809552861286783 0 -0.23801773827758249 0.39392053259368742 0 -0.22567210936962789 0.38582584627882549 0 -0.25152819264859128 0.38883491631829081 0 -0.24000210142933509 0.37809552861286783 0 -0.23801773827758249 0.39392053259368742 0 -0.25213085833087667 0.37355178257669552 0 -0.25152819264859128 0.38883491631829081 0 -0.24000210142933509 0.37809552861286783 0 -0.25152819264859128 0.38883491631829081 0 -0.2490618870264745 0.40647588616764979 0 -0.23801773827758249 0.39392053259368742 0 -0.22405449890785839 0.40643558214578251 0 -0.2490618870264745 0.40647588616764979 0 -0.23801773827758249 0.39392053259368742 0 -0.22405449890785839 0.40643558214578251 0 -0.22567210936962789 0.38582584627882549 0 -0.2099895612515065 0.38861519238670661 0 -0.22405449890785839 0.40643558214578251 0 -0.23801773827758249 0.39392053259368742 0 -0.22567210936962789 0.38582584627882549 0 -0.22567210936962789 0.38582584627882549 0 -0.21752164111765379 0.37637519474985792 0 -0.23054114355980421 0.3681661286558337 0 -0.24000210142933509 0.37809552861286783 0 -0.22567210936962789 0.38582584627882549 0 -0.23054114355980421 0.3681661286558337 0 -0.22567210936962789 0.38582584627882549 0 -0.21752164111765379 0.37637519474985792 0 -0.2099895612515065 0.38861519238670661 0 -0.21752164111765379 0.37637519474985792 0 -0.2099895612515065 0.38861519238670661 0 -0.20825127389149589 0.37038948781896619 0 -0.2099895612515065 0.38861519238670661 0 -0.1956253707180633 0.37355818799515828 0 -0.20825127389149589 0.37038948781896619 0 -0.22405449890785839 0.40643558214578251 0 -0.2099895612515065 0.38861519238670661 0 -0.2021706660915297 0.40578572337793972 0 -0.2021706660915297 0.40578572337793972 0 -0.19434121226752371 0.39112870189136351 0 -0.18215999063752189 0.40647208697695608 0 -0.2099895612515065 0.38861519238670661 0 -0.2021706660915297 0.40578572337793972 0 -0.19434121226752371 0.39112870189136351 0 -0.2099895612515065 0.38861519238670661 0 -0.19434121226752371 0.39112870189136351 0 -0.1956253707180633 0.37355818799515828 0 -0.19434121226752371 0.39112870189136351 0 -0.18176047263899719 0.38121231872005679 0 -0.1956253707180633 0.37355818799515828 0 -0.18176047263899719 0.38121231872005679 0 -0.16585623702428451 0.39107516703040651 0 -0.16689278400863089 0.37048631692620287 0 -0.16585623702428451 0.39107516703040651 0 -0.1532541744773912 0.375434017343177 0 -0.15169756500005979 0.38990146883471011 0 -0.16585623702428451 0.39107516703040651 0 -0.1532541744773912 0.375434017343177 0 -0.16689278400863089 0.37048631692620287 0 -0.16585623702428451 0.39107516703040651 0 -0.1665369108918931 0.40914444316194981 0 -0.1556916669008335 0.40278409093046019 0 -0.16585623702428451 0.39107516703040651 0 -0.18215999063752189 0.40647208697695608 0 -0.1665369108918931 0.40914444316194981 0 -0.16585623702428451 0.39107516703040651 0 -0.15169756500005979 0.38990146883471011 0 -0.1556916669008335 0.40278409093046019 0 -0.18176047263899719 0.38121231872005679 0 -0.16585623702428451 0.39107516703040651 0 -0.18215999063752189 0.40647208697695608 0 -0.18176047263899719 0.38121231872005679 0 -0.18215999063752189 0.40647208697695608 0 -0.19434121226752371 0.39112870189136351 0 -0.18176047263899719 0.38121231872005679 0 -0.18215999063752189 0.40647208697695608 0 -0.18215999063752189 0.40647208697695608 0 -0.18255950863604661 0.43173185523385532 0 -0.18215999063752189 0.40647208697695608 0 -0.16958367679162159 0.42493542776846188 0 -0.1665369108918931 0.40914444316194981 0 -0.19413142888046839 0.4217351031076268 0 -0.18215999063752189 0.40647208697695608 0 -0.18255950863604661 0.43173185523385532 0 -0.18215999063752189 0.40647208697695608 0 -0.18255950863604661 0.43173185523385532 0 -0.16958367679162159 0.42493542776846188 0 -0.16940388650370539 0.44815354093755089 0 -0.18255950863604661 0.43173185523385532 0 -0.16958367679162159 0.42493542776846188 0 -0.16940388650370539 0.44815354093755089 0 -0.16958367679162159 0.42493542776846188 0 -0.15912083936695831 0.4347249498771325 0 -0.16958367679162159 0.42493542776846188 0 -0.15912083936695831 0.4347249498771325 0 -0.15604886632200479 0.41831593774319042 0 -0.16958367679162159 0.42493542776846188 0 -0.1665369108918931 0.40914444316194981 0 -0.15604886632200479 0.41831593774319042 0 -0.1665369108918931 0.40914444316194981 0 -0.15604886632200479 0.41831593774319042 0 -0.1556916669008335 0.40278409093046019 0 -0.15604886632200479 0.41831593774319042 0 -0.14768726638806501 0.40958107086639878 0 -0.1556916669008335 0.40278409093046019 0 -0.15604886632200479 0.41831593774319042 0 -0.1455440964649429 0.41771164433310332 0 -0.14575226394851429 0.42876386523653243 0 -0.15604886632200479 0.41831593774319042 0 -0.1455440964649429 0.41771164433310332 0 -0.14768726638806501 0.40958107086639878 0 -0.1455440964649429 0.41771164433310332 0 -0.14768726638806501 0.40958107086639878 0 -0.13820848934052041 0.41088683445876423 0 -0.15912083936695831 0.4347249498771325 0 -0.15604886632200479 0.41831593774319042 0 -0.14575226394851429 0.42876386523653243 0 -0.14949031039727409 0.43903968606904947 0 -0.15912083936695831 0.4347249498771325 0 -0.14575226394851429 0.42876386523653243 0 -0.1455440964649429 0.41771164433310332 0 -0.14575226394851429 0.42876386523653243 0 -0.13557398954387551 0.42076075412316039 0 -0.13973201497409549 0.44099892737807922 0 -0.14949031039727409 0.43903968606904947 0 -0.14575226394851429 0.42876386523653243 0 -0.13491063247587859 0.43073185275000708 0 -0.1242188050129694 0.42501783294758849 0 -0.1248743097581413 0.44162978393037222 0 -0.13973201497409549 0.44099892737807922 0 -0.14575226394851429 0.42876386523653243 0 -0.13491063247587859 0.43073185275000708 0 -0.14575226394851429 0.42876386523653243 0 -0.13491063247587859 0.43073185275000708 0 -0.13557398954387551 0.42076075412316039 0 -0.13491063247587859 0.43073185275000708 0 -0.13557398954387551 0.42076075412316039 0 -0.1242188050129694 0.42501783294758849 0 -0.13820848934052041 0.41088683445876423 0 -0.13557398954387551 0.42076075412316039 0 -0.12623023605756489 0.41143854881348008 0 -0.1455440964649429 0.41771164433310332 0 -0.13820848934052041 0.41088683445876423 0 -0.13557398954387551 0.42076075412316039 0 -0.13557398954387551 0.42076075412316039 0 -0.12623023605756489 0.41143854881348008 0 -0.1242188050129694 0.42501783294758849 0 -0.13820848934052041 0.41088683445876423 0 -0.12623023605756489 0.41143854881348008 0 -0.13398515235888339 0.40371564514020769 0 -0.12997925716256209 0.39431640422262348 0 -0.14074253368576661 0.38200722200303072 0 -0.1429432129120235 0.39820684686647628 0 -0.12623023605756489 0.41143854881348008 0 -0.13398515235888339 0.40371564514020769 0 -0.12997925716256209 0.39431640422262348 0 -0.13398515235888339 0.40371564514020769 0 -0.12997925716256209 0.39431640422262348 0 -0.1429432129120235 0.39820684686647628 0 -0.13820848934052041 0.41088683445876423 0 -0.13398515235888339 0.40371564514020769 0 -0.1429432129120235 0.39820684686647628 0 -0.12997925716256209 0.39431640422262348 0 -0.14074253368576661 0.38200722200303072 0 -0.12523428666698541 0.37069662222368049 0 -0.12997925716256209 0.39431640422262348 0 -0.12523428666698541 0.37069662222368049 0 -0.12103247972044499 0.39311621374447298 0 -0.14074253368576661 0.38200722200303072 0 -0.15169756500005979 0.38990146883471011 0 -0.1429432129120235 0.39820684686647628 0 -0.14074253368576661 0.38200722200303072 0 -0.1532541744773912 0.375434017343177 0 -0.15169756500005979 0.38990146883471011 0 -0.15169756500005979 0.38990146883471011 0 -0.1556916669008335 0.40278409093046019 0 -0.1429432129120235 0.39820684686647628 0 -0.14768726638806501 0.40958107086639878 0 -0.1556916669008335 0.40278409093046019 0 -0.1429432129120235 0.39820684686647628 0 -0.14768726638806501 0.40958107086639878 0 -0.13820848934052041 0.41088683445876423 0 -0.1429432129120235 0.39820684686647628 0 -0.14407255521749979 0.34403263722221961 0 -0.15504053286571459 0.3545366000593369 0 -0.14129669608781389 0.36249735492572199 0 -0.14407255521749979 0.34403263722221961 0 -0.15504053286571459 0.3545366000593369 0 -0.1549481930100888 0.34056708499864929 0 -0.14074253368576661 0.38200722200303072 0 -0.1532541744773912 0.375434017343177 0 -0.14129669608781389 0.36249735492572199 0 -0.1532541744773912 0.375434017343177 0 -0.15504053286571459 0.3545366000593369 0 -0.14129669608781389 0.36249735492572199 0 -0.14129669608781389 0.36249735492572199 0 -0.12523428666698541 0.37069662222368049 0 -0.1294360936135257 0.3482770307028879 0 -0.12523428666698541 0.37069662222368049 0 -0.1294360936135257 0.3482770307028879 0 -0.14074253368576661 0.38200722200303072 0 -0.14129669608781389 0.36249735492572199 0 -0.12523428666698541 0.37069662222368049 0 -0.14407255521749979 0.34403263722221961 0 -0.14129669608781389 0.36249735492572199 0 -0.1294360936135257 0.3482770307028879 0 -0.1294360936135257 0.3482770307028879 0 -0.13363790056006589 0.32585743918209531 0 -0.14407255521749979 0.34403263722221961 0 -0.1294360936135257 0.3482770307028879 0 -0.13363790056006589 0.32585743918209531 0 -0.1294360936135257 0.3482770307028879 0 -0.13363790056006589 0.32585743918209531 0 -0.1154499742120704 0.34086754873962172 0 -0.12722248981549561 0.3181430308760943 0 -0.13363790056006589 0.32585743918209531 0 -0.1360408951285694 0.3130357752318072 0 -0.12722248981549561 0.3181430308760943 0 -0.1360408951285694 0.3130357752318072 0 -0.12136448477009221 0.30951812845445109 0 -0.12722248981549561 0.3181430308760943 0 -0.13363790056006589 0.32585743918209531 0 -0.12142985306419619 0.32461006626398298 0 -0.13363790056006589 0.32585743918209531 0 -0.12142985306419619 0.32461006626398298 0 -0.13363790056006589 0.32585743918209531 0 -0.1360408951285694 0.3130357752318072 0 -0.14290423209994971 0.32095809222069871 0 -0.13363790056006589 0.32585743918209531 0 -0.1360408951285694 0.3130357752318072 0 -0.14290423209994971 0.32095809222069871 0 -0.1532404752523272 0.32269894785805692 0 -0.1464174014568787 0.29836992735667278 0 -0.13363790056006589 0.32585743918209531 0 -0.14290423209994971 0.32095809222069871 0 -0.15729966860100811 0.32827511069417059 0 -0.13363790056006589 0.32585743918209531 0 -0.15729966860100811 0.32827511069417059 0 -0.14290423209994971 0.32095809222069871 0 -0.1532404752523272 0.32269894785805692 0 -0.15729966860100811 0.32827511069417059 0 -0.1532404752523272 0.32269894785805692 0 -0.15943794807189979 0.31595908059817063 0 -0.1547819877644892 0.3091453549012102 0 -0.14407255521749979 0.34403263722221961 0 -0.13363790056006589 0.32585743918209531 0 -0.14748957934716561 0.33468306802428371 0 -0.13363790056006589 0.32585743918209531 0 -0.14748957934716561 0.33468306802428371 0 -0.15729966860100811 0.32827511069417059 0 -0.14748957934716561 0.33468306802428371 0 -0.1549481930100888 0.34056708499864929 0 -0.15729966860100811 0.32827511069417059 0 -0.14407255521749979 0.34403263722221961 0 -0.14748957934716561 0.33468306802428371 0 -0.1549481930100888 0.34056708499864929 0 -0.15729966860100811 0.32827511069417059 0 -0.18096143664194889 0.33069278220625808 0 -0.1549481930100888 0.34056708499864929 0 -0.15729966860100811 0.32827511069417059 0 -0.16781010436956259 0.34240718275037813 0 -0.15729966860100811 0.32827511069417059 0 -0.16781010436956259 0.34240718275037813 0 -0.18096143664194889 0.33069278220625808 0 -0.15729966860100811 0.32827511069417059 0 -0.17028988351433311 0.32233995817617028 0 -0.18096143664194889 0.33069278220625808 0 -0.15943794807189979 0.31595908059817063 0 -0.16495134068588049 0.31685297469802859 0 -0.1638395481514221 0.30983277085387728 0 -0.1532404752523272 0.32269894785805692 0 -0.15943794807189979 0.31595908059817063 0 -0.16037638850537991 0.32126535467967993 0 -0.15943794807189979 0.31595908059817063 0 -0.16037638850537991 0.32126535467967993 0 -0.16495134068588049 0.31685297469802859 0 -0.15729966860100811 0.32827511069417059 0 -0.16037638850537991 0.32126535467967993 0 -0.17028988351433311 0.32233995817617028 0 -0.1532404752523272 0.32269894785805692 0 -0.15729966860100811 0.32827511069417059 0 -0.16037638850537991 0.32126535467967993 0 -0.16495134068588049 0.31685297469802859 0 -0.17285953122972289 0.31090601179704258 0 -0.1638395481514221 0.30983277085387728 0 -0.17028988351433311 0.32233995817617028 0 -0.16495134068588049 0.31685297469802859 0 -0.17285953122972289 0.31090601179704258 0 -0.16037638850537991 0.32126535467967993 0 -0.17028988351433311 0.32233995817617028 0 -0.16495134068588049 0.31685297469802859 0 -0.18077272512400111 0.31876138179813301 0 -0.17285953122972289 0.31090601179704258 0 -0.17028988351433311 0.32233995817617028 0 -0.18077272512400111 0.31876138179813301 0 -0.17285953122972289 0.31090601179704258 0 -0.17028988351433311 0.32233995817617028 0 -0.18077272512400111 0.31876138179813301 0 -0.18096143664194889 0.33069278220625808 0 -0.18077272512400111 0.31876138179813301 0 -0.19386790912735871 0.33176087567547108 0 -0.18077272512400111 0.31876138179813301 0 -0.18096143664194889 0.33069278220625808 0 -0.18077272512400111 0.31876138179813301 0 -0.18096143664194889 0.33069278220625808 0 -0.19386790912735871 0.33176087567547108 0 -0.18096143664194889 0.33069278220625808 0 -0.1813609546404725 0.35595255046315749 0 -0.18096143664194889 0.33069278220625808 0 -0.1813609546404725 0.35595255046315749 0 -0.19258948339875709 0.33633707034479371 0 -0.16781010436956259 0.34240718275037813 0 -0.18096143664194889 0.33069278220625808 0 -0.1813609546404725 0.35595255046315749 0 -0.18096143664194889 0.33069278220625808 0 -0.19386790912735871 0.33176087567547108 0 -0.15504053286571459 0.3545366000593369 0 -0.16781010436956259 0.34240718275037813 0 -0.1813609546404725 0.35595255046315749 0 -0.15504053286571459 0.3545366000593369 0 -0.1549481930100888 0.34056708499864929 0 -0.16781010436956259 0.34240718275037813 0 -0.1532541744773912 0.375434017343177 0 -0.15504053286571459 0.3545366000593369 0 -0.16689278400863089 0.37048631692620287 0 -0.15504053286571459 0.3545366000593369 0 -0.1813609546404725 0.35595255046315749 0 -0.16689278400863089 0.37048631692620287 0 -0.18176047263899719 0.38121231872005679 0 -0.1813609546404725 0.35595255046315749 0 -0.18176047263899719 0.38121231872005679 0 -0.1813609546404725 0.35595255046315749 0 -0.1956253707180633 0.37355818799515828 0 -0.18176047263899719 0.38121231872005679 0 -0.1813609546404725 0.35595255046315749 0 -0.16689278400863089 0.37048631692620287 0 -0.1813609546404725 0.35595255046315749 0 -0.1956253707180633 0.37355818799515828 0 -0.2000380028121157 0.35856944723279938 0 -0.1956253707180633 0.37355818799515828 0 -0.2000380028121157 0.35856944723279938 0 -0.20825127389149589 0.37038948781896619 0 -0.1813609546404725 0.35595255046315749 0 -0.1951678646333711 0.34883535218340811 0 -0.19258948339875709 0.33633707034479371 0 -0.1813609546404725 0.35595255046315749 0 -0.1951678646333711 0.34883535218340811 0 -0.2000380028121157 0.35856944723279938 0 -0.1951678646333711 0.34883535218340811 0 -0.2000380028121157 0.35856944723279938 0 -0.20668301768213909 0.34448234069288158 0 -0.20668301768213909 0.34448234069288158 0 -0.2120127789660084 0.36084248239747968 0 -0.21921666942493959 0.3569244055809645 0 -0.2000380028121157 0.35856944723279938 0 -0.20668301768213909 0.34448234069288158 0 -0.2120127789660084 0.36084248239747968 0 -0.2120127789660084 0.36084248239747968 0 -0.21921666942493959 0.3569244055809645 0 -0.20668301768213909 0.34448234069288158 0 -0.21921666942493959 0.3569244055809645 0 -0.22158808080033929 0.34557455345049992 0 -0.20668301768213909 0.34448234069288158 0 -0.21921666942493959 0.3569244055809645 0 -0.2000380028121157 0.35856944723279938 0 -0.20825127389149589 0.37038948781896619 0 -0.2120127789660084 0.36084248239747968 0 -0.2120127789660084 0.36084248239747968 0 -0.2199937556016836 0.36693485901855288 0 -0.21921666942493959 0.3569244055809645 0 -0.20825127389149589 0.37038948781896619 0 -0.2120127789660084 0.36084248239747968 0 -0.2199937556016836 0.36693485901855288 0 -0.21752164111765379 0.37637519474985792 0 -0.20825127389149589 0.37038948781896619 0 -0.2199937556016836 0.36693485901855288 0 -0.21752164111765379 0.37637519474985792 0 -0.23054114355980421 0.3681661286558337 0 -0.2199937556016836 0.36693485901855288 0 -0.23054114355980421 0.3681661286558337 0 -0.21921666942493959 0.3569244055809645 0 -0.23305195790672301 0.35812934693154008 0 -0.23054114355980421 0.3681661286558337 0 -0.2199937556016836 0.36693485901855288 0 -0.21921666942493959 0.3569244055809645 0 -0.23054114355980421 0.3681661286558337 0 -0.21921666942493959 0.3569244055809645 0 -0.21921666942493959 0.3569244055809645 0 -0.22158808080033929 0.34557455345049992 0 -0.23915963598069589 0.34607775607121571 0 -0.21921666942493959 0.3569244055809645 0 -0.23915963598069589 0.34607775607121571 0 -0.21921666942493959 0.3569244055809645 0 -0.23305195790672301 0.35812934693154008 0 -0.23915963598069589 0.34607775607121571 0 -0.23305195790672301 0.35812934693154008 0 -0.23915963598069589 0.34607775607121571 0 -0.24329038266145239 0.36134909741814653 0 -0.25407523553642281 0.3497448278934856 0 -0.23915963598069589 0.34607775607121571 0 -0.24329038266145239 0.36134909741814653 0 -0.25213085833087667 0.37355178257669552 0 -0.24000210142933509 0.37809552861286783 0 -0.24329038266145239 0.36134909741814653 0 -0.24000210142933509 0.37809552861286783 0 -0.23054114355980421 0.3681661286558337 0 -0.24329038266145239 0.36134909741814653 0 -0.23054114355980421 0.3681661286558337 0 -0.23305195790672301 0.35812934693154008 0 -0.24329038266145239 0.36134909741814653 0 -0.23582541811145999 0.32679902143390172 0 -0.24885494741763489 0.31718848033418301 0 -0.23189508169276829 0.30076725351495531 0 -0.23582541811145999 0.32679902143390172 0 -0.24885494741763489 0.31718848033418301 0 -0.24633099797708269 0.32737693631841108 0 -0.25451497659773847 0.32559442806853028 0 -0.24885494741763489 0.31718848033418301 0 -0.24633099797708269 0.32737693631841108 0 -0.24843663428782739 0.33758714710907461 0 -0.22129300011358269 0.33481371145693772 0 -0.25451497659773847 0.32559442806853028 0 -0.24633099797708269 0.32737693631841108 0 -0.24843663428782739 0.33758714710907461 0 -0.25910260253645218 0.33523110656146687 0 -0.23915963598069589 0.34607775607121571 0 -0.23582541811145999 0.32679902143390172 0 -0.24633099797708269 0.32737693631841108 0 -0.24843663428782739 0.33758714710907461 0 -0.25910260253645218 0.33523110656146687 0 -0.23915963598069589 0.34607775607121571 0 -0.24843663428782739 0.33758714710907461 0 -0.23582541811145999 0.32679902143390172 0 -0.24843663428782739 0.33758714710907461 0 -0.22129300011358269 0.33481371145693772 0 -0.23915963598069589 0.34607775607121571 0 -0.24843663428782739 0.33758714710907461 0 -0.22129300011358269 0.33481371145693772 0 -0.22158808080033929 0.34557455345049992 0 -0.23915963598069589 0.34607775607121571 0 -0.22129300011358269 0.33481371145693772 0 -0.23582541811145999 0.32679902143390172 0 -0.21954464392232159 0.31820766509236142 0 -0.23189508169276829 0.30076725351495531 0 -0.23582541811145999 0.32679902143390172 0 -0.22129300011358269 0.33481371145693772 0 -0.21954464392232159 0.31820766509236142 0 -0.21954464392232159 0.31820766509236142 0 -0.20492818889453221 0.32276220977772679 0 -0.20060783596013981 0.3076349397264902 0 -0.22129300011358269 0.33481371145693772 0 -0.21954464392232159 0.31820766509236142 0 -0.20492818889453221 0.32276220977772679 0 -0.22129300011358269 0.33481371145693772 0 -0.20492818889453221 0.32276220977772679 0 -0.19386790912735871 0.33176087567547108 0 -0.22129300011358269 0.33481371145693772 0 -0.19386790912735871 0.33176087567547108 0 -0.20668301768213909 0.34448234069288158 0 -0.22129300011358269 0.33481371145693772 0 -0.19386790912735871 0.33176087567547108 0 -0.20668301768213909 0.34448234069288158 0 -0.22158808080033929 0.34557455345049992 0 -0.22129300011358269 0.33481371145693772 0 -0.20668301768213909 0.34448234069288158 0 -0.19386790912735871 0.33176087567547108 0 -0.19258948339875709 0.33633707034479371 0 -0.20668301768213909 0.34448234069288158 0 -0.19386790912735871 0.33176087567547108 0 -0.1951678646333711 0.34883535218340811 0 -0.20668301768213909 0.34448234069288158 0 -0.19258948339875709 0.33633707034479371 0 -0.18096143664194889 0.33069278220625808 0 -0.19386790912735871 0.33176087567547108 0 -0.19258948339875709 0.33633707034479371 0 -0.19386790912735871 0.33176087567547108 0 -0.19258948339875709 0.33633707034479371 0 -0.18077272512400111 0.31876138179813301 0 -0.19386790912735871 0.33176087567547108 0 -0.20060783596013981 0.3076349397264902 0 -0.20492818889453221 0.32276220977772679 0 -0.19386790912735871 0.33176087567547108 0 -0.20060783596013981 0.3076349397264902 0 -0.19386790912735871 0.33176087567547108 0 -0.20060783596013981 0.3076349397264902 0 -0.20060783596013981 0.3076349397264902 0 -0.20734776279292019 0.28350900377750898 0 -0.23189508169276829 0.30076725351495531 0 -0.21954464392232159 0.31820766509236142 0 -0.20060783596013981 0.3076349397264902 0 -0.23189508169276829 0.30076725351495531 0 -0.20060783596013981 0.3076349397264902 0 -0.20734776279292019 0.28350900377750898 0 -0.18034630435624241 0.29180066960649809 0 -0.20734776279292019 0.28350900377750898 0 -0.19375927737912041 0.2730469699042487 0 -0.18034630435624241 0.29180066960649809 0 -0.20060783596013981 0.3076349397264902 0 -0.20734776279292019 0.28350900377750898 0 -0.20734776279292019 0.28350900377750898 0 -0.23189508169276829 0.30076725351495531 0 -0.22396762922540969 0.27514125130055722 0 -0.23189508169276829 0.30076725351495531 0 -0.2378434694439332 0.28391349183279069 0 -0.22396762922540969 0.27514125130055722 0 -0.25673188405007052 0.28646841290673969 0 -0.23189508169276829 0.30076725351495531 0 -0.2378434694439332 0.28391349183279069 0 -0.25673188405007052 0.28646841290673969 0 -0.23189508169276829 0.30076725351495531 0 -0.25505401324638421 0.30366623925853881 0 -0.25673188405007052 0.28646841290673969 0 -0.23189508169276829 0.30076725351495531 0 -0.25505401324638421 0.30366623925853881 0 -0.24885494741763489 0.31718848033418301 0 -0.23189508169276829 0.30076725351495531 0 -0.25265925142613249 0.26128234508680298 0 -0.23885305679183191 0.2684477152547543 0 -0.23951274761537589 0.2474853768326048 0 -0.23885305679183191 0.2684477152547543 0 -0.22811192938500721 0.25829645972706228 0 -0.23951274761537589 0.2474853768326048 0 -0.25621817608628389 0.2460965770837312 0 -0.25265925142613249 0.26128234508680298 0 -0.23951274761537589 0.2474853768326048 0 -0.25673188405007052 0.28646841290673969 0 -0.2378434694439332 0.28391349183279069 0 -0.23885305679183191 0.2684477152547543 0 -0.25265925142613249 0.26128234508680298 0 -0.25673188405007052 0.28646841290673969 0 -0.23885305679183191 0.2684477152547543 0 -0.23885305679183191 0.2684477152547543 0 -0.22396762922540969 0.27514125130055722 0 -0.22811192938500721 0.25829645972706228 0 -0.2378434694439332 0.28391349183279069 0 -0.23885305679183191 0.2684477152547543 0 -0.22396762922540969 0.27514125130055722 0 -0.22811192938500721 0.25829645972706228 0 -0.22371849106378741 0.2462845034026982 0 -0.23951274761537589 0.2474853768326048 0 -0.22396762922540969 0.27514125130055722 0 -0.22811192938500721 0.25829645972706228 0 -0.21408768962570049 0.25938306782852782 0 -0.22811192938500721 0.25829645972706228 0 -0.21408768962570049 0.25938306782852782 0 -0.22371849106378741 0.2462845034026982 0 -0.21408768962570049 0.25938306782852782 0 -0.19928355658839081 0.25766712263582692 0 -0.2066863838603582 0.24242880758937649 0 -0.21408768962570049 0.25938306782852782 0 -0.20163280817849061 0.26608937016207479 0 -0.19928355658839081 0.25766712263582692 0 -0.20734776279292019 0.28350900377750898 0 -0.21408768962570049 0.25938306782852782 0 -0.20734776279292019 0.28350900377750898 0 -0.22396762922540969 0.27514125130055722 0 -0.21408768962570049 0.25938306782852782 0 -0.20734776279292019 0.28350900377750898 0 -0.21408768962570049 0.25938306782852782 0 -0.20163280817849061 0.26608937016207479 0 -0.20734776279292019 0.28350900377750898 0 -0.20163280817849061 0.26608937016207479 0 -0.19375927737912041 0.2730469699042487 0 -0.20163280817849061 0.26608937016207479 0 -0.19375927737912041 0.2730469699042487 0 -0.19160269433399771 0.26436194023610149 0 -0.19375927737912041 0.2730469699042487 0 -0.19160269433399771 0.26436194023610149 0 -0.17991988358848049 0.26483995741486333 0 -0.19928355658839081 0.25766712263582692 0 -0.18259587964237009 0.2606558300825601 0 -0.2066863838603582 0.24242880758937649 0 -0.18259587964237009 0.2606558300825601 0 -0.19333963139412971 0.24385714112684301 0 -0.19928355658839081 0.25766712263582692 0 -0.19160269433399771 0.26436194023610149 0 -0.18259587964237009 0.2606558300825601 0 -0.18259587964237009 0.2606558300825601 0 -0.2066863838603582 0.24242880758937649 0 -0.20163280817849061 0.26608937016207479 0 -0.19928355658839081 0.25766712263582692 0 -0.19160269433399771 0.26436194023610149 0 -0.17991988358848049 0.26483995741486333 0 -0.17951502337729761 0.2392424245160312 0 -0.17991988358848049 0.26483995741486333 0 -0.17042143569771079 0.26099360542817968 0 -0.17951502337729761 0.2392424245160312 0 -0.18259587964237009 0.2606558300825601 0 -0.17991988358848049 0.26483995741486333 0 -0.17951502337729761 0.2392424245160312 0 -0.19160269433399771 0.26436194023610149 0 -0.18259587964237009 0.2606558300825601 0 -0.17991988358848049 0.26483995741486333 0 -0.18259587964237009 0.2606558300825601 0 -0.17991988358848049 0.26483995741486333 0 -0.17991988358848049 0.26483995741486333 0 -0.17042143569771079 0.26099360542817968 0 -0.17716480609589361 0.26914773470870201 0 -0.17042143569771079 0.26099360542817968 0 -0.1627301728603629 0.26968240911070368 0 -0.1532221513837192 0.25419418888983192 0 -0.17042143569771079 0.26099360542817968 0 -0.1532221513837192 0.25419418888983192 0 -0.17951502337729761 0.2392424245160312 0 -0.1627301728603629 0.26968240911070368 0 -0.1620479085915319 0.28265904931380531 0 -0.15271877240598841 0.27446820953958367 0 -0.17042143569771079 0.26099360542817968 0 -0.1627301728603629 0.26968240911070368 0 -0.1699765768805111 0.26885491792894611 0 -0.1627301728603629 0.26968240911070368 0 -0.1699765768805111 0.26885491792894611 0 -0.16860704672851359 0.27535934789532951 0 -0.1627301728603629 0.26968240911070368 0 -0.16860704672851359 0.27535934789532951 0 -0.1620479085915319 0.28265904931380531 0 -0.16860704672851359 0.27535934789532951 0 -0.17077339862397739 0.28423195702734899 0 -0.1620479085915319 0.28265904931380531 0 -0.17991988358848049 0.26483995741486333 0 -0.18034630435624241 0.29180066960649809 0 -0.17991988358848049 0.26483995741486333 0 -0.17716480609589361 0.26914773470870201 0 -0.18034630435624241 0.29180066960649809 0 -0.16860704672851359 0.27535934789532951 0 -0.17716480609589361 0.26914773470870201 0 -0.17077339862397739 0.28423195702734899 0 -0.19375927737912041 0.2730469699042487 0 -0.17991988358848049 0.26483995741486333 0 -0.18034630435624241 0.29180066960649809 0 -0.17042143569771079 0.26099360542817968 0 -0.1699765768805111 0.26885491792894611 0 -0.17716480609589361 0.26914773470870201 0 -0.1699765768805111 0.26885491792894611 0 -0.16860704672851359 0.27535934789532951 0 -0.17716480609589361 0.26914773470870201 0 -0.17991988358848049 0.26483995741486333 0 -0.17716480609589361 0.26914773470870201 0 -0.17716480609589361 0.26914773470870201 0 -0.18034630435624241 0.29180066960649809 0 -0.17077339862397739 0.28423195702734899 0 -0.18034630435624241 0.29180066960649809 0 -0.16501618616712291 0.29775164083812761 0 -0.17077339862397739 0.28423195702734899 0 -0.18077272512400111 0.31876138179813301 0 -0.18034630435624241 0.29180066960649809 0 -0.18077272512400111 0.31876138179813301 0 -0.18034630435624241 0.29180066960649809 0 -0.17285953122972289 0.31090601179704258 0 -0.18034630435624241 0.29180066960649809 0 -0.17285953122972289 0.31090601179704258 0 -0.16501618616712291 0.29775164083812761 0 -0.18077272512400111 0.31876138179813301 0 -0.20060783596013981 0.3076349397264902 0 -0.18034630435624241 0.29180066960649809 0 -0.16501618616712291 0.29775164083812761 0 -0.15329008091572741 0.28945008379417048 0 -0.1547819877644892 0.3091453549012102 0 -0.17285953122972289 0.31090601179704258 0 -0.16501618616712291 0.29775164083812761 0 -0.1638395481514221 0.30983277085387728 0 -0.16501618616712291 0.29775164083812761 0 -0.1638395481514221 0.30983277085387728 0 -0.1547819877644892 0.3091453549012102 0 -0.15943794807189979 0.31595908059817063 0 -0.1638395481514221 0.30983277085387728 0 -0.1547819877644892 0.3091453549012102 0 -0.16501618616712291 0.29775164083812761 0 -0.17077339862397739 0.28423195702734899 0 -0.1620479085915319 0.28265904931380531 0 -0.16501618616712291 0.29775164083812761 0 -0.1620479085915319 0.28265904931380531 0 -0.15329008091572741 0.28945008379417048 0 -0.1464174014568787 0.29836992735667278 0 -0.13959432766143021 0.2740409068552887 0 -0.1620479085915319 0.28265904931380531 0 -0.15329008091572741 0.28945008379417048 0 -0.15271877240598841 0.27446820953958367 0 -0.15329008091572741 0.28945008379417048 0 -0.1464174014568787 0.29836992735667278 0 -0.13959432766143021 0.2740409068552887 0 -0.15329008091572741 0.28945008379417048 0 -0.1464174014568787 0.29836992735667278 0 -0.1547819877644892 0.3091453549012102 0 -0.1532404752523272 0.32269894785805692 0 -0.1464174014568787 0.29836992735667278 0 -0.1360408951285694 0.3130357752318072 0 -0.14290423209994971 0.32095809222069871 0 -0.1464174014568787 0.29836992735667278 0 -0.1532404752523272 0.32269894785805692 0 -0.1464174014568787 0.29836992735667278 0 -0.1547819877644892 0.3091453549012102 0 -0.1360408951285694 0.3130357752318072 0 -0.1264253840414637 0.29528772621663357 0 -0.12136448477009221 0.30951812845445109 0 -0.1360408951285694 0.3130357752318072 0 -0.1464174014568787 0.29836992735667278 0 -0.1264253840414637 0.29528772621663357 0 -0.1464174014568787 0.29836992735667278 0 -0.1264253840414637 0.29528772621663357 0 -0.13959432766143021 0.2740409068552887 0 -0.1264253840414637 0.29528772621663357 0 -0.13959432766143021 0.2740409068552887 0 -0.1185373796182298 0.27837978510360878 0 -0.13959432766143021 0.2740409068552887 0 -0.1327712538659816 0.24971188635390451 0 -0.13959432766143021 0.2740409068552887 0 -0.116744543106582 0.25728181003509248 0 -0.1327712538659816 0.24971188635390451 0 -0.13959432766143021 0.2740409068552887 0 -0.1532221513837192 0.25419418888983192 0 -0.1327712538659816 0.24971188635390451 0 -0.1627301728603629 0.26968240911070368 0 -0.1532221513837192 0.25419418888983192 0 -0.15271877240598841 0.27446820953958367 0 -0.13959432766143021 0.2740409068552887 0 -0.1532221513837192 0.25419418888983192 0 -0.15271877240598841 0.27446820953958367 0 -0.15329008091572741 0.28945008379417048 0 -0.13959432766143021 0.2740409068552887 0 -0.15271877240598841 0.27446820953958367 0 -0.1061606963602142 0.26761343855331338 0 -0.1001789302111205 0.27974269320078388 0 -0.1185373796182298 0.27837978510360878 0 -0.1061606963602142 0.26761343855331338 0 -0.1001789302111205 0.27974269320078388 0 -0.092613028744971265 0.26767711662392979 0 -0.1061606963602142 0.26761343855331338 0 -0.10005120432924321 0.25626016583208688 0 -0.116744543106582 0.25728181003509248 0 -0.1061606963602142 0.26761343855331338 0 -0.10005120432924321 0.25626016583208688 0 -0.092613028744971265 0.26767711662392979 0 -0.10005120432924321 0.25626016583208688 0 -0.116744543106582 0.25728181003509248 0 -0.1045487088169635 0.24438495162540061 0 -0.13959432766143021 0.2740409068552887 0 -0.116744543106582 0.25728181003509248 0 -0.1185373796182298 0.27837978510360878 0 -0.1061606963602142 0.26761343855331338 0 -0.116744543106582 0.25728181003509248 0 -0.1185373796182298 0.27837978510360878 0 -0.1264253840414637 0.29528772621663357 0 -0.1127724140037699 0.30190213115774378 0 -0.1091517300735869 0.29135078386346752 0 -0.1264253840414637 0.29528772621663357 0 -0.1185373796182298 0.27837978510360878 0 -0.1091517300735869 0.29135078386346752 0 -0.1264253840414637 0.29528772621663357 0 -0.12136448477009221 0.30951812845445109 0 -0.1127724140037699 0.30190213115774378 0 -0.12136448477009221 0.30951812845445109 0 -0.1127724140037699 0.30190213115774378 0 -0.1061991548417472 0.31213959050036899 0 -0.1127724140037699 0.30190213115774378 0 -0.1061991548417472 0.31213959050036899 0 -0.1005146973405663 0.30141191014932889 0 -0.1127724140037699 0.30190213115774378 0 -0.1005146973405663 0.30141191014932889 0 -0.1091517300735869 0.29135078386346752 0 -0.1005146973405663 0.30141191014932889 0 -0.094430836728355921 0.29177030977787999 0 -0.089068024122243669 0.30112896568664949 0 -0.1061991548417472 0.31213959050036899 0 -0.1005146973405663 0.30141191014932889 0 -0.090928135519314904 0.31087631578889069 0 -0.1001789302111205 0.27974269320078388 0 -0.1185373796182298 0.27837978510360878 0 -0.1091517300735869 0.29135078386346752 0 -0.1005146973405663 0.30141191014932889 0 -0.1091517300735869 0.29135078386346752 0 -0.094430836728355921 0.29177030977787999 0 -0.1001789302111205 0.27974269320078388 0 -0.1091517300735869 0.29135078386346752 0 -0.094430836728355921 0.29177030977787999 0 -0.1001789302111205 0.27974269320078388 0 -0.094430836728355921 0.29177030977787999 0 -0.086145563619835275 0.2816538088019015 0 -0.094430836728355921 0.29177030977787999 0 -0.086145563619835275 0.2816538088019015 0 -0.081526075002782958 0.29533369696514911 0 -0.094430836728355921 0.29177030977787999 0 -0.081526075002782958 0.29533369696514911 0 -0.089068024122243669 0.30112896568664949 0 -0.086145563619835275 0.2816538088019015 0 -0.081526075002782958 0.29533369696514911 0 -0.070830210313899522 0.29195808219782299 0 -0.090928135519314904 0.31087631578889069 0 -0.079482369404140468 0.30560554845979909 0 -0.074915307566508993 0.31649039264194578 0 -0.090928135519314904 0.31087631578889069 0 -0.089068024122243669 0.30112896568664949 0 -0.079482369404140468 0.30560554845979909 0 -0.1005146973405663 0.30141191014932889 0 -0.090928135519314904 0.31087631578889069 0 -0.089068024122243669 0.30112896568664949 0 -0.081526075002782958 0.29533369696514911 0 -0.089068024122243669 0.30112896568664949 0 -0.079482369404140468 0.30560554845979909 0 -0.054647974243728172 0.30430181459310768 0 -0.074915307566508993 0.31649039264194578 0 -0.079482369404140468 0.30560554845979909 0 -0.068661557073843291 0.3005821027458685 0 -0.074915307566508993 0.31649039264194578 0 -0.068661557073843291 0.3005821027458685 0 -0.054647974243728172 0.30430181459310768 0 -0.074915307566508993 0.31649039264194578 0 -0.081526075002782958 0.29533369696514911 0 -0.079482369404140468 0.30560554845979909 0 -0.068661557073843291 0.3005821027458685 0 -0.070830210313899522 0.29195808219782299 0 -0.067453711470644842 0.27023673344429472 0 -0.052574645638654917 0.28480468584225688 0 -0.081526075002782958 0.29533369696514911 0 -0.068661557073843291 0.3005821027458685 0 -0.070830210313899522 0.29195808219782299 0 -0.068661557073843291 0.3005821027458685 0 -0.070830210313899522 0.29195808219782299 0 -0.068661557073843291 0.3005821027458685 0 -0.070830210313899522 0.29195808219782299 0 -0.059610011597539182 0.29372125904316332 0 -0.086145563619835275 0.2816538088019015 0 -0.070830210313899522 0.29195808219782299 0 -0.077256670317037021 0.26667642926106078 0 -0.070830210313899522 0.29195808219782299 0 -0.067453711470644842 0.27023673344429472 0 -0.070830210313899522 0.29195808219782299 0 -0.077256670317037021 0.26667642926106078 0 -0.070830210313899522 0.29195808219782299 0 -0.067453711470644842 0.27023673344429472 0 -0.077256670317037021 0.26667642926106078 0 -0.086145563619835275 0.2816538088019015 0 -0.077256670317037021 0.26667642926106078 0 -0.092613028744971265 0.26767711662392979 0 -0.1001789302111205 0.27974269320078388 0 -0.086145563619835275 0.2816538088019015 0 -0.092613028744971265 0.26767711662392979 0 -0.077256670317037021 0.26667642926106078 0 -0.086302411784292182 0.25447467192259482 0 -0.083666647235009842 0.24139059785004849 0 -0.077256670317037021 0.26667642926106078 0 -0.083666647235009842 0.24139059785004849 0 -0.10005120432924321 0.25626016583208688 0 -0.086302411784292182 0.25447467192259482 0 -0.094679029848152713 0.24609146959404629 0 -0.10005120432924321 0.25626016583208688 0 -0.092613028744971265 0.26767711662392979 0 -0.086302411784292182 0.25447467192259482 0 -0.077256670317037021 0.26667642926106078 0 -0.092613028744971265 0.26767711662392979 0 -0.086302411784292182 0.25447467192259482 0 -0.077256670317037021 0.26667642926106078 0 -0.064077212627390134 0.24851538469076631 0 -0.083666647235009842 0.24139059785004849 0 -0.067453711470644842 0.27023673344429472 0 -0.077256670317037021 0.26667642926106078 0 -0.064077212627390134 0.24851538469076631 0 -0.067453711470644842 0.27023673344429472 0 -0.064077212627390134 0.24851538469076631 0 -0.067453711470644842 0.27023673344429472 0 -0.04634179854296408 0.26632715615711849 0 -0.064077212627390134 0.24851538469076631 0 -0.04634179854296408 0.26632715615711849 0 -0.064077212627390134 0.24851538469076631 0 -0.046578861792199937 0.24361118962503389 0 -0.067453711470644842 0.27023673344429472 0 -0.04634179854296408 0.26632715615711849 0 -0.052574645638654917 0.28480468584225688 0 -0.04634179854296408 0.26632715615711849 0 -0.034380640920947357 0.29211323654426968 0 -0.052574645638654917 0.28480468584225688 0 -0.04634179854296408 0.26632715615711849 0 -0.022607631921228569 0.27169805167723737 0 -0.034380640920947357 0.29211323654426968 0 -0.04634179854296408 0.26632715615711849 0 -0.03068766995985707 0.25286978792993342 0 -0.022607631921228569 0.27169805167723737 0 -0.04634179854296408 0.26632715615711849 0 -0.03068766995985707 0.25286978792993342 0 -0.046578861792199937 0.24361118962503389 0 -0.03068766995985707 0.25286978792993342 0 -0.022607631921228569 0.27169805167723737 0 -0.0098044441781452579 0.25473951632571468 0 -0.022607631921228569 0.27169805167723737 0 -0.015153941911089409 0.29208252597919021 0 3.3590645499582607e-05 0.27236849017123349 0 -0.022607631921228569 0.27169805167723737 0 -0.0098044441781452579 0.25473951632571468 0 3.3590645499582607e-05 0.27236849017123349 0 -0.0098044441781452579 0.25473951632571468 0 0.0073806355134042019 0.25529449578482938 0 3.3590645499582607e-05 0.27236849017123349 0 -0.0088759444352828343 0.31092800175718183 0 -0.015153941911089409 0.29208252597919021 0 0.0083336089875100904 0.29343585490586271 0 -0.015153941911089409 0.29208252597919021 0 0.0083336089875100904 0.29343585490586271 0 3.3590645499582607e-05 0.27236849017123349 0 -0.022607631921228569 0.27169805167723737 0 -0.015153941911089409 0.29208252597919021 0 -0.034380640920947357 0.29211323654426968 0 -0.0088759444352828343 0.31092800175718183 0 -0.015153941911089409 0.29208252597919021 0 -0.03508050583840458 0.3127012881250415 0 -0.015153941911089409 0.29208252597919021 0 -0.034380640920947357 0.29211323654426968 0 -0.03508050583840458 0.3127012881250415 0 -0.034380640920947357 0.29211323654426968 0 -0.054647974243728172 0.30430181459310768 0 -0.034380640920947357 0.29211323654426968 0 -0.054647974243728172 0.30430181459310768 0 -0.03508050583840458 0.3127012881250415 0 -0.034380640920947357 0.29211323654426968 0 -0.052574645638654917 0.28480468584225688 0 -0.054647974243728172 0.30430181459310768 0 -0.052574645638654917 0.28480468584225688 0 -0.059610011597539182 0.29372125904316332 0 -0.054647974243728172 0.30430181459310768 0 -0.070830210313899522 0.29195808219782299 0 -0.052574645638654917 0.28480468584225688 0 -0.059610011597539182 0.29372125904316332 0 -0.068661557073843291 0.3005821027458685 0 -0.059610011597539182 0.29372125904316332 0 -0.054647974243728172 0.30430181459310768 0 -0.058679851530075752 0.32054224196392622 0 -0.045885169747561752 0.33132665820789581 0 -0.073191842414501496 0.33174208285196288 0 -0.054647974243728172 0.30430181459310768 0 -0.058679851530075752 0.32054224196392622 0 -0.03508050583840458 0.3127012881250415 0 -0.045885169747561752 0.33132665820789581 0 -0.067541502003893042 0.3482616942848048 0 -0.073191842414501496 0.33174208285196288 0 -0.045885169747561752 0.33132665820789581 0 -0.073191842414501496 0.33174208285196288 0 -0.045885169747561752 0.33132665820789581 0 -0.018578497080621779 0.33091123356382868 0 -0.045885169747561752 0.33132665820789581 0 -0.03508050583840458 0.3127012881250415 0 -0.018578497080621779 0.33091123356382868 0 -0.058679851530075752 0.32054224196392622 0 -0.045885169747561752 0.33132665820789581 0 -0.03508050583840458 0.3127012881250415 0 -0.0088759444352828343 0.31092800175718183 0 -0.03508050583840458 0.3127012881250415 0 -0.018578497080621779 0.33091123356382868 0 -0.018578497080621779 0.33091123356382868 0 -0.0050552824635438226 0.34569829691311771 0 -0.02749858990914332 0.35301881799134821 0 -0.045885169747561752 0.33132665820789581 0 -0.018578497080621779 0.33091123356382868 0 -0.02749858990914332 0.35301881799134821 0 -0.018578497080621779 0.33091123356382868 0 -0.0050552824635438226 0.34569829691311771 0 0.0064742168078369342 0.3347740657525386 0 -0.018578497080621779 0.33091123356382868 0 0.0087281755863181168 0.33049580891976171 0 -0.018578497080621779 0.33091123356382868 0 0.0064742168078369342 0.3347740657525386 0 0.0087281755863181168 0.33049580891976171 0 -0.018578497080621779 0.33091123356382868 0 -0.003280447873963227 0.32161399115684158 0 0.0087281755863181168 0.33049580891976171 0 -0.0088759444352828343 0.31092800175718183 0 -0.018578497080621779 0.33091123356382868 0 -0.003280447873963227 0.32161399115684158 0 -0.0088759444352828343 0.31092800175718183 0 -0.003280447873963227 0.32161399115684158 0 0.0056044744337335906 0.31412092038659428 0 -0.0052616759920083916 0.36132776784546622 0 -0.0045342830833226501 0.3863935686212247 0 -0.0052616759920083916 0.36132776784546622 0 -0.024169526760701381 0.37267007813580277 0 -0.0045342830833226501 0.3863935686212247 0 -0.0052616759920083916 0.36132776784546622 0 -0.0045342830833226501 0.3863935686212247 0 0.0079023355216259559 0.37348921158265391 0 -0.0052616759920083916 0.36132776784546622 0 -0.0050552824635438226 0.34569829691311771 0 0.0061318462344260851 0.35417601161121459 0 -0.0052616759920083916 0.36132776784546622 0 -0.0050552824635438226 0.34569829691311771 0 -0.02749858990914332 0.35301881799134821 0 -0.02749858990914332 0.35301881799134821 0 -0.024169526760701381 0.37267007813580277 0 -0.04149310004589906 0.37124785083274592 0 -0.0052616759920083916 0.36132776784546622 0 -0.02749858990914332 0.35301881799134821 0 -0.024169526760701381 0.37267007813580277 0 -0.02749858990914332 0.35301881799134821 0 -0.04149310004589906 0.37124785083274592 0 -0.051818441616049399 0.35735321764765782 0 -0.045885169747561752 0.33132665820789581 0 -0.02749858990914332 0.35301881799134821 0 -0.051818441616049399 0.35735321764765782 0 -0.045885169747561752 0.33132665820789581 0 -0.051818441616049399 0.35735321764765782 0 -0.067541502003893042 0.3482616942848048 0 -0.04149310004589906 0.37124785083274592 0 -0.051818441616049399 0.35735321764765782 0 -0.056875823715872062 0.37631267096962301 0 -0.051818441616049399 0.35735321764765782 0 -0.069616273344600341 0.3650636543096733 0 -0.056875823715872062 0.37631267096962301 0 -0.069616273344600341 0.3650636543096733 0 -0.085055645225370236 0.37193713089684588 0 -0.071788917171084016 0.3809272333041443 0 -0.069616273344600341 0.3650636543096733 0 -0.071788917171084016 0.3809272333041443 0 -0.056875823715872062 0.37631267096962301 0 -0.069616273344600341 0.3650636543096733 0 -0.085055645225370236 0.37193713089684588 0 -0.084100884505446297 0.3554636863979832 0 -0.085055645225370236 0.37193713089684588 0 -0.084100884505446297 0.3554636863979832 0 -0.1008292236537022 0.36036332390371462 0 -0.084100884505446297 0.3554636863979832 0 -0.067541502003893042 0.3482616942848048 0 -0.085709514220790303 0.34113927750747819 0 -0.084100884505446297 0.3554636863979832 0 -0.085709514220790303 0.34113927750747819 0 -0.099722393067727538 0.34687368244968458 0 -0.069616273344600341 0.3650636543096733 0 -0.084100884505446297 0.3554636863979832 0 -0.067541502003893042 0.3482616942848048 0 -0.051818441616049399 0.35735321764765782 0 -0.069616273344600341 0.3650636543096733 0 -0.067541502003893042 0.3482616942848048 0 -0.067541502003893042 0.3482616942848048 0 -0.073191842414501496 0.33174208285196288 0 -0.085709514220790303 0.34113927750747819 0 -0.058679851530075752 0.32054224196392622 0 -0.073191842414501496 0.33174208285196288 0 -0.074915307566508993 0.31649039264194578 0 -0.054647974243728172 0.30430181459310768 0 -0.058679851530075752 0.32054224196392622 0 -0.074915307566508993 0.31649039264194578 0 -0.073191842414501496 0.33174208285196288 0 -0.074915307566508993 0.31649039264194578 0 -0.095182640889289766 0.32867897069078372 0 -0.090928135519314904 0.31087631578889069 0 -0.074915307566508993 0.31649039264194578 0 -0.095182640889289766 0.32867897069078372 0 -0.074915307566508993 0.31649039264194578 0 -0.095182640889289766 0.32867897069078372 0 -0.073191842414501496 0.33174208285196288 0 -0.085709514220790303 0.34113927750747819 0 -0.095182640889289766 0.32867897069078372 0 -0.085709514220790303 0.34113927750747819 0 -0.095182640889289766 0.32867897069078372 0 -0.099722393067727538 0.34687368244968458 0 -0.095182640889289766 0.32867897069078372 0 -0.1154499742120704 0.34086754873962172 0 -0.095182640889289766 0.32867897069078372 0 -0.1098512680755149 0.32470257897991811 0 -0.1154499742120704 0.34086754873962172 0 -0.095182640889289766 0.32867897069078372 0 -0.1154499742120704 0.34086754873962172 0 -0.099722393067727538 0.34687368244968458 0 -0.1061991548417472 0.31213959050036899 0 -0.090928135519314904 0.31087631578889069 0 -0.095182640889289766 0.32867897069078372 0 -0.1061991548417472 0.31213959050036899 0 -0.095182640889289766 0.32867897069078372 0 -0.1098512680755149 0.32470257897991811 0 -0.1061991548417472 0.31213959050036899 0 -0.115330384384618 0.31728312261503783 0 -0.1098512680755149 0.32470257897991811 0 -0.12136448477009221 0.30951812845445109 0 -0.1061991548417472 0.31213959050036899 0 -0.115330384384618 0.31728312261503783 0 -0.115330384384618 0.31728312261503783 0 -0.1098512680755149 0.32470257897991811 0 -0.12142985306419619 0.32461006626398298 0 -0.12722248981549561 0.3181430308760943 0 -0.115330384384618 0.31728312261503783 0 -0.12142985306419619 0.32461006626398298 0 -0.12722248981549561 0.3181430308760943 0 -0.12136448477009221 0.30951812845445109 0 -0.115330384384618 0.31728312261503783 0 -0.1098512680755149 0.32470257897991811 0 -0.12142985306419619 0.32461006626398298 0 -0.1154499742120704 0.34086754873962172 0 -0.13363790056006589 0.32585743918209531 0 -0.12142985306419619 0.32461006626398298 0 -0.1154499742120704 0.34086754873962172 0 -0.12523428666698541 0.37069662222368049 0 -0.1294360936135257 0.3482770307028879 0 -0.1154159689866658 0.35521970897278921 0 -0.1154499742120704 0.34086754873962172 0 -0.1154159689866658 0.35521970897278921 0 -0.099722393067727538 0.34687368244968458 0 -0.1294360936135257 0.3482770307028879 0 -0.1154499742120704 0.34086754873962172 0 -0.1154159689866658 0.35521970897278921 0 -0.12523428666698541 0.37069662222368049 0 -0.1154159689866658 0.35521970897278921 0 -0.11117961403065831 0.36839673047223442 0 -0.12523428666698541 0.37069662222368049 0 -0.11117961403065831 0.36839673047223442 0 -0.1123930043347208 0.38073562172137532 0 -0.11117961403065831 0.36839673047223442 0 -0.1008292236537022 0.36036332390371462 0 -0.09970079949094271 0.37763208900548878 0 -0.1154159689866658 0.35521970897278921 0 -0.11117961403065831 0.36839673047223442 0 -0.1008292236537022 0.36036332390371462 0 -0.085055645225370236 0.37193713089684588 0 -0.1008292236537022 0.36036332390371462 0 -0.09970079949094271 0.37763208900548878 0 -0.084100884505446297 0.3554636863979832 0 -0.1008292236537022 0.36036332390371462 0 -0.099722393067727538 0.34687368244968458 0 -0.1154159689866658 0.35521970897278921 0 -0.1008292236537022 0.36036332390371462 0 -0.099722393067727538 0.34687368244968458 0 -0.1036554482544351 0.39516830989393792 0 -0.1102807352191843 0.41378788895710661 0 -0.09259379641793411 0.40948313349934218 0 -0.1036554482544351 0.39516830989393792 0 -0.09970079949094271 0.37763208900548878 0 -0.1123930043347208 0.38073562172137532 0 -0.1036554482544351 0.39516830989393792 0 -0.09970079949094271 0.37763208900548878 0 -0.084297773186445962 0.39217279846007119 0 -0.11117961403065831 0.36839673047223442 0 -0.09970079949094271 0.37763208900548878 0 -0.1123930043347208 0.38073562172137532 0 -0.12523428666698541 0.37069662222368049 0 -0.1123930043347208 0.38073562172137532 0 -0.12103247972044499 0.39311621374447298 0 -0.1036554482544351 0.39516830989393792 0 -0.1123930043347208 0.38073562172137532 0 -0.12103247972044499 0.39311621374447298 0 -0.12523428666698541 0.37069662222368049 0 -0.12103247972044499 0.39311621374447298 0 -0.1036554482544351 0.39516830989393792 0 -0.12103247972044499 0.39311621374447298 0 -0.1102807352191843 0.41378788895710661 0 -0.12997925716256209 0.39431640422262348 0 -0.1102807352191843 0.41378788895710661 0 -0.12997925716256209 0.39431640422262348 0 -0.12103247972044499 0.39311621374447298 0 -0.1102807352191843 0.41378788895710661 0 -0.12623023605756489 0.41143854881348008 0 -0.1102807352191843 0.41378788895710661 0 -0.1242188050129694 0.42501783294758849 0 -0.12623023605756489 0.41143854881348008 0 -0.12997925716256209 0.39431640422262348 0 -0.1102807352191843 0.41378788895710661 0 -0.1102807352191843 0.41378788895710661 0 -0.1104760497445479 0.43296770510105842 0 -0.1242188050129694 0.42501783294758849 0 -0.1104760497445479 0.43296770510105842 0 -0.1242188050129694 0.42501783294758849 0 -0.1248743097581413 0.44162978393037222 0 -0.1102807352191843 0.41378788895710661 0 -0.090582213275806372 0.43325937369158968 0 -0.1102807352191843 0.41378788895710661 0 -0.1104760497445479 0.43296770510105842 0 -0.090582213275806372 0.43325937369158968 0 -0.1102807352191843 0.41378788895710661 0 -0.09259379641793411 0.40948313349934218 0 -0.090582213275806372 0.43325937369158968 0 -0.09259379641793411 0.40948313349934218 0 -0.090582213275806372 0.43325937369158968 0 -0.074152812153798875 0.41302729649400538 0 -0.090582213275806372 0.43325937369158968 0 -0.066022972602334681 0.42956105407568013 0 -0.074152812153798875 0.41302729649400538 0 -0.066022972602334681 0.42956105407568013 0 -0.074152812153798875 0.41302729649400538 0 -0.049329429094603867 0.41198700835812702 0 -0.074152812153798875 0.41302729649400538 0 -0.063154715464804681 0.39516467689365731 0 -0.084297773186445962 0.39217279846007119 0 -0.09259379641793411 0.40948313349934218 0 -0.074152812153798875 0.41302729649400538 0 -0.084297773186445962 0.39217279846007119 0 -0.1036554482544351 0.39516830989393792 0 -0.09259379641793411 0.40948313349934218 0 -0.084297773186445962 0.39217279846007119 0 -0.085055645225370236 0.37193713089684588 0 -0.09970079949094271 0.37763208900548878 0 -0.084297773186445962 0.39217279846007119 0 -0.085055645225370236 0.37193713089684588 0 -0.084297773186445962 0.39217279846007119 0 -0.071788917171084016 0.3809272333041443 0 -0.063154715464804681 0.39516467689365731 0 -0.084297773186445962 0.39217279846007119 0 -0.071788917171084016 0.3809272333041443 0 -0.063154715464804681 0.39516467689365731 0 -0.071788917171084016 0.3809272333041443 0 -0.056875823715872062 0.37631267096962301 0 -0.04149310004589906 0.37124785083274592 0 -0.056875823715872062 0.37631267096962301 0 -0.04338349465279491 0.38811939282985902 0 -0.063154715464804681 0.39516467689365731 0 -0.056875823715872062 0.37631267096962301 0 -0.04338349465279491 0.38811939282985902 0 -0.063154715464804681 0.39516467689365731 0 -0.04338349465279491 0.38811939282985902 0 -0.049329429094603867 0.41198700835812702 0 -0.04338349465279491 0.38811939282985902 0 -0.024844401122877391 0.39948633252540261 0 -0.049329429094603867 0.41198700835812702 0 -0.024169526760701381 0.37267007813580277 0 -0.04149310004589906 0.37124785083274592 0 -0.04338349465279491 0.38811939282985902 0 -0.024169526760701381 0.37267007813580277 0 -0.04338349465279491 0.38811939282985902 0 -0.024844401122877391 0.39948633252540261 0 -0.024169526760701381 0.37267007813580277 0 -0.024844401122877391 0.39948633252540261 0 -0.0045342830833226501 0.3863935686212247 0 -0.024844401122877391 0.39948633252540261 0 -0.0045342830833226501 0.3863935686212247 0 -0.0038092142255275289 0.41137928311071797 0 -0.0045342830833226501 0.3863935686212247 0 -0.0038092142255275289 0.41137928311071797 0 -0.024169526760701381 0.37267007813580277 0 -0.0045342830833226501 0.3863935686212247 0 -0.0030841453677343121 0.43636499760021141 0 -0.0038092142255275289 0.41137928311071797 0 -0.026324668085478481 0.42779129271708288 0 -0.0030841453677343121 0.43636499760021141 0 -0.0038092142255275289 0.41137928311071797 0 -0.024844401122877391 0.39948633252540261 0 -0.0038092142255275289 0.41137928311071797 0 -0.026324668085478481 0.42779129271708288 0 -0.026324668085478481 0.42779129271708288 0 -0.049329429094603867 0.41198700835812702 0 -0.049413859365407042 0.43472239834070731 0 -0.024844401122877391 0.39948633252540261 0 -0.026324668085478481 0.42779129271708288 0 -0.049329429094603867 0.41198700835812702 0 -0.074152812153798875 0.41302729649400538 0 -0.063154715464804681 0.39516467689365731 0 -0.049329429094603867 0.41198700835812702 0 -0.066022972602334681 0.42956105407568013 0 -0.049329429094603867 0.41198700835812702 0 -0.049413859365407042 0.43472239834070731 0 -0.066022972602334681 0.42956105407568013 0 -0.049413859365407042 0.43472239834070731 0 -0.0708836913324285 0.45273085842607269 0 -0.0393713920190637 0.45112048084748302 0 -0.052402143273794041 0.47435943831340011 0 -0.0708836913324285 0.45273085842607269 0 -0.049413859365407042 0.43472239834070731 0 -0.0393713920190637 0.45112048084748302 0 -0.0708836913324285 0.45273085842607269 0 -0.0393713920190637 0.45112048084748302 0 -0.02876560419008364 0.47203163756026523 0 -0.052402143273794041 0.47435943831340011 0 -0.026324668085478481 0.42779129271708288 0 -0.049413859365407042 0.43472239834070731 0 -0.0393713920190637 0.45112048084748302 0 -0.0030841453677343121 0.43636499760021141 0 -0.026324668085478481 0.42779129271708288 0 -0.01888650882967766 0.45329231687868837 0 -0.026324668085478481 0.42779129271708288 0 -0.0393713920190637 0.45112048084748302 0 -0.01888650882967766 0.45329231687868837 0 -0.0393713920190637 0.45112048084748302 0 -0.01888650882967766 0.45329231687868837 0 -0.02876560419008364 0.47203163756026523 0 -0.01888650882967766 0.45329231687868837 0 -0.01341416680576474 0.47109478045738301 0 -0.02876560419008364 0.47203163756026523 0 -0.01888650882967766 0.45329231687868837 0 -0.002359076509941094 0.46135071208970457 0 -0.01341416680576474 0.47109478045738301 0 -0.0030841453677343121 0.43636499760021141 0 -0.01888650882967766 0.45329231687868837 0 -0.002359076509941094 0.46135071208970457 0 -0.0030841453677343121 0.43636499760021141 0 -0.002359076509941094 0.46135071208970457 0 -0.0090346539348886701 0.5 0 -0.0016340076521478781 0.48633642657919801 0 -0.017460482120078509 0.48648722646036041 0 -0.0016340076521478781 0.48633642657919801 0 -0.01341416680576474 0.47109478045738301 0 -0.017460482120078509 0.48648722646036041 0 -0.002359076509941094 0.46135071208970457 0 -0.0016340076521478781 0.48633642657919801 0 -0.01341416680576474 0.47109478045738301 0 -0.002359076509941094 0.46135071208970457 0 -0.0016340076521478781 0.48633642657919801 0 -0.002359076509941094 0.46135071208970457 0 -0.0016340076521478781 0.48633642657919801 0 0.0036787250480955699 0.47408322248379448 0 -0.01341416680576474 0.47109478045738301 0 -0.02876560419008364 0.47203163756026523 0 -0.017460482120078509 0.48648722646036041 0 -0.02876560419008364 0.47203163756026523 0 -0.017460482120078509 0.48648722646036041 0 -0.038135422162237087 0.5 0 -0.0090346539348886701 0.5 0 -0.017460482120078509 0.48648722646036041 0 -0.038135422162237087 0.5 0 -0.02876560419008364 0.47203163756026523 0 -0.038135422162237087 0.5 0 -0.052402143273794041 0.47435943831340011 0 -0.038135422162237087 0.5 0 -0.052402143273794041 0.47435943831340011 0 -0.067236190389585393 0.5 0 -0.052402143273794041 0.47435943831340011 0 -0.067236190389585393 0.5 0 -0.073349005429332273 0.47921852398434828 0 -0.067236190389585393 0.5 0 -0.073349005429332273 0.47921852398434828 0 -0.096336958616933588 0.5 0 -0.073349005429332273 0.47921852398434828 0 -0.096336958616933588 0.5 0 -0.093805091172543903 0.47224368257650851 0 -0.052402143273794041 0.47435943831340011 0 -0.073349005429332273 0.47921852398434828 0 -0.0708836913324285 0.45273085842607269 0 -0.0708836913324285 0.45273085842607269 0 -0.1043361340672995 0.45358667135048331 0 -0.093805091172543903 0.47224368257650851 0 -0.090582213275806372 0.43325937369158968 0 -0.0708836913324285 0.45273085842607269 0 -0.1043361340672995 0.45358667135048331 0 -0.090582213275806372 0.43325937369158968 0 -0.066022972602334681 0.42956105407568013 0 -0.0708836913324285 0.45273085842607269 0 -0.090582213275806372 0.43325937369158968 0 -0.0708836913324285 0.45273085842607269 0 -0.073349005429332273 0.47921852398434828 0 -0.0708836913324285 0.45273085842607269 0 -0.093805091172543903 0.47224368257650851 0 -0.1043361340672995 0.45358667135048331 0 -0.12052644250191399 0.4682622397032008 0 -0.093805091172543903 0.47224368257650851 0 -0.1104760497445479 0.43296770510105842 0 -0.090582213275806372 0.43325937369158968 0 -0.1043361340672995 0.45358667135048331 0 -0.12618187852634369 0.45882241462805679 0 -0.1043361340672995 0.45358667135048331 0 -0.1248743097581413 0.44162978393037222 0 -0.1104760497445479 0.43296770510105842 0 -0.1043361340672995 0.45358667135048331 0 -0.1248743097581413 0.44162978393037222 0 -0.12618187852634369 0.45882241462805679 0 -0.1043361340672995 0.45358667135048331 0 -0.12052644250191399 0.4682622397032008 0 -0.1317912103042716 0.47600940211286807 0 -0.12052644250191399 0.4682622397032008 0 -0.11642361318749669 0.48420448820259387 0 -0.12052644250191399 0.4682622397032008 0 -0.11642361318749669 0.48420448820259387 0 -0.093805091172543903 0.47224368257650851 0 -0.12543772684428189 0.5 0 -0.11642361318749669 0.48420448820259387 0 -0.096336958616933588 0.5 0 -0.12543772684428189 0.5 0 -0.13178312884530541 0.48627570230508688 0 -0.11642361318749669 0.48420448820259387 0 -0.11642361318749669 0.48420448820259387 0 -0.096336958616933588 0.5 0 -0.093805091172543903 0.47224368257650851 0 -0.1693268494853358 0.079538523923443544 0 -0.16945340910355561 0.089496265134995978 0 -0.1618062267740645 0.07958177760614682 0 -0.16945340910355561 0.089496265134995978 0 -0.1618062267740645 0.07958177760614682 0 -0.1616157516695074 0.095139316102685473 0 -0.1618062267740645 0.07958177760614682 0 -0.1616157516695074 0.095139316102685473 0 -0.14767322655010931 0.084806545451415583 0 -0.1618062267740645 0.07958177760614682 0 -0.16640070467345031 0.07104807823334372 0 -0.15517576509654349 0.068304766057398533 0 -0.16640070467345031 0.07104807823334372 0 -0.15517576509654349 0.068304766057398533 0 -0.16451238623864939 0.061110077383343737 0 -0.16640070467345031 0.07104807823334372 0 -0.17354141001077031 0.063798093567348918 0 -0.16451238623864939 0.061110077383343737 0 -0.17157411485926041 0.074087910936242465 0 -0.16640070467345031 0.07104807823334372 0 -0.17354141001077031 0.063798093567348918 0 -0.1693268494853358 0.079538523923443544 0 -0.17157411485926041 0.074087910936242465 0 -0.16640070467345031 0.07104807823334372 0 -0.1693268494853358 0.079538523923443544 0 -0.1618062267740645 0.07958177760614682 0 -0.16640070467345031 0.07104807823334372 0 -0.17354141001077031 0.063798093567348918 0 -0.17702749526748529 0.081966948020833708 0 -0.17656426821359539 0.052679136019797047 0 -0.18185637422210199 0.067243003367259677 0 -0.17702749526748529 0.081966948020833708 0 -0.17656426821359539 0.052679136019797047 0 -0.17702749526748529 0.081966948020833708 0 -0.17656426821359539 0.052679136019797047 0 -0.17157411485926041 0.074087910936242465 0 -0.17354141001077031 0.063798093567348918 0 -0.17702749526748529 0.081966948020833708 0 -0.18185637422210199 0.067243003367259677 0 -0.1853153676200878 0.058850167416455039 0 -0.18892740292417859 0.064703221589215376 0 -0.18185637422210199 0.067243003367259677 0 -0.19050021368002351 0.072419239531055349 0 -0.18892740292417859 0.064703221589215376 0 -0.18185637422210199 0.067243003367259677 0 -0.18141962227324601 0.075216957450553817 0 -0.17702749526748529 0.081966948020833708 0 -0.18185637422210199 0.067243003367259677 0 -0.18141962227324601 0.075216957450553817 0 -0.19050021368002351 0.072419239531055349 0 -0.18141962227324601 0.075216957450553817 0 -0.1867192510276118 0.077748512173410014 0 -0.19050021368002351 0.072419239531055349 0 -0.18141962227324601 0.075216957450553817 0 -0.1867192510276118 0.077748512173410014 0 -0.1819129998543452 0.079414551687582866 0 -0.18248563084903771 0.082725789105533951 0 -0.17702749526748529 0.081966948020833708 0 -0.17749072232138041 0.1112547600218704 0 -0.1867192510276118 0.077748512173410014 0 -0.18248563084903771 0.082725789105533951 0 -0.1819129998543452 0.079414551687582866 0 -0.18141962227324601 0.075216957450553817 0 -0.1819129998543452 0.079414551687582866 0 -0.17702749526748529 0.081966948020833708 0 -0.18248563084903771 0.082725789105533951 0 -0.1819129998543452 0.079414551687582866 0 -0.17702749526748529 0.081966948020833708 0 -0.1693268494853358 0.079538523923443544 0 -0.16945340910355561 0.089496265134995978 0 -0.17702749526748529 0.081966948020833708 0 -0.1693268494853358 0.079538523923443544 0 -0.17157411485926041 0.074087910936242465 0 -0.17702749526748529 0.081966948020833708 0 -0.17702749526748529 0.081966948020833708 0 -0.17749072232138041 0.1112547600218704 0 -0.16945340910355561 0.089496265134995978 0 -0.17702749526748529 0.081966948020833708 0 -0.17749072232138041 0.1112547600218704 0 -0.17749072232138041 0.1112547600218704 0 -0.1951643137470572 0.093770439387570487 0 -0.18248563084903771 0.082725789105533951 0 -0.17749072232138041 0.1112547600218704 0 -0.1951643137470572 0.093770439387570487 0 -0.17749072232138041 0.1112547600218704 0 -0.19150979458678249 0.1243728737611647 0 -0.17789558253256721 0.1368522929207025 0 -0.17749072232138041 0.1112547600218704 0 -0.17789558253256721 0.1368522929207025 0 -0.17749072232138041 0.1112547600218704 0 -0.16113979031376621 0.12743058591966341 0 -0.17749072232138041 0.1112547600218704 0 -0.15084139672814201 0.110160429760413 0 -0.16113979031376621 0.12743058591966341 0 -0.17749072232138041 0.1112547600218704 0 -0.1616157516695074 0.095139316102685473 0 -0.15084139672814201 0.110160429760413 0 -0.16945340910355561 0.089496265134995978 0 -0.17749072232138041 0.1112547600218704 0 -0.1616157516695074 0.095139316102685473 0 -0.1616157516695074 0.095139316102685473 0 -0.15084139672814201 0.110160429760413 0 -0.14767322655010931 0.084806545451415583 0 -0.15084139672814201 0.110160429760413 0 -0.1348328660863515 0.097215266237156234 0 -0.14767322655010931 0.084806545451415583 0 -0.15084139672814201 0.110160429760413 0 -0.13137241316615089 0.11357835761918721 0 -0.14300315410871919 0.1253406317882016 0 -0.15084139672814201 0.110160429760413 0 -0.16113979031376621 0.12743058591966341 0 -0.14300315410871919 0.1253406317882016 0 -0.13137241316615089 0.11357835761918721 0 -0.14300315410871919 0.1253406317882016 0 -0.12687331202938101 0.13192737382428379 0 -0.13137241316615089 0.11357835761918721 0 -0.1348328660863515 0.097215266237156234 0 -0.1198812247159142 0.095002477965890675 0 -0.15084139672814201 0.110160429760413 0 -0.13137241316615089 0.11357835761918721 0 -0.1348328660863515 0.097215266237156234 0 -0.1348328660863515 0.097215266237156234 0 -0.12533951967512769 0.078274991835817334 0 -0.1198812247159142 0.095002477965890675 0 -0.1348328660863515 0.097215266237156234 0 -0.12533951967512769 0.078274991835817334 0 -0.14767322655010931 0.084806545451415583 0 -0.1618062267740645 0.07958177760614682 0 -0.14767322655010931 0.084806545451415583 0 -0.15517576509654349 0.068304766057398533 0 -0.14767322655010931 0.084806545451415583 0 -0.15517576509654349 0.068304766057398533 0 -0.14001017723872511 0.063978020277280875 0 -0.12533951967512769 0.078274991835817334 0 -0.14767322655010931 0.084806545451415583 0 -0.14001017723872511 0.063978020277280875 0 -0.12533951967512769 0.078274991835817334 0 -0.14001017723872511 0.063978020277280875 0 -0.1248745965026067 0.059896082918310993 0 -0.14001017723872511 0.063978020277280875 0 -0.13626681081840961 0.042829268155062397 0 -0.1248745965026067 0.059896082918310993 0 -0.13626681081840961 0.042829268155062397 0 -0.1339340902388827 0.022300844741854581 0 -0.1180188049733784 0.030804183747700629 0 -0.13626681081840961 0.042829268155062397 0 -0.1339340902388827 0.022300844741854581 0 -0.15968783393996419 0.037567277286728401 0 -0.13626681081840961 0.042829268155062397 0 -0.15351002702878311 0.053877414325468623 0 -0.15968783393996419 0.037567277286728401 0 -0.13626681081840961 0.042829268155062397 0 -0.15968783393996419 0.037567277286728401 0 -0.14001017723872511 0.063978020277280875 0 -0.13626681081840961 0.042829268155062397 0 -0.15351002702878311 0.053877414325468623 0 -0.15517576509654349 0.068304766057398533 0 -0.14001017723872511 0.063978020277280875 0 -0.15351002702878311 0.053877414325468623 0 -0.12735709500343681 0.004015926865657337 0 -0.15177498865293759 0.016606981474429749 0 -0.12735709500343681 0.004015926865657337 0 -0.1339340902388827 0.022300844741854581 0 -0.15177498865293759 0.016606981474429749 0 -0.12735709500343681 0.004015926865657337 0 -0.1339340902388827 0.022300844741854581 0 -0.11835839359799651 0.016938700943610479 0 -0.1339340902388827 0.022300844741854581 0 -0.15177498865293759 0.016606981474429749 0 -0.15968783393996419 0.037567277286728401 0 -0.1339340902388827 0.022300844741854581 0 -0.15968783393996419 0.037567277286728401 0 -0.12735709500343681 0.004015926865657337 0 -0.15177498865293759 0.016606981474429749 0 -0.14801408494475049 0.0031182785745780331 0 -0.15177498865293759 0.016606981474429749 0 -0.14801408494475049 0.0031182785745780331 0 -0.1619193683370386 0.0066468078375689294 0 -0.15773416148281841 -0.0035868741371463562 0 -0.14801408494475049 0.0031182785745780331 0 -0.1619193683370386 0.0066468078375689294 0 -0.15177498865293759 0.016606981474429749 0 -0.1619193683370386 0.0066468078375689294 0 -0.16760309597538539 0.015861310899326669 0 -0.16716832075785379 -0.0032078365625175 0 -0.1619193683370386 0.0066468078375689294 0 -0.17584419881677341 0.0071523107965592754 0 -0.1619193683370386 0.0066468078375689294 0 -0.16760309597538539 0.015861310899326669 0 -0.17584419881677341 0.0071523107965592754 0 -0.15177498865293759 0.016606981474429749 0 -0.17619288230243149 0.029198036083215671 0 -0.15177498865293759 0.016606981474429749 0 -0.17619288230243149 0.029198036083215671 0 -0.15968783393996419 0.037567277286728401 0 -0.15177498865293759 0.016606981474429749 0 -0.16760309597538539 0.015861310899326669 0 -0.17619288230243149 0.029198036083215671 0 -0.17619288230243149 0.029198036083215671 0 -0.1852069371874478 0.015311100034367831 0 -0.17584419881677341 0.0071523107965592754 0 -0.17619288230243149 0.029198036083215671 0 -0.17584419881677341 0.0071523107965592754 0 -0.16760309597538539 0.015861310899326669 0 -0.17619288230243149 0.029198036083215671 0 -0.17584419881677341 0.0071523107965592754 0 -0.17619288230243149 0.029198036083215671 0 -0.19572946351785711 0.039272048382664133 0 -0.19029700863621521 0.024089069561314659 0 -0.17619288230243149 0.029198036083215671 0 -0.1852069371874478 0.015311100034367831 0 -0.19029700863621521 0.024089069561314659 0 -0.1852069371874478 0.015311100034367831 0 -0.18717715497560061 0.0062623078557712403 0 -0.17584419881677341 0.0071523107965592754 0 -0.18154179604087481 -0.0036104187285780349 0 -0.18717715497560061 0.0062623078557712403 0 -0.17584419881677341 0.0071523107965592754 0 -0.15351002702878311 0.053877414325468623 0 -0.1659033968134131 0.050269055427132232 0 -0.15968783393996419 0.037567277286728401 0 -0.1659033968134131 0.050269055427132232 0 -0.16451238623864939 0.061110077383343737 0 -0.17656426821359539 0.052679136019797047 0 -0.17354141001077031 0.063798093567348918 0 -0.16451238623864939 0.061110077383343737 0 -0.17656426821359539 0.052679136019797047 0 -0.16451238623864939 0.061110077383343737 0 -0.17656426821359539 0.052679136019797047 0 -0.15351002702878311 0.053877414325468623 0 -0.1659033968134131 0.050269055427132232 0 -0.16451238623864939 0.061110077383343737 0 -0.15517576509654349 0.068304766057398533 0 -0.15351002702878311 0.053877414325468623 0 -0.16451238623864939 0.061110077383343737 0 -0.15968783393996419 0.037567277286728401 0 -0.1762663423330757 0.033842591165095401 0 -0.1659033968134131 0.050269055427132232 0 -0.15968783393996419 0.037567277286728401 0 -0.1764827173319595 0.047523031967639129 0 -0.17619288230243149 0.029198036083215671 0 -0.15968783393996419 0.037567277286728401 0 -0.1762663423330757 0.033842591165095401 0 -0.15968783393996419 0.037567277286728401 0 -0.1764827173319595 0.047523031967639129 0 -0.15968783393996419 0.037567277286728401 0 -0.1762663423330757 0.033842591165095401 0 -0.1764827173319595 0.047523031967639129 0 -0.17619288230243149 0.029198036083215671 0 -0.19572946351785711 0.039272048382664133 0 -0.181281627628781 0.040827380692469641 0 -0.18051660755046151 0.049914261515807259 0 -0.1764827173319595 0.047523031967639129 0 -0.17619288230243149 0.029198036083215671 0 -0.1762663423330757 0.033842591165095401 0 -0.19572946351785711 0.039272048382664133 0 -0.1762663423330757 0.033842591165095401 0 -0.181281627628781 0.040827380692469641 0 -0.19572946351785711 0.039272048382664133 0 -0.1762663423330757 0.033842591165095401 0 -0.181281627628781 0.040827380692469641 0 -0.1764827173319595 0.047523031967639129 0 -0.1762663423330757 0.033842591165095401 0 -0.1764827173319595 0.047523031967639129 0 -0.17619288230243149 0.029198036083215671 0 -0.1762663423330757 0.033842591165095401 0 -0.181281627628781 0.040827380692469641 0 -0.18051660755046151 0.049914261515807259 0 -0.19572946351785711 0.039272048382664133 0 -0.18051660755046151 0.049914261515807259 0 -0.17656426821359539 0.052679136019797047 0 -0.1853153676200878 0.058850167416455039 0 -0.18051660755046151 0.049914261515807259 0 -0.1764827173319595 0.047523031967639129 0 -0.1764827173319595 0.047523031967639129 0 -0.17656426821359539 0.052679136019797047 0 -0.1659033968134131 0.050269055427132232 0 -0.1764827173319595 0.047523031967639129 0 -0.17656426821359539 0.052679136019797047 0 -0.18051660755046151 0.049914261515807259 0 -0.1764827173319595 0.047523031967639129 0 -0.17656426821359539 0.052679136019797047 0 -0.18051660755046151 0.049914261515807259 0 -0.17656426821359539 0.052679136019797047 0 -0.18185637422210199 0.067243003367259677 0 -0.17656426821359539 0.052679136019797047 0 -0.1853153676200878 0.058850167416455039 0 -0.1853153676200878 0.058850167416455039 0 -0.19803765617450109 0.060300476042091433 0 -0.18892740292417859 0.064703221589215376 0 -0.18051660755046151 0.049914261515807259 0 -0.19803765617450109 0.060300476042091433 0 -0.1977866825790292 0.05007637869738242 0 -0.18051660755046151 0.049914261515807259 0 -0.1853153676200878 0.058850167416455039 0 -0.19803765617450109 0.060300476042091433 0 -0.18051660755046151 0.049914261515807259 0 -0.19803765617450109 0.060300476042091433 0 -0.19803765617450109 0.060300476042091433 0 -0.1977866825790292 0.05007637869738242 0 -0.2066297839190599 0.054855205218219752 0 -0.18051660755046151 0.049914261515807259 0 -0.1977866825790292 0.05007637869738242 0 -0.19572946351785711 0.039272048382664133 0 -0.18051660755046151 0.049914261515807259 0 -0.19572946351785711 0.039272048382664133 0 -0.19572946351785711 0.039272048382664133 0 -0.2098237389609823 0.029412342647955388 0 -0.1977866825790292 0.05007637869738242 0 -0.19572946351785711 0.039272048382664133 0 -0.2073344650466164 0.045256152092875389 0 -0.19572946351785711 0.039272048382664133 0 -0.2073344650466164 0.045256152092875389 0 -0.2073344650466164 0.045256152092875389 0 -0.21702036639386221 0.038769314305699548 0 -0.2098237389609823 0.029412342647955388 0 -0.19572946351785711 0.039272048382664133 0 -0.2073344650466164 0.045256152092875389 0 -0.2098237389609823 0.029412342647955388 0 -0.21702036639386221 0.038769314305699548 0 -0.2098237389609823 0.029412342647955388 0 -0.2284051488343061 0.035137669629428533 0 -0.2073344650466164 0.045256152092875389 0 -0.21702036639386221 0.038769314305699548 0 -0.22251811273354419 0.045271092852538893 0 -0.2073344650466164 0.045256152092875389 0 -0.21769334509658461 0.055951218203848879 0 -0.22251811273354419 0.045271092852538893 0 -0.21769334509658461 0.055951218203848879 0 -0.20947987249717179 0.060448397508133619 0 -0.2066297839190599 0.054855205218219752 0 -0.21769334509658461 0.055951218203848879 0 -0.20947987249717179 0.060448397508133619 0 -0.2155587047985415 0.070686690568374386 0 -0.19803765617450109 0.060300476042091433 0 -0.20947987249717179 0.060448397508133619 0 -0.2066297839190599 0.054855205218219752 0 -0.1977866825790292 0.05007637869738242 0 -0.2073344650466164 0.045256152092875389 0 -0.2066297839190599 0.054855205218219752 0 -0.2073344650466164 0.045256152092875389 0 -0.21769334509658461 0.055951218203848879 0 -0.2066297839190599 0.054855205218219752 0 -0.1989264366345522 -0.0080023544535597537 0 -0.1965234412062255 0.0098537758749781944 0 -0.20713549204565579 6.5395444916274768e-05 0 -0.19066530249761049 -0.0041303576494283751 0 -0.18717715497560061 0.0062623078557712403 0 -0.1965234412062255 0.0098537758749781944 0 -0.1852069371874478 0.015311100034367831 0 -0.18717715497560061 0.0062623078557712403 0 -0.1965234412062255 0.0098537758749781944 0 -0.1965234412062255 0.0098537758749781944 0 -0.20113962024173071 0.02227838771243261 0 -0.2107847094499361 0.011405203725301251 0 -0.19572946351785711 0.039272048382664133 0 -0.20113962024173071 0.02227838771243261 0 -0.2098237389609823 0.029412342647955388 0 -0.19572946351785711 0.039272048382664133 0 -0.20113962024173071 0.02227838771243261 0 -0.19029700863621521 0.024089069561314659 0 -0.1965234412062255 0.0098537758749781944 0 -0.20113962024173071 0.02227838771243261 0 -0.19029700863621521 0.024089069561314659 0 -0.1852069371874478 0.015311100034367831 0 -0.1965234412062255 0.0098537758749781944 0 -0.19029700863621521 0.024089069561314659 0 -0.2098237389609823 0.029412342647955388 0 -0.2107847094499361 0.011405203725301251 0 -0.22391801440410891 0.019552636913248388 0 -0.20113962024173071 0.02227838771243261 0 -0.2098237389609823 0.029412342647955388 0 -0.2107847094499361 0.011405203725301251 0 -0.2098237389609823 0.029412342647955388 0 -0.22391801440410891 0.019552636913248388 0 -0.21702438745170211 -0.0043907958627755336 0 -0.2107847094499361 0.011405203725301251 0 -0.20713549204565579 6.5395444916274768e-05 0 -0.21702438745170211 -0.0043907958627755336 0 -0.2107847094499361 0.011405203725301251 0 -0.22391801440410891 0.019552636913248388 0 -0.1965234412062255 0.0098537758749781944 0 -0.2107847094499361 0.011405203725301251 0 -0.20713549204565579 6.5395444916274768e-05 0 -0.22867745033346079 0.0038692188645070222 0 -0.22391801440410891 0.019552636913248388 0 -0.2344599051246074 0.012178015861532989 0 -0.21702438745170211 -0.0043907958627755336 0 -0.22391801440410891 0.019552636913248388 0 -0.21702438745170211 -0.0043907958627755336 0 -0.22867745033346079 0.0038692188645070222 0 -0.22391801440410891 0.019552636913248388 0 -0.22391801440410891 0.019552636913248388 0 -0.2403792472176362 0.02548084658656756 0 -0.2344599051246074 0.012178015861532989 0 -0.2098237389609823 0.029412342647955388 0 -0.22391801440410891 0.019552636913248388 0 -0.2284051488343061 0.035137669629428533 0 -0.22391801440410891 0.019552636913248388 0 -0.2403792472176362 0.02548084658656756 0 -0.2284051488343061 0.035137669629428533 0 -0.22391801440410891 0.019552636913248388 0 -0.2344599051246074 0.012178015861532989 0 -0.22391801440410891 0.019552636913248388 0 -0.2284051488343061 0.035137669629428533 0 -0.2522816967992324 0.037264740289820159 0 -0.25157722050270093 0.012682655753942951 0 -0.2403792472176362 0.02548084658656756 0 -0.25157722050270093 0.012682655753942951 0 -0.2403792472176362 0.02548084658656756 0 -0.2344599051246074 0.012178015861532989 0 -0.25267499080189931 -0.0034516002120552492 0 -0.25157722050270093 0.012682655753942951 0 -0.2401015516947359 0.00075261550232862703 0 -0.25157722050270093 0.012682655753942951 0 -0.2344599051246074 0.012178015861532989 0 -0.2401015516947359 0.00075261550232862703 0 -0.22867745033346079 0.0038692188645070222 0 -0.2344599051246074 0.012178015861532989 0 -0.2401015516947359 0.00075261550232862703 0 -0.21769334509658461 0.055951218203848879 0 -0.23255980098598539 0.056775429521547523 0 -0.2155587047985415 0.070686690568374386 0 -0.23289228326450309 0.050722702345608793 0 -0.22641588552015429 0.052180110730886013 0 -0.22251811273354419 0.045271092852538893 0 -0.23289228326450309 0.050722702345608793 0 -0.23255980098598539 0.056775429521547523 0 -0.22641588552015429 0.052180110730886013 0 -0.21769334509658461 0.055951218203848879 0 -0.23255980098598539 0.056775429521547523 0 -0.22641588552015429 0.052180110730886013 0 -0.21769334509658461 0.055951218203848879 0 -0.22641588552015429 0.052180110730886013 0 -0.22251811273354419 0.045271092852538893 0 -0.21702036639386221 0.038769314305699548 0 -0.22251811273354419 0.045271092852538893 0 -0.2284051488343061 0.035137669629428533 0 -0.23289228326450309 0.050722702345608793 0 -0.22251811273354419 0.045271092852538893 0 -0.2284051488343061 0.035137669629428533 0 -0.23289228326450309 0.050722702345608793 0 -0.2284051488343061 0.035137669629428533 0 -0.2522816967992324 0.037264740289820159 0 -0.2403792472176362 0.02548084658656756 0 -0.2284051488343061 0.035137669629428533 0 -0.2522816967992324 0.037264740289820159 0 -0.23289228326450309 0.050722702345608793 0 -0.2284051488343061 0.035137669629428533 0 -0.2522816967992324 0.037264740289820159 0 -0.23289228326450309 0.050722702345608793 0 -0.23255980098598539 0.056775429521547523 0 -0.2522816967992324 0.037264740289820159 0 -0.23255980098598539 0.056775429521547523 0 -0.2522816967992324 0.037264740289820159 0 -0.23255980098598539 0.056775429521547523 0 -0.24906194248509719 0.058488871325365822 0 -0.23255980098598539 0.056775429521547523 0 -0.24906194248509719 0.058488871325365822 0 -0.23770452364983391 0.071010308971772351 0 -0.26257114212692878 0.06573449919026883 0 -0.24906194248509719 0.058488871325365822 0 -0.23770452364983391 0.071010308971772351 0 -0.25261226255175379 0.080423606239198905 0 -0.23770452364983391 0.071010308971772351 0 -0.23158356521460469 0.085326977986282804 0 -0.25261226255175379 0.080423606239198905 0 -0.23158356521460469 0.085326977986282804 0 -0.24377998071086901 0.096378574065869249 0 -0.23158356521460469 0.085326977986282804 0 -0.21283790517273879 0.076286118753275345 0 -0.22135706029896429 0.097751395037259853 0 -0.23158356521460469 0.085326977986282804 0 -0.22135706029896429 0.097751395037259853 0 -0.24377998071086901 0.096378574065869249 0 -0.23255980098598539 0.056775429521547523 0 -0.21283790517273879 0.076286118753275345 0 -0.23770452364983391 0.071010308971772351 0 -0.23158356521460469 0.085326977986282804 0 -0.21283790517273879 0.076286118753275345 0 -0.23255980098598539 0.056775429521547523 0 -0.23770452364983391 0.071010308971772351 0 -0.21283790517273879 0.076286118753275345 0 -0.23255980098598539 0.056775429521547523 0 -0.21283790517273879 0.076286118753275345 0 -0.2155587047985415 0.070686690568374386 0 -0.23770452364983391 0.071010308971772351 0 -0.21283790517273879 0.076286118753275345 0 -0.19803765617450109 0.060300476042091433 0 -0.20947987249717179 0.060448397508133619 0 -0.2155587047985415 0.070686690568374386 0 -0.19803765617450109 0.060300476042091433 0 -0.20333782300263301 0.070680183335342567 0 -0.2155587047985415 0.070686690568374386 0 -0.19803765617450109 0.060300476042091433 0 -0.2155587047985415 0.070686690568374386 0 -0.21283790517273879 0.076286118753275345 0 -0.19766176801088831 0.079505953929404904 0 -0.20333782300263301 0.070680183335342567 0 -0.21283790517273879 0.076286118753275345 0 -0.19766176801088831 0.079505953929404904 0 -0.20333782300263301 0.070680183335342567 0 -0.21283790517273879 0.076286118753275345 0 -0.2155587047985415 0.070686690568374386 0 -0.21283790517273879 0.076286118753275345 0 -0.1951643137470572 0.093770439387570487 0 -0.22135706029896429 0.097751395037259853 0 -0.21283790517273879 0.076286118753275345 0 -0.1951643137470572 0.093770439387570487 0 -0.21283790517273879 0.076286118753275345 0 -0.19766176801088831 0.079505953929404904 0 -0.1951643137470572 0.093770439387570487 0 -0.18248563084903771 0.082725789105533951 0 -0.19766176801088831 0.079505953929404904 0 -0.1951643137470572 0.093770439387570487 0 -0.1867192510276118 0.077748512173410014 0 -0.18248563084903771 0.082725789105533951 0 -0.19766176801088831 0.079505953929404904 0 -0.18248563084903771 0.082725789105533951 0 -0.19766176801088831 0.079505953929404904 0 -0.1867192510276118 0.077748512173410014 0 -0.19766176801088831 0.079505953929404904 0 -0.19050021368002351 0.072419239531055349 0 -0.19803765617450109 0.060300476042091433 0 -0.19050021368002351 0.072419239531055349 0 -0.18892740292417859 0.064703221589215376 0 -0.19803765617450109 0.060300476042091433 0 -0.20333782300263301 0.070680183335342567 0 -0.19050021368002351 0.072419239531055349 0 -0.20333782300263301 0.070680183335342567 0 -0.19766176801088831 0.079505953929404904 0 -0.19050021368002351 0.072419239531055349 0 -0.17749072232138041 0.1112547600218704 0 -0.19150979458678249 0.1243728737611647 0 -0.1951643137470572 0.093770439387570487 0 -0.19150979458678249 0.1243728737611647 0 -0.1951643137470572 0.093770439387570487 0 -0.20994497012605751 0.11823125198409511 0 -0.1951643137470572 0.093770439387570487 0 -0.20994497012605751 0.11823125198409511 0 -0.22135706029896429 0.097751395037259853 0 -0.20994497012605751 0.11823125198409511 0 -0.2348316268224595 0.11651500804646669 0 -0.2235388627286797 0.12965651036182041 0 -0.20994497012605751 0.11823125198409511 0 -0.22135706029896429 0.097751395037259853 0 -0.2348316268224595 0.11651500804646669 0 -0.22135706029896429 0.097751395037259853 0 -0.24377998071086901 0.096378574065869249 0 -0.2348316268224595 0.11651500804646669 0 -0.25136603029008331 0.1103208693098497 0 -0.24377998071086901 0.096378574065869249 0 -0.2348316268224595 0.11651500804646669 0 -0.25922316449870308 0.12628093809151891 0 -0.25136603029008331 0.1103208693098497 0 -0.2348316268224595 0.11651500804646669 0 -0.25922316449870308 0.12628093809151891 0 -0.2348316268224595 0.11651500804646669 0 -0.2369615480924761 0.1404602413506009 0 -0.2369615480924761 0.1404602413506009 0 -0.2235388627286797 0.12965651036182041 0 -0.2124173058737257 0.14341954006611901 0 -0.2348316268224595 0.11651500804646669 0 -0.2369615480924761 0.1404602413506009 0 -0.2235388627286797 0.12965651036182041 0 -0.2369615480924761 0.1404602413506009 0 -0.22679867445049531 0.16064067306310431 0 -0.2124173058737257 0.14341954006611901 0 -0.2369615480924761 0.1404602413506009 0 -0.247018622616726 0.15992587597476091 0 -0.22679867445049531 0.16064067306310431 0 -0.25846103874104392 0.14702121199507179 0 -0.2369615480924761 0.1404602413506009 0 -0.247018622616726 0.15992587597476091 0 -0.247018622616726 0.15992587597476091 0 -0.23359887481107691 0.1809086922627815 0 -0.247018622616726 0.15992587597476091 0 -0.23359887481107691 0.1809086922627815 0 -0.22679867445049531 0.16064067306310431 0 -0.26439180367967152 0.18225540552070321 0 -0.247018622616726 0.15992587597476091 0 -0.23359887481107691 0.1809086922627815 0 -0.23359887481107691 0.1809086922627815 0 -0.20517995294037331 0.17379218369948349 0 -0.2201791270054278 0.2018915085508021 0 -0.23359887481107691 0.1809086922627815 0 -0.22679867445049531 0.16064067306310431 0 -0.20517995294037331 0.17379218369948349 0 -0.22679867445049531 0.16064067306310431 0 -0.20517995294037331 0.17379218369948349 0 -0.2124173058737257 0.14341954006611901 0 -0.20517995294037331 0.17379218369948349 0 -0.19274338499996449 0.14807478539393409 0 -0.17830044274374979 0.16244982581953471 0 -0.19150979458678249 0.1243728737611647 0 -0.19274338499996449 0.14807478539393409 0 -0.2124173058737257 0.14341954006611901 0 -0.20994497012605751 0.11823125198409511 0 -0.2235388627286797 0.12965651036182041 0 -0.2124173058737257 0.14341954006611901 0 -0.19150979458678249 0.1243728737611647 0 -0.20994497012605751 0.11823125198409511 0 -0.2124173058737257 0.14341954006611901 0 -0.20517995294037331 0.17379218369948349 0 -0.19274338499996449 0.14807478539393409 0 -0.2124173058737257 0.14341954006611901 0 -0.22371849106378741 0.2462845034026982 0 -0.23019370483249479 0.22382880503591951 0 -0.2066863838603582 0.24242880758937649 0 -0.22371849106378741 0.2462845034026982 0 -0.23951274761537589 0.2474853768326048 0 -0.23019370483249479 0.22382880503591951 0 -0.25272375818517617 0.22994970808158929 0 -0.25621817608628389 0.2460965770837312 0 -0.23951274761537589 0.2474853768326048 0 -0.25370102580463139 0.2052288024824625 0 -0.25272375818517617 0.22994970808158929 0 -0.23019370483249479 0.22382880503591951 0 -0.25272375818517617 0.22994970808158929 0 -0.23951274761537589 0.2474853768326048 0 -0.23019370483249479 0.22382880503591951 0 -0.25370102580463139 0.2052288024824625 0 -0.23359887481107691 0.1809086922627815 0 -0.2201791270054278 0.2018915085508021 0 -0.25370102580463139 0.2052288024824625 0 -0.23019370483249479 0.22382880503591951 0 -0.2201791270054278 0.2018915085508021 0 -0.23019370483249479 0.22382880503591951 0 -0.2201791270054278 0.2018915085508021 0 -0.20675937919977869 0.22287432483882261 0 -0.25370102580463139 0.2052288024824625 0 -0.23019370483249479 0.22382880503591951 0 -0.23359887481107691 0.1809086922627815 0 -0.2201791270054278 0.2018915085508021 0 -0.20517995294037331 0.17379218369948349 0 -0.2201791270054278 0.2018915085508021 0 -0.19686056424972551 0.20437535499954981 0 -0.20517995294037331 0.17379218369948349 0 -0.19686056424972551 0.20437535499954981 0 -0.17870530295493239 0.18804735871836689 0 -0.19686056424972551 0.20437535499954981 0 -0.20675937919977869 0.22287432483882261 0 -0.19122946023172571 0.22600186257262461 0 -0.19686056424972551 0.20437535499954981 0 -0.19122946023172571 0.22600186257262461 0 -0.179110163166115 0.21364489161719899 0 -0.2201791270054278 0.2018915085508021 0 -0.19686056424972551 0.20437535499954981 0 -0.20675937919977869 0.22287432483882261 0 -0.2201791270054278 0.2018915085508021 0 -0.20675937919977869 0.22287432483882261 0 -0.23019370483249479 0.22382880503591951 0 -0.2066863838603582 0.24242880758937649 0 -0.23019370483249479 0.22382880503591951 0 -0.20675937919977869 0.22287432483882261 0 -0.2066863838603582 0.24242880758937649 0 -0.20675937919977869 0.22287432483882261 0 -0.19333963139412971 0.24385714112684301 0 -0.20675937919977869 0.22287432483882261 0 -0.19122946023172571 0.22600186257262461 0 -0.19333963139412971 0.24385714112684301 0 -0.19122946023172571 0.22600186257262461 0 -0.19333963139412971 0.24385714112684301 0 -0.17951502337729761 0.2392424245160312 0 -0.20675937919977869 0.22287432483882261 0 -0.19333963139412971 0.24385714112684301 0 -0.2066863838603582 0.24242880758937649 0 -0.18259587964237009 0.2606558300825601 0 -0.19333963139412971 0.24385714112684301 0 -0.2066863838603582 0.24242880758937649 0 -0.21408768962570049 0.25938306782852782 0 -0.22371849106378741 0.2462845034026982 0 -0.2066863838603582 0.24242880758937649 0 -0.1532221513837192 0.25419418888983192 0 -0.17951502337729761 0.2392424245160312 0 -0.15110003921584569 0.22881829817408891 0 -0.18259587964237009 0.2606558300825601 0 -0.19333963139412971 0.24385714112684301 0 -0.17951502337729761 0.2392424245160312 0 -0.17951502337729761 0.2392424245160312 0 -0.1619547442009632 0.2162214427956837 0 -0.179110163166115 0.21364489161719899 0 -0.19122946023172571 0.22600186257262461 0 -0.17951502337729761 0.2392424245160312 0 -0.179110163166115 0.21364489161719899 0 -0.17951502337729761 0.2392424245160312 0 -0.179110163166115 0.21364489161719899 0 -0.17951502337729761 0.2392424245160312 0 -0.1619547442009632 0.2162214427956837 0 -0.15110003921584569 0.22881829817408891 0 -0.1619547442009632 0.2162214427956837 0 -0.179110163166115 0.21364489161719899 0 -0.17870530295493239 0.18804735871836689 0 -0.19686056424972551 0.20437535499954981 0 -0.179110163166115 0.21364489161719899 0 -0.17870530295493239 0.18804735871836689 0 -0.179110163166115 0.21364489161719899 0 -0.17870530295493239 0.18804735871836689 0 -0.1619547442009632 0.2162214427956837 0 -0.17870530295493239 0.18804735871836689 0 -0.15775407484820861 0.18727827749961631 0 -0.14804225966403101 0.20585853828705919 0 -0.15775407484820861 0.18727827749961631 0 -0.13876353146598761 0.18223131465273959 0 -0.1619547442009632 0.2162214427956837 0 -0.14804225966403101 0.20585853828705919 0 -0.15775407484820861 0.18727827749961631 0 -0.13876353146598761 0.18223131465273959 0 -0.1245765098090509 0.17966052017845999 0 -0.1190175871807343 0.20067046473278771 0 -0.14804225966403101 0.20585853828705919 0 -0.13876353146598761 0.18223131465273959 0 -0.1190175871807343 0.20067046473278771 0 -0.14804225966403101 0.20585853828705919 0 -0.13479108425045189 0.2189379304695287 0 -0.1190175871807343 0.20067046473278771 0 -0.13479108425045189 0.2189379304695287 0 -0.12594818007053379 0.2253828658525201 0 -0.1190175871807343 0.20067046473278771 0 -0.1619547442009632 0.2162214427956837 0 -0.14804225966403101 0.20585853828705919 0 -0.15110003921584569 0.22881829817408891 0 -0.14804225966403101 0.20585853828705919 0 -0.15110003921584569 0.22881829817408891 0 -0.13479108425045189 0.2189379304695287 0 -0.15110003921584569 0.22881829817408891 0 -0.13479108425045189 0.2189379304695287 0 -0.1378537507735782 0.22769286600650679 0 -0.15110003921584569 0.22881829817408891 0 -0.1378537507735782 0.22769286600650679 0 -0.13827307027013019 0.2362506378269415 0 -0.13479108425045189 0.2189379304695287 0 -0.12594818007053379 0.2253828658525201 0 -0.1378537507735782 0.22769286600650679 0 -0.12594818007053379 0.2253828658525201 0 -0.1378537507735782 0.22769286600650679 0 -0.13827307027013019 0.2362506378269415 0 -0.12594818007053379 0.2253828658525201 0 -0.13827307027013019 0.2362506378269415 0 -0.1327712538659816 0.24971188635390451 0 -0.12594818007053379 0.2253828658525201 0 -0.1327712538659816 0.24971188635390451 0 -0.1532221513837192 0.25419418888983192 0 -0.15110003921584569 0.22881829817408891 0 -0.13827307027013019 0.2362506378269415 0 -0.1532221513837192 0.25419418888983192 0 -0.13827307027013019 0.2362506378269415 0 -0.1327712538659816 0.24971188635390451 0 -0.16317411874061041 0.14897554401654969 0 -0.16113979031376621 0.12743058591966341 0 -0.1447888583061562 0.1436064118174607 0 -0.16317411874061041 0.14897554401654969 0 -0.16113979031376621 0.12743058591966341 0 -0.17789558253256721 0.1368522929207025 0 -0.17749072232138041 0.1112547600218704 0 -0.16113979031376621 0.12743058591966341 0 -0.17789558253256721 0.1368522929207025 0 -0.19150979458678249 0.1243728737611647 0 -0.19274338499996449 0.14807478539393409 0 -0.17789558253256721 0.1368522929207025 0 -0.16317411874061041 0.14897554401654969 0 -0.17789558253256721 0.1368522929207025 0 -0.17830044274374979 0.16244982581953471 0 -0.17789558253256721 0.1368522929207025 0 -0.17830044274374979 0.16244982581953471 0 -0.19274338499996449 0.14807478539393409 0 -0.17789558253256721 0.1368522929207025 0 -0.17830044274374979 0.16244982581953471 0 -0.20517995294037331 0.17379218369948349 0 -0.17870530295493239 0.18804735871836689 0 -0.17830044274374979 0.16244982581953471 0 -0.17870530295493239 0.18804735871836689 0 -0.17830044274374979 0.16244982581953471 0 -0.17870530295493239 0.18804735871836689 0 -0.17830044274374979 0.16244982581953471 0 -0.15775407484820861 0.18727827749961631 0 -0.17830044274374979 0.16244982581953471 0 -0.15775407484820861 0.18727827749961631 0 -0.15245232938168229 0.1648839185887534 0 -0.16317411874061041 0.14897554401654969 0 -0.17830044274374979 0.16244982581953471 0 -0.15245232938168229 0.1648839185887534 0 -0.15775407484820861 0.18727827749961631 0 -0.15245232938168229 0.1648839185887534 0 -0.13876353146598761 0.18223131465273959 0 -0.13876353146598761 0.18223131465273959 0 -0.12843792629854631 0.15978223771525801 0 -0.1245765098090509 0.17966052017845999 0 -0.15245232938168229 0.1648839185887534 0 -0.13876353146598761 0.18223131465273959 0 -0.12843792629854631 0.15978223771525801 0 -0.12843792629854631 0.15978223771525801 0 -0.1447888583061562 0.1436064118174607 0 -0.12843792629854631 0.15978223771525801 0 -0.1447888583061562 0.1436064118174607 0 -0.1204435081575875 0.14623213693654391 0 -0.16317411874061041 0.14897554401654969 0 -0.15245232938168229 0.1648839185887534 0 -0.1447888583061562 0.1436064118174607 0 -0.15245232938168229 0.1648839185887534 0 -0.12843792629854631 0.15978223771525801 0 -0.1447888583061562 0.1436064118174607 0 -0.16113979031376621 0.12743058591966341 0 -0.1447888583061562 0.1436064118174607 0 -0.14300315410871919 0.1253406317882016 0 -0.16113979031376621 0.12743058591966341 0 -0.1447888583061562 0.1436064118174607 0 -0.1447888583061562 0.1436064118174607 0 -0.12687331202938101 0.13192737382428379 0 -0.1204435081575875 0.14623213693654391 0 -0.1447888583061562 0.1436064118174607 0 -0.14300315410871919 0.1253406317882016 0 -0.12687331202938101 0.13192737382428379 0 -0.12687331202938101 0.13192737382428379 0 -0.1130049083687871 0.13722853083192951 0 -0.10667563132183119 0.1260080396076822 0 -0.12687331202938101 0.13192737382428379 0 -0.1130049083687871 0.13722853083192951 0 -0.1204435081575875 0.14623213693654391 0 -0.10667563132183119 0.1260080396076822 0 -0.081978849477511453 0.1384377215961772 0 -0.096577670607123245 0.1239972751083621 0 -0.10667563132183119 0.1260080396076822 0 -0.1008242758955458 0.1385116675773613 0 -0.081978849477511453 0.1384377215961772 0 -0.10667563132183119 0.1260080396076822 0 -0.081978849477511453 0.1384377215961772 0 -0.1130049083687871 0.13722853083192951 0 -0.10667563132183119 0.1260080396076822 0 -0.1008242758955458 0.1385116675773613 0 -0.1130049083687871 0.13722853083192951 0 -0.1008242758955458 0.1385116675773613 0 -0.1078791741402548 0.14587794917826699 0 -0.094422293866394627 0.1556947047027778 0 -0.094582816169344081 0.14500609667275041 0 -0.1078791741402548 0.14587794917826699 0 -0.1008242758955458 0.1385116675773613 0 -0.094582816169344081 0.14500609667275041 0 -0.1078791741402548 0.14587794917826699 0 -0.12843792629854631 0.15978223771525801 0 -0.1204435081575875 0.14623213693654391 0 -0.1073217141416921 0.15896651377475199 0 -0.1078791741402548 0.14587794917826699 0 -0.1204435081575875 0.14623213693654391 0 -0.1073217141416921 0.15896651377475199 0 -0.1130049083687871 0.13722853083192951 0 -0.1078791741402548 0.14587794917826699 0 -0.1204435081575875 0.14623213693654391 0 -0.12843792629854631 0.15978223771525801 0 -0.1245765098090509 0.17966052017845999 0 -0.1120869942909358 0.17595806361305491 0 -0.1120869942909358 0.17595806361305491 0 -0.1073217141416921 0.15896651377475199 0 -0.12843792629854631 0.15978223771525801 0 -0.1120869942909358 0.17595806361305491 0 -0.12843792629854631 0.15978223771525801 0 -0.1120869942909358 0.17595806361305491 0 -0.1073217141416921 0.15896651377475199 0 -0.1245765098090509 0.17966052017845999 0 -0.1120869942909358 0.17595806361305491 0 -0.1190175871807343 0.20067046473278771 0 -0.1120869942909358 0.17595806361305491 0 -0.1020860412129876 0.1687304780430319 0 -0.095149617161195271 0.19271405424946009 0 -0.1020860412129876 0.1687304780430319 0 -0.095149617161195271 0.19271405424946009 0 -0.1120869942909358 0.17595806361305491 0 -0.095149617161195271 0.19271405424946009 0 -0.1020860412129876 0.1687304780430319 0 -0.093279947424905002 0.17994671451597891 0 -0.095149617161195271 0.19271405424946009 0 -0.1020860412129876 0.1687304780430319 0 -0.089956478385260899 0.16811851343374709 0 -0.093279947424905002 0.17994671451597891 0 -0.094422293866394627 0.1556947047027778 0 -0.1078791741402548 0.14587794917826699 0 -0.1020860412129876 0.1687304780430319 0 -0.1078791741402548 0.14587794917826699 0 -0.1073217141416921 0.15896651377475199 0 -0.1020860412129876 0.1687304780430319 0 -0.1120869942909358 0.17595806361305491 0 -0.1073217141416921 0.15896651377475199 0 -0.1020860412129876 0.1687304780430319 0 -0.1078791741402548 0.14587794917826699 0 -0.1020860412129876 0.1687304780430319 0 -0.094422293866394627 0.1556947047027778 0 -0.1020860412129876 0.1687304780430319 0 -0.089956478385260899 0.16811851343374709 0 -0.094422293866394627 0.1556947047027778 0 -0.089956478385260899 0.16811851343374709 0 -0.084742563178951485 0.15922574422532609 0 -0.089956478385260899 0.16811851343374709 0 -0.080023232193096983 0.1657260639694961 0 -0.084742563178951485 0.15922574422532609 0 -0.089956478385260899 0.16811851343374709 0 -0.080023232193096983 0.1657260639694961 0 -0.081293191825158789 0.17801619480298669 0 -0.080023232193096983 0.1657260639694961 0 -0.084742563178951485 0.15922574422532609 0 -0.074930767296401246 0.15918989644816289 0 -0.081293191825158789 0.17801619480298669 0 -0.095149617161195271 0.19271405424946009 0 -0.073474196407973841 0.19079473501472519 0 -0.081293191825158789 0.17801619480298669 0 -0.095149617161195271 0.19271405424946009 0 -0.093279947424905002 0.17994671451597891 0 -0.081293191825158789 0.17801619480298669 0 -0.095149617161195271 0.19271405424946009 0 -0.089956478385260899 0.16811851343374709 0 -0.093279947424905002 0.17994671451597891 0 -0.081293191825158789 0.17801619480298669 0 -0.064604308801312821 0.18244611143699499 0 -0.069549912031587807 0.17131438064227461 0 -0.073474196407973841 0.19079473501472519 0 -0.081293191825158789 0.17801619480298669 0 -0.069549912031587807 0.17131438064227461 0 -0.073474196407973841 0.19079473501472519 0 -0.069549912031587807 0.17131438064227461 0 -0.073474196407973841 0.19079473501472519 0 -0.064604308801312821 0.18244611143699499 0 -0.069549912031587807 0.17131438064227461 0 -0.062041409668937363 0.1723934095439342 0 -0.084742563178951485 0.15922574422532609 0 -0.074930767296401246 0.15918989644816289 0 -0.074588176879671189 0.15080810715310269 0 -0.080023232193096983 0.1657260639694961 0 -0.074930767296401246 0.15918989644816289 0 -0.06743676648912228 0.16331833535651319 0 -0.081293191825158789 0.17801619480298669 0 -0.069549912031587807 0.17131438064227461 0 -0.06743676648912228 0.16331833535651319 0 -0.080023232193096983 0.1657260639694961 0 -0.081293191825158789 0.17801619480298669 0 -0.06743676648912228 0.16331833535651319 0 -0.081293191825158789 0.17801619480298669 0 -0.06743676648912228 0.16331833535651319 0 -0.069549912031587807 0.17131438064227461 0 -0.062031688412593149 0.16441565219234799 0 -0.062041409668937363 0.1723934095439342 0 -0.069549912031587807 0.17131438064227461 0 -0.06743676648912228 0.16331833535651319 0 -0.062031688412593149 0.16441565219234799 0 -0.06743676648912228 0.16331833535651319 0 -0.06725389334219653 0.15771987894696021 0 -0.062031688412593149 0.16441565219234799 0 -0.074930767296401246 0.15918989644816289 0 -0.06743676648912228 0.16331833535651319 0 -0.06725389334219653 0.15771987894696021 0 -0.081978849477511453 0.1384377215961772 0 -0.05728206763319247 0.1508674035846734 0 -0.06725389334219653 0.15771987894696021 0 -0.074588176879671189 0.15080810715310269 0 -0.05728206763319247 0.1508674035846734 0 -0.074588176879671189 0.15080810715310269 0 -0.081978849477511453 0.1384377215961772 0 -0.05728206763319247 0.1508674035846734 0 -0.081978849477511453 0.1384377215961772 0 -0.06070043620975589 0.134524720015781 0 -0.05728206763319247 0.1508674035846734 0 -0.074930767296401246 0.15918989644816289 0 -0.06725389334219653 0.15771987894696021 0 -0.074588176879671189 0.15080810715310269 0 -0.071786582042575819 0.1280585334591178 0 -0.081978849477511453 0.1384377215961772 0 -0.08034823769671974 0.121089655777625 0 -0.071786582042575819 0.1280585334591178 0 -0.081978849477511453 0.1384377215961772 0 -0.06070043620975589 0.134524720015781 0 -0.071786582042575819 0.1280585334591178 0 -0.06070043620975589 0.134524720015781 0 -0.06411880478631618 0.11818203644688791 0 -0.081978849477511453 0.1384377215961772 0 -0.08034823769671974 0.121089655777625 0 -0.096577670607123245 0.1239972751083621 0 -0.1008242758955458 0.1385116675773613 0 -0.094582816169344081 0.14500609667275041 0 -0.081978849477511453 0.1384377215961772 0 -0.094582816169344081 0.14500609667275041 0 -0.081978849477511453 0.1384377215961772 0 -0.0854808471676783 0.14892295327365951 0 -0.094422293866394627 0.1556947047027778 0 -0.084742563178951485 0.15922574422532609 0 -0.0854808471676783 0.14892295327365951 0 -0.094422293866394627 0.1556947047027778 0 -0.094582816169344081 0.14500609667275041 0 -0.0854808471676783 0.14892295327365951 0 -0.084742563178951485 0.15922574422532609 0 -0.074588176879671189 0.15080810715310269 0 -0.0854808471676783 0.14892295327365951 0 -0.074588176879671189 0.15080810715310269 0 -0.081978849477511453 0.1384377215961772 0 -0.0854808471676783 0.14892295327365951 0 -0.1045487088169635 0.24438495162540061 0 -0.11455994162881621 0.23631135170566109 0 -0.098826177075254387 0.23394696074010041 0 -0.10005120432924321 0.25626016583208688 0 -0.094679029848152713 0.24609146959404629 0 -0.1045487088169635 0.24438495162540061 0 -0.094679029848152713 0.24609146959404629 0 -0.1045487088169635 0.24438495162540061 0 -0.098826177075254387 0.23394696074010041 0 -0.116744543106582 0.25728181003509248 0 -0.1045487088169635 0.24438495162540061 0 -0.11455994162881621 0.23631135170566109 0 -0.116744543106582 0.25728181003509248 0 -0.1327712538659816 0.24971188635390451 0 -0.11455994162881621 0.23631135170566109 0 -0.12594818007053379 0.2253828658525201 0 -0.1327712538659816 0.24971188635390451 0 -0.11455994162881621 0.23631135170566109 0 -0.11455994162881621 0.23631135170566109 0 -0.1144435087069731 0.2232582902708152 0 -0.1063794885369051 0.22193246116811141 0 -0.12594818007053379 0.2253828658525201 0 -0.1144435087069731 0.2232582902708152 0 -0.1108864245916369 0.20940648235696879 0 -0.12594818007053379 0.2253828658525201 0 -0.11455994162881621 0.23631135170566109 0 -0.1144435087069731 0.2232582902708152 0 -0.11455994162881621 0.23631135170566109 0 -0.1063794885369051 0.22193246116811141 0 -0.098826177075254387 0.23394696074010041 0 -0.1063794885369051 0.22193246116811141 0 -0.098826177075254387 0.23394696074010041 0 -0.089950704149474564 0.21660149084549701 0 -0.1063794885369051 0.22193246116811141 0 -0.089950704149474564 0.21660149084549701 0 -0.10053720550511509 0.21148400771379949 0 -0.095149617161195271 0.19271405424946009 0 -0.089950704149474564 0.21660149084549701 0 -0.1063794885369051 0.22193246116811141 0 -0.10053720550511509 0.21148400771379949 0 -0.089950704149474564 0.21660149084549701 0 -0.10053720550511509 0.21148400771379949 0 -0.1108864245916369 0.20940648235696879 0 -0.095149617161195271 0.19271405424946009 0 -0.1063794885369051 0.22193246116811141 0 -0.10053720550511509 0.21148400771379949 0 -0.1108864245916369 0.20940648235696879 0 -0.12594818007053379 0.2253828658525201 0 -0.1190175871807343 0.20067046473278771 0 -0.12594818007053379 0.2253828658525201 0 -0.1108864245916369 0.20940648235696879 0 -0.1190175871807343 0.20067046473278771 0 -0.12594818007053379 0.2253828658525201 0 -0.1108864245916369 0.20940648235696879 0 -0.1144435087069731 0.2232582902708152 0 -0.1063794885369051 0.22193246116811141 0 -0.1108864245916369 0.20940648235696879 0 -0.1120869942909358 0.17595806361305491 0 -0.1190175871807343 0.20067046473278771 0 -0.1108864245916369 0.20940648235696879 0 -0.1190175871807343 0.20067046473278771 0 -0.10682171669235439 0.1942096232944058 0 -0.1120869942909358 0.17595806361305491 0 -0.1190175871807343 0.20067046473278771 0 -0.10682171669235439 0.1942096232944058 0 -0.1108864245916369 0.20940648235696879 0 -0.095149617161195271 0.19271405424946009 0 -0.1108864245916369 0.20940648235696879 0 -0.10682171669235439 0.1942096232944058 0 -0.095149617161195271 0.19271405424946009 0 -0.1120869942909358 0.17595806361305491 0 -0.10682171669235439 0.1942096232944058 0 -0.095149617161195271 0.19271405424946009 0 -0.095149617161195271 0.19271405424946009 0 -0.077398480784349299 0.2102750893871779 0 -0.095149617161195271 0.19271405424946009 0 -0.073474196407973841 0.19079473501472519 0 -0.077398480784349299 0.2102750893871779 0 -0.095149617161195271 0.19271405424946009 0 -0.077398480784349299 0.2102750893871779 0 -0.087241526055590657 0.20514135106535239 0 -0.073474196407973841 0.19079473501472519 0 -0.077398480784349299 0.2102750893871779 0 -0.073474196407973841 0.19079473501472519 0 -0.077398480784349299 0.2102750893871779 0 -0.068984895145132993 0.20348567813270921 0 -0.064604308801312821 0.18244611143699499 0 -0.073474196407973841 0.19079473501472519 0 -0.062951628171730722 0.19451437844324071 0 -0.073474196407973841 0.19079473501472519 0 -0.062951628171730722 0.19451437844324071 0 -0.068984895145132993 0.20348567813270921 0 -0.062951628171730722 0.19451437844324071 0 -0.068984895145132993 0.20348567813270921 0 -0.057478398324341332 0.20606456403591589 0 -0.068984895145132993 0.20348567813270921 0 -0.075683327299925024 0.21197187487555791 0 -0.057478398324341332 0.20606456403591589 0 -0.075683327299925024 0.21197187487555791 0 -0.060700713784132942 0.2267940359372384 0 -0.057478398324341332 0.20606456403591589 0 -0.075683327299925024 0.21197187487555791 0 -0.057478398324341332 0.20606456403591589 0 -0.077398480784349299 0.2102750893871779 0 -0.068984895145132993 0.20348567813270921 0 -0.075683327299925024 0.21197187487555791 0 -0.075683327299925024 0.21197187487555791 0 -0.077884159070199604 0.2126860219832131 0 -0.060700713784132942 0.2267940359372384 0 -0.075683327299925024 0.21197187487555791 0 -0.077884159070199604 0.2126860219832131 0 -0.077398480784349299 0.2102750893871779 0 -0.075683327299925024 0.21197187487555791 0 -0.077884159070199604 0.2126860219832131 0 -0.077398480784349299 0.2102750893871779 0 -0.077884159070199604 0.2126860219832131 0 -0.077398480784349299 0.2102750893871779 0 -0.075683327299925024 0.21197187487555791 0 -0.077884159070199604 0.2126860219832131 0 -0.089950704149474564 0.21660149084549701 0 -0.077884159070199604 0.2126860219832131 0 -0.087241526055590657 0.20514135106535239 0 -0.089950704149474564 0.21660149084549701 0 -0.095149617161195271 0.19271405424946009 0 -0.087241526055590657 0.20514135106535239 0 -0.089950704149474564 0.21660149084549701 0 -0.095149617161195271 0.19271405424946009 0 -0.089950704149474564 0.21660149084549701 0 -0.077398480784349299 0.2102750893871779 0 -0.077884159070199604 0.2126860219832131 0 -0.087241526055590657 0.20514135106535239 0 -0.077884159070199604 0.2126860219832131 0 -0.083666647235009842 0.24139059785004849 0 -0.089950704149474564 0.21660149084549701 0 -0.083666647235009842 0.24139059785004849 0 -0.077884159070199604 0.2126860219832131 0 -0.089950704149474564 0.21660149084549701 0 -0.083666647235009842 0.24139059785004849 0 -0.098826177075254387 0.23394696074010041 0 -0.089950704149474564 0.21660149084549701 0 -0.083666647235009842 0.24139059785004849 0 -0.077884159070199604 0.2126860219832131 0 -0.083666647235009842 0.24139059785004849 0 -0.060700713784132942 0.2267940359372384 0 -0.075683327299925024 0.21197187487555791 0 -0.060700713784132942 0.2267940359372384 0 -0.064077212627390134 0.24851538469076631 0 -0.083666647235009842 0.24139059785004849 0 -0.060700713784132942 0.2267940359372384 0 -0.086302411784292182 0.25447467192259482 0 -0.083666647235009842 0.24139059785004849 0 -0.094679029848152713 0.24609146959404629 0 -0.098826177075254387 0.23394696074010041 0 -0.083666647235009842 0.24139059785004849 0 -0.086302411784292182 0.25447467192259482 0 -0.094679029848152713 0.24609146959404629 0 -0.083666647235009842 0.24139059785004849 0 -0.03068766995985707 0.25286978792993342 0 -0.034335222642673788 0.23481172099035691 0 -0.046578861792199937 0.24361118962503389 0 -0.034335222642673788 0.23481172099035691 0 -0.046578861792199937 0.24361118962503389 0 -0.045510089746351297 0.2289623102588538 0 -0.064077212627390134 0.24851538469076631 0 -0.046578861792199937 0.24361118962503389 0 -0.055802081643016588 0.23164020743468811 0 -0.064077212627390134 0.24851538469076631 0 -0.055802081643016588 0.23164020743468811 0 -0.060700713784132942 0.2267940359372384 0 -0.064077212627390134 0.24851538469076631 0 -0.060700713784132942 0.2267940359372384 0 -0.046578861792199937 0.24361118962503389 0 -0.055802081643016588 0.23164020743468811 0 -0.045510089746351297 0.2289623102588538 0 -0.055802081643016588 0.23164020743468811 0 -0.053252725762674542 0.2222055350902031 0 -0.045510089746351297 0.2289623102588538 0 -0.055802081643016588 0.23164020743468811 0 -0.060700713784132942 0.2267940359372384 0 -0.053252725762674542 0.2222055350902031 0 -0.055802081643016588 0.23164020743468811 0 -0.060700713784132942 0.2267940359372384 0 -0.053252725762674542 0.2222055350902031 0 -0.045510089746351297 0.2289623102588538 0 -0.046772345315528908 0.21756655778431969 0 -0.045510089746351297 0.2289623102588538 0 -0.036443083940353373 0.22210497005765251 0 -0.046772345315528908 0.21756655778431969 0 -0.034335222642673788 0.23481172099035691 0 -0.045510089746351297 0.2289623102588538 0 -0.036443083940353373 0.22210497005765251 0 -0.034335222642673788 0.23481172099035691 0 -0.036443083940353373 0.22210497005765251 0 -0.024866254401544021 0.22078734426404351 0 -0.036443083940353373 0.22210497005765251 0 -0.046772345315528908 0.21756655778431969 0 -0.031637039445344017 0.19767931081015269 0 -0.046772345315528908 0.21756655778431969 0 -0.057478398324341332 0.20606456403591589 0 -0.031637039445344017 0.19767931081015269 0 -0.060700713784132942 0.2267940359372384 0 -0.053252725762674542 0.2222055350902031 0 -0.057478398324341332 0.20606456403591589 0 -0.060700713784132942 0.2267940359372384 0 -0.057478398324341332 0.20606456403591589 0 -0.053252725762674542 0.2222055350902031 0 -0.046772345315528908 0.21756655778431969 0 -0.057478398324341332 0.20606456403591589 0 -0.062951628171730722 0.19451437844324071 0 -0.057478398324341332 0.20606456403591589 0 -0.054948738746262903 0.1897910154656581 0 -0.057478398324341332 0.20606456403591589 0 -0.054948738746262903 0.1897910154656581 0 -0.031637039445344017 0.19767931081015269 0 -0.057478398324341332 0.20606456403591589 0 -0.054948738746262903 0.1897910154656581 0 -0.054948738746262903 0.1897910154656581 0 -0.031637039445344017 0.19767931081015269 0 -0.039999697082172873 0.18418677263352329 0 -0.057478398324341332 0.20606456403591589 0 -0.031637039445344017 0.19767931081015269 0 -0.031637039445344017 0.19767931081015269 0 -0.0057956805663459468 0.1892940575843915 0 -0.031637039445344017 0.19767931081015269 0 -0.0057956805663459468 0.1892940575843915 0 -0.024775833668462071 0.17590936267321361 0 -0.031637039445344017 0.19767931081015269 0 -0.0057956805663459468 0.1892940575843915 0 -0.01019634689217482 0.20814994011246479 0 -0.0057956805663459468 0.1892940575843915 0 -0.01019634689217482 0.20814994011246479 0 0.0090806704795409685 0.20996839310177981 0 -0.01019634689217482 0.20814994011246479 0 0.00014186162909880781 0.2338185852574263 0 0.0090806704795409685 0.20996839310177981 0 -0.036443083940353373 0.22210497005765251 0 -0.031637039445344017 0.19767931081015269 0 -0.024866254401544021 0.22078734426404351 0 -0.031637039445344017 0.19767931081015269 0 -0.01019634689217482 0.20814994011246479 0 -0.024866254401544021 0.22078734426404351 0 -0.034335222642673788 0.23481172099035691 0 -0.024866254401544021 0.22078734426404351 0 -0.01991034591062427 0.239405390953495 0 -0.024866254401544021 0.22078734426404351 0 0.00014186162909880781 0.2338185852574263 0 -0.024866254401544021 0.22078734426404351 0 -0.01991034591062427 0.239405390953495 0 0.00014186162909880781 0.2338185852574263 0 -0.01019634689217482 0.20814994011246479 0 -0.024866254401544021 0.22078734426404351 0 0.00014186162909880781 0.2338185852574263 0 -0.0098044441781452579 0.25473951632571468 0 0.00014186162909880781 0.2338185852574263 0 0.0073806355134042019 0.25529449578482938 0 -0.0098044441781452579 0.25473951632571468 0 -0.01991034591062427 0.239405390953495 0 0.00014186162909880781 0.2338185852574263 0 -0.03068766995985707 0.25286978792993342 0 -0.034335222642673788 0.23481172099035691 0 -0.01991034591062427 0.239405390953495 0 -0.03068766995985707 0.25286978792993342 0 -0.0098044441781452579 0.25473951632571468 0 -0.01991034591062427 0.239405390953495 0 -0.045513089216113363 0.1481501368583191 0 -0.039963318838929777 0.1583549670989208 0 -0.028048700007850699 0.14601834090005769 0 -0.045513089216113363 0.1481501368583191 0 -0.037584816749385713 0.12707105787504261 0 -0.028048700007850699 0.14601834090005769 0 -0.037584816749385713 0.12707105787504261 0 -0.028048700007850699 0.14601834090005769 0 -0.045513089216113363 0.1481501368583191 0 -0.037584816749385713 0.12707105787504261 0 -0.045513089216113363 0.1481501368583191 0 -0.037584816749385713 0.12707105787504261 0 -0.049753839012929922 0.13582205838018921 0 -0.037584816749385713 0.12707105787504261 0 -0.049753839012929922 0.13582205838018921 0 -0.051208231868337763 0.1260313133231428 0 -0.049753839012929922 0.13582205838018921 0 -0.06070043620975589 0.134524720015781 0 -0.052276118599972977 0.1457036522838337 0 -0.051208231868337763 0.1260313133231428 0 -0.06070043620975589 0.134524720015781 0 -0.06411880478631618 0.11818203644688791 0 -0.06070043620975589 0.134524720015781 0 -0.06411880478631618 0.11818203644688791 0 -0.049753839012929922 0.13582205838018921 0 -0.051208231868337763 0.1260313133231428 0 -0.06070043620975589 0.134524720015781 0 -0.06070043620975589 0.134524720015781 0 -0.052276118599972977 0.1457036522838337 0 -0.05728206763319247 0.1508674035846734 0 -0.06070043620975589 0.134524720015781 0 -0.05728206763319247 0.1508674035846734 0 -0.045513089216113363 0.1481501368583191 0 -0.049753839012929922 0.13582205838018921 0 -0.052276118599972977 0.1457036522838337 0 -0.045513089216113363 0.1481501368583191 0 -0.052276118599972977 0.1457036522838337 0 -0.053440893212920608 0.15280063427064891 0 -0.052276118599972977 0.1457036522838337 0 -0.053440893212920608 0.15280063427064891 0 -0.05728206763319247 0.1508674035846734 0 -0.053440893212920608 0.15280063427064891 0 -0.05728206763319247 0.1508674035846734 0 -0.05728206763319247 0.1508674035846734 0 -0.062031688412593149 0.16441565219234799 0 -0.053441361682841117 0.16922921584159559 0 -0.053440893212920608 0.15280063427064891 0 -0.05728206763319247 0.1508674035846734 0 -0.053441361682841117 0.16922921584159559 0 -0.045513089216113363 0.1481501368583191 0 -0.053440893212920608 0.15280063427064891 0 -0.053441361682841117 0.16922921584159559 0 -0.045513089216113363 0.1481501368583191 0 -0.053441361682841117 0.16922921584159559 0 -0.05728206763319247 0.1508674035846734 0 -0.053441361682841117 0.16922921584159559 0 -0.06725389334219653 0.15771987894696021 0 -0.05728206763319247 0.1508674035846734 0 -0.062031688412593149 0.16441565219234799 0 -0.062031688412593149 0.16441565219234799 0 -0.053441361682841117 0.16922921584159559 0 -0.062041409668937363 0.1723934095439342 0 -0.053441361682841117 0.16922921584159559 0 -0.047633738945979477 0.17108968717192211 0 -0.039963318838929777 0.1583549670989208 0 -0.052991971448818453 0.17137768000779441 0 -0.053441361682841117 0.16922921584159559 0 -0.047633738945979477 0.17108968717192211 0 -0.052991971448818453 0.17137768000779441 0 -0.053441361682841117 0.16922921584159559 0 -0.054948738746262903 0.1897910154656581 0 -0.052419079168185397 0.17351746689540021 0 -0.046888846475854867 0.17837904804597579 0 -0.062951628171730722 0.19451437844324071 0 -0.054948738746262903 0.1897910154656581 0 -0.052419079168185397 0.17351746689540021 0 -0.062951628171730722 0.19451437844324071 0 -0.052991971448818453 0.17137768000779441 0 -0.052419079168185397 0.17351746689540021 0 -0.064604308801312821 0.18244611143699499 0 -0.062951628171730722 0.19451437844324071 0 -0.053441361682841117 0.16922921584159559 0 -0.062951628171730722 0.19451437844324071 0 -0.052991971448818453 0.17137768000779441 0 -0.053441361682841117 0.16922921584159559 0 -0.054948738746262903 0.1897910154656581 0 -0.052419079168185397 0.17351746689540021 0 -0.062951628171730722 0.19451437844324071 0 -0.053441361682841117 0.16922921584159559 0 -0.064604308801312821 0.18244611143699499 0 -0.053441361682841117 0.16922921584159559 0 -0.062041409668937363 0.1723934095439342 0 -0.052991971448818453 0.17137768000779441 0 -0.047633738945979477 0.17108968717192211 0 -0.052419079168185397 0.17351746689540021 0 -0.047633738945979477 0.17108968717192211 0 -0.052419079168185397 0.17351746689540021 0 -0.046888846475854867 0.17837904804597579 0 -0.054948738746262903 0.1897910154656581 0 -0.046888846475854867 0.17837904804597579 0 -0.039999697082172873 0.18418677263352329 0 -0.031637039445344017 0.19767931081015269 0 -0.039999697082172873 0.18418677263352329 0 -0.024775833668462071 0.17590936267321361 0 -0.046888846475854867 0.17837904804597579 0 -0.039999697082172873 0.18418677263352329 0 -0.039442978436673673 0.17331029806337539 0 -0.047633738945979477 0.17108968717192211 0 -0.046888846475854867 0.17837904804597579 0 -0.039442978436673673 0.17331029806337539 0 -0.039442978436673673 0.17331029806337539 0 -0.032139483942643897 0.16694135859911591 0 -0.024775833668462071 0.17590936267321361 0 -0.039999697082172873 0.18418677263352329 0 -0.039442978436673673 0.17331029806337539 0 -0.024775833668462071 0.17590936267321361 0 -0.045513089216113363 0.1481501368583191 0 -0.053441361682841117 0.16922921584159559 0 -0.039963318838929777 0.1583549670989208 0 -0.039963318838929777 0.1583549670989208 0 -0.032139483942643897 0.16694135859911591 0 -0.02343924065842673 0.15869802647678349 0 -0.047633738945979477 0.17108968717192211 0 -0.039442978436673673 0.17331029806337539 0 -0.039963318838929777 0.1583549670989208 0 -0.039442978436673673 0.17331029806337539 0 -0.039963318838929777 0.1583549670989208 0 -0.032139483942643897 0.16694135859911591 0 -0.032139483942643897 0.16694135859911591 0 -0.02343924065842673 0.15869802647678349 0 -0.024775833668462071 0.17590936267321361 0 -0.02343924065842673 0.15869802647678349 0 -0.024775833668462071 0.17590936267321361 0 -0.0048034666842798916 0.1614245706846468 0 -0.0057956805663459468 0.1892940575843915 0 -0.024775833668462071 0.17590936267321361 0 -0.0048034666842798916 0.1614245706846468 0 -0.0048034666842798916 0.1614245706846468 0 -0.01090464080839405 0.14353955890474629 0 0.011098566836083609 0.13484946890849181 0 -0.02343924065842673 0.15869802647678349 0 -0.0048034666842798916 0.1614245706846468 0 -0.01090464080839405 0.14353955890474629 0 -0.039963318838929777 0.1583549670989208 0 -0.02343924065842673 0.15869802647678349 0 -0.028048700007850699 0.14601834090005769 0 -0.02343924065842673 0.15869802647678349 0 -0.01090464080839405 0.14353955890474629 0 -0.028048700007850699 0.14601834090005769 0 -0.037584816749385713 0.12707105787504261 0 -0.0187932077553963 0.1304023687453105 0 -0.02482114599867602 0.1199028763409456 0 -0.01090464080839405 0.14353955890474629 0 -0.028048700007850699 0.14601834090005769 0 -0.0187932077553963 0.1304023687453105 0 -0.037584816749385713 0.12707105787504261 0 -0.028048700007850699 0.14601834090005769 0 -0.0187932077553963 0.1304023687453105 0 -0.0064436606074630637 0.13109611639504981 0 -0.007175360702145514 0.1155930690216506 0 0.011098566836083609 0.13484946890849181 0 -0.01090464080839405 0.14353955890474629 0 -0.0064436606074630637 0.13109611639504981 0 0.011098566836083609 0.13484946890849181 0 -0.0187932077553963 0.1304023687453105 0 -0.0064436606074630637 0.13109611639504981 0 -0.007175360702145514 0.1155930690216506 0 -0.01090464080839405 0.14353955890474629 0 -0.0187932077553963 0.1304023687453105 0 -0.0064436606074630637 0.13109611639504981 0 -0.007175360702145514 0.1155930690216506 0 -0.0040088977147468936 0.097024336429998151 0 -0.013655752966245171 0.094180689311720855 0 -0.007175360702145514 0.1155930690216506 0 -0.0040088977147468936 0.097024336429998151 0 0.0025937760044158291 0.1064596481343341 0 -0.007175360702145514 0.1155930690216506 0 -0.013655752966245171 0.094180689311720855 0 -0.02544928824037461 0.096336669134809427 0 -0.029459919491476121 0.1011230655410132 0 -0.021580178673492881 0.1105609364200745 0 -0.037915498494119543 0.10215930426450601 0 -0.007175360702145514 0.1155930690216506 0 -0.02544928824037461 0.096336669134809427 0 -0.007175360702145514 0.1155930690216506 0 -0.02544928824037461 0.096336669134809427 0 -0.0241566231860777 0.1021061234229471 0 -0.02544928824037461 0.096336669134809427 0 -0.029459919491476121 0.1011230655410132 0 -0.035034026511796899 0.0954599165668297 0 -0.02544928824037461 0.096336669134809427 0 -0.029459919491476121 0.1011230655410132 0 -0.0241566231860777 0.1021061234229471 0 -0.02544928824037461 0.096336669134809427 0 -0.0241566231860777 0.1021061234229471 0 -0.029459919491476121 0.1011230655410132 0 -0.0241566231860777 0.1021061234229471 0 -0.021580178673492881 0.1105609364200745 0 -0.02482114599867602 0.1199028763409456 0 -0.021580178673492881 0.1105609364200745 0 -0.032585978911933711 0.11378053360982859 0 -0.007175360702145514 0.1155930690216506 0 -0.0241566231860777 0.1021061234229471 0 -0.021580178673492881 0.1105609364200745 0 -0.0187932077553963 0.1304023687453105 0 -0.007175360702145514 0.1155930690216506 0 -0.02482114599867602 0.1199028763409456 0 -0.007175360702145514 0.1155930690216506 0 -0.02482114599867602 0.1199028763409456 0 -0.021580178673492881 0.1105609364200745 0 -0.01109578586274463 0.07592966442077155 0 -0.01963881101933795 0.057650575484614511 0 -0.0089029190745683329 0.062319161291970238 0 -0.0031702267477386531 0.067180855403790804 0 -0.01109578586274463 0.07592966442077155 0 0.0065236609159091173 0.071671444604676282 0 -0.0031702267477386531 0.067180855403790804 0 -0.0089029190745683329 0.062319161291970238 0 0.00079413703044923156 0.058803151297745167 0 -0.0031702267477386531 0.067180855403790804 0 -0.01109578586274463 0.07592966442077155 0 -0.0089029190745683329 0.062319161291970238 0 -0.0040088977147468936 0.097024336429998151 0 -0.01109578586274463 0.07592966442077155 0 0.011643404763696401 0.092949868607662828 0 -0.0040088977147468936 0.097024336429998151 0 -0.013655752966245171 0.094180689311720855 0 -0.01109578586274463 0.07592966442077155 0 -0.013655752966245171 0.094180689311720855 0 -0.01109578586274463 0.07592966442077155 0 -0.02054943231121421 0.086019707551374502 0 -0.02544928824037461 0.096336669134809427 0 -0.02054943231121421 0.086019707551374502 0 -0.029642132364781061 0.077623064684345475 0 -0.02544928824037461 0.096336669134809427 0 -0.029642132364781061 0.077623064684345475 0 -0.036673455980692451 0.084509049595857907 0 -0.01109578586274463 0.07592966442077155 0 -0.02054943231121421 0.086019707551374502 0 -0.029642132364781061 0.077623064684345475 0 -0.02544928824037461 0.096336669134809427 0 -0.029642132364781061 0.077623064684345475 0 -0.013655752966245171 0.094180689311720855 0 -0.02544928824037461 0.096336669134809427 0 -0.02054943231121421 0.086019707551374502 0 -0.02544928824037461 0.096336669134809427 0 -0.036673455980692451 0.084509049595857907 0 -0.01109578586274463 0.07592966442077155 0 -0.033834976489186493 0.058909460233881362 0 -0.01109578586274463 0.07592966442077155 0 -0.029642132364781061 0.077623064684345475 0 -0.033834976489186493 0.058909460233881362 0 -0.01109578586274463 0.07592966442077155 0 -0.033834976489186493 0.058909460233881362 0 -0.01963881101933795 0.057650575484614511 0 -0.029642132364781061 0.077623064684345475 0 -0.033834976489186493 0.058909460233881362 0 -0.029642132364781061 0.077623064684345475 0 -0.036732086871232597 0.066761861307427367 0 -0.033834976489186493 0.058909460233881362 0 -0.042969512877196837 0.063698159366550891 0 -0.036732086871232597 0.066761861307427367 0 -0.038306240480512441 0.072768089837317376 0 -0.042969512877196837 0.063698159366550891 0 -0.038306240480512441 0.072768089837317376 0 -0.046136221960229658 0.070392563092827029 0 -0.042969512877196837 0.063698159366550891 0 -0.036732086871232597 0.066761861307427367 0 -0.038907572144486188 0.060810532415041758 0 -0.029642132364781061 0.077623064684345475 0 -0.036732086871232597 0.066761861307427367 0 -0.038306240480512441 0.072768089837317376 0 -0.038306240480512441 0.072768089837317376 0 -0.046136221960229658 0.070392563092827029 0 -0.043586306971417507 0.077534071189344175 0 -0.038306240480512441 0.072768089837317376 0 -0.043586306971417507 0.077534071189344175 0 -0.036673455980692451 0.084509049595857907 0 -0.043586306971417507 0.077534071189344175 0 -0.036673455980692451 0.084509049595857907 0 -0.046978765451358998 0.084182386091036676 0 -0.029642132364781061 0.077623064684345475 0 -0.038306240480512441 0.072768089837317376 0 -0.036673455980692451 0.084509049595857907 0 -0.02544928824037461 0.096336669134809427 0 -0.036673455980692451 0.084509049595857907 0 -0.035034026511796899 0.0954599165668297 0 -0.036673455980692451 0.084509049595857907 0 -0.044089979176562301 0.093675305350012283 0 -0.035034026511796899 0.0954599165668297 0 -0.036673455980692451 0.084509049595857907 0 -0.044089979176562301 0.093675305350012283 0 -0.046978765451358998 0.084182386091036676 0 -0.044089979176562301 0.093675305350012283 0 -0.057144835734191893 0.088207312209507505 0 -0.046978765451358998 0.084182386091036676 0 -0.057144835734191893 0.088207312209507505 0 -0.046978765451358998 0.084182386091036676 0 -0.053399249393930842 0.076986192110461482 0 -0.043586306971417507 0.077534071189344175 0 -0.046978765451358998 0.084182386091036676 0 -0.053399249393930842 0.076986192110461482 0 -0.053399249393930842 0.076986192110461482 0 -0.070406408885084593 0.061857930521202607 0 -0.059815066152941319 0.061788281472960463 0 -0.057144835734191893 0.088207312209507505 0 -0.053399249393930842 0.076986192110461482 0 -0.070406408885084593 0.061857930521202607 0 -0.046136221960229658 0.070392563092827029 0 -0.043586306971417507 0.077534071189344175 0 -0.053399249393930842 0.076986192110461482 0 -0.046136221960229658 0.070392563092827029 0 -0.053399249393930842 0.076986192110461482 0 -0.05257832837313995 0.068950164376806455 0 -0.053399249393930842 0.076986192110461482 0 -0.05257832837313995 0.068950164376806455 0 -0.059815066152941319 0.061788281472960463 0 -0.05257832837313995 0.068950164376806455 0 -0.052166049838275927 0.062310195238599278 0 -0.059815066152941319 0.061788281472960463 0 -0.046136221960229658 0.070392563092827029 0 -0.05257832837313995 0.068950164376806455 0 -0.052166049838275927 0.062310195238599278 0 -0.042969512877196837 0.063698159366550891 0 -0.046136221960229658 0.070392563092827029 0 -0.052166049838275927 0.062310195238599278 0 -0.021580178673492881 0.1105609364200745 0 -0.043883262583300407 0.11455669389781301 0 -0.021580178673492881 0.1105609364200745 0 -0.043883262583300407 0.11455669389781301 0 -0.032585978911933711 0.11378053360982859 0 -0.037584816749385713 0.12707105787504261 0 -0.051208231868337763 0.1260313133231428 0 -0.043883262583300407 0.11455669389781301 0 -0.037584816749385713 0.12707105787504261 0 -0.043883262583300407 0.11455669389781301 0 -0.037584816749385713 0.12707105787504261 0 -0.032585978911933711 0.11378053360982859 0 -0.037584816749385713 0.12707105787504261 0 -0.043883262583300407 0.11455669389781301 0 -0.032585978911933711 0.11378053360982859 0 -0.037584816749385713 0.12707105787504261 0 -0.02482114599867602 0.1199028763409456 0 -0.032585978911933711 0.11378053360982859 0 -0.021580178673492881 0.1105609364200745 0 -0.043883262583300407 0.11455669389781301 0 -0.037915498494119543 0.10215930426450601 0 -0.044089979176562301 0.093675305350012283 0 -0.043883262583300407 0.11455669389781301 0 -0.037915498494119543 0.10215930426450601 0 -0.044089979176562301 0.093675305350012283 0 -0.037915498494119543 0.10215930426450601 0 -0.035034026511796899 0.0954599165668297 0 -0.029459919491476121 0.1011230655410132 0 -0.037915498494119543 0.10215930426450601 0 -0.035034026511796899 0.0954599165668297 0 -0.044089979176562301 0.093675305350012283 0 -0.057144835734191893 0.088207312209507505 0 -0.043883262583300407 0.11455669389781301 0 -0.057144835734191893 0.088207312209507505 0 -0.043883262583300407 0.11455669389781301 0 -0.057144835734191893 0.088207312209507505 0 -0.043883262583300407 0.11455669389781301 0 -0.056175626513735713 0.104231459755559 0 -0.056175626513735713 0.104231459755559 0 -0.061770267295803899 0.1005995653590098 0 -0.06411880478631618 0.11818203644688791 0 -0.057144835734191893 0.088207312209507505 0 -0.056175626513735713 0.104231459755559 0 -0.061770267295803899 0.1005995653590098 0 -0.043883262583300407 0.11455669389781301 0 -0.06411880478631618 0.11818203644688791 0 -0.051208231868337763 0.1260313133231428 0 -0.043883262583300407 0.11455669389781301 0 -0.06411880478631618 0.11818203644688791 0 -0.043883262583300407 0.11455669389781301 0 -0.056175626513735713 0.104231459755559 0 -0.06411880478631618 0.11818203644688791 0 -0.071786582042575819 0.1280585334591178 0 -0.06411880478631618 0.11818203644688791 0 -0.08034823769671974 0.121089655777625 0 -0.06411880478631618 0.11818203644688791 0 -0.08034823769671974 0.121089655777625 0 -0.075381325115152609 0.106019298300689 0 -0.06411880478631618 0.11818203644688791 0 -0.08034823769671974 0.121089655777625 0 -0.08034823769671974 0.121089655777625 0 -0.096577670607123245 0.1239972751083621 0 -0.08034823769671974 0.121089655777625 0 -0.092569001324263961 0.1124699312803344 0 -0.096577670607123245 0.1239972751083621 0 -0.08034823769671974 0.121089655777625 0 -0.083967771981719092 0.1102844810624737 0 -0.092569001324263961 0.1124699312803344 0 -0.08034823769671974 0.121089655777625 0 -0.083967771981719092 0.1102844810624737 0 -0.075381325115152609 0.106019298300689 0 -0.087572523790740042 0.10155903889124659 0 -0.082071947835387321 0.094412947715560025 0 -0.09233625647768956 0.091651488650119919 0 -0.083967771981719092 0.1102844810624737 0 -0.092569001324263961 0.1124699312803344 0 -0.087572523790740042 0.10155903889124659 0 -0.083967771981719092 0.1102844810624737 0 -0.087572523790740042 0.10155903889124659 0 -0.075381325115152609 0.106019298300689 0 -0.087572523790740042 0.10155903889124659 0 -0.082071947835387321 0.094412947715560025 0 -0.075381325115152609 0.106019298300689 0 -0.06411880478631618 0.11818203644688791 0 -0.06964180214897181 0.091777453024084701 0 -0.082071947835387321 0.094412947715560025 0 -0.075381325115152609 0.106019298300689 0 -0.06964180214897181 0.091777453024084701 0 -0.06411880478631618 0.11818203644688791 0 -0.075381325115152609 0.106019298300689 0 -0.06964180214897181 0.091777453024084701 0 -0.061770267295803899 0.1005995653590098 0 -0.06411880478631618 0.11818203644688791 0 -0.06964180214897181 0.091777453024084701 0 -0.057144835734191893 0.088207312209507505 0 -0.061770267295803899 0.1005995653590098 0 -0.06964180214897181 0.091777453024084701 0 -0.06964180214897181 0.091777453024084701 0 -0.075164799511626648 0.065372869601281192 0 -0.057144835734191893 0.088207312209507505 0 -0.06964180214897181 0.091777453024084701 0 -0.068089461569968729 0.076803891339018993 0 -0.06964180214897181 0.091777453024084701 0 -0.068089461569968729 0.076803891339018993 0 -0.075164799511626648 0.065372869601281192 0 -0.057144835734191893 0.088207312209507505 0 -0.068089461569968729 0.076803891339018993 0 -0.070406408885084593 0.061857930521202607 0 -0.06964180214897181 0.091777453024084701 0 -0.075164799511626648 0.065372869601281192 0 -0.08073347634316104 0.073575546631144614 0 -0.057144835734191893 0.088207312209507505 0 -0.070406408885084593 0.061857930521202607 0 -0.068089461569968729 0.076803891339018993 0 -0.075164799511626648 0.065372869601281192 0 -0.070406408885084593 0.061857930521202607 0 -0.089923560922876636 0.068178037636278263 0 -0.08578586832533959 0.082170087930996366 0 -0.103675070998617 0.083967309240415983 0 -0.08073347634316104 0.073575546631144614 0 -0.089923560922876636 0.068178037636278263 0 -0.083186879645449088 0.059889597987781727 0 -0.075164799511626648 0.065372869601281192 0 -0.08073347634316104 0.073575546631144614 0 -0.083186879645449088 0.059889597987781727 0 -0.08073347634316104 0.073575546631144614 0 -0.089923560922876636 0.068178037636278263 0 -0.08578586832533959 0.082170087930996366 0 -0.06964180214897181 0.091777453024084701 0 -0.08073347634316104 0.073575546631144614 0 -0.08578586832533959 0.082170087930996366 0 -0.082071947835387321 0.094412947715560025 0 -0.06964180214897181 0.091777453024084701 0 -0.08578586832533959 0.082170087930996366 0 -0.082071947835387321 0.094412947715560025 0 -0.08578586832533959 0.082170087930996366 0 -0.09233625647768956 0.091651488650119919 0 -0.09233625647768956 0.091651488650119919 0 -0.103675070998617 0.083967309240415983 0 -0.10429444750695741 0.1014886749251958 0 -0.08578586832533959 0.082170087930996366 0 -0.09233625647768956 0.091651488650119919 0 -0.103675070998617 0.083967309240415983 0 -0.103675070998617 0.083967309240415983 0 -0.1198812247159142 0.095002477965890675 0 -0.10429444750695741 0.1014886749251958 0 -0.089923560922876636 0.068178037636278263 0 -0.103675070998617 0.083967309240415983 0 -0.10785209906359081 0.065371441260914459 0 -0.12533951967512769 0.078274991835817334 0 -0.103675070998617 0.083967309240415983 0 -0.10785209906359081 0.065371441260914459 0 -0.12533951967512769 0.078274991835817334 0 -0.10785209906359081 0.065371441260914459 0 -0.1248745965026067 0.059896082918310993 0 -0.12533951967512769 0.078274991835817334 0 -0.103675070998617 0.083967309240415983 0 -0.1198812247159142 0.095002477965890675 0 -0.13137241316615089 0.11357835761918721 0 -0.1198812247159142 0.095002477965890675 0 -0.10429444750695741 0.1014886749251958 0 -0.13137241316615089 0.11357835761918721 0 -0.12687331202938101 0.13192737382428379 0 -0.10667563132183119 0.1260080396076822 0 -0.13137241316615089 0.11357835761918721 0 -0.10667563132183119 0.1260080396076822 0 -0.1062978327852654 0.11550845570815239 0 -0.13137241316615089 0.11357835761918721 0 -0.1062978327852654 0.11550845570815239 0 -0.10429444750695741 0.1014886749251958 0 -0.13137241316615089 0.11357835761918721 0 -0.10667563132183119 0.1260080396076822 0 -0.10667563132183119 0.1260080396076822 0 -0.1062978327852654 0.11550845570815239 0 -0.096577670607123245 0.1239972751083621 0 -0.092569001324263961 0.1124699312803344 0 -0.1062978327852654 0.11550845570815239 0 -0.096577670607123245 0.1239972751083621 0 -0.092569001324263961 0.1124699312803344 0 -0.1062978327852654 0.11550845570815239 0 -0.10429444750695741 0.1014886749251958 0 -0.092569001324263961 0.1124699312803344 0 -0.087572523790740042 0.10155903889124659 0 -0.10429444750695741 0.1014886749251958 0 -0.087572523790740042 0.10155903889124659 0 -0.09233625647768956 0.091651488650119919 0 -0.10429444750695741 0.1014886749251958 0 -0.10370969952600501 0.019997694726909911 0 -0.098524362227562057 0.035744340183224317 0 -0.08645931971955316 0.02325136753113614 0 -0.10370969952600501 0.019997694726909911 0 -0.08645931971955316 0.02325136753113614 0 -0.091682611010439896 0.0063963380850077774 0 -0.10370969952600501 0.019997694726909911 0 -0.1180188049733784 0.030804183747700629 0 -0.098524362227562057 0.035744340183224317 0 -0.10370969952600501 0.019997694726909911 0 -0.10877227824827949 0.0075748546359299482 0 -0.091682611010439896 0.0063963380850077774 0 -0.1029392013539359 -0.0085751277431150782 0 -0.10877227824827949 0.0075748546359299482 0 -0.091682611010439896 0.0063963380850077774 0 -0.10370969952600501 0.019997694726909911 0 -0.10877227824827949 0.0075748546359299482 0 -0.11835839359799651 0.016938700943610479 0 -0.1029392013539359 -0.0085751277431150782 0 -0.12735709500343681 0.004015926865657337 0 -0.10877227824827949 0.0075748546359299482 0 -0.12735709500343681 0.004015926865657337 0 -0.10877227824827949 0.0075748546359299482 0 -0.11835839359799651 0.016938700943610479 0 -0.1339340902388827 0.022300844741854581 0 -0.11835839359799651 0.016938700943610479 0 -0.1180188049733784 0.030804183747700629 0 -0.10370969952600501 0.019997694726909911 0 -0.11835839359799651 0.016938700943610479 0 -0.1180188049733784 0.030804183747700629 0 -0.1180188049733784 0.030804183747700629 0 -0.1128457876968547 0.048091259023394652 0 -0.098524362227562057 0.035744340183224317 0 -0.13626681081840961 0.042829268155062397 0 -0.1128457876968547 0.048091259023394652 0 -0.13626681081840961 0.042829268155062397 0 -0.1180188049733784 0.030804183747700629 0 -0.1128457876968547 0.048091259023394652 0 -0.13626681081840961 0.042829268155062397 0 -0.1128457876968547 0.048091259023394652 0 -0.1248745965026067 0.059896082918310993 0 -0.10785209906359081 0.065371441260914459 0 -0.1128457876968547 0.048091259023394652 0 -0.1248745965026067 0.059896082918310993 0 -0.1128457876968547 0.048091259023394652 0 -0.089424764575299687 0.053353249891726941 0 -0.089923560922876636 0.068178037636278263 0 -0.10785209906359081 0.065371441260914459 0 -0.089424764575299687 0.053353249891726941 0 -0.10785209906359081 0.065371441260914459 0 -0.1128457876968547 0.048091259023394652 0 -0.089424764575299687 0.053353249891726941 0 -0.1128457876968547 0.048091259023394652 0 -0.098524362227562057 0.035744340183224317 0 -0.089424764575299687 0.053353249891726941 0 -0.098524362227562057 0.035744340183224317 0 -0.080687796874281473 0.038968286178477703 0 -0.08645931971955316 0.02325136753113614 0 -0.098524362227562057 0.035744340183224317 0 -0.080687796874281473 0.038968286178477703 0 -0.089424764575299687 0.053353249891726941 0 -0.080687796874281473 0.038968286178477703 0 -0.089424764575299687 0.053353249891726941 0 -0.083186879645449088 0.059889597987781727 0 -0.075164799511626648 0.065372869601281192 0 -0.080687796874281473 0.038968286178477703 0 -0.083186879645449088 0.059889597987781727 0 -0.089923560922876636 0.068178037636278263 0 -0.089424764575299687 0.053353249891726941 0 -0.083186879645449088 0.059889597987781727 0 -0.075164799511626648 0.065372869601281192 0 -0.080687796874281473 0.038968286178477703 0 -0.071303082845968715 0.053347503409362687 0 -0.075164799511626648 0.065372869601281192 0 -0.080687796874281473 0.038968286178477703 0 -0.075164799511626648 0.065372869601281192 0 -0.070406408885084593 0.061857930521202607 0 -0.071303082845968715 0.053347503409362687 0 -0.071303082845968715 0.053347503409362687 0 -0.064856269609628314 0.055117702274744398 0 -0.065400139349222536 0.045420728471107522 0 -0.070406408885084593 0.061857930521202607 0 -0.071303082845968715 0.053347503409362687 0 -0.064856269609628314 0.055117702274744398 0 -0.070406408885084593 0.061857930521202607 0 -0.064856269609628314 0.055117702274744398 0 -0.059815066152941319 0.061788281472960463 0 -0.080687796874281473 0.038968286178477703 0 -0.065400139349222536 0.045420728471107522 0 -0.063264057366842208 0.031259222641012697 0 -0.080687796874281473 0.038968286178477703 0 -0.063264057366842208 0.031259222641012697 0 -0.073460039823911166 0.024685388153665749 0 -0.080687796874281473 0.038968286178477703 0 -0.071303082845968715 0.053347503409362687 0 -0.065400139349222536 0.045420728471107522 0 -0.063264057366842208 0.031259222641012697 0 -0.073460039823911166 0.024685388153665749 0 -0.061440697951084179 0.017621877449499421 0 -0.073460039823911166 0.024685388153665749 0 -0.076769634387976737 0.01135693610240161 0 -0.061440697951084179 0.017621877449499421 0 -0.080687796874281473 0.038968286178477703 0 -0.073460039823911166 0.024685388153665749 0 -0.08645931971955316 0.02325136753113614 0 -0.073460039823911166 0.024685388153665749 0 -0.08645931971955316 0.02325136753113614 0 -0.076769634387976737 0.01135693610240161 0 -0.08645931971955316 0.02325136753113614 0 -0.091682611010439896 0.0063963380850077774 0 -0.076769634387976737 0.01135693610240161 0 -0.091682611010439896 0.0063963380850077774 0 -0.078933949510919491 0.00072378658541613432 0 -0.076769634387976737 0.01135693610240161 0 -0.086097875964997059 -0.0058870606910941042 0 -0.091682611010439896 0.0063963380850077774 0 -0.078933949510919491 0.00072378658541613432 0 -0.078933949510919491 0.00072378658541613432 0 -0.076769634387976737 0.01135693610240161 0 -0.068462160169621672 0.0025537029525893409 0 -0.068462160169621672 0.0025537029525893409 0 -0.057836245250817257 0.0062936453779614283 0 -0.061440697951084179 0.017621877449499421 0 -0.076769634387976737 0.01135693610240161 0 -0.068462160169621672 0.0025537029525893409 0 -0.061440697951084179 0.017621877449499421 0 -0.057836245250817257 0.0062936453779614283 0 -0.061440697951084179 0.017621877449499421 0 -0.042678209040760022 0.019440128409622049 0 -0.057836245250817257 0.0062936453779614283 0 -0.042678209040760022 0.019440128409622049 0 -0.044352522143416888 0.0050416822031405977 0 -0.063264057366842208 0.031259222641012697 0 -0.042678209040760022 0.019440128409622049 0 -0.05195897498334151 0.039592758420259042 0 -0.063264057366842208 0.031259222641012697 0 -0.061440697951084179 0.017621877449499421 0 -0.042678209040760022 0.019440128409622049 0 -0.042678209040760022 0.019440128409622049 0 -0.038256592764973757 0.039174794321751791 0 -0.042678209040760022 0.019440128409622049 0 -0.038256592764973757 0.039174794321751791 0 -0.027511467414372541 0.03001296694831072 0 -0.042678209040760022 0.019440128409622049 0 -0.028180513839983729 0.018098474401369 0 -0.027511467414372541 0.03001296694831072 0 -0.042678209040760022 0.019440128409622049 0 -0.032770024037711037 0.0084985419153508525 0 -0.028180513839983729 0.018098474401369 0 -0.032770024037711037 0.0084985419153508525 0 -0.03614709390981162 0.0015378833132510439 0 -0.044352522143416888 0.0050416822031405977 0 -0.029539197120254941 -0.00051038393964639519 0 -0.032770024037711037 0.0084985419153508525 0 -0.03614709390981162 0.0015378833132510439 0 -0.042678209040760022 0.019440128409622049 0 -0.032770024037711037 0.0084985419153508525 0 -0.044352522143416888 0.0050416822031405977 0 -0.042969512877196837 0.063698159366550891 0 -0.047980875447113908 0.056604040506729722 0 -0.052166049838275927 0.062310195238599278 0 -0.047980875447113908 0.056604040506729722 0 -0.052166049838275927 0.062310195238599278 0 -0.055804220694704088 0.051985500715961808 0 -0.064856269609628314 0.055117702274744398 0 -0.059815066152941319 0.061788281472960463 0 -0.055804220694704088 0.051985500715961808 0 -0.052166049838275927 0.062310195238599278 0 -0.059815066152941319 0.061788281472960463 0 -0.055804220694704088 0.051985500715961808 0 -0.064856269609628314 0.055117702274744398 0 -0.065400139349222536 0.045420728471107522 0 -0.055804220694704088 0.051985500715961808 0 -0.047980875447113908 0.056604040506729722 0 -0.055804220694704088 0.051985500715961808 0 -0.046350630683546529 0.050276175962098407 0 -0.055804220694704088 0.051985500715961808 0 -0.05195897498334151 0.039592758420259042 0 -0.046350630683546529 0.050276175962098407 0 -0.065400139349222536 0.045420728471107522 0 -0.055804220694704088 0.051985500715961808 0 -0.05195897498334151 0.039592758420259042 0 -0.065400139349222536 0.045420728471107522 0 -0.063264057366842208 0.031259222641012697 0 -0.05195897498334151 0.039592758420259042 0 -0.042678209040760022 0.019440128409622049 0 -0.05195897498334151 0.039592758420259042 0 -0.038256592764973757 0.039174794321751791 0 -0.05195897498334151 0.039592758420259042 0 -0.038256592764973757 0.039174794321751791 0 -0.046350630683546529 0.050276175962098407 0 -0.038256592764973757 0.039174794321751791 0 -0.033834976489186493 0.058909460233881362 0 -0.038256592764973757 0.039174794321751791 0 -0.038513274033404883 0.055407770980391423 0 -0.033834976489186493 0.058909460233881362 0 -0.038256592764973757 0.039174794321751791 0 -0.046350630683546529 0.050276175962098407 0 -0.038513274033404883 0.055407770980391423 0 -0.038256592764973757 0.039174794321751791 0 -0.033834976489186493 0.058909460233881362 0 -0.02879531395286377 0.050132256585483953 0 -0.046350630683546529 0.050276175962098407 0 -0.038513274033404883 0.055407770980391423 0 -0.042914570065583427 0.057802329486214707 0 -0.036732086871232597 0.066761861307427367 0 -0.033834976489186493 0.058909460233881362 0 -0.038907572144486188 0.060810532415041758 0 -0.038513274033404883 0.055407770980391423 0 -0.033834976489186493 0.058909460233881362 0 -0.038513274033404883 0.055407770980391423 0 -0.033834976489186493 0.058909460233881362 0 -0.038907572144486188 0.060810532415041758 0 -0.042969512877196837 0.063698159366550891 0 -0.038907572144486188 0.060810532415041758 0 -0.042914570065583427 0.057802329486214707 0 -0.038513274033404883 0.055407770980391423 0 -0.038907572144486188 0.060810532415041758 0 -0.042914570065583427 0.057802329486214707 0 -0.047980875447113908 0.056604040506729722 0 -0.046350630683546529 0.050276175962098407 0 -0.042914570065583427 0.057802329486214707 0 -0.042969512877196837 0.063698159366550891 0 -0.047980875447113908 0.056604040506729722 0 -0.042914570065583427 0.057802329486214707 0 -0.033834976489186493 0.058909460233881362 0 -0.01963881101933795 0.057650575484614511 0 -0.02879531395286377 0.050132256585483953 0 -0.01963881101933795 0.057650575484614511 0 -0.02879531395286377 0.050132256585483953 0 -0.02345087553795689 0.044794196301688183 0 -0.01963881101933795 0.057650575484614511 0 -0.02345087553795689 0.044794196301688183 0 -0.012175026131353321 0.050402421608982242 0 -0.02345087553795689 0.044794196301688183 0 -0.014695186475719159 0.0359408453649432 0 -0.012175026131353321 0.050402421608982242 0 -0.038256592764973757 0.039174794321751791 0 -0.02879531395286377 0.050132256585483953 0 -0.02345087553795689 0.044794196301688183 0 -0.038256592764973757 0.039174794321751791 0 -0.02345087553795689 0.044794196301688183 0 -0.027511467414372541 0.03001296694831072 0 -0.02345087553795689 0.044794196301688183 0 -0.014695186475719159 0.0359408453649432 0 -0.027511467414372541 0.03001296694831072 0 -0.014695186475719159 0.0359408453649432 0 -0.0023331541944977092 0.045311556235899067 0 0.00074240361007229996 0.028778475488121531 0 -0.014695186475719159 0.0359408453649432 0 -0.0023331541944977092 0.045311556235899067 0 -0.012175026131353321 0.050402421608982242 0 -0.0023331541944977092 0.045311556235899067 0 -0.012175026131353321 0.050402421608982242 0 0.00079413703044923156 0.058803151297745167 0 -0.012175026131353321 0.050402421608982242 0 -0.0089029190745683329 0.062319161291970238 0 0.00079413703044923156 0.058803151297745167 0 -0.01963881101933795 0.057650575484614511 0 -0.012175026131353321 0.050402421608982242 0 -0.0089029190745683329 0.062319161291970238 0 -0.021996997598287969 0.010981086364913869 0 -0.02112675760807068 0.0030512678310729521 0 -0.0083058662928979787 0.012079608812324741 0 -0.021996997598287969 0.010981086364913869 0 -0.01661374249992489 0.02103319015209278 0 -0.0083058662928979787 0.012079608812324741 0 -0.021996997598287969 0.010981086364913869 0 -0.02112675760807068 0.0030512678310729521 0 -0.02631380729169577 0.0053104208567875946 0 -0.029539197120254941 -0.00051038393964639519 0 -0.02112675760807068 0.0030512678310729521 0 -0.02631380729169577 0.0053104208567875946 0 -0.029539197120254941 -0.00051038393964639519 0 -0.032770024037711037 0.0084985419153508525 0 -0.02631380729169577 0.0053104208567875946 0 -0.032770024037711037 0.0084985419153508525 0 -0.021996997598287969 0.010981086364913869 0 -0.02631380729169577 0.0053104208567875946 0 -0.032770024037711037 0.0084985419153508525 0 -0.021996997598287969 0.010981086364913869 0 -0.028180513839983729 0.018098474401369 0 -0.028180513839983729 0.018098474401369 0 -0.027511467414372541 0.03001296694831072 0 -0.01661374249992489 0.02103319015209278 0 -0.014695186475719159 0.0359408453649432 0 -0.027511467414372541 0.03001296694831072 0 -0.01661374249992489 0.02103319015209278 0 -0.021996997598287969 0.010981086364913869 0 -0.028180513839983729 0.018098474401369 0 -0.01661374249992489 0.02103319015209278 0 -0.01661374249992489 0.02103319015209278 0 0.00074240361007229996 0.028778475488121531 0 -0.0083058662928979787 0.012079608812324741 0 0.0060294939382754481 0.01286563290641534 0 0.00074240361007229996 0.028778475488121531 0 -0.014695186475719159 0.0359408453649432 0 -0.01661374249992489 0.02103319015209278 0 0.00074240361007229996 0.028778475488121531 0 -0.0083058662928979787 0.012079608812324741 0 0.00074240361007229996 0.028778475488121531 0 -0.01661374249992489 0.02103319015209278 0 -0.0083058662928979787 0.012079608812324741 0 0.00074240361007229996 0.028778475488121531 0 -0.0072764121498596901 -0.0036325873431357339 0 -0.0083058662928979787 0.012079608812324741 0 0.0012074066645448821 -0.00065723147797176382 0 -0.0072764121498596901 -0.0036325873431357339 0 -0.013607688627124061 -0.00178224205395049 0 -0.0083058662928979787 0.012079608812324741 0 -0.017354136195868258 -0.0046192578634720229 0 -0.0083058662928979787 0.012079608812324741 0 -0.017354136195868258 -0.0046192578634720229 0 -0.013607688627124061 -0.00178224205395049 0 -0.0083058662928979787 0.012079608812324741 0 -0.0083058662928979787 0.012079608812324741 0 0.0060294939382754481 0.01286563290641534 0 0.0012074066645448821 -0.00065723147797176382 0 -0.017354136195868258 -0.0046192578634720229 0 -0.02112675760807068 0.0030512678310729521 0 -0.0083058662928979787 0.012079608812324741 0 0.0060294939382754481 0.01286563290641534 0 0.0012074066645448821 -0.00065723147797176382 0 0.01265631079038235 -0.01012693536007268 0 0.0060294939382754481 0.01286563290641534 0 0.020311547060899309 0.014329649790385431 0 0.01265631079038235 -0.01012693536007268 0 0.00074240361007229996 0.028778475488121531 0 0.015746539320639769 0.024046632949657649 0 0.022626785018342459 0.038544513255683338 0 0.0060294939382754481 0.01286563290641534 0 0.00074240361007229996 0.028778475488121531 0 0.015746539320639769 0.024046632949657649 0 0.0060294939382754481 0.01286563290641534 0 0.015746539320639769 0.024046632949657649 0 0.020311547060899309 0.014329649790385431 0 0.015746539320639769 0.024046632949657649 0 0.029022466975609298 0.02571489330768258 0 0.020311547060899309 0.014329649790385431 0 0.015746539320639769 0.024046632949657649 0 0.029022466975609298 0.02571489330768258 0 0.022626785018342459 0.038544513255683338 0 0.020311547060899309 0.014329649790385431 0 0.034885408484197772 0.0062912350017927032 0 0.01265631079038235 -0.01012693536007268 0 0.029022466975609298 0.02571489330768258 0 0.020311547060899309 0.014329649790385431 0 0.034885408484197772 0.0062912350017927032 0 0.00079413703044923156 0.058803151297745167 0 0.01366790099406239 0.052632887419703241 0 0.0065236609159091173 0.071671444604676282 0 -0.0023331541944977092 0.045311556235899067 0 0.00079413703044923156 0.058803151297745167 0 0.01366790099406239 0.052632887419703241 0 0.00074240361007229996 0.028778475488121531 0 0.01366790099406239 0.052632887419703241 0 0.022626785018342459 0.038544513255683338 0 0.00074240361007229996 0.028778475488121531 0 0.022626785018342459 0.038544513255683338 0 -0.0023331541944977092 0.045311556235899067 0 0.00074240361007229996 0.028778475488121531 0 0.01366790099406239 0.052632887419703241 0 0.00074240361007229996 0.028778475488121531 0 0.01366790099406239 0.052632887419703241 0 0.029022466975609298 0.02571489330768258 0 0.022626785018342459 0.038544513255683338 0 0.037630953216902623 0.033668105561091018 0 0.01366790099406239 0.052632887419703241 0 0.022626785018342459 0.038544513255683338 0 0.025434983742737761 0.055249644843112657 0 0.022626785018342459 0.038544513255683338 0 0.025434983742737761 0.055249644843112657 0 0.034616451435572633 0.051242168749322393 0 0.025434983742737761 0.055249644843112657 0 0.034062632092931817 0.061255223706808547 0 0.02703491536905472 0.067401080742933134 0 0.01366790099406239 0.052632887419703241 0 0.025434983742737761 0.055249644843112657 0 0.02703491536905472 0.067401080742933134 0 0.034616451435572633 0.051242168749322393 0 0.044511166426612833 0.04831055102324476 0 0.060132464308973767 0.062986029428160187 0 0.034616451435572633 0.051242168749322393 0 0.060132464308973767 0.062986029428160187 0 0.044258496001147778 0.063884183083345675 0 0.034062632092931817 0.061255223706808547 0 0.034616451435572633 0.051242168749322393 0 0.044258496001147778 0.063884183083345675 0 0.025434983742737761 0.055249644843112657 0 0.034062632092931817 0.061255223706808547 0 0.034616451435572633 0.051242168749322393 0 0.022626785018342459 0.038544513255683338 0 0.044511166426612833 0.04831055102324476 0 0.022626785018342459 0.038544513255683338 0 0.034616451435572633 0.051242168749322393 0 0.044511166426612833 0.04831055102324476 0 0.022626785018342459 0.038544513255683338 0 0.044511166426612833 0.04831055102324476 0 0.037630953216902623 0.033668105561091018 0 0.044511166426612833 0.04831055102324476 0 0.037630953216902623 0.033668105561091018 0 0.0484135161167236 0.034205204957136963 0 0.0484135161167236 0.034205204957136963 0 0.060669767880595721 0.038134724015348051 0 0.0518117103670514 0.042737821036878322 0 0.0484135161167236 0.034205204957136963 0 0.060669767880595721 0.038134724015348051 0 0.057623658326613529 0.02352368721002385 0 0.060669767880595721 0.038134724015348051 0 0.0518117103670514 0.042737821036878322 0 0.059559274975242667 0.047504887075434543 0 0.044511166426612833 0.04831055102324476 0 0.0518117103670514 0.042737821036878322 0 0.059559274975242667 0.047504887075434543 0 0.044511166426612833 0.04831055102324476 0 0.0484135161167236 0.034205204957136963 0 0.0518117103670514 0.042737821036878322 0 0.044511166426612833 0.04831055102324476 0 0.066395547834883203 0.05807658879080619 0 0.060132464308973767 0.062986029428160187 0 0.034616451435572633 0.051242168749322393 0 0.060132464308973767 0.062986029428160187 0 0.044511166426612833 0.04831055102324476 0 0.066395547834883203 0.05807658879080619 0 0.044511166426612833 0.04831055102324476 0 0.059559274975242667 0.047504887075434543 0 0.066395547834883203 0.05807658879080619 0 0.034885408484197772 0.0062912350017927032 0 0.052968053050369737 0.0090809173488315582 0 0.042517259973231587 -0.011683923625132649 0 0.034885408484197772 0.0062912350017927032 0 0.043580831547224863 0.021565365261707499 0 0.052968053050369737 0.0090809173488315582 0 0.029022466975609298 0.02571489330768258 0 0.034885408484197772 0.0062912350017927032 0 0.043580831547224863 0.021565365261707499 0 0.029022466975609298 0.02571489330768258 0 0.037630953216902623 0.033668105561091018 0 0.043580831547224863 0.021565365261707499 0 0.037630953216902623 0.033668105561091018 0 0.0484135161167236 0.034205204957136963 0 0.043580831547224863 0.021565365261707499 0 0.057623658326613529 0.02352368721002385 0 0.052968053050369737 0.0090809173488315582 0 0.071708216805815503 0.016768608491387289 0 0.043580831547224863 0.021565365261707499 0 0.057623658326613529 0.02352368721002385 0 0.052968053050369737 0.0090809173488315582 0 0.0484135161167236 0.034205204957136963 0 0.043580831547224863 0.021565365261707499 0 0.057623658326613529 0.02352368721002385 0 0.052968053050369737 0.0090809173488315582 0 0.071708216805815503 0.016768608491387289 0 0.067492943165135169 -0.0019794682467893379 0 0.083930998993742512 0.0059737405228527038 0 0.071708216805815503 0.016768608491387289 0 0.067492943165135169 -0.0019794682467893379 0 0.083930998993742512 0.0059737405228527038 0 0.098495163759696414 0.0029673617968291321 0 0.094917995650245529 0.021722354499223519 0 0.083930998993742512 0.0059737405228527038 0 0.071708216805815503 0.016768608491387289 0 0.094917995650245529 0.021722354499223519 0 0.071708216805815503 0.016768608491387289 0 0.07449934060461412 0.03258063005354956 0 0.094917995650245529 0.021722354499223519 0 0.07449934060461412 0.03258063005354956 0 0.087237150257314613 0.037926204838731957 0 0.094917995650245529 0.021722354499223519 0 0.057623658326613529 0.02352368721002385 0 0.071708216805815503 0.016768608491387289 0 0.07449934060461412 0.03258063005354956 0 0.060669767880595721 0.038134724015348051 0 0.057623658326613529 0.02352368721002385 0 0.07449934060461412 0.03258063005354956 0 0.060669767880595721 0.038134724015348051 0 0.069155187538762042 0.045022305850501279 0 0.07449934060461412 0.03258063005354956 0 0.060669767880595721 0.038134724015348051 0 0.059559274975242667 0.047504887075434543 0 0.069155187538762042 0.045022305850501279 0 0.069155187538762042 0.045022305850501279 0 0.07449934060461412 0.03258063005354956 0 0.079692196512252927 0.044953406994506007 0 0.059559274975242667 0.047504887075434543 0 0.069155187538762042 0.045022305850501279 0 0.067326156772233525 0.050603546620565112 0 0.059559274975242667 0.047504887075434543 0 0.066395547834883203 0.05807658879080619 0 0.067326156772233525 0.050603546620565112 0 0.066395547834883203 0.05807658879080619 0 0.067326156772233525 0.050603546620565112 0 0.074194616740046182 0.051810404765518438 0 0.069155187538762042 0.045022305850501279 0 0.067326156772233525 0.050603546620565112 0 0.074194616740046182 0.051810404765518438 0 0.069155187538762042 0.045022305850501279 0 0.074194616740046182 0.051810404765518438 0 0.079692196512252927 0.044953406994506007 0 0.066395547834883203 0.05807658879080619 0 0.074194616740046182 0.051810404765518438 0 0.080343143758095259 0.058335218209008277 0 0.066395547834883203 0.05807658879080619 0 0.080343143758095259 0.058335218209008277 0 0.08827992924315356 0.067842626558367619 0 0.080343143758095259 0.058335218209008277 0 0.083306510346727383 0.05351440315152866 0 0.090416084875221875 0.058235299142909973 0 0.074194616740046182 0.051810404765518438 0 0.083306510346727383 0.05351440315152866 0 0.079692196512252927 0.044953406994506007 0 0.083306510346727383 0.05351440315152866 0 0.089760373586053266 0.048866493307206167 0 0.079692196512252927 0.044953406994506007 0 0.074194616740046182 0.051810404765518438 0 0.080343143758095259 0.058335218209008277 0 0.083306510346727383 0.05351440315152866 0 0.083306510346727383 0.05351440315152866 0 0.089760373586053266 0.048866493307206167 0 0.090416084875221875 0.058235299142909973 0 0.089760373586053266 0.048866493307206167 0 0.090416084875221875 0.058235299142909973 0 0.099395501669828634 0.055681054702382278 0 0.080343143758095259 0.058335218209008277 0 0.090416084875221875 0.058235299142909973 0 0.08827992924315356 0.067842626558367619 0 0.087237150257314613 0.037926204838731957 0 0.098930039005792711 0.04227996871225087 0 0.094917995650245529 0.021722354499223519 0 0.07449934060461412 0.03258063005354956 0 0.079692196512252927 0.044953406994506007 0 0.087237150257314613 0.037926204838731957 0 0.089760373586053266 0.048866493307206167 0 0.079692196512252927 0.044953406994506007 0 0.087237150257314613 0.037926204838731957 0 0.089760373586053266 0.048866493307206167 0 0.087237150257314613 0.037926204838731957 0 0.098930039005792711 0.04227996871225087 0 0.10894092886672049 0.033503019923715648 0 0.098930039005792711 0.04227996871225087 0 0.11550376979223601 0.054551475820320147 0 0.10894092886672049 0.033503019923715648 0 0.098930039005792711 0.04227996871225087 0 0.094917995650245529 0.021722354499223519 0 0.098930039005792711 0.04227996871225087 0 0.099395501669828634 0.055681054702382278 0 0.11550376979223601 0.054551475820320147 0 0.099395501669828634 0.055681054702382278 0 0.11550376979223601 0.054551475820320147 0 0.10561354398445311 0.069921878226714862 0 0.090416084875221875 0.058235299142909973 0 0.099395501669828634 0.055681054702382278 0 0.095618088847860577 0.065038419849084594 0 0.089760373586053266 0.048866493307206167 0 0.098930039005792711 0.04227996871225087 0 0.099395501669828634 0.055681054702382278 0 0.10894092886672049 0.033503019923715648 0 0.11961069471150609 0.02296590295220987 0 0.12977361784467401 0.039215218793308727 0 0.10894092886672049 0.033503019923715648 0 0.11550376979223601 0.054551475820320147 0 0.12977361784467401 0.039215218793308727 0 0.11961069471150609 0.02296590295220987 0 0.1158546052028349 0.0064685721448778594 0 0.094917995650245529 0.021722354499223519 0 0.11961069471150609 0.02296590295220987 0 0.1158546052028349 0.0064685721448778594 0 0.13894824890776639 0.02136224913872127 0 0.1158546052028349 0.0064685721448778594 0 0.098495163759696414 0.0029673617968291321 0 0.094917995650245529 0.021722354499223519 0 0.10894092886672049 0.033503019923715648 0 0.11961069471150609 0.02296590295220987 0 0.094917995650245529 0.021722354499223519 0 0.097728221435088053 0.099184528615223033 0 0.110275064223293 0.10236359857942121 0 0.11116449005577619 0.086473750785835857 0 0.099894961061174667 0.1104201015940532 0 0.11150799601301251 0.1117412241471519 0 0.110275064223293 0.10236359857942121 0 0.097728221435088053 0.099184528615223033 0 0.099894961061174667 0.1104201015940532 0 0.110275064223293 0.10236359857942121 0 0.097728221435088053 0.099184528615223033 0 0.099894961061174667 0.1104201015940532 0 0.084925795867796111 0.1103515185161017 0 0.099894961061174667 0.1104201015940532 0 0.096984900528893664 0.1212489081817222 0 0.084925795867796111 0.1103515185161017 0 0.099894961061174667 0.1104201015940532 0 0.096984900528893664 0.1212489081817222 0 0.10712684862241641 0.1210429748963526 0 0.096984900528893664 0.1212489081817222 0 0.10712684862241641 0.1210429748963526 0 0.10589272808503949 0.13156516273042271 0 0.099894961061174667 0.1104201015940532 0 0.10712684862241641 0.1210429748963526 0 0.11150799601301251 0.1117412241471519 0 0.10712684862241641 0.1210429748963526 0 0.11150799601301251 0.1117412241471519 0 0.1187293914863337 0.1182846474287873 0 0.11150799601301251 0.1117412241471519 0 0.1187293914863337 0.1182846474287873 0 0.1197878353292403 0.1092484053650479 0 0.10712684862241641 0.1210429748963526 0 0.1187293914863337 0.1182846474287873 0 0.114987521205969 0.1268010028982309 0 0.1187293914863337 0.1182846474287873 0 0.12813823657366311 0.12049833089676459 0 0.12624189261331301 0.1140678077034443 0 0.1187293914863337 0.1182846474287873 0 0.12212988809696081 0.1249307776834532 0 0.12813823657366311 0.12049833089676459 0 0.1187293914863337 0.1182846474287873 0 0.12212988809696081 0.1249307776834532 0 0.114987521205969 0.1268010028982309 0 0.1187293914863337 0.1182846474287873 0 0.1197878353292403 0.1092484053650479 0 0.12624189261331301 0.1140678077034443 0 0.1216961693062274 0.1020981758197984 0 0.110275064223293 0.10236359857942121 0 0.11116449005577619 0.086473750785835857 0 0.1197878353292403 0.1092484053650479 0 0.1216961693062274 0.1020981758197984 0 0.1302764983332621 0.10693497851168419 0 0.1216961693062274 0.1020981758197984 0 0.11116449005577619 0.086473750785835857 0 0.13668050292917741 0.098217611464673699 0 0.1197878353292403 0.1092484053650479 0 0.1216961693062274 0.1020981758197984 0 0.110275064223293 0.10236359857942121 0 0.11150799601301251 0.1117412241471519 0 0.1197878353292403 0.1092484053650479 0 0.110275064223293 0.10236359857942121 0 0.11116449005577619 0.086473750785835857 0 0.1207366242219714 0.074251990558816788 0 0.1300820653953097 0.084166932106396392 0 0.11116449005577619 0.086473750785835857 0 0.13668050292917741 0.098217611464673699 0 0.11116449005577619 0.086473750785835857 0 0.1207366242219714 0.074251990558816788 0 0.10561354398445311 0.069921878226714862 0 0.11550376979223601 0.054551475820320147 0 0.1207366242219714 0.074251990558816788 0 0.13255022158949201 0.068763676371196639 0 0.11550376979223601 0.054551475820320147 0 0.1207366242219714 0.074251990558816788 0 0.10561354398445311 0.069921878226714862 0 0.11116449005577619 0.086473750785835857 0 0.10561354398445311 0.069921878226714862 0 0.085648477182374977 0.074729890106998029 0 0.10561354398445311 0.069921878226714862 0 0.095618088847860577 0.065038419849084594 0 0.085648477182374977 0.074729890106998029 0 0.099395501669828634 0.055681054702382278 0 0.10561354398445311 0.069921878226714862 0 0.095618088847860577 0.065038419849084594 0 0.11116449005577619 0.086473750785835857 0 0.085648477182374977 0.074729890106998029 0 0.11116449005577619 0.086473750785835857 0 0.090808031879269946 0.087622927320568048 0 0.085648477182374977 0.074729890106998029 0 0.097728221435088053 0.099184528615223033 0 0.11116449005577619 0.086473750785835857 0 0.090808031879269946 0.087622927320568048 0 0.097728221435088053 0.099184528615223033 0 0.090808031879269946 0.087622927320568048 0 0.080235742217082393 0.093435287859391092 0 0.090808031879269946 0.087622927320568048 0 0.078675001300488379 0.083882301042573534 0 0.085648477182374977 0.074729890106998029 0 0.090808031879269946 0.087622927320568048 0 0.078675001300488379 0.083882301042573534 0 0.080235742217082393 0.093435287859391092 0 0.066395547834883203 0.05807658879080619 0 0.08827992924315356 0.067842626558367619 0 0.085648477182374977 0.074729890106998029 0 0.095618088847860577 0.065038419849084594 0 0.08827992924315356 0.067842626558367619 0 0.085648477182374977 0.074729890106998029 0 0.090416084875221875 0.058235299142909973 0 0.095618088847860577 0.065038419849084594 0 0.08827992924315356 0.067842626558367619 0 0.066395547834883203 0.05807658879080619 0 0.085648477182374977 0.074729890106998029 0 0.060132464308973767 0.062986029428160187 0 0.066395547834883203 0.05807658879080619 0 0.08827992924315356 0.067842626558367619 0 0.085648477182374977 0.074729890106998029 0 0.068637102026180674 0.07792917868559901 0 0.060132464308973767 0.062986029428160187 0 0.085648477182374977 0.074729890106998029 0 0.060132464308973767 0.062986029428160187 0 0.078675001300488379 0.083882301042573534 0 0.085648477182374977 0.074729890106998029 0 0.068637102026180674 0.07792917868559901 0 0.080235742217082393 0.093435287859391092 0 0.069503799956795384 0.087722797055870286 0 0.068523875558259784 0.095111972458496966 0 0.078675001300488379 0.083882301042573534 0 0.080235742217082393 0.093435287859391092 0 0.069503799956795384 0.087722797055870286 0 0.078675001300488379 0.083882301042573534 0 0.068637102026180674 0.07792917868559901 0 0.069503799956795384 0.087722797055870286 0 0.068637102026180674 0.07792917868559901 0 0.069503799956795384 0.087722797055870286 0 0.060111091978902922 0.083782113849914977 0 0.069503799956795384 0.087722797055870286 0 0.06135777996986308 0.093915161513068182 0 0.060111091978902922 0.083782113849914977 0 0.069503799956795384 0.087722797055870286 0 0.068523875558259784 0.095111972458496966 0 0.06135777996986308 0.093915161513068182 0 0.068523875558259784 0.095111972458496966 0 0.071520258741129425 0.10189571548122769 0 0.062413973273008162 0.1018934272394761 0 0.068523875558259784 0.095111972458496966 0 0.062413973273008162 0.1018934272394761 0 0.06135777996986308 0.093915161513068182 0 0.071520258741129425 0.10189571548122769 0 0.072821304814728441 0.1108529925529516 0 0.063718101814298073 0.11016590081819259 0 0.071520258741129425 0.10189571548122769 0 0.063718101814298073 0.11016590081819259 0 0.062413973273008162 0.1018934272394761 0 0.071520258741129425 0.10189571548122769 0 0.084925795867796111 0.1103515185161017 0 0.072821304814728441 0.1108529925529516 0 0.080235742217082393 0.093435287859391092 0 0.068523875558259784 0.095111972458496966 0 0.071520258741129425 0.10189571548122769 0 0.097728221435088053 0.099184528615223033 0 0.080235742217082393 0.093435287859391092 0 0.084925795867796111 0.1103515185161017 0 0.080235742217082393 0.093435287859391092 0 0.071520258741129425 0.10189571548122769 0 0.084925795867796111 0.1103515185161017 0 0.084925795867796111 0.1103515185161017 0 0.074154959480044275 0.1204842858357125 0 0.087075880893963842 0.12621803440601359 0 0.096984900528893664 0.1212489081817222 0 0.084925795867796111 0.1103515185161017 0 0.087075880893963842 0.12621803440601359 0 0.084925795867796111 0.1103515185161017 0 0.074154959480044275 0.1204842858357125 0 0.072821304814728441 0.1108529925529516 0 0.074154959480044275 0.1204842858357125 0 0.072821304814728441 0.1108529925529516 0 0.063718101814298073 0.11016590081819259 0 0.074154959480044275 0.1204842858357125 0 0.063718101814298073 0.11016590081819259 0 0.060124536552058239 0.11864948812996751 0 0.074154959480044275 0.1204842858357125 0 0.060124536552058239 0.11864948812996751 0 0.061109117960118017 0.12720913792676911 0 0.060124536552058239 0.11864948812996751 0 0.052595679859244633 0.1236025024456274 0 0.054913207086597561 0.11271600588853189 0 0.060124536552058239 0.11864948812996751 0 0.052595679859244633 0.1236025024456274 0 0.061109117960118017 0.12720913792676911 0 0.052595679859244633 0.1236025024456274 0 0.054913207086597561 0.11271600588853189 0 0.046771683079868627 0.1089772416004138 0 0.063718101814298073 0.11016590081819259 0 0.060124536552058239 0.11864948812996751 0 0.054913207086597561 0.11271600588853189 0 0.063718101814298073 0.11016590081819259 0 0.062413973273008162 0.1018934272394761 0 0.053620768430252298 0.1031656988462608 0 0.063718101814298073 0.11016590081819259 0 0.054913207086597561 0.11271600588853189 0 0.053620768430252298 0.1031656988462608 0 0.06135777996986308 0.093915161513068182 0 0.053620768430252298 0.1031656988462608 0 0.051535176025136201 0.090416251810209708 0 0.062413973273008162 0.1018934272394761 0 0.06135777996986308 0.093915161513068182 0 0.053620768430252298 0.1031656988462608 0 0.053620768430252298 0.1031656988462608 0 0.042875633238578528 0.09739353282270094 0 0.051535176025136201 0.090416251810209708 0 0.053620768430252298 0.1031656988462608 0 0.046771683079868627 0.1089772416004138 0 0.042875633238578528 0.09739353282270094 0 0.054913207086597561 0.11271600588853189 0 0.053620768430252298 0.1031656988462608 0 0.046771683079868627 0.1089772416004138 0 0.046771683079868627 0.1089772416004138 0 0.042875633238578528 0.09739353282270094 0 0.034382595390138257 0.1099700727945534 0 0.042875633238578528 0.09739353282270094 0 0.034382595390138257 0.1099700727945534 0 0.030708755379597181 0.088685576768743155 0 0.034382595390138257 0.1099700727945534 0 0.030708755379597181 0.088685576768743155 0 0.052595679859244633 0.1236025024456274 0 0.046771683079868627 0.1089772416004138 0 0.034382595390138257 0.1099700727945534 0 0.034382595390138257 0.1099700727945534 0 0.02520709702204247 0.1232263280856261 0 0.037354296692750887 0.12718670835402709 0 0.052595679859244633 0.1236025024456274 0 0.034382595390138257 0.1099700727945534 0 0.037354296692750887 0.12718670835402709 0 0.034382595390138257 0.1099700727945534 0 0.037354296692750887 0.12718670835402709 0 0.052595679859244633 0.1236025024456274 0 0.034382595390138257 0.1099700727945534 0 0.060132464308973767 0.062986029428160187 0 0.051537231586459821 0.0703604747810012 0 0.044258496001147778 0.063884183083345675 0 0.051537231586459821 0.0703604747810012 0 0.045053238281461433 0.071665999821029613 0 0.044258496001147778 0.063884183083345675 0 0.060132464308973767 0.062986029428160187 0 0.058160070023191839 0.074213970699792686 0 0.051537231586459821 0.0703604747810012 0 0.068637102026180674 0.07792917868559901 0 0.060132464308973767 0.062986029428160187 0 0.058160070023191839 0.074213970699792686 0 0.051537231586459821 0.0703604747810012 0 0.049495561811348857 0.078896267932753172 0 0.045053238281461433 0.071665999821029613 0 0.058160070023191839 0.074213970699792686 0 0.051537231586459821 0.0703604747810012 0 0.049495561811348857 0.078896267932753172 0 0.049495561811348857 0.078896267932753172 0 0.051535176025136201 0.090416251810209708 0 0.041750220721871581 0.085344735896560275 0 0.049495561811348857 0.078896267932753172 0 0.060111091978902922 0.083782113849914977 0 0.051535176025136201 0.090416251810209708 0 0.068637102026180674 0.07792917868559901 0 0.058160070023191839 0.074213970699792686 0 0.060111091978902922 0.083782113849914977 0 0.058160070023191839 0.074213970699792686 0 0.049495561811348857 0.078896267932753172 0 0.060111091978902922 0.083782113849914977 0 0.06135777996986308 0.093915161513068182 0 0.060111091978902922 0.083782113849914977 0 0.051535176025136201 0.090416251810209708 0 0.042875633238578528 0.09739353282270094 0 0.051535176025136201 0.090416251810209708 0 0.041750220721871581 0.085344735896560275 0 0.042875633238578528 0.09739353282270094 0 0.041750220721871581 0.085344735896560275 0 0.030708755379597181 0.088685576768743155 0 0.041750220721871581 0.085344735896560275 0 0.037489048909448763 0.07466528487264068 0 0.030708755379597181 0.088685576768743155 0 0.049495561811348857 0.078896267932753172 0 0.041750220721871581 0.085344735896560275 0 0.037489048909448763 0.07466528487264068 0 0.037489048909448763 0.07466528487264068 0 0.02703491536905472 0.067401080742933134 0 0.030708755379597181 0.088685576768743155 0 0.049495561811348857 0.078896267932753172 0 0.045053238281461433 0.071665999821029613 0 0.037489048909448763 0.07466528487264068 0 0.045053238281461433 0.071665999821029613 0 0.037489048909448763 0.07466528487264068 0 0.037579666130808903 0.067774354445351542 0 0.034062632092931817 0.061255223706808547 0 0.037579666130808903 0.067774354445351542 0 0.02703491536905472 0.067401080742933134 0 0.037489048909448763 0.07466528487264068 0 0.037579666130808903 0.067774354445351542 0 0.02703491536905472 0.067401080742933134 0 0.034062632092931817 0.061255223706808547 0 0.037579666130808903 0.067774354445351542 0 0.044258496001147778 0.063884183083345675 0 0.045053238281461433 0.071665999821029613 0 0.037579666130808903 0.067774354445351542 0 0.044258496001147778 0.063884183083345675 0 0.02703491536905472 0.067401080742933134 0 0.030708755379597181 0.088685576768743155 0 0.01366790099406239 0.052632887419703241 0 0.026593398378051959 0.076487299351285121 0 0.01366790099406239 0.052632887419703241 0 0.02703491536905472 0.067401080742933134 0 0.026593398378051959 0.076487299351285121 0 0.02703491536905472 0.067401080742933134 0 0.026593398378051959 0.076487299351285121 0 0.030708755379597181 0.088685576768743155 0 0.01366790099406239 0.052632887419703241 0 0.026593398378051959 0.076487299351285121 0 0.01611389888654503 0.070322973248010373 0 0.026593398378051959 0.076487299351285121 0 0.01611389888654503 0.070322973248010373 0 0.01767063525815666 0.080500261616376856 0 0.01767063525815666 0.080500261616376856 0 0.030708755379597181 0.088685576768743155 0 0.011643404763696401 0.092949868607662828 0 0.026593398378051959 0.076487299351285121 0 0.01767063525815666 0.080500261616376856 0 0.030708755379597181 0.088685576768743155 0 0.01767063525815666 0.080500261616376856 0 0.011643404763696401 0.092949868607662828 0 0.0065236609159091173 0.071671444604676282 0 -0.01109578586274463 0.07592966442077155 0 0.011643404763696401 0.092949868607662828 0 0.0065236609159091173 0.071671444604676282 0 -0.01109578586274463 0.07592966442077155 0 0.011643404763696401 0.092949868607662828 0 0.01366790099406239 0.052632887419703241 0 0.01611389888654503 0.070322973248010373 0 0.0065236609159091173 0.071671444604676282 0 0.01611389888654503 0.070322973248010373 0 0.01767063525815666 0.080500261616376856 0 0.0065236609159091173 0.071671444604676282 0 -0.0031702267477386531 0.067180855403790804 0 0.00079413703044923156 0.058803151297745167 0 0.0065236609159091173 0.071671444604676282 0 0.034382595390138257 0.1099700727945534 0 0.02520709702204247 0.1232263280856261 0 0.01356063639681436 0.11371506303709419 0 0.02520709702204247 0.1232263280856261 0 0.01356063639681436 0.11371506303709419 0 0.011098566836083609 0.13484946890849181 0 0.034382595390138257 0.1099700727945534 0 0.011643404763696401 0.092949868607662828 0 0.01356063639681436 0.11371506303709419 0 0.034382595390138257 0.1099700727945534 0 0.011643404763696401 0.092949868607662828 0 0.034382595390138257 0.1099700727945534 0 0.030708755379597181 0.088685576768743155 0 0.011643404763696401 0.092949868607662828 0 -0.0040088977147468936 0.097024336429998151 0 0.011643404763696401 0.092949868607662828 0 0.0025937760044158291 0.1064596481343341 0 0.011643404763696401 0.092949868607662828 0 0.0025937760044158291 0.1064596481343341 0 0.01356063639681436 0.11371506303709419 0 -0.007175360702145514 0.1155930690216506 0 0.0025937760044158291 0.1064596481343341 0 0.01356063639681436 0.11371506303709419 0 -0.007175360702145514 0.1155930690216506 0 0.01356063639681436 0.11371506303709419 0 0.011098566836083609 0.13484946890849181 0 -0.007175360702145514 0.1155930690216506 0 0.011098566836083609 0.13484946890849181 0 0.02520709702204247 0.1232263280856261 0 0.011098566836083609 0.13484946890849181 0 0.028759663239593541 0.13617761485890201 0 0.02520709702204247 0.1232263280856261 0 0.028759663239593541 0.13617761485890201 0 0.037354296692750887 0.12718670835402709 0 0.011098566836083609 0.13484946890849181 0 0.029372494374312729 0.15410586879533311 0 0.013538337341477229 0.1636201682865295 0 0.011098566836083609 0.13484946890849181 0 0.028759663239593541 0.13617761485890201 0 0.029372494374312729 0.15410586879533311 0 0.011098566836083609 0.13484946890849181 0 0.029372494374312729 0.15410586879533311 0 -0.0048034666842798916 0.1614245706846468 0 0.011098566836083609 0.13484946890849181 0 0.013538337341477229 0.1636201682865295 0 -0.0057956805663459468 0.1892940575843915 0 -0.0048034666842798916 0.1614245706846468 0 0.013538337341477229 0.1636201682865295 0 -0.0057956805663459468 0.1892940575843915 0 0.013538337341477229 0.1636201682865295 0 0.020045678312652242 0.18090880435863019 0 -0.0057956805663459468 0.1892940575843915 0 0.020045678312652242 0.18090880435863019 0 0.029372494374312729 0.15410586879533311 0 0.013538337341477229 0.1636201682865295 0 0.020045678312652242 0.18090880435863019 0 0.029372494374312729 0.15410586879533311 0 0.045887037191650451 0.17252355113286891 0 0.04813315871709322 0.1541455757588851 0 0.029372494374312729 0.15410586879533311 0 0.020045678312652242 0.18090880435863019 0 0.045887037191650451 0.17252355113286891 0 0.020045678312652242 0.18090880435863019 0 0.045887037191650451 0.17252355113286891 0 0.020045678312652242 0.18090880435863019 0 0.045887037191650451 0.17252355113286891 0 0.041991232206495782 0.1919910870650737 0 0.045887037191650451 0.17252355113286891 0 0.060802696405823108 0.1787365445376432 0 0.041991232206495782 0.1919910870650737 0 0.045887037191650451 0.17252355113286891 0 0.071728396070648653 0.1641382979071076 0 0.045887037191650451 0.17252355113286891 0 0.060802696405823108 0.1787365445376432 0 0.071728396070648653 0.1641382979071076 0 0.045887037191650451 0.17252355113286891 0 0.059657673584757237 0.15824269734654939 0 0.04813315871709322 0.1541455757588851 0 0.045887037191650451 0.17252355113286891 0 0.059657673584757237 0.15824269734654939 0 0.071728396070648653 0.1641382979071076 0 0.059657673584757237 0.15824269734654939 0 0.04813315871709322 0.1541455757588851 0 0.060329678829100349 0.1474246815113264 0 0.04813315871709322 0.1541455757588851 0 0.050215372913412007 0.1458935282758238 0 0.060329678829100349 0.1474246815113264 0 0.050215372913412007 0.1458935282758238 0 0.060329678829100349 0.1474246815113264 0 0.052072656112092337 0.13760051191958289 0 0.050215372913412007 0.1458935282758238 0 0.052072656112092337 0.13760051191958289 0 0.040325997995362128 0.14440334391350099 0 0.060329678829100349 0.1474246815113264 0 0.062159468211553673 0.13737243366585769 0 0.052072656112092337 0.13760051191958289 0 0.062159468211553673 0.13737243366585769 0 0.054733357378362921 0.13083888414419281 0 0.052072656112092337 0.13760051191958289 0 0.052595679859244633 0.1236025024456274 0 0.054733357378362921 0.13083888414419281 0 0.061109117960118017 0.12720913792676911 0 0.062159468211553673 0.13737243366585769 0 0.054733357378362921 0.13083888414419281 0 0.061109117960118017 0.12720913792676911 0 0.052595679859244633 0.1236025024456274 0 0.054733357378362921 0.13083888414419281 0 0.046346625143134958 0.1312929959830558 0 0.054733357378362921 0.13083888414419281 0 0.052072656112092337 0.13760051191958289 0 0.046346625143134958 0.1312929959830558 0 0.037354296692750887 0.12718670835402709 0 0.040325997995362128 0.14440334391350099 0 0.046346625143134958 0.1312929959830558 0 0.037354296692750887 0.12718670835402709 0 0.040325997995362128 0.14440334391350099 0 0.028759663239593541 0.13617761485890201 0 0.037354296692750887 0.12718670835402709 0 0.040325997995362128 0.14440334391350099 0 0.052072656112092337 0.13760051191958289 0 0.046346625143134958 0.1312929959830558 0 0.040325997995362128 0.14440334391350099 0 0.052595679859244633 0.1236025024456274 0 0.046346625143134958 0.1312929959830558 0 0.037354296692750887 0.12718670835402709 0 0.028759663239593541 0.13617761485890201 0 0.029372494374312729 0.15410586879533311 0 0.040325997995362128 0.14440334391350099 0 0.029372494374312729 0.15410586879533311 0 0.04813315871709322 0.1541455757588851 0 0.040325997995362128 0.14440334391350099 0 0.04813315871709322 0.1541455757588851 0 0.050215372913412007 0.1458935282758238 0 0.040325997995362128 0.14440334391350099 0 0.025149977659741599 0.24684982625080901 0 0.00014186162909880781 0.2338185852574263 0 0.02177620002751179 0.22559840920251981 0 0.025149977659741599 0.24684982625080901 0 0.00014186162909880781 0.2338185852574263 0 0.025149977659741599 0.24684982625080901 0 0.00014186162909880781 0.2338185852574263 0 0.0073806355134042019 0.25529449578482938 0 0.00014186162909880781 0.2338185852574263 0 0.02177620002751179 0.22559840920251981 0 0.0090806704795409685 0.20996839310177981 0 0.025149977659741599 0.24684982625080901 0 0.02177620002751179 0.22559840920251981 0 0.039960986899899173 0.22780444499479169 0 0.02177620002751179 0.22559840920251981 0 0.0090806704795409685 0.20996839310177981 0 0.034547503469278373 0.20955079640779209 0 0.0090806704795409685 0.20996839310177981 0 0.02162293693503077 0.1981024475624624 0 0.034547503469278373 0.20955079640779209 0 -0.0057956805663459468 0.1892940575843915 0 0.0090806704795409685 0.20996839310177981 0 0.02162293693503077 0.1981024475624624 0 -0.0057956805663459468 0.1892940575843915 0 0.020045678312652242 0.18090880435863019 0 0.02162293693503077 0.1981024475624624 0 0.020045678312652242 0.18090880435863019 0 0.02162293693503077 0.1981024475624624 0 0.041991232206495782 0.1919910870650737 0 0.02162293693503077 0.1981024475624624 0 0.041991232206495782 0.1919910870650737 0 0.034547503469278373 0.20955079640779209 0 0.041991232206495782 0.1919910870650737 0 0.05849467095877426 0.1965416733816682 0 0.050764695011206777 0.20916964222725651 0 0.060802696405823108 0.1787365445376432 0 0.041991232206495782 0.1919910870650737 0 0.05849467095877426 0.1965416733816682 0 0.050764695011206777 0.20916964222725651 0 0.066981886553135278 0.20878848804672309 0 0.05849467095877426 0.1965416733816682 0 0.050764695011206777 0.20916964222725651 0 0.066981886553135278 0.20878848804672309 0 0.050764695011206777 0.20916964222725651 0 0.061514006406540499 0.23071042489022231 0 0.066981886553135278 0.20878848804672309 0 0.050764695011206777 0.20916964222725651 0 0.034547503469278373 0.20955079640779209 0 0.039960986899899173 0.22780444499479169 0 0.050764695011206777 0.20916964222725651 0 0.034547503469278373 0.20955079640779209 0 0.041991232206495782 0.1919910870650737 0 0.050764695011206777 0.20916964222725651 0 0.034547503469278373 0.20955079640779209 0 0.02177620002751179 0.22559840920251981 0 0.034547503469278373 0.20955079640779209 0 0.039960986899899173 0.22780444499479169 0 0.039960986899899173 0.22780444499479169 0 0.061514006406540499 0.23071042489022231 0 0.045472231705318063 0.24424317023843681 0 0.050764695011206777 0.20916964222725651 0 0.039960986899899173 0.22780444499479169 0 0.061514006406540499 0.23071042489022231 0 0.061514006406540499 0.23071042489022231 0 0.056046126259945157 0.25263236173372139 0 0.061514006406540499 0.23071042489022231 0 0.056046126259945157 0.25263236173372139 0 0.067905867336300579 0.25358800162702 0 0.061514006406540499 0.23071042489022231 0 0.045472231705318063 0.24424317023843681 0 0.056046126259945157 0.25263236173372139 0 0.025149977659741599 0.24684982625080901 0 0.039960986899899173 0.22780444499479169 0 0.045472231705318063 0.24424317023843681 0 0.092857250133516089 0.24175825718487831 0 0.078525547080241467 0.2465942846531784 0 0.093798877441032588 0.2579700649065903 0 0.092857250133516089 0.24175825718487831 0 0.078525547080241467 0.2465942846531784 0 0.081986142109724491 0.22560265144644431 0 0.061514006406540499 0.23071042489022231 0 0.078525547080241467 0.2465942846531784 0 0.067905867336300579 0.25358800162702 0 0.061514006406540499 0.23071042489022231 0 0.078525547080241467 0.2465942846531784 0 0.081986142109724491 0.22560265144644431 0 0.061514006406540499 0.23071042489022231 0 0.081986142109724491 0.22560265144644431 0 0.066981886553135278 0.20878848804672309 0 0.061514006406540499 0.23071042489022231 0 0.066981886553135278 0.20878848804672309 0 0.081986142109724491 0.22560265144644431 0 0.09236794217301933 0.20819183719001669 0 0.066981886553135278 0.20878848804672309 0 0.09236794217301933 0.20819183719001669 0 0.066981886553135278 0.20878848804672309 0 0.09236794217301933 0.20819183719001669 0 0.066981886553135278 0.20878848804672309 0 0.071445073857882777 0.19089458628000441 0 0.060802696405823108 0.1787365445376432 0 0.05849467095877426 0.1965416733816682 0 0.071445073857882777 0.19089458628000441 0 0.066981886553135278 0.20878848804672309 0 0.071445073857882777 0.19089458628000441 0 0.05849467095877426 0.1965416733816682 0 0.066981886553135278 0.20878848804672309 0 0.071445073857882777 0.19089458628000441 0 0.09236794217301933 0.20819183719001669 0 0.071445073857882777 0.19089458628000441 0 0.086464584236575506 0.1862285865309723 0 0.09236794217301933 0.20819183719001669 0 0.086464584236575506 0.1862285865309723 0 0.1023855527362314 0.18749689463882899 0 0.09236794217301933 0.20819183719001669 0 0.11775399779290339 0.20759518633331239 0 0.1023855527362314 0.18749689463882899 0 0.11775399779290339 0.20759518633331239 0 0.1023855527362314 0.18749689463882899 0 0.12550986450034471 0.186594373040398 0 0.09236794217301933 0.20819183719001669 0 0.11775399779290339 0.20759518633331239 0 0.09236794217301933 0.20819183719001669 0 0.11775399779290339 0.20759518633331239 0 0.10906069526472741 0.22998953009969161 0 0.092857250133516089 0.24175825718487831 0 0.081986142109724491 0.22560265144644431 0 0.10906069526472741 0.22998953009969161 0 0.081986142109724491 0.22560265144644431 0 0.09236794217301933 0.20819183719001669 0 0.10906069526472741 0.22998953009969161 0 0.11775399779290339 0.20759518633331239 0 0.10906069526472741 0.22998953009969161 0 0.1382648444377183 0.22719855966067881 0 0.10906069526472741 0.22998953009969161 0 0.12787711237058769 0.24521089126939841 0 0.1100607559553454 0.25396994184181759 0 0.092857250133516089 0.24175825718487831 0 0.10906069526472741 0.22998953009969161 0 0.1100607559553454 0.25396994184181759 0 0.081151633673542972 0.15313158297098389 0 0.083920606388658545 0.14050817004821939 0 0.0975697549496468 0.15575304468134629 0 0.081151633673542972 0.15313158297098389 0 0.083920606388658545 0.14050817004821939 0 0.071387777285217918 0.15212681924726251 0 0.074154959480044275 0.1204842858357125 0 0.087075880893963842 0.12621803440601359 0 0.083920606388658545 0.14050817004821939 0 0.087075880893963842 0.12621803440601359 0 0.083920606388658545 0.14050817004821939 0 0.097906888154765004 0.1362305538396491 0 0.062159468211553673 0.13737243366585769 0 0.061109117960118017 0.12720913792676911 0 0.083920606388658545 0.14050817004821939 0 0.074154959480044275 0.1204842858357125 0 0.061109117960118017 0.12720913792676911 0 0.083920606388658545 0.14050817004821939 0 0.061109117960118017 0.12720913792676911 0 0.083920606388658545 0.14050817004821939 0 0.062159468211553673 0.13737243366585769 0 0.083920606388658545 0.14050817004821939 0 0.069449382678632612 0.1443580261181665 0 0.060329678829100349 0.1474246815113264 0 0.062159468211553673 0.13737243366585769 0 0.069449382678632612 0.1443580261181665 0 0.060329678829100349 0.1474246815113264 0 0.069449382678632612 0.1443580261181665 0 0.071387777285217918 0.15212681924726251 0 0.083920606388658545 0.14050817004821939 0 0.069449382678632612 0.1443580261181665 0 0.071387777285217918 0.15212681924726251 0 0.059657673584757237 0.15824269734654939 0 0.060329678829100349 0.1474246815113264 0 0.071387777285217918 0.15212681924726251 0 0.059657673584757237 0.15824269734654939 0 0.071387777285217918 0.15212681924726251 0 0.071728396070648653 0.1641382979071076 0 0.081151633673542972 0.15313158297098389 0 0.071387777285217918 0.15212681924726251 0 0.071728396070648653 0.1641382979071076 0 0.071445073857882777 0.19089458628000441 0 0.075908261162629706 0.17300068451328551 0 0.086464584236575506 0.1862285865309723 0 0.060802696405823108 0.1787365445376432 0 0.071445073857882777 0.19089458628000441 0 0.075908261162629706 0.17300068451328551 0 0.071445073857882777 0.19089458628000441 0 0.075908261162629706 0.17300068451328551 0 0.060802696405823108 0.1787365445376432 0 0.071728396070648653 0.1641382979071076 0 0.075908261162629706 0.17300068451328551 0 0.086464584236575506 0.1862285865309723 0 0.090216091253114361 0.17155893003272579 0 0.1023855527362314 0.18749689463882899 0 0.075908261162629706 0.17300068451328551 0 0.086464584236575506 0.1862285865309723 0 0.090216091253114361 0.17155893003272579 0 0.081151633673542972 0.15313158297098389 0 0.071728396070648653 0.1641382979071076 0 0.0975697549496468 0.15575304468134629 0 0.071728396070648653 0.1641382979071076 0 0.090216091253114361 0.17155893003272579 0 0.0975697549496468 0.15575304468134629 0 0.071728396070648653 0.1641382979071076 0 0.075908261162629706 0.17300068451328551 0 0.090216091253114361 0.17155893003272579 0 0.071728396070648653 0.1641382979071076 0 0.0975697549496468 0.15575304468134629 0 0.090216091253114361 0.17155893003272579 0 0.1064810698159025 0.16893633516972181 0 0.0975697549496468 0.15575304468134629 0 0.1064810698159025 0.16893633516972181 0 0.1067320948171991 0.1538072021696697 0 0.0975697549496468 0.15575304468134629 0 0.090216091253114361 0.17155893003272579 0 0.1064810698159025 0.16893633516972181 0 0.1023855527362314 0.18749689463882899 0 0.1064810698159025 0.16893633516972181 0 0.12954358324573961 0.16710623429112001 0 0.12550986450034471 0.186594373040398 0 0.1064810698159025 0.16893633516972181 0 0.1023855527362314 0.18749689463882899 0 0.12550986450034471 0.186594373040398 0 0.1064810698159025 0.16893633516972181 0 0.1067320948171991 0.1538072021696697 0 0.12954358324573961 0.16710623429112001 0 0.1067320948171991 0.1538072021696697 0 0.1262856736452258 0.1537478882528979 0 0.12954358324573961 0.16710623429112001 0 0.1067320948171991 0.1538072021696697 0 0.12954358324573961 0.16710623429112001 0 0.1148569119608701 0.14824987142416859 0 0.1067320948171991 0.1538072021696697 0 0.1262856736452258 0.1537478882528979 0 0.118317888191051 0.14254191757659121 0 0.1148569119608701 0.14824987142416859 0 0.1262856736452258 0.1537478882528979 0 0.118317888191051 0.14254191757659121 0 0.12756241452120801 0.13893694775055651 0 0.1262856736452258 0.1537478882528979 0 0.1148569119608701 0.14824987142416859 0 0.1067320948171991 0.1538072021696697 0 0.1080919911900045 0.14290247769751591 0 0.118317888191051 0.14254191757659121 0 0.1148569119608701 0.14824987142416859 0 0.1080919911900045 0.14290247769751591 0 0.083920606388658545 0.14050817004821939 0 0.1067320948171991 0.1538072021696697 0 0.1067320948171991 0.1538072021696697 0 0.1080919911900045 0.14290247769751591 0 0.097906888154765004 0.1362305538396491 0 0.083920606388658545 0.14050817004821939 0 0.1067320948171991 0.1538072021696697 0 0.097906888154765004 0.1362305538396491 0 0.083920606388658545 0.14050817004821939 0 0.1067320948171991 0.1538072021696697 0 0.0975697549496468 0.15575304468134629 0 0.096984900528893664 0.1212489081817222 0 0.097906888154765004 0.1362305538396491 0 0.10589272808503949 0.13156516273042271 0 0.096984900528893664 0.1212489081817222 0 0.087075880893963842 0.12621803440601359 0 0.097906888154765004 0.1362305538396491 0 0.1080919911900045 0.14290247769751591 0 0.097906888154765004 0.1362305538396491 0 0.10589272808503949 0.13156516273042271 0 0.1080919911900045 0.14290247769751591 0 0.10589272808503949 0.13156516273042271 0 0.11327312463209829 0.13597294690712769 0 0.10712684862241641 0.1210429748963526 0 0.10589272808503949 0.13156516273042271 0 0.114987521205969 0.1268010028982309 0 0.10589272808503949 0.13156516273042271 0 0.114987521205969 0.1268010028982309 0 0.11327312463209829 0.13597294690712769 0 0.114987521205969 0.1268010028982309 0 0.11327312463209829 0.13597294690712769 0 0.1203000125167645 0.13336293759413789 0 0.118317888191051 0.14254191757659121 0 0.1080919911900045 0.14290247769751591 0 0.11327312463209829 0.13597294690712769 0 0.118317888191051 0.14254191757659121 0 0.1203000125167645 0.13336293759413789 0 0.12756241452120801 0.13893694775055651 0 0.118317888191051 0.14254191757659121 0 0.11327312463209829 0.13597294690712769 0 0.1203000125167645 0.13336293759413789 0 0.12212988809696081 0.1249307776834532 0 0.114987521205969 0.1268010028982309 0 0.1203000125167645 0.13336293759413789 0 0.12212988809696081 0.1249307776834532 0 0.1203000125167645 0.13336293759413789 0 0.12788127083107459 0.1291064789800366 0 0.12788127083107459 0.1291064789800366 0 0.13409394305489639 0.1257339851238449 0 0.12813823657366311 0.12049833089676459 0 0.12788127083107459 0.1291064789800366 0 0.13410827310584911 0.13282331674432049 0 0.13409394305489639 0.1257339851238449 0 0.12788127083107459 0.1291064789800366 0 0.12756241452120801 0.13893694775055651 0 0.13410827310584911 0.13282331674432049 0 0.1203000125167645 0.13336293759413789 0 0.12788127083107459 0.1291064789800366 0 0.12756241452120801 0.13893694775055651 0 0.13410827310584911 0.13282331674432049 0 0.14295710802469111 0.12768772724150559 0 0.13848136883728299 0.14203914735535511 0 0.12756241452120801 0.13893694775055651 0 0.13410827310584911 0.13282331674432049 0 0.13848136883728299 0.14203914735535511 0 0.13410827310584911 0.13282331674432049 0 0.13409394305489639 0.1257339851238449 0 0.14295710802469111 0.12768772724150559 0 0.14295710802469111 0.12768772724150559 0 0.15698787762036359 0.14007723406829989 0 0.15364605026385231 0.1227496740475859 0 0.14295710802469111 0.12768772724150559 0 0.13848136883728299 0.14203914735535511 0 0.15698787762036359 0.14007723406829989 0 0.13848136883728299 0.14203914735535511 0 0.1441447949138806 0.1573716891147208 0 0.15698787762036359 0.14007723406829989 0 0.1441447949138806 0.1573716891147208 0 0.1598153361361678 0.15982657838785511 0 0.15698787762036359 0.14007723406829989 0 0.13848136883728299 0.14203914735535511 0 0.1262856736452258 0.1537478882528979 0 0.1441447949138806 0.1573716891147208 0 0.12756241452120801 0.13893694775055651 0 0.13848136883728299 0.14203914735535511 0 0.1262856736452258 0.1537478882528979 0 0.1262856736452258 0.1537478882528979 0 0.12954358324573961 0.16710623429112001 0 0.1441447949138806 0.1573716891147208 0 0.12954358324573961 0.16710623429112001 0 0.12550986450034471 0.186594373040398 0 0.15375492999850379 0.1814330523327968 0 0.12954358324573961 0.16710623429112001 0 0.15375492999850379 0.1814330523327968 0 0.1441447949138806 0.1573716891147208 0 0.15375492999850379 0.1814330523327968 0 0.1441447949138806 0.1573716891147208 0 0.1598153361361678 0.15982657838785511 0 0.1598153361361678 0.15982657838785511 0 0.17205847002769489 0.1711246398383999 0 0.17247097746626519 0.1464629757798975 0 0.15375492999850379 0.1814330523327968 0 0.1598153361361678 0.15982657838785511 0 0.17205847002769489 0.1711246398383999 0 0.15375492999850379 0.1814330523327968 0 0.17205847002769489 0.1711246398383999 0 0.18411838942066619 0.18828130780555291 0 0.17205847002769489 0.1711246398383999 0 0.18411838942066619 0.18828130780555291 0 0.19050902449260759 0.164433536692701 0 0.17205847002769489 0.1711246398383999 0 0.17247097746626519 0.1464629757798975 0 0.19050902449260759 0.164433536692701 0 0.17247097746626519 0.1464629757798975 0 0.1903693880120208 0.14015559280000461 0 0.19050902449260759 0.164433536692701 0 0.17247097746626519 0.1464629757798975 0 0.18002451345814399 0.12716596121819479 0 0.1903693880120208 0.14015559280000461 0 0.17247097746626519 0.1464629757798975 0 0.18002451345814399 0.12716596121819479 0 0.16417220099380411 0.12505127510387981 0 0.15698787762036359 0.14007723406829989 0 0.16417220099380411 0.12505127510387981 0 0.15364605026385231 0.1227496740475859 0 0.17247097746626519 0.1464629757798975 0 0.15698787762036359 0.14007723406829989 0 0.16417220099380411 0.12505127510387981 0 0.1598153361361678 0.15982657838785511 0 0.17247097746626519 0.1464629757798975 0 0.15698787762036359 0.14007723406829989 0 0.14702044576598061 0.2478904659134552 0 0.1382648444377183 0.22719855966067881 0 0.15828943790025421 0.22969507774947781 0 0.14702044576598061 0.2478904659134552 0 0.12787711237058769 0.24521089126939841 0 0.1382648444377183 0.22719855966067881 0 0.10906069526472741 0.22998953009969161 0 0.12787711237058769 0.24521089126939841 0 0.1382648444377183 0.22719855966067881 0 0.1382648444377183 0.22719855966067881 0 0.14314005341278749 0.20699853547660821 0 0.15828943790025421 0.22969507774947781 0 0.14314005341278749 0.20699853547660821 0 0.16852610903267151 0.206401884619904 0 0.11775399779290339 0.20759518633331239 0 0.1382648444377183 0.22719855966067881 0 0.14314005341278749 0.20699853547660821 0 0.11775399779290339 0.20759518633331239 0 0.14314005341278749 0.20699853547660821 0 0.11775399779290339 0.20759518633331239 0 0.12550986450034471 0.186594373040398 0 0.14314005341278749 0.20699853547660821 0 0.15375492999850379 0.1814330523327968 0 0.14314005341278749 0.20699853547660821 0 0.16852610903267151 0.206401884619904 0 0.12550986450034471 0.186594373040398 0 0.15375492999850379 0.1814330523327968 0 0.14314005341278749 0.20699853547660821 0 0.15375492999850379 0.1814330523327968 0 0.18411838942066619 0.18828130780555291 0 0.16852610903267151 0.206401884619904 0 0.18411838942066619 0.18828130780555291 0 0.16852610903267151 0.206401884619904 0 0.1878214256448299 0.20672411698152671 0 0.16852610903267151 0.206401884619904 0 0.17766068788986381 0.23020170431202469 0 0.1878214256448299 0.20672411698152671 0 0.14314005341278749 0.20699853547660821 0 0.16852610903267151 0.206401884619904 0 0.15828943790025421 0.22969507774947781 0 0.16852610903267151 0.206401884619904 0 0.15828943790025421 0.22969507774947781 0 0.17766068788986381 0.23020170431202469 0 0.17766068788986381 0.23020170431202469 0 0.19353513124668931 0.22246748781277501 0 0.1878214256448299 0.20672411698152671 0 0.17766068788986381 0.23020170431202469 0 0.18692125413578081 0.24552837502103991 0 0.19379669244916639 0.23440003217329089 0 0.17766068788986381 0.23020170431202469 0 0.18692125413578081 0.24552837502103991 0 0.16774616909827719 0.2460930353984315 0 0.15828943790025421 0.22969507774947781 0 0.17766068788986381 0.23020170431202469 0 0.16774616909827719 0.2460930353984315 0 0.14702044576598061 0.2478904659134552 0 0.15828943790025421 0.22969507774947781 0 0.16774616909827719 0.2460930353984315 0 0.21557305570370441 0.24515722135805329 0 0.2029257889591993 0.24295866219667439 0 0.23007231546290949 0.2334513308517342 0 0.2029257889591993 0.24295866219667439 0 0.23007231546290949 0.2334513308517342 0 0.21557305570370441 0.24515722135805329 0 0.2029257889591993 0.24295866219667439 0 0.20107379594449931 0.25686311186437227 0 0.18692125413578081 0.24552837502103991 0 0.2029257889591993 0.24295866219667439 0 0.20107379594449931 0.25686311186437227 0 0.18692125413578081 0.24552837502103991 0 0.19379669244916639 0.23440003217329089 0 0.2029257889591993 0.24295866219667439 0 0.17766068788986381 0.23020170431202469 0 0.19379669244916639 0.23440003217329089 0 0.19353513124668931 0.22246748781277501 0 0.19379669244916639 0.23440003217329089 0 0.2029257889591993 0.24295866219667439 0 0.20920449219815451 0.22515354045629349 0 0.19379669244916639 0.23440003217329089 0 0.19353513124668931 0.22246748781277501 0 0.20920449219815451 0.22515354045629349 0 0.2029257889591993 0.24295866219667439 0 0.20920449219815451 0.22515354045629349 0 0.23007231546290949 0.2334513308517342 0 0.19353513124668931 0.22246748781277501 0 0.20920449219815451 0.22515354045629349 0 0.20732414099141369 0.20672295990195361 0 0.20920449219815451 0.22515354045629349 0 0.20732414099141369 0.20672295990195361 0 0.22783619495118521 0.20973527166224001 0 0.19353513124668931 0.22246748781277501 0 0.20732414099141369 0.20672295990195361 0 0.1878214256448299 0.20672411698152671 0 0.18411838942066619 0.18828130780555291 0 0.1878214256448299 0.20672411698152671 0 0.20343121377691101 0.18825927067945539 0 0.20732414099141369 0.20672295990195361 0 0.1878214256448299 0.20672411698152671 0 0.20343121377691101 0.18825927067945539 0 0.20732414099141369 0.20672295990195361 0 0.20343121377691101 0.18825927067945539 0 0.2219787971027708 0.18678942035429349 0 0.20732414099141369 0.20672295990195361 0 0.22783619495118521 0.20973527166224001 0 0.2219787971027708 0.18678942035429349 0 0.24528107816237801 0.1907036486386274 0 0.22783619495118521 0.20973527166224001 0 0.2219787971027708 0.18678942035429349 0 0.24528107816237801 0.1907036486386274 0 0.25242827713160498 0.21540237912569379 0 0.24528107816237801 0.1907036486386274 0 0.22783619495118521 0.20973527166224001 0 0.25242827713160498 0.21540237912569379 0 0.20920449219815451 0.22515354045629349 0 0.22783619495118521 0.20973527166224001 0 0.23007231546290949 0.2334513308517342 0 0.23007231546290949 0.2334513308517342 0 0.25242827713160498 0.21540237912569379 0 0.23007231546290949 0.2334513308517342 0 0.25511338863332461 0.22468137717712711 0 0.25242827713160498 0.21540237912569379 0 0.23007231546290949 0.2334513308517342 0 0.25511338863332461 0.22468137717712711 0 0.23007231546290949 0.2334513308517342 0 0.2457442494512444 0.24022391879071339 0 0.25511338863332461 0.22468137717712711 0 0.22783619495118521 0.20973527166224001 0 0.23007231546290949 0.2334513308517342 0 0.25242827713160498 0.21540237912569379 0 0.2457442494512444 0.24022391879071339 0 0.23628031136540401 0.25597328662156199 0 0.26221447651104962 0.2479993693513689 0 0.23007231546290949 0.2334513308517342 0 0.2457442494512444 0.24022391879071339 0 0.23628031136540401 0.25597328662156199 0 0.21557305570370441 0.24515722135805329 0 0.23007231546290949 0.2334513308517342 0 0.23628031136540401 0.25597328662156199 0 0.21557305570370441 0.24515722135805329 0 0.23007231546290949 0.2334513308517342 0 0.21023583046185859 0.14706018503428281 0 0.22521494488481819 0.12557893006429149 0 0.2001236667938262 0.1180422718546187 0 0.18002451345814399 0.12716596121819479 0 0.1903693880120208 0.14015559280000461 0 0.2001236667938262 0.1180422718546187 0 0.21023583046185859 0.14706018503428281 0 0.1903693880120208 0.14015559280000461 0 0.2001236667938262 0.1180422718546187 0 0.21023583046185859 0.14706018503428281 0 0.1903693880120208 0.14015559280000461 0 0.19050902449260759 0.164433536692701 0 0.18411838942066619 0.18828130780555291 0 0.20343121377691101 0.18825927067945539 0 0.19050902449260759 0.164433536692701 0 0.20343121377691101 0.18825927067945539 0 0.19050902449260759 0.164433536692701 0 0.20962662881846919 0.1707346457134423 0 0.20343121377691101 0.18825927067945539 0 0.20962662881846919 0.1707346457134423 0 0.2219787971027708 0.18678942035429349 0 0.21023583046185859 0.14706018503428281 0 0.20962662881846919 0.1707346457134423 0 0.2254160648188453 0.164078398330023 0 0.21023583046185859 0.14706018503428281 0 0.19050902449260759 0.164433536692701 0 0.20962662881846919 0.1707346457134423 0 0.20962662881846919 0.1707346457134423 0 0.2254160648188453 0.164078398330023 0 0.2219787971027708 0.18678942035429349 0 0.2254160648188453 0.164078398330023 0 0.2219787971027708 0.18678942035429349 0 0.23714843650665229 0.1758398884969993 0 0.24528107816237801 0.1907036486386274 0 0.2219787971027708 0.18678942035429349 0 0.23714843650665229 0.1758398884969993 0 0.24528107816237801 0.1907036486386274 0 0.23714843650665229 0.1758398884969993 0 0.25292738168467233 0.17649485219682931 0 0.2254160648188453 0.164078398330023 0 0.24653130607993951 0.16237692388552691 0 0.23688534306575301 0.1458043597726891 0 0.23714843650665229 0.1758398884969993 0 0.24653130607993951 0.16237692388552691 0 0.25292738168467233 0.17649485219682931 0 0.2254160648188453 0.164078398330023 0 0.23714843650665229 0.1758398884969993 0 0.24653130607993951 0.16237692388552691 0 0.24653130607993951 0.16237692388552691 0 0.2496536413094039 0.15044712256699261 0 0.23688534306575301 0.1458043597726891 0 0.2496536413094039 0.15044712256699261 0 0.23688534306575301 0.1458043597726891 0 0.25004344172447263 0.14019424959050239 0 0.21023583046185859 0.14706018503428281 0 0.2254160648188453 0.164078398330023 0 0.23688534306575301 0.1458043597726891 0 0.21023583046185859 0.14706018503428281 0 0.23688534306575301 0.1458043597726891 0 0.22521494488481819 0.12557893006429149 0 0.22521494488481819 0.12557893006429149 0 0.25030622297580962 0.13311558827396619 0 0.23688534306575301 0.1458043597726891 0 0.22521494488481819 0.12557893006429149 0 0.25030622297580962 0.13311558827396619 0 0.23688534306575301 0.1458043597726891 0 0.25004344172447263 0.14019424959050239 0 0.25030622297580962 0.13311558827396619 0 0.22521494488481819 0.12557893006429149 0 0.2369469616243938 0.1144798656387125 0 0.25030622297580962 0.13311558827396619 0 0.2369469616243938 0.1144798656387125 0 0.25094552198087999 0.11589449234768209 0 0.25030622297580962 0.13311558827396619 0 0.2369469616243938 0.1144798656387125 0 0.25158482098595109 0.098673396421397969 0 0.25094552198087999 0.11589449234768209 0 0.2369469616243938 0.1144798656387125 0 0.2308580048349978 0.09939168424622695 0 0.25158482098595109 0.098673396421397969 0 0.2308580048349978 0.09939168424622695 0 0.2177667053289645 0.10879872465146249 0 0.21723881235993189 0.092441087960636145 0 0.2369469616243938 0.1144798656387125 0 0.2308580048349978 0.09939168424622695 0 0.2177667053289645 0.10879872465146249 0 0.22521494488481819 0.12557893006429149 0 0.2369469616243938 0.1144798656387125 0 0.2177667053289645 0.10879872465146249 0 0.2177667053289645 0.10879872465146249 0 0.1970849337058638 0.1019164286603922 0 0.2001236667938262 0.1180422718546187 0 0.22521494488481819 0.12557893006429149 0 0.2177667053289645 0.10879872465146249 0 0.2001236667938262 0.1180422718546187 0 0.22521494488481819 0.12557893006429149 0 0.2001236667938262 0.1180422718546187 0 0.1970849337058638 0.1019164286603922 0 0.20420713705815571 0.090978010823124941 0 0.21723881235993189 0.092441087960636145 0 0.1970849337058638 0.1019164286603922 0 0.21723881235993189 0.092441087960636145 0 0.2177667053289645 0.10879872465146249 0 0.1970849337058638 0.1019164286603922 0 0.21723881235993189 0.092441087960636145 0 0.1970849337058638 0.1019164286603922 0 0.1916307843626972 0.08827444688259839 0 0.17503238870283441 0.11050561364494491 0 0.2001236667938262 0.1180422718546187 0 0.17503238870283441 0.11050561364494491 0 0.1970849337058638 0.1019164286603922 0 0.2001236667938262 0.1180422718546187 0 0.17503238870283441 0.11050561364494491 0 0.1916307843626972 0.08827444688259839 0 0.2082291800225603 0.066043280120252124 0 0.19067723801237901 0.065525043857756982 0 0.1916307843626972 0.08827444688259839 0 0.2082291800225603 0.066043280120252124 0 0.1916307843626972 0.08827444688259839 0 0.21087401780412959 0.081280079788873041 0 0.20420713705815571 0.090978010823124941 0 0.1970849337058638 0.1019164286603922 0 0.1916307843626972 0.08827444688259839 0 0.20420713705815571 0.090978010823124941 0 0.1916307843626972 0.08827444688259839 0 0.21087401780412959 0.081280079788873041 0 0.2082291800225603 0.066043280120252124 0 0.21087401780412959 0.081280079788873041 0 0.20420713705815571 0.090978010823124941 0 0.21723881235993189 0.092441087960636145 0 0.21087401780412959 0.081280079788873041 0 0.21723881235993189 0.092441087960636145 0 0.22613356481757629 0.0775902723280468 0 0.21087401780412959 0.081280079788873041 0 0.2082291800225603 0.066043280120252124 0 0.22613356481757629 0.0775902723280468 0 0.2082291800225603 0.066043280120252124 0 0.22613356481757629 0.0775902723280468 0 0.2082291800225603 0.066043280120252124 0 0.2259496113806885 0.070300708218039992 0 0.21450653174737461 0.057635669175196122 0 0.2259496113806885 0.070300708218039992 0 0.21450653174737461 0.057635669175196122 0 0.2082291800225603 0.066043280120252124 0 0.2259496113806885 0.070300708218039992 0 0.22613356481757629 0.0775902723280468 0 0.2259496113806885 0.070300708218039992 0 0.2248665156508784 0.061611733455129589 0 0.21450653174737461 0.057635669175196122 0 0.2259496113806885 0.070300708218039992 0 0.22613356481757629 0.0775902723280468 0 0.23739269101400209 0.082965747260884265 0 0.2259496113806885 0.070300708218039992 0 0.23739269101400209 0.082965747260884265 0 0.237967452106535 0.070105640596903412 0 0.2259496113806885 0.070300708218039992 0 0.23739269101400209 0.082965747260884265 0 0.2259496113806885 0.070300708218039992 0 0.2330718446673557 0.064441819436705627 0 0.2248665156508784 0.061611733455129589 0 0.2259496113806885 0.070300708218039992 0 0.2330718446673557 0.064441819436705627 0 0.237967452106535 0.070105640596903412 0 0.2308580048349978 0.09939168424622695 0 0.21723881235993189 0.092441087960636145 0 0.23739269101400209 0.082965747260884265 0 0.21723881235993189 0.092441087960636145 0 0.22613356481757629 0.0775902723280468 0 0.23739269101400209 0.082965747260884265 0 0.21723881235993189 0.092441087960636145 0 0.23739269101400209 0.082965747260884265 0 0.23739269101400209 0.082965747260884265 0 0.25158482098595109 0.098673396421397969 0 0.23739269101400209 0.082965747260884265 0 0.25243039498113262 0.075895774732197205 0 0.25158482098595109 0.098673396421397969 0 0.2308580048349978 0.09939168424622695 0 0.23739269101400209 0.082965747260884265 0 0.25158482098595109 0.098673396421397969 0 0.23739269101400209 0.082965747260884265 0 0.25243039498113262 0.075895774732197205 0 0.23934469018649959 0.064583282500140851 0 0.237967452106535 0.070105640596903412 0 0.24496427956833819 0.066036472520138348 0 0.2330718446673557 0.064441819436705627 0 0.23934469018649959 0.064583282500140851 0 0.2376257901407148 0.059976102198904507 0 0.2330718446673557 0.064441819436705627 0 0.23934469018649959 0.064583282500140851 0 0.237967452106535 0.070105640596903412 0 0.23739269101400209 0.082965747260884265 0 0.237967452106535 0.070105640596903412 0 0.24429048066179679 0.072622021298478806 0 0.24429048066179679 0.072622021298478806 0 0.24842415088314279 0.069033451464499671 0 0.25243039498113262 0.075895774732197205 0 0.23739269101400209 0.082965747260884265 0 0.24429048066179679 0.072622021298478806 0 0.25243039498113262 0.075895774732197205 0 0.24842415088314279 0.069033451464499671 0 0.24853219730195361 0.063845178725116872 0 0.25274476311700622 0.067427493409812952 0 0.237967452106535 0.070105640596903412 0 0.24429048066179679 0.072622021298478806 0 0.24496427956833819 0.066036472520138348 0 0.24429048066179679 0.072622021298478806 0 0.24842415088314279 0.069033451464499671 0 0.24496427956833819 0.066036472520138348 0 0.23934469018649959 0.064583282500140851 0 0.24496427956833819 0.066036472520138348 0 0.24309408444955441 0.062356377748052388 0 0.24496427956833819 0.066036472520138348 0 0.24602681454492631 0.062964227281045088 0 0.24309408444955441 0.062356377748052388 0 0.24496427956833819 0.066036472520138348 0 0.24602681454492631 0.062964227281045088 0 0.24853219730195361 0.063845178725116872 0 0.24842415088314279 0.069033451464499671 0 0.24496427956833819 0.066036472520138348 0 0.24853219730195361 0.063845178725116872 0 0.24751669685985911 0.059618880130872708 0 0.24309408444955441 0.062356377748052388 0 0.2376257901407148 0.059976102198904507 0 0.24751669685985911 0.059618880130872708 0 0.24426241142214139 0.049994713685017962 0 0.2310385276818335 0.053106641608170198 0 0.24751669685985911 0.059618880130872708 0 0.2376257901407148 0.059976102198904507 0 0.2310385276818335 0.053106641608170198 0 0.24751669685985911 0.059618880130872708 0 0.2310385276818335 0.053106641608170198 0 0.24853219730195361 0.063845178725116872 0 0.24751669685985911 0.059618880130872708 0 0.2530174900015254 0.0600809219264858 0 0.24602681454492631 0.062964227281045088 0 0.24853219730195361 0.063845178725116872 0 0.24751669685985911 0.059618880130872708 0 0.24602681454492631 0.062964227281045088 0 0.24751669685985911 0.059618880130872708 0 0.24309408444955441 0.062356377748052388 0 0.23934469018649959 0.064583282500140851 0 0.24309408444955441 0.062356377748052388 0 0.2376257901407148 0.059976102198904507 0 0.24426241142214139 0.049994713685017962 0 0.23928634064401511 0.040096757013566242 0 0.2310385276818335 0.053106641608170198 0 0.24751669685985911 0.059618880130872708 0 0.24426241142214139 0.049994713685017962 0 0.25102243244437311 0.053297338652025752 0 0.24426241142214139 0.049994713685017962 0 0.25174039047255609 0.044464402284776217 0 0.25102243244437311 0.053297338652025752 0 0.23928634064401511 0.040096757013566242 0 0.2320502206633881 0.021165953515508481 0 0.25044211127373811 0.032849993626191502 0 0.23928634064401511 0.040096757013566242 0 0.25044211127373811 0.032849993626191502 0 0.25174039047255609 0.044464402284776217 0 0.24426241142214139 0.049994713685017962 0 0.23928634064401511 0.040096757013566242 0 0.25174039047255609 0.044464402284776217 0 0.22618438235043381 0.038998837361733103 0 0.2320502206633881 0.021165953515508481 0 0.20963369093729961 0.03941564640516447 0 0.23928634064401511 0.040096757013566242 0 0.22618438235043381 0.038998837361733103 0 0.2320502206633881 0.021165953515508481 0 0.22618438235043381 0.038998837361733103 0 0.2310385276818335 0.053106641608170198 0 0.21456035850380811 0.046594403085467223 0 0.23928634064401511 0.040096757013566242 0 0.22618438235043381 0.038998837361733103 0 0.2310385276818335 0.053106641608170198 0 0.2310385276818335 0.053106641608170198 0 0.21456035850380811 0.046594403085467223 0 0.2248665156508784 0.061611733455129589 0 0.2310385276818335 0.053106641608170198 0 0.21456035850380811 0.046594403085467223 0 0.2248665156508784 0.061611733455129589 0 0.21456035850380811 0.046594403085467223 0 0.2330718446673557 0.064441819436705627 0 0.2248665156508784 0.061611733455129589 0 0.23150027442910881 0.059501590197602497 0 0.2248665156508784 0.061611733455129589 0 0.23150027442910881 0.059501590197602497 0 0.2310385276818335 0.053106641608170198 0 0.2330718446673557 0.064441819436705627 0 0.2376257901407148 0.059976102198904507 0 0.23150027442910881 0.059501590197602497 0 0.2376257901407148 0.059976102198904507 0 0.23150027442910881 0.059501590197602497 0 0.2310385276818335 0.053106641608170198 0 0.2320502206633881 0.021165953515508481 0 0.22999165343287109 0.0038227322559807589 0 0.25446675038947358 0.0029162606258486688 0 0.2320502206633881 0.021165953515508481 0 0.2600935707136679 0.019574361616358959 0 0.25446675038947358 0.0029162606258486688 0 0.22999165343287109 0.0038227322559807589 0 0.25446675038947358 0.0029162606258486688 0 0.24138147174972829 -0.0061427828714447699 0 0.2320502206633881 0.021165953515508481 0 0.25446675038947358 0.0029162606258486688 0 0.2320502206633881 0.021165953515508481 0 0.2600935707136679 0.019574361616358959 0 0.25044211127373811 0.032849993626191502 0 0.2320502206633881 0.021165953515508481 0 0.20963369093729961 0.03941564640516447 0 0.22999165343287109 0.0038227322559807589 0 0.21340461703840111 0.0096506044731711187 0 0.21351355446813719 -0.0021103410187178909 0 0.2320502206633881 0.021165953515508481 0 0.22999165343287109 0.0038227322559807589 0 0.21340461703840111 0.0096506044731711187 0 0.21340461703840111 0.0096506044731711187 0 0.1998105265397013 0.00335350757378736 0 0.21351355446813719 -0.0021103410187178909 0 0.21340461703840111 0.0096506044731711187 0 0.20371525389429951 0.01279949030761077 0 0.2082588668535221 0.02245160931237615 0 0.21340461703840111 0.0096506044731711187 0 0.20371525389429951 0.01279949030761077 0 0.1998105265397013 0.00335350757378736 0 0.2320502206633881 0.021165953515508481 0 0.2082588668535221 0.02245160931237615 0 0.20963369093729961 0.03941564640516447 0 0.2320502206633881 0.021165953515508481 0 0.21340461703840111 0.0096506044731711187 0 0.2082588668535221 0.02245160931237615 0 0.2082588668535221 0.02245160931237615 0 0.19338700514557339 0.015742239871108451 0 0.20963369093729961 0.03941564640516447 0 0.19338700514557339 0.015742239871108451 0 0.1989601287501698 0.040429129743079398 0 0.18048502430789731 0.01998114488410483 0 0.1989601287501698 0.040429129743079398 0 0.18048502430789731 0.01998114488410483 0 0.19338700514557339 0.015742239871108451 0 0.20963369093729961 0.03941564640516447 0 0.20371525389429951 0.01279949030761077 0 0.2082588668535221 0.02245160931237615 0 0.19338700514557339 0.015742239871108451 0 0.19338700514557339 0.015742239871108451 0 0.1998105265397013 0.00335350757378736 0 0.17714031935384769 -0.0079311666629475405 0 0.20371525389429951 0.01279949030761077 0 0.19338700514557339 0.015742239871108451 0 0.1998105265397013 0.00335350757378736 0 0.21450653174737461 0.057635669175196122 0 0.2029561920580818 0.044851916216142339 0 0.21450653174737461 0.057635669175196122 0 0.2029561920580818 0.044851916216142339 0 0.2021088015620611 0.053433964061651712 0 0.21450653174737461 0.057635669175196122 0 0.21456035850380811 0.046594403085467223 0 0.2029561920580818 0.044851916216142339 0 0.2082291800225603 0.066043280120252124 0 0.21450653174737461 0.057635669175196122 0 0.2021088015620611 0.053433964061651712 0 0.2248665156508784 0.061611733455129589 0 0.21450653174737461 0.057635669175196122 0 0.21456035850380811 0.046594403085467223 0 0.2082291800225603 0.066043280120252124 0 0.21450653174737461 0.057635669175196122 0 0.22618438235043381 0.038998837361733103 0 0.21456035850380811 0.046594403085467223 0 0.20963369093729961 0.03941564640516447 0 0.21456035850380811 0.046594403085467223 0 0.20963369093729961 0.03941564640516447 0 0.21456035850380811 0.046594403085467223 0 0.20530753189452691 0.042937648913457381 0 0.2029561920580818 0.044851916216142339 0 0.20963369093729961 0.03941564640516447 0 0.20530753189452691 0.042937648913457381 0 0.1989601287501698 0.040429129743079398 0 0.21456035850380811 0.046594403085467223 0 0.20530753189452691 0.042937648913457381 0 0.21456035850380811 0.046594403085467223 0 0.20963369093729961 0.03941564640516447 0 0.20530753189452691 0.042937648913457381 0 0.20963369093729961 0.03941564640516447 0 0.20530753189452691 0.042937648913457381 0 0.20530753189452691 0.042937648913457381 0 0.2029561920580818 0.044851916216142339 0 0.1989601287501698 0.040429129743079398 0 0.1774654858828027 0.031934360706524292 0 0.2029561920580818 0.044851916216142339 0 0.1989601287501698 0.040429129743079398 0 0.19971656766465989 0.047489351670260083 0 0.1989601287501698 0.040429129743079398 0 0.19133087755196571 0.045131483978966998 0 0.19971656766465989 0.047489351670260083 0 0.2029561920580818 0.044851916216142339 0 0.19971656766465989 0.047489351670260083 0 0.19338700514557339 0.015742239871108451 0 0.20963369093729961 0.03941564640516447 0 0.1989601287501698 0.040429129743079398 0 0.1989601287501698 0.040429129743079398 0 0.19133087755196571 0.045131483978966998 0 0.18298678422305309 0.040980100737508622 0 0.20530753189452691 0.042937648913457381 0 0.2029561920580818 0.044851916216142339 0 0.1989601287501698 0.040429129743079398 0 0.20530753189452691 0.042937648913457381 0 0.1989601287501698 0.040429129743079398 0 0.2029561920580818 0.044851916216142339 0 0.1989601287501698 0.040429129743079398 0 0.2082291800225603 0.066043280120252124 0 0.18513553631762919 0.051149603126408108 0 0.2021088015620611 0.053433964061651712 0 0.19971656766465989 0.047489351670260083 0 0.18513553631762919 0.051149603126408108 0 0.2082291800225603 0.066043280120252124 0 0.2021088015620611 0.053433964061651712 0 0.18513553631762919 0.051149603126408108 0 0.19067723801237901 0.065525043857756982 0 0.2082291800225603 0.066043280120252124 0 0.18513553631762919 0.051149603126408108 0 0.19133087755196571 0.045131483978966998 0 0.19971656766465989 0.047489351670260083 0 0.18513553631762919 0.051149603126408108 0 0.2029561920580818 0.044851916216142339 0 0.2021088015620611 0.053433964061651712 0 0.19971656766465989 0.047489351670260083 0 0.17734631865053521 0.060730067185729229 0 0.18513553631762919 0.051149603126408108 0 0.16725106424272049 0.052894846580172288 0 0.19067723801237901 0.065525043857756982 0 0.17734631865053521 0.060730067185729229 0 0.18513553631762919 0.051149603126408108 0 0.18298678422305309 0.040980100737508622 0 0.1774654858828027 0.031934360706524292 0 0.1620418926126978 0.036255926132564682 0 0.19133087755196571 0.045131483978966998 0 0.18513553631762919 0.051149603126408108 0 0.18298678422305309 0.040980100737508622 0 0.18513553631762919 0.051149603126408108 0 0.18298678422305309 0.040980100737508622 0 0.1620418926126978 0.036255926132564682 0 0.1989601287501698 0.040429129743079398 0 0.18298678422305309 0.040980100737508622 0 0.1774654858828027 0.031934360706524292 0 0.18513553631762919 0.051149603126408108 0 0.1620418926126978 0.036255926132564682 0 0.1620418926126978 0.036255926132564682 0 0.16725106424272049 0.052894846580172288 0 0.15541952745182569 0.04677658384696623 0 0.18513553631762919 0.051149603126408108 0 0.1620418926126978 0.036255926132564682 0 0.16725106424272049 0.052894846580172288 0 0.16725106424272049 0.052894846580172288 0 0.15507694825043991 0.057889849327421902 0 0.15541952745182569 0.04677658384696623 0 0.16725106424272049 0.052894846580172288 0 0.15507694825043991 0.057889849327421902 0 0.1653937448538241 0.067538194789913991 0 0.17734631865053521 0.060730067185729229 0 0.16725106424272049 0.052894846580172288 0 0.1653937448538241 0.067538194789913991 0 0.18048502430789731 0.01998114488410483 0 0.1657030786406338 0.0084270166623369204 0 0.17714031935384769 -0.0079311666629475405 0 0.19338700514557339 0.015742239871108451 0 0.17714031935384769 -0.0079311666629475405 0 0.19338700514557339 0.015742239871108451 0 0.18048502430789731 0.01998114488410483 0 0.17714031935384769 -0.0079311666629475405 0 0.1989601287501698 0.040429129743079398 0 0.1774654858828027 0.031934360706524292 0 0.18048502430789731 0.01998114488410483 0 0.1774654858828027 0.031934360706524292 0 0.18048502430789731 0.01998114488410483 0 0.16935520337559401 0.020657770454092759 0 0.1774654858828027 0.031934360706524292 0 0.15597084301543529 0.02343959166996953 0 0.1774654858828027 0.031934360706524292 0 0.1620418926126978 0.036255926132564682 0 0.15597084301543529 0.02343959166996953 0 0.1774654858828027 0.031934360706524292 0 0.16935520337559401 0.020657770454092759 0 0.15597084301543529 0.02343959166996953 0 0.16935520337559401 0.020657770454092759 0 0.1657030786406338 0.0084270166623369204 0 0.15597084301543529 0.02343959166996953 0 0.18048502430789731 0.01998114488410483 0 0.16935520337559401 0.020657770454092759 0 0.1657030786406338 0.0084270166623369204 0 0.1657030786406338 0.0084270166623369204 0 0.14883794818754281 0.01110572894874149 0 0.15480995508657039 -0.001084596553268768 0 0.1657030786406338 0.0084270166623369204 0 0.14883794818754281 0.01110572894874149 0 0.15597084301543529 0.02343959166996953 0 0.14883794818754281 0.01110572894874149 0 0.13464870039648349 0.00080453217212592717 0 0.15480995508657039 -0.001084596553268768 0 0.14883794818754281 0.01110572894874149 0 0.13894824890776639 0.02136224913872127 0 0.13464870039648349 0.00080453217212592717 0 0.1620418926126978 0.036255926132564682 0 0.13894824890776639 0.02136224913872127 0 0.14883794818754281 0.01110572894874149 0 0.15597084301543529 0.02343959166996953 0 0.13894824890776639 0.02136224913872127 0 0.1620418926126978 0.036255926132564682 0 0.15597084301543529 0.02343959166996953 0 0.13894824890776639 0.02136224913872127 0 0.11961069471150609 0.02296590295220987 0 0.13894824890776639 0.02136224913872127 0 0.12977361784467401 0.039215218793308727 0 0.1158546052028349 0.0064685721448778594 0 0.13894824890776639 0.02136224913872127 0 0.1158546052028349 0.0064685721448778594 0 0.13894824890776639 0.02136224913872127 0 0.13464870039648349 0.00080453217212592717 0 0.14278372382386809 0.048416123664777412 0 0.1428601767931531 0.062084067640591357 0 0.15507694825043991 0.057889849327421902 0 0.14278372382386809 0.048416123664777412 0 0.15507694825043991 0.057889849327421902 0 0.15541952745182569 0.04677658384696623 0 0.1620418926126978 0.036255926132564682 0 0.13894824890776639 0.02136224913872127 0 0.14579340212816641 0.038405220315267663 0 0.1620418926126978 0.036255926132564682 0 0.15541952745182569 0.04677658384696623 0 0.14579340212816641 0.038405220315267663 0 0.14278372382386809 0.048416123664777412 0 0.15541952745182569 0.04677658384696623 0 0.14579340212816641 0.038405220315267663 0 0.14278372382386809 0.048416123664777412 0 0.14579340212816641 0.038405220315267663 0 0.12977361784467401 0.039215218793308727 0 0.13894824890776639 0.02136224913872127 0 0.14579340212816641 0.038405220315267663 0 0.12977361784467401 0.039215218793308727 0 0.11550376979223601 0.054551475820320147 0 0.12977361784467401 0.039215218793308727 0 0.1326943019686847 0.054606112458038862 0 0.11550376979223601 0.054551475820320147 0 0.1326943019686847 0.054606112458038862 0 0.13255022158949201 0.068763676371196639 0 0.14278372382386809 0.048416123664777412 0 0.12977361784467401 0.039215218793308727 0 0.1326943019686847 0.054606112458038862 0 0.14278372382386809 0.048416123664777412 0 0.1428601767931531 0.062084067640591357 0 0.1326943019686847 0.054606112458038862 0 0.1428601767931531 0.062084067640591357 0 0.1326943019686847 0.054606112458038862 0 0.13255022158949201 0.068763676371196639 0 0.1207366242219714 0.074251990558816788 0 0.13255022158949201 0.068763676371196639 0 0.13578085374332971 0.077614708003019631 0 0.13255022158949201 0.068763676371196639 0 0.13578085374332971 0.077614708003019631 0 0.1430759120552613 0.073085192731263071 0 0.1428601767931531 0.062084067640591357 0 0.13255022158949201 0.068763676371196639 0 0.1430759120552613 0.073085192731263071 0 0.1428601767931531 0.062084067640591357 0 0.1430759120552613 0.073085192731263071 0 0.15260580868734391 0.069203578475014266 0 0.1430759120552613 0.073085192731263071 0 0.14969883640752091 0.076610515579137797 0 0.14563192422462459 0.083183778073064013 0 0.13578085374332971 0.077614708003019631 0 0.1430759120552613 0.073085192731263071 0 0.14563192422462459 0.083183778073064013 0 0.1430759120552613 0.073085192731263071 0 0.14969883640752091 0.076610515579137797 0 0.15260580868734391 0.069203578475014266 0 0.14969883640752091 0.076610515579137797 0 0.15260580868734391 0.069203578475014266 0 0.15677919641446331 0.080277826610221981 0 0.1428601767931531 0.062084067640591357 0 0.15507694825043991 0.057889849327421902 0 0.15260580868734391 0.069203578475014266 0 0.1506819444987289 0.088437751930635633 0 0.14868901735932749 0.09586058707093438 0 0.157853861938485 0.092527754269896317 0 0.1506819444987289 0.088437751930635633 0 0.15677919641446331 0.080277826610221981 0 0.157853861938485 0.092527754269896317 0 0.14969883640752091 0.076610515579137797 0 0.14563192422462459 0.083183778073064013 0 0.15677919641446331 0.080277826610221981 0 0.1506819444987289 0.088437751930635633 0 0.14563192422462459 0.083183778073064013 0 0.15677919641446331 0.080277826610221981 0 0.14563192422462459 0.083183778073064013 0 0.1444557225567443 0.090338813629061501 0 0.13888671887288589 0.088270852986767859 0 0.1506819444987289 0.088437751930635633 0 0.14563192422462459 0.083183778073064013 0 0.1444557225567443 0.090338813629061501 0 0.1444557225567443 0.090338813629061501 0 0.14209274384079601 0.094639397504520467 0 0.14868901735932749 0.09586058707093438 0 0.1506819444987289 0.088437751930635633 0 0.1444557225567443 0.090338813629061501 0 0.14868901735932749 0.09586058707093438 0 0.1444557225567443 0.090338813629061501 0 0.13888671887288589 0.088270852986767859 0 0.14209274384079601 0.094639397504520467 0 0.13888671887288589 0.088270852986767859 0 0.13668050292917741 0.098217611464673699 0 0.14209274384079601 0.094639397504520467 0 0.13888671887288589 0.088270852986767859 0 0.1300820653953097 0.084166932106396392 0 0.13668050292917741 0.098217611464673699 0 0.11116449005577619 0.086473750785835857 0 0.1300820653953097 0.084166932106396392 0 0.13668050292917741 0.098217611464673699 0 0.13578085374332971 0.077614708003019631 0 0.13888671887288589 0.088270852986767859 0 0.1300820653953097 0.084166932106396392 0 0.13578085374332971 0.077614708003019631 0 0.14563192422462459 0.083183778073064013 0 0.13888671887288589 0.088270852986767859 0 0.1207366242219714 0.074251990558816788 0 0.13578085374332971 0.077614708003019631 0 0.1300820653953097 0.084166932106396392 0 0.1216961693062274 0.1020981758197984 0 0.1302764983332621 0.10693497851168419 0 0.13668050292917741 0.098217611464673699 0 0.1302764983332621 0.10693497851168419 0 0.13758713408363871 0.1043360441680015 0 0.13668050292917741 0.098217611464673699 0 0.1302764983332621 0.10693497851168419 0 0.1360833458267342 0.1084620534226548 0 0.13758713408363871 0.1043360441680015 0 0.1360833458267342 0.1084620534226548 0 0.13758713408363871 0.1043360441680015 0 0.14314356584317489 0.10755645506983 0 0.13758713408363871 0.1043360441680015 0 0.13668050292917741 0.098217611464673699 0 0.14175175748584509 0.1005091223711649 0 0.13668050292917741 0.098217611464673699 0 0.14209274384079601 0.094639397504520467 0 0.14175175748584509 0.1005091223711649 0 0.12813823657366311 0.12049833089676459 0 0.13246275659848361 0.1130811342378658 0 0.13708322035591489 0.118794437000363 0 0.12212988809696081 0.1249307776834532 0 0.12788127083107459 0.1291064789800366 0 0.12813823657366311 0.12049833089676459 0 0.1197878353292403 0.1092484053650479 0 0.1302764983332621 0.10693497851168419 0 0.12624189261331301 0.1140678077034443 0 0.12813823657366311 0.12049833089676459 0 0.12624189261331301 0.1140678077034443 0 0.13246275659848361 0.1130811342378658 0 0.1302764983332621 0.10693497851168419 0 0.12624189261331301 0.1140678077034443 0 0.13246275659848361 0.1130811342378658 0 0.138866780176991 0.11235807520418389 0 0.13708322035591489 0.118794437000363 0 0.14572099158606311 0.1154247658161887 0 0.1360833458267342 0.1084620534226548 0 0.13246275659848361 0.1130811342378658 0 0.138866780176991 0.11235807520418389 0 0.1302764983332621 0.10693497851168419 0 0.1360833458267342 0.1084620534226548 0 0.13246275659848361 0.1130811342378658 0 0.1360833458267342 0.1084620534226548 0 0.138866780176991 0.11235807520418389 0 0.14314356584317489 0.10755645506983 0 0.13246275659848361 0.1130811342378658 0 0.138866780176991 0.11235807520418389 0 0.13708322035591489 0.118794437000363 0 0.13409394305489639 0.1257339851238449 0 0.14295710802469111 0.12768772724150559 0 0.13708322035591489 0.118794437000363 0 0.13409394305489639 0.1257339851238449 0 0.12813823657366311 0.12049833089676459 0 0.13708322035591489 0.118794437000363 0 0.14572099158606311 0.1154247658161887 0 0.15364605026385231 0.1227496740475859 0 0.15839207309433961 0.10550736800805539 0 0.14295710802469111 0.12768772724150559 0 0.13708322035591489 0.118794437000363 0 0.14572099158606311 0.1154247658161887 0 0.14295710802469111 0.12768772724150559 0 0.14572099158606311 0.1154247658161887 0 0.15364605026385231 0.1227496740475859 0 0.138866780176991 0.11235807520418389 0 0.14572099158606311 0.1154247658161887 0 0.14314356584317489 0.10755645506983 0 0.14572099158606311 0.1154247658161887 0 0.14314356584317489 0.10755645506983 0 0.15839207309433961 0.10550736800805539 0 0.14175175748584509 0.1005091223711649 0 0.15839207309433961 0.10550736800805539 0 0.14175175748584509 0.1005091223711649 0 0.14314356584317489 0.10755645506983 0 0.15839207309433961 0.10550736800805539 0 0.14175175748584509 0.1005091223711649 0 0.14868901735932749 0.09586058707093438 0 0.15839207309433961 0.10550736800805539 0 0.14209274384079601 0.094639397504520467 0 0.14175175748584509 0.1005091223711649 0 0.14868901735932749 0.09586058707093438 0 0.13758713408363871 0.1043360441680015 0 0.14175175748584509 0.1005091223711649 0 0.14314356584317489 0.10755645506983 0 0.14868901735932749 0.09586058707093438 0 0.15839207309433961 0.10550736800805539 0 0.157853861938485 0.092527754269896317 0 0.15839207309433961 0.10550736800805539 0 0.17503238870283441 0.11050561364494491 0 0.15839207309433961 0.10550736800805539 0 0.1705578526620479 0.095927182961129481 0 0.157853861938485 0.092527754269896317 0 0.15839207309433961 0.10550736800805539 0 0.1705578526620479 0.095927182961129481 0 0.17503238870283441 0.11050561364494491 0 0.16417220099380411 0.12505127510387981 0 0.15839207309433961 0.10550736800805539 0 0.17503238870283441 0.11050561364494491 0 0.16417220099380411 0.12505127510387981 0 0.15364605026385231 0.1227496740475859 0 0.15839207309433961 0.10550736800805539 0 0.16417220099380411 0.12505127510387981 0 0.17503238870283441 0.11050561364494491 0 0.18002451345814399 0.12716596121819479 0 0.16417220099380411 0.12505127510387981 0 0.17503238870283441 0.11050561364494491 0 0.18002451345814399 0.12716596121819479 0 0.2001236667938262 0.1180422718546187 0 0.17503238870283441 0.11050561364494491 0 0.1916307843626972 0.08827444688259839 0 0.1705578526620479 0.095927182961129481 0 0.17503238870283441 0.11050561364494491 0 0.1916307843626972 0.08827444688259839 0 0.17503238870283441 0.11050561364494491 0 0.1916307843626972 0.08827444688259839 0 0.17935943521264269 0.07135827912697662 0 0.16988015521188329 0.08282073200015258 0 0.1916307843626972 0.08827444688259839 0 0.1705578526620479 0.095927182961129481 0 0.16988015521188329 0.08282073200015258 0 0.19067723801237901 0.065525043857756982 0 0.1916307843626972 0.08827444688259839 0 0.17935943521264269 0.07135827912697662 0 0.19067723801237901 0.065525043857756982 0 0.17734631865053521 0.060730067185729229 0 0.17935943521264269 0.07135827912697662 0 0.17734631865053521 0.060730067185729229 0 0.17935943521264269 0.07135827912697662 0 0.1653937448538241 0.067538194789913991 0 0.17935943521264269 0.07135827912697662 0 0.1653937448538241 0.067538194789913991 0 0.16988015521188329 0.08282073200015258 0 0.15507694825043991 0.057889849327421902 0 0.15260580868734391 0.069203578475014266 0 0.1653937448538241 0.067538194789913991 0 0.15260580868734391 0.069203578475014266 0 0.1653937448538241 0.067538194789913991 0 0.15677919641446331 0.080277826610221981 0 0.1653937448538241 0.067538194789913991 0 0.15677919641446331 0.080277826610221981 0 0.16988015521188329 0.08282073200015258 0 0.15677919641446331 0.080277826610221981 0 0.157853861938485 0.092527754269896317 0 0.16988015521188329 0.08282073200015258 0 0.1705578526620479 0.095927182961129481 0 0.157853861938485 0.092527754269896317 0 0.16988015521188329 0.08282073200015258 0 0.099456207782380623 0.4822659283708195 0 0.1141892196830592 0.48396198267476093 0 0.11304725129434449 0.46767028325629811 0 0.099456207782380623 0.4822659283708195 0 0.11304725129434449 0.46767028325629811 0 0.096803680563272876 0.46646214520586099 0 0.099456207782380623 0.4822659283708195 0 0.10782601469385079 0.5 0 0.078267650747156567 0.50000000000000133 0 0.099456207782380623 0.4822659283708195 0 0.10782601469385079 0.5 0 0.1141892196830592 0.48396198267476093 0 0.10782601469385079 0.5 0 0.1249193769550877 0.49369376296818718 0 0.1141892196830592 0.48396198267476093 0 0.1249193769550877 0.49369376296818718 0 0.1141892196830592 0.48396198267476093 0 0.12569724768963239 0.47617993877849962 0 0.10782601469385079 0.5 0 0.1249193769550877 0.49369376296818718 0 0.13738437864054501 0.5 0 0.1141892196830592 0.48396198267476093 0 0.11304725129434449 0.46767028325629811 0 0.12569724768963239 0.47617993877849962 0 0.11304725129434449 0.46767028325629811 0 0.1267882431275838 0.46370707134437261 0 0.12569724768963239 0.47617993877849962 0 0.11304725129434449 0.46767028325629811 0 0.1221607865463437 0.4507156547582637 0 0.1004821270038239 0.44949914822431608 0 0.11304725129434449 0.46767028325629811 0 0.1221607865463437 0.4507156547582637 0 0.1267882431275838 0.46370707134437261 0 0.1221607865463437 0.4507156547582637 0 0.1004821270038239 0.44949914822431608 0 0.12259086230274099 0.42947812748907283 0 0.1004821270038239 0.44949914822431608 0 0.096803680563272876 0.46646214520586099 0 0.084307548883437972 0.45862843933572522 0 0.11304725129434449 0.46767028325629811 0 0.1004821270038239 0.44949914822431608 0 0.096803680563272876 0.46646214520586099 0 0.084307548883437972 0.45862843933572522 0 0.070120974899159305 0.46867166915081548 0 0.08254081050968877 0.47642281665818748 0 0.096803680563272876 0.46646214520586099 0 0.084307548883437972 0.45862843933572522 0 0.08254081050968877 0.47642281665818748 0 0.084307548883437972 0.45862843933572522 0 0.083205653112744402 0.44008551456546158 0 0.070599818540594342 0.45171728711773013 0 0.1004821270038239 0.44949914822431608 0 0.084307548883437972 0.45862843933572522 0 0.083205653112744402 0.44008551456546158 0 0.1004821270038239 0.44949914822431608 0 0.083205653112744402 0.44008551456546158 0 0.095892719888732866 0.42453745382262881 0 0.070599818540594342 0.45171728711773013 0 0.057347956450285731 0.44480695268810438 0 0.068330088192809502 0.43602814955066621 0 0.083205653112744402 0.44008551456546158 0 0.070599818540594342 0.45171728711773013 0 0.068330088192809502 0.43602814955066621 0 0.070599818540594342 0.45171728711773013 0 0.070120974899159305 0.46867166915081548 0 0.05832870883015126 0.45973880463956351 0 0.084307548883437972 0.45862843933572522 0 0.070599818540594342 0.45171728711773013 0 0.070120974899159305 0.46867166915081548 0 0.070120974899159305 0.46867166915081548 0 0.08254081050968877 0.47642281665818748 0 0.061557047466102868 0.48310025102256282 0 0.070120974899159305 0.46867166915081548 0 0.061557047466102868 0.48310025102256282 0 0.05832870883015126 0.45973880463956351 0 0.099456207782380623 0.4822659283708195 0 0.096803680563272876 0.46646214520586099 0 0.08254081050968877 0.47642281665818748 0 0.099456207782380623 0.4822659283708195 0 0.08254081050968877 0.47642281665818748 0 0.078267650747156567 0.50000000000000133 0 0.078267650747156567 0.50000000000000133 0 0.049166882519808157 0.5 0 0.061557047466102868 0.48310025102256282 0 0.08254081050968877 0.47642281665818748 0 0.078267650747156567 0.50000000000000133 0 0.061557047466102868 0.48310025102256282 0 0.078267650747156567 0.50000000000000133 0 0.061557047466102868 0.48310025102256282 0 0.049166882519808157 0.5 0 0.061557047466102868 0.48310025102256282 0 0.038208171894904559 0.48286056860770488 0 0.061557047466102868 0.48310025102256282 0 0.044846444185049857 0.46620050204512359 0 0.05832870883015126 0.45973880463956351 0 0.061557047466102868 0.48310025102256282 0 0.044846444185049857 0.46620050204512359 0 0.061557047466102868 0.48310025102256282 0 0.038208171894904559 0.48286056860770488 0 0.044846444185049857 0.46620050204512359 0 0.038208171894904559 0.48286056860770488 0 0.029572045059576241 0.469060477695939 0 0.044846444185049857 0.46620050204512359 0 0.049166882519808157 0.5 0 0.038208171894904559 0.48286056860770488 0 0.020066114292459799 0.5 0 0.038208171894904559 0.48286056860770488 0 0.020066114292459799 0.5 0 0.021055159894441029 0.48095839664786189 0 0.038208171894904559 0.48286056860770488 0 0.029572045059576241 0.469060477695939 0 0.021055159894441029 0.48095839664786189 0 0.029572045059576241 0.469060477695939 0 0.021055159894441029 0.48095839664786189 0 0.01561460841948897 0.46598216811131982 0 0.021055159894441029 0.48095839664786189 0 0.0030933759349822849 0.48266358315495572 0 0.01561460841948897 0.46598216811131982 0 0.0030933759349822849 0.48266358315495572 0 0.01561460841948897 0.46598216811131982 0 0.0036787250480955699 0.47408322248379448 0 0.0030933759349822849 0.48266358315495572 0 0.01561460841948897 0.46598216811131982 0 -0.0016340076521478781 0.48633642657919801 0 0.0036787250480955699 0.47408322248379448 0 0.0030933759349822849 0.48266358315495572 0 0.020066114292459799 0.5 0 0.021055159894441029 0.48095839664786189 0 0.0030933759349822849 0.48266358315495572 0 -0.0090346539348886701 0.5 0 -0.0016340076521478781 0.48633642657919801 0 0.020066114292459799 0.5 0 -0.0016340076521478781 0.48633642657919801 0 0.020066114292459799 0.5 0 0.0030933759349822849 0.48266358315495572 0 -0.0030841453677343121 0.43636499760021141 0 -0.002359076509941094 0.46135071208970457 0 0.010470448459028871 0.45111158928184719 0 -0.0030841453677343121 0.43636499760021141 0 0.010470448459028871 0.45111158928184719 0 0.017893296784651399 0.43894227458572882 0 -0.002359076509941094 0.46135071208970457 0 0.010470448459028871 0.45111158928184719 0 0.01561460841948897 0.46598216811131982 0 -0.002359076509941094 0.46135071208970457 0 0.0036787250480955699 0.47408322248379448 0 0.01561460841948897 0.46598216811131982 0 0.010470448459028871 0.45111158928184719 0 0.01561460841948897 0.46598216811131982 0 0.0281358409039968 0.44930075306768458 0 0.029572045059576241 0.469060477695939 0 0.01561460841948897 0.46598216811131982 0 0.0281358409039968 0.44930075306768458 0 0.01561460841948897 0.46598216811131982 0 0.0281358409039968 0.44930075306768458 0 0.010470448459028871 0.45111158928184719 0 0.0281358409039968 0.44930075306768458 0 0.017893296784651399 0.43894227458572882 0 0.0281358409039968 0.44930075306768458 0 0.017893296784651399 0.43894227458572882 0 0.03800042812263172 0.43615865433005307 0 0.0281358409039968 0.44930075306768458 0 0.017893296784651399 0.43894227458572882 0 0.0281358409039968 0.44930075306768458 0 0.04587361322417214 0.448769157871174 0 0.03800042812263172 0.43615865433005307 0 0.0281358409039968 0.44930075306768458 0 0.03800042812263172 0.43615865433005307 0 0.04587361322417214 0.448769157871174 0 0.049411209704934803 0.43621283219101809 0 0.03800042812263172 0.43615865433005307 0 0.029572045059576241 0.469060477695939 0 0.0281358409039968 0.44930075306768458 0 0.044846444185049857 0.46620050204512359 0 0.0281358409039968 0.44930075306768458 0 0.04587361322417214 0.448769157871174 0 0.044846444185049857 0.46620050204512359 0 0.0281358409039968 0.44930075306768458 0 0.044846444185049857 0.46620050204512359 0 0.04587361322417214 0.448769157871174 0 0.044846444185049857 0.46620050204512359 0 0.05832870883015126 0.45973880463956351 0 0.04587361322417214 0.448769157871174 0 0.057347956450285731 0.44480695268810438 0 0.049411209704934803 0.43621283219101809 0 0.04587361322417214 0.448769157871174 0 0.05832870883015126 0.45973880463956351 0 0.057347956450285731 0.44480695268810438 0 0.070599818540594342 0.45171728711773013 0 0.05832870883015126 0.45973880463956351 0 0.057347956450285731 0.44480695268810438 0 0.057347956450285731 0.44480695268810438 0 0.058238482531349368 0.43512174465279091 0 0.068330088192809502 0.43602814955066621 0 0.057347956450285731 0.44480695268810438 0 0.058238482531349368 0.43512174465279091 0 0.049411209704934803 0.43621283219101809 0 0.058238482531349368 0.43512174465279091 0 0.05412352915042095 0.42739076434297479 0 0.063786863135573219 0.4234822836218442 0 0.05412352915042095 0.42739076434297479 0 0.047865015341267358 0.42301655559242213 0 0.049411209704934803 0.43621283219101809 0 0.05412352915042095 0.42739076434297479 0 0.047865015341267358 0.42301655559242213 0 0.058238482531349368 0.43512174465279091 0 0.05412352915042095 0.42739076434297479 0 0.049411209704934803 0.43621283219101809 0 0.047865015341267358 0.42301655559242213 0 0.055388731832649349 0.41299308245440008 0 0.044385004541519633 0.40583709082877739 0 0.055388731832649349 0.41299308245440008 0 0.057103340742871267 0.4006394318358022 0 0.0691327228978319 0.40699071288372829 0 0.05412352915042095 0.42739076434297479 0 0.055388731832649349 0.41299308245440008 0 0.063786863135573219 0.4234822836218442 0 0.047865015341267358 0.42301655559242213 0 0.055388731832649349 0.41299308245440008 0 0.05412352915042095 0.42739076434297479 0 0.047865015341267358 0.42301655559242213 0 0.055388731832649349 0.41299308245440008 0 0.055388731832649349 0.41299308245440008 0 0.044385004541519633 0.40583709082877739 0 0.057103340742871267 0.4006394318358022 0 0.047865015341267358 0.42301655559242213 0 0.030398582533070099 0.41080889326869052 0 0.044385004541519633 0.40583709082877739 0 0.047865015341267358 0.42301655559242213 0 0.035686717363660143 0.42423985257235269 0 0.030398582533070099 0.41080889326869052 0 0.047865015341267358 0.42301655559242213 0 0.030398582533070099 0.41080889326869052 0 0.047865015341267358 0.42301655559242213 0 0.049411209704934803 0.43621283219101809 0 0.03800042812263172 0.43615865433005307 0 0.047865015341267358 0.42301655559242213 0 0.03800042812263172 0.43615865433005307 0 0.047865015341267358 0.42301655559242213 0 0.035686717363660143 0.42423985257235269 0 0.03800042812263172 0.43615865433005307 0 0.035686717363660143 0.42423985257235269 0 0.03800042812263172 0.43615865433005307 0 0.0264828434576714 0.42697530709824522 0 0.017893296784651399 0.43894227458572882 0 0.0264828434576714 0.42697530709824522 0 0.013451351612083251 0.42022136891186163 0 0.017893296784651399 0.43894227458572882 0 0.03800042812263172 0.43615865433005307 0 0.0264828434576714 0.42697530709824522 0 0.030398582533070099 0.41080889326869052 0 0.013451351612083251 0.42022136891186163 0 0.012932149724872831 0.39860123094495892 0 0.0264828434576714 0.42697530709824522 0 0.030398582533070099 0.41080889326869052 0 0.013451351612083251 0.42022136891186163 0 0.035686717363660143 0.42423985257235269 0 0.0264828434576714 0.42697530709824522 0 0.030398582533070099 0.41080889326869052 0 -0.0038092142255275289 0.41137928311071797 0 0.013451351612083251 0.42022136891186163 0 0.012932149724872831 0.39860123094495892 0 -0.0030841453677343121 0.43636499760021141 0 0.017893296784651399 0.43894227458572882 0 0.013451351612083251 0.42022136891186163 0 -0.0030841453677343121 0.43636499760021141 0 -0.0038092142255275289 0.41137928311071797 0 0.013451351612083251 0.42022136891186163 0 -0.0045342830833226501 0.3863935686212247 0 0.012932149724872831 0.39860123094495892 0 0.0079023355216259559 0.37348921158265391 0 0.012932149724872831 0.39860123094495892 0 0.025375843575522711 0.38021681034322929 0 0.0079023355216259559 0.37348921158265391 0 -0.0045342830833226501 0.3863935686212247 0 0.012932149724872831 0.39860123094495892 0 -0.0045342830833226501 0.3863935686212247 0 -0.0038092142255275289 0.41137928311071797 0 0.012932149724872831 0.39860123094495892 0 0.030398582533070099 0.41080889326869052 0 0.012932149724872831 0.39860123094495892 0 0.030398582533070099 0.41080889326869052 0 0.012932149724872831 0.39860123094495892 0 0.030218872497922818 0.39559608178221078 0 0.012932149724872831 0.39860123094495892 0 0.030218872497922818 0.39559608178221078 0 0.025375843575522711 0.38021681034322929 0 0.025375843575522711 0.38021681034322929 0 0.045236422390978262 0.39339421550307069 0 0.045418656597819553 0.37354288132317159 0 0.030218872497922818 0.39559608178221078 0 0.025375843575522711 0.38021681034322929 0 0.045236422390978262 0.39339421550307069 0 0.030398582533070099 0.41080889326869052 0 0.030218872497922818 0.39559608178221078 0 0.044385004541519633 0.40583709082877739 0 0.030218872497922818 0.39559608178221078 0 0.045236422390978262 0.39339421550307069 0 0.044385004541519633 0.40583709082877739 0 0.045236422390978262 0.39339421550307069 0 0.057103340742871267 0.4006394318358022 0 0.06607043693335328 0.38973814947632979 0 0.045236422390978262 0.39339421550307069 0 0.044385004541519633 0.40583709082877739 0 0.057103340742871267 0.4006394318358022 0 0.045236422390978262 0.39339421550307069 0 0.06607043693335328 0.38973814947632979 0 0.045418656597819553 0.37354288132317159 0 0.06607043693335328 0.38973814947632979 0 0.066778362586220691 0.36264744131756171 0 0.045418656597819553 0.37354288132317159 0 0.06607043693335328 0.38973814947632979 0 0.086713905658550791 0.37461406501925459 0 0.066778362586220691 0.36264744131756171 0 0.091303312773641829 0.3995757594209417 0 0.1025776524751303 0.38486691706586951 0 0.086713905658550791 0.37461406501925459 0 0.06607043693335328 0.38973814947632979 0 0.091303312773641829 0.3995757594209417 0 0.086713905658550791 0.37461406501925459 0 0.091303312773641829 0.3995757594209417 0 0.086713905658550791 0.37461406501925459 0 0.06607043693335328 0.38973814947632979 0 0.091303312773641829 0.3995757594209417 0 0.0691327228978319 0.40699071288372829 0 0.057103340742871267 0.4006394318358022 0 0.06607043693335328 0.38973814947632979 0 0.0691327228978319 0.40699071288372829 0 0.055388731832649349 0.41299308245440008 0 0.0691327228978319 0.40699071288372829 0 0.063786863135573219 0.4234822836218442 0 0.0691327228978319 0.40699071288372829 0 0.077714875811277062 0.4214876261871765 0 0.063786863135573219 0.4234822836218442 0 0.083205653112744402 0.44008551456546158 0 0.077714875811277062 0.4214876261871765 0 0.068330088192809502 0.43602814955066621 0 0.058238482531349368 0.43512174465279091 0 0.068330088192809502 0.43602814955066621 0 0.063786863135573219 0.4234822836218442 0 0.077714875811277062 0.4214876261871765 0 0.068330088192809502 0.43602814955066621 0 0.063786863135573219 0.4234822836218442 0 0.083205653112744402 0.44008551456546158 0 0.077714875811277062 0.4214876261871765 0 0.095892719888732866 0.42453745382262881 0 0.091303312773641829 0.3995757594209417 0 0.0691327228978319 0.40699071288372829 0 0.077714875811277062 0.4214876261871765 0 0.091303312773641829 0.3995757594209417 0 0.095892719888732866 0.42453745382262881 0 0.091303312773641829 0.3995757594209417 0 0.077714875811277062 0.4214876261871765 0 0.095892719888732866 0.42453745382262881 0 0.091303312773641829 0.3995757594209417 0 0.095892719888732866 0.42453745382262881 0 0.115428724103706 0.40267530492779557 0 0.1004821270038239 0.44949914822431608 0 0.095892719888732866 0.42453745382262881 0 0.12259086230274099 0.42947812748907283 0 0.1004821270038239 0.44949914822431608 0 0.095892719888732866 0.42453745382262881 0 0.095892719888732866 0.42453745382262881 0 0.12259086230274099 0.42947812748907283 0 0.115428724103706 0.40267530492779557 0 0.115428724103706 0.40267530492779557 0 0.119448870245615 0.38256434187866972 0 0.13692284990477191 0.38930777957628943 0 0.119448870245615 0.38256434187866972 0 0.1025776524751303 0.38486691706586951 0 0.1087205780393706 0.3656269003386084 0 0.115428724103706 0.40267530492779557 0 0.119448870245615 0.38256434187866972 0 0.1025776524751303 0.38486691706586951 0 0.1025776524751303 0.38486691706586951 0 0.1087205780393706 0.3656269003386084 0 0.086713905658550791 0.37461406501925459 0 0.091303312773641829 0.3995757594209417 0 0.115428724103706 0.40267530492779557 0 0.1025776524751303 0.38486691706586951 0 0.1087205780393706 0.3656269003386084 0 0.1202868522871179 0.34060046584014031 0 0.0915497208986496 0.34709204532757532 0 0.1087205780393706 0.3656269003386084 0 0.0915497208986496 0.34709204532757532 0 0.086713905658550791 0.37461406501925459 0 0.119448870245615 0.38256434187866972 0 0.1087205780393706 0.3656269003386084 0 0.13274728415341139 0.36410634055334368 0 0.1087205780393706 0.3656269003386084 0 0.1202868522871179 0.34060046584014031 0 0.13274728415341139 0.36410634055334368 0 0.1202868522871179 0.34060046584014031 0 0.1104734498024164 0.31171603628350752 0 0.14183880654046921 0.32250528078568202 0 0.1202868522871179 0.34060046584014031 0 0.1016552612267161 0.33013161519950079 0 0.1104734498024164 0.31171603628350752 0 0.1016552612267161 0.33013161519950079 0 0.081254576285268804 0.3210829637434266 0 0.1104734498024164 0.31171603628350752 0 0.1202868522871179 0.34060046584014031 0 0.1016552612267161 0.33013161519950079 0 0.0915497208986496 0.34709204532757532 0 0.081254576285268804 0.3210829637434266 0 0.072654821413094289 0.33942743407960763 0 0.0915497208986496 0.34709204532757532 0 0.1016552612267161 0.33013161519950079 0 0.081254576285268804 0.3210829637434266 0 0.0915497208986496 0.34709204532757532 0 0.081254576285268804 0.3210829637434266 0 0.06358813508901956 0.32234581427363851 0 0.071244474661197085 0.3036312559279935 0 0.081254576285268804 0.3210829637434266 0 0.06358813508901956 0.32234581427363851 0 0.072654821413094289 0.33942743407960763 0 0.06358813508901956 0.32234581427363851 0 0.072654821413094289 0.33942743407960763 0 0.055199983679349987 0.34246375673151652 0 0.072654821413094289 0.33942743407960763 0 0.066778362586220691 0.36264744131756171 0 0.055199983679349987 0.34246375673151652 0 0.072654821413094289 0.33942743407960763 0 0.0915497208986496 0.34709204532757532 0 0.066778362586220691 0.36264744131756171 0 0.0915497208986496 0.34709204532757532 0 0.086713905658550791 0.37461406501925459 0 0.066778362586220691 0.36264744131756171 0 0.066778362586220691 0.36264744131756171 0 0.044951457965310811 0.3555124197003488 0 0.045418656597819553 0.37354288132317159 0 0.066778362586220691 0.36264744131756171 0 0.044951457965310811 0.3555124197003488 0 0.055199983679349987 0.34246375673151652 0 0.044951457965310811 0.3555124197003488 0 0.021903196078839001 0.35746348141110651 0 0.035457090884324839 0.34144453771838768 0 0.044951457965310811 0.3555124197003488 0 0.035457090884324839 0.34144453771838768 0 0.055199983679349987 0.34246375673151652 0 0.044951457965310811 0.3555124197003488 0 0.045418656597819553 0.37354288132317159 0 0.021903196078839001 0.35746348141110651 0 0.025375843575522711 0.38021681034322929 0 0.021903196078839001 0.35746348141110651 0 0.0079023355216259559 0.37348921158265391 0 0.025375843575522711 0.38021681034322929 0 0.045418656597819553 0.37354288132317159 0 0.021903196078839001 0.35746348141110651 0 0.021903196078839001 0.35746348141110651 0 0.017151683724365509 0.3376665205351736 0 0.035457090884324839 0.34144453771838768 0 0.021903196078839001 0.35746348141110651 0 0.0095650341834115256 0.34490192427506011 0 0.017151683724365509 0.3376665205351736 0 0.021903196078839001 0.35746348141110651 0 0.0095650341834115256 0.34490192427506011 0 0.0061318462344260851 0.35417601161121459 0 -0.0050552824635438226 0.34569829691311771 0 0.0095650341834115256 0.34490192427506011 0 0.0061318462344260851 0.35417601161121459 0 0.021903196078839001 0.35746348141110651 0 0.0061318462344260851 0.35417601161121459 0 0.0079023355216259559 0.37348921158265391 0 -0.0052616759920083916 0.36132776784546622 0 0.0061318462344260851 0.35417601161121459 0 0.0079023355216259559 0.37348921158265391 0 0.0087281755863181168 0.33049580891976171 0 0.020410497070949891 0.30832150289807031 0 0.0056044744337335906 0.31412092038659428 0 0.0087281755863181168 0.33049580891976171 0 0.020410497070949891 0.30832150289807031 0 -0.003280447873963227 0.32161399115684158 0 0.0056044744337335906 0.31412092038659428 0 0.0087281755863181168 0.33049580891976171 0 0.0064742168078369342 0.3347740657525386 0 0.0087281755863181168 0.33049580891976171 0 -0.0050552824635438226 0.34569829691311771 0 0.0095650341834115256 0.34490192427506011 0 0.0064742168078369342 0.3347740657525386 0 0.0095650341834115256 0.34490192427506011 0 0.0064742168078369342 0.3347740657525386 0 0.017151683724365509 0.3376665205351736 0 0.0064742168078369342 0.3347740657525386 0 0.0087281755863181168 0.33049580891976171 0 0.017151683724365509 0.3376665205351736 0 0.0087281755863181168 0.33049580891976171 0 0.025353163704189718 0.33024288796319817 0 0.017151683724365509 0.3376665205351736 0 0.0087281755863181168 0.33049580891976171 0 0.025353163704189718 0.33024288796319817 0 0.025353163704189718 0.33024288796319817 0 0.017151683724365509 0.3376665205351736 0 0.035457090884324839 0.34144453771838768 0 0.0087281755863181168 0.33049580891976171 0 0.025353163704189718 0.33024288796319817 0 0.020410497070949891 0.30832150289807031 0 0.025353163704189718 0.33024288796319817 0 0.038017806832533571 0.30672300381527179 0 0.020410497070949891 0.30832150289807031 0 0.025353163704189718 0.33024288796319817 0 0.045812945845809312 0.32351293560108041 0 0.038017806832533571 0.30672300381527179 0 0.025353163704189718 0.33024288796319817 0 0.045812945845809312 0.32351293560108041 0 0.035457090884324839 0.34144453771838768 0 0.045812945845809312 0.32351293560108041 0 0.035457090884324839 0.34144453771838768 0 0.055199983679349987 0.34246375673151652 0 0.06358813508901956 0.32234581427363851 0 0.045812945845809312 0.32351293560108041 0 0.055199983679349987 0.34246375673151652 0 0.06358813508901956 0.32234581427363851 0 0.045812945845809312 0.32351293560108041 0 0.055148108477292443 0.3057593846019967 0 0.055148108477292443 0.3057593846019967 0 0.047586914097201803 0.29032131063477928 0 0.038017806832533571 0.30672300381527179 0 0.055148108477292443 0.3057593846019967 0 0.047586914097201803 0.29032131063477928 0 0.066935962560195753 0.28615893812798288 0 0.047586914097201803 0.29032131063477928 0 0.050578246113349837 0.27455429857722041 0 0.066935962560195753 0.28615893812798288 0 0.047586914097201803 0.29032131063477928 0 0.032092818555581597 0.28614719687637868 0 0.038017806832533571 0.30672300381527179 0 0.047586914097201803 0.29032131063477928 0 0.032092818555581597 0.28614719687637868 0 0.050578246113349837 0.27455429857722041 0 0.045812945845809312 0.32351293560108041 0 0.055148108477292443 0.3057593846019967 0 0.038017806832533571 0.30672300381527179 0 0.032092818555581597 0.28614719687637868 0 0.038017806832533571 0.30672300381527179 0 0.020410497070949891 0.30832150289807031 0 0.032092818555581597 0.28614719687637868 0 0.020410497070949891 0.30832150289807031 0 0.032092818555581597 0.28614719687637868 0 0.020410497070949891 0.30832150289807031 0 0.0083336089875100904 0.29343585490586271 0 0.032092818555581597 0.28614719687637868 0 0.0083336089875100904 0.29343585490586271 0 0.021382191810826279 0.2686960609189637 0 -0.0088759444352828343 0.31092800175718183 0 0.0056044744337335906 0.31412092038659428 0 0.0083336089875100904 0.29343585490586271 0 0.0056044744337335906 0.31412092038659428 0 0.020410497070949891 0.30832150289807031 0 0.0083336089875100904 0.29343585490586271 0 0.0073806355134042019 0.25529449578482938 0 3.3590645499582607e-05 0.27236849017123349 0 0.021382191810826279 0.2686960609189637 0 0.0083336089875100904 0.29343585490586271 0 3.3590645499582607e-05 0.27236849017123349 0 0.021382191810826279 0.2686960609189637 0 0.025149977659741599 0.24684982625080901 0 0.0073806355134042019 0.25529449578482938 0 0.021382191810826279 0.2686960609189637 0 0.025149977659741599 0.24684982625080901 0 0.021382191810826279 0.2686960609189637 0 0.043775140040213267 0.26397289085468728 0 0.025149977659741599 0.24684982625080901 0 0.045472231705318063 0.24424317023843681 0 0.050158093690384618 0.2598810672441918 0 0.025149977659741599 0.24684982625080901 0 0.050158093690384618 0.2598810672441918 0 0.025149977659741599 0.24684982625080901 0 0.043775140040213267 0.26397289085468728 0 0.050158093690384618 0.2598810672441918 0 0.032092818555581597 0.28614719687637868 0 0.043775140040213267 0.26397289085468728 0 0.032092818555581597 0.28614719687637868 0 0.021382191810826279 0.2686960609189637 0 0.043775140040213267 0.26397289085468728 0 0.032092818555581597 0.28614719687637868 0 0.043775140040213267 0.26397289085468728 0 0.050578246113349837 0.27455429857722041 0 0.050578246113349837 0.27455429857722041 0 0.063875668081316214 0.2678607518654692 0 0.066935962560195753 0.28615893812798288 0 0.043775140040213267 0.26397289085468728 0 0.050578246113349837 0.27455429857722041 0 0.050158093690384618 0.2598810672441918 0 0.050578246113349837 0.27455429857722041 0 0.056046126259945157 0.25263236173372139 0 0.063875668081316214 0.2678607518654692 0 0.050578246113349837 0.27455429857722041 0 0.050158093690384618 0.2598810672441918 0 0.056046126259945157 0.25263236173372139 0 0.045472231705318063 0.24424317023843681 0 0.050158093690384618 0.2598810672441918 0 0.056046126259945157 0.25263236173372139 0 0.050578246113349837 0.27455429857722041 0 0.056046126259945157 0.25263236173372139 0 0.078525547080241467 0.2465942846531784 0 0.067905867336300579 0.25358800162702 0 0.079567988853459573 0.27014218499250892 0 0.067905867336300579 0.25358800162702 0 0.079567988853459573 0.27014218499250892 0 0.063875668081316214 0.2678607518654692 0 0.056046126259945157 0.25263236173372139 0 0.067905867336300579 0.25358800162702 0 0.063875668081316214 0.2678607518654692 0 0.078525547080241467 0.2465942846531784 0 0.079567988853459573 0.27014218499250892 0 0.093798877441032588 0.2579700649065903 0 0.079567988853459573 0.27014218499250892 0 0.063875668081316214 0.2678607518654692 0 0.066935962560195753 0.28615893812798288 0 0.079567988853459573 0.27014218499250892 0 0.066935962560195753 0.28615893812798288 0 0.087430381393448858 0.29852998767476718 0 0.066935962560195753 0.28615893812798288 0 0.071244474661197085 0.3036312559279935 0 0.087430381393448858 0.29852998767476718 0 0.055148108477292443 0.3057593846019967 0 0.066935962560195753 0.28615893812798288 0 0.071244474661197085 0.3036312559279935 0 0.06358813508901956 0.32234581427363851 0 0.055148108477292443 0.3057593846019967 0 0.071244474661197085 0.3036312559279935 0 0.081254576285268804 0.3210829637434266 0 0.087430381393448858 0.29852998767476718 0 0.1104734498024164 0.31171603628350752 0 0.081254576285268804 0.3210829637434266 0 0.071244474661197085 0.3036312559279935 0 0.087430381393448858 0.29852998767476718 0 0.079567988853459573 0.27014218499250892 0 0.087430381393448858 0.29852998767476718 0 0.1079828451826004 0.27738565586056829 0 0.087430381393448858 0.29852998767476718 0 0.1104734498024164 0.31171603628350752 0 0.1079828451826004 0.27738565586056829 0 0.1104734498024164 0.31171603628350752 0 0.1079828451826004 0.27738565586056829 0 0.13401849175413849 0.29214957311260448 0 0.1079828451826004 0.27738565586056829 0 0.13401849175413849 0.29214957311260448 0 0.1100607559553454 0.25396994184181759 0 0.1079828451826004 0.27738565586056829 0 0.13366986361514199 0.26692500362740812 0 0.12787711237058769 0.24521089126939841 0 0.1100607559553454 0.25396994184181759 0 0.13366986361514199 0.26692500362740812 0 0.092857250133516089 0.24175825718487831 0 0.1100607559553454 0.25396994184181759 0 0.093798877441032588 0.2579700649065903 0 0.1100607559553454 0.25396994184181759 0 0.093798877441032588 0.2579700649065903 0 0.1079828451826004 0.27738565586056829 0 0.079567988853459573 0.27014218499250892 0 0.093798877441032588 0.2579700649065903 0 0.1079828451826004 0.27738565586056829 0 0.13366986361514199 0.26692500362740812 0 0.1558685034792309 0.28595093384994291 0 0.15959452244756481 0.26367036214955358 0 0.14702044576598061 0.2478904659134552 0 0.13366986361514199 0.26692500362740812 0 0.15959452244756481 0.26367036214955358 0 0.14702044576598061 0.2478904659134552 0 0.12787711237058769 0.24521089126939841 0 0.13366986361514199 0.26692500362740812 0 0.1079828451826004 0.27738565586056829 0 0.13366986361514199 0.26692500362740812 0 0.13401849175413849 0.29214957311260448 0 0.1104734498024164 0.31171603628350752 0 0.13401849175413849 0.29214957311260448 0 0.14183880654046921 0.32250528078568202 0 0.13401849175413849 0.29214957311260448 0 0.16005413832567669 0.30691349036464077 0 0.14183880654046921 0.32250528078568202 0 0.13401849175413849 0.29214957311260448 0 0.16005413832567669 0.30691349036464077 0 0.13401849175413849 0.29214957311260448 0 0.1558685034792309 0.28595093384994291 0 0.16005413832567669 0.30691349036464077 0 0.13366986361514199 0.26692500362740812 0 0.13401849175413849 0.29214957311260448 0 0.1558685034792309 0.28595093384994291 0 0.1558685034792309 0.28595093384994291 0 0.1700220001876428 0.28782965529906401 0 0.16005413832567669 0.30691349036464077 0 0.1558685034792309 0.28595093384994291 0 0.1700220001876428 0.28782965529906401 0 0.17370236977615991 0.27502287964280692 0 0.1700220001876428 0.28782965529906401 0 0.16005413832567669 0.30691349036464077 0 0.1764196225356903 0.29880027385689728 0 0.16005413832567669 0.30691349036464077 0 0.1764196225356903 0.29880027385689728 0 0.18686192329242929 0.31378732528256248 0 0.1764196225356903 0.29880027385689728 0 0.18674031124236579 0.30201460306836742 0 0.19086383386244751 0.2907864273273883 0 0.1764196225356903 0.29880027385689728 0 0.18674031124236579 0.30201460306836742 0 0.18686192329242929 0.31378732528256248 0 0.1700220001876428 0.28782965529906401 0 0.18013512871176271 0.28566990799825959 0 0.17370236977615991 0.27502287964280692 0 0.1700220001876428 0.28782965529906401 0 0.1764196225356903 0.29880027385689728 0 0.18013512871176271 0.28566990799825959 0 0.1764196225356903 0.29880027385689728 0 0.18013512871176271 0.28566990799825959 0 0.19086383386244751 0.2907864273273883 0 0.18013512871176271 0.28566990799825959 0 0.1896678171968729 0.27591030386514148 0 0.19086383386244751 0.2907864273273883 0 0.18251379545819379 0.26835647973838378 0 0.17370236977615991 0.27502287964280692 0 0.1896678171968729 0.27591030386514148 0 0.18013512871176271 0.28566990799825959 0 0.17370236977615991 0.27502287964280692 0 0.1896678171968729 0.27591030386514148 0 0.18251379545819379 0.26835647973838378 0 0.17370236977615991 0.27502287964280692 0 0.17699066645021869 0.2595722272450377 0 0.17370236977615991 0.27502287964280692 0 0.15959452244756481 0.26367036214955358 0 0.17699066645021869 0.2595722272450377 0 0.1558685034792309 0.28595093384994291 0 0.17370236977615991 0.27502287964280692 0 0.15959452244756481 0.26367036214955358 0 0.16774616909827719 0.2460930353984315 0 0.15959452244756481 0.26367036214955358 0 0.17699066645021869 0.2595722272450377 0 0.14702044576598061 0.2478904659134552 0 0.16774616909827719 0.2460930353984315 0 0.15959452244756481 0.26367036214955358 0 0.18692125413578081 0.24552837502103991 0 0.16774616909827719 0.2460930353984315 0 0.17699066645021869 0.2595722272450377 0 0.18692125413578081 0.24552837502103991 0 0.17699066645021869 0.2595722272450377 0 0.19242781921148469 0.26384338938458129 0 0.18251379545819379 0.26835647973838378 0 0.17699066645021869 0.2595722272450377 0 0.19242781921148469 0.26384338938458129 0 0.18692125413578081 0.24552837502103991 0 0.19242781921148469 0.26384338938458129 0 0.20107379594449931 0.25686311186437227 0 0.18692125413578081 0.24552837502103991 0 0.20107379594449931 0.25686311186437227 0 0.19242781921148469 0.26384338938458129 0 0.20107379594449931 0.25686311186437227 0 0.2008998280478862 0.26959186196165702 0 0.19242781921148469 0.26384338938458129 0 0.20107379594449931 0.25686311186437227 0 0.19242781921148469 0.26384338938458129 0 0.1896678171968729 0.27591030386514148 0 0.2008998280478862 0.26959186196165702 0 0.18251379545819379 0.26835647973838378 0 0.19242781921148469 0.26384338938458129 0 0.1896678171968729 0.27591030386514148 0 0.1896678171968729 0.27591030386514148 0 0.2008998280478862 0.26959186196165702 0 0.20354188417430641 0.281093168015905 0 0.2008998280478862 0.26959186196165702 0 0.2177878237122676 0.27024933667828532 0 0.20354188417430641 0.281093168015905 0 0.2177878237122676 0.27024933667828532 0 0.20354188417430641 0.281093168015905 0 0.2166033006779626 0.28924568688104418 0 0.21557305570370441 0.24515722135805329 0 0.20107379594449931 0.25686311186437227 0 0.2177878237122676 0.27024933667828532 0 0.20107379594449931 0.25686311186437227 0 0.2177878237122676 0.27024933667828532 0 0.20107379594449931 0.25686311186437227 0 0.2008998280478862 0.26959186196165702 0 0.2177878237122676 0.27024933667828532 0 0.21557305570370441 0.24515722135805329 0 0.20107379594449931 0.25686311186437227 0 0.21557305570370441 0.24515722135805329 0 0.2177878237122676 0.27024933667828532 0 0.23628031136540401 0.25597328662156199 0 0.2177878237122676 0.27024933667828532 0 0.23628031136540401 0.25597328662156199 0 0.23450185148003599 0.28363556149219821 0 0.2177878237122676 0.27024933667828532 0 0.23450185148003599 0.28363556149219821 0 0.2166033006779626 0.28924568688104418 0 0.2177878237122676 0.27024933667828532 0 0.23450185148003599 0.28363556149219821 0 0.23628031136540401 0.25597328662156199 0 0.23450185148003599 0.28363556149219821 0 0.25102838231212438 0.26850893423506528 0 0.23450185148003599 0.28363556149219821 0 0.25953152444998728 0.28294166139542631 0 0.25102838231212438 0.26850893423506528 0 0.23628031136540401 0.25597328662156199 0 0.25102838231212438 0.26850893423506528 0 0.26221447651104962 0.2479993693513689 0 0.2297645605960125 0.30261029929826411 0 0.25121587924780342 0.29702178630611242 0 0.2484846271056145 0.31037308609574782 0 0.2297645605960125 0.30261029929826411 0 0.23798581837376781 0.31938142953188831 0 0.2484846271056145 0.31037308609574782 0 0.2297645605960125 0.30261029929826411 0 0.25121587924780342 0.29702178630611242 0 0.23450185148003599 0.28363556149219821 0 0.2297645605960125 0.30261029929826411 0 0.25121587924780342 0.29702178630611242 0 0.23450185148003599 0.28363556149219821 0 0.25121587924780342 0.29702178630611242 0 0.23450185148003599 0.28363556149219821 0 0.25953152444998728 0.28294166139542631 0 0.25121587924780342 0.29702178630611242 0 0.23450185148003599 0.28363556149219821 0 0.2297645605960125 0.30261029929826411 0 0.2166033006779626 0.28924568688104418 0 0.2297645605960125 0.30261029929826411 0 0.20831324194422091 0.30819881229041318 0 0.2297645605960125 0.30261029929826411 0 0.20831324194422091 0.30819881229041318 0 0.21977364325038071 0.31928170538083578 0 0.20831324194422091 0.30819881229041318 0 0.2166033006779626 0.28924568688104418 0 0.20288664267638859 0.29424953150154581 0 0.2297645605960125 0.30261029929826411 0 0.20831324194422091 0.30819881229041318 0 0.2166033006779626 0.28924568688104418 0 0.20354188417430641 0.281093168015905 0 0.2166033006779626 0.28924568688104418 0 0.20288664267638859 0.29424953150154581 0 0.20354188417430641 0.281093168015905 0 0.20288664267638859 0.29424953150154581 0 0.19086383386244751 0.2907864273273883 0 0.20288664267638859 0.29424953150154581 0 0.19086383386244751 0.2907864273273883 0 0.19511095272300569 0.3019235629929784 0 0.1896678171968729 0.27591030386514148 0 0.20354188417430641 0.281093168015905 0 0.19086383386244751 0.2907864273273883 0 0.20831324194422091 0.30819881229041318 0 0.18686192329242929 0.31378732528256248 0 0.20831324194422091 0.30819881229041318 0 0.19511095272300569 0.3019235629929784 0 0.18686192329242929 0.31378732528256248 0 0.20831324194422091 0.30819881229041318 0 0.20288664267638859 0.29424953150154581 0 0.19511095272300569 0.3019235629929784 0 0.18674031124236579 0.30201460306836742 0 0.19086383386244751 0.2907864273273883 0 0.19511095272300569 0.3019235629929784 0 0.18674031124236579 0.30201460306836742 0 0.19511095272300569 0.3019235629929784 0 0.18686192329242929 0.31378732528256248 0 0.20141288137377081 0.31920030670374799 0 0.18686192329242929 0.31378732528256248 0 0.18608978489721489 0.32167740761667712 0 0.20831324194422091 0.30819881229041318 0 0.20141288137377081 0.31920030670374799 0 0.18686192329242929 0.31378732528256248 0 0.20141288137377081 0.31920030670374799 0 0.21212543146875301 0.33644132486871342 0 0.18608978489721489 0.32167740761667712 0 0.21212543146875301 0.33644132486871342 0 0.18608978489721489 0.32167740761667712 0 0.19231113454718349 0.34165597013868199 0 0.21212543146875301 0.33644132486871342 0 0.18608978489721489 0.32167740761667712 0 0.20831324194422091 0.30819881229041318 0 0.20141288137377081 0.31920030670374799 0 0.21977364325038071 0.31928170538083578 0 0.20141288137377081 0.31920030670374799 0 0.21212543146875301 0.33644132486871342 0 0.21977364325038071 0.31928170538083578 0 0.21977364325038071 0.31928170538083578 0 0.2290399257457596 0.32985805959198788 0 0.23798581837376781 0.31938142953188831 0 0.2297645605960125 0.30261029929826411 0 0.21977364325038071 0.31928170538083578 0 0.23798581837376781 0.31938142953188831 0 0.21212543146875301 0.33644132486871342 0 0.21977364325038071 0.31928170538083578 0 0.2290399257457596 0.32985805959198788 0 0.21212543146875301 0.33644132486871342 0 0.23060518033342339 0.33807106122714048 0 0.2290399257457596 0.32985805959198788 0 0.21212543146875301 0.33644132486871342 0 0.23060518033342339 0.33807106122714048 0 0.23816107804029091 0.35120524212074949 0 0.23060518033342339 0.33807106122714048 0 0.2290399257457596 0.32985805959198788 0 0.2430942860788903 0.33477961832711151 0 0.23060518033342339 0.33807106122714048 0 0.2430942860788903 0.33477961832711151 0 0.23816107804029091 0.35120524212074949 0 0.2484846271056145 0.31037308609574782 0 0.23798581837376781 0.31938142953188831 0 0.25508783524565293 0.32209220201309929 0 0.2430942860788903 0.33477961832711151 0 0.23798581837376781 0.31938142953188831 0 0.25508783524565293 0.32209220201309929 0 0.2290399257457596 0.32985805959198788 0 0.2430942860788903 0.33477961832711151 0 0.23798581837376781 0.31938142953188831 0 0.23439037865920059 0.35560025357312369 0 0.2386764282036242 0.37725286527910618 0 0.24311907173897271 0.36013203008567057 0 0.23439037865920059 0.35560025357312369 0 0.2386764282036242 0.37725286527910618 0 0.2492643002430574 0.365916522193315 0 0.24311907173897271 0.36013203008567057 0 0.2386764282036242 0.37725286527910618 0 0.2492643002430574 0.365916522193315 0 0.2386764282036242 0.37725286527910618 0 0.25383912625151372 0.37755129754335942 0 0.24311907173897271 0.36013203008567057 0 0.23816107804029091 0.35120524212074949 0 0.2641967246118288 0.36596915937278562 0 0.2430942860788903 0.33477961832711151 0 0.23816107804029091 0.35120524212074949 0 0.26173146881309822 0.35734024057335978 0 0.24311907173897271 0.36013203008567057 0 0.23816107804029091 0.35120524212074949 0 0.23439037865920059 0.35560025357312369 0 0.21212543146875301 0.33644132486871342 0 0.23816107804029091 0.35120524212074949 0 0.21848510057545151 0.35453686872473111 0 0.23816107804029091 0.35120524212074949 0 0.23439037865920059 0.35560025357312369 0 0.21848510057545151 0.35453686872473111 0 0.21212543146875301 0.33644132486871342 0 0.23816107804029091 0.35120524212074949 0 0.23439037865920059 0.35560025357312369 0 0.22513916990612379 0.36868200325308897 0 0.2386764282036242 0.37725286527910618 0 0.23439037865920059 0.35560025357312369 0 0.22513916990612379 0.36868200325308897 0 0.21848510057545151 0.35453686872473111 0 0.22513916990612379 0.36868200325308897 0 0.20931495008602691 0.36890180222237801 0 0.21961872799640589 0.38146559318592133 0 0.22513916990612379 0.36868200325308897 0 0.20931495008602691 0.36890180222237801 0 0.21848510057545151 0.35453686872473111 0 0.20931495008602691 0.36890180222237801 0 0.21848510057545151 0.35453686872473111 0 0.2018014651714847 0.35413555731190122 0 0.21212543146875301 0.33644132486871342 0 0.21848510057545151 0.35453686872473111 0 0.2018014651714847 0.35413555731190122 0 0.19231113454718349 0.34165597013868199 0 0.2018014651714847 0.35413555731190122 0 0.1832131523033072 0.3569188224833833 0 0.19231113454718349 0.34165597013868199 0 0.21212543146875301 0.33644132486871342 0 0.2018014651714847 0.35413555731190122 0 0.20931495008602691 0.36890180222237801 0 0.2018014651714847 0.35413555731190122 0 0.19217836357317111 0.36996972767433872 0 0.20931495008602691 0.36890180222237801 0 0.19217836357317111 0.36996972767433872 0 0.20289108470775991 0.38370682355227331 0 0.2018014651714847 0.35413555731190122 0 0.19217836357317111 0.36996972767433872 0 0.1832131523033072 0.3569188224833833 0 0.19217836357317111 0.36996972767433872 0 0.17197644233242751 0.37002706837148541 0 0.1832131523033072 0.3569188224833833 0 0.17197644233242751 0.37002706837148541 0 0.16866852787741549 0.35230522619665788 0 0.1832131523033072 0.3569188224833833 0 0.17197644233242751 0.37002706837148541 0 0.16866852787741549 0.35230522619665788 0 0.15186920095361911 0.35620033980905319 0 0.17197644233242751 0.37002706837148541 0 0.15186920095361911 0.35620033980905319 0 0.15185568245476189 0.37707061606136422 0 0.16866852787741549 0.35230522619665788 0 0.1579580049025659 0.33927316190663209 0 0.15186920095361911 0.35620033980905319 0 0.16866852787741549 0.35230522619665788 0 0.1832131523033072 0.3569188224833833 0 0.17832583889515771 0.33910673841273542 0 0.19231113454718349 0.34165597013868199 0 0.1832131523033072 0.3569188224833833 0 0.17832583889515771 0.33910673841273542 0 0.17832583889515771 0.33910673841273542 0 0.18608978489721489 0.32167740761667712 0 0.16647560889869609 0.32578562508456149 0 0.19231113454718349 0.34165597013868199 0 0.17832583889515771 0.33910673841273542 0 0.18608978489721489 0.32167740761667712 0 0.16005413832567669 0.30691349036464077 0 0.18608978489721489 0.32167740761667712 0 0.16005413832567669 0.30691349036464077 0 0.18686192329242929 0.31378732528256248 0 0.18608978489721489 0.32167740761667712 0 0.16005413832567669 0.30691349036464077 0 0.18608978489721489 0.32167740761667712 0 0.16647560889869609 0.32578562508456149 0 0.17832583889515771 0.33910673841273542 0 0.16647560889869609 0.32578562508456149 0 0.1579580049025659 0.33927316190663209 0 0.16866852787741549 0.35230522619665788 0 0.17832583889515771 0.33910673841273542 0 0.1579580049025659 0.33927316190663209 0 0.16647560889869609 0.32578562508456149 0 0.1579580049025659 0.33927316190663209 0 0.14183880654046921 0.32250528078568202 0 0.1579580049025659 0.33927316190663209 0 0.14183880654046921 0.32250528078568202 0 0.14054269679001921 0.34363296691054102 0 0.16005413832567669 0.30691349036464077 0 0.16647560889869609 0.32578562508456149 0 0.14183880654046921 0.32250528078568202 0 0.1202868522871179 0.34060046584014031 0 0.14183880654046921 0.32250528078568202 0 0.14054269679001921 0.34363296691054102 0 0.1202868522871179 0.34060046584014031 0 0.14054269679001921 0.34363296691054102 0 0.13274728415341139 0.36410634055334368 0 0.13274728415341139 0.36410634055334368 0 0.15186920095361911 0.35620033980905319 0 0.15185568245476189 0.37707061606136422 0 0.14054269679001921 0.34363296691054102 0 0.13274728415341139 0.36410634055334368 0 0.15186920095361911 0.35620033980905319 0 0.1579580049025659 0.33927316190663209 0 0.14054269679001921 0.34363296691054102 0 0.15186920095361911 0.35620033980905319 0 0.15352992747694119 0.40026604784697911 0 0.13692284990477191 0.38930777957628943 0 0.1397509022148696 0.40843688002483958 0 0.15352992747694119 0.40026604784697911 0 0.15185568245476189 0.37707061606136422 0 0.13692284990477191 0.38930777957628943 0 0.13274728415341139 0.36410634055334368 0 0.15185568245476189 0.37707061606136422 0 0.13692284990477191 0.38930777957628943 0 0.119448870245615 0.38256434187866972 0 0.13274728415341139 0.36410634055334368 0 0.13692284990477191 0.38930777957628943 0 0.115428724103706 0.40267530492779557 0 0.13692284990477191 0.38930777957628943 0 0.1397509022148696 0.40843688002483958 0 0.12259086230274099 0.42947812748907283 0 0.1397509022148696 0.40843688002483958 0 0.14363603346764281 0.42707530835579988 0 0.12259086230274099 0.42947812748907283 0 0.115428724103706 0.40267530492779557 0 0.1397509022148696 0.40843688002483958 0 0.12259086230274099 0.42947812748907283 0 0.14363603346764281 0.42707530835579988 0 0.13510526379757609 0.44116740875256688 0 0.14363603346764281 0.42707530835579988 0 0.16526304614212209 0.42908608809292892 0 0.1507341445198021 0.44370602134863157 0 0.14363603346764281 0.42707530835579988 0 0.15527295380072001 0.4153931176925994 0 0.16526304614212209 0.42908608809292892 0 0.14363603346764281 0.42707530835579988 0 0.1507341445198021 0.44370602134863157 0 0.13510526379757609 0.44116740875256688 0 0.1397509022148696 0.40843688002483958 0 0.14363603346764281 0.42707530835579988 0 0.15527295380072001 0.4153931176925994 0 0.15352992747694119 0.40026604784697911 0 0.1397509022148696 0.40843688002483958 0 0.15527295380072001 0.4153931176925994 0 0.15527295380072001 0.4153931176925994 0 0.1711416470664554 0.41062619466687539 0 0.16526304614212209 0.42908608809292892 0 0.15352992747694119 0.40026604784697911 0 0.15527295380072001 0.4153931176925994 0 0.1711416470664554 0.41062619466687539 0 0.16526304614212209 0.42908608809292892 0 0.1809560021812836 0.43814832633623357 0 0.16598328874466911 0.44273574664910909 0 0.16526304614212209 0.42908608809292892 0 0.18469425222239219 0.42125941149134333 0 0.1809560021812836 0.43814832633623357 0 0.1711416470664554 0.41062619466687539 0 0.16526304614212209 0.42908608809292892 0 0.18469425222239219 0.42125941149134333 0 0.1711416470664554 0.41062619466687539 0 0.18469425222239219 0.42125941149134333 0 0.1843100454414533 0.40126956181167389 0 0.1711416470664554 0.41062619466687539 0 0.1843100454414533 0.40126956181167389 0 0.16952276405911931 0.3912061138884545 0 0.1843100454414533 0.40126956181167389 0 0.16952276405911931 0.3912061138884545 0 0.18589276442329861 0.38606835492789338 0 0.15352992747694119 0.40026604784697911 0 0.1711416470664554 0.41062619466687539 0 0.16952276405911931 0.3912061138884545 0 0.15352992747694119 0.40026604784697911 0 0.15185568245476189 0.37707061606136422 0 0.16952276405911931 0.3912061138884545 0 0.17197644233242751 0.37002706837148541 0 0.15185568245476189 0.37707061606136422 0 0.16952276405911931 0.3912061138884545 0 0.17197644233242751 0.37002706837148541 0 0.16952276405911931 0.3912061138884545 0 0.18589276442329861 0.38606835492789338 0 0.19217836357317111 0.36996972767433872 0 0.17197644233242751 0.37002706837148541 0 0.18589276442329861 0.38606835492789338 0 0.18589276442329861 0.38606835492789338 0 0.20289108470775991 0.38370682355227331 0 0.19700705340585539 0.39579078134538831 0 0.19217836357317111 0.36996972767433872 0 0.18589276442329861 0.38606835492789338 0 0.20289108470775991 0.38370682355227331 0 0.19700705340585539 0.39579078134538831 0 0.21316338490038089 0.39704202397260657 0 0.19877798755638451 0.41086714246249401 0 0.1843100454414533 0.40126956181167389 0 0.19700705340585539 0.39579078134538831 0 0.19877798755638451 0.41086714246249401 0 0.1843100454414533 0.40126956181167389 0 0.18589276442329861 0.38606835492789338 0 0.19700705340585539 0.39579078134538831 0 0.20289108470775991 0.38370682355227331 0 0.19700705340585539 0.39579078134538831 0 0.21316338490038089 0.39704202397260657 0 0.20931495008602691 0.36890180222237801 0 0.20289108470775991 0.38370682355227331 0 0.21961872799640589 0.38146559318592133 0 0.20289108470775991 0.38370682355227331 0 0.21316338490038089 0.39704202397260657 0 0.21961872799640589 0.38146559318592133 0 0.22513916990612379 0.36868200325308897 0 0.21961872799640589 0.38146559318592133 0 0.2386764282036242 0.37725286527910618 0 0.21961872799640589 0.38146559318592133 0 0.22852735017452019 0.39320804083607441 0 0.2386764282036242 0.37725286527910618 0 0.21316338490038089 0.39704202397260657 0 0.21961872799640589 0.38146559318592133 0 0.22852735017452019 0.39320804083607441 0 0.21316338490038089 0.39704202397260657 0 0.22852735017452019 0.39320804083607441 0 0.22983145469658259 0.40925978250573319 0 0.21316338490038089 0.39704202397260657 0 0.22983145469658259 0.40925978250573319 0 0.22852735017452019 0.39320804083607441 0 0.2429624777480478 0.39890547698508871 0 0.22983145469658259 0.40925978250573319 0 0.2429624777480478 0.39890547698508871 0 0.2386764282036242 0.37725286527910618 0 0.22852735017452019 0.39320804083607441 0 0.2429624777480478 0.39890547698508871 0 0.2386764282036242 0.37725286527910618 0 0.2429624777480478 0.39890547698508871 0 0.2386764282036242 0.37725286527910618 0 0.25341304662754638 0.38974012394171498 0 0.2386764282036242 0.37725286527910618 0 0.25383912625151372 0.37755129754335942 0 0.25341304662754638 0.38974012394171498 0 0.24649952449278431 0.42147754103885982 0 0.22996656543308741 0.44177288309861867 0 0.24946733303660301 0.43176723098649622 0 0.24649952449278431 0.42147754103885982 0 0.22996656543308741 0.44177288309861867 0 0.24649952449278431 0.42147754103885982 0 0.22738899126970491 0.42458926785457718 0 0.22996656543308741 0.44177288309861867 0 0.24946733303660301 0.43176723098649622 0 0.24649952449278431 0.42147754103885982 0 0.2429624777480478 0.39890547698508871 0 0.24649952449278431 0.42147754103885982 0 0.24649952449278431 0.42147754103885982 0 0.22983145469658259 0.40925978250573319 0 0.22738899126970491 0.42458926785457718 0 0.24649952449278431 0.42147754103885982 0 0.22983145469658259 0.40925978250573319 0 0.2429624777480478 0.39890547698508871 0 0.24649952449278431 0.42147754103885982 0 0.22983145469658259 0.40925978250573319 0 0.21316338490038089 0.39704202397260657 0 0.22983145469658259 0.40925978250573319 0 0.21370806227123909 0.41789950377956148 0 0.22983145469658259 0.40925978250573319 0 0.22738899126970491 0.42458926785457718 0 0.21370806227123909 0.41789950377956148 0 0.22738899126970491 0.42458926785457718 0 0.21739304288862979 0.43200563017257382 0 0.22996656543308741 0.44177288309861867 0 0.22738899126970491 0.42458926785457718 0 0.21739304288862979 0.43200563017257382 0 0.21370806227123909 0.41789950377956148 0 0.21739304288862979 0.43200563017257382 0 0.1999317510848099 0.43097584272053618 0 0.2111195299095035 0.44359306409302351 0 0.21739304288862979 0.43200563017257382 0 0.21370806227123909 0.41789950377956148 0 0.1999317510848099 0.43097584272053618 0 0.21370806227123909 0.41789950377956148 0 0.19877798755638451 0.41086714246249401 0 0.1999317510848099 0.43097584272053618 0 0.21316338490038089 0.39704202397260657 0 0.21370806227123909 0.41789950377956148 0 0.19877798755638451 0.41086714246249401 0 0.18469425222239219 0.42125941149134333 0 0.19877798755638451 0.41086714246249401 0 0.1999317510848099 0.43097584272053618 0 0.18469425222239219 0.42125941149134333 0 0.1843100454414533 0.40126956181167389 0 0.19877798755638451 0.41086714246249401 0 0.18469425222239219 0.42125941149134333 0 0.1999317510848099 0.43097584272053618 0 0.1809560021812836 0.43814832633623357 0 0.1999317510848099 0.43097584272053618 0 0.19479511809318301 0.4526549487178691 0 0.2111195299095035 0.44359306409302351 0 0.1999317510848099 0.43097584272053618 0 0.19479511809318301 0.4526549487178691 0 0.1809560021812836 0.43814832633623357 0 0.19479511809318301 0.4526549487178691 0 0.213169792932182 0.46047172596691099 0 0.19211155850092579 0.47790980627879082 0 0.19479511809318301 0.4526549487178691 0 0.19211155850092579 0.47790980627879082 0 0.18348770279874721 0.46143911161818069 0 0.213169792932182 0.46047172596691099 0 0.2111195299095035 0.44359306409302351 0 0.22996656543308741 0.44177288309861867 0 0.19479511809318301 0.4526549487178691 0 0.213169792932182 0.46047172596691099 0 0.2111195299095035 0.44359306409302351 0 0.21739304288862979 0.43200563017257382 0 0.2111195299095035 0.44359306409302351 0 0.22996656543308741 0.44177288309861867 0 0.22996656543308741 0.44177288309861867 0 0.22854105436186559 0.46372788353366717 0 0.24141841662185301 0.45603819576859073 0 0.213169792932182 0.46047172596691099 0 0.22854105436186559 0.46372788353366717 0 0.221321310837439 0.47674074212904899 0 0.213169792932182 0.46047172596691099 0 0.22996656543308741 0.44177288309861867 0 0.22854105436186559 0.46372788353366717 0 0.24141841662185301 0.45603819576859073 0 0.23645949407781469 0.47608243786178739 0 0.25047151807745072 0.47036873115219768 0 0.22854105436186559 0.46372788353366717 0 0.24141841662185301 0.45603819576859073 0 0.23645949407781469 0.47608243786178739 0 0.24141841662185301 0.45603819576859073 0 0.25047151807745072 0.47036873115219768 0 0.25477099823403621 0.45804476415031298 0 0.24141841662185301 0.45603819576859073 0 0.25282491994113748 0.44831200937164878 0 0.25477099823403621 0.45804476415031298 0 0.22996656543308741 0.44177288309861867 0 0.24141841662185301 0.45603819576859073 0 0.24583280085865111 0.44361242472787987 0 0.24946733303660301 0.43176723098649622 0 0.22996656543308741 0.44177288309861867 0 0.24583280085865111 0.44361242472787987 0 0.24141841662185301 0.45603819576859073 0 0.24583280085865111 0.44361242472787987 0 0.25282491994113748 0.44831200937164878 0 0.24904418528453851 0.48634810883828161 0 0.23645949407781469 0.47608243786178739 0 0.23352830384551029 0.49999999999999978 0 0.24904418528453851 0.48634810883828161 0 0.23352830384551029 0.49999999999999978 0 0.25181722630913472 0.5 0 0.24904418528453851 0.48634810883828161 0 0.23645949407781469 0.47608243786178739 0 0.25047151807745072 0.47036873115219768 0 0.23645949407781469 0.47608243786178739 0 0.221321310837439 0.47674074212904899 0 0.23352830384551029 0.49999999999999978 0 0.22854105436186559 0.46372788353366717 0 0.23645949407781469 0.47608243786178739 0 0.221321310837439 0.47674074212904899 0 0.23352830384551029 0.49999999999999978 0 0.2128199311732181 0.48895490313939532 0 0.21702906166474581 0.5 0 0.23352830384551029 0.49999999999999978 0 0.2128199311732181 0.48895490313939532 0 0.221321310837439 0.47674074212904899 0 0.23352830384551029 0.49999999999999978 0 0.2128199311732181 0.48895490313939532 0 0.2128199311732181 0.48895490313939532 0 0.21702906166474581 0.5 0 0.20052981948398141 0.49999999999999989 0 0.213169792932182 0.46047172596691099 0 0.221321310837439 0.47674074212904899 0 0.19211155850092579 0.47790980627879082 0 0.221321310837439 0.47674074212904899 0 0.2128199311732181 0.48895490313939532 0 0.19211155850092579 0.47790980627879082 0 0.2128199311732181 0.48895490313939532 0 0.19211155850092579 0.47790980627879082 0 0.2128199311732181 0.48895490313939532 0 0.20052981948398141 0.49999999999999989 0 0.19295831529489699 0.4905304616351287 0 0.2128199311732181 0.48895490313939532 0 0.19211155850092579 0.47790980627879082 0 0.19295831529489699 0.4905304616351287 0 0.20052981948398141 0.49999999999999989 0 0.1839227339461352 0.49861489743603538 0 0.20052981948398141 0.49999999999999989 0 0.19295831529489699 0.4905304616351287 0 0.1839227339461352 0.49861489743603538 0 0.19211155850092579 0.47790980627879082 0 0.19295831529489699 0.4905304616351287 0 0.1809625144841838 0.48570342190566712 0 0.1839227339461352 0.49861489743603538 0 0.1809625144841838 0.48570342190566712 0 0.16731564840828889 0.49722979487207219 0 0.1839227339461352 0.49861489743603538 0 0.16731564840828889 0.49722979487207219 0 0.1839227339461352 0.49861489743603538 0 0.1669427425872391 0.49999999999999922 0 0.16731564840828889 0.49722979487207219 0 0.19295831529489699 0.4905304616351287 0 0.1839227339461352 0.49861489743603538 0 0.1809625144841838 0.48570342190566712 0 0.1809625144841838 0.48570342190566712 0 0.16731564840828889 0.49722979487207219 0 0.16935941711846161 0.48204725214512889 0 0.16731564840828889 0.49722979487207219 0 0.157708884996551 0.48584061526662409 0 0.14611751268168829 0.49546177892012921 0 0.16731564840828889 0.49722979487207219 0 0.14611751268168829 0.49546177892012921 0 0.1669427425872391 0.49999999999999922 0 0.16731564840828889 0.49722979487207219 0 0.14611751268168829 0.49546177892012921 0 0.1669427425872391 0.49999999999999922 0 0.16731564840828889 0.49722979487207219 0 0.16731564840828889 0.49722979487207219 0 0.16935941711846161 0.48204725214512889 0 0.16731564840828889 0.49722979487207219 0 0.157708884996551 0.48584061526662409 0 0.16935941711846161 0.48204725214512889 0 0.16382575626869561 0.4735735187060508 0 0.15802571703479451 0.46684670821381258 0 0.1531189490294651 0.47544631339495541 0 0.157708884996551 0.48584061526662409 0 0.16382575626869561 0.4735735187060508 0 0.1531189490294651 0.47544631339495541 0 0.157708884996551 0.48584061526662409 0 0.16382575626869561 0.4735735187060508 0 0.16935941711846161 0.48204725214512889 0 0.16935941711846161 0.48204725214512889 0 0.17140318582863401 0.46686470941818559 0 0.16382575626869561 0.4735735187060508 0 0.16935941711846161 0.48204725214512889 0 0.17140318582863401 0.46686470941818559 0 0.1809625144841838 0.48570342190566712 0 0.16935941711846161 0.48204725214512889 0 0.17140318582863401 0.46686470941818559 0 0.19211155850092579 0.47790980627879082 0 0.1809625144841838 0.48570342190566712 0 0.17140318582863401 0.46686470941818559 0 0.19211155850092579 0.47790980627879082 0 0.17140318582863401 0.46686470941818559 0 0.19479511809318301 0.4526549487178691 0 0.18348770279874721 0.46143911161818069 0 0.17341546959919829 0.45191605883299152 0 0.19211155850092579 0.47790980627879082 0 0.18348770279874721 0.46143911161818069 0 0.17140318582863401 0.46686470941818559 0 0.18348770279874721 0.46143911161818069 0 0.17341546959919829 0.45191605883299152 0 0.17140318582863401 0.46686470941818559 0 0.17341546959919829 0.45191605883299152 0 0.17140318582863401 0.46686470941818559 0 0.19479511809318301 0.4526549487178691 0 0.1809560021812836 0.43814832633623357 0 0.17341546959919829 0.45191605883299152 0 0.1809560021812836 0.43814832633623357 0 0.17341546959919829 0.45191605883299152 0 0.16598328874466911 0.44273574664910909 0 0.17341546959919829 0.45191605883299152 0 0.16598328874466911 0.44273574664910909 0 0.15954778128093949 0.4508222386347599 0 0.16598328874466911 0.44273574664910909 0 0.15954778128093949 0.4508222386347599 0 0.1507341445198021 0.44370602134863157 0 0.16526304614212209 0.42908608809292892 0 0.16598328874466911 0.44273574664910909 0 0.1507341445198021 0.44370602134863157 0 0.16382575626869561 0.4735735187060508 0 0.1651762257979181 0.46354347419730452 0 0.17140318582863401 0.46686470941818559 0 0.1651762257979181 0.46354347419730452 0 0.17140318582863401 0.46686470941818559 0 0.17341546959919829 0.45191605883299152 0 0.1651762257979181 0.46354347419730452 0 0.17140318582863401 0.46686470941818559 0 0.17341546959919829 0.45191605883299152 0 0.15954778128093949 0.4508222386347599 0 0.1651762257979181 0.46354347419730452 0 0.15954778128093949 0.4508222386347599 0 0.1651762257979181 0.46354347419730452 0 0.1582471669695637 0.45974252444074731 0 0.16382575626869561 0.4735735187060508 0 0.1651762257979181 0.46354347419730452 0 0.15802571703479451 0.46684670821381258 0 0.1651762257979181 0.46354347419730452 0 0.1582471669695637 0.45974252444074731 0 0.15802571703479451 0.46684670821381258 0 0.14976048710833001 0.46192771033000529 0 0.1507341445198021 0.44370602134863157 0 0.136404492151351 0.45486193181106682 0 0.1582471669695637 0.45974252444074731 0 0.15802571703479451 0.46684670821381258 0 0.14976048710833001 0.46192771033000529 0 0.15802571703479451 0.46684670821381258 0 0.14976048710833001 0.46192771033000529 0 0.1531189490294651 0.47544631339495541 0 0.15954778128093949 0.4508222386347599 0 0.1582471669695637 0.45974252444074731 0 0.14976048710833001 0.46192771033000529 0 0.14976048710833001 0.46192771033000529 0 0.136404492151351 0.45486193181106682 0 0.13663143795624749 0.46910754811773492 0 0.15954778128093949 0.4508222386347599 0 0.14976048710833001 0.46192771033000529 0 0.1507341445198021 0.44370602134863157 0 0.1507341445198021 0.44370602134863157 0 0.13510526379757609 0.44116740875256688 0 0.136404492151351 0.45486193181106682 0 0.1221607865463437 0.4507156547582637 0 0.12259086230274099 0.42947812748907283 0 0.13510526379757609 0.44116740875256688 0 0.1221607865463437 0.4507156547582637 0 0.13510526379757609 0.44116740875256688 0 0.136404492151351 0.45486193181106682 0 0.136404492151351 0.45486193181106682 0 0.1267882431275838 0.46370707134437261 0 0.13663143795624749 0.46910754811773492 0 0.1221607865463437 0.4507156547582637 0 0.136404492151351 0.45486193181106682 0 0.1267882431275838 0.46370707134437261 0 0.1267882431275838 0.46370707134437261 0 0.12569724768963239 0.47617993877849962 0 0.13663143795624749 0.46910754811773492 0 0.12569724768963239 0.47617993877849962 0 0.13663143795624749 0.46910754811773492 0 0.1364132019148096 0.48384982340983701 0 0.13663143795624749 0.46910754811773492 0 0.1364132019148096 0.48384982340983701 0 0.14361111091913481 0.47574478002545789 0 0.1249193769550877 0.49369376296818718 0 0.1364132019148096 0.48384982340983701 0 0.14611751268168829 0.49546177892012921 0 0.1249193769550877 0.49369376296818718 0 0.14611751268168829 0.49546177892012921 0 0.1249193769550877 0.49369376296818718 0 0.12569724768963239 0.47617993877849962 0 0.1364132019148096 0.48384982340983701 0 0.1249193769550877 0.49369376296818718 0 0.13738437864054501 0.5 0 0.14611751268168829 0.49546177892012921 0 0.1364132019148096 0.48384982340983701 0 0.14611751268168829 0.49546177892012921 0 0.14718343377546941 0.48347361591025501 0 0.1669427425872391 0.49999999999999922 0 0.13738437864054501 0.5 0 0.14611751268168829 0.49546177892012921 0 0.157708884996551 0.48584061526662409 0 0.14611751268168829 0.49546177892012921 0 0.14718343377546941 0.48347361591025501 0 0.157708884996551 0.48584061526662409 0 0.1531189490294651 0.47544631339495541 0 0.14718343377546941 0.48347361591025501 0 0.14976048710833001 0.46192771033000529 0 0.1531189490294651 0.47544631339495541 0 0.14361111091913481 0.47574478002545789 0 0.14976048710833001 0.46192771033000529 0 0.13663143795624749 0.46910754811773492 0 0.14361111091913481 0.47574478002545789 0 0.1364132019148096 0.48384982340983701 0 0.14361111091913481 0.47574478002545789 0 0.14718343377546941 0.48347361591025501 0 0.1531189490294651 0.47544631339495541 0 0.14361111091913481 0.47574478002545789 0 0.14718343377546941 0.48347361591025501 0 0.35832214194920592 0.47929915408112939 0 0.34611268429232461 0.46591887339206078 0 0.3375369348076922 0.4829399206954248 0 0.35832214194920592 0.47929915408112939 0 0.35850557312216419 0.5 0 0.3375369348076922 0.4829399206954248 0 0.35850557312216419 0.5 0 0.37801407526051067 0.48065415083330842 0 0.38797204790529932 0.5 0 0.35832214194920592 0.47929915408112939 0 0.35850557312216419 0.5 0 0.37801407526051067 0.48065415083330842 0 0.35832214194920592 0.47929915408112939 0 0.36980735363827261 0.46050290225189661 0 0.37801407526051067 0.48065415083330842 0 0.36980735363827261 0.46050290225189661 0 0.34502769605759259 0.44546544446971242 0 0.36959298495063608 0.43610817863788948 0 0.35832214194920592 0.47929915408112939 0 0.36980735363827261 0.46050290225189661 0 0.34611268429232461 0.46591887339206078 0 0.36980735363827261 0.46050290225189661 0 0.34502769605759259 0.44546544446971242 0 0.34611268429232461 0.46591887339206078 0 0.36980735363827261 0.46050290225189661 0 0.34611268429232461 0.46591887339206078 0 0.34611268429232461 0.46591887339206078 0 0.3317687487832644 0.45597005559148451 0 0.32241801494637662 0.47133484453222518 0 0.34502769605759259 0.44546544446971242 0 0.34611268429232461 0.46591887339206078 0 0.3317687487832644 0.45597005559148451 0 0.34611268429232461 0.46591887339206078 0 0.32241801494637662 0.47133484453222518 0 0.34502769605759259 0.44546544446971242 0 0.3317687487832644 0.45597005559148451 0 0.32480939915707069 0.44218818576869201 0 0.34502769605759259 0.44546544446971242 0 0.32480939915707069 0.44218818576869201 0 0.33523501366627878 0.43221560569608392 0 0.3107318966111981 0.4514989769174147 0 0.3227404476219688 0.42624713816244092 0 0.3317687487832644 0.45597005559148451 0 0.32480939915707069 0.44218818576869201 0 0.3107318966111981 0.4514989769174147 0 0.32480939915707069 0.44218818576869201 0 0.3107318966111981 0.4514989769174147 0 0.3227404476219688 0.42624713816244092 0 0.3317687487832644 0.45597005559148451 0 0.32241801494637662 0.47133484453222518 0 0.3107318966111981 0.4514989769174147 0 0.32241801494637662 0.47133484453222518 0 0.3375369348076922 0.4829399206954248 0 0.31372501333874958 0.48784291822244708 0 0.34611268429232461 0.46591887339206078 0 0.32241801494637662 0.47133484453222518 0 0.3375369348076922 0.4829399206954248 0 0.35850557312216419 0.5 0 0.3375369348076922 0.4829399206954248 0 0.32903909833902928 0.5 0 0.32903909833902928 0.5 0 0.31372501333874958 0.48784291822244708 0 0.29957262355589431 0.5 0 0.3375369348076922 0.4829399206954248 0 0.32903909833902928 0.5 0 0.31372501333874958 0.48784291822244708 0 0.31372501333874958 0.48784291822244708 0 0.30130976803097798 0.48891801032572652 0 0.29957262355589431 0.5 0 0.31372501333874958 0.48784291822244708 0 0.30130976803097798 0.48891801032572652 0 0.29872334560042851 0.47675081567238892 0 0.30130976803097798 0.48891801032572652 0 0.29957262355589431 0.5 0 0.28978827390519868 0.49553967616935518 0 0.32241801494637662 0.47133484453222518 0 0.29872334560042851 0.47675081567238892 0 0.32241801494637662 0.47133484453222518 0 0.31372501333874958 0.48784291822244708 0 0.29872334560042851 0.47675081567238892 0 0.29872334560042851 0.47675081567238892 0 0.28397488520641462 0.48012192141307769 0 0.28978827390519868 0.49553967616935518 0 0.29872334560042851 0.47675081567238892 0 0.28929399795500932 0.47058792179259418 0 0.29703527816799058 0.46117092995693892 0 0.29872334560042851 0.47675081567238892 0 0.28929399795500932 0.47058792179259418 0 0.28397488520641462 0.48012192141307769 0 0.29872334560042851 0.47675081567238892 0 0.28397488520641462 0.48012192141307769 0 0.28929399795500932 0.47058792179259418 0 0.28397488520641462 0.48012192141307769 0 0.27920072977811172 0.47805830749059319 0 0.28397488520641462 0.48012192141307769 0 0.28978827390519868 0.49553967616935518 0 0.27010614877275918 0.50000000000000067 0 0.29957262355589431 0.5 0 0.28978827390519868 0.49553967616935518 0 0.27010614877275918 0.50000000000000067 0 0.30130976803097798 0.48891801032572652 0 0.29872334560042851 0.47675081567238892 0 0.28978827390519868 0.49553967616935518 0 0.29872334560042851 0.47675081567238892 0 0.28978827390519868 0.49553967616935518 0 0.28397488520641462 0.48012192141307769 0 0.27010614877275918 0.50000000000000067 0 0.27920072977811172 0.47805830749059319 0 0.27010614877275918 0.50000000000000067 0 0.26909437115437917 0.48384867389528768 0 0.26130641782501518 0.49139676135406141 0 0.27010614877275918 0.50000000000000067 0 0.27920072977811172 0.47805830749059319 0 0.26909437115437917 0.48384867389528768 0 0.27010614877275918 0.50000000000000067 0 0.27920072977811172 0.47805830749059319 0 0.27920072977811172 0.47805830749059319 0 0.27306774476234302 0.47644699960251641 0 0.26909437115437917 0.48384867389528768 0 0.27920072977811172 0.47805830749059319 0 0.27306774476234302 0.47644699960251641 0 0.27643472525740193 0.46726539210963169 0 0.26824582816420722 0.47348896141386071 0 0.27306774476234302 0.47644699960251641 0 0.27643472525740193 0.46726539210963169 0 0.26824582816420722 0.47348896141386071 0 0.26909437115437917 0.48384867389528768 0 0.25993240985832161 0.47939275616227872 0 0.26824582816420722 0.47348896141386071 0 0.27306774476234302 0.47644699960251641 0 0.26909437115437917 0.48384867389528768 0 0.24904418528453851 0.48634810883828161 0 0.25993240985832161 0.47939275616227872 0 0.25047151807745072 0.47036873115219768 0 0.26824582816420722 0.47348896141386071 0 0.25993240985832161 0.47939275616227872 0 0.26165523792153211 0.46576309323832682 0 0.25993240985832161 0.47939275616227872 0 0.25047151807745072 0.47036873115219768 0 0.26165523792153211 0.46576309323832682 0 0.27010614877275918 0.50000000000000067 0 0.25181722630913472 0.5 0 0.26130641782501518 0.49139676135406141 0 0.24904418528453851 0.48634810883828161 0 0.25993240985832161 0.47939275616227872 0 0.26130641782501518 0.49139676135406141 0 0.24904418528453851 0.48634810883828161 0 0.25181722630913472 0.5 0 0.26130641782501518 0.49139676135406141 0 0.26909437115437917 0.48384867389528768 0 0.25993240985832161 0.47939275616227872 0 0.26130641782501518 0.49139676135406141 0 0.26490489917960358 0.45079530358348557 0 0.25548676926057468 0.44017180441404491 0 0.26331147225899149 0.43380076267102891 0 0.24946733303660301 0.43176723098649622 0 0.24583280085865111 0.44361242472787987 0 0.25548676926057468 0.44017180441404491 0 0.24583280085865111 0.44361242472787987 0 0.25548676926057468 0.44017180441404491 0 0.25282491994113748 0.44831200937164878 0 0.26490489917960358 0.45079530358348557 0 0.25548676926057468 0.44017180441404491 0 0.25282491994113748 0.44831200937164878 0 0.26490489917960358 0.45079530358348557 0 0.25282491994113748 0.44831200937164878 0 0.25477099823403621 0.45804476415031298 0 0.25047151807745072 0.47036873115219768 0 0.25477099823403621 0.45804476415031298 0 0.26165523792153211 0.46576309323832682 0 0.26490489917960358 0.45079530358348557 0 0.25477099823403621 0.45804476415031298 0 0.26165523792153211 0.46576309323832682 0 0.26490489917960358 0.45079530358348557 0 0.27160577401557351 0.46248804296782559 0 0.27679169795675967 0.45600994403837303 0 0.26490489917960358 0.45079530358348557 0 0.26165523792153211 0.46576309323832682 0 0.27160577401557351 0.46248804296782559 0 0.26824582816420722 0.47348896141386071 0 0.27160577401557351 0.46248804296782559 0 0.27643472525740193 0.46726539210963169 0 0.26824582816420722 0.47348896141386071 0 0.26165523792153211 0.46576309323832682 0 0.27160577401557351 0.46248804296782559 0 0.27160577401557351 0.46248804296782559 0 0.27643472525740193 0.46726539210963169 0 0.27679169795675967 0.45600994403837303 0 0.27643472525740193 0.46726539210963169 0 0.27679169795675967 0.45600994403837303 0 0.28829531078346382 0.45611661498118572 0 0.27903440424894049 0.4453257315987294 0 0.26331147225899149 0.43380076267102891 0 0.26490489917960358 0.45079530358348557 0 0.27903440424894049 0.4453257315987294 0 0.26331147225899149 0.43380076267102891 0 0.26490489917960358 0.45079530358348557 0 0.27679169795675967 0.45600994403837303 0 0.27903440424894049 0.4453257315987294 0 0.27903440424894049 0.4453257315987294 0 0.2917470315179379 0.44281751567604499 0 0.28179675760275558 0.42932557237874241 0 0.27679169795675967 0.45600994403837303 0 0.27903440424894049 0.4453257315987294 0 0.28829531078346382 0.45611661498118572 0 0.27903440424894049 0.4453257315987294 0 0.2917470315179379 0.44281751567604499 0 0.28829531078346382 0.45611661498118572 0 0.2917470315179379 0.44281751567604499 0 0.28829531078346382 0.45611661498118572 0 0.29813183988985342 0.45090032042111128 0 0.27920072977811172 0.47805830749059319 0 0.27643472525740193 0.46726539210963169 0 0.28829531078346382 0.45611661498118572 0 0.28929399795500932 0.47058792179259418 0 0.27920072977811172 0.47805830749059319 0 0.28829531078346382 0.45611661498118572 0 0.27920072977811172 0.47805830749059319 0 0.28829531078346382 0.45611661498118572 0 0.28829531078346382 0.45611661498118572 0 0.29703527816799058 0.46117092995693892 0 0.29813183988985342 0.45090032042111128 0 0.28929399795500932 0.47058792179259418 0 0.28829531078346382 0.45611661498118572 0 0.29703527816799058 0.46117092995693892 0 0.29872334560042851 0.47675081567238892 0 0.29703527816799058 0.46117092995693892 0 0.3107318966111981 0.4514989769174147 0 0.29872334560042851 0.47675081567238892 0 0.3107318966111981 0.4514989769174147 0 0.32241801494637662 0.47133484453222518 0 0.29872334560042851 0.47675081567238892 0 0.3107318966111981 0.4514989769174147 0 0.29703527816799058 0.46117092995693892 0 0.29813183988985342 0.45090032042111128 0 0.3107318966111981 0.4514989769174147 0 0.30159082278473881 0.44219288247638061 0 0.3107318966111981 0.4514989769174147 0 0.30884109342504262 0.43428586920116352 0 0.2917470315179379 0.44281751567604499 0 0.30159082278473881 0.44219288247638061 0 0.29850225247966211 0.43146173016616862 0 0.2917470315179379 0.44281751567604499 0 0.30159082278473881 0.44219288247638061 0 0.29813183988985342 0.45090032042111128 0 0.30159082278473881 0.44219288247638061 0 0.29813183988985342 0.45090032042111128 0 0.3107318966111981 0.4514989769174147 0 0.30884109342504262 0.43428586920116352 0 0.29850225247966211 0.43146173016616862 0 0.30862162828234507 0.42004495563460759 0 0.29850225247966211 0.43146173016616862 0 0.30862162828234507 0.42004495563460759 0 0.29547148538100448 0.41817397575591742 0 0.30159082278473881 0.44219288247638061 0 0.30884109342504262 0.43428586920116352 0 0.29850225247966211 0.43146173016616862 0 0.30862162828234507 0.42004495563460759 0 0.30304430461131138 0.40735012112542651 0 0.3196782615082488 0.40265332564926309 0 0.30862162828234507 0.42004495563460759 0 0.30304430461131138 0.40735012112542651 0 0.29547148538100448 0.41817397575591742 0 0.30304430461131138 0.40735012112542651 0 0.29062365375375682 0.40708788978866228 0 0.29547148538100448 0.41817397575591742 0 0.29062365375375682 0.40708788978866228 0 0.29547148538100448 0.41817397575591742 0 0.28288479604298378 0.41446876034122271 0 0.29547148538100448 0.41817397575591742 0 0.28288479604298378 0.41446876034122271 0 0.28179675760275558 0.42932557237874241 0 0.29062365375375682 0.40708788978866228 0 0.28288479604298378 0.41446876034122271 0 0.28001120465417539 0.40182109974822727 0 0.29850225247966211 0.43146173016616862 0 0.29547148538100448 0.41817397575591742 0 0.28179675760275558 0.42932557237874241 0 0.2917470315179379 0.44281751567604499 0 0.29850225247966211 0.43146173016616862 0 0.28179675760275558 0.42932557237874241 0 0.28179675760275558 0.42932557237874241 0 0.27042562322166658 0.41684269204638819 0 0.26331147225899149 0.43380076267102891 0 0.27903440424894049 0.4453257315987294 0 0.28179675760275558 0.42932557237874241 0 0.26331147225899149 0.43380076267102891 0 0.27042562322166658 0.41684269204638819 0 0.26380858941988822 0.4002294757553399 0 0.28001120465417539 0.40182109974822727 0 0.28288479604298378 0.41446876034122271 0 0.28179675760275558 0.42932557237874241 0 0.27042562322166658 0.41684269204638819 0 0.28288479604298378 0.41446876034122271 0 0.27042562322166658 0.41684269204638819 0 0.28001120465417539 0.40182109974822727 0 0.24649952449278431 0.42147754103885982 0 0.25492995388566009 0.41993008507457552 0 0.26380858941988822 0.4002294757553399 0 0.27042562322166658 0.41684269204638819 0 0.25492995388566009 0.41993008507457552 0 0.26380858941988822 0.4002294757553399 0 0.24649952449278431 0.42147754103885982 0 0.26380858941988822 0.4002294757553399 0 0.2429624777480478 0.39890547698508871 0 0.24649952449278431 0.42147754103885982 0 0.26380858941988822 0.4002294757553399 0 0.24946733303660301 0.43176723098649622 0 0.24649952449278431 0.42147754103885982 0 0.26331147225899149 0.43380076267102891 0 0.24649952449278431 0.42147754103885982 0 0.25492995388566009 0.41993008507457552 0 0.26331147225899149 0.43380076267102891 0 0.24649952449278431 0.42147754103885982 0 0.26331147225899149 0.43380076267102891 0 0.27042562322166658 0.41684269204638819 0 0.25492995388566009 0.41993008507457552 0 0.26331147225899149 0.43380076267102891 0 0.24946733303660301 0.43176723098649622 0 0.25548676926057468 0.44017180441404491 0 0.26331147225899149 0.43380076267102891 0 0.26350653962281989 0.38010735630523079 0 0.25341304662754638 0.38974012394171498 0 0.26380858941988822 0.4002294757553399 0 0.26350653962281989 0.38010735630523079 0 0.25383912625151372 0.37755129754335942 0 0.25710864090743918 0.37145542319719338 0 0.26350653962281989 0.38010735630523079 0 0.25383912625151372 0.37755129754335942 0 0.25341304662754638 0.38974012394171498 0 0.2429624777480478 0.39890547698508871 0 0.25341304662754638 0.38974012394171498 0 0.26380858941988822 0.4002294757553399 0 0.26380858941988822 0.4002294757553399 0 0.28001120465417539 0.40182109974822727 0 0.28036865154730628 0.37990086281960789 0 0.26350653962281989 0.38010735630523079 0 0.28036865154730628 0.37990086281960789 0 0.2641967246118288 0.36596915937278562 0 0.26380858941988822 0.4002294757553399 0 0.28036865154730628 0.37990086281960789 0 0.26350653962281989 0.38010735630523079 0 0.26380858941988822 0.4002294757553399 0 0.28036865154730628 0.37990086281960789 0 0.28036865154730628 0.37990086281960789 0 0.29170647807930872 0.39362549197251728 0 0.2987730087010142 0.37934426936791982 0 0.28036865154730628 0.37990086281960789 0 0.29170647807930872 0.39362549197251728 0 0.28001120465417539 0.40182109974822727 0 0.28036865154730628 0.37990086281960789 0 0.29170647807930872 0.39362549197251728 0 0.29062365375375682 0.40708788978866228 0 0.28001120465417539 0.40182109974822727 0 0.29170647807930872 0.39362549197251728 0 0.30304430461131138 0.40735012112542651 0 0.29062365375375682 0.40708788978866228 0 0.29170647807930872 0.39362549197251728 0 0.30304430461131138 0.40735012112542651 0 0.30637452063024528 0.39219955594670219 0 0.3196782615082488 0.40265332564926309 0 0.30304430461131138 0.40735012112542651 0 0.29170647807930872 0.39362549197251728 0 0.30304430461131138 0.40735012112542651 0 0.29170647807930872 0.39362549197251728 0 0.30637452063024528 0.39219955594670219 0 0.30637452063024528 0.39219955594670219 0 0.2987730087010142 0.37934426936791982 0 0.31661607539452802 0.37905951313608538 0 0.29170647807930872 0.39362549197251728 0 0.30637452063024528 0.39219955594670219 0 0.2987730087010142 0.37934426936791982 0 0.31661607539452802 0.37905951313608538 0 0.32905198958534931 0.38831461949406398 0 0.3196782615082488 0.40265332564926309 0 0.31661607539452802 0.37905951313608538 0 0.32905198958534931 0.38831461949406398 0 0.33389487655237682 0.3658352592629312 0 0.32905198958534931 0.38831461949406398 0 0.34270248502322931 0.38427053755298168 0 0.33389487655237682 0.3658352592629312 0 0.32905198958534931 0.38831461949406398 0 0.34270248502322931 0.38427053755298168 0 0.33272146632259869 0.40525883785771122 0 0.34270248502322931 0.38427053755298168 0 0.33272146632259869 0.40525883785771122 0 0.34270248502322931 0.38427053755298168 0 0.33272146632259869 0.40525883785771122 0 0.34670895149724801 0.40816004440777182 0 0.31661607539452802 0.37905951313608538 0 0.3196782615082488 0.40265332564926309 0 0.32905198958534931 0.38831461949406398 0 0.33272146632259869 0.40525883785771122 0 0.3196782615082488 0.40265332564926309 0 0.30637452063024528 0.39219955594670219 0 0.31661607539452802 0.37905951313608538 0 0.3196782615082488 0.40265332564926309 0 0.3196782615082488 0.40265332564926309 0 0.3227404476219688 0.42624713816244092 0 0.30862162828234507 0.42004495563460759 0 0.3196782615082488 0.40265332564926309 0 0.3227404476219688 0.42624713816244092 0 0.33272146632259869 0.40525883785771122 0 0.3196782615082488 0.40265332564926309 0 0.3227404476219688 0.42624713816244092 0 0.33272146632259869 0.40525883785771122 0 0.3227404476219688 0.42624713816244092 0 0.32480939915707069 0.44218818576869201 0 0.3227404476219688 0.42624713816244092 0 0.3107318966111981 0.4514989769174147 0 0.30884109342504262 0.43428586920116352 0 0.3227404476219688 0.42624713816244092 0 0.32480939915707069 0.44218818576869201 0 0.3227404476219688 0.42624713816244092 0 0.33523501366627878 0.43221560569608392 0 0.30884109342504262 0.43428586920116352 0 0.30862162828234507 0.42004495563460759 0 0.3227404476219688 0.42624713816244092 0 0.34502769605759259 0.44546544446971242 0 0.33523501366627878 0.43221560569608392 0 0.34795858503051302 0.425881111768525 0 0.3227404476219688 0.42624713816244092 0 0.33523501366627878 0.43221560569608392 0 0.33659904832278342 0.4201421825902541 0 0.33523501366627878 0.43221560569608392 0 0.33659904832278342 0.4201421825902541 0 0.34795858503051302 0.425881111768525 0 0.33272146632259869 0.40525883785771122 0 0.3227404476219688 0.42624713816244092 0 0.33659904832278342 0.4201421825902541 0 0.33272146632259869 0.40525883785771122 0 0.33659904832278342 0.4201421825902541 0 0.34670895149724801 0.40816004440777182 0 0.33659904832278342 0.4201421825902541 0 0.34670895149724801 0.40816004440777182 0 0.34795858503051302 0.425881111768525 0 0.34670895149724801 0.40816004440777182 0 0.34795858503051302 0.425881111768525 0 0.36336601300371613 0.41450991002864218 0 0.34670895149724801 0.40816004440777182 0 0.36336601300371613 0.41450991002864218 0 0.35690611128064731 0.3988976866485166 0 0.34502769605759259 0.44546544446971242 0 0.34795858503051302 0.425881111768525 0 0.36959298495063608 0.43610817863788948 0 0.34795858503051302 0.425881111768525 0 0.36959298495063608 0.43610817863788948 0 0.36336601300371613 0.41450991002864218 0 0.36959298495063608 0.43610817863788948 0 0.36336601300371613 0.41450991002864218 0 0.38530342098431941 0.41064856824057122 0 0.36336601300371613 0.41450991002864218 0 0.3736470799201031 0.39378130610698531 0 0.38530342098431941 0.41064856824057122 0 0.3736470799201031 0.39378130610698531 0 0.3601059063978746 0.38125551426405008 0 0.35690611128064731 0.3988976866485166 0 0.36336601300371613 0.41450991002864218 0 0.3736470799201031 0.39378130610698531 0 0.35690611128064731 0.3988976866485166 0 0.3736470799201031 0.39378130610698531 0 0.3601059063978746 0.38125551426405008 0 0.37414389550204002 0.36898578533419818 0 0.34270248502322931 0.38427053755298168 0 0.3601059063978746 0.38125551426405008 0 0.35690611128064731 0.3988976866485166 0 0.34270248502322931 0.38427053755298168 0 0.3601059063978746 0.38125551426405008 0 0.35268350372385993 0.36328223724825232 0 0.34270248502322931 0.38427053755298168 0 0.34670895149724801 0.40816004440777182 0 0.35690611128064731 0.3988976866485166 0 0.35268350372385993 0.36328223724825232 0 0.36266452242448938 0.34229393694352239 0 0.35030182712711511 0.35130594720886232 0 0.35268350372385993 0.36328223724825232 0 0.36266452242448938 0.34229393694352239 0 0.35030182712711511 0.35130594720886232 0 0.35146565257524442 0.34420791440797271 0 0.36266452242448938 0.34229393694352239 0 0.35030182712711511 0.35130594720886232 0 0.35146565257524442 0.34420791440797271 0 0.34269927497721508 0.34493512072036142 0 0.35030182712711511 0.35130594720886232 0 0.35268350372385993 0.36328223724825232 0 0.33389487655237682 0.3658352592629312 0 0.34270248502322931 0.38427053755298168 0 0.35268350372385993 0.36328223724825232 0 0.3601059063978746 0.38125551426405008 0 0.35268350372385993 0.36328223724825232 0 0.37414389550204002 0.36898578533419818 0 0.35268350372385993 0.36328223724825232 0 0.37414389550204002 0.36898578533419818 0 0.36300645299402812 0.35604351837507042 0 0.37414389550204002 0.36898578533419818 0 0.37228166628853332 0.35471301169251829 0 0.36300645299402812 0.35604351837507042 0 0.35268350372385993 0.36328223724825232 0 0.36300645299402812 0.35604351837507042 0 0.36266452242448938 0.34229393694352239 0 0.37228166628853332 0.35471301169251829 0 0.36300645299402812 0.35604351837507042 0 0.36840829020790361 0.34668560051738673 0 0.36300645299402812 0.35604351837507042 0 0.36840829020790361 0.34668560051738673 0 0.36266452242448938 0.34229393694352239 0 0.36840829020790361 0.34668560051738673 0 0.36266452242448938 0.34229393694352239 0 0.36587418437400321 0.34278907974668538 0 0.37228166628853332 0.35471301169251829 0 0.36840829020790361 0.34668560051738673 0 0.37486749369974542 0.34694596905823039 0 0.37486749369974542 0.34694596905823039 0 0.37256750073976291 0.34304532959464751 0 0.37670219357667811 0.34177383067972761 0 0.36840829020790361 0.34668560051738673 0 0.37486749369974542 0.34694596905823039 0 0.37256750073976291 0.34304532959464751 0 0.36124897776362869 0.33531944770056321 0 0.36266452242448938 0.34229393694352239 0 0.36411885078159001 0.32644375487552563 0 0.37256750073976291 0.34304532959464751 0 0.36916640720496519 0.34145859007673351 0 0.37369311900952262 0.33836265764115908 0 0.37256750073976291 0.34304532959464751 0 0.37369311900952262 0.33836265764115908 0 0.37670219357667811 0.34177383067972761 0 0.36266452242448938 0.34229393694352239 0 0.37014896644917339 0.316543878568457 0 0.36770298492566261 0.33637877995368609 0 0.36266452242448938 0.34229393694352239 0 0.37368960646642962 0.31911015363466272 0 0.36770298492566261 0.33637877995368609 0 0.36985494237623989 0.33311962493185521 0 0.37368960646642962 0.31911015363466272 0 0.36266452242448938 0.34229393694352239 0 0.37368960646642962 0.31911015363466272 0 0.36266452242448938 0.34229393694352239 0 0.37014896644917339 0.316543878568457 0 0.36411885078159001 0.32644375487552563 0 0.36840829020790361 0.34668560051738673 0 0.36916640720496519 0.34145859007673351 0 0.36587418437400321 0.34278907974668538 0 0.36840829020790361 0.34668560051738673 0 0.37256750073976291 0.34304532959464751 0 0.36916640720496519 0.34145859007673351 0 0.36916640720496519 0.34145859007673351 0 0.36587418437400321 0.34278907974668538 0 0.36708394454210669 0.33994961910346172 0 0.36916640720496519 0.34145859007673351 0 0.37010024416019238 0.33739894816112592 0 0.36708394454210669 0.33994961910346172 0 0.36916640720496519 0.34145859007673351 0 0.37010024416019238 0.33739894816112592 0 0.37369311900952262 0.33836265764115908 0 0.36770298492566261 0.33637877995368609 0 0.37010024416019238 0.33739894816112592 0 0.36708394454210669 0.33994961910346172 0 0.37010024416019238 0.33739894816112592 0 0.37369311900952262 0.33836265764115908 0 0.3722735272100694 0.33425106354392481 0 0.3722735272100694 0.33425106354392481 0 0.37245621682226088 0.32924087979990557 0 0.375263113682131 0.33313320718557798 0 0.37369311900952262 0.33836265764115908 0 0.3722735272100694 0.33425106354392481 0 0.375263113682131 0.33313320718557798 0 0.3722735272100694 0.33425106354392481 0 0.37245621682226088 0.32924087979990557 0 0.36985494237623989 0.33311962493185521 0 0.37245621682226088 0.32924087979990557 0 0.37577016905582622 0.32787937856968757 0 0.375263113682131 0.33313320718557798 0 0.37010024416019238 0.33739894816112592 0 0.3722735272100694 0.33425106354392481 0 0.36985494237623989 0.33311962493185521 0 0.36770298492566261 0.33637877995368609 0 0.37010024416019238 0.33739894816112592 0 0.36985494237623989 0.33311962493185521 0 0.36128237795215928 0.33126347269122047 0 0.36124897776362869 0.33531944770056321 0 0.36411885078159001 0.32644375487552563 0 0.36150631125237548 0.32912422255951068 0 0.36128237795215928 0.33126347269122047 0 0.36411885078159001 0.32644375487552563 0 0.36150631125237548 0.32912422255951068 0 0.35994194411877378 0.32646204206530971 0 0.35835984371964152 0.33045614064968309 0 0.36128237795215928 0.33126347269122047 0 0.35899626180536931 0.33430086833413269 0 0.35835984371964152 0.33045614064968309 0 0.36150631125237548 0.32912422255951068 0 0.36128237795215928 0.33126347269122047 0 0.35835984371964152 0.33045614064968309 0 0.36128237795215928 0.33126347269122047 0 0.36124897776362869 0.33531944770056321 0 0.35899626180536931 0.33430086833413269 0 0.36124897776362869 0.33531944770056321 0 0.36001134864139028 0.33778823672905661 0 0.35899626180536931 0.33430086833413269 0 0.36124897776362869 0.33531944770056321 0 0.36001134864139028 0.33778823672905661 0 0.36266452242448938 0.34229393694352239 0 0.36001134864139028 0.33778823672905661 0 0.36266452242448938 0.34229393694352239 0 0.3582225103283424 0.33883319475427592 0 0.36266452242448938 0.34229393694352239 0 0.36587418437400321 0.34278907974668538 0 0.36708394454210669 0.33994961910346172 0 0.36770298492566261 0.33637877995368609 0 0.36266452242448938 0.34229393694352239 0 0.36708394454210669 0.33994961910346172 0 0.36266452242448938 0.34229393694352239 0 0.37368960646642962 0.31911015363466272 0 0.37014896644917339 0.316543878568457 0 0.37014896644917339 0.316543878568457 0 0.36604953812300478 0.31497278055865852 0 0.36630954626425261 0.31087512405144152 0 0.37499251130121058 0.31593455150060828 0 0.37014896644917339 0.316543878568457 0 0.37695808612291098 0.31120865645681561 0 0.37499251130121058 0.31593455150060828 0 0.37368960646642962 0.31911015363466272 0 0.37014896644917339 0.316543878568457 0 0.37014896644917339 0.316543878568457 0 0.36646072203027302 0.32009490443849897 0 0.3659238024377004 0.31770243144255911 0 0.37014896644917339 0.316543878568457 0 0.3659238024377004 0.31770243144255911 0 0.36604953812300478 0.31497278055865852 0 0.37245621682226088 0.32924087979990557 0 0.36985494237623989 0.33311962493185521 0 0.37368960646642962 0.31911015363466272 0 0.37245621682226088 0.32924087979990557 0 0.37368960646642962 0.31911015363466272 0 0.37506056064123422 0.32471797871916308 0 0.37245621682226088 0.32924087979990557 0 0.37577016905582622 0.32787937856968757 0 0.37506056064123422 0.32471797871916308 0 0.37014896644917339 0.316543878568457 0 0.36411885078159001 0.32644375487552563 0 0.36646072203027302 0.32009490443849897 0 0.36411885078159001 0.32644375487552563 0 0.35994194411877378 0.32646204206530971 0 0.36132202517978662 0.32303080634539388 0 0.36150631125237548 0.32912422255951068 0 0.36411885078159001 0.32644375487552563 0 0.35994194411877378 0.32646204206530971 0 0.36132202517978662 0.32303080634539388 0 0.36348301458407639 0.32047903077872458 0 0.35962675317161102 0.31893041505789499 0 0.36411885078159001 0.32644375487552563 0 0.36132202517978662 0.32303080634539388 0 0.36348301458407639 0.32047903077872458 0 0.36411885078159001 0.32644375487552563 0 0.36348301458407639 0.32047903077872458 0 0.36646072203027302 0.32009490443849897 0 0.36348301458407639 0.32047903077872458 0 0.36646072203027302 0.32009490443849897 0 0.3659238024377004 0.31770243144255911 0 0.3659238024377004 0.31770243144255911 0 0.36344593390349789 0.31667187251247519 0 0.36604953812300478 0.31497278055865852 0 0.36348301458407639 0.32047903077872458 0 0.3659238024377004 0.31770243144255911 0 0.36344593390349789 0.31667187251247519 0 0.36348301458407639 0.32047903077872458 0 0.36344593390349789 0.31667187251247519 0 0.35962675317161102 0.31893041505789499 0 0.36344593390349789 0.31667187251247519 0 0.35962675317161102 0.31893041505789499 0 0.35878641637012221 0.31305233625990619 0 0.36344593390349789 0.31667187251247519 0 0.36331333565659901 0.31283202127524651 0 0.35878641637012221 0.31305233625990619 0 0.36331333565659901 0.31283202127524651 0 0.36604953812300478 0.31497278055865852 0 0.36630954626425261 0.31087512405144152 0 0.36344593390349789 0.31667187251247519 0 0.36331333565659901 0.31283202127524651 0 0.36604953812300478 0.31497278055865852 0 0.35878641637012221 0.31305233625990619 0 0.35512602374864599 0.31718053618965047 0 0.35090510471213721 0.31152713165908658 0 0.35512602374864599 0.31718053618965047 0 0.34983435518440159 0.31943204998396652 0 0.35090510471213721 0.31152713165908658 0 0.35962675317161102 0.31893041505789499 0 0.35878641637012221 0.31305233625990619 0 0.35512602374864599 0.31718053618965047 0 0.35962675317161102 0.31893041505789499 0 0.35512602374864599 0.31718053618965047 0 0.35673455485560862 0.32229528426682241 0 0.35512602374864599 0.31718053618965047 0 0.35673455485560862 0.32229528426682241 0 0.34983435518440159 0.31943204998396652 0 0.35673455485560862 0.32229528426682241 0 0.35060422568955008 0.32587015674736058 0 0.34983435518440159 0.31943204998396652 0 0.35994194411877378 0.32646204206530971 0 0.36132202517978662 0.32303080634539388 0 0.35673455485560862 0.32229528426682241 0 0.36132202517978662 0.32303080634539388 0 0.35962675317161102 0.31893041505789499 0 0.35673455485560862 0.32229528426682241 0 0.35994194411877378 0.32646204206530971 0 0.35673455485560862 0.32229528426682241 0 0.35627338036128769 0.32705738058013539 0 0.35994194411877378 0.32646204206530971 0 0.35627338036128769 0.32705738058013539 0 0.35835984371964152 0.33045614064968309 0 0.35627338036128769 0.32705738058013539 0 0.35060422568955008 0.32587015674736058 0 0.35398721241228231 0.33095327650953749 0 0.35673455485560862 0.32229528426682241 0 0.35627338036128769 0.32705738058013539 0 0.35060422568955008 0.32587015674736058 0 0.35060422568955008 0.32587015674736058 0 0.34514221143703899 0.32919058107390442 0 0.34284551192874652 0.32364904383841531 0 0.35060422568955008 0.32587015674736058 0 0.34983435518440159 0.31943204998396652 0 0.34284551192874652 0.32364904383841531 0 0.34983435518440159 0.31943204998396652 0 0.34480088275632298 0.31606258733578418 0 0.35090510471213721 0.31152713165908658 0 0.34983435518440159 0.31943204998396652 0 0.34480088275632298 0.31606258733578418 0 0.34284551192874652 0.32364904383841531 0 0.35146565257524442 0.34420791440797271 0 0.36266452242448938 0.34229393694352239 0 0.35562031764263757 0.34031424282986023 0 0.35302683950207769 0.33602013814058929 0 0.35562031764263757 0.34031424282986023 0 0.35672120529774148 0.33684362974708199 0 0.35202203774268331 0.33965573310897551 0 0.35302683950207769 0.33602013814058929 0 0.35562031764263757 0.34031424282986023 0 0.35146565257524442 0.34420791440797271 0 0.35202203774268331 0.33965573310897551 0 0.35562031764263757 0.34031424282986023 0 0.36266452242448938 0.34229393694352239 0 0.35562031764263757 0.34031424282986023 0 0.3582225103283424 0.33883319475427592 0 0.35562031764263757 0.34031424282986023 0 0.3582225103283424 0.33883319475427592 0 0.35672120529774148 0.33684362974708199 0 0.36001134864139028 0.33778823672905661 0 0.3582225103283424 0.33883319475427592 0 0.35672120529774148 0.33684362974708199 0 0.36001134864139028 0.33778823672905661 0 0.35672120529774148 0.33684362974708199 0 0.35899626180536931 0.33430086833413269 0 0.35899626180536931 0.33430086833413269 0 0.35641212776078268 0.33381706902087938 0 0.35835984371964152 0.33045614064968309 0 0.35672120529774148 0.33684362974708199 0 0.35899626180536931 0.33430086833413269 0 0.35641212776078268 0.33381706902087938 0 0.35627338036128769 0.32705738058013539 0 0.35835984371964152 0.33045614064968309 0 0.35398721241228231 0.33095327650953749 0 0.35641212776078268 0.33381706902087938 0 0.35835984371964152 0.33045614064968309 0 0.35398721241228231 0.33095327650953749 0 0.35302683950207769 0.33602013814058929 0 0.35641212776078268 0.33381706902087938 0 0.35398721241228231 0.33095327650953749 0 0.35302683950207769 0.33602013814058929 0 0.35398721241228231 0.33095327650953749 0 0.34924685744035389 0.33249877391857741 0 0.35302683950207769 0.33602013814058929 0 0.35672120529774148 0.33684362974708199 0 0.35641212776078268 0.33381706902087938 0 0.35302683950207769 0.33602013814058929 0 0.34924685744035389 0.33249877391857741 0 0.34788509595764172 0.33882226599831611 0 0.35060422568955008 0.32587015674736058 0 0.34924685744035389 0.33249877391857741 0 0.34514221143703899 0.32919058107390442 0 0.35060422568955008 0.32587015674736058 0 0.35398721241228231 0.33095327650953749 0 0.34924685744035389 0.33249877391857741 0 0.34924685744035389 0.33249877391857741 0 0.34514221143703899 0.32919058107390442 0 0.34474234507332802 0.33433591834825649 0 0.34924685744035389 0.33249877391857741 0 0.34474234507332802 0.33433591834825649 0 0.34788509595764172 0.33882226599831611 0 0.34474234507332802 0.33433591834825649 0 0.34788509595764172 0.33882226599831611 0 0.34057592936449049 0.33809639891542392 0 0.35146565257524442 0.34420791440797271 0 0.34788509595764172 0.33882226599831611 0 0.34269927497721508 0.34493512072036142 0 0.35202203774268331 0.33965573310897551 0 0.35302683950207769 0.33602013814058929 0 0.34788509595764172 0.33882226599831611 0 0.35146565257524442 0.34420791440797271 0 0.35202203774268331 0.33965573310897551 0 0.34788509595764172 0.33882226599831611 0 0.34057592936449049 0.33809639891542392 0 0.33318390910610529 0.34358855052096038 0 0.34269927497721508 0.34493512072036142 0 0.34788509595764172 0.33882226599831611 0 0.34057592936449049 0.33809639891542392 0 0.34269927497721508 0.34493512072036142 0 0.34474234507332802 0.33433591834825649 0 0.34057592936449049 0.33809639891542392 0 0.33946855119551672 0.33096103471374028 0 0.34514221143703899 0.32919058107390442 0 0.34474234507332802 0.33433591834825649 0 0.33946855119551672 0.33096103471374028 0 0.34057592936449049 0.33809639891542392 0 0.33946855119551672 0.33096103471374028 0 0.33283637980140879 0.33469331179832718 0 0.33946855119551672 0.33096103471374028 0 0.33283637980140879 0.33469331179832718 0 0.33464693517381472 0.32630086361949601 0 0.33283637980140879 0.33469331179832718 0 0.33464693517381472 0.32630086361949601 0 0.3250964778074269 0.32978689602061512 0 0.34057592936449049 0.33809639891542392 0 0.33283637980140879 0.33469331179832718 0 0.33318390910610529 0.34358855052096038 0 0.33283637980140879 0.33469331179832718 0 0.33318390910610529 0.34358855052096038 0 0.32611481079287369 0.33974729713420021 0 0.34480088275632298 0.31606258733578418 0 0.33769186663180051 0.31814262317354819 0 0.34192449374142192 0.30753297203612773 0 0.34480088275632298 0.31606258733578418 0 0.33769186663180051 0.31814262317354819 0 0.34284551192874652 0.32364904383841531 0 0.33946855119551672 0.33096103471374028 0 0.34284551192874652 0.32364904383841531 0 0.33464693517381472 0.32630086361949601 0 0.33769186663180051 0.31814262317354819 0 0.34284551192874652 0.32364904383841531 0 0.33464693517381472 0.32630086361949601 0 0.34514221143703899 0.32919058107390442 0 0.33946855119551672 0.33096103471374028 0 0.34284551192874652 0.32364904383841531 0 0.33769186663180051 0.31814262317354819 0 0.33464693517381472 0.32630086361949601 0 0.32994282367798861 0.32057227217232959 0 0.33464693517381472 0.32630086361949601 0 0.32994282367798861 0.32057227217232959 0 0.3250964778074269 0.32978689602061512 0 0.33769186663180051 0.31814262317354819 0 0.32994282367798861 0.32057227217232959 0 0.32867162081685902 0.31028670060733149 0 0.32176892132522322 0.32006025561378759 0 0.31440941436971798 0.31242774502049953 0 0.32867162081685902 0.31028670060733149 0 0.32994282367798861 0.32057227217232959 0 0.32176892132522322 0.32006025561378759 0 0.32867162081685902 0.31028670060733149 0 0.32176892132522322 0.32006025561378759 0 0.31484893044661 0.32778579360563193 0 0.3250964778074269 0.32978689602061512 0 0.32994282367798861 0.32057227217232959 0 0.32176892132522322 0.32006025561378759 0 0.3250964778074269 0.32978689602061512 0 0.32176892132522322 0.32006025561378759 0 0.31484893044661 0.32778579360563193 0 0.31440941436971798 0.31242774502049953 0 0.32611481079287369 0.33974729713420021 0 0.3250964778074269 0.32978689602061512 0 0.31767498628904178 0.33862919533695518 0 0.32611481079287369 0.33974729713420021 0 0.31767498628904178 0.33862919533695518 0 0.32336406622478242 0.34852958887145069 0 0.33283637980140879 0.33469331179832718 0 0.32611481079287369 0.33974729713420021 0 0.3250964778074269 0.32978689602061512 0 0.31484893044661 0.32778579360563193 0 0.31767498628904178 0.33862919533695518 0 0.30654896287530792 0.34033791233229299 0 0.31484893044661 0.32778579360563193 0 0.3250964778074269 0.32978689602061512 0 0.31767498628904178 0.33862919533695518 0 0.31767498628904178 0.33862919533695518 0 0.31315570067328902 0.3464643712977632 0 0.32336406622478242 0.34852958887145069 0 0.31315570067328902 0.3464643712977632 0 0.31355388928080707 0.35546570062290778 0 0.32336406622478242 0.34852958887145069 0 0.32336406622478242 0.34852958887145069 0 0.33442175170730049 0.35218858713626039 0 0.32437013183195901 0.3602157298059272 0 0.31355388928080707 0.35546570062290778 0 0.32336406622478242 0.34852958887145069 0 0.32437013183195901 0.3602157298059272 0 0.33318390910610529 0.34358855052096038 0 0.32611481079287369 0.33974729713420021 0 0.32336406622478242 0.34852958887145069 0 0.35030182712711511 0.35130594720886232 0 0.33442175170730049 0.35218858713626039 0 0.33389487655237682 0.3658352592629312 0 0.33318390910610529 0.34358855052096038 0 0.32336406622478242 0.34852958887145069 0 0.33442175170730049 0.35218858713626039 0 0.35030182712711511 0.35130594720886232 0 0.33442175170730049 0.35218858713626039 0 0.34269927497721508 0.34493512072036142 0 0.33318390910610529 0.34358855052096038 0 0.33442175170730049 0.35218858713626039 0 0.34269927497721508 0.34493512072036142 0 0.34270248502322931 0.38427053755298168 0 0.35268350372385993 0.36328223724825232 0 0.33389487655237682 0.3658352592629312 0 0.33442175170730049 0.35218858713626039 0 0.33389487655237682 0.3658352592629312 0 0.32437013183195901 0.3602157298059272 0 0.31661607539452802 0.37905951313608538 0 0.33389487655237682 0.3658352592629312 0 0.32437013183195901 0.3602157298059272 0 0.31661607539452802 0.37905951313608538 0 0.31355388928080707 0.35546570062290778 0 0.32437013183195901 0.3602157298059272 0 0.31661607539452802 0.37905951313608538 0 0.31355388928080707 0.35546570062290778 0 0.31661607539452802 0.37905951313608538 0 0.31355388928080707 0.35546570062290778 0 0.30541822204374358 0.36584678197342768 0 0.2987730087010142 0.37934426936791982 0 0.31661607539452802 0.37905951313608538 0 0.30541822204374358 0.36584678197342768 0 0.30541822204374358 0.36584678197342768 0 0.30393955747459928 0.35096595789874813 0 0.29215410451095353 0.36543341035917859 0 0.2987730087010142 0.37934426936791982 0 0.30541822204374358 0.36584678197342768 0 0.29215410451095353 0.36543341035917859 0 0.31315570067328902 0.3464643712977632 0 0.30393955747459928 0.35096595789874813 0 0.30654896287530792 0.34033791233229299 0 0.31315570067328902 0.3464643712977632 0 0.31355388928080707 0.35546570062290778 0 0.30393955747459928 0.35096595789874813 0 0.31355388928080707 0.35546570062290778 0 0.30541822204374358 0.36584678197342768 0 0.30393955747459928 0.35096595789874813 0 0.30393955747459928 0.35096595789874813 0 0.29215410451095353 0.36543341035917859 0 0.30393955747459928 0.35096595789874813 0 0.29720735802849829 0.34424744790442102 0 0.29027641861796738 0.35164951467646482 0 0.30393955747459928 0.35096595789874813 0 0.29720735802849829 0.34424744790442102 0 0.30654896287530792 0.34033791233229299 0 0.29720735802849829 0.34424744790442102 0 0.29027641861796738 0.35164951467646482 0 0.28998304713239348 0.34105976447064218 0 0.30393955747459928 0.35096595789874813 0 0.29027641861796738 0.35164951467646482 0 0.29215410451095353 0.36543341035917859 0 0.29027641861796738 0.35164951467646482 0 0.29215410451095353 0.36543341035917859 0 0.27920137084664282 0.3573603676334649 0 0.29027641861796738 0.35164951467646482 0 0.27920137084664282 0.3573603676334649 0 0.28068773357058369 0.34198453751068081 0 0.29027641861796738 0.35164951467646482 0 0.28068773357058369 0.34198453751068081 0 0.28998304713239348 0.34105976447064218 0 0.28036865154730628 0.37990086281960789 0 0.29215410451095353 0.36543341035917859 0 0.27920137084664282 0.3573603676334649 0 0.28036865154730628 0.37990086281960789 0 0.2987730087010142 0.37934426936791982 0 0.29215410451095353 0.36543341035917859 0 0.28036865154730628 0.37990086281960789 0 0.29215410451095353 0.36543341035917859 0 0.28036865154730628 0.37990086281960789 0 0.27920137084664282 0.3573603676334649 0 0.26173146881309822 0.35734024057335978 0 0.28036865154730628 0.37990086281960789 0 0.26173146881309822 0.35734024057335978 0 0.28036865154730628 0.37990086281960789 0 0.26173146881309822 0.35734024057335978 0 0.2641967246118288 0.36596915937278562 0 0.27920137084664282 0.3573603676334649 0 0.27030047393074008 0.3474963096498429 0 0.26173146881309822 0.35734024057335978 0 0.27920137084664282 0.3573603676334649 0 0.27030047393074008 0.3474963096498429 0 0.28068773357058369 0.34198453751068081 0 0.2430942860788903 0.33477961832711151 0 0.26173146881309822 0.35734024057335978 0 0.27030047393074008 0.3474963096498429 0 0.26173146881309822 0.35734024057335978 0 0.26240083601839698 0.33727672217147331 0 0.23816107804029091 0.35120524212074949 0 0.26173146881309822 0.35734024057335978 0 0.2641967246118288 0.36596915937278562 0 0.23816107804029091 0.35120524212074949 0 0.2641967246118288 0.36596915937278562 0 0.2492643002430574 0.365916522193315 0 0.24311907173897271 0.36013203008567057 0 0.2641967246118288 0.36596915937278562 0 0.2492643002430574 0.365916522193315 0 0.25710864090743918 0.37145542319719338 0 0.2641967246118288 0.36596915937278562 0 0.2492643002430574 0.365916522193315 0 0.25383912625151372 0.37755129754335942 0 0.25710864090743918 0.37145542319719338 0 0.26350653962281989 0.38010735630523079 0 0.25710864090743918 0.37145542319719338 0 0.2641967246118288 0.36596915937278562 0 0.2484846271056145 0.31037308609574782 0 0.25508783524565293 0.32209220201309929 0 0.26836904206483531 0.31075971332937607 0 0.25508783524565293 0.32209220201309929 0 0.26240083601839698 0.33727672217147331 0 0.26677092012209491 0.32204036282613252 0 0.25508783524565293 0.32209220201309929 0 0.26677092012209491 0.32204036282613252 0 0.26836904206483531 0.31075971332937607 0 0.2430942860788903 0.33477961832711151 0 0.25508783524565293 0.32209220201309929 0 0.26240083601839698 0.33727672217147331 0 0.2430942860788903 0.33477961832711151 0 0.26173146881309822 0.35734024057335978 0 0.26240083601839698 0.33727672217147331 0 0.26240083601839698 0.33727672217147331 0 0.27184092000699639 0.33891315949469752 0 0.27388917516664008 0.32964775149744319 0 0.26240083601839698 0.33727672217147331 0 0.27388917516664008 0.32964775149744319 0 0.26677092012209491 0.32204036282613252 0 0.27030047393074008 0.3474963096498429 0 0.26240083601839698 0.33727672217147331 0 0.27184092000699639 0.33891315949469752 0 0.27030047393074008 0.3474963096498429 0 0.27184092000699639 0.33891315949469752 0 0.28068773357058369 0.34198453751068081 0 0.27184092000699639 0.33891315949469752 0 0.28068773357058369 0.34198453751068081 0 0.27388917516664008 0.32964775149744319 0 0.28068773357058369 0.34198453751068081 0 0.27388917516664008 0.32964775149744319 0 0.28570907475377572 0.33188311037056872 0 0.27388917516664008 0.32964775149744319 0 0.26677092012209491 0.32204036282613252 0 0.28178409254690689 0.31684790712797722 0 0.27388917516664008 0.32964775149744319 0 0.28178409254690689 0.31684790712797722 0 0.28570907475377572 0.33188311037056872 0 0.26677092012209491 0.32204036282613252 0 0.28178409254690689 0.31684790712797722 0 0.26836904206483531 0.31075971332937607 0 0.28178409254690689 0.31684790712797722 0 0.29262159606390598 0.32453461147271162 0 0.29660332646403359 0.30785121346786842 0 0.28178409254690689 0.31684790712797722 0 0.29262159606390598 0.32453461147271162 0 0.28570907475377572 0.33188311037056872 0 0.28068773357058369 0.34198453751068081 0 0.28570907475377572 0.33188311037056872 0 0.28998304713239348 0.34105976447064218 0 0.29262159606390598 0.32453461147271162 0 0.28570907475377572 0.33188311037056872 0 0.29603465069114282 0.33553421189107618 0 0.29720735802849829 0.34424744790442102 0 0.29603465069114282 0.33553421189107618 0 0.28998304713239348 0.34105976447064218 0 0.28570907475377572 0.33188311037056872 0 0.29603465069114282 0.33553421189107618 0 0.28998304713239348 0.34105976447064218 0 0.29720735802849829 0.34424744790442102 0 0.29603465069114282 0.33553421189107618 0 0.30654896287530792 0.34033791233229299 0 0.29603465069114282 0.33553421189107618 0 0.30654896287530792 0.34033791233229299 0 0.30445412428221041 0.32558903425911379 0 0.29262159606390598 0.32453461147271162 0 0.29603465069114282 0.33553421189107618 0 0.30445412428221041 0.32558903425911379 0 0.31484893044661 0.32778579360563193 0 0.30654896287530792 0.34033791233229299 0 0.30445412428221041 0.32558903425911379 0 0.31767498628904178 0.33862919533695518 0 0.31315570067328902 0.3464643712977632 0 0.30654896287530792 0.34033791233229299 0 0.30445412428221041 0.32558903425911379 0 0.29660332646403359 0.30785121346786842 0 0.31440941436971798 0.31242774502049953 0 0.29262159606390598 0.32453461147271162 0 0.30445412428221041 0.32558903425911379 0 0.29660332646403359 0.30785121346786842 0 0.31484893044661 0.32778579360563193 0 0.30445412428221041 0.32558903425911379 0 0.31440941436971798 0.31242774502049953 0 0.30822946874662033 0.29998271616579031 0 0.29660332646403359 0.30785121346786842 0 0.31440941436971798 0.31242774502049953 0 0.30822946874662033 0.29998271616579031 0 0.30055108247350393 0.28416894361273021 0 0.29660332646403359 0.30785121346786842 0 0.30822946874662033 0.29998271616579031 0 0.30055108247350393 0.28416894361273021 0 0.32109763140443309 0.29547610107375327 0 0.30055108247350393 0.28416894361273021 0 0.29660332646403359 0.30785121346786842 0 0.27430616976337108 0.29100628718303567 0 0.30055108247350393 0.28416894361273021 0 0.27430616976337108 0.29100628718303567 0 0.28443506245096839 0.27205148705280008 0 0.30055108247350393 0.28416894361273021 0 0.27430616976337108 0.29100628718303567 0 0.28178409254690689 0.31684790712797722 0 0.29660332646403359 0.30785121346786842 0 0.27430616976337108 0.29100628718303567 0 0.28178409254690689 0.31684790712797722 0 0.26836904206483531 0.31075971332937607 0 0.27430616976337108 0.29100628718303567 0 0.28178409254690689 0.31684790712797722 0 0.27430616976337108 0.29100628718303567 0 0.27430616976337108 0.29100628718303567 0 0.25121587924780342 0.29702178630611242 0 0.27430616976337108 0.29100628718303567 0 0.25953152444998728 0.28294166139542631 0 0.25121587924780342 0.29702178630611242 0 0.26836904206483531 0.31075971332937607 0 0.27430616976337108 0.29100628718303567 0 0.25121587924780342 0.29702178630611242 0 0.26836904206483531 0.31075971332937607 0 0.25121587924780342 0.29702178630611242 0 0.2484846271056145 0.31037308609574782 0 0.26836904206483531 0.31075971332937607 0 0.25121587924780342 0.29702178630611242 0 0.25102838231212438 0.26850893423506528 0 0.26790857605335527 0.26889798384773289 0 0.26221447651104962 0.2479993693513689 0 0.26790857605335527 0.26889798384773289 0 0.26221447651104962 0.2479993693513689 0 0.25953152444998728 0.28294166139542631 0 0.25102838231212438 0.26850893423506528 0 0.26790857605335527 0.26889798384773289 0 0.27430616976337108 0.29100628718303567 0 0.26790857605335527 0.26889798384773289 0 0.28443506245096839 0.27205148705280008 0 0.27430616976337108 0.29100628718303567 0 0.25953152444998728 0.28294166139542631 0 0.26790857605335527 0.26889798384773289 0 0.27430616976337108 0.29100628718303567 0 0.26790857605335527 0.26889798384773289 0 0.26790857605335527 0.26889798384773289 0 0.28119448123381058 0.25405304303149878 0 0.26221447651104962 0.2479993693513689 0 0.26790857605335527 0.26889798384773289 0 0.28119448123381058 0.25405304303149878 0 0.28443506245096839 0.27205148705280008 0 0.28119448123381058 0.25405304303149878 0 0.28443506245096839 0.27205148705280008 0 0.2982150027308012 0.26213117758900317 0 0.28119448123381058 0.25405304303149878 0 0.2982150027308012 0.26213117758900317 0 0.30328699804120918 0.24394477185791469 0 0.30055108247350393 0.28416894361273021 0 0.28443506245096839 0.27205148705280008 0 0.2982150027308012 0.26213117758900317 0 0.30055108247350393 0.28416894361273021 0 0.2982150027308012 0.26213117758900317 0 0.31879452400631653 0.25919465198291952 0 0.2982150027308012 0.26213117758900317 0 0.31879452400631653 0.25919465198291952 0 0.30328699804120918 0.24394477185791469 0 0.31879452400631653 0.25919465198291952 0 0.33092809789354199 0.24744869965648561 0 0.31845456220733243 0.24449663650262579 0 0.31879452400631653 0.25919465198291952 0 0.33565265393095528 0.25675142138279861 0 0.33982225619875311 0.26765994074234428 0 0.31879452400631653 0.25919465198291952 0 0.33982225619875311 0.26765994074234428 0 0.31879452400631653 0.25919465198291952 0 0.33565265393095528 0.25675142138279861 0 0.33092809789354199 0.24744869965648561 0 0.33565265393095528 0.25675142138279861 0 0.33982225619875311 0.26765994074234428 0 0.34536281311255052 0.25941060478944128 0 0.33565265393095528 0.25675142138279861 0 0.3433555784436142 0.25004320974280247 0 0.33092809789354199 0.24744869965648561 0 0.33565265393095528 0.25675142138279861 0 0.3433555784436142 0.25004320974280247 0 0.34536281311255052 0.25941060478944128 0 0.31879452400631653 0.25919465198291952 0 0.33982225619875311 0.26765994074234428 0 0.32679599518363661 0.27733160004242491 0 0.33982225619875311 0.26765994074234428 0 0.32679599518363661 0.27733160004242491 0 0.34056182851336592 0.28206143899133118 0 0.30055108247350393 0.28416894361273021 0 0.32679599518363661 0.27733160004242491 0 0.30055108247350393 0.28416894361273021 0 0.31879452400631653 0.25919465198291952 0 0.32679599518363661 0.27733160004242491 0 0.32679599518363661 0.27733160004242491 0 0.32109763140443309 0.29547610107375327 0 0.33248404658197278 0.28876668272462419 0 0.30055108247350393 0.28416894361273021 0 0.32679599518363661 0.27733160004242491 0 0.32109763140443309 0.29547610107375327 0 0.32109763140443309 0.29547610107375327 0 0.31440941436971798 0.31242774502049953 0 0.32867162081685902 0.31028670060733149 0 0.30822946874662033 0.29998271616579031 0 0.32109763140443309 0.29547610107375327 0 0.31440941436971798 0.31242774502049953 0 0.32867162081685902 0.31028670060733149 0 0.33472549883669622 0.29791121211074773 0 0.34192449374142192 0.30753297203612773 0 0.32109763140443309 0.29547610107375327 0 0.32867162081685902 0.31028670060733149 0 0.33472549883669622 0.29791121211074773 0 0.33472549883669622 0.29791121211074773 0 0.34281583705185747 0.29966479619329672 0 0.34192449374142192 0.30753297203612773 0 0.33769186663180051 0.31814262317354819 0 0.32867162081685902 0.31028670060733149 0 0.34192449374142192 0.30753297203612773 0 0.32679599518363661 0.27733160004242491 0 0.33248404658197278 0.28876668272462419 0 0.34056182851336592 0.28206143899133118 0 0.32109763140443309 0.29547610107375327 0 0.33472549883669622 0.29791121211074773 0 0.33248404658197278 0.28876668272462419 0 0.33472549883669622 0.29791121211074773 0 0.33248404658197278 0.28876668272462419 0 0.34417327957572558 0.29277050597204329 0 0.33472549883669622 0.29791121211074773 0 0.34281583705185747 0.29966479619329672 0 0.34417327957572558 0.29277050597204329 0 0.33248404658197278 0.28876668272462419 0 0.34056182851336592 0.28206143899133118 0 0.34417327957572558 0.29277050597204329 0 0.34056182851336592 0.28206143899133118 0 0.34979868535227071 0.28728326233729501 0 0.34417327957572558 0.29277050597204329 0 0.34056182851336592 0.28206143899133118 0 0.34979868535227071 0.28728326233729501 0 0.35183199075491411 0.27966461044832719 0 0.34417327957572558 0.29277050597204329 0 0.35334053836337709 0.29410458558147129 0 0.34972900846361488 0.30172704795696642 0 0.34979868535227071 0.28728326233729501 0 0.34417327957572558 0.29277050597204329 0 0.35334053836337709 0.29410458558147129 0 0.34979868535227071 0.28728326233729501 0 0.35334053836337709 0.29410458558147129 0 0.35722235408413222 0.28831366276426512 0 0.35334053836337709 0.29410458558147129 0 0.35826071325737319 0.3003277240158499 0 0.36091512844171192 0.29433704443458902 0 0.35334053836337709 0.29410458558147129 0 0.35722235408413222 0.28831366276426512 0 0.36091512844171192 0.29433704443458902 0 0.34979868535227071 0.28728326233729501 0 0.35722235408413222 0.28831366276426512 0 0.35183199075491411 0.27966461044832719 0 0.35722235408413222 0.28831366276426512 0 0.36152496379752869 0.28359539021876212 0 0.35183199075491411 0.27966461044832719 0 0.34480088275632298 0.31606258733578418 0 0.34192449374142192 0.30753297203612773 0 0.35090510471213721 0.31152713165908658 0 0.34192449374142192 0.30753297203612773 0 0.35090510471213721 0.31152713165908658 0 0.34972900846361488 0.30172704795696642 0 0.34281583705185747 0.29966479619329672 0 0.34417327957572558 0.29277050597204329 0 0.34972900846361488 0.30172704795696642 0 0.34281583705185747 0.29966479619329672 0 0.34192449374142192 0.30753297203612773 0 0.34972900846361488 0.30172704795696642 0 0.34972900846361488 0.30172704795696642 0 0.35826071325737319 0.3003277240158499 0 0.35721607615581658 0.30656573559573969 0 0.35334053836337709 0.29410458558147129 0 0.34972900846361488 0.30172704795696642 0 0.35826071325737319 0.3003277240158499 0 0.35090510471213721 0.31152713165908658 0 0.34972900846361488 0.30172704795696642 0 0.35721607615581658 0.30656573559573969 0 0.35878641637012221 0.31305233625990619 0 0.35090510471213721 0.31152713165908658 0 0.35721607615581658 0.30656573559573969 0 0.37014896644917339 0.316543878568457 0 0.37763341047385651 0.29079382019339128 0 0.37014896644917339 0.316543878568457 0 0.37108481648816682 0.30013899891886681 0 0.36845835323010317 0.30596496181531441 0 0.37014896644917339 0.316543878568457 0 0.37763341047385651 0.29079382019339128 0 0.37695808612291098 0.31120865645681561 0 0.37014896644917339 0.316543878568457 0 0.37108481648816682 0.30013899891886681 0 0.37763341047385651 0.29079382019339128 0 0.36630954626425261 0.31087512405144152 0 0.36228941999803421 0.30896529616435242 0 0.36543096483439103 0.3064802843427199 0 0.36331333565659901 0.31283202127524651 0 0.36630954626425261 0.31087512405144152 0 0.36228941999803421 0.30896529616435242 0 0.36331333565659901 0.31283202127524651 0 0.35878641637012221 0.31305233625990619 0 0.36228941999803421 0.30896529616435242 0 0.35878641637012221 0.31305233625990619 0 0.35721607615581658 0.30656573559573969 0 0.36228941999803421 0.30896529616435242 0 0.35721607615581658 0.30656573559573969 0 0.36228941999803421 0.30896529616435242 0 0.36268018070702418 0.30398627546106088 0 0.36630954626425261 0.31087512405144152 0 0.36543096483439103 0.3064802843427199 0 0.36845835323010317 0.30596496181531441 0 0.36228941999803421 0.30896529616435242 0 0.36543096483439103 0.3064802843427199 0 0.36268018070702418 0.30398627546106088 0 0.36543096483439103 0.3064802843427199 0 0.36607900901995372 0.30349396637540749 0 0.36845835323010317 0.30596496181531441 0 0.36607900901995372 0.30349396637540749 0 0.36268018070702418 0.30398627546106088 0 0.36558719123160882 0.29969948119116269 0 0.36607900901995372 0.30349396637540749 0 0.36558719123160882 0.29969948119116269 0 0.36823835509664099 0.30133882906677939 0 0.36543096483439103 0.3064802843427199 0 0.36607900901995372 0.30349396637540749 0 0.36268018070702418 0.30398627546106088 0 0.35826071325737319 0.3003277240158499 0 0.35721607615581658 0.30656573559573969 0 0.36268018070702418 0.30398627546106088 0 0.35826071325737319 0.3003277240158499 0 0.36268018070702418 0.30398627546106088 0 0.36558719123160882 0.29969948119116269 0 0.35826071325737319 0.3003277240158499 0 0.36558719123160882 0.29969948119116269 0 0.36091512844171192 0.29433704443458902 0 0.36871223371641282 0.29817542324200702 0 0.37108481648816682 0.30013899891886681 0 0.37014933742706652 0.29575476169949788 0 0.36558719123160882 0.29969948119116269 0 0.36871223371641282 0.29817542324200702 0 0.36734652779664789 0.29411680932906442 0 0.36558719123160882 0.29969948119116269 0 0.36871223371641282 0.29817542324200702 0 0.36823835509664099 0.30133882906677939 0 0.36871223371641282 0.29817542324200702 0 0.37108481648816682 0.30013899891886681 0 0.36823835509664099 0.30133882906677939 0 0.37108481648816682 0.30013899891886681 0 0.36823835509664099 0.30133882906677939 0 0.36845835323010317 0.30596496181531441 0 0.36607900901995372 0.30349396637540749 0 0.36823835509664099 0.30133882906677939 0 0.36845835323010317 0.30596496181531441 0 0.37014896644917339 0.316543878568457 0 0.36630954626425261 0.31087512405144152 0 0.36845835323010317 0.30596496181531441 0 0.36812955944888692 0.28419813691800921 0 0.36084998839118931 0.2761252295017701 0 0.37969218042614078 0.28371066929036243 0 0.36152496379752869 0.28359539021876212 0 0.36812955944888692 0.28419813691800921 0 0.36084998839118931 0.2761252295017701 0 0.36414496955441777 0.28941104037434479 0 0.36911771796651938 0.28986917351547109 0 0.36812955944888692 0.28419813691800921 0 0.36152496379752869 0.28359539021876212 0 0.36414496955441777 0.28941104037434479 0 0.36812955944888692 0.28419813691800921 0 0.35722235408413222 0.28831366276426512 0 0.36152496379752869 0.28359539021876212 0 0.36414496955441777 0.28941104037434479 0 0.35722235408413222 0.28831366276426512 0 0.36091512844171192 0.29433704443458902 0 0.36414496955441777 0.28941104037434479 0 0.36558719123160882 0.29969948119116269 0 0.36091512844171192 0.29433704443458902 0 0.36734652779664789 0.29411680932906442 0 0.36091512844171192 0.29433704443458902 0 0.36414496955441777 0.28941104037434479 0 0.36734652779664789 0.29411680932906442 0 0.36414496955441777 0.28941104037434479 0 0.36911771796651938 0.28986917351547109 0 0.36734652779664789 0.29411680932906442 0 0.36911771796651938 0.28986917351547109 0 0.37026464520563152 0.29279186409727531 0 0.36734652779664789 0.29411680932906442 0 0.37108481648816682 0.30013899891886681 0 0.37306860395079622 0.29341917559567809 0 0.37763341047385651 0.29079382019339128 0 0.36911771796651938 0.28986917351547109 0 0.37026464520563152 0.29279186409727531 0 0.37237913536365119 0.29056320862162688 0 0.36871223371641282 0.29817542324200702 0 0.36734652779664789 0.29411680932906442 0 0.37014933742706652 0.29575476169949788 0 0.37026464520563152 0.29279186409727531 0 0.36734652779664789 0.29411680932906442 0 0.37014933742706652 0.29575476169949788 0 0.37108481648816682 0.30013899891886681 0 0.37014933742706652 0.29575476169949788 0 0.37306860395079622 0.29341917559567809 0 0.37026464520563152 0.29279186409727531 0 0.37014933742706652 0.29575476169949788 0 0.37306860395079622 0.29341917559567809 0 0.36911771796651938 0.28986917351547109 0 0.37237913536365119 0.29056320862162688 0 0.37333201972158658 0.2878654242033048 0 0.37306860395079622 0.29341917559567809 0 0.37237913536365119 0.29056320862162688 0 0.37763341047385651 0.29079382019339128 0 0.37237913536365119 0.29056320862162688 0 0.37333201972158658 0.2878654242033048 0 0.37763341047385651 0.29079382019339128 0 0.37026464520563152 0.29279186409727531 0 0.37306860395079622 0.29341917559567809 0 0.37237913536365119 0.29056320862162688 0 0.37333201972158658 0.2878654242033048 0 0.36812955944888692 0.28419813691800921 0 0.37969218042614078 0.28371066929036243 0 0.36911771796651938 0.28986917351547109 0 0.37333201972158658 0.2878654242033048 0 0.36812955944888692 0.28419813691800921 0 0.36084998839118931 0.2761252295017701 0 0.37969218042614078 0.28371066929036243 0 0.36084998839118931 0.2761252295017701 0 0.37017340450925651 0.266060206293324 0 0.3539366042426153 0.26554047293381039 0 0.36084998839118931 0.2761252295017701 0 0.38460708535355081 0.26680105137204091 0 0.36084998839118931 0.2761252295017701 0 0.37017340450925651 0.266060206293324 0 0.38460708535355081 0.26680105137204091 0 0.3539366042426153 0.26554047293381039 0 0.38129994004966872 0.25577407136566988 0 0.37169426656027921 0.24972740256563611 0 0.37017340450925651 0.266060206293324 0 0.3539366042426153 0.26554047293381039 0 0.38129994004966872 0.25577407136566988 0 0.3539366042426153 0.26554047293381039 0 0.37169426656027921 0.24972740256563611 0 0.36205361842742478 0.24882498742118489 0 0.3539366042426153 0.26554047293381039 0 0.38129994004966872 0.25577407136566988 0 0.3539366042426153 0.26554047293381039 0 0.35175757775775729 0.2532797976346674 0 0.36205361842742478 0.24882498742118489 0 0.3433555784436142 0.25004320974280247 0 0.35175757775775729 0.2532797976346674 0 0.34536281311255052 0.25941060478944128 0 0.33982225619875311 0.26765994074234428 0 0.3539366042426153 0.26554047293381039 0 0.34536281311255052 0.25941060478944128 0 0.3539366042426153 0.26554047293381039 0 0.35175757775775729 0.2532797976346674 0 0.34536281311255052 0.25941060478944128 0 0.33982225619875311 0.26765994074234428 0 0.36084998839118931 0.2761252295017701 0 0.33982225619875311 0.26765994074234428 0 0.36084998839118931 0.2761252295017701 0 0.3539366042426153 0.26554047293381039 0 0.33982225619875311 0.26765994074234428 0 0.36084998839118931 0.2761252295017701 0 0.35183199075491411 0.27966461044832719 0 0.33982225619875311 0.26765994074234428 0 0.34056182851336592 0.28206143899133118 0 0.35183199075491411 0.27966461044832719 0 0.36152496379752869 0.28359539021876212 0 0.36084998839118931 0.2761252295017701 0 0.35183199075491411 0.27966461044832719 0 0.36084998839118931 0.2761252295017701 0 0.35183199075491411 0.27966461044832719 0 0.39945440726228237 0.27350419034528239 0 0.38460708535355081 0.26680105137204091 0 0.40768566828284042 0.25774317622192677 0 0.39945440726228237 0.27350419034528239 0 0.4092682188351508 0.26816031590002881 0 0.40768566828284042 0.25774317622192677 0 0.39945440726228237 0.27350419034528239 0 0.38460708535355081 0.26680105137204091 0 0.3904751567012596 0.27530993325585928 0 0.39945440726228237 0.27350419034528239 0 0.3904751567012596 0.27530993325585928 0 0.39488150240831521 0.28173053148540511 0 0.39945440726228237 0.27350419034528239 0 0.40366985246608472 0.28285995447659418 0 0.40929088926209078 0.279020096056181 0 0.39945440726228237 0.27350419034528239 0 0.4092682188351508 0.26816031590002881 0 0.40929088926209078 0.279020096056181 0 0.39945440726228237 0.27350419034528239 0 0.39488150240831521 0.28173053148540511 0 0.40366985246608472 0.28285995447659418 0 0.38783836144724232 0.2556839199238965 0 0.38129994004966872 0.25577407136566988 0 0.40866327585672191 0.24600766979752939 0 0.38460708535355081 0.26680105137204091 0 0.40768566828284042 0.25774317622192677 0 0.38783836144724232 0.2556839199238965 0 0.40768566828284042 0.25774317622192677 0 0.40866327585672191 0.24600766979752939 0 0.38783836144724232 0.2556839199238965 0 0.38460708535355081 0.26680105137204091 0 0.40768566828284042 0.25774317622192677 0 0.38129994004966872 0.25577407136566988 0 0.40866327585672191 0.24600766979752939 0 0.38783836144724232 0.2556839199238965 0 0.38129994004966872 0.25577407136566988 0 0.38460708535355081 0.26680105137204091 0 0.38783836144724232 0.2556839199238965 0 0.38460708535355081 0.26680105137204091 0 0.38129994004966872 0.25577407136566988 0 0.37169426656027921 0.24972740256563611 0 0.38106847269238292 0.24536179082341181 0 0.37017340450925651 0.266060206293324 0 0.38129994004966872 0.25577407136566988 0 0.38460708535355081 0.26680105137204091 0 0.36084998839118931 0.2761252295017701 0 0.38460708535355081 0.26680105137204091 0 0.37969218042614078 0.28371066929036243 0 0.38460708535355081 0.26680105137204091 0 0.3904751567012596 0.27530993325585928 0 0.37969218042614078 0.28371066929036243 0 0.38460708535355081 0.26680105137204091 0 0.37969218042614078 0.28371066929036243 0 0.3904751567012596 0.27530993325585928 0 0.37969218042614078 0.28371066929036243 0 0.39488150240831521 0.28173053148540511 0 0.37969218042614078 0.28371066929036243 0 0.37763341047385651 0.29079382019339128 0 0.40259214502479168 0.29292967641552992 0 0.37763341047385651 0.29079382019339128 0 0.4027243230010164 0.30147339632314252 0 0.37969218042614078 0.28371066929036243 0 0.37763341047385651 0.29079382019339128 0 0.37333201972158658 0.2878654242033048 0 0.37969218042614078 0.28371066929036243 0 0.37763341047385651 0.29079382019339128 0 0.37763341047385651 0.29079382019339128 0 0.37695808612291098 0.31120865645681561 0 0.38599374742651271 0.30414296713942529 0 0.37763341047385651 0.29079382019339128 0 0.38599374742651271 0.30414296713942529 0 0.4027243230010164 0.30147339632314252 0 0.37695808612291098 0.31120865645681561 0 0.38599374742651271 0.30414296713942529 0 0.38754735899376969 0.31282171123814728 0 0.38599374742651271 0.30414296713942529 0 0.4027243230010164 0.30147339632314252 0 0.38754735899376969 0.31282171123814728 0 0.4027243230010164 0.30147339632314252 0 0.3956366020903157 0.32248231082130752 0 0.38754735899376969 0.31282171123814728 0 0.37969218042614078 0.28371066929036243 0 0.40259214502479168 0.29292967641552992 0 0.37969218042614078 0.28371066929036243 0 0.39488150240831521 0.28173053148540511 0 0.40259214502479168 0.29292967641552992 0 0.37763341047385651 0.29079382019339128 0 0.4027243230010164 0.30147339632314252 0 0.40259214502479168 0.29292967641552992 0 0.4027243230010164 0.30147339632314252 0 0.40259214502479168 0.29292967641552992 0 0.41139710839419091 0.29189735433941028 0 0.40259214502479168 0.29292967641552992 0 0.40366985246608472 0.28285995447659418 0 0.41139710839419091 0.29189735433941028 0 0.39488150240831521 0.28173053148540511 0 0.40259214502479168 0.29292967641552992 0 0.40366985246608472 0.28285995447659418 0 0.40366985246608472 0.28285995447659418 0 0.41139710839419091 0.29189735433941028 0 0.40929088926209078 0.279020096056181 0 0.41139710839419091 0.29189735433941028 0 0.42781523552817591 0.31215297245289481 0 0.42226183937510081 0.28327127115801121 0 0.41139710839419091 0.29189735433941028 0 0.42226183937510081 0.28327127115801121 0 0.40929088926209078 0.279020096056181 0 0.4027243230010164 0.30147339632314252 0 0.41139710839419091 0.29189735433941028 0 0.42781523552817591 0.31215297245289481 0 0.4027243230010164 0.30147339632314252 0 0.42781523552817591 0.31215297245289481 0 0.41357021602424721 0.32279281759874212 0 0.4027243230010164 0.30147339632314252 0 0.42781523552817591 0.31215297245289481 0 0.42781523552817591 0.31215297245289481 0 0.42226183937510081 0.28327127115801121 0 0.42781523552817591 0.31215297245289481 0 0.42226183937510081 0.28327127115801121 0 0.44120727567718632 0.28746005308771089 0 0.42226183937510081 0.28327127115801121 0 0.43023391716603732 0.27040224467912161 0 0.44120727567718632 0.28746005308771089 0 0.42226183937510081 0.28327127115801121 0 0.43023391716603732 0.27040224467912161 0 0.41664462513020523 0.25422696758609492 0 0.43023391716603732 0.27040224467912161 0 0.43692075095235122 0.26433370861442979 0 0.44373838257505849 0.27050131303512348 0 0.42226183937510081 0.28327127115801121 0 0.4092682188351508 0.26816031590002881 0 0.41664462513020523 0.25422696758609492 0 0.42226183937510081 0.28327127115801121 0 0.41664462513020523 0.25422696758609492 0 0.42226183937510081 0.28327127115801121 0 0.4092682188351508 0.26816031590002881 0 0.40929088926209078 0.279020096056181 0 0.40768566828284042 0.25774317622192677 0 0.41664462513020523 0.25422696758609492 0 0.40866327585672191 0.24600766979752939 0 0.40768566828284042 0.25774317622192677 0 0.41664462513020523 0.25422696758609492 0 0.4092682188351508 0.26816031590002881 0 0.40768566828284042 0.25774317622192677 0 0.41664462513020523 0.25422696758609492 0 0.42749544465446981 0.25699566217507153 0 0.45166362976964691 0.25106894999712381 0 0.43076425121212841 0.2486853010718087 0 0.41664462513020523 0.25422696758609492 0 0.42749544465446981 0.25699566217507153 0 0.43076425121212841 0.2486853010718087 0 0.43023391716603732 0.27040224467912161 0 0.41664462513020523 0.25422696758609492 0 0.42749544465446981 0.25699566217507153 0 0.41664462513020523 0.25422696758609492 0 0.43076425121212841 0.2486853010718087 0 0.42749544465446981 0.25699566217507153 0 0.43692075095235122 0.26433370861442979 0 0.44456450099631911 0.26043047377218492 0 0.43023391716603732 0.27040224467912161 0 0.42749544465446981 0.25699566217507153 0 0.43692075095235122 0.26433370861442979 0 0.42749544465446981 0.25699566217507153 0 0.45166362976964691 0.25106894999712381 0 0.42749544465446981 0.25699566217507153 0 0.44456450099631911 0.26043047377218492 0 0.45166362976964691 0.25106894999712381 0 0.43692075095235122 0.26433370861442979 0 0.44456450099631911 0.26043047377218492 0 0.44373838257505849 0.27050131303512348 0 0.44456450099631911 0.26043047377218492 0 0.44373838257505849 0.27050131303512348 0 0.45508065662597141 0.26402805921732958 0 0.44456450099631911 0.26043047377218492 0 0.45166362976964691 0.25106894999712381 0 0.45508065662597141 0.26402805921732958 0 0.44373838257505849 0.27050131303512348 0 0.45472874274978531 0.27586911806656422 0 0.44120727567718632 0.28746005308771089 0 0.43023391716603732 0.27040224467912161 0 0.44373838257505849 0.27050131303512348 0 0.44120727567718632 0.28746005308771089 0 0.44373838257505849 0.27050131303512348 0 0.45472874274978531 0.27586911806656422 0 0.45508065662597141 0.26402805921732958 0 0.45472874274978531 0.27586911806656422 0 0.46665275363318931 0.27127710252775639 0 0.46192346945889701 0.28817835066990299 0 0.45472874274978531 0.27586911806656422 0 0.46665275363318931 0.27127710252775639 0 0.45508065662597141 0.26402805921732958 0 0.45166362976964691 0.25106894999712381 0 0.46652816171208539 0.25830808769848879 0 0.47583181488482379 0.2451422378191761 0 0.45166362976964691 0.25106894999712381 0 0.45508065662597141 0.26402805921732958 0 0.46652816171208539 0.25830808769848879 0 0.46665275363318931 0.27127710252775639 0 0.45508065662597141 0.26402805921732958 0 0.46652816171208539 0.25830808769848879 0 0.46665275363318931 0.27127710252775639 0 0.46652816171208539 0.25830808769848879 0 0.48341195364679568 0.26002408893105827 0 0.46652816171208539 0.25830808769848879 0 0.48341195364679568 0.26002408893105827 0 0.47583181488482379 0.2451422378191761 0 0.46665275363318931 0.27127710252775639 0 0.48341195364679568 0.26002408893105827 0 0.48138518434246891 0.28130646820503019 0 0.46665275363318931 0.27127710252775639 0 0.48138518434246891 0.28130646820503019 0 0.46192346945889701 0.28817835066990299 0 0.5 0.26671351767664991 0 0.5 0.29421150971207138 0 0.48138518434246891 0.28130646820503019 0 0.48341195364679568 0.26002408893105827 0 0.5 0.26671351767664991 0 0.48138518434246891 0.28130646820503019 0 0.48341195364679568 0.26002408893105827 0 0.5 0.26671351767664991 0 0.50000000000000067 0.2392155256412283 0 0.5 0.29421150971207138 0 0.47556093647901088 0.30733800586058863 0 0.5 0.32170950174749302 0 0.5 0.29421150971207138 0 0.48138518434246891 0.28130646820503019 0 0.47556093647901088 0.30733800586058863 0 0.48138518434246891 0.28130646820503019 0 0.47556093647901088 0.30733800586058863 0 0.46192346945889701 0.28817835066990299 0 0.47556093647901088 0.30733800586058863 0 0.45214514511688908 0.30370412902975941 0 0.45421880844117613 0.32339126307769928 0 0.47556093647901088 0.30733800586058863 0 0.46192346945889701 0.28817835066990299 0 0.45214514511688908 0.30370412902975941 0 0.46192346945889701 0.28817835066990299 0 0.44120727567718632 0.28746005308771089 0 0.45214514511688908 0.30370412902975941 0 0.45472874274978531 0.27586911806656422 0 0.46192346945889701 0.28817835066990299 0 0.44120727567718632 0.28746005308771089 0 0.42781523552817591 0.31215297245289481 0 0.44120727567718632 0.28746005308771089 0 0.45214514511688908 0.30370412902975941 0 0.42781523552817591 0.31215297245289481 0 0.45421880844117613 0.32339126307769928 0 0.43298436918619881 0.33903622913929549 0 0.42781523552817591 0.31215297245289481 0 0.45214514511688908 0.30370412902975941 0 0.45421880844117613 0.32339126307769928 0 0.42781523552817591 0.31215297245289481 0 0.45421880844117613 0.32339126307769928 0 0.45421880844117613 0.32339126307769928 0 0.45970761232660212 0.34692044601787542 0 0.43298436918619881 0.33903622913929549 0 0.45421880844117613 0.32339126307769928 0 0.48062238135417568 0.33462955370250519 0 0.45421880844117613 0.32339126307769928 0 0.48062238135417568 0.33462955370250519 0 0.45970761232660212 0.34692044601787542 0 0.47556093647901088 0.30733800586058863 0 0.45421880844117613 0.32339126307769928 0 0.48062238135417568 0.33462955370250519 0 0.48062238135417568 0.33462955370250519 0 0.5 0.32170950174749302 0 0.5 0.34920749378291471 0 0.47556093647901088 0.30733800586058863 0 0.48062238135417568 0.33462955370250519 0 0.5 0.32170950174749302 0 0.5 0.34920749378291471 0 0.48254603458521478 0.3522402998402685 0 0.5 0.37670548581833618 0 0.48062238135417568 0.33462955370250519 0 0.5 0.34920749378291471 0 0.48254603458521478 0.3522402998402685 0 0.48254603458521478 0.3522402998402685 0 0.46972057754862501 0.36630584452178799 0 0.45970761232660212 0.34692044601787542 0 0.48062238135417568 0.33462955370250519 0 0.48254603458521478 0.3522402998402685 0 0.45970761232660212 0.34692044601787542 0 0.48254603458521478 0.3522402998402685 0 0.46972057754862501 0.36630584452178799 0 0.5 0.37670548581833618 0 0.46972057754862501 0.36630584452178799 0 0.43815350284422228 0.36591948582569622 0 0.45848938469160699 0.38276388730883248 0 0.46972057754862501 0.36630584452178799 0 0.45970761232660212 0.34692044601787542 0 0.43815350284422228 0.36591948582569622 0 0.45970761232660212 0.34692044601787542 0 0.43815350284422228 0.36591948582569622 0 0.43298436918619881 0.33903622913929549 0 0.43815350284422228 0.36591948582569622 0 0.4167242930516859 0.35972934744593471 0 0.42344095457037051 0.38268701701273461 0 0.4167242930516859 0.35972934744593471 0 0.40101385701800268 0.38518895784325291 0 0.4167242930516859 0.35972934744593471 0 0.40181680918128981 0.35947395412181382 0 0.40101385701800268 0.38518895784325291 0 0.4167242930516859 0.35972934744593471 0 0.40869055031553031 0.33881917925707022 0 0.40181680918128981 0.35947395412181382 0 0.4167242930516859 0.35972934744593471 0 0.43298436918619881 0.33903622913929549 0 0.40869055031553031 0.33881917925707022 0 0.43815350284422228 0.36591948582569622 0 0.4167242930516859 0.35972934744593471 0 0.43298436918619881 0.33903622913929549 0 0.43815350284422228 0.36591948582569622 0 0.43298436918619881 0.33903622913929549 0 0.42781523552817591 0.31215297245289481 0 0.43298436918619881 0.33903622913929549 0 0.42781523552817591 0.31215297245289481 0 0.43298436918619881 0.33903622913929549 0 0.41357021602424721 0.32279281759874212 0 0.43298436918619881 0.33903622913929549 0 0.41357021602424721 0.32279281759874212 0 0.40869055031553031 0.33881917925707022 0 0.40869055031553031 0.33881917925707022 0 0.39369601167170543 0.33564153172070438 0 0.39209274976778918 0.34814598654190299 0 0.40869055031553031 0.33881917925707022 0 0.39369601167170543 0.33564153172070438 0 0.3956366020903157 0.32248231082130752 0 0.39369601167170543 0.33564153172070438 0 0.3956366020903157 0.32248231082130752 0 0.38362385659697051 0.32926172455430031 0 0.39369601167170543 0.33564153172070438 0 0.38635485741833753 0.33883185827426582 0 0.39209274976778918 0.34814598654190299 0 0.41357021602424721 0.32279281759874212 0 0.40869055031553031 0.33881917925707022 0 0.3956366020903157 0.32248231082130752 0 0.4027243230010164 0.30147339632314252 0 0.41357021602424721 0.32279281759874212 0 0.3956366020903157 0.32248231082130752 0 0.3956366020903157 0.32248231082130752 0 0.38754735899376969 0.31282171123814728 0 0.38479800915553353 0.32074741934569512 0 0.38754735899376969 0.31282171123814728 0 0.38479800915553353 0.32074741934569512 0 0.37917338616632867 0.3168755173424983 0 0.3956366020903157 0.32248231082130752 0 0.38479800915553353 0.32074741934569512 0 0.38362385659697051 0.32926172455430031 0 0.38479800915553353 0.32074741934569512 0 0.37832625022041982 0.32264150287239662 0 0.38362385659697051 0.32926172455430031 0 0.37577016905582622 0.32787937856968757 0 0.37832625022041982 0.32264150287239662 0 0.38362385659697051 0.32926172455430031 0 0.37577016905582622 0.32787937856968757 0 0.37506056064123422 0.32471797871916308 0 0.37832625022041982 0.32264150287239662 0 0.37368960646642962 0.31911015363466272 0 0.37506056064123422 0.32471797871916308 0 0.37832625022041982 0.32264150287239662 0 0.37695808612291098 0.31120865645681561 0 0.38754735899376969 0.31282171123814728 0 0.37917338616632867 0.3168755173424983 0 0.38479800915553353 0.32074741934569512 0 0.37832625022041982 0.32264150287239662 0 0.37917338616632867 0.3168755173424983 0 0.37368960646642962 0.31911015363466272 0 0.37832625022041982 0.32264150287239662 0 0.37917338616632867 0.3168755173424983 0 0.37499251130121058 0.31593455150060828 0 0.37368960646642962 0.31911015363466272 0 0.37917338616632867 0.3168755173424983 0 0.37499251130121058 0.31593455150060828 0 0.37695808612291098 0.31120865645681561 0 0.37917338616632867 0.3168755173424983 0 0.38635485741833753 0.33883185827426582 0 0.3795813787571668 0.3363772241379393 0 0.38278029029805521 0.34473282441648212 0 0.39369601167170543 0.33564153172070438 0 0.38635485741833753 0.33883185827426582 0 0.38362385659697051 0.32926172455430031 0 0.38635485741833753 0.33883185827426582 0 0.38362385659697051 0.32926172455430031 0 0.3795813787571668 0.3363772241379393 0 0.37577016905582622 0.32787937856968757 0 0.38362385659697051 0.32926172455430031 0 0.37868435463470768 0.3315773541462857 0 0.38362385659697051 0.32926172455430031 0 0.37868435463470768 0.3315773541462857 0 0.3795813787571668 0.3363772241379393 0 0.37577016905582622 0.32787937856968757 0 0.37868435463470768 0.3315773541462857 0 0.375263113682131 0.33313320718557798 0 0.37868435463470768 0.3315773541462857 0 0.375263113682131 0.33313320718557798 0 0.3795813787571668 0.3363772241379393 0 0.37369311900952262 0.33836265764115908 0 0.3795813787571668 0.3363772241379393 0 0.37670219357667811 0.34177383067972761 0 0.3795813787571668 0.3363772241379393 0 0.37670219357667811 0.34177383067972761 0 0.38278029029805521 0.34473282441648212 0 0.37369311900952262 0.33836265764115908 0 0.375263113682131 0.33313320718557798 0 0.3795813787571668 0.3363772241379393 0 0.3809821990389497 0.35490418517770578 0 0.39056259575344082 0.36548629952090861 0 0.39209274976778918 0.34814598654190299 0 0.37486749369974542 0.34694596905823039 0 0.37670219357667811 0.34177383067972761 0 0.38278029029805521 0.34473282441648212 0 0.37486749369974542 0.34694596905823039 0 0.38278029029805521 0.34473282441648212 0 0.3809821990389497 0.35490418517770578 0 0.38278029029805521 0.34473282441648212 0 0.3809821990389497 0.35490418517770578 0 0.39209274976778918 0.34814598654190299 0 0.38635485741833753 0.33883185827426582 0 0.38278029029805521 0.34473282441648212 0 0.39209274976778918 0.34814598654190299 0 0.37228166628853332 0.35471301169251829 0 0.37486749369974542 0.34694596905823039 0 0.3809821990389497 0.35490418517770578 0 0.37414389550204002 0.36898578533419818 0 0.3809821990389497 0.35490418517770578 0 0.39056259575344082 0.36548629952090861 0 0.37414389550204002 0.36898578533419818 0 0.39056259575344082 0.36548629952090861 0 0.40101385701800268 0.38518895784325291 0 0.37414389550204002 0.36898578533419818 0 0.37228166628853332 0.35471301169251829 0 0.3809821990389497 0.35490418517770578 0 0.39056259575344082 0.36548629952090861 0 0.40181680918128981 0.35947395412181382 0 0.40101385701800268 0.38518895784325291 0 0.39056259575344082 0.36548629952090861 0 0.40181680918128981 0.35947395412181382 0 0.39209274976778918 0.34814598654190299 0 0.40869055031553031 0.33881917925707022 0 0.40181680918128981 0.35947395412181382 0 0.39209274976778918 0.34814598654190299 0 0.40101385701800268 0.38518895784325291 0 0.38530342098431941 0.41064856824057122 0 0.40101385701800268 0.38518895784325291 0 0.38530342098431941 0.41064856824057122 0 0.41521715527738928 0.40390661881175682 0 0.3736470799201031 0.39378130610698531 0 0.37414389550204002 0.36898578533419818 0 0.40101385701800268 0.38518895784325291 0 0.3736470799201031 0.39378130610698531 0 0.40101385701800268 0.38518895784325291 0 0.38530342098431941 0.41064856824057122 0 0.36959298495063608 0.43610817863788948 0 0.38530342098431941 0.41064856824057122 0 0.36959298495063608 0.43610817863788948 0 0.38530342098431941 0.41064856824057122 0 0.3889231515195431 0.43141286456833011 0 0.3889231515195431 0.43141286456833011 0 0.40362265567455102 0.42304679086704539 0 0.39942544658573009 0.43872588670818857 0 0.40362265567455102 0.42304679086704539 0 0.41248490446316177 0.43293377153942381 0 0.39942544658573009 0.43872588670818857 0 0.38530342098431941 0.41064856824057122 0 0.3889231515195431 0.43141286456833011 0 0.40362265567455102 0.42304679086704539 0 0.38530342098431941 0.41064856824057122 0 0.40362265567455102 0.42304679086704539 0 0.41521715527738928 0.40390661881175682 0 0.40362265567455102 0.42304679086704539 0 0.42233359500988371 0.42307221464191669 0 0.41521715527738928 0.40390661881175682 0 0.40362265567455102 0.42304679086704539 0 0.41248490446316177 0.43293377153942381 0 0.42233359500988371 0.42307221464191669 0 0.41248490446316177 0.43293377153942381 0 0.42233359500988371 0.42307221464191669 0 0.42326813014219627 0.43909650749986368 0 0.42233359500988371 0.42307221464191669 0 0.43681876433844857 0.43497208046478802 0 0.42326813014219627 0.43909650749986368 0 0.42233359500988371 0.42307221464191669 0 0.43681876433844857 0.43497208046478802 0 0.43655617137350622 0.42038510460191503 0 0.42233359500988371 0.42307221464191669 0 0.42830887421762198 0.41018013153495869 0 0.41521715527738928 0.40390661881175682 0 0.42233359500988371 0.42307221464191669 0 0.42830887421762198 0.41018013153495869 0 0.43655617137350622 0.42038510460191503 0 0.42830887421762198 0.41018013153495869 0 0.43655617137350622 0.42038510460191503 0 0.439625884597032 0.40642404903869822 0 0.42978568865087441 0.39901034440009059 0 0.42344095457037051 0.38268701701273461 0 0.4433226365022459 0.39280274251209668 0 0.42978568865087441 0.39901034440009059 0 0.41521715527738928 0.40390661881175682 0 0.42344095457037051 0.38268701701273461 0 0.42830887421762198 0.41018013153495869 0 0.42978568865087441 0.39901034440009059 0 0.439625884597032 0.40642404903869822 0 0.42830887421762198 0.41018013153495869 0 0.42978568865087441 0.39901034440009059 0 0.41521715527738928 0.40390661881175682 0 0.4167242930516859 0.35972934744593471 0 0.40101385701800268 0.38518895784325291 0 0.42344095457037051 0.38268701701273461 0 0.40101385701800268 0.38518895784325291 0 0.41521715527738928 0.40390661881175682 0 0.42344095457037051 0.38268701701273461 0 0.43815350284422228 0.36591948582569622 0 0.42344095457037051 0.38268701701273461 0 0.4433226365022459 0.39280274251209668 0 0.43815350284422228 0.36591948582569622 0 0.4433226365022459 0.39280274251209668 0 0.43815350284422228 0.36591948582569622 0 0.4433226365022459 0.39280274251209668 0 0.45848938469160699 0.38276388730883248 0 0.4433226365022459 0.39280274251209668 0 0.4587292321942566 0.40377894109977869 0 0.44849177016026981 0.41968599919849731 0 0.4433226365022459 0.39280274251209668 0 0.44849177016026981 0.41968599919849731 0 0.42978568865087441 0.39901034440009059 0 0.4433226365022459 0.39280274251209668 0 0.439625884597032 0.40642404903869822 0 0.4433226365022459 0.39280274251209668 0 0.4587292321942566 0.40377894109977869 0 0.45848938469160699 0.38276388730883248 0 0.4587292321942566 0.40377894109977869 0 0.45848938469160699 0.38276388730883248 0 0.47720201034463561 0.39055994944820821 0 0.46972057754862501 0.36630584452178799 0 0.45848938469160699 0.38276388730883248 0 0.47720201034463561 0.39055994944820821 0 0.46972057754862501 0.36630584452178799 0 0.47720201034463561 0.39055994944820821 0 0.5 0.37670548581833618 0 0.47720201034463561 0.39055994944820821 0 0.5 0.40420347785375749 0 0.47329291580914951 0.41490179660840648 0 0.4587292321942566 0.40377894109977869 0 0.47720201034463561 0.39055994944820821 0 0.47329291580914951 0.41490179660840648 0 0.47720201034463561 0.39055994944820821 0 0.5 0.40420347785375749 0 0.5 0.37670548581833618 0 0.48546521128148462 0.42572005307568972 0 0.49999999999999828 0.43170146988917901 0 0.48502495584706629 0.44181750450007778 0 0.49999999999999828 0.43170146988917901 0 0.48502495584706629 0.44181750450007778 0 0.5 0.40420347785375749 0 0.48546521128148462 0.42572005307568972 0 0.47329291580914951 0.41490179660840648 0 0.5 0.40420347785375749 0 0.48546521128148462 0.42572005307568972 0 0.49999999999999828 0.43170146988917901 0 0.48546521128148462 0.42572005307568972 0 0.47462076711180717 0.43403653248997731 0 0.48502495584706629 0.44181750450007778 0 0.47329291580914951 0.41490179660840648 0 0.47462076711180717 0.43403653248997731 0 0.45927084092720188 0.43580976915473651 0 0.48546521128148462 0.42572005307568972 0 0.47329291580914951 0.41490179660840648 0 0.47462076711180717 0.43403653248997731 0 0.45927084092720188 0.43580976915473651 0 0.44849177016026981 0.41968599919849731 0 0.47329291580914951 0.41490179660840648 0 0.45927084092720188 0.43580976915473651 0 0.44849177016026981 0.41968599919849731 0 0.45927084092720188 0.43580976915473651 0 0.44849177016026981 0.41968599919849731 0 0.45165089640657707 0.43611575462809582 0 0.4587292321942566 0.40377894109977869 0 0.47329291580914951 0.41490179660840648 0 0.44849177016026981 0.41968599919849731 0 0.4433226365022459 0.39280274251209668 0 0.44849177016026981 0.41968599919849731 0 0.439625884597032 0.40642404903869822 0 0.43655617137350622 0.42038510460191503 0 0.44849177016026981 0.41968599919849731 0 0.439625884597032 0.40642404903869822 0 0.44849177016026981 0.41968599919849731 0 0.439625884597032 0.40642404903869822 0 0.44849177016026981 0.41968599919849731 0 0.45165089640657707 0.43611575462809582 0 0.44386952542921521 0.4295111469185629 0 0.44849177016026981 0.41968599919849731 0 0.45165089640657707 0.43611575462809582 0 0.45165089640657707 0.43611575462809582 0 0.44386952542921521 0.4295111469185629 0 0.44519082659473158 0.43782150968735878 0 0.43655617137350622 0.42038510460191503 0 0.44849177016026981 0.41968599919849731 0 0.44386952542921521 0.4295111469185629 0 0.43681876433844857 0.43497208046478802 0 0.43655617137350622 0.42038510460191503 0 0.44386952542921521 0.4295111469185629 0 0.43681876433844857 0.43497208046478802 0 0.44386952542921521 0.4295111469185629 0 0.44519082659473158 0.43782150968735878 0 0.43681876433844857 0.43497208046478802 0 0.44519082659473158 0.43782150968735878 0 0.44362096681603608 0.44566090358066651 0 0.43681876433844857 0.43497208046478802 0 0.44362096681603608 0.44566090358066651 0 0.43343701099378978 0.44857281610427868 0 0.44362096681603608 0.44566090358066651 0 0.44110505044236059 0.45564825146568327 0 0.43343701099378978 0.44857281610427868 0 0.44362096681603608 0.44566090358066651 0 0.45255374853073171 0.45216262504332899 0 0.45221828903371142 0.44335246171580328 0 0.44362096681603608 0.44566090358066651 0 0.45255374853073171 0.45216262504332899 0 0.44110505044236059 0.45564825146568327 0 0.44519082659473158 0.43782150968735878 0 0.44362096681603608 0.44566090358066651 0 0.45221828903371142 0.44335246171580328 0 0.45165089640657707 0.43611575462809582 0 0.44519082659473158 0.43782150968735878 0 0.45221828903371142 0.44335246171580328 0 0.45255374853073171 0.45216262504332899 0 0.44518446721829791 0.46873079822848901 0 0.44110505044236059 0.45564825146568327 0 0.44518446721829791 0.46873079822848901 0 0.44110505044236059 0.45564825146568327 0 0.43072905865294731 0.46311411437165317 0 0.47284597636140308 0.45611600571247141 0 0.46302896313844299 0.47272331085799019 0 0.45255374853073171 0.45216262504332899 0 0.44518446721829791 0.46873079822848901 0 0.47004991169413368 0.45193353911097589 0 0.47004991169413368 0.45193353911097589 0 0.47284597636140308 0.45611600571247141 0 0.46302896313844299 0.47272331085799019 0 0.44518446721829791 0.46873079822848901 0 0.47004991169413368 0.45193353911097589 0 0.46302896313844299 0.47272331085799019 0 0.44518446721829791 0.46873079822848901 0 0.47004991169413368 0.45193353911097589 0 0.45927084092720188 0.43580976915473651 0 0.47004991169413368 0.45193353911097589 0 0.45927084092720188 0.43580976915473651 0 0.45930684530103161 0.44617181272829648 0 0.47004991169413368 0.45193353911097589 0 0.47462076711180717 0.43403653248997731 0 0.45927084092720188 0.43580976915473651 0 0.47004991169413368 0.45193353911097589 0 0.45255374853073171 0.45216262504332899 0 0.45930684530103161 0.44617181272829648 0 0.47004991169413368 0.45193353911097589 0 0.45927084092720188 0.43580976915473651 0 0.45221828903371142 0.44335246171580328 0 0.45930684530103161 0.44617181272829648 0 0.45927084092720188 0.43580976915473651 0 0.45165089640657707 0.43611575462809582 0 0.45221828903371142 0.44335246171580328 0 0.45255374853073171 0.45216262504332899 0 0.45221828903371142 0.44335246171580328 0 0.45930684530103161 0.44617181272829648 0 0.47462076711180717 0.43403653248997731 0 0.47004991169413368 0.45193353911097589 0 0.48502495584706629 0.44181750450007778 0 0.48189680466807888 0.45106209462173341 0 0.47450081081676521 0.45331654521044668 0 0.48502495584706629 0.44181750450007778 0 0.47004991169413368 0.45193353911097589 0 0.48502495584706629 0.44181750450007778 0 0.47004991169413368 0.45193353911097589 0 0.47450081081676521 0.45331654521044668 0 0.48502495584706629 0.44181750450007778 0 0.47284597636140308 0.45611600571247141 0 0.48050552008400071 0.46757346096286262 0 0.46302896313844299 0.47272331085799019 0 0.47004991169413368 0.45193353911097589 0 0.47284597636140308 0.45611600571247141 0 0.47004991169413368 0.45193353911097589 0 0.47450081081676521 0.45331654521044668 0 0.47284597636140308 0.45611600571247141 0 0.47450081081676521 0.45331654521044668 0 0.47284597636140308 0.45611600571247141 0 0.47951191807974908 0.45654698881850991 0 0.47450081081676521 0.45331654521044668 0 0.47284597636140308 0.45611600571247141 0 0.47284597636140308 0.45611600571247141 0 0.48050552008400071 0.46757346096286262 0 0.47284597636140308 0.45611600571247141 0 0.48050552008400071 0.46757346096286262 0 0.47951191807974908 0.45654698881850991 0 0.48189680466807888 0.45106209462173341 0 0.47951191807974908 0.45654698881850991 0 0.4878104784684959 0.4546668375850359 0 0.48050552008400071 0.46757346096286262 0 0.47951191807974908 0.45654698881850991 0 0.4878104784684959 0.4546668375850359 0 0.48189680466807888 0.45106209462173341 0 0.47450081081676521 0.45331654521044668 0 0.47951191807974908 0.45654698881850991 0 0.48050552008400071 0.46757346096286262 0 0.4878104784684959 0.4546668375850359 0 0.49999999999999928 0.46182898591187349 0 0.48050552008400071 0.46757346096286262 0 0.49999999999999928 0.46182898591187349 0 0.49999999999999828 0.43170146988917901 0 0.4878104784684959 0.4546668375850359 0 0.49999999999999928 0.46182898591187349 0 0.49999999999999828 0.43170146988917901 0 0.4878104784684959 0.4546668375850359 0 0.48502495584706629 0.44181750450007778 0 0.48189680466807888 0.45106209462173341 0 0.4878104784684959 0.4546668375850359 0 0.48502495584706629 0.44181750450007778 0 0.49999999999999928 0.46182898591187349 0 0.5 0.5 0 0.49753071700976492 0.4930404390193398 0 0.5 0.5 0 0.47501141284236448 0.48698608464618232 0 0.44690499747156931 0.4999999999999995 0 0.5 0.5 0 0.49753071700976492 0.4930404390193398 0 0.47501141284236448 0.48698608464618232 0 0.49753071700976492 0.4930404390193398 0 0.48901811854688337 0.4803069499911008 0 0.47501141284236448 0.48698608464618232 0 0.49753071700976492 0.4930404390193398 0 0.48901811854688337 0.4803069499911008 0 0.48050552008400071 0.46757346096286262 0 0.49999999999999928 0.46182898591187349 0 0.48901811854688337 0.4803069499911008 0 0.49999999999999928 0.46182898591187349 0 0.49753071700976492 0.4930404390193398 0 0.48901811854688337 0.4803069499911008 0 0.48050552008400071 0.46757346096286262 0 0.48901811854688337 0.4803069499911008 0 0.48050552008400071 0.46757346096286262 0 0.46302896313844299 0.47272331085799019 0 0.48901811854688337 0.4803069499911008 0 0.47689100365292297 0.47689745161453417 0 0.47501141284236448 0.48698608464618232 0 0.48050552008400071 0.46757346096286262 0 0.47689100365292297 0.47689745161453417 0 0.46302896313844299 0.47272331085799019 0 0.48050552008400071 0.46757346096286262 0 0.48901811854688337 0.4803069499911008 0 0.47689100365292297 0.47689745161453417 0 0.47689100365292297 0.47689745161453417 0 0.47501141284236448 0.48698608464618232 0 0.46302896313844299 0.47272331085799019 0 0.47501141284236448 0.48698608464618232 0 0.45496698030500621 0.48636165542899479 0 0.44690499747156931 0.4999999999999995 0 0.47501141284236448 0.48698608464618232 0 0.45496698030500621 0.48636165542899479 0 0.46302896313844299 0.47272331085799019 0 0.45496698030500621 0.48636165542899479 0 0.46302896313844299 0.47272331085799019 0 0.46302896313844299 0.47272331085799019 0 0.43620850627812668 0.48062654530969717 0 0.44518446721829791 0.46873079822848901 0 0.46302896313844299 0.47272331085799019 0 0.43620850627812668 0.48062654530969717 0 0.45496698030500621 0.48636165542899479 0 0.46302896313844299 0.47272331085799019 0 0.43620850627812668 0.48062654530969717 0 0.45496698030500621 0.48636165542899479 0 0.44690499747156931 0.4999999999999995 0 0.43620850627812668 0.48062654530969717 0 0.45496698030500621 0.48636165542899479 0 0.44690499747156931 0.4999999999999995 0 0.42031902274246069 0.48552805734600057 0 0.41743852268843429 0.5 0 0.43620850627812668 0.48062654530969717 0 0.44690499747156931 0.4999999999999995 0 0.41743852268843429 0.5 0 0.43620850627812668 0.48062654530969717 0 0.42031902274246069 0.48552805734600057 0 0.41743852268843429 0.5 0 0.40134209412993838 0.48520307466421098 0 0.42031902274246069 0.48552805734600057 0 0.40973563488985532 0.47579104778557152 0 0.40134209412993838 0.48520307466421098 0 0.42031902274246069 0.48552805734600057 0 0.40973563488985532 0.47579104778557152 0 0.41789473538963601 0.46705380048502582 0 0.44518446721829791 0.46873079822848901 0 0.42031902274246069 0.48552805734600057 0 0.43072905865294731 0.46311411437165317 0 0.44518446721829791 0.46873079822848901 0 0.42031902274246069 0.48552805734600057 0 0.43620850627812668 0.48062654530969717 0 0.44518446721829791 0.46873079822848901 0 0.42031902274246069 0.48552805734600057 0 0.42031902274246069 0.48552805734600057 0 0.43072905865294731 0.46311411437165317 0 0.41789473538963601 0.46705380048502582 0 0.44110505044236059 0.45564825146568327 0 0.43072905865294731 0.46311411437165317 0 0.43343701099378978 0.44857281610427868 0 0.43072905865294731 0.46311411437165317 0 0.43343701099378978 0.44857281610427868 0 0.42053980660522761 0.45341513910658388 0 0.43072905865294731 0.46311411437165317 0 0.41789473538963601 0.46705380048502582 0 0.42053980660522761 0.45341513910658388 0 0.43681876433844857 0.43497208046478802 0 0.43343701099378978 0.44857281610427868 0 0.42326813014219627 0.43909650749986368 0 0.43343701099378978 0.44857281610427868 0 0.42326813014219627 0.43909650749986368 0 0.42053980660522761 0.45341513910658388 0 0.41248490446316177 0.43293377153942381 0 0.42326813014219627 0.43909650749986368 0 0.41215324011006321 0.44426916471351768 0 0.42326813014219627 0.43909650749986368 0 0.41215324011006321 0.44426916471351768 0 0.42053980660522761 0.45341513910658388 0 0.41215324011006321 0.44426916471351768 0 0.42053980660522761 0.45341513910658388 0 0.40575666434273311 0.45838443146516472 0 0.41248490446316177 0.43293377153942381 0 0.41215324011006321 0.44426916471351768 0 0.39942544658573009 0.43872588670818857 0 0.40973563488985532 0.47579104778557152 0 0.41789473538963601 0.46705380048502582 0 0.40575666434273311 0.45838443146516472 0 0.41789473538963601 0.46705380048502582 0 0.42053980660522761 0.45341513910658388 0 0.40575666434273311 0.45838443146516472 0 0.40973563488985532 0.47579104778557152 0 0.40575666434273311 0.45838443146516472 0 0.39457326129307041 0.46924519202038539 0 0.40575666434273311 0.45838443146516472 0 0.38748492612950952 0.44892285829301931 0 0.39457326129307041 0.46924519202038539 0 0.40575666434273311 0.45838443146516472 0 0.39942544658573009 0.43872588670818857 0 0.38748492612950952 0.44892285829301931 0 0.3889231515195431 0.43141286456833011 0 0.39942544658573009 0.43872588670818857 0 0.38748492612950952 0.44892285829301931 0 0.41215324011006321 0.44426916471351768 0 0.40575666434273311 0.45838443146516472 0 0.39942544658573009 0.43872588670818857 0 0.36980735363827261 0.46050290225189661 0 0.36959298495063608 0.43610817863788948 0 0.38748492612950952 0.44892285829301931 0 0.36959298495063608 0.43610817863788948 0 0.3889231515195431 0.43141286456833011 0 0.38748492612950952 0.44892285829301931 0 0.36980735363827261 0.46050290225189661 0 0.38748492612950952 0.44892285829301931 0 0.39457326129307041 0.46924519202038539 0 0.36980735363827261 0.46050290225189661 0 0.37801407526051067 0.48065415083330842 0 0.39457326129307041 0.46924519202038539 0 0.37801407526051067 0.48065415083330842 0 0.38797204790529932 0.5 0 0.40134209412993838 0.48520307466421098 0 0.41743852268843429 0.5 0 0.38797204790529932 0.5 0 0.40134209412993838 0.48520307466421098 0 0.40973563488985532 0.47579104778557152 0 0.40134209412993838 0.48520307466421098 0 0.39457326129307041 0.46924519202038539 0 0.37801407526051067 0.48065415083330842 0 0.40134209412993838 0.48520307466421098 0 0.39457326129307041 0.46924519202038539 0 0.33471388977496319 0.083869725553476451 0 0.32003772732572838 0.080925826065863432 0 0.34163206045391592 0.099703108374672819 0 0.32003772732572838 0.080925826065863432 0 0.34163206045391592 0.099703108374672819 0 0.33471388977496319 0.083869725553476451 0 0.34163206045391592 0.099703108374672819 0 0.35085433501378249 0.086695181415402722 0 0.33471388977496319 0.083869725553476451 0 0.34209731100959018 0.06531632876058778 0 0.3490795063897344 0.076610282135673974 0 0.33471388977496319 0.083869725553476451 0 0.34209731100959018 0.06531632876058778 0 0.32721969837032222 0.069259436753723466 0 0.33471388977496319 0.083869725553476451 0 0.32721969837032222 0.069259436753723466 0 0.32003772732572838 0.080925826065863432 0 0.31518448171420999 0.065085558788002928 0 0.32721969837032222 0.069259436753723466 0 0.32003772732572838 0.080925826065863432 0 0.32003772732572838 0.080925826065863432 0 0.31657863646219547 0.093324099257994786 0 0.34163206045391592 0.099703108374672819 0 0.32003772732572838 0.080925826065863432 0 0.31657863646219547 0.093324099257994786 0 0.30227411453462139 0.089652133027170247 0 0.33471388977496319 0.083869725553476451 0 0.32003772732572838 0.080925826065863432 0 0.31657863646219547 0.093324099257994786 0 0.32025759602694659 0.1047776340902011 0 0.34163206045391592 0.099703108374672819 0 0.31657863646219547 0.093324099257994786 0 0.32025759602694659 0.1047776340902011 0 0.30640852481201453 0.1024735992044304 0 0.32025759602694659 0.1047776340902011 0 0.31114536757858358 0.11742006929579971 0 0.30640852481201453 0.1024735992044304 0 0.32606950933900308 0.1158177097477945 0 0.31114536757858358 0.11742006929579971 0 0.3195478300457561 0.1332621056988223 0 0.32025759602694659 0.1047776340902011 0 0.32606950933900308 0.1158177097477945 0 0.31114536757858358 0.11742006929579971 0 0.33761965874988609 0.1186889285033586 0 0.34163206045391592 0.099703108374672819 0 0.34956654336434939 0.1234914401014125 0 0.32606950933900308 0.1158177097477945 0 0.33761965874988609 0.1186889285033586 0 0.34163206045391592 0.099703108374672819 0 0.32606950933900308 0.1158177097477945 0 0.33761965874988609 0.1186889285033586 0 0.33436770153514289 0.13112975471366969 0 0.33761965874988609 0.1186889285033586 0 0.34956654336434939 0.1234914401014125 0 0.33436770153514289 0.13112975471366969 0 0.32025759602694659 0.1047776340902011 0 0.32606950933900308 0.1158177097477945 0 0.34163206045391592 0.099703108374672819 0 0.34163206045391592 0.099703108374672819 0 0.35755874922647762 0.098360434014750309 0 0.36322639358210312 0.11848039068348271 0 0.34163206045391592 0.099703108374672819 0 0.36322639358210312 0.11848039068348271 0 0.34163206045391592 0.099703108374672819 0 0.35755874922647762 0.098360434014750309 0 0.35085433501378249 0.086695181415402722 0 0.34163206045391592 0.099703108374672819 0 0.34956654336434939 0.1234914401014125 0 0.36322639358210312 0.11848039068348271 0 0.36322639358210312 0.11848039068348271 0 0.37045299287494049 0.09679375479102828 0 0.38005682511468147 0.12140739343396729 0 0.35755874922647762 0.098360434014750309 0 0.36322639358210312 0.11848039068348271 0 0.37045299287494049 0.09679375479102828 0 0.35755874922647762 0.098360434014750309 0 0.37045299287494049 0.09679375479102828 0 0.35979627253246887 0.087956112087811941 0 0.37045299287494049 0.09679375479102828 0 0.36986657419494789 0.075759843690150083 0 0.37682589963749002 0.081332762740894418 0 0.37045299287494049 0.09679375479102828 0 0.35979627253246887 0.087956112087811941 0 0.36084916063519962 0.072180116148089279 0 0.37045299287494049 0.09679375479102828 0 0.36084916063519962 0.072180116148089279 0 0.36986657419494789 0.075759843690150083 0 0.37045299287494049 0.09679375479102828 0 0.36084916063519962 0.072180116148089279 0 0.35755874922647762 0.098360434014750309 0 0.35979627253246887 0.087956112087811941 0 0.35085433501378249 0.086695181415402722 0 0.35979627253246887 0.087956112087811941 0 0.35560274156159061 0.081403828627082772 0 0.36084916063519962 0.072180116148089279 0 0.33471388977496319 0.083869725553476451 0 0.35085433501378249 0.086695181415402722 0 0.3490795063897344 0.076610282135673974 0 0.35979627253246887 0.087956112087811941 0 0.35560274156159061 0.081403828627082772 0 0.35085433501378249 0.086695181415402722 0 0.35560274156159061 0.081403828627082772 0 0.35085433501378249 0.086695181415402722 0 0.3490795063897344 0.076610282135673974 0 0.34209731100959018 0.06531632876058778 0 0.3490795063897344 0.076610282135673974 0 0.36084916063519962 0.072180116148089279 0 0.36448270712015302 0.068442951443566186 0 0.36084916063519962 0.072180116148089279 0 0.35124532839545858 0.047566477505150237 0 0.35560274156159061 0.081403828627082772 0 0.3490795063897344 0.076610282135673974 0 0.36084916063519962 0.072180116148089279 0 0.36448270712015302 0.068442951443566186 0 0.36084916063519962 0.072180116148089279 0 0.36986657419494789 0.075759843690150083 0 0.36986657419494789 0.075759843690150083 0 0.37596532967213542 0.069868995675824025 0 0.37682589963749002 0.081332762740894418 0 0.36448270712015302 0.068442951443566186 0 0.36986657419494789 0.075759843690150083 0 0.37084641292541748 0.06878424193773866 0 0.36986657419494789 0.075759843690150083 0 0.37084641292541748 0.06878424193773866 0 0.37596532967213542 0.069868995675824025 0 0.36448270712015302 0.068442951443566186 0 0.37084641292541748 0.06878424193773866 0 0.37307104071443398 0.061065176941414383 0 0.37084641292541748 0.06878424193773866 0 0.37307104071443398 0.061065176941414383 0 0.37596532967213542 0.069868995675824025 0 0.36448270712015302 0.068442951443566186 0 0.37307104071443398 0.061065176941414383 0 0.37146335928247548 0.04052602251159599 0 0.36448270712015302 0.068442951443566186 0 0.37146335928247548 0.04052602251159599 0 0.35124532839545858 0.047566477505150237 0 0.36448270712015302 0.068442951443566186 0 0.37146335928247548 0.04052602251159599 0 0.37146335928247548 0.04052602251159599 0 0.35572529983931911 0.032753521421585163 0 0.36312657459820519 0.022962182453169309 0 0.37146335928247548 0.04052602251159599 0 0.35572529983931911 0.032753521421585163 0 0.35124532839545858 0.047566477505150237 0 0.35572529983931911 0.032753521421585163 0 0.35124532839545858 0.047566477505150237 0 0.3321968515854315 0.028027004478648001 0 0.36084916063519962 0.072180116148089279 0 0.35124532839545858 0.047566477505150237 0 0.34209731100959018 0.06531632876058778 0 0.36084916063519962 0.072180116148089279 0 0.35124532839545858 0.047566477505150237 0 0.36312657459820519 0.022962182453169309 0 0.35936362748920009 0.0091271431172253586 0 0.37844401144479839 0.012609093579625891 0 0.35936362748920009 0.0091271431172253586 0 0.37844401144479839 0.012609093579625891 0 0.36665723294200347 -0.001883505129568449 0 0.35936362748920009 0.0091271431172253586 0 0.36665723294200347 -0.001883505129568449 0 0.35531676971978082 -0.0033532784323768001 0 0.37146335928247548 0.04052602251159599 0 0.36312657459820519 0.022962182453169309 0 0.37844401144479839 0.012609093579625891 0 0.37146335928247548 0.04052602251159599 0 0.37844401144479839 0.012609093579625891 0 0.35572529983931911 0.032753521421585163 0 0.35063657493523293 0.0197951316358141 0 0.3321968515854315 0.028027004478648001 0 0.35572529983931911 0.032753521421585163 0 0.36312657459820519 0.022962182453169309 0 0.35063657493523293 0.0197951316358141 0 0.36312657459820519 0.022962182453169309 0 0.35063657493523293 0.0197951316358141 0 0.35936362748920009 0.0091271431172253586 0 0.35936362748920009 0.0091271431172253586 0 0.33689267375143878 0.0039255003288513873 0 0.35531676971978082 -0.0033532784323768001 0 0.35063657493523293 0.0197951316358141 0 0.35936362748920009 0.0091271431172253586 0 0.33689267375143878 0.0039255003288513873 0 0.33689267375143878 0.0039255003288513873 0 0.3321968515854315 0.028027004478648001 0 0.30352242257352219 0.0039185454548519476 0 0.35063657493523293 0.0197951316358141 0 0.33689267375143878 0.0039255003288513873 0 0.3321968515854315 0.028027004478648001 0 0.3321968515854315 0.028027004478648001 0 0.32406508202711942 0.05109974460068676 0 0.30086563814790429 0.035038583275740692 0 0.34209731100959018 0.06531632876058778 0 0.32721969837032222 0.069259436753723466 0 0.32406508202711942 0.05109974460068676 0 0.34209731100959018 0.06531632876058778 0 0.35124532839545858 0.047566477505150237 0 0.32406508202711942 0.05109974460068676 0 0.35124532839545858 0.047566477505150237 0 0.3321968515854315 0.028027004478648001 0 0.32406508202711942 0.05109974460068676 0 0.31518448171420999 0.065085558788002928 0 0.32721969837032222 0.069259436753723466 0 0.32406508202711942 0.05109974460068676 0 0.31518448171420999 0.065085558788002928 0 0.32406508202711942 0.05109974460068676 0 0.29882370077581188 0.062479238108283437 0 0.32406508202711942 0.05109974460068676 0 0.29882370077581188 0.062479238108283437 0 0.30086563814790429 0.035038583275740692 0 0.32406508202711942 0.05109974460068676 0 0.30086563814790429 0.035038583275740692 0 0.30086563814790429 0.035038583275740692 0 0.28350496565293731 0.043820562147367653 0 0.27766619426868899 0.018977421950794569 0 0.29882370077581188 0.062479238108283437 0 0.30086563814790429 0.035038583275740692 0 0.28350496565293731 0.043820562147367653 0 0.29882370077581188 0.062479238108283437 0 0.28350496565293731 0.043820562147367653 0 0.28339325744793759 0.061338593161917712 0 0.3321968515854315 0.028027004478648001 0 0.30086563814790429 0.035038583275740692 0 0.30352242257352219 0.0039185454548519476 0 0.30086563814790429 0.035038583275740692 0 0.27766619426868899 0.018977421950794569 0 0.30086563814790429 0.035038583275740692 0 0.30352242257352219 0.0039185454548519476 0 0.27766619426868899 0.018977421950794569 0 0.30352242257352219 0.0039185454548519476 0 0.27766619426868899 0.018977421950794569 0 0.27708695819087842 -0.0025378708656911609 0 0.27766619426868899 0.018977421950794569 0 0.25446675038947358 0.0029162606258486688 0 0.27766619426868899 0.018977421950794569 0 0.26047117107291767 -0.0019720443344692288 0 0.27708695819087842 -0.0025378708656911609 0 0.27766619426868899 0.018977421950794569 0 0.2600935707136679 0.019574361616358959 0 0.26464981823601458 0.038183209123269009 0 0.2600935707136679 0.019574361616358959 0 0.26464981823601458 0.038183209123269009 0 0.25044211127373811 0.032849993626191502 0 0.27766619426868899 0.018977421950794569 0 0.2600935707136679 0.019574361616358959 0 0.25446675038947358 0.0029162606258486688 0 0.27766619426868899 0.018977421950794569 0 0.25446675038947358 0.0029162606258486688 0 0.26047117107291767 -0.0019720443344692288 0 0.25446675038947358 0.0029162606258486688 0 0.26047117107291767 -0.0019720443344692288 0 0.28339325744793759 0.061338593161917712 0 0.2699795556074106 0.054659435659755229 0 0.26514968559830832 0.069915803624621298 0 0.28350496565293731 0.043820562147367653 0 0.28339325744793759 0.061338593161917712 0 0.2699795556074106 0.054659435659755229 0 0.28350496565293731 0.043820562147367653 0 0.27766619426868899 0.018977421950794569 0 0.26464981823601458 0.038183209123269009 0 0.28350496565293731 0.043820562147367653 0 0.2699795556074106 0.054659435659755229 0 0.26464981823601458 0.038183209123269009 0 0.26464981823601458 0.038183209123269009 0 0.25174039047255609 0.044464402284776217 0 0.2585751734657834 0.052327775232976027 0 0.26464981823601458 0.038183209123269009 0 0.25044211127373811 0.032849993626191502 0 0.25174039047255609 0.044464402284776217 0 0.25174039047255609 0.044464402284776217 0 0.25102243244437311 0.053297338652025752 0 0.2585751734657834 0.052327775232976027 0 0.2699795556074106 0.054659435659755229 0 0.26464981823601458 0.038183209123269009 0 0.2585751734657834 0.052327775232976027 0 0.2699795556074106 0.054659435659755229 0 0.2585751734657834 0.052327775232976027 0 0.26000268679747079 0.061003988239662958 0 0.2699795556074106 0.054659435659755229 0 0.26000268679747079 0.061003988239662958 0 0.26514968559830832 0.069915803624621298 0 0.2585751734657834 0.052327775232976027 0 0.26000268679747079 0.061003988239662958 0 0.2530174900015254 0.0600809219264858 0 0.25102243244437311 0.053297338652025752 0 0.2585751734657834 0.052327775232976027 0 0.2530174900015254 0.0600809219264858 0 0.24751669685985911 0.059618880130872708 0 0.25102243244437311 0.053297338652025752 0 0.2530174900015254 0.0600809219264858 0 0.24853219730195361 0.063845178725116872 0 0.2530174900015254 0.0600809219264858 0 0.25274476311700622 0.067427493409812952 0 0.2530174900015254 0.0600809219264858 0 0.25274476311700622 0.067427493409812952 0 0.26000268679747079 0.061003988239662958 0 0.2530174900015254 0.0600809219264858 0 0.25274476311700622 0.067427493409812952 0 0.25274476311700622 0.067427493409812952 0 0.25243039498113262 0.075895774732197205 0 0.24842415088314279 0.069033451464499671 0 0.25274476311700622 0.067427493409812952 0 0.25243039498113262 0.075895774732197205 0 0.25274476311700622 0.067427493409812952 0 0.25243039498113262 0.075895774732197205 0 0.26514968559830832 0.069915803624621298 0 0.25243039498113262 0.075895774732197205 0 0.26514968559830832 0.069915803624621298 0 0.26417250328098718 0.085299079350852347 0 0.25243039498113262 0.075895774732197205 0 0.26514968559830832 0.069915803624621298 0 0.26000268679747079 0.061003988239662958 0 0.25274476311700622 0.067427493409812952 0 0.26514968559830832 0.069915803624621298 0 0.25274476311700622 0.067427493409812952 0 0.26514968559830832 0.069915803624621298 0 0.25243039498113262 0.075895774732197205 0 0.26417250328098718 0.085299079350852347 0 0.25158482098595109 0.098673396421397969 0 0.25243039498113262 0.075895774732197205 0 0.25158482098595109 0.098673396421397969 0 0.26417250328098718 0.085299079350852347 0 0.27563544099652842 0.091217529053328833 0 0.26597619666038957 0.098681263799979324 0 0.26417250328098718 0.085299079350852347 0 0.27658940398852799 0.081360569412953818 0 0.27563544099652842 0.091217529053328833 0 0.26514968559830832 0.069915803624621298 0 0.26417250328098718 0.085299079350852347 0 0.27658940398852799 0.081360569412953818 0 0.27658940398852799 0.081360569412953818 0 0.27563544099652842 0.091217529053328833 0 0.28742128170162778 0.087331448045782731 0 0.28339325744793759 0.061338593161917712 0 0.26514968559830832 0.069915803624621298 0 0.29259370646201821 0.075420814845242989 0 0.26514968559830832 0.069915803624621298 0 0.27658940398852799 0.081360569412953818 0 0.29259370646201821 0.075420814845242989 0 0.28339325744793759 0.061338593161917712 0 0.26514968559830832 0.069915803624621298 0 0.26514968559830832 0.069915803624621298 0 0.29259370646201821 0.075420814845242989 0 0.29882370077581188 0.062479238108283437 0 0.28339325744793759 0.061338593161917712 0 0.29259370646201821 0.075420814845242989 0 0.27658940398852799 0.081360569412953818 0 0.29259370646201821 0.075420814845242989 0 0.28742128170162778 0.087331448045782731 0 0.27563544099652842 0.091217529053328833 0 0.28742128170162778 0.087331448045782731 0 0.29001374252644291 0.099006193890217781 0 0.28742128170162778 0.087331448045782731 0 0.30227411453462139 0.089652133027170247 0 0.29001374252644291 0.099006193890217781 0 0.29259370646201821 0.075420814845242989 0 0.28742128170162778 0.087331448045782731 0 0.30227411453462139 0.089652133027170247 0 0.32003772732572838 0.080925826065863432 0 0.29259370646201821 0.075420814845242989 0 0.30227411453462139 0.089652133027170247 0 0.32003772732572838 0.080925826065863432 0 0.29259370646201821 0.075420814845242989 0 0.32003772732572838 0.080925826065863432 0 0.29882370077581188 0.062479238108283437 0 0.29259370646201821 0.075420814845242989 0 0.32003772732572838 0.080925826065863432 0 0.29882370077581188 0.062479238108283437 0 0.31518448171420999 0.065085558788002928 0 0.32003772732572838 0.080925826065863432 0 0.29882370077581188 0.062479238108283437 0 0.29818169174329712 0.11066146566519899 0 0.31114536757858358 0.11742006929579971 0 0.294250496481684 0.12267566802032639 0 0.31114536757858358 0.11742006929579971 0 0.294250496481684 0.12267566802032639 0 0.30313841955192899 0.13260249050964579 0 0.29818169174329712 0.11066146566519899 0 0.31114536757858358 0.11742006929579971 0 0.30640852481201453 0.1024735992044304 0 0.30227411453462139 0.089652133027170247 0 0.30640852481201453 0.1024735992044304 0 0.29001374252644291 0.099006193890217781 0 0.29818169174329712 0.11066146566519899 0 0.30640852481201453 0.1024735992044304 0 0.29001374252644291 0.099006193890217781 0 0.31657863646219547 0.093324099257994786 0 0.30227411453462139 0.089652133027170247 0 0.30640852481201453 0.1024735992044304 0 0.29818169174329712 0.11066146566519899 0 0.29001374252644291 0.099006193890217781 0 0.28729541733308872 0.1128284558108848 0 0.29001374252644291 0.099006193890217781 0 0.28729541733308872 0.1128284558108848 0 0.27577858748266387 0.1072301355245756 0 0.29818169174329712 0.11066146566519899 0 0.28729541733308872 0.1128284558108848 0 0.294250496481684 0.12267566802032639 0 0.28729541733308872 0.1128284558108848 0 0.294250496481684 0.12267566802032639 0 0.28067449336876182 0.1220521091494646 0 0.28067449336876182 0.1220521091494646 0 0.26956705708048567 0.1198361090660386 0 0.27577858748266387 0.1072301355245756 0 0.28729541733308872 0.1128284558108848 0 0.28067449336876182 0.1220521091494646 0 0.27577858748266387 0.1072301355245756 0 0.26956705708048567 0.1198361090660386 0 0.27577858748266387 0.1072301355245756 0 0.26270963055581759 0.11098617864974181 0 0.27563544099652842 0.091217529053328833 0 0.27577858748266387 0.1072301355245756 0 0.26597619666038957 0.098681263799979324 0 0.27563544099652842 0.091217529053328833 0 0.29001374252644291 0.099006193890217781 0 0.27577858748266387 0.1072301355245756 0 0.27577858748266387 0.1072301355245756 0 0.26597619666038957 0.098681263799979324 0 0.26270963055581759 0.11098617864974181 0 0.25158482098595109 0.098673396421397969 0 0.25094552198087999 0.11589449234768209 0 0.25158482098595109 0.098673396421397969 0 0.26270963055581759 0.11098617864974181 0 0.25094552198087999 0.11589449234768209 0 0.26417250328098718 0.085299079350852347 0 0.26597619666038957 0.098681263799979324 0 0.25158482098595109 0.098673396421397969 0 0.26597619666038957 0.098681263799979324 0 0.25158482098595109 0.098673396421397969 0 0.26270963055581759 0.11098617864974181 0 0.25158482098595109 0.098673396421397969 0 0.26270963055581759 0.11098617864974181 0 0.25094552198087999 0.11589449234768209 0 0.25030622297580962 0.13311558827396619 0 0.26022612795132161 0.12333036834530881 0 0.25094552198087999 0.11589449234768209 0 0.25030622297580962 0.13311558827396619 0 0.26956705708048567 0.1198361090660386 0 0.26022612795132161 0.12333036834530881 0 0.26270963055581759 0.11098617864974181 0 0.26022612795132161 0.12333036834530881 0 0.26270963055581759 0.11098617864974181 0 0.25094552198087999 0.11589449234768209 0 0.26956705708048567 0.1198361090660386 0 0.26022612795132161 0.12333036834530881 0 0.26675796828336718 0.1380571931171293 0 0.26022612795132161 0.12333036834530881 0 0.25030622297580962 0.13311558827396619 0 0.26675796828336718 0.1380571931171293 0 0.25030622297580962 0.13311558827396619 0 0.26675796828336718 0.1380571931171293 0 0.25030622297580962 0.13311558827396619 0 0.26675796828336718 0.1380571931171293 0 0.25638724149227848 0.14295410589973731 0 0.25004344172447263 0.14019424959050239 0 0.25030622297580962 0.13311558827396619 0 0.25638724149227848 0.14295410589973731 0 0.25004344172447263 0.14019424959050239 0 0.25030622297580962 0.13311558827396619 0 0.26675796828336718 0.1380571931171293 0 0.28320971359092417 0.1429987979602943 0 0.26675796828336718 0.1380571931171293 0 0.28666270206708028 0.1324408374186071 0 0.28320971359092417 0.1429987979602943 0 0.28067449336876182 0.1220521091494646 0 0.26956705708048567 0.1198361090660386 0 0.26675796828336718 0.1380571931171293 0 0.28067449336876182 0.1220521091494646 0 0.26675796828336718 0.1380571931171293 0 0.28666270206708028 0.1324408374186071 0 0.26675796828336718 0.1380571931171293 0 0.27436529468354132 0.15433220537778311 0 0.26010861073109098 0.15248373785575309 0 0.26675796828336718 0.1380571931171293 0 0.27436529468354132 0.15433220537778311 0 0.28320971359092417 0.1429987979602943 0 0.26675796828336718 0.1380571931171293 0 0.26010861073109098 0.15248373785575309 0 0.25638724149227848 0.14295410589973731 0 0.2496536413094039 0.15044712256699261 0 0.25004344172447263 0.14019424959050239 0 0.25638724149227848 0.14295410589973731 0 0.24653130607993951 0.16237692388552691 0 0.2496536413094039 0.15044712256699261 0 0.26010861073109098 0.15248373785575309 0 0.2496536413094039 0.15044712256699261 0 0.26010861073109098 0.15248373785575309 0 0.25638724149227848 0.14295410589973731 0 0.24653130607993951 0.16237692388552691 0 0.25292738168467233 0.17649485219682931 0 0.26638423851283249 0.16867758561061549 0 0.24653130607993951 0.16237692388552691 0 0.26010861073109098 0.15248373785575309 0 0.26638423851283249 0.16867758561061549 0 0.24528107816237801 0.1907036486386274 0 0.25292738168467233 0.17649485219682931 0 0.26633433714882182 0.18577592949096661 0 0.25292738168467233 0.17649485219682931 0 0.26633433714882182 0.18577592949096661 0 0.26638423851283249 0.16867758561061549 0 0.27723266788850742 0.181048228772968 0 0.26638423851283249 0.16867758561061549 0 0.28391425324491287 0.17071999404263091 0 0.26633433714882182 0.18577592949096661 0 0.27723266788850742 0.181048228772968 0 0.26638423851283249 0.16867758561061549 0 0.27436529468354132 0.15433220537778311 0 0.26010861073109098 0.15248373785575309 0 0.26638423851283249 0.16867758561061549 0 0.27436529468354132 0.15433220537778311 0 0.26638423851283249 0.16867758561061549 0 0.28391425324491287 0.17071999404263091 0 0.27436529468354132 0.15433220537778311 0 0.28391425324491287 0.17071999404263091 0 0.29097703849613438 0.15773848939083679 0 0.28391425324491287 0.17071999404263091 0 0.2931647794093819 0.16879209887591959 0 0.29097703849613438 0.15773848939083679 0 0.2931647794093819 0.16879209887591959 0 0.29097703849613438 0.15773848939083679 0 0.30040947706207388 0.16512632217721829 0 0.28391425324491287 0.17071999404263091 0 0.28743664533084129 0.187357279865842 0 0.29743995151898561 0.17866098634217961 0 0.27723266788850742 0.181048228772968 0 0.28391425324491287 0.17071999404263091 0 0.28743664533084129 0.187357279865842 0 0.28391425324491287 0.17071999404263091 0 0.2931647794093819 0.16879209887591959 0 0.29743995151898561 0.17866098634217961 0 0.28743664533084129 0.187357279865842 0 0.29743995151898561 0.17866098634217961 0 0.29971043857951379 0.19298806906372529 0 0.29743995151898561 0.17866098634217961 0 0.30929675685570829 0.1858318568065235 0 0.29971043857951379 0.19298806906372529 0 0.29743995151898561 0.17866098634217961 0 0.3101655001798202 0.17563615506282959 0 0.30040947706207388 0.16512632217721829 0 0.29743995151898561 0.17866098634217961 0 0.3101655001798202 0.17563615506282959 0 0.30929675685570829 0.1858318568065235 0 0.30040947706207388 0.16512632217721829 0 0.30453528129870422 0.15487579661148021 0 0.32848741365188411 0.1727716232507491 0 0.29097703849613438 0.15773848939083679 0 0.30040947706207388 0.16512632217721829 0 0.30453528129870422 0.15487579661148021 0 0.2931647794093819 0.16879209887591959 0 0.29743995151898561 0.17866098634217961 0 0.30040947706207388 0.16512632217721829 0 0.29097703849613438 0.15773848939083679 0 0.30453528129870422 0.15487579661148021 0 0.29618567382365713 0.14404403195872001 0 0.30453528129870422 0.15487579661148021 0 0.30873747279203018 0.14281046260302349 0 0.29618567382365713 0.14404403195872001 0 0.30453528129870422 0.15487579661148021 0 0.30873747279203018 0.14281046260302349 0 0.32007589174333823 0.14676000458717811 0 0.30873747279203018 0.14281046260302349 0 0.30313841955192899 0.13260249050964579 0 0.3195478300457561 0.1332621056988223 0 0.31114536757858358 0.11742006929579971 0 0.30313841955192899 0.13260249050964579 0 0.3195478300457561 0.1332621056988223 0 0.30873747279203018 0.14281046260302349 0 0.30313841955192899 0.13260249050964579 0 0.29618567382365713 0.14404403195872001 0 0.294250496481684 0.12267566802032639 0 0.30313841955192899 0.13260249050964579 0 0.28666270206708028 0.1324408374186071 0 0.30313841955192899 0.13260249050964579 0 0.28666270206708028 0.1324408374186071 0 0.29618567382365713 0.14404403195872001 0 0.294250496481684 0.12267566802032639 0 0.28067449336876182 0.1220521091494646 0 0.28666270206708028 0.1324408374186071 0 0.28666270206708028 0.1324408374186071 0 0.28320971359092417 0.1429987979602943 0 0.29618567382365713 0.14404403195872001 0 0.27436529468354132 0.15433220537778311 0 0.29097703849613438 0.15773848939083679 0 0.28320971359092417 0.1429987979602943 0 0.29097703849613438 0.15773848939083679 0 0.28320971359092417 0.1429987979602943 0 0.29618567382365713 0.14404403195872001 0 0.28119448123381058 0.25405304303149878 0 0.26221447651104962 0.2479993693513689 0 0.28440499104296979 0.23439140090611099 0 0.26221447651104962 0.2479993693513689 0 0.26853130556434218 0.23400660741274959 0 0.28440499104296979 0.23439140090611099 0 0.26221447651104962 0.2479993693513689 0 0.28440499104296979 0.23439140090611099 0 0.2457442494512444 0.24022391879071339 0 0.26221447651104962 0.2479993693513689 0 0.25511338863332461 0.22468137717712711 0 0.26221447651104962 0.2479993693513689 0 0.25511338863332461 0.22468137717712711 0 0.26853130556434218 0.23400660741274959 0 0.26221447651104962 0.2479993693513689 0 0.25511338863332461 0.22468137717712711 0 0.25511338863332461 0.22468137717712711 0 0.25242827713160498 0.21540237912569379 0 0.25511338863332461 0.22468137717712711 0 0.2794126892910288 0.21617120911671081 0 0.25511338863332461 0.22468137717712711 0 0.26853130556434218 0.23400660741274959 0 0.2794126892910288 0.21617120911671081 0 0.26853130556434218 0.23400660741274959 0 0.2794126892910288 0.21617120911671081 0 0.28440499104296979 0.23439140090611099 0 0.25511338863332461 0.22468137717712711 0 0.2794126892910288 0.21617120911671081 0 0.26644318031571418 0.20408753099865831 0 0.2794126892910288 0.21617120911671081 0 0.26644318031571418 0.20408753099865831 0 0.27722953884408802 0.19656269719262509 0 0.24528107816237801 0.1907036486386274 0 0.26644318031571418 0.20408753099865831 0 0.25242827713160498 0.21540237912569379 0 0.25511338863332461 0.22468137717712711 0 0.26644318031571418 0.20408753099865831 0 0.25242827713160498 0.21540237912569379 0 0.26644318031571418 0.20408753099865831 0 0.25242827713160498 0.21540237912569379 0 0.24528107816237801 0.1907036486386274 0 0.26633433714882182 0.18577592949096661 0 0.26644318031571418 0.20408753099865831 0 0.26633433714882182 0.18577592949096661 0 0.26644318031571418 0.20408753099865831 0 0.27722953884408802 0.19656269719262509 0 0.27723266788850742 0.181048228772968 0 0.28743664533084129 0.187357279865842 0 0.27722953884408802 0.19656269719262509 0 0.26633433714882182 0.18577592949096661 0 0.27723266788850742 0.181048228772968 0 0.27722953884408802 0.19656269719262509 0 0.28743664533084129 0.187357279865842 0 0.27722953884408802 0.19656269719262509 0 0.28939512316467059 0.2005252056429343 0 0.28743664533084129 0.187357279865842 0 0.28939512316467059 0.2005252056429343 0 0.29971043857951379 0.19298806906372529 0 0.30929675685570829 0.1858318568065235 0 0.29971043857951379 0.19298806906372529 0 0.31162694501442678 0.19735313208654229 0 0.29971043857951379 0.19298806906372529 0 0.31162694501442678 0.19735313208654229 0 0.30371198994873311 0.20766104105629449 0 0.28939512316467059 0.2005252056429343 0 0.29971043857951379 0.19298806906372529 0 0.30371198994873311 0.20766104105629449 0 0.2794126892910288 0.21617120911671081 0 0.30371198994873311 0.20766104105629449 0 0.2794126892910288 0.21617120911671081 0 0.30371198994873311 0.20766104105629449 0 0.30659550557489001 0.220783432460853 0 0.2794126892910288 0.21617120911671081 0 0.27722953884408802 0.19656269719262509 0 0.28939512316467059 0.2005252056429343 0 0.2794126892910288 0.21617120911671081 0 0.28939512316467059 0.2005252056429343 0 0.30371198994873311 0.20766104105629449 0 0.30659550557489001 0.220783432460853 0 0.28440499104296979 0.23439140090611099 0 0.2794126892910288 0.21617120911671081 0 0.30659550557489001 0.220783432460853 0 0.28440499104296979 0.23439140090611099 0 0.30659550557489001 0.220783432460853 0 0.30328699804120918 0.24394477185791469 0 0.28440499104296979 0.23439140090611099 0 0.30659550557489001 0.220783432460853 0 0.30328699804120918 0.24394477185791469 0 0.31607427666693672 0.2331905299380852 0 0.28119448123381058 0.25405304303149878 0 0.30328699804120918 0.24394477185791469 0 0.28440499104296979 0.23439140090611099 0 0.3433555784436142 0.25004320974280247 0 0.34183468199228573 0.23727684870966961 0 0.33092809789354199 0.24744869965648561 0 0.34183468199228573 0.23727684870966961 0 0.3288410404878227 0.2348757256337824 0 0.33092809789354199 0.24744869965648561 0 0.3288410404878227 0.2348757256337824 0 0.33092809789354199 0.24744869965648561 0 0.31845456220733243 0.24449663650262579 0 0.31879452400631653 0.25919465198291952 0 0.30328699804120918 0.24394477185791469 0 0.31845456220733243 0.24449663650262579 0 0.30328699804120918 0.24394477185791469 0 0.31845456220733243 0.24449663650262579 0 0.31607427666693672 0.2331905299380852 0 0.3288410404878227 0.2348757256337824 0 0.31845456220733243 0.24449663650262579 0 0.31607427666693672 0.2331905299380852 0 0.3288410404878227 0.2348757256337824 0 0.31607427666693672 0.2331905299380852 0 0.32372534117020862 0.22390137225637691 0 0.30659550557489001 0.220783432460853 0 0.31607427666693672 0.2331905299380852 0 0.32372534117020862 0.22390137225637691 0 0.3288410404878227 0.2348757256337824 0 0.32372534117020862 0.22390137225637691 0 0.33832986301458301 0.22348170923356889 0 0.34183468199228573 0.23727684870966961 0 0.3288410404878227 0.2348757256337824 0 0.33832986301458301 0.22348170923356889 0 0.32372534117020862 0.22390137225637691 0 0.33832986301458301 0.22348170923356889 0 0.32878602010681029 0.20717546401559489 0 0.33832986301458301 0.22348170923356889 0 0.32878602010681029 0.20717546401559489 0 0.35089693608391498 0.21212819010674691 0 0.32878602010681029 0.20717546401559489 0 0.35097653463873058 0.19356749557033681 0 0.35089693608391498 0.21212819010674691 0 0.30659550557489001 0.220783432460853 0 0.32372534117020862 0.22390137225637691 0 0.32878602010681029 0.20717546401559489 0 0.31162694501442678 0.19735313208654229 0 0.30371198994873311 0.20766104105629449 0 0.32878602010681029 0.20717546401559489 0 0.30371198994873311 0.20766104105629449 0 0.30659550557489001 0.220783432460853 0 0.32878602010681029 0.20717546401559489 0 0.30659550557489001 0.220783432460853 0 0.32878602010681029 0.20717546401559489 0 0.32878602010681029 0.20717546401559489 0 0.31972446529152482 0.19052244909679969 0 0.3336272658304279 0.18895925974375941 0 0.31162694501442678 0.19735313208654229 0 0.32878602010681029 0.20717546401559489 0 0.31972446529152482 0.19052244909679969 0 0.30929675685570829 0.1858318568065235 0 0.31162694501442678 0.19735313208654229 0 0.31972446529152482 0.19052244909679969 0 0.32878602010681029 0.20717546401559489 0 0.3336272658304279 0.18895925974375941 0 0.35097653463873058 0.19356749557033681 0 0.32878602010681029 0.20717546401559489 0 0.35097653463873058 0.19356749557033681 0 0.3336272658304279 0.18895925974375941 0 0.35097653463873058 0.19356749557033681 0 0.35656535024169428 0.1804169243242798 0 0.35097653463873058 0.19356749557033681 0 0.35896651107905142 0.20360726904620211 0 0.35089693608391498 0.21212819010674691 0 0.35097653463873058 0.19356749557033681 0 0.36405518175537521 0.19484170215684679 0 0.35896651107905142 0.20360726904620211 0 0.35097653463873058 0.19356749557033681 0 0.36405518175537521 0.19484170215684679 0 0.35656535024169428 0.1804169243242798 0 0.36405518175537521 0.19484170215684679 0 0.35656535024169428 0.1804169243242798 0 0.38464328683150451 0.18806222539781059 0 0.36405518175537521 0.19484170215684679 0 0.36923798170140371 0.20928007436804161 0 0.38464328683150451 0.18806222539781059 0 0.36405518175537521 0.19484170215684679 0 0.36923798170140371 0.20928007436804161 0 0.35896651107905142 0.20360726904620211 0 0.36923798170140371 0.20928007436804161 0 0.36132702422268731 0.21787493872225441 0 0.35896651107905142 0.20360726904620211 0 0.36923798170140371 0.20928007436804161 0 0.36132702422268731 0.21787493872225441 0 0.37292139258550783 0.22672254500020811 0 0.36132702422268731 0.21787493872225441 0 0.35896651107905142 0.20360726904620211 0 0.35089693608391498 0.21212819010674691 0 0.34183468199228573 0.23727684870966961 0 0.33832986301458301 0.22348170923356889 0 0.35524969613090918 0.22837961108452459 0 0.36132702422268731 0.21787493872225441 0 0.35089693608391498 0.21212819010674691 0 0.35524969613090918 0.22837961108452459 0 0.33832986301458301 0.22348170923356889 0 0.35089693608391498 0.21212819010674691 0 0.35524969613090918 0.22837961108452459 0 0.36132702422268731 0.21787493872225441 0 0.35524969613090918 0.22837961108452459 0 0.37292139258550783 0.22672254500020811 0 0.35524969613090918 0.22837961108452459 0 0.37292139258550783 0.22672254500020811 0 0.36587213359177301 0.2378375665458646 0 0.37292139258550783 0.22672254500020811 0 0.36587213359177301 0.2378375665458646 0 0.3757768555661396 0.240133652284411 0 0.36587213359177301 0.2378375665458646 0 0.37169426656027921 0.24972740256563611 0 0.3757768555661396 0.240133652284411 0 0.36587213359177301 0.2378375665458646 0 0.37169426656027921 0.24972740256563611 0 0.36205361842742478 0.24882498742118489 0 0.36587213359177301 0.2378375665458646 0 0.36205361842742478 0.24882498742118489 0 0.35356337405553911 0.24205426642971811 0 0.35175757775775729 0.2532797976346674 0 0.36205361842742478 0.24882498742118489 0 0.35356337405553911 0.24205426642971811 0 0.35524969613090918 0.22837961108452459 0 0.36587213359177301 0.2378375665458646 0 0.35356337405553911 0.24205426642971811 0 0.34183468199228573 0.23727684870966961 0 0.35524969613090918 0.22837961108452459 0 0.35356337405553911 0.24205426642971811 0 0.3433555784436142 0.25004320974280247 0 0.34183468199228573 0.23727684870966961 0 0.35356337405553911 0.24205426642971811 0 0.3433555784436142 0.25004320974280247 0 0.35175757775775729 0.2532797976346674 0 0.35356337405553911 0.24205426642971811 0 0.33379856680907583 0.1437068241164389 0 0.32007589174333823 0.14676000458717811 0 0.33365817402274128 0.15789089208148979 0 0.33379856680907583 0.1437068241164389 0 0.33365817402274128 0.15789089208148979 0 0.34780073530519279 0.14835628742565241 0 0.33379856680907583 0.1437068241164389 0 0.34780073530519279 0.14835628742565241 0 0.34586764947947463 0.1362539899128139 0 0.33379856680907583 0.1437068241164389 0 0.33436770153514289 0.13112975471366969 0 0.34586764947947463 0.1362539899128139 0 0.34956654336434939 0.1234914401014125 0 0.33436770153514289 0.13112975471366969 0 0.34586764947947463 0.1362539899128139 0 0.33379856680907583 0.1437068241164389 0 0.33436770153514289 0.13112975471366969 0 0.3195478300457561 0.1332621056988223 0 0.32606950933900308 0.1158177097477945 0 0.33436770153514289 0.13112975471366969 0 0.3195478300457561 0.1332621056988223 0 0.30873747279203018 0.14281046260302349 0 0.3195478300457561 0.1332621056988223 0 0.32007589174333823 0.14676000458717811 0 0.30453528129870422 0.15487579661148021 0 0.32007589174333823 0.14676000458717811 0 0.33365817402274128 0.15789089208148979 0 0.33379856680907583 0.1437068241164389 0 0.3195478300457561 0.1332621056988223 0 0.32007589174333823 0.14676000458717811 0 0.30453528129870422 0.15487579661148021 0 0.33365817402274128 0.15789089208148979 0 0.30453528129870422 0.15487579661148021 0 0.32848741365188411 0.1727716232507491 0 0.33365817402274128 0.15789089208148979 0 0.30040947706207388 0.16512632217721829 0 0.32848741365188411 0.1727716232507491 0 0.3101655001798202 0.17563615506282959 0 0.30040947706207388 0.16512632217721829 0 0.32848741365188411 0.1727716232507491 0 0.3101655001798202 0.17563615506282959 0 0.31983557186529732 0.18171103000860481 0 0.32848741365188411 0.1727716232507491 0 0.3336272658304279 0.18895925974375941 0 0.31983557186529732 0.18171103000860481 0 0.32848741365188411 0.1727716232507491 0 0.3101655001798202 0.17563615506282959 0 0.30929675685570829 0.1858318568065235 0 0.31983557186529732 0.18171103000860481 0 0.30929675685570829 0.1858318568065235 0 0.31972446529152482 0.19052244909679969 0 0.31983557186529732 0.18171103000860481 0 0.31972446529152482 0.19052244909679969 0 0.3336272658304279 0.18895925974375941 0 0.31983557186529732 0.18171103000860481 0 0.32848741365188411 0.1727716232507491 0 0.34507730906385942 0.16855187839241309 0 0.35656535024169428 0.1804169243242798 0 0.3336272658304279 0.18895925974375941 0 0.32848741365188411 0.1727716232507491 0 0.35656535024169428 0.1804169243242798 0 0.32848741365188411 0.1727716232507491 0 0.35656535024169428 0.1804169243242798 0 0.32848741365188411 0.1727716232507491 0 0.33365817402274128 0.15789089208148979 0 0.34507730906385942 0.16855187839241309 0 0.33365817402274128 0.15789089208148979 0 0.34507730906385942 0.16855187839241309 0 0.36278106674677829 0.1609059875514994 0 0.34507730906385942 0.16855187839241309 0 0.35656535024169428 0.1804169243242798 0 0.36278106674677829 0.1609059875514994 0 0.33365817402274128 0.15789089208148979 0 0.36278106674677829 0.1609059875514994 0 0.35656535024169428 0.1804169243242798 0 0.37356219856206202 0.1741215612114578 0 0.38464328683150451 0.18806222539781059 0 0.35656535024169428 0.1804169243242798 0 0.38464328683150451 0.18806222539781059 0 0.35656535024169428 0.1804169243242798 0 0.37356219856206202 0.1741215612114578 0 0.36278106674677829 0.1609059875514994 0 0.36278106674677829 0.1609059875514994 0 0.36531512046589693 0.1378839500987098 0 0.37680076681991098 0.15092733218095339 0 0.36278106674677829 0.1609059875514994 0 0.34780073530519279 0.14835628742565241 0 0.36531512046589693 0.1378839500987098 0 0.34780073530519279 0.14835628742565241 0 0.34586764947947463 0.1362539899128139 0 0.36531512046589693 0.1378839500987098 0 0.33365817402274128 0.15789089208148979 0 0.36278106674677829 0.1609059875514994 0 0.34780073530519279 0.14835628742565241 0 0.34956654336434939 0.1234914401014125 0 0.34586764947947463 0.1362539899128139 0 0.36531512046589693 0.1378839500987098 0 0.34956654336434939 0.1234914401014125 0 0.36322639358210312 0.11848039068348271 0 0.36531512046589693 0.1378839500987098 0 0.36322639358210312 0.11848039068348271 0 0.36531512046589693 0.1378839500987098 0 0.38482072671029011 0.13725767299229241 0 0.36322639358210312 0.11848039068348271 0 0.38482072671029011 0.13725767299229241 0 0.36322639358210312 0.11848039068348271 0 0.38482072671029011 0.13725767299229241 0 0.38005682511468147 0.12140739343396729 0 0.38482072671029011 0.13725767299229241 0 0.39398634319161102 0.12556361147638159 0 0.38005682511468147 0.12140739343396729 0 0.38482072671029011 0.13725767299229241 0 0.39398634319161102 0.12556361147638159 0 0.40386822996399702 0.1370092008917044 0 0.39398634319161102 0.12556361147638159 0 0.40386822996399702 0.1370092008917044 0 0.40630256149234217 0.12337914253670321 0 0.38482072671029011 0.13725767299229241 0 0.40641505983847698 0.15603495530110209 0 0.38482072671029011 0.13725767299229241 0 0.40386822996399702 0.1370092008917044 0 0.40641505983847698 0.15603495530110209 0 0.38482072671029011 0.13725767299229241 0 0.39190395947081519 0.16392108302150901 0 0.40641505983847698 0.15603495530110209 0 0.36531512046589693 0.1378839500987098 0 0.38482072671029011 0.13725767299229241 0 0.37680076681991098 0.15092733218095339 0 0.38482072671029011 0.13725767299229241 0 0.37680076681991098 0.15092733218095339 0 0.39190395947081519 0.16392108302150901 0 0.36278106674677829 0.1609059875514994 0 0.39190395947081519 0.16392108302150901 0 0.36278106674677829 0.1609059875514994 0 0.37680076681991098 0.15092733218095339 0 0.39190395947081519 0.16392108302150901 0 0.37356219856206202 0.1741215612114578 0 0.36278106674677829 0.1609059875514994 0 0.39190395947081519 0.16392108302150901 0 0.37356219856206202 0.1741215612114578 0 0.39190395947081519 0.16392108302150901 0 0.38464328683150451 0.18806222539781059 0 0.4059128807594603 0.17981630131623391 0 0.39190395947081519 0.16392108302150901 0 0.38464328683150451 0.18806222539781059 0 0.39190395947081519 0.16392108302150901 0 0.42102685219485209 0.16693617849151851 0 0.40641505983847698 0.15603495530110209 0 0.4059128807594603 0.17981630131623391 0 0.39190395947081519 0.16392108302150901 0 0.42102685219485209 0.16693617849151851 0 0.42102685219485209 0.16693617849151851 0 0.40641505983847698 0.15603495530110209 0 0.41490094777653419 0.14712571815411829 0 0.39190395947081519 0.16392108302150901 0 0.42102685219485209 0.16693617849151851 0 0.4059128807594603 0.17981630131623391 0 0.42102685219485209 0.16693617849151851 0 0.42759287120751482 0.1799189573059411 0 0.4059128807594603 0.17981630131623391 0 0.42759287120751482 0.1799189573059411 0 0.42045703890892938 0.19185412915784311 0 0.42102685219485209 0.16693617849151851 0 0.42759287120751482 0.1799189573059411 0 0.45014974491888898 0.16995127396152809 0 0.42759287120751482 0.1799189573059411 0 0.42045703890892938 0.19185412915784311 0 0.43799329450951457 0.1898848624547933 0 0.42102685219485209 0.16693617849151851 0 0.45014974491888898 0.16995127396152809 0 0.42102685219485209 0.16693617849151851 0 0.43641214087317609 0.15776157540708571 0 0.42820809332857229 0.14540676379554701 0 0.42102685219485209 0.16693617849151851 0 0.43641214087317609 0.15776157540708571 0 0.45014974491888898 0.16995127396152809 0 0.43641214087317609 0.15776157540708571 0 0.42820809332857229 0.14540676379554701 0 0.44305345270963392 0.14224085277467549 0 0.42820809332857229 0.14540676379554701 0 0.43267139290449452 0.12562392175117529 0 0.41815906511665779 0.13368892679480551 0 0.42820809332857229 0.14540676379554701 0 0.43267139290449452 0.12562392175117529 0 0.44305345270963392 0.14224085277467549 0 0.43267139290449452 0.12562392175117529 0 0.41815906511665779 0.13368892679480551 0 0.41840244549433692 0.1204435227777134 0 0.41815906511665779 0.13368892679480551 0 0.41840244549433692 0.1204435227777134 0 0.40630256149234217 0.12337914253670321 0 0.40386822996399702 0.1370092008917044 0 0.41815906511665779 0.13368892679480551 0 0.40630256149234217 0.12337914253670321 0 0.40386822996399702 0.1370092008917044 0 0.41815906511665779 0.13368892679480551 0 0.41490094777653419 0.14712571815411829 0 0.42102685219485209 0.16693617849151851 0 0.42820809332857229 0.14540676379554701 0 0.41490094777653419 0.14712571815411829 0 0.40386822996399702 0.1370092008917044 0 0.40641505983847698 0.15603495530110209 0 0.41490094777653419 0.14712571815411829 0 0.42820809332857229 0.14540676379554701 0 0.41815906511665779 0.13368892679480551 0 0.41490094777653419 0.14712571815411829 0 0.39196586341458151 0.242441409442547 0 0.40329821407583749 0.23025496453590971 0 0.40866327585672191 0.24600766979752939 0 0.38129994004966872 0.25577407136566988 0 0.39196586341458151 0.242441409442547 0 0.40866327585672191 0.24600766979752939 0 0.38129994004966872 0.25577407136566988 0 0.39196586341458151 0.242441409442547 0 0.38106847269238292 0.24536179082341181 0 0.37169426656027921 0.24972740256563611 0 0.38106847269238292 0.24536179082341181 0 0.3757768555661396 0.240133652284411 0 0.37292139258550783 0.22672254500020811 0 0.3757768555661396 0.240133652284411 0 0.38460543787124563 0.238732418458795 0 0.38106847269238292 0.24536179082341181 0 0.3757768555661396 0.240133652284411 0 0.38460543787124563 0.238732418458795 0 0.39196586341458151 0.242441409442547 0 0.38106847269238292 0.24536179082341181 0 0.38460543787124563 0.238732418458795 0 0.39196586341458151 0.242441409442547 0 0.38460543787124563 0.238732418458795 0 0.38844350160088592 0.2284985707660753 0 0.37292139258550783 0.22672254500020811 0 0.38460543787124563 0.238732418458795 0 0.38844350160088592 0.2284985707660753 0 0.37292139258550783 0.22672254500020811 0 0.38844350160088592 0.2284985707660753 0 0.38369130631537601 0.21297307403445409 0 0.38844350160088592 0.2284985707660753 0 0.39679964264504158 0.21937630878092959 0 0.38369130631537601 0.21297307403445409 0 0.38844350160088592 0.2284985707660753 0 0.39679964264504158 0.21937630878092959 0 0.40329821407583749 0.23025496453590971 0 0.39196586341458151 0.242441409442547 0 0.38844350160088592 0.2284985707660753 0 0.40329821407583749 0.23025496453590971 0 0.39679964264504158 0.21937630878092959 0 0.40329821407583749 0.23025496453590971 0 0.41066806580544729 0.2160617609406458 0 0.39598296716959969 0.20626700748070109 0 0.40513352984814438 0.19492560706685999 0 0.41066806580544729 0.2160617609406458 0 0.39679964264504158 0.21937630878092959 0 0.39598296716959969 0.20626700748070109 0 0.41066806580544729 0.2160617609406458 0 0.39679964264504158 0.21937630878092959 0 0.39598296716959969 0.20626700748070109 0 0.38369130631537601 0.21297307403445409 0 0.36923798170140371 0.20928007436804161 0 0.37292139258550783 0.22672254500020811 0 0.38369130631537601 0.21297307403445409 0 0.36923798170140371 0.20928007436804161 0 0.38369130631537601 0.21297307403445409 0 0.38464328683150451 0.18806222539781059 0 0.39598296716959969 0.20626700748070109 0 0.38369130631537601 0.21297307403445409 0 0.38464328683150451 0.18806222539781059 0 0.39598296716959969 0.20626700748070109 0 0.38464328683150451 0.18806222539781059 0 0.40513352984814438 0.19492560706685999 0 0.4059128807594603 0.17981630131623391 0 0.38464328683150451 0.18806222539781059 0 0.40513352984814438 0.19492560706685999 0 0.40513352984814438 0.19492560706685999 0 0.42045703890892938 0.19185412915784311 0 0.42444067869502011 0.20693424997503959 0 0.4059128807594603 0.17981630131623391 0 0.40513352984814438 0.19492560706685999 0 0.42045703890892938 0.19185412915784311 0 0.42045703890892938 0.19185412915784311 0 0.42444067869502011 0.20693424997503959 0 0.43799329450951457 0.1898848624547933 0 0.42444067869502011 0.20693424997503959 0 0.44184419378540352 0.2076794424592901 0 0.43799329450951457 0.1898848624547933 0 0.42444067869502011 0.20693424997503959 0 0.4302098735549707 0.2206458244329694 0 0.44184419378540352 0.2076794424592901 0 0.42444067869502011 0.20693424997503959 0 0.41066806580544729 0.2160617609406458 0 0.4302098735549707 0.2206458244329694 0 0.40513352984814438 0.19492560706685999 0 0.42444067869502011 0.20693424997503959 0 0.41066806580544729 0.2160617609406458 0 0.41066806580544729 0.2160617609406458 0 0.41777320819135039 0.22984229758728861 0 0.4302098735549707 0.2206458244329694 0 0.40329821407583749 0.23025496453590971 0 0.41066806580544729 0.2160617609406458 0 0.41777320819135039 0.22984229758728861 0 0.4302098735549707 0.2206458244329694 0 0.43602661166377499 0.2362412682293889 0 0.44584438813649652 0.2203436080528294 0 0.41777320819135039 0.22984229758728861 0 0.4302098735549707 0.2206458244329694 0 0.43602661166377499 0.2362412682293889 0 0.43602661166377499 0.2362412682293889 0 0.43076425121212841 0.2486853010718087 0 0.40866327585672191 0.24600766979752939 0 0.43602661166377499 0.2362412682293889 0 0.40866327585672191 0.24600766979752939 0 0.41777320819135039 0.22984229758728861 0 0.43602661166377499 0.2362412682293889 0 0.40866327585672191 0.24600766979752939 0 0.41664462513020523 0.25422696758609492 0 0.43076425121212841 0.2486853010718087 0 0.40866327585672191 0.24600766979752939 0 0.40329821407583749 0.23025496453590971 0 0.41777320819135039 0.22984229758728861 0 0.40866327585672191 0.24600766979752939 0 0.45166362976964691 0.25106894999712381 0 0.45384283414141641 0.23962742592169059 0 0.47583181488482379 0.2451422378191761 0 0.45166362976964691 0.25106894999712381 0 0.47583181488482379 0.2451422378191761 0 0.45384283414141641 0.23962742592169059 0 0.47692141707070451 0.23056955077157251 0 0.45166362976964691 0.25106894999712381 0 0.43076425121212841 0.2486853010718087 0 0.45384283414141641 0.23962742592169059 0 0.43602661166377499 0.2362412682293889 0 0.43076425121212841 0.2486853010718087 0 0.45384283414141641 0.23962742592169059 0 0.43076425121212841 0.2486853010718087 0 0.45384283414141641 0.23962742592169059 0 0.43602661166377499 0.2362412682293889 0 0.46338994747082818 0.22647486666124839 0 0.43602661166377499 0.2362412682293889 0 0.44584438813649652 0.2203436080528294 0 0.46338994747082818 0.22647486666124839 0 0.43602661166377499 0.2362412682293889 0 0.45384283414141641 0.23962742592169059 0 0.46338994747082818 0.22647486666124839 0 0.44584438813649652 0.2203436080528294 0 0.46338994747082818 0.22647486666124839 0 0.4574246187180494 0.20998202225832771 0 0.45384283414141641 0.23962742592169059 0 0.46338994747082818 0.22647486666124839 0 0.47692141707070451 0.23056955077157251 0 0.46338994747082818 0.22647486666124839 0 0.4574246187180494 0.20998202225832771 0 0.47311107537994651 0.21060674662752529 0 0.4574246187180494 0.20998202225832771 0 0.46861366351278472 0.19789432193598561 0 0.47311107537994651 0.21060674662752529 0 0.44584438813649652 0.2203436080528294 0 0.4574246187180494 0.20998202225832771 0 0.44184419378540352 0.2076794424592901 0 0.4302098735549707 0.2206458244329694 0 0.44584438813649652 0.2203436080528294 0 0.44184419378540352 0.2076794424592901 0 0.4574246187180494 0.20998202225832771 0 0.44184419378540352 0.2076794424592901 0 0.45120510308892831 0.19507838461398491 0 0.44184419378540352 0.2076794424592901 0 0.43799329450951457 0.1898848624547933 0 0.45120510308892831 0.19507838461398491 0 0.4574246187180494 0.20998202225832771 0 0.45120510308892831 0.19507838461398491 0 0.46861366351278472 0.19789432193598561 0 0.45120510308892831 0.19507838461398491 0 0.46861366351278472 0.19789432193598561 0 0.45014974491888898 0.16995127396152809 0 0.46861366351278472 0.19789432193598561 0 0.48377650321145821 0.20030440734603891 0 0.47890777313388699 0.17818810929941131 0 0.46861366351278472 0.19789432193598561 0 0.48377650321145821 0.20030440734603891 0 0.47311107537994651 0.21060674662752529 0 0.48377650321145821 0.20030440734603891 0 0.5 0.19442179120654851 0 0.47890777313388699 0.17818810929941131 0 0.48377650321145821 0.20030440734603891 0 0.5 0.19442179120654851 0 0.49075328327788142 0.2167084650931079 0 0.5 0.19442179120654851 0 0.49075328327788142 0.2167084650931079 0 0.49999999999999339 0.2215116756214566 0 0.48377650321145821 0.20030440734603891 0 0.49075328327788142 0.2167084650931079 0 0.47311107537994651 0.21060674662752529 0 0.46338994747082818 0.22647486666124839 0 0.49075328327788142 0.2167084650931079 0 0.47311107537994651 0.21060674662752529 0 0.46338994747082818 0.22647486666124839 0 0.49075328327788142 0.2167084650931079 0 0.46338994747082818 0.22647486666124839 0 0.49075328327788142 0.2167084650931079 0 0.47692141707070451 0.23056955077157251 0 0.47692141707070451 0.23056955077157251 0 0.49999999999999339 0.2215116756214566 0 0.50000000000000067 0.2392155256412283 0 0.49075328327788142 0.2167084650931079 0 0.47692141707070451 0.23056955077157251 0 0.49999999999999339 0.2215116756214566 0 0.47692141707070451 0.23056955077157251 0 0.49999999999999339 0.2215116756214566 0 0.50000000000000067 0.2392155256412283 0 0.47583181488482379 0.2451422378191761 0 0.48341195364679568 0.26002408893105827 0 0.50000000000000067 0.2392155256412283 0 0.47583181488482379 0.2451422378191761 0 0.47692141707070451 0.23056955077157251 0 0.50000000000000067 0.2392155256412283 0 0.47583181488482379 0.2451422378191761 0 0.45384283414141641 0.23962742592169059 0 0.47692141707070451 0.23056955077157251 0 0.47583181488482379 0.2451422378191761 0 0.46053260521531592 0.14091734283165991 0 0.45014974491888898 0.16995127396152809 0 0.47759274938693741 0.15337993901402261 0 0.46053260521531592 0.14091734283165991 0 0.47596637305353268 0.1236489788231635 0 0.45094723062946279 0.12208098845927939 0 0.46053260521531592 0.14091734283165991 0 0.44305345270963392 0.14224085277467549 0 0.45094723062946279 0.12208098845927939 0 0.43267139290449452 0.12562392175117529 0 0.44305345270963392 0.14224085277467549 0 0.45094723062946279 0.12208098845927939 0 0.46053260521531592 0.14091734283165991 0 0.44305345270963392 0.14224085277467549 0 0.45014974491888898 0.16995127396152809 0 0.43641214087317609 0.15776157540708571 0 0.44305345270963392 0.14224085277467549 0 0.45014974491888898 0.16995127396152809 0 0.42759287120751482 0.1799189573059411 0 0.43799329450951457 0.1898848624547933 0 0.45014974491888898 0.16995127396152809 0 0.43799329450951457 0.1898848624547933 0 0.45120510308892831 0.19507838461398491 0 0.45014974491888898 0.16995127396152809 0 0.46861366351278472 0.19789432193598561 0 0.45014974491888898 0.16995127396152809 0 0.47890777313388699 0.17818810929941131 0 0.45014974491888898 0.16995127396152809 0 0.47890777313388699 0.17818810929941131 0 0.47759274938693741 0.15337993901402261 0 0.5 0.19442179120654851 0 0.47890777313388699 0.17818810929941131 0 0.5 0.16733190679164031 0 0.47890777313388699 0.17818810929941131 0 0.5 0.16733190679164031 0 0.47759274938693741 0.15337993901402261 0 0.5 0.16733190679164031 0 0.47759274938693741 0.15337993901402261 0 0.5 0.14024202237673219 0 0.46053260521531592 0.14091734283165991 0 0.47759274938693741 0.15337993901402261 0 0.47596637305353268 0.1236489788231635 0 0.5 0.14024202237673219 0 0.5 0.11315213796182411 0 0.47596637305353268 0.1236489788231635 0 0.47759274938693741 0.15337993901402261 0 0.5 0.14024202237673219 0 0.47596637305353268 0.1236489788231635 0 0.5 0.11315213796182411 0 0.48146508414057748 0.097867616362435003 0 0.47596637305353268 0.1236489788231635 0 0.5 0.11315213796182411 0 0.48146508414057748 0.097867616362435003 0 0.5 0.08606225354691599 0 0.48146508414057748 0.097867616362435003 0 0.46684480345772023 0.083704774648097419 0 0.46085076100455152 0.1051260388446932 0 0.48146508414057748 0.097867616362435003 0 0.47596637305353268 0.1236489788231635 0 0.46085076100455152 0.1051260388446932 0 0.5 0.08606225354691599 0 0.48297411160829701 0.071419164250366693 0 0.5 0.058972369132007867 0 0.48146508414057748 0.097867616362435003 0 0.5 0.08606225354691599 0 0.48297411160829701 0.071419164250366693 0 0.48146508414057748 0.097867616362435003 0 0.48297411160829701 0.071419164250366693 0 0.46684480345772023 0.083704774648097419 0 0.48297411160829701 0.071419164250366693 0 0.46368779630991369 0.062884433647911922 0 0.46684480345772023 0.083704774648097419 0 0.46368779630991369 0.062884433647911922 0 0.4455316944648699 0.078385408113317706 0 0.46368779630991369 0.062884433647911922 0 0.46684480345772023 0.083704774648097419 0 0.4455316944648699 0.078385408113317706 0 0.46684480345772023 0.083704774648097419 0 0.4455316944648699 0.078385408113317706 0 0.46085076100455152 0.1051260388446932 0 0.4455316944648699 0.078385408113317706 0 0.46085076100455152 0.1051260388446932 0 0.43655847815144871 0.087567909291679069 0 0.4455316944648699 0.078385408113317706 0 0.43655847815144871 0.087567909291679069 0 0.43300293116684879 0.070359854062556224 0 0.4455316944648699 0.078385408113317706 0 0.43300293116684879 0.070359854062556224 0 0.44432728466234178 0.059795406129610977 0 0.46368779630991369 0.062884433647911922 0 0.4455316944648699 0.078385408113317706 0 0.44432728466234178 0.059795406129610977 0 0.47596637305353268 0.1236489788231635 0 0.46085076100455152 0.1051260388446932 0 0.45094723062946279 0.12208098845927939 0 0.46085076100455152 0.1051260388446932 0 0.43655847815144871 0.087567909291679069 0 0.46085076100455152 0.1051260388446932 0 0.43845481143497073 0.110031162788742 0 0.43302597451412722 0.09911942802672713 0 0.46085076100455152 0.1051260388446932 0 0.43302597451412722 0.09911942802672713 0 0.43655847815144871 0.087567909291679069 0 0.43267139290449452 0.12562392175117529 0 0.45094723062946279 0.12208098845927939 0 0.43845481143497073 0.110031162788742 0 0.46085076100455152 0.1051260388446932 0 0.45094723062946279 0.12208098845927939 0 0.43845481143497073 0.110031162788742 0 0.43267139290449452 0.12562392175117529 0 0.43845481143497073 0.110031162788742 0 0.42512360996164289 0.1101942667169049 0 0.43267139290449452 0.12562392175117529 0 0.42512360996164289 0.1101942667169049 0 0.41840244549433692 0.1204435227777134 0 0.42512360996164289 0.1101942667169049 0 0.41840244549433692 0.1204435227777134 0 0.41145911669595331 0.1096997076075869 0 0.41840244549433692 0.1204435227777134 0 0.41145911669595331 0.1096997076075869 0 0.40630256149234217 0.12337914253670321 0 0.41145911669595331 0.1096997076075869 0 0.41782870111656589 0.098086010242617663 0 0.40188519574572068 0.098349840232826835 0 0.41782870111656589 0.098086010242617663 0 0.41132824907511162 0.087668761689670915 0 0.40188519574572068 0.098349840232826835 0 0.42512360996164289 0.1101942667169049 0 0.41145911669595331 0.1096997076075869 0 0.41782870111656589 0.098086010242617663 0 0.41782870111656589 0.098086010242617663 0 0.43302597451412722 0.09911942802672713 0 0.42198136315300161 0.08812274721924529 0 0.42512360996164289 0.1101942667169049 0 0.41782870111656589 0.098086010242617663 0 0.43302597451412722 0.09911942802672713 0 0.43845481143497073 0.110031162788742 0 0.42512360996164289 0.1101942667169049 0 0.43302597451412722 0.09911942802672713 0 0.43655847815144871 0.087567909291679069 0 0.42198136315300161 0.08812274721924529 0 0.41226619529834591 0.070009779738664735 0 0.43655847815144871 0.087567909291679069 0 0.41226619529834591 0.070009779738664735 0 0.43302597451412722 0.09911942802672713 0 0.43655847815144871 0.087567909291679069 0 0.42198136315300161 0.08812274721924529 0 0.43300293116684879 0.070359854062556224 0 0.41226619529834591 0.070009779738664735 0 0.42739758089851382 0.054541393999090262 0 0.43655847815144871 0.087567909291679069 0 0.43300293116684879 0.070359854062556224 0 0.41226619529834591 0.070009779738664735 0 0.42198136315300161 0.08812274721924529 0 0.41226619529834591 0.070009779738664735 0 0.41132824907511162 0.087668761689670915 0 0.41226619529834591 0.070009779738664735 0 0.41132824907511162 0.087668761689670915 0 0.39992923875424519 0.082621500021195282 0 0.41782870111656589 0.098086010242617663 0 0.42198136315300161 0.08812274721924529 0 0.41132824907511162 0.087668761689670915 0 0.41132824907511162 0.087668761689670915 0 0.39992923875424519 0.082621500021195282 0 0.40188519574572068 0.098349840232826835 0 0.39992923875424519 0.082621500021195282 0 0.38759228221014619 0.095233220303727467 0 0.40188519574572068 0.098349840232826835 0 0.39992923875424519 0.082621500021195282 0 0.38759228221014619 0.095233220303727467 0 0.41226619529834591 0.070009779738664735 0 0.39707386889515511 0.070908779594843374 0 0.39683376059791597 0.058855427163935138 0 0.41226619529834591 0.070009779738664735 0 0.39683376059791597 0.058855427163935138 0 0.41226619529834591 0.070009779738664735 0 0.39992923875424519 0.082621500021195282 0 0.41226619529834591 0.070009779738664735 0 0.39992923875424519 0.082621500021195282 0 0.39707386889515511 0.070908779594843374 0 0.39992923875424519 0.082621500021195282 0 0.39707386889515511 0.070908779594843374 0 0.38583977896057609 0.075316135258006081 0 0.39707386889515511 0.070908779594843374 0 0.38282045226763678 0.060547433734587333 0 0.39683376059791597 0.058855427163935138 0 0.39707386889515511 0.070908779594843374 0 0.38583977896057609 0.075316135258006081 0 0.38282045226763678 0.060547433734587333 0 0.38583977896057609 0.075316135258006081 0 0.37596532967213542 0.069868995675824025 0 0.37682589963749002 0.081332762740894418 0 0.37307104071443398 0.061065176941414383 0 0.37596532967213542 0.069868995675824025 0 0.38282045226763678 0.060547433734587333 0 0.38583977896057609 0.075316135258006081 0 0.37596532967213542 0.069868995675824025 0 0.38282045226763678 0.060547433734587333 0 0.39992923875424519 0.082621500021195282 0 0.38412803848747967 0.086259474622970303 0 0.38759228221014619 0.095233220303727467 0 0.39992923875424519 0.082621500021195282 0 0.38583977896057609 0.075316135258006081 0 0.38412803848747967 0.086259474622970303 0 0.37045299287494049 0.09679375479102828 0 0.38412803848747967 0.086259474622970303 0 0.38759228221014619 0.095233220303727467 0 0.38583977896057609 0.075316135258006081 0 0.38412803848747967 0.086259474622970303 0 0.37682589963749002 0.081332762740894418 0 0.37045299287494049 0.09679375479102828 0 0.38412803848747967 0.086259474622970303 0 0.37682589963749002 0.081332762740894418 0 0.37045299287494049 0.09679375479102828 0 0.38005682511468147 0.12140739343396729 0 0.37045299287494049 0.09679375479102828 0 0.38759228221014619 0.095233220303727467 0 0.38890959528695412 0.1083938038889192 0 0.37045299287494049 0.09679375479102828 0 0.38890959528695412 0.1083938038889192 0 0.38005682511468147 0.12140739343396729 0 0.39398634319161102 0.12556361147638159 0 0.38890959528695412 0.1083938038889192 0 0.38005682511468147 0.12140739343396729 0 0.39398634319161102 0.12556361147638159 0 0.38890959528695412 0.1083938038889192 0 0.39948393258462489 0.11301500309558379 0 0.39398634319161102 0.12556361147638159 0 0.40630256149234217 0.12337914253670321 0 0.39948393258462489 0.11301500309558379 0 0.41145911669595331 0.1096997076075869 0 0.40630256149234217 0.12337914253670321 0 0.39948393258462489 0.11301500309558379 0 0.41145911669595331 0.1096997076075869 0 0.39948393258462489 0.11301500309558379 0 0.40188519574572068 0.098349840232826835 0 0.38759228221014619 0.095233220303727467 0 0.38890959528695412 0.1083938038889192 0 0.40188519574572068 0.098349840232826835 0 0.38890959528695412 0.1083938038889192 0 0.39948393258462489 0.11301500309558379 0 0.40188519574572068 0.098349840232826835 0 0.3912475249538237 0.025882868266216091 0 0.40325323122183843 0.024352223252143548 0 0.39536881189699241 0.01378873843063998 0 0.3912475249538237 0.025882868266216091 0 0.40325323122183843 0.024352223252143548 0 0.39805180056669343 0.032772735105760037 0 0.40325323122183843 0.024352223252143548 0 0.39805180056669343 0.032772735105760037 0 0.40655765028286611 0.035582104639029083 0 0.40325323122183843 0.024352223252143548 0 0.39536881189699241 0.01378873843063998 0 0.40720094273855439 0.01372602960598159 0 0.40060323373222451 0.0042547197705496897 0 0.39536881189699241 0.01378873843063998 0 0.40720094273855439 0.01372602960598159 0 0.40060323373222451 0.0042547197705496897 0 0.41081432206005303 0.0037114498956348132 0 0.4046584776842293 -0.0050702490882302163 0 0.40060323373222451 0.0042547197705496897 0 0.41081432206005303 0.0037114498956348132 0 0.40720094273855439 0.01372602960598159 0 0.40060323373222451 0.0042547197705496897 0 0.39025836247721268 0.0036292771787240202 0 0.39531848553630572 -0.0042569273994520467 0 0.40060323373222451 0.0042547197705496897 0 0.39536881189699241 0.01378873843063998 0 0.39025836247721268 0.0036292771787240202 0 0.37844401144479839 0.012609093579625891 0 0.38356146703633898 -0.0078565650350033434 0 0.37844401144479839 0.012609093579625891 0 0.39025836247721268 0.0036292771787240202 0 0.38356146703633898 -0.0078565650350033434 0 0.39536881189699241 0.01378873843063998 0 0.37844401144479839 0.012609093579625891 0 0.39025836247721268 0.0036292771787240202 0 0.3912475249538237 0.025882868266216091 0 0.37844401144479839 0.012609093579625891 0 0.38063223185621792 0.036578263657106522 0 0.37844401144479839 0.012609093579625891 0 0.38063223185621792 0.036578263657106522 0 0.37146335928247548 0.04052602251159599 0 0.37844401144479839 0.012609093579625891 0 0.38063223185621792 0.036578263657106522 0 0.3912475249538237 0.025882868266216091 0 0.39536881189699241 0.01378873843063998 0 0.37844401144479839 0.012609093579625891 0 0.37146335928247548 0.04052602251159599 0 0.38063223185621792 0.036578263657106522 0 0.38282045226763678 0.060547433734587333 0 0.3912475249538237 0.025882868266216091 0 0.38063223185621792 0.036578263657106522 0 0.3908528121234538 0.035995570554822158 0 0.38063223185621792 0.036578263657106522 0 0.38791705742610771 0.044539104287684539 0 0.3908528121234538 0.035995570554822158 0 0.38791705742610771 0.044539104287684539 0 0.38282045226763678 0.060547433734587333 0 0.39079668350586277 0.051215399393808793 0 0.37307104071443398 0.061065176941414383 0 0.37146335928247548 0.04052602251159599 0 0.38282045226763678 0.060547433734587333 0 0.38063223185621792 0.036578263657106522 0 0.38791705742610771 0.044539104287684539 0 0.38282045226763678 0.060547433734587333 0 0.38063223185621792 0.036578263657106522 0 0.38282045226763678 0.060547433734587333 0 0.38282045226763678 0.060547433734587333 0 0.39683376059791597 0.058855427163935138 0 0.39079668350586277 0.051215399393808793 0 0.41226619529834591 0.070009779738664735 0 0.39683376059791597 0.058855427163935138 0 0.40948896714378957 0.05055434744181983 0 0.39683376059791597 0.058855427163935138 0 0.39079668350586277 0.051215399393808793 0 0.39674782008621368 0.04348041067995833 0 0.39683376059791597 0.058855427163935138 0 0.39674782008621368 0.04348041067995833 0 0.40948896714378957 0.05055434744181983 0 0.3908528121234538 0.035995570554822158 0 0.39805180056669343 0.032772735105760037 0 0.39674782008621368 0.04348041067995833 0 0.3912475249538237 0.025882868266216091 0 0.3908528121234538 0.035995570554822158 0 0.39805180056669343 0.032772735105760037 0 0.38791705742610771 0.044539104287684539 0 0.3908528121234538 0.035995570554822158 0 0.39674782008621368 0.04348041067995833 0 0.38791705742610771 0.044539104287684539 0 0.39079668350586277 0.051215399393808793 0 0.39674782008621368 0.04348041067995833 0 0.39674782008621368 0.04348041067995833 0 0.40655765028286611 0.035582104639029083 0 0.40948896714378957 0.05055434744181983 0 0.39805180056669343 0.032772735105760037 0 0.39674782008621368 0.04348041067995833 0 0.40655765028286611 0.035582104639029083 0 0.40655765028286611 0.035582104639029083 0 0.41713079569888262 0.040856968430241461 0 0.41557099838193923 0.024039796491718179 0 0.41713079569888262 0.040856968430241461 0 0.42755741698364552 0.032815777208855347 0 0.41557099838193923 0.024039796491718179 0 0.40655765028286611 0.035582104639029083 0 0.41713079569888262 0.040856968430241461 0 0.40948896714378957 0.05055434744181983 0 0.41226619529834591 0.070009779738664735 0 0.40948896714378957 0.05055434744181983 0 0.42739758089851382 0.054541393999090262 0 0.41713079569888262 0.040856968430241461 0 0.40948896714378957 0.05055434744181983 0 0.42739758089851382 0.054541393999090262 0 0.41226619529834591 0.070009779738664735 0 0.42739758089851382 0.054541393999090262 0 0.43300293116684879 0.070359854062556224 0 0.42739758089851382 0.054541393999090262 0 0.44432728466234178 0.059795406129610977 0 0.41713079569888262 0.040856968430241461 0 0.42739758089851382 0.054541393999090262 0 0.42755741698364552 0.032815777208855347 0 0.42739758089851382 0.054541393999090262 0 0.42755741698364552 0.032815777208855347 0 0.44252896649868317 0.039073008259517338 0 0.42739758089851382 0.054541393999090262 0 0.44252896649868317 0.039073008259517338 0 0.42755741698364552 0.032815777208855347 0 0.4358194844604939 0.024219735287320941 0 0.44252896649868317 0.039073008259517338 0 0.42755741698364552 0.032815777208855347 0 0.41557099838193923 0.024039796491718179 0 0.4265644217351573 0.014684511896395219 0 0.4358194844604939 0.024219735287320941 0 0.4265644217351573 0.014684511896395219 0 0.44548351627008242 0.01642882659412407 0 0.42755741698364552 0.032815777208855347 0 0.4358194844604939 0.024219735287320941 0 0.4265644217351573 0.014684511896395219 0 0.41557099838193923 0.024039796491718179 0 0.4165272652869268 0.01155925859927168 0 0.4265644217351573 0.014684511896395219 0 0.41557099838193923 0.024039796491718179 0 0.40720094273855439 0.01372602960598159 0 0.4165272652869268 0.01155925859927168 0 0.40325323122183843 0.024352223252143548 0 0.41557099838193923 0.024039796491718179 0 0.40720094273855439 0.01372602960598159 0 0.40325323122183843 0.024352223252143548 0 0.40655765028286611 0.035582104639029083 0 0.41557099838193923 0.024039796491718179 0 0.41081432206005303 0.0037114498956348132 0 0.40720094273855439 0.01372602960598159 0 0.4165272652869268 0.01155925859927168 0 0.4165272652869268 0.01155925859927168 0 0.42248564151892998 0.0016345051066286029 0 0.4265644217351573 0.014684511896395219 0 0.41081432206005303 0.0037114498956348132 0 0.4165272652869268 0.01155925859927168 0 0.42248564151892998 0.0016345051066286029 0 0.42248564151892998 0.0016345051066286029 0 0.4265644217351573 0.014684511896395219 0 0.4382820622288856 -0.0014159552958160841 0 0.4265644217351573 0.014684511896395219 0 0.44548351627008242 0.01642882659412407 0 0.4382820622288856 -0.0014159552958160841 0 0.45100246047295739 0.0046664116742636159 0 0.44548351627008242 0.01642882659412407 0 0.4382820622288856 -0.0014159552958160841 0 0.45100246047295739 0.0046664116742636159 0 0.44548351627008242 0.01642882659412407 0 0.4580470330794123 0.0188547641718908 0 0.4358194844604939 0.024219735287320941 0 0.4514029071021442 0.02821869916314456 0 0.44548351627008242 0.01642882659412407 0 0.4358194844604939 0.024219735287320941 0 0.4514029071021442 0.02821869916314456 0 0.44252896649868317 0.039073008259517338 0 0.4514029071021442 0.02821869916314456 0 0.44548351627008242 0.01642882659412407 0 0.4580470330794123 0.0188547641718908 0 0.4514029071021442 0.02821869916314456 0 0.4580470330794123 0.0188547641718908 0 0.46553563141862692 0.027383902935855992 0 0.4580470330794123 0.0188547641718908 0 0.46553563141862692 0.027383902935855992 0 0.471035018561343 0.01684384088441979 0 0.4580470330794123 0.0188547641718908 0 0.4620271672997433 0.0081957990277541914 0 0.471035018561343 0.01684384088441979 0 0.4620271672997433 0.0081957990277541914 0 0.47207727543944228 0.0077163925679632076 0 0.45540766643685782 -0.0078732224449345398 0 0.4620271672997433 0.0081957990277541914 0 0.47207727543944228 0.0077163925679632076 0 0.471035018561343 0.01684384088441979 0 0.45100246047295739 0.0046664116742636159 0 0.4620271672997433 0.0081957990277541914 0 0.45540766643685782 -0.0078732224449345398 0 0.45100246047295739 0.0046664116742636159 0 0.4580470330794123 0.0188547641718908 0 0.4620271672997433 0.0081957990277541914 0 0.42739758089851382 0.054541393999090262 0 0.44432728466234178 0.059795406129610977 0 0.44252896649868317 0.039073008259517338 0 0.44432728466234178 0.059795406129610977 0 0.44252896649868317 0.039073008259517338 0 0.46100281088556699 0.043351957730158222 0 0.4514029071021442 0.02821869916314456 0 0.44252896649868317 0.039073008259517338 0 0.46100281088556699 0.043351957730158222 0 0.4514029071021442 0.02821869916314456 0 0.46553563141862692 0.027383902935855992 0 0.46100281088556699 0.043351957730158222 0 0.46553563141862692 0.027383902935855992 0 0.46100281088556699 0.043351957730158222 0 0.4764725540003833 0.035303178421407518 0 0.46368779630991369 0.062884433647911922 0 0.44432728466234178 0.059795406129610977 0 0.46100281088556699 0.043351957730158222 0 0.48297411160829701 0.071419164250366693 0 0.46368779630991369 0.062884433647911922 0 0.48184389815495748 0.047383459182506117 0 0.46368779630991369 0.062884433647911922 0 0.46100281088556699 0.043351957730158222 0 0.48184389815495748 0.047383459182506117 0 0.46368779630991369 0.062884433647911922 0 0.48184389815495748 0.047383459182506117 0 0.46100281088556699 0.043351957730158222 0 0.48184389815495748 0.047383459182506117 0 0.4764725540003833 0.035303178421407518 0 0.48184389815495748 0.047383459182506117 0 0.50000000000000089 0.031882484717099757 0 0.48184389815495748 0.047383459182506117 0 0.50000000000000089 0.031882484717099757 0 0.5 0.058972369132007867 0 0.48184389815495748 0.047383459182506117 0 0.4764725540003833 0.035303178421407518 0 0.50000000000000089 0.031882484717099757 0 0.48297411160829701 0.071419164250366693 0 0.48184389815495748 0.047383459182506117 0 0.5 0.058972369132007867 0 0.48173822001607031 0.002441982684480838 0 0.47207727543944228 0.0077163925679632076 0 0.45540766643685782 -0.0078732224449345398 0 0.48073089036299149 0.01447516008145705 0 0.48088876464914698 0.0066420825236524483 0 0.47207727543944228 0.0077163925679632076 0 0.48088876464914698 0.0066420825236524483 0 0.48173822001607031 0.002441982684480838 0 0.48944624590280772 0.014576472087587141 0 0.48073089036299149 0.01447516008145705 0 0.48088876464914698 0.0066420825236524483 0 0.48944624590280772 0.014576472087587141 0 0.48088876464914698 0.0066420825236524483 0 0.48173822001607031 0.002441982684480838 0 0.47207727543944228 0.0077163925679632076 0 0.48088876464914698 0.0066420825236524483 0 0.48173822001607031 0.002441982684480838 0 0.48073089036299149 0.01447516008145705 0 0.47207727543944228 0.0077163925679632076 0 0.471035018561343 0.01684384088441979 0 0.46553563141862692 0.027383902935855992 0 0.471035018561343 0.01684384088441979 0 0.48098968552297122 0.023479159592672289 0 0.46553563141862692 0.027383902935855992 0 0.4764725540003833 0.035303178421407518 0 0.48098968552297122 0.023479159592672289 0 0.48073089036299149 0.01447516008145705 0 0.471035018561343 0.01684384088441979 0 0.48098968552297122 0.023479159592672289 0 0.48073089036299149 0.01447516008145705 0 0.48098968552297122 0.023479159592672289 0 0.48944624590280772 0.014576472087587141 0 0.50000000000000089 0.031882484717099757 0 0.50000000000000044 0.0095961811708810997 0 0.48944624590280772 0.014576472087587141 0 0.4764725540003833 0.035303178421407518 0 0.50000000000000089 0.031882484717099757 0 0.48098968552297122 0.023479159592672289 0 0.50000000000000089 0.031882484717099757 0 0.48098968552297122 0.023479159592672289 0 0.48944624590280772 0.014576472087587141 0 0.48173822001607031 0.002441982684480838 0 0.50000000000000044 0.0095961811708810997 0 0.48944624590280772 0.014576472087587141 0 0.48173822001607031 0.002441982684480838 0 0.50000000000000044 0.0095961811708810997 0 0.48173822001607031 0.002441982684480838 0 0.50000000000000044 0.0095961811708810997 0 0.5 -0.01553848795347695 0 0.48173822001607031 0.002441982684480838 0 0.5 -0.01553848795347695 0 0.48723509010938909 -0.024737082977995831 0 0.48173822001607031 0.002441982684480838 0 0.48723509010938909 -0.024737082977995831 0 0.48173822001607031 0.002441982684480838 0 0.46944239540012012 -0.021901386132034111 0 0.45540766643685782 -0.0078732224449345398 0 0.48173822001607031 0.002441982684480838 0 0.46944239540012012 -0.021901386132034111 0 0.48723509010938909 -0.024737082977995831 0 0.46944239540012012 -0.021901386132034111 0 0.48723509010938909 -0.024737082977995831 0 0.47311684284700922 -0.039980301183512167 0 0.5 -0.01553848795347695 0 0.48723509010938909 -0.024737082977995831 0 0.5 -0.040673157077835087 0 0.48723509010938909 -0.024737082977995831 0 0.49273196020270971 -0.051916148640471983 0 0.48034048547664182 -0.050194577481915269 0 0.48723509010938909 -0.024737082977995831 0 0.49273196020270971 -0.051916148640471983 0 0.48723509010938909 -0.024737082977995831 0 0.5 -0.040673157077835087 0 0.49273196020270971 -0.051916148640471983 0 0.5 -0.040673157077835087 0 0.49273196020270971 -0.051916148640471983 0 0.5 -0.065807826202193331 0 0.49273196020270971 -0.051916148640471983 0 0.48384360039889979 -0.062204599920787272 0 0.48034048547664182 -0.050194577481915269 0 0.48034048547664182 -0.050194577481915269 0 0.47035120232490191 -0.060528185902064997 0 0.47311684284700922 -0.039980301183512167 0 0.47035120232490191 -0.060528185902064997 0 0.47311684284700922 -0.039980301183512167 0 0.48384360039889979 -0.062204599920787272 0 0.48034048547664182 -0.050194577481915269 0 0.47035120232490191 -0.060528185902064997 0 0.48723509010938909 -0.024737082977995831 0 0.48034048547664182 -0.050194577481915269 0 0.47311684284700922 -0.039980301183512167 0 0.46944239540012012 -0.021901386132034111 0 0.47311684284700922 -0.039980301183512167 0 0.44971415759127392 -0.039358306738208573 0 0.47035120232490191 -0.060528185902064997 0 0.47311684284700922 -0.039980301183512167 0 0.44971415759127392 -0.039358306738208573 0 0.47035120232490191 -0.060528185902064997 0 0.44971415759127392 -0.039358306738208573 0 0.47035120232490191 -0.060528185902064997 0 0.43963483674523918 -0.055334607978488382 0 0.44971415759127392 -0.039358306738208573 0 0.43963483674523918 -0.055334607978488382 0 0.44971415759127392 -0.039358306738208573 0 0.42419530264354072 -0.042652000491910397 0 0.46944239540012012 -0.021901386132034111 0 0.44971415759127392 -0.039358306738208573 0 0.45540766643685782 -0.0078732224449345398 0 0.44971415759127392 -0.039358306738208573 0 0.42907711285764621 -0.01818842757435184 0 0.44971415759127392 -0.039358306738208573 0 0.45540766643685782 -0.0078732224449345398 0 0.42907711285764621 -0.01818842757435184 0 0.45540766643685782 -0.0078732224449345398 0 0.42907711285764621 -0.01818842757435184 0 0.45100246047295739 0.0046664116742636159 0 0.4382820622288856 -0.0014159552958160841 0 0.45540766643685782 -0.0078732224449345398 0 0.4382820622288856 -0.0014159552958160841 0 0.45540766643685782 -0.0078732224449345398 0 0.42907711285764621 -0.01818842757435184 0 0.48173822001607031 0.002441982684480838 0 0.45540766643685782 -0.0078732224449345398 0 0.47129126618897188 -0.1223351355815797 0 0.47148248434309947 -0.114916285604633 0 0.48087269318342413 -0.1216818802472065 0 0.47148248434309947 -0.114916285604633 0 0.48087269318342413 -0.1216818802472065 0 0.47838814501791832 -0.1066654575105275 0 0.48087269318342413 -0.1216818802472065 0 0.48924328608656842 -0.1141618265083332 0 0.47838814501791832 -0.1066654575105275 0 0.5 -0.1122204549214597 0 0.48924328608656842 -0.1141618265083332 0 0.5 -0.13349841451636779 0 0.48087269318342413 -0.1216818802472065 0 0.48924328608656842 -0.1141618265083332 0 0.5 -0.13349841451636779 0 0.5 -0.1122204549214597 0 0.48924328608656842 -0.1141618265083332 0 0.48827073793524339 -0.097774102912636218 0 0.48924328608656842 -0.1141618265083332 0 0.48827073793524339 -0.097774102912636218 0 0.47838814501791832 -0.1066654575105275 0 0.5 -0.1122204549214597 0 0.48827073793524339 -0.097774102912636218 0 0.50000000000000266 -0.090942495326551576 0 0.47652975213937199 -0.091635549067057065 0 0.46683976751390588 -0.086617099886465918 0 0.46456669494636288 -0.10350535152343909 0 0.48827073793524339 -0.097774102912636218 0 0.47838814501791832 -0.1066654575105275 0 0.47652975213937199 -0.091635549067057065 0 0.47148248434309947 -0.114916285604633 0 0.47838814501791832 -0.1066654575105275 0 0.46456669494636288 -0.10350535152343909 0 0.47838814501791832 -0.1066654575105275 0 0.47652975213937199 -0.091635549067057065 0 0.46456669494636288 -0.10350535152343909 0 0.48827073793524339 -0.097774102912636218 0 0.47652975213937199 -0.091635549067057065 0 0.48517560116245317 -0.075735340614307423 0 0.47652975213937199 -0.091635549067057065 0 0.48517560116245317 -0.075735340614307423 0 0.46683976751390588 -0.086617099886465918 0 0.47652975213937199 -0.091635549067057065 0 0.46683976751390588 -0.086617099886465918 0 0.50000000000000266 -0.090942495326551576 0 0.49822883029603021 -0.079095214302948247 0 0.5 -0.065807826202193331 0 0.48827073793524339 -0.097774102912636218 0 0.50000000000000266 -0.090942495326551576 0 0.48517560116245317 -0.075735340614307423 0 0.50000000000000266 -0.090942495326551576 0 0.48517560116245317 -0.075735340614307423 0 0.50000000000000266 -0.090942495326551576 0 0.49822883029603021 -0.079095214302948247 0 0.48517560116245317 -0.075735340614307423 0 0.49273196020270971 -0.051916148640471983 0 0.49822883029603021 -0.079095214302948247 0 0.48384360039889979 -0.062204599920787272 0 0.49822883029603021 -0.079095214302948247 0 0.48517560116245317 -0.075735340614307423 0 0.49273196020270971 -0.051916148640471983 0 0.48384360039889979 -0.062204599920787272 0 0.49822883029603021 -0.079095214302948247 0 0.49273196020270971 -0.051916148640471983 0 0.49822883029603021 -0.079095214302948247 0 0.5 -0.065807826202193331 0 0.47035120232490191 -0.060528185902064997 0 0.48517560116245317 -0.075735340614307423 0 0.47035120232490191 -0.060528185902064997 0 0.48517560116245317 -0.075735340614307423 0 0.46683976751390588 -0.086617099886465918 0 0.48384360039889979 -0.062204599920787272 0 0.47035120232490191 -0.060528185902064997 0 0.48517560116245317 -0.075735340614307423 0 0.47035120232490191 -0.060528185902064997 0 0.46683976751390588 -0.086617099886465918 0 0.47035120232490191 -0.060528185902064997 0 0.44249197108241189 -0.074007360679063244 0 0.46683976751390588 -0.086617099886465918 0 0.47035120232490191 -0.060528185902064997 0 0.43963483674523918 -0.055334607978488382 0 0.44249197108241189 -0.074007360679063244 0 0.44249197108241189 -0.074007360679063244 0 0.46683976751390588 -0.086617099886465918 0 0.4490662803509099 -0.094083529251462475 0 0.44249197108241189 -0.074007360679063244 0 0.4490662803509099 -0.094083529251462475 0 0.42834270349958448 -0.099226311759436261 0 0.44249197108241189 -0.074007360679063244 0 0.46683976751390588 -0.086617099886465918 0 0.46683976751390588 -0.086617099886465918 0 0.46456669494636288 -0.10350535152343909 0 0.4490662803509099 -0.094083529251462475 0 0.46683976751390588 -0.086617099886465918 0 0.46456669494636288 -0.10350535152343909 0 0.46456669494636288 -0.10350535152343909 0 0.4490662803509099 -0.094083529251462475 0 0.44386094964032902 -0.11054798122052439 0 0.4490662803509099 -0.094083529251462475 0 0.44386094964032902 -0.11054798122052439 0 0.42834270349958448 -0.099226311759436261 0 0.44386094964032902 -0.11054798122052439 0 0.46257396642688631 -0.12529077885077469 0 0.45239247298790419 -0.125419693033265 0 0.44386094964032902 -0.11054798122052439 0 0.42916935431308728 -0.1205456085246996 0 0.4435038969132965 -0.12540022695152131 0 0.44386094964032902 -0.11054798122052439 0 0.45239247298790419 -0.125419693033265 0 0.4435038969132965 -0.12540022695152131 0 0.44386094964032902 -0.11054798122052439 0 0.46229362237882032 -0.1203936031604123 0 0.46257396642688631 -0.12529077885077469 0 0.46456669494636288 -0.10350535152343909 0 0.46229362237882032 -0.1203936031604123 0 0.46456669494636288 -0.10350535152343909 0 0.44386094964032902 -0.11054798122052439 0 0.46229362237882032 -0.1203936031604123 0 0.44386094964032902 -0.11054798122052439 0 0.46257396642688631 -0.12529077885077469 0 0.47148248434309947 -0.114916285604633 0 0.46456669494636288 -0.10350535152343909 0 0.46229362237882032 -0.1203936031604123 0 0.47129126618897188 -0.1223351355815797 0 0.46229362237882032 -0.1203936031604123 0 0.46257396642688631 -0.12529077885077469 0 0.47129126618897188 -0.1223351355815797 0 0.47148248434309947 -0.114916285604633 0 0.46229362237882032 -0.1203936031604123 0 0.44386094964032902 -0.11054798122052439 0 0.42916935431308728 -0.1205456085246996 0 0.42834270349958448 -0.099226311759436261 0 0.41143930547928681 -0.11934523636421419 0 0.42916935431308728 -0.1205456085246996 0 0.42834270349958448 -0.099226311759436261 0 0.41143930547928681 -0.11934523636421419 0 0.40555832972599831 -0.095826118330896617 0 0.41143930547928681 -0.11934523636421419 0 0.42834270349958448 -0.099226311759436261 0 0.40555832972599831 -0.095826118330896617 0 0.42834270349958448 -0.099226311759436261 0 0.41884290658632428 -0.080552882507727325 0 0.40555832972599831 -0.095826118330896617 0 0.41884290658632428 -0.080552882507727325 0 0.39967735397270959 -0.072307000297579083 0 0.40555832972599831 -0.095826118330896617 0 0.44249197108241189 -0.074007360679063244 0 0.42834270349958448 -0.099226311759436261 0 0.41884290658632428 -0.080552882507727325 0 0.44249197108241189 -0.074007360679063244 0 0.41814417465091752 -0.061397621471661459 0 0.43963483674523918 -0.055334607978488382 0 0.44249197108241189 -0.074007360679063244 0 0.41814417465091752 -0.061397621471661459 0 0.44249197108241189 -0.074007360679063244 0 0.41884290658632428 -0.080552882507727325 0 0.41814417465091752 -0.061397621471661459 0 0.41884290658632428 -0.080552882507727325 0 0.39967735397270959 -0.072307000297579083 0 0.41814417465091752 -0.061397621471661459 0 0.39967735397270959 -0.072307000297579083 0 0.38669795957132042 -0.057310603286660967 0 0.37240766699872252 -0.068318548019290964 0 0.39967735397270959 -0.072307000297579083 0 0.37781097748786241 -0.089314889372882261 0 0.37240766699872252 -0.068318548019290964 0 0.39967735397270959 -0.072307000297579083 0 0.37781097748786241 -0.089314889372882261 0 0.40555832972599831 -0.095826118330896617 0 0.39967735397270959 -0.072307000297579083 0 0.40555832972599831 -0.095826118330896617 0 0.40555832972599831 -0.095826118330896617 0 0.38953803654933628 -0.10754997095337659 0 0.39823574772599779 -0.11763079726210079 0 0.37781097748786241 -0.089314889372882261 0 0.40555832972599831 -0.095826118330896617 0 0.38953803654933628 -0.10754997095337659 0 0.37781097748786241 -0.089314889372882261 0 0.38953803654933628 -0.10754997095337659 0 0.37644505785585192 -0.1058120404938334 0 0.38953803654933628 -0.10754997095337659 0 0.37644505785585192 -0.1058120404938334 0 0.37720890243704291 -0.12310924361699779 0 0.38953803654933628 -0.10754997095337659 0 0.37720890243704291 -0.12310924361699779 0 0.38918813321375051 -0.12739880168557821 0 0.38953803654933628 -0.10754997095337659 0 0.39823574772599779 -0.11763079726210079 0 0.38918813321375051 -0.12739880168557821 0 0.41143930547928681 -0.11934523636421419 0 0.39823574772599779 -0.11763079726210079 0 0.40257569972698831 -0.13396225485532559 0 0.41143930547928681 -0.11934523636421419 0 0.40555832972599831 -0.095826118330896617 0 0.39823574772599779 -0.11763079726210079 0 0.42011428296152808 -0.02169968792975261 0 0.41401194260749391 -0.028450411104576211 0 0.41343304557213612 -0.018371446868227208 0 0.42011428296152808 -0.02169968792975261 0 0.41343304557213612 -0.018371446868227208 0 0.41928481904255338 -0.01548900553927589 0 0.42011428296152808 -0.02169968792975261 0 0.41928481904255338 -0.01548900553927589 0 0.42542521438275183 -0.0144422395697206 0 0.42011428296152808 -0.02169968792975261 0 0.41401194260749391 -0.028450411104576211 0 0.42742255973229643 -0.030069766767760062 0 0.41401194260749391 -0.028450411104576211 0 0.40522076275047969 -0.019933987949522329 0 0.40044964155059998 -0.029094842751199331 0 0.41401194260749391 -0.028450411104576211 0 0.41343304557213612 -0.018371446868227208 0 0.40522076275047969 -0.019933987949522329 0 0.41343304557213612 -0.018371446868227208 0 0.40806592415966281 -0.01253819616599721 0 0.40522076275047969 -0.019933987949522329 0 0.40806592415966281 -0.01253819616599721 0 0.4135204533098043 -0.0054466611181140526 0 0.41498054603746559 -0.011947546426581419 0 0.41343304557213612 -0.018371446868227208 0 0.40806592415966281 -0.01253819616599721 0 0.41498054603746559 -0.011947546426581419 0 0.41081432206005303 0.0037114498956348132 0 0.4135204533098043 -0.0054466611181140526 0 0.4046584776842293 -0.0050702490882302163 0 0.40806592415966281 -0.01253819616599721 0 0.4135204533098043 -0.0054466611181140526 0 0.4046584776842293 -0.0050702490882302163 0 0.41081432206005303 0.0037114498956348132 0 0.42248564151892998 0.0016345051066286029 0 0.4135204533098043 -0.0054466611181140526 0 0.42248564151892998 0.0016345051066286029 0 0.4135204533098043 -0.0054466611181140526 0 0.42119781252485211 -0.0083000839364812864 0 0.41343304557213612 -0.018371446868227208 0 0.41498054603746559 -0.011947546426581419 0 0.41928481904255338 -0.01548900553927589 0 0.4135204533098043 -0.0054466611181140526 0 0.41498054603746559 -0.011947546426581419 0 0.42119781252485211 -0.0083000839364812864 0 0.41498054603746559 -0.011947546426581419 0 0.42119781252485211 -0.0083000839364812864 0 0.41928481904255338 -0.01548900553927589 0 0.42542521438275183 -0.0144422395697206 0 0.42820760236351979 -0.0076976995852137747 0 0.42907711285764621 -0.01818842757435184 0 0.4382820622288856 -0.0014159552958160841 0 0.42820760236351979 -0.0076976995852137747 0 0.42907711285764621 -0.01818842757435184 0 0.42119781252485211 -0.0083000839364812864 0 0.41928481904255338 -0.01548900553927589 0 0.42542521438275183 -0.0144422395697206 0 0.42248564151892998 0.0016345051066286029 0 0.4382820622288856 -0.0014159552958160841 0 0.42820760236351979 -0.0076976995852137747 0 0.42119781252485211 -0.0083000839364812864 0 0.42542521438275183 -0.0144422395697206 0 0.42820760236351979 -0.0076976995852137747 0 0.42248564151892998 0.0016345051066286029 0 0.42119781252485211 -0.0083000839364812864 0 0.42820760236351979 -0.0076976995852137747 0 0.44971415759127392 -0.039358306738208573 0 0.42907711285764621 -0.01818842757435184 0 0.42742255973229643 -0.030069766767760062 0 0.42011428296152808 -0.02169968792975261 0 0.42907711285764621 -0.01818842757435184 0 0.42742255973229643 -0.030069766767760062 0 0.42011428296152808 -0.02169968792975261 0 0.42542521438275183 -0.0144422395697206 0 0.42907711285764621 -0.01818842757435184 0 0.42011428296152808 -0.02169968792975261 0 0.42907711285764621 -0.01818842757435184 0 0.42542521438275183 -0.0144422395697206 0 0.42907711285764621 -0.01818842757435184 0 0.44971415759127392 -0.039358306738208573 0 0.42742255973229643 -0.030069766767760062 0 0.42419530264354072 -0.042652000491910397 0 0.41401194260749391 -0.028450411104576211 0 0.42742255973229643 -0.030069766767760062 0 0.42419530264354072 -0.042652000491910397 0 0.43963483674523918 -0.055334607978488382 0 0.42419530264354072 -0.042652000491910397 0 0.41814417465091752 -0.061397621471661459 0 0.41814417465091752 -0.061397621471661459 0 0.41107184061272262 -0.047596707948501772 0 0.39379637821942232 -0.04878788226426127 0 0.42419530264354072 -0.042652000491910397 0 0.41814417465091752 -0.061397621471661459 0 0.41107184061272262 -0.047596707948501772 0 0.41401194260749391 -0.028450411104576211 0 0.42419530264354072 -0.042652000491910397 0 0.40815150693701141 -0.037549327566173699 0 0.42419530264354072 -0.042652000491910397 0 0.41107184061272262 -0.047596707948501772 0 0.40815150693701141 -0.037549327566173699 0 0.41401194260749391 -0.028450411104576211 0 0.40815150693701141 -0.037549327566173699 0 0.40044964155059998 -0.029094842751199331 0 0.41107184061272262 -0.047596707948501772 0 0.40815150693701141 -0.037549327566173699 0 0.39379637821942232 -0.04878788226426127 0 0.40815150693701141 -0.037549327566173699 0 0.39379637821942232 -0.04878788226426127 0 0.40044964155059998 -0.029094842751199331 0 0.39379637821942232 -0.04878788226426127 0 0.38867892262788012 -0.028322223649632432 0 0.39379637821942232 -0.04878788226426127 0 0.38867892262788012 -0.028322223649632432 0 0.40044964155059998 -0.029094842751199331 0 0.39967735397270959 -0.072307000297579083 0 0.39379637821942232 -0.04878788226426127 0 0.38669795957132042 -0.057310603286660967 0 0.41814417465091752 -0.061397621471661459 0 0.39379637821942232 -0.04878788226426127 0 0.39967735397270959 -0.072307000297579083 0 0.39379637821942232 -0.04878788226426127 0 0.39967735397270959 -0.072307000297579083 0 0.41814417465091752 -0.061397621471661459 0 0.39379637821942232 -0.04878788226426127 0 0.39379637821942232 -0.04878788226426127 0 0.38896036142985008 -0.046283306103098283 0 0.38669795957132042 -0.057310603286660967 0 0.37839056082150663 -0.050608978831784571 0 0.37240766699872252 -0.068318548019290964 0 0.38669795957132042 -0.057310603286660967 0 0.37839056082150663 -0.050608978831784571 0 0.38896036142985008 -0.046283306103098283 0 0.39379637821942232 -0.04878788226426127 0 0.38669795957132042 -0.057310603286660967 0 0.38896036142985008 -0.046283306103098283 0 0.39379637821942232 -0.04878788226426127 0 0.38896036142985008 -0.046283306103098283 0 0.38867892262788012 -0.028322223649632432 0 0.3834615598562825 -0.037386722635115492 0 0.38896036142985008 -0.046283306103098283 0 0.38867892262788012 -0.028322223649632432 0 0.37839056082150663 -0.050608978831784571 0 0.3834615598562825 -0.037386722635115492 0 0.38896036142985008 -0.046283306103098283 0 0.37839056082150663 -0.050608978831784571 0 0.3834615598562825 -0.037386722635115492 0 0.37356965880113402 -0.040783236975350308 0 0.38867892262788012 -0.028322223649632432 0 0.38356146703633898 -0.0078565650350033434 0 0.3834615598562825 -0.037386722635115492 0 0.37600683512296651 -0.014087071697862221 0 0.37356965880113402 -0.040783236975350308 0 0.3834615598562825 -0.037386722635115492 0 0.38867892262788012 -0.028322223649632432 0 0.37600683512296651 -0.014087071697862221 0 0.38867892262788012 -0.028322223649632432 0 0.37600683512296651 -0.014087071697862221 0 0.38356146703633898 -0.0078565650350033434 0 0.38867892262788012 -0.028322223649632432 0 0.39658225960386179 -0.014459285545308009 0 0.38356146703633898 -0.0078565650350033434 0 0.38867892262788012 -0.028322223649632432 0 0.40044964155059998 -0.029094842751199331 0 0.39658225960386179 -0.014459285545308009 0 0.40522076275047969 -0.019933987949522329 0 0.40044964155059998 -0.029094842751199331 0 0.39658225960386179 -0.014459285545308009 0 0.40806592415966281 -0.01253819616599721 0 0.40522076275047969 -0.019933987949522329 0 0.39658225960386179 -0.014459285545308009 0 0.40060323373222451 0.0042547197705496897 0 0.4046584776842293 -0.0050702490882302163 0 0.39531848553630572 -0.0042569273994520467 0 0.40806592415966281 -0.01253819616599721 0 0.4046584776842293 -0.0050702490882302163 0 0.39658225960386179 -0.014459285545308009 0 0.4046584776842293 -0.0050702490882302163 0 0.39658225960386179 -0.014459285545308009 0 0.39531848553630572 -0.0042569273994520467 0 0.39658225960386179 -0.014459285545308009 0 0.39531848553630572 -0.0042569273994520467 0 0.38356146703633898 -0.0078565650350033434 0 0.39025836247721268 0.0036292771787240202 0 0.39531848553630572 -0.0042569273994520467 0 0.38356146703633898 -0.0078565650350033434 0 0.37844401144479839 0.012609093579625891 0 0.37600683512296651 -0.014087071697862221 0 0.37844401144479839 0.012609093579625891 0 0.37600683512296651 -0.014087071697862221 0 0.38356146703633898 -0.0078565650350033434 0 0.37600683512296651 -0.014087071697862221 0 0.36665723294200347 -0.001883505129568449 0 0.35850646790810559 -0.01395473468271459 0 0.37844401144479839 0.012609093579625891 0 0.37600683512296651 -0.014087071697862221 0 0.36665723294200347 -0.001883505129568449 0 0.36665723294200347 -0.001883505129568449 0 0.35531676971978082 -0.0033532784323768001 0 0.35850646790810559 -0.01395473468271459 0 0.37600683512296651 -0.014087071697862221 0 0.37356965880113402 -0.040783236975350308 0 0.37600683512296651 -0.014087071697862221 0 0.36404947753274258 -0.026706798856440471 0 0.35850646790810559 -0.01395473468271459 0 0.37600683512296651 -0.014087071697862221 0 0.36404947753274258 -0.026706798856440471 0 0.37356965880113402 -0.040783236975350308 0 0.34748556133762742 -0.02738266599094942 0 0.35850646790810559 -0.01395473468271459 0 0.34370628527030811 -0.0115647124322744 0 0.36404947753274258 -0.026706798856440471 0 0.34748556133762742 -0.02738266599094942 0 0.35850646790810559 -0.01395473468271459 0 0.36404947753274258 -0.026706798856440471 0 0.34748556133762742 -0.02738266599094942 0 0.36012817770438982 -0.039413746555128387 0 0.33689267375143878 0.0039255003288513873 0 0.35531676971978082 -0.0033532784323768001 0 0.34370628527030811 -0.0115647124322744 0 0.35531676971978082 -0.0033532784323768001 0 0.35850646790810559 -0.01395473468271459 0 0.34370628527030811 -0.0115647124322744 0 0.33689267375143878 0.0039255003288513873 0 0.34370628527030811 -0.0115647124322744 0 0.32469666258817742 -0.019557632270551 0 0.33689267375143878 0.0039255003288513873 0 0.30352242257352219 0.0039185454548519476 0 0.32469666258817742 -0.019557632270551 0 0.34748556133762742 -0.02738266599094942 0 0.34370628527030811 -0.0115647124322744 0 0.32469666258817742 -0.019557632270551 0 0.34748556133762742 -0.02738266599094942 0 0.32469666258817742 -0.019557632270551 0 0.33457477032001748 -0.043965109755099818 0 0.31326255248553708 -0.043768501277314603 0 0.32924913997341337 -0.063603686862235317 0 0.31014365419524398 -0.06072536978512106 0 0.31326255248553708 -0.043768501277314603 0 0.32924913997341337 -0.063603686862235317 0 0.31326255248553708 -0.043768501277314603 0 0.33457477032001748 -0.043965109755099818 0 0.32924913997341337 -0.063603686862235317 0 0.32469666258817742 -0.019557632270551 0 0.31326255248553708 -0.043768501277314603 0 0.33457477032001748 -0.043965109755099818 0 0.33457477032001748 -0.043965109755099818 0 0.34313363496153881 -0.061193084728204693 0 0.35029003257871461 -0.048624574981710279 0 0.33457477032001748 -0.043965109755099818 0 0.34313363496153881 -0.061193084728204693 0 0.32924913997341337 -0.063603686862235317 0 0.35029003257871461 -0.048624574981710279 0 0.36524615827173029 -0.053571455971191423 0 0.35631850447425872 -0.066333179594821989 0 0.34313363496153881 -0.061193084728204693 0 0.35029003257871461 -0.048624574981710279 0 0.35631850447425872 -0.066333179594821989 0 0.35029003257871461 -0.048624574981710279 0 0.36012817770438982 -0.039413746555128387 0 0.36524615827173029 -0.053571455971191423 0 0.34748556133762742 -0.02738266599094942 0 0.33457477032001748 -0.043965109755099818 0 0.35029003257871461 -0.048624574981710279 0 0.34748556133762742 -0.02738266599094942 0 0.35029003257871461 -0.048624574981710279 0 0.36012817770438982 -0.039413746555128387 0 0.36404947753274258 -0.026706798856440471 0 0.36012817770438982 -0.039413746555128387 0 0.37356965880113402 -0.040783236975350308 0 0.36012817770438982 -0.039413746555128387 0 0.37356965880113402 -0.040783236975350308 0 0.36524615827173029 -0.053571455971191423 0 0.37839056082150663 -0.050608978831784571 0 0.36524615827173029 -0.053571455971191423 0 0.37240766699872252 -0.068318548019290964 0 0.37839056082150663 -0.050608978831784571 0 0.37356965880113402 -0.040783236975350308 0 0.36524615827173029 -0.053571455971191423 0 0.36524615827173029 -0.053571455971191423 0 0.37240766699872252 -0.068318548019290964 0 0.35631850447425872 -0.066333179594821989 0 0.37240766699872252 -0.068318548019290964 0 0.36259903827425999 -0.08213590949324566 0 0.35631850447425872 -0.066333179594821989 0 0.37781097748786241 -0.089314889372882261 0 0.37240766699872252 -0.068318548019290964 0 0.36259903827425999 -0.08213590949324566 0 0.37781097748786241 -0.089314889372882261 0 0.36259903827425999 -0.08213590949324566 0 0.3612223149491664 -0.1032740580320769 0 0.34523572746128989 -0.083438872447156087 0 0.3612223149491664 -0.1032740580320769 0 0.36259903827425999 -0.08213590949324566 0 0.34523572746128989 -0.083438872447156087 0 0.3612223149491664 -0.1032740580320769 0 0.34313363496153881 -0.061193084728204693 0 0.34523572746128989 -0.083438872447156087 0 0.35631850447425872 -0.066333179594821989 0 0.36259903827425999 -0.08213590949324566 0 0.34523572746128989 -0.083438872447156087 0 0.35631850447425872 -0.066333179594821989 0 0.37720890243704291 -0.12310924361699779 0 0.36253108037134668 -0.1248744885805331 0 0.3612223149491664 -0.1032740580320769 0 0.37644505785585192 -0.1058120404938334 0 0.37720890243704291 -0.12310924361699779 0 0.3612223149491664 -0.1032740580320769 0 0.37720890243704291 -0.12310924361699779 0 0.3612223149491664 -0.1032740580320769 0 0.37781097748786241 -0.089314889372882261 0 0.37644505785585192 -0.1058120404938334 0 0.3612223149491664 -0.1032740580320769 0 0.34523572746128989 -0.083438872447156087 0 0.3612223149491664 -0.1032740580320769 0 0.33932087337301742 -0.1007066993955318 0 0.3612223149491664 -0.1032740580320769 0 0.34941185211170689 -0.1127717253903176 0 0.33932087337301742 -0.1007066993955318 0 0.36253108037134668 -0.1248744885805331 0 0.33587402752894302 -0.122350175475488 0 0.36253108037134668 -0.1248744885805331 0 0.34941185211170689 -0.1127717253903176 0 0.33587402752894302 -0.122350175475488 0 0.36253108037134668 -0.1248744885805331 0 0.3612223149491664 -0.1032740580320769 0 0.34941185211170689 -0.1127717253903176 0 0.34941185211170689 -0.1127717253903176 0 0.33587402752894302 -0.122350175475488 0 0.33932087337301742 -0.1007066993955318 0 0.33587402752894302 -0.122350175475488 0 0.33932087337301742 -0.1007066993955318 0 0.31943204723016899 -0.10139701157958859 0 0.33932087337301742 -0.1007066993955318 0 0.31943204723016899 -0.10139701157958859 0 0.32474927095682959 -0.081008353448563344 0 0.33587402752894302 -0.122350175475488 0 0.31943204723016899 -0.10139701157958859 0 0.3092169746865393 -0.1198258623704429 0 0.33587402752894302 -0.122350175475488 0 0.3092169746865393 -0.1198258623704429 0 0.34523572746128989 -0.083438872447156087 0 0.32924913997341337 -0.063603686862235317 0 0.32474927095682959 -0.081008353448563344 0 0.34523572746128989 -0.083438872447156087 0 0.32924913997341337 -0.063603686862235317 0 0.34313363496153881 -0.061193084728204693 0 0.34523572746128989 -0.083438872447156087 0 0.32924913997341337 -0.063603686862235317 0 0.34523572746128989 -0.083438872447156087 0 0.33932087337301742 -0.1007066993955318 0 0.32474927095682959 -0.081008353448563344 0 0.31943204723016899 -0.10139701157958859 0 0.32474927095682959 -0.081008353448563344 0 0.31117343018006932 -0.08835554327446378 0 0.32474927095682959 -0.081008353448563344 0 0.30201438303726968 -0.075929904193525521 0 0.32474927095682959 -0.081008353448563344 0 0.30201438303726968 -0.075929904193525521 0 0.31117343018006932 -0.08835554327446378 0 0.32924913997341337 -0.063603686862235317 0 0.32474927095682959 -0.081008353448563344 0 0.31014365419524398 -0.06072536978512106 0 0.32474927095682959 -0.081008353448563344 0 0.30201438303726968 -0.075929904193525521 0 0.31014365419524398 -0.06072536978512106 0 0.30201438303726968 -0.075929904193525521 0 0.31014365419524398 -0.06072536978512106 0 0.29222542489931519 -0.060978945333093171 0 0.31117343018006932 -0.08835554327446378 0 0.29442961060618023 -0.089764156713605506 0 0.30306705175182019 -0.101009202806625 0 0.30201438303726968 -0.075929904193525521 0 0.31117343018006932 -0.08835554327446378 0 0.29442961060618023 -0.089764156713605506 0 0.29442961060618023 -0.089764156713605506 0 0.28691460331806928 -0.079185378374353493 0 0.27734124638624891 -0.089737863242296378 0 0.30201438303726968 -0.075929904193525521 0 0.29442961060618023 -0.089764156713605506 0 0.28691460331806928 -0.079185378374353493 0 0.30201438303726968 -0.075929904193525521 0 0.27927949511770961 -0.070851454938488739 0 0.29222542489931519 -0.060978945333093171 0 0.30201438303726968 -0.075929904193525521 0 0.27927949511770961 -0.070851454938488739 0 0.30201438303726968 -0.075929904193525521 0 0.28691460331806928 -0.079185378374353493 0 0.27927949511770961 -0.070851454938488739 0 0.28691460331806928 -0.079185378374353493 0 0.27927949511770961 -0.070851454938488739 0 0.27809334201771629 -0.079209584513290715 0 0.28691460331806928 -0.079185378374353493 0 0.27927949511770961 -0.070851454938488739 0 0.27927949511770961 -0.070851454938488739 0 0.27868582307562201 -0.055886184139343542 0 0.29222542489931519 -0.060978945333093171 0 0.31943204723016899 -0.10139701157958859 0 0.3092169746865393 -0.1198258623704429 0 0.30306705175182019 -0.101009202806625 0 0.3092169746865393 -0.1198258623704429 0 0.30306705175182019 -0.101009202806625 0 0.28879183359809052 -0.10393054527906551 0 0.31943204723016899 -0.10139701157958859 0 0.31117343018006932 -0.08835554327446378 0 0.30306705175182019 -0.101009202806625 0 0.28879183359809052 -0.10393054527906551 0 0.28255992184413548 -0.11730154926539781 0 0.27267591943638608 -0.1048970298088977 0 0.29442961060618023 -0.089764156713605506 0 0.28879183359809052 -0.10393054527906551 0 0.27734124638624891 -0.089737863242296378 0 0.29442961060618023 -0.089764156713605506 0 0.30306705175182019 -0.101009202806625 0 0.28879183359809052 -0.10393054527906551 0 0.3092169746865393 -0.1198258623704429 0 0.28255992184413548 -0.11730154926539781 0 0.3092169746865393 -0.1198258623704429 0 0.28879183359809052 -0.10393054527906551 0 0.28255992184413548 -0.11730154926539781 0 0.3092169746865393 -0.1198258623704429 0 0.28255992184413548 -0.11730154926539781 0 0.28721398294742878 -0.13035474923543569 0 0.28255992184413548 -0.11730154926539781 0 0.26776517015272971 -0.1222840496799191 0 0.28721398294742878 -0.13035474923543569 0 0.28255992184413548 -0.11730154926539781 0 0.26776517015272971 -0.1222840496799191 0 0.27267591943638608 -0.1048970298088977 0 0.26776517015272971 -0.1222840496799191 0 0.27267591943638608 -0.1048970298088977 0 0.26047800574605201 -0.11084537767631369 0 0.28879183359809052 -0.10393054527906551 0 0.27267591943638608 -0.1048970298088977 0 0.27734124638624891 -0.089737863242296378 0 0.27267591943638608 -0.1048970298088977 0 0.27734124638624891 -0.089737863242296378 0 0.26256105175446781 -0.092679464148907056 0 0.25771864553297669 -0.099620140202181948 0 0.26047800574605201 -0.11084537767631369 0 0.24375228786211539 -0.116580291014256 0 0.27267591943638608 -0.1048970298088977 0 0.25771864553297669 -0.099620140202181948 0 0.26256105175446781 -0.092679464148907056 0 0.25771864553297669 -0.099620140202181948 0 0.25304747237378489 -0.090741332181114118 0 0.24292322406264641 -0.096552741650977186 0 0.25771864553297669 -0.099620140202181948 0 0.26256105175446781 -0.092679464148907056 0 0.25304747237378489 -0.090741332181114118 0 0.27267591943638608 -0.1048970298088977 0 0.25771864553297669 -0.099620140202181948 0 0.26047800574605201 -0.11084537767631369 0 0.26776517015272971 -0.1222840496799191 0 0.26153006621115998 -0.13421007507225571 0 0.24375228786211539 -0.116580291014256 0 0.26776517015272971 -0.1222840496799191 0 0.24375228786211539 -0.116580291014256 0 0.26776517015272971 -0.1222840496799191 0 0.26047800574605201 -0.11084537767631369 0 0.24375228786211539 -0.116580291014256 0 0.27927949511770961 -0.070851454938488739 0 0.25811154610651499 -0.066123023671663908 0 0.26329678137076351 -0.053405898285071182 0 0.27927949511770961 -0.070851454938488739 0 0.25811154610651499 -0.066123023671663908 0 0.26883802324883782 -0.077063641498024305 0 0.27927949511770961 -0.070851454938488739 0 0.25811154610651499 -0.066123023671663908 0 0.26883802324883782 -0.077063641498024305 0 0.27927949511770961 -0.070851454938488739 0 0.27809334201771629 -0.079209584513290715 0 0.26883802324883782 -0.077063641498024305 0 0.27809334201771629 -0.079209584513290715 0 0.27734124638624891 -0.089737863242296378 0 0.26883802324883782 -0.077063641498024305 0 0.27734124638624891 -0.089737863242296378 0 0.25202197504294188 -0.078400955310045109 0 0.28691460331806928 -0.079185378374353493 0 0.27809334201771629 -0.079209584513290715 0 0.27734124638624891 -0.089737863242296378 0 0.27734124638624891 -0.089737863242296378 0 0.26256105175446781 -0.092679464148907056 0 0.25202197504294188 -0.078400955310045109 0 0.27734124638624891 -0.089737863242296378 0 0.25202197504294188 -0.078400955310045109 0 0.26256105175446781 -0.092679464148907056 0 0.25304747237378489 -0.090741332181114118 0 0.25202197504294188 -0.078400955310045109 0 0.25304747237378489 -0.090741332181114118 0 0.25202197504294188 -0.078400955310045109 0 0.24624903761231479 -0.086847438891893419 0 0.26883802324883782 -0.077063641498024305 0 0.25202197504294188 -0.078400955310045109 0 0.25811154610651499 -0.066123023671663908 0 0.25811154610651499 -0.066123023671663908 0 0.26329678137076351 -0.053405898285071182 0 0.24870160087168189 -0.052882304334001928 0 0.26329678137076351 -0.053405898285071182 0 0.24870160087168189 -0.052882304334001928 0 0.24731406762381819 -0.035960341631652723 0 0.27927949511770961 -0.070851454938488739 0 0.26329678137076351 -0.053405898285071182 0 0.27868582307562201 -0.055886184139343542 0 0.27927949511770961 -0.070851454938488739 0 0.26329678137076351 -0.053405898285071182 0 0.26329678137076351 -0.053405898285071182 0 0.27868582307562201 -0.055886184139343542 0 0.27337213238318842 -0.044040078526876879 0 0.27868582307562201 -0.055886184139343542 0 0.27337213238318842 -0.044040078526876879 0 0.28525528160713332 -0.050154543613187753 0 0.26329678137076351 -0.053405898285071182 0 0.27337213238318842 -0.044040078526876879 0 0.26311483972878968 -0.036713614733010089 0 0.27337213238318842 -0.044040078526876879 0 0.27217486102646721 -0.027861542379398439 0 0.28494473946257981 -0.034556038004921102 0 0.27337213238318842 -0.044040078526876879 0 0.26311483972878968 -0.036713614733010089 0 0.27217486102646721 -0.027861542379398439 0 0.27337213238318842 -0.044040078526876879 0 0.28525528160713332 -0.050154543613187753 0 0.28494473946257981 -0.034556038004921102 0 0.26311483972878968 -0.036713614733010089 0 0.25941635623971138 -0.02230021284205122 0 0.24731406762381819 -0.035960341631652723 0 0.26329678137076351 -0.053405898285071182 0 0.24731406762381819 -0.035960341631652723 0 0.26329678137076351 -0.053405898285071182 0 0.26311483972878968 -0.036713614733010089 0 0.24731406762381819 -0.035960341631652723 0 0.25941635623971138 -0.02230021284205122 0 0.24731406762381819 -0.035960341631652723 0 0.2482857443068576 -0.021714794414400052 0 0.25941635623971138 -0.02230021284205122 0 0.25508119948702751 -0.010083838205662381 0 0.2482857443068576 -0.021714794414400052 0 0.26311483972878968 -0.036713614733010089 0 0.25941635623971138 -0.02230021284205122 0 0.27217486102646721 -0.027861542379398439 0 0.2541426920980116 -0.0036136263454906951 0 0.25508119948702751 -0.010083838205662381 0 0.24138147174972829 -0.0061427828714447699 0 0.2541426920980116 -0.0036136263454906951 0 0.25508119948702751 -0.010083838205662381 0 0.26047117107291767 -0.0019720443344692288 0 0.25446675038947358 0.0029162606258486688 0 0.2541426920980116 -0.0036136263454906951 0 0.26047117107291767 -0.0019720443344692288 0 0.25941635623971138 -0.02230021284205122 0 0.25508119948702751 -0.010083838205662381 0 0.26474460583379889 -0.01023883548432745 0 0.25941635623971138 -0.02230021284205122 0 0.26474460583379889 -0.01023883548432745 0 0.27166734417845928 -0.01430021117376327 0 0.25508119948702751 -0.010083838205662381 0 0.26474460583379889 -0.01023883548432745 0 0.26047117107291767 -0.0019720443344692288 0 0.26474460583379889 -0.01023883548432745 0 0.26047117107291767 -0.0019720443344692288 0 0.27708695819087842 -0.0025378708656911609 0 0.26474460583379889 -0.01023883548432745 0 0.27166734417845928 -0.01430021117376327 0 0.27708695819087842 -0.0025378708656911609 0 0.27166734417845928 -0.01430021117376327 0 0.27708695819087842 -0.0025378708656911609 0 0.28469269166600031 -0.01545933141113482 0 0.27217486102646721 -0.027861542379398439 0 0.28469269166600031 -0.01545933141113482 0 0.28494473946257981 -0.034556038004921102 0 0.25941635623971138 -0.02230021284205122 0 0.27166734417845928 -0.01430021117376327 0 0.27217486102646721 -0.027861542379398439 0 0.27166734417845928 -0.01430021117376327 0 0.27217486102646721 -0.027861542379398439 0 0.28469269166600031 -0.01545933141113482 0 0.28469269166600031 -0.01545933141113482 0 0.29727596499766062 -0.023933315692393788 0 0.28494473946257981 -0.034556038004921102 0 0.30352242257352219 0.0039185454548519476 0 0.28469269166600031 -0.01545933141113482 0 0.29727596499766062 -0.023933315692393788 0 0.30352242257352219 0.0039185454548519476 0 0.27708695819087842 -0.0025378708656911609 0 0.28469269166600031 -0.01545933141113482 0 0.30352242257352219 0.0039185454548519476 0 0.32469666258817742 -0.019557632270551 0 0.29727596499766062 -0.023933315692393788 0 0.32469666258817742 -0.019557632270551 0 0.31326255248553708 -0.043768501277314603 0 0.29727596499766062 -0.023933315692393788 0 0.31326255248553708 -0.043768501277314603 0 0.29727596499766062 -0.023933315692393788 0 0.2968975050950291 -0.045887416406534938 0 0.31326255248553708 -0.043768501277314603 0 0.29727596499766062 -0.023933315692393788 0 0.31326255248553708 -0.043768501277314603 0 0.2968975050950291 -0.045887416406534938 0 0.31014365419524398 -0.06072536978512106 0 0.2968975050950291 -0.045887416406534938 0 0.31014365419524398 -0.06072536978512106 0 0.29222542489931519 -0.060978945333093171 0 0.2968975050950291 -0.045887416406534938 0 0.29222542489931519 -0.060978945333093171 0 0.28525528160713332 -0.050154543613187753 0 0.27868582307562201 -0.055886184139343542 0 0.29222542489931519 -0.060978945333093171 0 0.28525528160713332 -0.050154543613187753 0 0.2968975050950291 -0.045887416406534938 0 0.28525528160713332 -0.050154543613187753 0 0.28494473946257981 -0.034556038004921102 0 0.29727596499766062 -0.023933315692393788 0 0.2968975050950291 -0.045887416406534938 0 0.28494473946257981 -0.034556038004921102 0 0.29579617193404978 -0.19432558104056491 0 0.30588539897632072 -0.22256652654210629 0 0.2776594049058328 -0.2175861504380624 0 0.29579617193404978 -0.19432558104056491 0 0.2776594049058328 -0.2175861504380624 0 0.2764107852420567 -0.19644220614923899 0 0.29579617193404978 -0.19432558104056491 0 0.2764107852420567 -0.19644220614923899 0 0.2792899687438003 -0.18116405860585089 0 0.29579617193404978 -0.19432558104056491 0 0.31045946319455608 -0.20263901644370941 0 0.31057073564158039 -0.17760626025882659 0 0.29579617193404978 -0.19432558104056491 0 0.30588539897632072 -0.22256652654210629 0 0.31045946319455608 -0.20263901644370941 0 0.30588539897632072 -0.22256652654210629 0 0.32020032842118662 -0.2136972324735969 0 0.29579617193404978 -0.19432558104056491 0 0.31045946319455608 -0.20263901644370941 0 0.30588539897632072 -0.22256652654210629 0 0.29681701546221179 -0.23419681124085551 0 0.31597462601859122 -0.25080747204364812 0 0.30111904597271899 -0.2536098058489899 0 0.30588539897632072 -0.22256652654210629 0 0.29681701546221179 -0.23419681124085551 0 0.31597462601859122 -0.25080747204364812 0 0.30588539897632072 -0.22256652654210629 0 0.31597462601859122 -0.25080747204364812 0 0.29681701546221179 -0.23419681124085551 0 0.31597462601859122 -0.25080747204364812 0 0.29681701546221179 -0.23419681124085551 0 0.30111904597271899 -0.2536098058489899 0 0.28456511698073272 -0.25518130134833977 0 0.29681701546221179 -0.23419681124085551 0 0.27830026498091959 -0.23745462562099759 0 0.28456511698073272 -0.25518130134833977 0 0.30588539897632072 -0.22256652654210629 0 0.29681701546221179 -0.23419681124085551 0 0.2776594049058328 -0.2175861504380624 0 0.29681701546221179 -0.23419681124085551 0 0.27830026498091959 -0.23745462562099759 0 0.2776594049058328 -0.2175861504380624 0 0.29681701546221179 -0.23419681124085551 0 0.2776594049058328 -0.2175861504380624 0 0.26584409390649738 -0.23415831621220631 0 0.27830026498091959 -0.23745462562099759 0 0.2776594049058328 -0.2175861504380624 0 0.26584409390649738 -0.23415831621220631 0 0.25658827463044448 -0.2222138965281123 0 0.2776594049058328 -0.2175861504380624 0 0.27830026498091959 -0.23745462562099759 0 0.28456511698073272 -0.25518130134833977 0 0.26629969424128969 -0.25192769388052821 0 0.26584409390649738 -0.23415831621220631 0 0.27830026498091959 -0.23745462562099759 0 0.26629969424128969 -0.25192769388052821 0 0.26584409390649738 -0.23415831621220631 0 0.25037283077400019 -0.2416092145933311 0 0.26629969424128969 -0.25192769388052821 0 0.25037283077400019 -0.2416092145933311 0 0.25658827463044448 -0.2222138965281123 0 0.2446094219978813 -0.2276121794933563 0 0.26584409390649738 -0.23415831621220631 0 0.25037283077400019 -0.2416092145933311 0 0.25658827463044448 -0.2222138965281123 0 0.25658827463044448 -0.2222138965281123 0 0.2776594049058328 -0.2175861504380624 0 0.25850179434945381 -0.20097548963526929 0 0.25658827463044448 -0.2222138965281123 0 0.25850179434945381 -0.20097548963526929 0 0.23907695871134879 -0.21289681242661959 0 0.2776594049058328 -0.2175861504380624 0 0.25850179434945381 -0.20097548963526929 0 0.2776594049058328 -0.2175861504380624 0 0.2764107852420567 -0.19644220614923899 0 0.25850179434945381 -0.20097548963526929 0 0.2764107852420567 -0.19644220614923899 0 0.25850179434945381 -0.20097548963526929 0 0.26539786460737957 -0.18100391429238191 0 0.25850179434945381 -0.20097548963526929 0 0.26539786460737957 -0.18100391429238191 0 0.23934418379307471 -0.18436482883247621 0 0.26539786460737957 -0.18100391429238191 0 0.25449645062408999 -0.16331052089379791 0 0.23934418379307471 -0.18436482883247621 0 0.26539786460737957 -0.18100391429238191 0 0.25449645062408999 -0.16331052089379791 0 0.27043371620885309 -0.16438603764101259 0 0.25449645062408999 -0.16331052089379791 0 0.27043371620885309 -0.16438603764101259 0 0.2633734196266177 -0.15149826902969399 0 0.27043371620885309 -0.16438603764101259 0 0.2792899687438003 -0.18116405860585089 0 0.28570694489177878 -0.1660846355390232 0 0.27043371620885309 -0.16438603764101259 0 0.27930784456020519 -0.15183985913025491 0 0.28570694489177878 -0.1660846355390232 0 0.26539786460737957 -0.18100391429238191 0 0.27043371620885309 -0.16438603764101259 0 0.2792899687438003 -0.18116405860585089 0 0.2764107852420567 -0.19644220614923899 0 0.26539786460737957 -0.18100391429238191 0 0.2792899687438003 -0.18116405860585089 0 0.26153006621115998 -0.13421007507225571 0 0.24375228786211539 -0.116580291014256 0 0.24955680073527009 -0.143898101237383 0 0.26153006621115998 -0.13421007507225571 0 0.24375228786211539 -0.116580291014256 0 0.25449645062408999 -0.16331052089379791 0 0.2633734196266177 -0.15149826902969399 0 0.24955680073527009 -0.143898101237383 0 0.26153006621115998 -0.13421007507225571 0 0.2633734196266177 -0.15149826902969399 0 0.24955680073527009 -0.143898101237383 0 0.27043371620885309 -0.16438603764101259 0 0.2633734196266177 -0.15149826902969399 0 0.27930784456020519 -0.15183985913025491 0 0.27561771784950778 -0.13784369003748159 0 0.28570694489177878 -0.1660846355390232 0 0.26153006621115998 -0.13421007507225571 0 0.27930784456020519 -0.15183985913025491 0 0.27561771784950778 -0.13784369003748159 0 0.27930784456020519 -0.15183985913025491 0 0.27561771784950778 -0.13784369003748159 0 0.28570694489177878 -0.1660846355390232 0 0.26153006621115998 -0.13421007507225571 0 0.2633734196266177 -0.15149826902969399 0 0.27930784456020519 -0.15183985913025491 0 0.26153006621115998 -0.13421007507225571 0 0.27930784456020519 -0.15183985913025491 0 0.26776517015272971 -0.1222840496799191 0 0.27561771784950778 -0.13784369003748159 0 0.28721398294742878 -0.13035474923543569 0 0.26776517015272971 -0.1222840496799191 0 0.26153006621115998 -0.13421007507225571 0 0.27561771784950778 -0.13784369003748159 0 0.27561771784950778 -0.13784369003748159 0 0.28721398294742878 -0.13035474923543569 0 0.28891568690104508 -0.14625428249578579 0 0.28721398294742878 -0.13035474923543569 0 0.28891568690104508 -0.14625428249578579 0 0.29920842625061578 -0.1386190615635868 0 0.28891568690104508 -0.14625428249578579 0 0.29920842625061578 -0.1386190615635868 0 0.29789574789403661 -0.15876522012859751 0 0.27561771784950778 -0.13784369003748159 0 0.28891568690104508 -0.14625428249578579 0 0.28570694489177878 -0.1660846355390232 0 0.30985117626407932 -0.1486491484402036 0 0.29920842625061578 -0.1386190615635868 0 0.29789574789403661 -0.15876522012859751 0 0.30985117626407932 -0.1486491484402036 0 0.29789574789403661 -0.15876522012859751 0 0.3134799250960158 -0.16133035304856411 0 0.30985117626407932 -0.1486491484402036 0 0.29920842625061578 -0.1386190615635868 0 0.31980994510895661 -0.13408045692276491 0 0.3092169746865393 -0.1198258623704429 0 0.28721398294742878 -0.13035474923543569 0 0.29920842625061578 -0.1386190615635868 0 0.3092169746865393 -0.1198258623704429 0 0.29920842625061578 -0.1386190615635868 0 0.31980994510895661 -0.13408045692276491 0 0.29579617193404978 -0.19432558104056491 0 0.2792899687438003 -0.18116405860585089 0 0.28570694489177878 -0.1660846355390232 0 0.29579617193404978 -0.19432558104056491 0 0.28570694489177878 -0.1660846355390232 0 0.29579617193404978 -0.19432558104056491 0 0.28570694489177878 -0.1660846355390232 0 0.29784246694311001 -0.17248502473641619 0 0.28891568690104508 -0.14625428249578579 0 0.28570694489177878 -0.1660846355390232 0 0.29789574789403661 -0.15876522012859751 0 0.28570694489177878 -0.1660846355390232 0 0.29789574789403661 -0.15876522012859751 0 0.29784246694311001 -0.17248502473641619 0 0.29789574789403661 -0.15876522012859751 0 0.31057073564158039 -0.17760626025882659 0 0.3134799250960158 -0.16133035304856411 0 0.29789574789403661 -0.15876522012859751 0 0.31057073564158039 -0.17760626025882659 0 0.29784246694311001 -0.17248502473641619 0 0.29789574789403661 -0.15876522012859751 0 0.31057073564158039 -0.17760626025882659 0 0.29579617193404978 -0.19432558104056491 0 0.31057073564158039 -0.17760626025882659 0 0.29784246694311001 -0.17248502473641619 0 0.31057073564158039 -0.17760626025882659 0 0.33117051957001492 -0.16690810347740409 0 0.33960500058918919 -0.18923554211963439 0 0.31057073564158039 -0.17760626025882659 0 0.32324572338912438 -0.19644730038905581 0 0.3134799250960158 -0.16133035304856411 0 0.33117051957001492 -0.16690810347740409 0 0.32297156368297691 -0.15191279281852399 0 0.31057073564158039 -0.17760626025882659 0 0.3134799250960158 -0.16133035304856411 0 0.33117051957001492 -0.16690810347740409 0 0.33117051957001492 -0.16690810347740409 0 0.34312821131240068 -0.1490342399984359 0 0.35150112372442083 -0.17432517416681301 0 0.33117051957001492 -0.16690810347740409 0 0.35150112372442083 -0.17432517416681301 0 0.33960500058918919 -0.18923554211963439 0 0.33587402752894302 -0.122350175475488 0 0.3092169746865393 -0.1198258623704429 0 0.31980994510895661 -0.13408045692276491 0 0.30985117626407932 -0.1486491484402036 0 0.31980994510895661 -0.13408045692276491 0 0.32297156368297691 -0.15191279281852399 0 0.30985117626407932 -0.1486491484402036 0 0.3134799250960158 -0.16133035304856411 0 0.32297156368297691 -0.15191279281852399 0 0.33117051957001492 -0.16690810347740409 0 0.32297156368297691 -0.15191279281852399 0 0.34312821131240068 -0.1490342399984359 0 0.31980994510895661 -0.13408045692276491 0 0.32297156368297691 -0.15191279281852399 0 0.34312821131240068 -0.1490342399984359 0 0.33587402752894302 -0.122350175475488 0 0.31980994510895661 -0.13408045692276491 0 0.34312821131240068 -0.1490342399984359 0 0.36253108037134668 -0.1248744885805331 0 0.33587402752894302 -0.122350175475488 0 0.3555623608711499 -0.1359942506039106 0 0.33587402752894302 -0.122350175475488 0 0.34312821131240068 -0.1490342399984359 0 0.3555623608711499 -0.1359942506039106 0 0.34312821131240068 -0.1490342399984359 0 0.3555623608711499 -0.1359942506039106 0 0.36858459771950869 -0.15733985743645959 0 0.3555623608711499 -0.1359942506039106 0 0.36652086356581781 -0.12946943863695781 0 0.36858459771950869 -0.15733985743645959 0 0.36652086356581781 -0.12946943863695781 0 0.36858459771950869 -0.15733985743645959 0 0.36652086356581781 -0.12946943863695781 0 0.36858459771950869 -0.15733985743645959 0 0.3787995421462832 -0.1425544525875144 0 0.36652086356581781 -0.12946943863695781 0 0.37808333446084269 -0.1309391893982525 0 0.3787995421462832 -0.1425544525875144 0 0.36253108037134668 -0.1248744885805331 0 0.36652086356581781 -0.12946943863695781 0 0.37808333446084269 -0.1309391893982525 0 0.36253108037134668 -0.1248744885805331 0 0.3555623608711499 -0.1359942506039106 0 0.36652086356581781 -0.12946943863695781 0 0.35150112372442083 -0.17432517416681301 0 0.37064833187319962 -0.1852102762359614 0 0.35587008128221181 -0.19822302573298239 0 0.35150112372442083 -0.17432517416681301 0 0.35587008128221181 -0.19822302573298239 0 0.33960500058918919 -0.18923554211963439 0 0.34312821131240068 -0.1490342399984359 0 0.35150112372442083 -0.17432517416681301 0 0.36858459771950869 -0.15733985743645959 0 0.36858459771950869 -0.15733985743645959 0 0.37064833187319962 -0.1852102762359614 0 0.35150112372442083 -0.17432517416681301 0 0.36858459771950869 -0.15733985743645959 0 0.37064833187319962 -0.1852102762359614 0 0.36858459771950869 -0.15733985743645959 0 0.37064833187319962 -0.1852102762359614 0 0.3834788620725188 -0.17954848884060079 0 0.37064833187319962 -0.1852102762359614 0 0.37271206602689039 -0.21308069503546309 0 0.38139900114097952 -0.20469292352659629 0 0.37064833187319962 -0.1852102762359614 0 0.37271206602689039 -0.21308069503546309 0 0.37064833187319962 -0.1852102762359614 0 0.37271206602689039 -0.21308069503546309 0 0.35587008128221181 -0.19822302573298239 0 0.37271206602689039 -0.21308069503546309 0 0.35603419272415182 -0.2169366224123114 0 0.35587008128221181 -0.19822302573298239 0 0.35603419272415182 -0.2169366224123114 0 0.35587008128221181 -0.19822302573298239 0 0.33592071113666833 -0.21528834051928489 0 0.35587008128221181 -0.19822302573298239 0 0.33960500058918919 -0.18923554211963439 0 0.33592071113666833 -0.21528834051928489 0 0.33960500058918919 -0.18923554211963439 0 0.33592071113666833 -0.21528834051928489 0 0.32324572338912438 -0.19644730038905581 0 0.33592071113666833 -0.21528834051928489 0 0.32324572338912438 -0.19644730038905581 0 0.33592071113666833 -0.21528834051928489 0 0.32020032842118662 -0.2136972324735969 0 0.32324572338912438 -0.19644730038905581 0 0.31045946319455608 -0.20263901644370941 0 0.32020032842118662 -0.2136972324735969 0 0.32324572338912438 -0.19644730038905581 0 0.31057073564158039 -0.17760626025882659 0 0.33960500058918919 -0.18923554211963439 0 0.32324572338912438 -0.19644730038905581 0 0.31045946319455608 -0.20263901644370941 0 0.31057073564158039 -0.17760626025882659 0 0.32324572338912438 -0.19644730038905581 0 0.32549034540926353 -0.23154497847382799 0 0.33517615116993849 -0.24743488902137309 0 0.31597462601859122 -0.25080747204364812 0 0.30588539897632072 -0.22256652654210629 0 0.32549034540926353 -0.23154497847382799 0 0.31597462601859122 -0.25080747204364812 0 0.30588539897632072 -0.22256652654210629 0 0.32020032842118662 -0.2136972324735969 0 0.32549034540926353 -0.23154497847382799 0 0.33592071113666833 -0.21528834051928489 0 0.32020032842118662 -0.2136972324735969 0 0.32549034540926353 -0.23154497847382799 0 0.33592071113666833 -0.21528834051928489 0 0.32549034540926353 -0.23154497847382799 0 0.34859569888421221 -0.23412938064951411 0 0.33592071113666833 -0.21528834051928489 0 0.34859569888421221 -0.23412938064951411 0 0.32549034540926353 -0.23154497847382799 0 0.33517615116993849 -0.24743488902137309 0 0.34859569888421221 -0.23412938064951411 0 0.33517615116993849 -0.24743488902137309 0 0.34859569888421221 -0.23412938064951411 0 0.35185333732921159 -0.25428502110151557 0 0.34859569888421221 -0.23412938064951411 0 0.36075586336603621 -0.2426037127049111 0 0.35185333732921159 -0.25428502110151557 0 0.34859569888421221 -0.23412938064951411 0 0.36291464790978972 -0.22902601310760301 0 0.36075586336603621 -0.2426037127049111 0 0.35603419272415182 -0.2169366224123114 0 0.34859569888421221 -0.23412938064951411 0 0.36291464790978972 -0.22902601310760301 0 0.35603419272415182 -0.2169366224123114 0 0.33592071113666833 -0.21528834051928489 0 0.34859569888421221 -0.23412938064951411 0 0.37271206602689039 -0.21308069503546309 0 0.35603419272415182 -0.2169366224123114 0 0.36291464790978972 -0.22902601310760301 0 0.37271206602689039 -0.21308069503546309 0 0.37477580018058132 -0.24095111383496479 0 0.37555308153547928 -0.22286467051027881 0 0.37271206602689039 -0.21308069503546309 0 0.37477580018058132 -0.24095111383496479 0 0.37271206602689039 -0.21308069503546309 0 0.36291464790978972 -0.22902601310760301 0 0.37477580018058132 -0.24095111383496479 0 0.36075586336603621 -0.2426037127049111 0 0.37477580018058132 -0.24095111383496479 0 0.36563983252638571 -0.25462703483095822 0 0.36291464790978972 -0.22902601310760301 0 0.36075586336603621 -0.2426037127049111 0 0.37477580018058132 -0.24095111383496479 0 0.37477580018058132 -0.24095111383496479 0 0.39321551516580561 -0.23618023300957031 0 0.38725375881062551 -0.25185160038302579 0 0.39321551516580561 -0.23618023300957031 0 0.41087794879613182 -0.2494957955088617 0 0.40741230325918792 -0.23450562481703699 0 0.39321551516580561 -0.23618023300957031 0 0.41087794879613182 -0.2494957955088617 0 0.39321551516580561 -0.23618023300957031 0 0.38725375881062551 -0.25185160038302579 0 0.39640803358832022 -0.25154779433757402 0 0.39321551516580561 -0.23618023300957031 0 0.41087794879613182 -0.2494957955088617 0 0.39640803358832022 -0.25154779433757402 0 0.4055308246994358 -0.22407667781788709 0 0.39424069285124719 -0.22310079746779379 0 0.40434357831770951 -0.21487406561090469 0 0.4055308246994358 -0.22407667781788709 0 0.39424069285124719 -0.22310079746779379 0 0.40741230325918792 -0.23450562481703699 0 0.39321551516580561 -0.23618023300957031 0 0.39424069285124719 -0.22310079746779379 0 0.40741230325918792 -0.23450562481703699 0 0.37477580018058132 -0.24095111383496479 0 0.39321551516580561 -0.23618023300957031 0 0.37555308153547928 -0.22286467051027881 0 0.39424069285124719 -0.22310079746779379 0 0.37555308153547928 -0.22286467051027881 0 0.38300691860546521 -0.21527996176244341 0 0.39321551516580561 -0.23618023300957031 0 0.37555308153547928 -0.22286467051027881 0 0.39321551516580561 -0.23618023300957031 0 0.39424069285124719 -0.22310079746779379 0 0.37555308153547928 -0.22286467051027881 0 0.37271206602689039 -0.21308069503546309 0 0.37555308153547928 -0.22286467051027881 0 0.38300691860546521 -0.21527996176244341 0 0.37271206602689039 -0.21308069503546309 0 0.38139900114097952 -0.20469292352659629 0 0.38300691860546521 -0.21527996176244341 0 0.38139900114097952 -0.20469292352659629 0 0.39078770323730427 -0.19674260859680251 0 0.39112975147272949 -0.2126607222720846 0 0.38139900114097952 -0.20469292352659629 0 0.38300691860546521 -0.21527996176244341 0 0.39112975147272949 -0.2126607222720846 0 0.39424069285124719 -0.22310079746779379 0 0.38300691860546521 -0.21527996176244341 0 0.39112975147272949 -0.2126607222720846 0 0.37064833187319962 -0.1852102762359614 0 0.38139900114097952 -0.20469292352659629 0 0.39078770323730427 -0.19674260859680251 0 0.39078770323730427 -0.19674260859680251 0 0.40475141021500721 -0.1910589369573561 0 0.39510197637232292 -0.1839605883432579 0 0.39078770323730427 -0.19674260859680251 0 0.40426546228868082 -0.20108352786525729 0 0.397631623829106 -0.20634023108626229 0 0.39078770323730427 -0.19674260859680251 0 0.40426546228868082 -0.20108352786525729 0 0.40475141021500721 -0.1910589369573561 0 0.39078770323730427 -0.19674260859680251 0 0.39112975147272949 -0.2126607222720846 0 0.397631623829106 -0.20634023108626229 0 0.39112975147272949 -0.2126607222720846 0 0.397631623829106 -0.20634023108626229 0 0.40434357831770951 -0.21487406561090469 0 0.39424069285124719 -0.22310079746779379 0 0.39112975147272949 -0.2126607222720846 0 0.40434357831770951 -0.21487406561090469 0 0.40426546228868082 -0.20108352786525729 0 0.397631623829106 -0.20634023108626229 0 0.40434357831770951 -0.21487406561090469 0 0.40434357831770951 -0.21487406561090469 0 0.41713092845542321 -0.20900944133272009 0 0.41612672436959858 -0.22382622337581301 0 0.40426546228868082 -0.20108352786525729 0 0.40434357831770951 -0.21487406561090469 0 0.41713092845542321 -0.20900944133272009 0 0.41713092845542321 -0.20900944133272009 0 0.42330136258736267 -0.2174116668913772 0 0.41612672436959858 -0.22382622337581301 0 0.40475141021500721 -0.1910589369573561 0 0.41487892771890261 -0.19826025474908979 0 0.4146572714410397 -0.186958864794112 0 0.40426546228868082 -0.20108352786525729 0 0.41713092845542321 -0.20900944133272009 0 0.41487892771890261 -0.19826025474908979 0 0.40426546228868082 -0.20108352786525729 0 0.40475141021500721 -0.1910589369573561 0 0.41487892771890261 -0.19826025474908979 0 0.41713092845542321 -0.20900944133272009 0 0.41487892771890261 -0.19826025474908979 0 0.42701217502226602 -0.19751647228806199 0 0.41487892771890261 -0.19826025474908979 0 0.42053294087941678 -0.1923617771039739 0 0.42701217502226602 -0.19751647228806199 0 0.42053294087941678 -0.1923617771039739 0 0.4146572714410397 -0.186958864794112 0 0.42558338933545942 -0.1867115165846317 0 0.41487892771890261 -0.19826025474908979 0 0.42053294087941678 -0.1923617771039739 0 0.4146572714410397 -0.186958864794112 0 0.42701217502226602 -0.19751647228806199 0 0.43844209377108118 -0.18689286854296691 0 0.44355474576021348 -0.2050869029196882 0 0.42053294087941678 -0.1923617771039739 0 0.42701217502226602 -0.19751647228806199 0 0.42558338933545942 -0.1867115165846317 0 0.42701217502226602 -0.19751647228806199 0 0.42558338933545942 -0.1867115165846317 0 0.43844209377108118 -0.18689286854296691 0 0.42701217502226602 -0.19751647228806199 0 0.43006687167525981 -0.21185300334864521 0 0.44355474576021348 -0.2050869029196882 0 0.41713092845542321 -0.20900944133272009 0 0.42330136258736267 -0.2174116668913772 0 0.43006687167525981 -0.21185300334864521 0 0.42330136258736267 -0.2174116668913772 0 0.43006687167525981 -0.21185300334864521 0 0.42988092584916948 -0.2249579995083304 0 0.41713092845542321 -0.20900944133272009 0 0.42701217502226602 -0.19751647228806199 0 0.43006687167525981 -0.21185300334864521 0 0.43006687167525981 -0.21185300334864521 0 0.42988092584916948 -0.2249579995083304 0 0.44009267276725389 -0.2176624614444449 0 0.42330136258736267 -0.2174116668913772 0 0.42988092584916948 -0.2249579995083304 0 0.41612672436959858 -0.22382622337581301 0 0.42988092584916948 -0.2249579995083304 0 0.43458399188612801 -0.2397076170126072 0 0.42159465327244361 -0.23640953485310751 0 0.42988092584916948 -0.2249579995083304 0 0.42159465327244361 -0.23640953485310751 0 0.41612672436959858 -0.22382622337581301 0 0.42988092584916948 -0.2249579995083304 0 0.43458399188612801 -0.2397076170126072 0 0.44416109061426973 -0.22983272991065171 0 0.43458399188612801 -0.2397076170126072 0 0.42656562700980838 -0.24831468624349931 0 0.4372088962240912 -0.25169219704383999 0 0.43458399188612801 -0.2397076170126072 0 0.42656562700980838 -0.24831468624349931 0 0.42159465327244361 -0.23640953485310751 0 0.42656562700980838 -0.24831468624349931 0 0.42159465327244361 -0.23640953485310751 0 0.41087794879613182 -0.2494957955088617 0 0.42159465327244361 -0.23640953485310751 0 0.41087794879613182 -0.2494957955088617 0 0.40741230325918792 -0.23450562481703699 0 0.4055308246994358 -0.22407667781788709 0 0.40741230325918792 -0.23450562481703699 0 0.41612672436959858 -0.22382622337581301 0 0.4055308246994358 -0.22407667781788709 0 0.40434357831770951 -0.21487406561090469 0 0.41612672436959858 -0.22382622337581301 0 0.42159465327244361 -0.23640953485310751 0 0.40741230325918792 -0.23450562481703699 0 0.41612672436959858 -0.22382622337581301 0 0.39823574772599779 -0.11763079726210079 0 0.40257569972698831 -0.13396225485532559 0 0.38918813321375051 -0.12739880168557821 0 0.40257569972698831 -0.13396225485532559 0 0.38918813321375051 -0.12739880168557821 0 0.39017348084279901 -0.13955387731924049 0 0.38918813321375051 -0.12739880168557821 0 0.37808333446084269 -0.1309391893982525 0 0.39017348084279901 -0.13955387731924049 0 0.37720890243704291 -0.12310924361699779 0 0.36253108037134668 -0.1248744885805331 0 0.38918813321375051 -0.12739880168557821 0 0.36253108037134668 -0.1248744885805331 0 0.38918813321375051 -0.12739880168557821 0 0.37808333446084269 -0.1309391893982525 0 0.36253108037134668 -0.1248744885805331 0 0.38918813321375051 -0.12739880168557821 0 0.37808333446084269 -0.1309391893982525 0 0.39017348084279901 -0.13955387731924049 0 0.3787995421462832 -0.1425544525875144 0 0.36858459771950869 -0.15733985743645959 0 0.3787995421462832 -0.1425544525875144 0 0.38535727780346091 -0.1527557998392445 0 0.39017348084279901 -0.13955387731924049 0 0.3787995421462832 -0.1425544525875144 0 0.38535727780346091 -0.1527557998392445 0 0.40257569972698831 -0.13396225485532559 0 0.39822107621443897 -0.1501202070538992 0 0.41732028123257531 -0.14286435439753159 0 0.40257569972698831 -0.13396225485532559 0 0.39017348084279901 -0.13955387731924049 0 0.39822107621443897 -0.1501202070538992 0 0.39017348084279901 -0.13955387731924049 0 0.38535727780346091 -0.1527557998392445 0 0.39822107621443897 -0.1501202070538992 0 0.39822107621443897 -0.1501202070538992 0 0.39107178753907162 -0.16851380255406381 0 0.40713652226246821 -0.16744863749245631 0 0.39107178753907162 -0.16851380255406381 0 0.40713652226246821 -0.16744863749245631 0 0.38535727780346091 -0.1527557998392445 0 0.39822107621443897 -0.1501202070538992 0 0.39107178753907162 -0.16851380255406381 0 0.39107178753907162 -0.16851380255406381 0 0.40460499843718001 -0.17902112385493851 0 0.40713652226246821 -0.16744863749245631 0 0.36858459771950869 -0.15733985743645959 0 0.38535727780346091 -0.1527557998392445 0 0.39107178753907162 -0.16851380255406381 0 0.36858459771950869 -0.15733985743645959 0 0.39107178753907162 -0.16851380255406381 0 0.3834788620725188 -0.17954848884060079 0 0.39107178753907162 -0.16851380255406381 0 0.3834788620725188 -0.17954848884060079 0 0.39510197637232292 -0.1839605883432579 0 0.39078770323730427 -0.19674260859680251 0 0.3834788620725188 -0.17954848884060079 0 0.39510197637232292 -0.1839605883432579 0 0.37064833187319962 -0.1852102762359614 0 0.39078770323730427 -0.19674260859680251 0 0.3834788620725188 -0.17954848884060079 0 0.39107178753907162 -0.16851380255406381 0 0.39510197637232292 -0.1839605883432579 0 0.40460499843718001 -0.17902112385493851 0 0.40475141021500721 -0.1910589369573561 0 0.39510197637232292 -0.1839605883432579 0 0.40460499843718001 -0.17902112385493851 0 0.40475141021500721 -0.1910589369573561 0 0.40460499843718001 -0.17902112385493851 0 0.4146572714410397 -0.186958864794112 0 0.40460499843718001 -0.17902112385493851 0 0.41491102279317088 -0.17618591298838529 0 0.4146572714410397 -0.186958864794112 0 0.40460499843718001 -0.17902112385493851 0 0.41491102279317088 -0.17618591298838529 0 0.40713652226246821 -0.16744863749245631 0 0.41491102279317088 -0.17618591298838529 0 0.42527009306055918 -0.1746571334479238 0 0.4232012569858648 -0.16638347243084889 0 0.41491102279317088 -0.17618591298838529 0 0.42095079563492938 -0.18072636251124541 0 0.42527009306055918 -0.1746571334479238 0 0.41491102279317088 -0.17618591298838529 0 0.42095079563492938 -0.18072636251124541 0 0.4146572714410397 -0.186958864794112 0 0.42095079563492938 -0.18072636251124541 0 0.4146572714410397 -0.186958864794112 0 0.42558338933545942 -0.1867115165846317 0 0.43180268423531071 -0.1802632517690351 0 0.42527009306055918 -0.1746571334479238 0 0.44880083799057491 -0.164686103644653 0 0.42095079563492938 -0.18072636251124541 0 0.42558338933545942 -0.1867115165846317 0 0.43180268423531071 -0.1802632517690351 0 0.42558338933545942 -0.1867115165846317 0 0.43180268423531071 -0.1802632517690351 0 0.43844209377108118 -0.18689286854296691 0 0.42095079563492938 -0.18072636251124541 0 0.43180268423531071 -0.1802632517690351 0 0.42527009306055918 -0.1746571334479238 0 0.42527009306055918 -0.1746571334479238 0 0.4232012569858648 -0.16638347243084889 0 0.44880083799057491 -0.164686103644653 0 0.4232012569858648 -0.16638347243084889 0 0.43334283997313311 -0.15135273030925811 0 0.44880083799057491 -0.164686103644653 0 0.4232012569858648 -0.16638347243084889 0 0.44880083799057491 -0.164686103644653 0 0.42527009306055918 -0.1746571334479238 0 0.4232012569858648 -0.16638347243084889 0 0.4232012569858648 -0.16638347243084889 0 0.40713652226246821 -0.16744863749245631 0 0.41732028123257531 -0.14286435439753159 0 0.41491102279317088 -0.17618591298838529 0 0.4232012569858648 -0.16638347243084889 0 0.40713652226246821 -0.16744863749245631 0 0.4232012569858648 -0.16638347243084889 0 0.40713652226246821 -0.16744863749245631 0 0.4232012569858648 -0.16638347243084889 0 0.41732028123257531 -0.14286435439753159 0 0.39822107621443897 -0.1501202070538992 0 0.40713652226246821 -0.16744863749245631 0 0.41732028123257531 -0.14286435439753159 0 0.41732028123257531 -0.14286435439753159 0 0.43334283997313311 -0.15135273030925811 0 0.43763345530417341 -0.13584027725706749 0 0.4232012569858648 -0.16638347243084889 0 0.41732028123257531 -0.14286435439753159 0 0.43334283997313311 -0.15135273030925811 0 0.42916935431308728 -0.1205456085246996 0 0.41732028123257531 -0.14286435439753159 0 0.43763345530417341 -0.13584027725706749 0 0.42916935431308728 -0.1205456085246996 0 0.4435038969132965 -0.12540022695152131 0 0.43763345530417341 -0.13584027725706749 0 0.41143930547928681 -0.11934523636421419 0 0.42916935431308728 -0.1205456085246996 0 0.41732028123257531 -0.14286435439753159 0 0.41143930547928681 -0.11934523636421419 0 0.40257569972698831 -0.13396225485532559 0 0.41732028123257531 -0.14286435439753159 0 0.41143930547928681 -0.11934523636421419 0 0.41732028123257531 -0.14286435439753159 0 0.46257396642688631 -0.12529077885077469 0 0.46381730130484328 -0.1363472541609663 0 0.4585659370706795 -0.1308283620105129 0 0.46381730130484328 -0.1363472541609663 0 0.4585659370706795 -0.1308283620105129 0 0.45274550479158487 -0.1345999168850856 0 0.46381730130484328 -0.1363472541609663 0 0.45274550479158487 -0.1345999168850856 0 0.46138481906560302 -0.14686228775601681 0 0.46257396642688631 -0.12529077885077469 0 0.4585659370706795 -0.1308283620105129 0 0.45239247298790419 -0.125419693033265 0 0.4585659370706795 -0.1308283620105129 0 0.45239247298790419 -0.125419693033265 0 0.45274550479158487 -0.1345999168850856 0 0.45239247298790419 -0.125419693033265 0 0.4435038969132965 -0.12540022695152131 0 0.45274550479158487 -0.1345999168850856 0 0.4435038969132965 -0.12540022695152131 0 0.43763345530417341 -0.13584027725706749 0 0.45274550479158487 -0.1345999168850856 0 0.43763345530417341 -0.13584027725706749 0 0.45274550479158487 -0.1345999168850856 0 0.44678149142501389 -0.1466682631704162 0 0.43334283997313311 -0.15135273030925811 0 0.44678149142501389 -0.1466682631704162 0 0.44880083799057491 -0.164686103644653 0 0.44678149142501389 -0.1466682631704162 0 0.46138481906560302 -0.14686228775601681 0 0.44880083799057491 -0.164686103644653 0 0.43334283997313311 -0.15135273030925811 0 0.43763345530417341 -0.13584027725706749 0 0.44678149142501389 -0.1466682631704162 0 0.45274550479158487 -0.1345999168850856 0 0.44678149142501389 -0.1466682631704162 0 0.46138481906560302 -0.14686228775601681 0 0.46138481906560302 -0.14686228775601681 0 0.44880083799057491 -0.164686103644653 0 0.47440041899528501 -0.16298873485845719 0 0.44880083799057491 -0.164686103644653 0 0.46834799031954211 -0.17915452781490099 0 0.47440041899528501 -0.16298873485845719 0 0.44880083799057491 -0.164686103644653 0 0.47440041899528501 -0.16298873485845719 0 0.43180268423531071 -0.1802632517690351 0 0.44880083799057491 -0.164686103644653 0 0.43844209377108118 -0.18689286854296691 0 0.44880083799057491 -0.164686103644653 0 0.43844209377108118 -0.18689286854296691 0 0.45508032593701309 -0.1914137801830845 0 0.44880083799057491 -0.164686103644653 0 0.46834799031954211 -0.17915452781490099 0 0.45508032593701309 -0.1914137801830845 0 0.46834799031954211 -0.17915452781490099 0 0.48419704391512092 -0.17843144908975531 0 0.47440041899528501 -0.16298873485845719 0 0.46834799031954211 -0.17915452781490099 0 0.48419704391512092 -0.17843144908975531 0 0.47823681026078202 -0.19812675643970101 0 0.48419704391512092 -0.17843144908975531 0 0.49999999999999523 -0.16129136607226169 0 0.5 -0.1905958602634561 0 0.49999999999999523 -0.16129136607226169 0 0.47440041899528501 -0.16298873485845719 0 0.50000000000000067 -0.1547763741112759 0 0.48419704391512092 -0.17843144908975531 0 0.49999999999999523 -0.16129136607226169 0 0.47440041899528501 -0.16298873485845719 0 0.49999999999999523 -0.16129136607226169 0 0.47440041899528501 -0.16298873485845719 0 0.46138481906560302 -0.14686228775601681 0 0.47440041899528501 -0.16298873485845719 0 0.48128698321344371 -0.14003357648102521 0 0.46381730130484328 -0.1363472541609663 0 0.46138481906560302 -0.14686228775601681 0 0.48128698321344371 -0.14003357648102521 0 0.50000000000000067 -0.1547763741112759 0 0.48128698321344371 -0.14003357648102521 0 0.50000000000000067 -0.1547763741112759 0 0.5 -0.13349841451636779 0 0.48128698321344371 -0.14003357648102521 0 0.47440041899528501 -0.16298873485845719 0 0.50000000000000067 -0.1547763741112759 0 0.48128698321344371 -0.14003357648102521 0 0.48087269318342413 -0.1216818802472065 0 0.5 -0.13349841451636779 0 0.48128698321344371 -0.14003357648102521 0 0.46257396642688631 -0.12529077885077469 0 0.48128698321344371 -0.14003357648102521 0 0.46257396642688631 -0.12529077885077469 0 0.46381730130484328 -0.1363472541609663 0 0.48128698321344371 -0.14003357648102521 0 0.47129126618897188 -0.1223351355815797 0 0.48087269318342413 -0.1216818802472065 0 0.48128698321344371 -0.14003357648102521 0 0.47129126618897188 -0.1223351355815797 0 0.46257396642688631 -0.12529077885077469 0 0.48128698321344371 -0.14003357648102521 0 0.46029750420545162 -0.23134667767863379 0 0.45079963313025367 -0.219495204315066 0 0.46126535540865482 -0.21094244298034759 0 0.46029750420545162 -0.23134667767863379 0 0.46126535540865482 -0.21094244298034759 0 0.47937109712497578 -0.22608105856418539 0 0.46029750420545162 -0.23134667767863379 0 0.44856132313442931 -0.24393079079591279 0 0.47387431588802909 -0.25499376211151131 0 0.46029750420545162 -0.23134667767863379 0 0.44856132313442931 -0.24393079079591279 0 0.44416109061426973 -0.22983272991065171 0 0.43458399188612801 -0.2397076170126072 0 0.44856132313442931 -0.24393079079591279 0 0.4372088962240912 -0.25169219704383999 0 0.43458399188612801 -0.2397076170126072 0 0.44856132313442931 -0.24393079079591279 0 0.44416109061426973 -0.22983272991065171 0 0.46029750420545162 -0.23134667767863379 0 0.44416109061426973 -0.22983272991065171 0 0.45079963313025367 -0.219495204315066 0 0.44416109061426973 -0.22983272991065171 0 0.45079963313025367 -0.219495204315066 0 0.44009267276725389 -0.2176624614444449 0 0.42988092584916948 -0.2249579995083304 0 0.44416109061426973 -0.22983272991065171 0 0.44009267276725389 -0.2176624614444449 0 0.45079963313025367 -0.219495204315066 0 0.44355474576021348 -0.2050869029196882 0 0.46126535540865482 -0.21094244298034759 0 0.43006687167525981 -0.21185300334864521 0 0.44009267276725389 -0.2176624614444449 0 0.44355474576021348 -0.2050869029196882 0 0.45079963313025367 -0.219495204315066 0 0.44009267276725389 -0.2176624614444449 0 0.44355474576021348 -0.2050869029196882 0 0.43844209377108118 -0.18689286854296691 0 0.44355474576021348 -0.2050869029196882 0 0.45508032593701309 -0.1914137801830845 0 0.46834799031954211 -0.17915452781490099 0 0.45508032593701309 -0.1914137801830845 0 0.47823681026078202 -0.19812675643970101 0 0.44355474576021348 -0.2050869029196882 0 0.45508032593701309 -0.1914137801830845 0 0.46126535540865482 -0.21094244298034759 0 0.45508032593701309 -0.1914137801830845 0 0.46126535540865482 -0.21094244298034759 0 0.47823681026078202 -0.19812675643970101 0 0.46126535540865482 -0.21094244298034759 0 0.47823681026078202 -0.19812675643970101 0 0.47937109712497578 -0.22608105856418539 0 0.48419704391512092 -0.17843144908975531 0 0.47823681026078202 -0.19812675643970101 0 0.5 -0.1905958602634561 0 0.47823681026078202 -0.19812675643970101 0 0.5 -0.1905958602634561 0 0.5 -0.21990035445465039 0 0.47823681026078202 -0.19812675643970101 0 0.5 -0.21990035445465039 0 0.47937109712497578 -0.22608105856418539 0 0.5 -0.21990035445465039 0 0.47937109712497578 -0.22608105856418539 0 0.50000000000000444 -0.24920484864584491 0 0.46029750420545162 -0.23134667767863379 0 0.47937109712497578 -0.22608105856418539 0 0.47387431588802909 -0.25499376211151131 0 0.47937109712497578 -0.22608105856418539 0 0.50000000000000444 -0.24920484864584491 0 0.47387431588802909 -0.25499376211151131 0 0.50000000000000444 -0.24920484864584491 0 0.4915669900217115 -0.25615479242606781 0 0.5 -0.27170772691138367 0 0.50000000000000444 -0.24920484864584491 0 0.4915669900217115 -0.25615479242606781 0 0.47387431588802909 -0.25499376211151131 0 0.50000000000000444 -0.24920484864584491 0 0.47387431588802909 -0.25499376211151131 0 0.4915669900217115 -0.25615479242606781 0 0.48280749151585822 -0.27129304150170008 0 0.47954864786353962 -0.26301133191085868 0 0.4915669900217115 -0.25615479242606781 0 0.5 -0.27170772691138367 0 0.48280749151585822 -0.27129304150170008 0 0.5 -0.27170772691138367 0 0.48280749151585822 -0.27129304150170008 0 0.48951500520952212 -0.28458010338455908 0 0.48280749151585822 -0.27129304150170008 0 0.47474596181800061 -0.28621450290334632 0 0.48951500520952212 -0.28458010338455908 0 0.48280749151585822 -0.27129304150170008 0 0.47416229901770612 -0.26612875971404459 0 0.47954864786353962 -0.26301133191085868 0 0.48280749151585822 -0.27129304150170008 0 0.47416229901770612 -0.26612875971404459 0 0.47052118473631321 -0.27447720361836658 0 0.47416229901770612 -0.26612875971404459 0 0.47052118473631321 -0.27447720361836658 0 0.46319689217890331 -0.26835660325056299 0 0.48280749151585822 -0.27129304150170008 0 0.47052118473631321 -0.27447720361836658 0 0.47474596181800061 -0.28621450290334632 0 0.4915669900217115 -0.25615479242606781 0 0.46965781089888248 -0.25846873400162218 0 0.4915669900217115 -0.25615479242606781 0 0.47387431588802909 -0.25499376211151131 0 0.46965781089888248 -0.25846873400162218 0 0.4915669900217115 -0.25615479242606781 0 0.47954864786353962 -0.26301133191085868 0 0.46965781089888248 -0.25846873400162218 0 0.47416229901770612 -0.26612875971404459 0 0.47954864786353962 -0.26301133191085868 0 0.46965781089888248 -0.25846873400162218 0 0.47416229901770612 -0.26612875971404459 0 0.46965781089888248 -0.25846873400162218 0 0.46319689217890331 -0.26835660325056299 0 0.46965781089888248 -0.25846873400162218 0 0.46319689217890331 -0.26835660325056299 0 0.4477486317760534 -0.26078267557717671 0 0.44856132313442931 -0.24393079079591279 0 0.47387431588802909 -0.25499376211151131 0 0.4477486317760534 -0.26078267557717671 0 0.47387431588802909 -0.25499376211151131 0 0.4477486317760534 -0.26078267557717671 0 0.46965781089888248 -0.25846873400162218 0 0.4477486317760534 -0.26078267557717671 0 0.47387431588802909 -0.25499376211151131 0 0.46965781089888248 -0.25846873400162218 0 0.4477486317760534 -0.26078267557717671 0 0.47052118473631321 -0.27447720361836658 0 0.45389453446556111 -0.28192564334160541 0 0.47474596181800061 -0.28621450290334632 0 0.47052118473631321 -0.27447720361836658 0 0.46319689217890331 -0.26835660325056299 0 0.45389453446556111 -0.28192564334160541 0 0.46319689217890331 -0.26835660325056299 0 0.4477486317760534 -0.26078267557717671 0 0.45389453446556111 -0.28192564334160541 0 0.45389453446556111 -0.28192564334160541 0 0.430823863629894 -0.26453285558412298 0 0.45389453446556111 -0.28192564334160541 0 0.430823863629894 -0.26453285558412298 0 0.43570592202634773 -0.28205449164250063 0 0.4477486317760534 -0.26078267557717671 0 0.45389453446556111 -0.28192564334160541 0 0.430823863629894 -0.26453285558412298 0 0.4477486317760534 -0.26078267557717671 0 0.42854038242645709 -0.26281135800815408 0 0.44856132313442931 -0.24393079079591279 0 0.4477486317760534 -0.26078267557717671 0 0.4372088962240912 -0.25169219704383999 0 0.4477486317760534 -0.26078267557717671 0 0.42854038242645709 -0.26281135800815408 0 0.4372088962240912 -0.25169219704383999 0 0.4477486317760534 -0.26078267557717671 0 0.430823863629894 -0.26453285558412298 0 0.44815314542162782 -0.30273998798419938 0 0.44271266904340639 -0.31513600928105973 0 0.43092107089682352 -0.30573631325696571 0 0.44815314542162782 -0.30273998798419938 0 0.43874415768382158 -0.29310671547163403 0 0.43092107089682352 -0.30573631325696571 0 0.43874415768382158 -0.29310671547163403 0 0.45389453446556111 -0.28192564334160541 0 0.43570592202634773 -0.28205449164250063 0 0.44815314542162782 -0.30273998798419938 0 0.43874415768382158 -0.29310671547163403 0 0.45389453446556111 -0.28192564334160541 0 0.45389453446556111 -0.28192564334160541 0 0.46668010371271101 -0.29937682325086112 0 0.47474596181800061 -0.28621450290334632 0 0.44815314542162782 -0.30273998798419938 0 0.45389453446556111 -0.28192564334160541 0 0.46668010371271101 -0.29937682325086112 0 0.46668010371271101 -0.29937682325086112 0 0.45907432653114449 -0.32014896664993769 0 0.44815314542162782 -0.30273998798419938 0 0.46668010371271101 -0.29937682325086112 0 0.45907432653114449 -0.32014896664993769 0 0.46668010371271101 -0.29937682325086112 0 0.48375110351916628 -0.30725513966339157 0 0.45907432653114449 -0.32014896664993769 0 0.46668010371271101 -0.29937682325086112 0 0.48375110351916628 -0.30725513966339157 0 0.47474596181800061 -0.28621450290334632 0 0.48375110351916628 -0.30725513966339157 0 0.47474596181800061 -0.28621450290334632 0 0.48951500520952212 -0.28458010338455908 0 0.48375110351916628 -0.30725513966339157 0 0.5 -0.29421060517692271 0 0.48951500520952212 -0.28458010338455908 0 0.5 -0.27170772691138367 0 0.5 -0.29421060517692271 0 0.48951500520952212 -0.28458010338455908 0 0.48375110351916628 -0.30725513966339157 0 0.5 -0.29421060517692271 0 0.49999999999999972 -0.31671348344246159 0 0.48375110351916628 -0.30725513966339157 0 0.49999999999999972 -0.31671348344246159 0 0.48658745812515303 -0.32591538654610069 0 0.49999999999999972 -0.31671348344246159 0 0.49107839048707969 -0.33844651150006611 0 0.49999999999999972 -0.31671348344246159 0 0.48658745812515303 -0.32591538654610069 0 0.49107839048707969 -0.33844651150006611 0 0.49999999999999972 -0.31671348344246159 0 0.5 -0.34354646621870782 0 0.49107839048707969 -0.33844651150006611 0 0.48658745812515303 -0.32591538654610069 0 0.49107839048707969 -0.33844651150006611 0 0.48013111160135669 -0.33592777501669763 0 0.48658745812515303 -0.32591538654610069 0 0.48013111160135669 -0.33592777501669763 0 0.47588582758327369 -0.32632043512378739 0 0.48013111160135669 -0.33592777501669763 0 0.46883970942210401 -0.33989811375075968 0 0.47588582758327369 -0.32632043512378739 0 0.48375110351916628 -0.30725513966339157 0 0.48658745812515303 -0.32591538654610069 0 0.47588582758327369 -0.32632043512378739 0 0.48375110351916628 -0.30725513966339157 0 0.47588582758327369 -0.32632043512378739 0 0.45907432653114449 -0.32014896664993769 0 0.5 -0.37037944899495368 0 0.48466784746851571 -0.3739080713738358 0 0.48215678097416009 -0.36017953955767068 0 0.5 -0.34354646621870782 0 0.49107839048707969 -0.33844651150006611 0 0.48215678097416009 -0.36017953955767068 0 0.49107839048707969 -0.33844651150006611 0 0.48013111160135669 -0.33592777501669763 0 0.48215678097416009 -0.36017953955767068 0 0.5 -0.34354646621870782 0 0.5 -0.37037944899495368 0 0.48215678097416009 -0.36017953955767068 0 0.49107839048707969 -0.33844651150006611 0 0.48215678097416009 -0.36017953955767068 0 0.48013111160135669 -0.33592777501669763 0 0.46883970942210401 -0.33989811375075968 0 0.48215678097416009 -0.36017953955767068 0 0.46883970942210401 -0.33989811375075968 0 0.48215678097416009 -0.36017953955767068 0 0.46166172922915721 -0.35810144835948332 0 0.48215678097416009 -0.36017953955767068 0 0.47323517146124039 -0.38191256761527542 0 0.48215678097416009 -0.36017953955767068 0 0.4671179630262795 -0.37324494563770522 0 0.47323517146124039 -0.38191256761527542 0 0.48466784746851571 -0.3739080713738358 0 0.48215678097416009 -0.36017953955767068 0 0.47323517146124039 -0.38191256761527542 0 0.48215678097416009 -0.36017953955767068 0 0.4671179630262795 -0.37324494563770522 0 0.46166172922915721 -0.35810144835948332 0 0.45652460043480969 -0.37267172771365881 0 0.46166172922915721 -0.35810144835948332 0 0.44386277216801179 -0.36169325344809122 0 0.45652460043480969 -0.37267172771365881 0 0.4671179630262795 -0.37324494563770522 0 0.46166172922915721 -0.35810144835948332 0 0.46883970942210401 -0.33989811375075968 0 0.46166172922915721 -0.35810144835948332 0 0.45146854934957792 -0.34092111004901438 0 0.43963091224731599 -0.34751792105314822 0 0.44386277216801179 -0.36169325344809122 0 0.45146854934957792 -0.34092111004901438 0 0.44386277216801179 -0.36169325344809122 0 0.45146854934957792 -0.34092111004901438 0 0.46166172922915721 -0.35810144835948332 0 0.44386277216801179 -0.36169325344809122 0 0.45146854934957792 -0.34092111004901438 0 0.44386277216801179 -0.36169325344809122 0 0.43376943787959182 -0.36708850497004442 0 0.43808065797110041 -0.37748478958974491 0 0.45652460043480969 -0.37267172771365881 0 0.44386277216801179 -0.36169325344809122 0 0.44783900322824399 -0.38008781189722518 0 0.44386277216801179 -0.36169325344809122 0 0.43808065797110041 -0.37748478958974491 0 0.44386277216801179 -0.36169325344809122 0 0.43808065797110041 -0.37748478958974491 0 0.44783900322824399 -0.38008781189722518 0 0.45652460043480969 -0.37267172771365881 0 0.44386277216801179 -0.36169325344809122 0 0.46883970942210401 -0.33989811375075968 0 0.45907432653114449 -0.32014896664993769 0 0.45146854934957792 -0.34092111004901438 0 0.45907432653114449 -0.32014896664993769 0 0.45146854934957792 -0.34092111004901438 0 0.46883970942210401 -0.33989811375075968 0 0.47588582758327369 -0.32632043512378739 0 0.45907432653114449 -0.32014896664993769 0 0.43963091224731599 -0.34751792105314822 0 0.45146854934957792 -0.34092111004901438 0 0.43565299676263758 -0.3352386806192425 0 0.45146854934957792 -0.34092111004901438 0 0.44493724809618768 -0.32603283426431229 0 0.43565299676263758 -0.3352386806192425 0 0.45907432653114449 -0.32014896664993769 0 0.45146854934957792 -0.34092111004901438 0 0.44493724809618768 -0.32603283426431229 0 0.45907432653114449 -0.32014896664993769 0 0.44493724809618768 -0.32603283426431229 0 0.44271266904340639 -0.31513600928105973 0 0.44493724809618768 -0.32603283426431229 0 0.44271266904340639 -0.31513600928105973 0 0.43047755427124879 -0.32102194424988317 0 0.44815314542162782 -0.30273998798419938 0 0.45907432653114449 -0.32014896664993769 0 0.44271266904340639 -0.31513600928105973 0 0.44271266904340639 -0.31513600928105973 0 0.43047755427124879 -0.32102194424988317 0 0.43092107089682352 -0.30573631325696571 0 0.43047755427124879 -0.32102194424988317 0 0.41919911313656122 -0.31385112706466711 0 0.41739686236043672 -0.32199345155319897 0 0.43047755427124879 -0.32102194424988317 0 0.41919911313656122 -0.31385112706466711 0 0.43092107089682352 -0.30573631325696571 0 0.43047755427124879 -0.32102194424988317 0 0.42053718701310799 -0.32957674384091618 0 0.41739686236043672 -0.32199345155319897 0 0.44493724809618768 -0.32603283426431229 0 0.43047755427124879 -0.32102194424988317 0 0.43565299676263758 -0.3352386806192425 0 0.43565299676263758 -0.3352386806192425 0 0.42053718701310799 -0.32957674384091618 0 0.4250793590774925 -0.34540704162396091 0 0.43963091224731599 -0.34751792105314822 0 0.43565299676263758 -0.3352386806192425 0 0.4250793590774925 -0.34540704162396091 0 0.43047755427124879 -0.32102194424988317 0 0.43565299676263758 -0.3352386806192425 0 0.42053718701310799 -0.32957674384091618 0 0.4062959459869725 -0.32912082979983148 0 0.4250793590774925 -0.34540704162396091 0 0.41055923831377589 -0.34398547157316572 0 0.42053718701310799 -0.32957674384091618 0 0.4062959459869725 -0.32912082979983148 0 0.4250793590774925 -0.34540704162396091 0 0.4062959459869725 -0.32912082979983148 0 0.4250793590774925 -0.34540704162396091 0 0.42053718701310799 -0.32957674384091618 0 0.4062959459869725 -0.32912082979983148 0 0.40802480504278882 -0.32457497099322458 0 0.4062959459869725 -0.32912082979983148 0 0.40802480504278882 -0.32457497099322458 0 0.4062959459869725 -0.32912082979983148 0 0.40802480504278882 -0.32457497099322458 0 0.40572459905769331 -0.31910551143285631 0 0.40802480504278882 -0.32457497099322458 0 0.4119015194344513 -0.31818912214386269 0 0.41739686236043672 -0.32199345155319897 0 0.40802480504278882 -0.32457497099322458 0 0.4119015194344513 -0.31818912214386269 0 0.40572459905769331 -0.31910551143285631 0 0.4119015194344513 -0.31818912214386269 0 0.41919911313656122 -0.31385112706466711 0 0.40916221757477672 -0.31142054967536659 0 0.4119015194344513 -0.31818912214386269 0 0.40572459905769331 -0.31910551143285631 0 0.40916221757477672 -0.31142054967536659 0 0.4119015194344513 -0.31818912214386269 0 0.41919911313656122 -0.31385112706466711 0 0.41739686236043672 -0.32199345155319897 0 0.42053718701310799 -0.32957674384091618 0 0.40802480504278882 -0.32457497099322458 0 0.41739686236043672 -0.32199345155319897 0 0.44386277216801179 -0.36169325344809122 0 0.43376943787959182 -0.36708850497004442 0 0.42728564025893462 -0.35958684797927032 0 0.42489657602010461 -0.37065940299189432 0 0.43376943787959182 -0.36708850497004442 0 0.43808065797110041 -0.37748478958974491 0 0.42489657602010461 -0.37065940299189432 0 0.43376943787959182 -0.36708850497004442 0 0.42728564025893462 -0.35958684797927032 0 0.44386277216801179 -0.36169325344809122 0 0.4250793590774925 -0.34540704162396091 0 0.43963091224731599 -0.34751792105314822 0 0.44386277216801179 -0.36169325344809122 0 0.4250793590774925 -0.34540704162396091 0 0.44386277216801179 -0.36169325344809122 0 0.42728564025893462 -0.35958684797927032 0 0.4250793590774925 -0.34540704162396091 0 0.42728564025893462 -0.35958684797927032 0 0.4250793590774925 -0.34540704162396091 0 0.41069622259092692 -0.35617360609135817 0 0.4250793590774925 -0.34540704162396091 0 0.41055923831377589 -0.34398547157316572 0 0.41069622259092692 -0.35617360609135817 0 0.41055923831377589 -0.34398547157316572 0 0.41069622259092692 -0.35617360609135817 0 0.40016542559971202 -0.34524040877751239 0 0.42489657602010461 -0.37065940299189432 0 0.42728564025893462 -0.35958684797927032 0 0.41069622259092692 -0.35617360609135817 0 0.42489657602010461 -0.37065940299189432 0 0.41069622259092692 -0.35617360609135817 0 0.4070765621089808 -0.37107032214525337 0 0.42489657602010461 -0.37065940299189432 0 0.41069622259092692 -0.35617360609135817 0 0.39585190457779329 -0.37201308858561799 0 0.3940349052124521 -0.36135998775519362 0 0.38601585554704992 -0.38244526212700758 0 0.41069622259092692 -0.35617360609135817 0 0.4070765621089808 -0.37107032214525337 0 0.3940349052124521 -0.36135998775519362 0 0.4070765621089808 -0.37107032214525337 0 0.39585190457779329 -0.37201308858561799 0 0.3940349052124521 -0.36135998775519362 0 0.39585190457779329 -0.37201308858561799 0 0.3940349052124521 -0.36135998775519362 0 0.3940349052124521 -0.36135998775519362 0 0.40016542559971202 -0.34524040877751239 0 0.38974443050024338 -0.33620485529262373 0 0.3940349052124521 -0.36135998775519362 0 0.38974443050024338 -0.33620485529262373 0 0.3940349052124521 -0.36135998775519362 0 0.40016542559971202 -0.34524040877751239 0 0.41069622259092692 -0.35617360609135817 0 0.3940349052124521 -0.36135998775519362 0 0.40016542559971202 -0.34524040877751239 0 0.3940349052124521 -0.36135998775519362 0 0.38974443050024338 -0.33620485529262373 0 0.37368731816096312 -0.34897020548070451 0 0.3940349052124521 -0.36135998775519362 0 0.38601585554704992 -0.38244526212700758 0 0.3940349052124521 -0.36135998775519362 0 0.38601585554704992 -0.38244526212700758 0 0.3689120952668708 -0.37284951495870189 0 0.3940349052124521 -0.36135998775519362 0 0.3689120952668708 -0.37284951495870189 0 0.37368731816096312 -0.34897020548070451 0 0.4062959459869725 -0.32912082979983148 0 0.40572459905769331 -0.31910551143285631 0 0.39816778062817881 -0.31191488097197773 0 0.4062959459869725 -0.32912082979983148 0 0.38974443050024338 -0.33620485529262373 0 0.38545395578803499 -0.31104972283005378 0 0.4062959459869725 -0.32912082979983148 0 0.38545395578803499 -0.31104972283005378 0 0.4062959459869725 -0.32912082979983148 0 0.38545395578803499 -0.31104972283005378 0 0.39816778062817881 -0.31191488097197773 0 0.40572459905769331 -0.31910551143285631 0 0.39816778062817881 -0.31191488097197773 0 0.40916221757477672 -0.31142054967536659 0 0.4062959459869725 -0.32912082979983148 0 0.40016542559971202 -0.34524040877751239 0 0.38974443050024338 -0.33620485529262373 0 0.4062959459869725 -0.32912082979983148 0 0.40016542559971202 -0.34524040877751239 0 0.4062959459869725 -0.32912082979983148 0 0.41055923831377589 -0.34398547157316572 0 0.40016542559971202 -0.34524040877751239 0 0.38974443050024338 -0.33620485529262373 0 0.36945761595668469 -0.32738841673247931 0 0.37368731816096312 -0.34897020548070451 0 0.38974443050024338 -0.33620485529262373 0 0.38545395578803499 -0.31104972283005378 0 0.36945761595668469 -0.32738841673247931 0 0.38974443050024338 -0.33620485529262373 0 0.38545395578803499 -0.31104972283005378 0 0.38545395578803499 -0.31104972283005378 0 0.38245755150739558 -0.29348174920317632 0 0.37101427446782781 -0.29852975601036341 0 0.38545395578803499 -0.31104972283005378 0 0.38245755150739558 -0.29348174920317632 0 0.38545395578803499 -0.31104972283005378 0 0.37101427446782781 -0.29852975601036341 0 0.38545395578803499 -0.31104972283005378 0 0.39567659353887108 -0.29306988619604551 0 0.38245755150739558 -0.29348174920317632 0 0.39816778062817881 -0.31191488097197773 0 0.40563314249086863 -0.30155395497769039 0 0.39567659353887108 -0.29306988619604551 0 0.38545395578803499 -0.31104972283005378 0 0.39816778062817881 -0.31191488097197773 0 0.39567659353887108 -0.29306988619604551 0 0.39816778062817881 -0.31191488097197773 0 0.40563314249086863 -0.30155395497769039 0 0.40916221757477672 -0.31142054967536659 0 0.39567659353887108 -0.29306988619604551 0 0.40514250542832608 -0.27022331558021301 0 0.41160024963212011 -0.28933460066763711 0 0.40563314249086863 -0.30155395497769039 0 0.39567659353887108 -0.29306988619604551 0 0.41160024963212011 -0.28933460066763711 0 0.38245755150739558 -0.29348174920317632 0 0.37946114722675722 -0.27591377557629859 0 0.39567659353887108 -0.29306988619604551 0 0.38245755150739558 -0.29348174920317632 0 0.37946114722675722 -0.27591377557629859 0 0.38245755150739558 -0.29348174920317632 0 0.37795999762798671 -0.28395322059410122 0 0.37946114722675722 -0.27591377557629859 0 0.37519981906117678 -0.29055939022370142 0 0.38245755150739558 -0.29348174920317632 0 0.37101427446782781 -0.29852975601036341 0 0.37519981906117678 -0.29055939022370142 0 0.38245755150739558 -0.29348174920317632 0 0.37795999762798671 -0.28395322059410122 0 0.37795999762798671 -0.28395322059410122 0 0.37946114722675722 -0.27591377557629859 0 0.37739853904771847 -0.27637080706343392 0 0.37739853904771847 -0.27637080706343392 0 0.37683953433427181 -0.26882153263446662 0 0.37273728942595791 -0.27740364396778311 0 0.37795999762798671 -0.28395322059410122 0 0.37739853904771847 -0.27637080706343392 0 0.37273728942595791 -0.27740364396778311 0 0.37946114722675722 -0.27591377557629859 0 0.38774772661347989 -0.26664574742688191 0 0.3964002279028962 -0.26984905957103239 0 0.37946114722675722 -0.27591377557629859 0 0.3964002279028962 -0.26984905957103239 0 0.37795999762798671 -0.28395322059410122 0 0.37739853904771847 -0.27637080706343392 0 0.37739853904771847 -0.27637080706343392 0 0.37273728942595791 -0.27740364396778311 0 0.37946114722675722 -0.27591377557629859 0 0.37739853904771847 -0.27637080706343392 0 0.37683953433427181 -0.26882153263446662 0 0.37946114722675722 -0.27591377557629859 0 0.37739853904771847 -0.27637080706343392 0 0.37946114722675722 -0.27591377557629859 0 0.37843581040967561 -0.26746760801825881 0 0.38284686623937531 -0.26497045393317709 0 0.37946114722675722 -0.27591377557629859 0 0.37683953433427181 -0.26882153263446662 0 0.37843581040967561 -0.26746760801825881 0 0.37739853904771847 -0.27637080706343392 0 0.37683953433427181 -0.26882153263446662 0 0.37683953433427181 -0.26882153263446662 0 0.37843581040967561 -0.26746760801825881 0 0.37946114722675722 -0.27591377557629859 0 0.38774772661347989 -0.26664574742688191 0 0.38284686623937531 -0.26497045393317709 0 0.37477580018058132 -0.24095111383496479 0 0.37683953433427181 -0.26882153263446662 0 0.38107906364546162 -0.25934379353391329 0 0.37477580018058132 -0.24095111383496479 0 0.37683953433427181 -0.26882153263446662 0 0.37477580018058132 -0.24095111383496479 0 0.38107906364546162 -0.25934379353391329 0 0.38725375881062551 -0.25185160038302579 0 0.37843581040967561 -0.26746760801825881 0 0.38107906364546162 -0.25934379353391329 0 0.38284686623937531 -0.26497045393317709 0 0.37683953433427181 -0.26882153263446662 0 0.37843581040967561 -0.26746760801825881 0 0.38107906364546162 -0.25934379353391329 0 0.38107906364546162 -0.25934379353391329 0 0.38632261189823958 -0.26200045239958702 0 0.38284686623937531 -0.26497045393317709 0 0.38774772661347989 -0.26664574742688191 0 0.38632261189823958 -0.26200045239958702 0 0.38284686623937531 -0.26497045393317709 0 0.38774772661347989 -0.26664574742688191 0 0.38955528694719099 -0.2630172622662057 0 0.39295554709344072 -0.26445586107842978 0 0.38774772661347989 -0.26664574742688191 0 0.38632261189823958 -0.26200045239958702 0 0.38955528694719099 -0.2630172622662057 0 0.38632261189823958 -0.26200045239958702 0 0.38955528694719099 -0.2630172622662057 0 0.39119526218360401 -0.25896698815992442 0 0.38632261189823958 -0.26200045239958702 0 0.38725375881062551 -0.25185160038302579 0 0.39119526218360401 -0.25896698815992442 0 0.38107906364546162 -0.25934379353391329 0 0.38632261189823958 -0.26200045239958702 0 0.38725375881062551 -0.25185160038302579 0 0.40314688718896508 -0.2619981766022052 0 0.39707581272688741 -0.26613449373937459 0 0.41345304600685079 -0.26440480953867462 0 0.39707581272688741 -0.26613449373937459 0 0.41345304600685079 -0.26440480953867462 0 0.38725375881062551 -0.25185160038302579 0 0.39640803358832022 -0.25154779433757402 0 0.39119526218360401 -0.25896698815992442 0 0.39640803358832022 -0.25154779433757402 0 0.39702034872720737 -0.26014738253762237 0 0.39119526218360401 -0.25896698815992442 0 0.39702034872720737 -0.26014738253762237 0 0.39119526218360401 -0.25896698815992442 0 0.39295554709344072 -0.26445586107842978 0 0.38955528694719099 -0.2630172622662057 0 0.39119526218360401 -0.25896698815992442 0 0.39295554709344072 -0.26445586107842978 0 0.39702034872720737 -0.26014738253762237 0 0.39295554709344072 -0.26445586107842978 0 0.39707581272688741 -0.26613449373937459 0 0.39702034872720737 -0.26014738253762237 0 0.40314688718896508 -0.2619981766022052 0 0.39707581272688741 -0.26613449373937459 0 0.40314688718896508 -0.2619981766022052 0 0.40257909468765629 -0.25704117102420471 0 0.40998094690083942 -0.2590606397541646 0 0.39702034872720737 -0.26014738253762237 0 0.40314688718896508 -0.2619981766022052 0 0.40257909468765629 -0.25704117102420471 0 0.39640803358832022 -0.25154779433757402 0 0.39702034872720737 -0.26014738253762237 0 0.40257909468765629 -0.25704117102420471 0 0.41087794879613182 -0.2494957955088617 0 0.39640803358832022 -0.25154779433757402 0 0.40257909468765629 -0.25704117102420471 0 0.40514250542832608 -0.27022331558021301 0 0.3964002279028962 -0.26984905957103239 0 0.41345304600685079 -0.26440480953867462 0 0.37946114722675722 -0.27591377557629859 0 0.40514250542832608 -0.27022331558021301 0 0.3964002279028962 -0.26984905957103239 0 0.39707581272688741 -0.26613449373937459 0 0.3964002279028962 -0.26984905957103239 0 0.41345304600685079 -0.26440480953867462 0 0.37946114722675722 -0.27591377557629859 0 0.40514250542832608 -0.27022331558021301 0 0.3964002279028962 -0.26984905957103239 0 0.41345304600685079 -0.26440480953867462 0 0.39567659353887108 -0.29306988619604551 0 0.37946114722675722 -0.27591377557629859 0 0.40514250542832608 -0.27022331558021301 0 0.38774772661347989 -0.26664574742688191 0 0.39295554709344072 -0.26445586107842978 0 0.3964002279028962 -0.26984905957103239 0 0.39295554709344072 -0.26445586107842978 0 0.39707581272688741 -0.26613449373937459 0 0.3964002279028962 -0.26984905957103239 0 0.40514250542832608 -0.27022331558021301 0 0.41345304600685079 -0.26440480953867462 0 0.430823863629894 -0.26453285558412298 0 0.40514250542832608 -0.27022331558021301 0 0.430823863629894 -0.26453285558412298 0 0.40514250542832608 -0.27022331558021301 0 0.42166373126508722 -0.27984448092147479 0 0.41160024963212011 -0.28933460066763711 0 0.40514250542832608 -0.27022331558021301 0 0.42166373126508722 -0.27984448092147479 0 0.430823863629894 -0.26453285558412298 0 0.41087794879613182 -0.2494957955088617 0 0.41984775782459283 -0.2623632460968765 0 0.42854038242645709 -0.26281135800815408 0 0.41087794879613182 -0.2494957955088617 0 0.42854038242645709 -0.26281135800815408 0 0.41087794879613182 -0.2494957955088617 0 0.40257909468765629 -0.25704117102420471 0 0.40998094690083942 -0.2590606397541646 0 0.41087794879613182 -0.2494957955088617 0 0.40998094690083942 -0.2590606397541646 0 0.41984775782459283 -0.2623632460968765 0 0.40314688718896508 -0.2619981766022052 0 0.40998094690083942 -0.2590606397541646 0 0.41345304600685079 -0.26440480953867462 0 0.41345304600685079 -0.26440480953867462 0 0.41984775782459283 -0.2623632460968765 0 0.42854038242645709 -0.26281135800815408 0 0.40998094690083942 -0.2590606397541646 0 0.41345304600685079 -0.26440480953867462 0 0.41984775782459283 -0.2623632460968765 0 0.41345304600685079 -0.26440480953867462 0 0.42854038242645709 -0.26281135800815408 0 0.41345304600685079 -0.26440480953867462 0 0.41984775782459283 -0.2623632460968765 0 0.42656562700980838 -0.24831468624349931 0 0.41087794879613182 -0.2494957955088617 0 0.42854038242645709 -0.26281135800815408 0 0.4477486317760534 -0.26078267557717671 0 0.42854038242645709 -0.26281135800815408 0 0.430823863629894 -0.26453285558412298 0 0.41345304600685079 -0.26440480953867462 0 0.42854038242645709 -0.26281135800815408 0 0.430823863629894 -0.26453285558412298 0 0.42854038242645709 -0.26281135800815408 0 0.430823863629894 -0.26453285558412298 0 0.42656562700980838 -0.24831468624349931 0 0.42854038242645709 -0.26281135800815408 0 0.4372088962240912 -0.25169219704383999 0 0.42166373126508722 -0.27984448092147479 0 0.430823863629894 -0.26453285558412298 0 0.43570592202634773 -0.28205449164250063 0 0.42166373126508722 -0.27984448092147479 0 0.43570592202634773 -0.28205449164250063 0 0.42504611560874761 -0.29307714113289868 0 0.43874415768382158 -0.29310671547163403 0 0.43570592202634773 -0.28205449164250063 0 0.42504611560874761 -0.29307714113289868 0 0.43874415768382158 -0.29310671547163403 0 0.42504611560874761 -0.29307714113289868 0 0.43092107089682352 -0.30573631325696571 0 0.41919911313656122 -0.31385112706466711 0 0.43092107089682352 -0.30573631325696571 0 0.41692698488998292 -0.30249561446253759 0 0.42504611560874761 -0.29307714113289868 0 0.43092107089682352 -0.30573631325696571 0 0.41692698488998292 -0.30249561446253759 0 0.41919911313656122 -0.31385112706466711 0 0.41692698488998292 -0.30249561446253759 0 0.40916221757477672 -0.31142054967536659 0 0.40563314249086863 -0.30155395497769039 0 0.41692698488998292 -0.30249561446253759 0 0.40916221757477672 -0.31142054967536659 0 0.40563314249086863 -0.30155395497769039 0 0.41692698488998292 -0.30249561446253759 0 0.41160024963212011 -0.28933460066763711 0 0.42166373126508722 -0.27984448092147479 0 0.42504611560874761 -0.29307714113289868 0 0.41160024963212011 -0.28933460066763711 0 0.42504611560874761 -0.29307714113289868 0 0.41692698488998292 -0.30249561446253759 0 0.41160024963212011 -0.28933460066763711 0 0.5 -0.5 0 0.47532784176218862 -0.47257481327436679 0 0.43264288253940292 -0.48275234633568048 0 0.5 -0.5 0 0.41749257905485199 -0.50000000000000033 0 0.43264288253940292 -0.48275234633568048 0 0.47532784176218862 -0.47257481327436679 0 0.44779318602395363 -0.46550469267136052 0 0.43264288253940292 -0.48275234633568048 0 0.44779318602395363 -0.46550469267136052 0 0.43264288253940292 -0.48275234633568048 0 0.5 -0.5 0 0.47532784176218862 -0.47257481327436679 0 0.49999999999999828 -0.44642064777577001 0 0.47532784176218862 -0.47257481327436679 0 0.47918453573141367 -0.4495963838019249 0 0.46294348950850428 -0.44825703900704061 0 0.47532784176218862 -0.47257481327436679 0 0.49999999999999828 -0.44642064777577001 0 0.47918453573141367 -0.4495963838019249 0 0.49999999999999828 -0.44642064777577001 0 0.47846681165496419 -0.4311330351505217 0 0.49999999999999828 -0.44642064777577001 0 0.47918453573141367 -0.4495963838019249 0 0.47846681165496419 -0.4311330351505217 0 0.47918453573141367 -0.4495963838019249 0 0.46294348950850428 -0.44825703900704061 0 0.47846681165496419 -0.4311330351505217 0 0.46294348950850428 -0.44825703900704061 0 0.44442683605218691 -0.44583817528272968 0 0.45721208074107311 -0.43281318479414382 0 0.46294348950850428 -0.44825703900704061 0 0.44779318602395363 -0.46550469267136052 0 0.47532784176218862 -0.47257481327436679 0 0.46294348950850428 -0.44825703900704061 0 0.44779318602395363 -0.46550469267136052 0 0.44779318602395363 -0.46550469267136052 0 0.44442683605218691 -0.44583817528272968 0 0.43057418754349119 -0.46211781715143319 0 0.46294348950850428 -0.44825703900704061 0 0.44779318602395363 -0.46550469267136052 0 0.44442683605218691 -0.44583817528272968 0 0.44442683605218691 -0.44583817528272968 0 0.44324354583686831 -0.42153379012121539 0 0.45721208074107311 -0.43281318479414382 0 0.44442683605218691 -0.44583817528272968 0 0.44324354583686831 -0.42153379012121539 0 0.42653452723640378 -0.44279137365393179 0 0.44324354583686831 -0.42153379012121539 0 0.45693362330993059 -0.41584542252527262 0 0.45721208074107311 -0.43281318479414382 0 0.45693362330993059 -0.41584542252527262 0 0.4354004349648965 -0.40055780990002432 0 0.44324354583686831 -0.42153379012121539 0 0.45693362330993059 -0.41584542252527262 0 0.4354004349648965 -0.40055780990002432 0 0.45693362330993059 -0.41584542252527262 0 0.46461049463358839 -0.41117161714406408 0 0.47846681165496419 -0.4311330351505217 0 0.45693362330993059 -0.41584542252527262 0 0.46461049463358839 -0.41117161714406408 0 0.45329728287846061 -0.39963099679296588 0 0.46294348950850428 -0.44825703900704061 0 0.45721208074107311 -0.43281318479414382 0 0.47846681165496419 -0.4311330351505217 0 0.45693362330993059 -0.41584542252527262 0 0.45721208074107311 -0.43281318479414382 0 0.47846681165496419 -0.4311330351505217 0 0.45693362330993059 -0.41584542252527262 0 0.47846681165496419 -0.4311330351505217 0 0.49999999999999828 -0.44642064777577001 0 0.47846681165496419 -0.4311330351505217 0 0.5 -0.42181653977348488 0 0.5 -0.42181653977348488 0 0.48394518954555588 -0.41195106762427058 0 0.49999999999999789 -0.3972124317711998 0 0.47846681165496419 -0.4311330351505217 0 0.5 -0.42181653977348488 0 0.48394518954555588 -0.41195106762427058 0 0.46461049463358839 -0.41117161714406408 0 0.47846681165496419 -0.4311330351505217 0 0.48394518954555588 -0.41195106762427058 0 0.46461049463358839 -0.41117161714406408 0 0.48394518954555588 -0.41195106762427058 0 0.47664864143922919 -0.39842171428208217 0 0.47664864143922919 -0.39842171428208217 0 0.47975395238035062 -0.3854291032725421 0 0.46812846895096999 -0.38912968091376021 0 0.47664864143922919 -0.39842171428208217 0 0.49999999999999789 -0.3972124317711998 0 0.48779058149940679 -0.38751051868815611 0 0.48394518954555588 -0.41195106762427058 0 0.47664864143922919 -0.39842171428208217 0 0.49999999999999789 -0.3972124317711998 0 0.47664864143922919 -0.39842171428208217 0 0.49999999999999789 -0.3972124317711998 0 0.5 -0.37037944899495368 0 0.49999999999999789 -0.3972124317711998 0 0.48779058149940679 -0.38751051868815611 0 0.5 -0.37037944899495368 0 0.48466784746851571 -0.3739080713738358 0 0.48779058149940679 -0.38751051868815611 0 0.48466784746851571 -0.3739080713738358 0 0.47975395238035062 -0.3854291032725421 0 0.47323517146124039 -0.38191256761527542 0 0.48466784746851571 -0.3739080713738358 0 0.48779058149940679 -0.38751051868815611 0 0.47975395238035062 -0.3854291032725421 0 0.47664864143922919 -0.39842171428208217 0 0.48779058149940679 -0.38751051868815611 0 0.47975395238035062 -0.3854291032725421 0 0.47975395238035062 -0.3854291032725421 0 0.47323517146124039 -0.38191256761527542 0 0.46812846895096999 -0.38912968091376021 0 0.46918642870160698 -0.38365020197922722 0 0.47323517146124039 -0.38191256761527542 0 0.46812846895096999 -0.38912968091376021 0 0.4671179630262795 -0.37324494563770522 0 0.46918642870160698 -0.38365020197922722 0 0.47323517146124039 -0.38191256761527542 0 0.45652460043480969 -0.37267172771365881 0 0.4671179630262795 -0.37324494563770522 0 0.46918642870160698 -0.38365020197922722 0 0.45652460043480969 -0.37267172771365881 0 0.46918642870160698 -0.38365020197922722 0 0.45652460043480969 -0.37267172771365881 0 0.45606522570456098 -0.38599652494351028 0 0.44783900322824399 -0.38008781189722518 0 0.45652460043480969 -0.37267172771365881 0 0.46918642870160698 -0.38365020197922722 0 0.45606522570456098 -0.38599652494351028 0 0.46918642870160698 -0.38365020197922722 0 0.45606522570456098 -0.38599652494351028 0 0.46812846895096999 -0.38912968091376021 0 0.46461049463358839 -0.41117161714406408 0 0.47664864143922919 -0.39842171428208217 0 0.45329728287846061 -0.39963099679296588 0 0.47664864143922919 -0.39842171428208217 0 0.45329728287846061 -0.39963099679296588 0 0.47664864143922919 -0.39842171428208217 0 0.46812846895096999 -0.38912968091376021 0 0.45329728287846061 -0.39963099679296588 0 0.46461049463358839 -0.41117161714406408 0 0.45329728287846061 -0.39963099679296588 0 0.45606522570456098 -0.38599652494351028 0 0.46812846895096999 -0.38912968091376021 0 0.45329728287846061 -0.39963099679296588 0 0.45693362330993059 -0.41584542252527262 0 0.45329728287846061 -0.39963099679296588 0 0.4354004349648965 -0.40055780990002432 0 0.45329728287846061 -0.39963099679296588 0 0.4354004349648965 -0.40055780990002432 0 0.45329728287846061 -0.39963099679296588 0 0.4390969294492823 -0.3851451998924304 0 0.4354004349648965 -0.40055780990002432 0 0.45329728287846061 -0.39963099679296588 0 0.4390969294492823 -0.3851451998924304 0 0.45606522570456098 -0.38599652494351028 0 0.4390969294492823 -0.3851451998924304 0 0.44783900322824399 -0.38008781189722518 0 0.45606522570456098 -0.38599652494351028 0 0.45329728287846061 -0.39963099679296588 0 0.4390969294492823 -0.3851451998924304 0 0.4390969294492823 -0.3851451998924304 0 0.43808065797110041 -0.37748478958974491 0 0.44783900322824399 -0.38008781189722518 0 0.42782015831496062 -0.38505662608606978 0 0.4354004349648965 -0.40055780990002432 0 0.41188669282555868 -0.38386409155992901 0 0.42489657602010461 -0.37065940299189432 0 0.4390969294492823 -0.3851451998924304 0 0.42782015831496062 -0.38505662608606978 0 0.42489657602010461 -0.37065940299189432 0 0.4390969294492823 -0.3851451998924304 0 0.43808065797110041 -0.37748478958974491 0 0.42489657602010461 -0.37065940299189432 0 0.4390969294492823 -0.3851451998924304 0 0.4390969294492823 -0.3851451998924304 0 0.42782015831496062 -0.38505662608606978 0 0.4354004349648965 -0.40055780990002432 0 0.4354004349648965 -0.40055780990002432 0 0.41188669282555868 -0.38386409155992901 0 0.4354004349648965 -0.40055780990002432 0 0.40669862042327182 -0.40204417319942209 0 0.4354004349648965 -0.40055780990002432 0 0.40669862042327182 -0.40204417319942209 0 0.41188669282555868 -0.38386409155992901 0 0.42489657602010461 -0.37065940299189432 0 0.42782015831496062 -0.38505662608606978 0 0.41188669282555868 -0.38386409155992901 0 0.42489657602010461 -0.37065940299189432 0 0.4070765621089808 -0.37107032214525337 0 0.41188669282555868 -0.38386409155992901 0 0.4070765621089808 -0.37107032214525337 0 0.39585190457779329 -0.37201308858561799 0 0.39886607975096749 -0.38470810625682389 0 0.40669862042327182 -0.40204417319942209 0 0.41188669282555868 -0.38386409155992901 0 0.39886607975096749 -0.38470810625682389 0 0.4070765621089808 -0.37107032214525337 0 0.41188669282555868 -0.38386409155992901 0 0.39886607975096749 -0.38470810625682389 0 0.39585190457779329 -0.37201308858561799 0 0.39886607975096749 -0.38470810625682389 0 0.38601585554704992 -0.38244526212700758 0 0.39886607975096749 -0.38470810625682389 0 0.38601585554704992 -0.38244526212700758 0 0.37799680588164719 -0.40353053649882148 0 0.38601585554704992 -0.38244526212700758 0 0.37799680588164719 -0.40353053649882148 0 0.38601585554704992 -0.38244526212700758 0 0.37799680588164719 -0.40353053649882148 0 0.36816388811638329 -0.39545065246060412 0 0.37799680588164719 -0.40353053649882148 0 0.37635446215448021 -0.40784891206015261 0 0.37799680588164719 -0.40353053649882148 0 0.37505152225636262 -0.40368306209891941 0 0.37635446215448021 -0.40784891206015261 0 0.37799680588164719 -0.40353053649882148 0 0.37505152225636262 -0.40368306209891941 0 0.40669862042327182 -0.40204417319942209 0 0.39886607975096749 -0.38470810625682389 0 0.37799680588164719 -0.40353053649882148 0 0.40669862042327182 -0.40204417319942209 0 0.37799680588164719 -0.40353053649882148 0 0.40669862042327182 -0.40204417319942209 0 0.38553791301154328 -0.41840677215457472 0 0.40567792500840172 -0.4277251834563135 0 0.40669862042327182 -0.40204417319942209 0 0.37799680588164719 -0.40353053649882148 0 0.38553791301154328 -0.41840677215457472 0 0.38553791301154328 -0.41840677215457472 0 0.36905142820508552 -0.42917232846767789 0 0.37241381966677689 -0.417360225696081 0 0.38553791301154328 -0.41840677215457472 0 0.37635446215448021 -0.40784891206015261 0 0.37241381966677689 -0.417360225696081 0 0.37799680588164719 -0.40353053649882148 0 0.38553791301154328 -0.41840677215457472 0 0.37635446215448021 -0.40784891206015261 0 0.38553791301154328 -0.41840677215457472 0 0.38807715457860831 -0.4388905332329941 0 0.36905142820508552 -0.42917232846767789 0 0.38553791301154328 -0.41840677215457472 0 0.40567792500840172 -0.4277251834563135 0 0.38807715457860831 -0.4388905332329941 0 0.40567792500840172 -0.4277251834563135 0 0.42351101069396863 -0.41893046606618117 0 0.42653452723640378 -0.44279137365393179 0 0.4354004349648965 -0.40055780990002432 0 0.40669862042327182 -0.40204417319942209 0 0.42351101069396863 -0.41893046606618117 0 0.40669862042327182 -0.40204417319942209 0 0.40567792500840172 -0.4277251834563135 0 0.42351101069396863 -0.41893046606618117 0 0.44324354583686831 -0.42153379012121539 0 0.4354004349648965 -0.40055780990002432 0 0.42351101069396863 -0.41893046606618117 0 0.44324354583686831 -0.42153379012121539 0 0.42653452723640378 -0.44279137365393179 0 0.44324354583686831 -0.42153379012121539 0 0.42351101069396863 -0.41893046606618117 0 0.42653452723640378 -0.44279137365393179 0 0.44442683605218691 -0.44583817528272968 0 0.42653452723640378 -0.44279137365393179 0 0.43057418754349119 -0.46211781715143319 0 0.42653452723640378 -0.44279137365393179 0 0.43057418754349119 -0.46211781715143319 0 0.40982550863593931 -0.46404895718664829 0 0.42653452723640378 -0.44279137365393179 0 0.40982550863593931 -0.46404895718664829 0 0.42653452723640378 -0.44279137365393179 0 0.40982550863593931 -0.46404895718664829 0 0.4036378289262339 -0.44671034290208689 0 0.40567792500840172 -0.4277251834563135 0 0.42653452723640378 -0.44279137365393179 0 0.4036378289262339 -0.44671034290208689 0 0.40567792500840172 -0.4277251834563135 0 0.4036378289262339 -0.44671034290208689 0 0.38807715457860831 -0.4388905332329941 0 0.4036378289262339 -0.44671034290208689 0 0.38807715457860831 -0.4388905332329941 0 0.38807402917181633 -0.46009566698054732 0 0.38807715457860831 -0.4388905332329941 0 0.3733961412993268 -0.45022493016754961 0 0.36905142820508552 -0.42917232846767789 0 0.38807715457860831 -0.4388905332329941 0 0.38807402917181633 -0.46009566698054732 0 0.3733961412993268 -0.45022493016754961 0 0.38807402917181633 -0.46009566698054732 0 0.36593927904035028 -0.47432204071884282 0 0.3733961412993268 -0.45022493016754961 0 0.40982550863593931 -0.46404895718664829 0 0.4036378289262339 -0.44671034290208689 0 0.38807402917181633 -0.46009566698054732 0 0.40982550863593931 -0.46404895718664829 0 0.39311649003547477 -0.48530654071936469 0 0.40982550863593931 -0.46404895718664829 0 0.38807402917181633 -0.46009566698054732 0 0.39311649003547477 -0.48530654071936469 0 0.38807402917181633 -0.46009566698054732 0 0.39311649003547477 -0.48530654071936469 0 0.36593927904035028 -0.47432204071884282 0 0.37603974257992701 -0.49999999999999978 0 0.39311649003547477 -0.48530654071936469 0 0.36593927904035028 -0.47432204071884282 0 0.37603974257992701 -0.49999999999999978 0 0.39676616081738958 -0.5 0 0.39311649003547477 -0.48530654071936469 0 0.39676616081738958 -0.5 0 0.39311649003547477 -0.48530654071936469 0 0.41749257905485199 -0.50000000000000033 0 0.40982550863593931 -0.46404895718664829 0 0.41749257905485199 -0.50000000000000033 0 0.43264288253940292 -0.48275234633568048 0 0.40982550863593931 -0.46404895718664829 0 0.39311649003547477 -0.48530654071936469 0 0.41749257905485199 -0.50000000000000033 0 0.43057418754349119 -0.46211781715143319 0 0.40982550863593931 -0.46404895718664829 0 0.43264288253940292 -0.48275234633568048 0 0.44779318602395363 -0.46550469267136052 0 0.43057418754349119 -0.46211781715143319 0 0.43264288253940292 -0.48275234633568048 0 0.41749257905485199 -0.50000000000000033 0 0.43264288253940292 -0.48275234633568048 0 0.32215468257820618 -0.5 0 0.33760568703239408 -0.47417818032706111 0 0.31005432530219129 -0.48106067464861729 0 0.33760568703239408 -0.47417818032706111 0 0.3189449745883719 -0.46117016543644002 0 0.31005432530219129 -0.48106067464861729 0 0.32215468257820618 -0.5 0 0.33760568703239408 -0.47417818032706111 0 0.34909721257906662 -0.5 0 0.37603974257992701 -0.49999999999999978 0 0.34909721257906662 -0.5 0 0.36593927904035028 -0.47432204071884282 0 0.37603974257992701 -0.49999999999999978 0 0.36593927904035028 -0.47432204071884282 0 0.33760568703239408 -0.47417818032706111 0 0.34909721257906662 -0.5 0 0.36593927904035028 -0.47432204071884282 0 0.33760568703239408 -0.47417818032706111 0 0.36593927904035028 -0.47432204071884282 0 0.35583881550077368 -0.44864408143768569 0 0.36593927904035028 -0.47432204071884282 0 0.35583881550077368 -0.44864408143768569 0 0.36593927904035028 -0.47432204071884282 0 0.3733961412993268 -0.45022493016754961 0 0.35583881550077368 -0.44864408143768569 0 0.3733961412993268 -0.45022493016754961 0 0.35583881550077368 -0.44864408143768569 0 0.36905142820508552 -0.42917232846767789 0 0.35583881550077368 -0.44864408143768569 0 0.33540415989768779 -0.44905252560006492 0 0.34573835196119679 -0.42296612215652868 0 0.33760568703239408 -0.47417818032706111 0 0.35583881550077368 -0.44864408143768569 0 0.33540415989768779 -0.44905252560006492 0 0.33760568703239408 -0.47417818032706111 0 0.33540415989768779 -0.44905252560006492 0 0.3189449745883719 -0.46117016543644002 0 0.33540415989768779 -0.44905252560006492 0 0.3189449745883719 -0.46117016543644002 0 0.32126124445813709 -0.43429719032362252 0 0.3189449745883719 -0.46117016543644002 0 0.32126124445813709 -0.43429719032362252 0 0.30480654487456732 -0.44641521679941309 0 0.32126124445813709 -0.43429719032362252 0 0.3193156137706864 -0.40941365839269389 0 0.29937418247959258 -0.41817563384508599 0 0.3193156137706864 -0.40941365839269389 0 0.34573835196119679 -0.42296612215652868 0 0.33563788842162012 -0.39728816287537172 0 0.34573835196119679 -0.42296612215652868 0 0.33563788842162012 -0.39728816287537172 0 0.33540415989768779 -0.44905252560006492 0 0.32126124445813709 -0.43429719032362252 0 0.34573835196119679 -0.42296612215652868 0 0.32126124445813709 -0.43429719032362252 0 0.3193156137706864 -0.40941365839269389 0 0.34573835196119679 -0.42296612215652868 0 0.35583881550077368 -0.44864408143768569 0 0.34573835196119679 -0.42296612215652868 0 0.36905142820508552 -0.42917232846767789 0 0.35583881550077368 -0.44864408143768569 0 0.34573835196119679 -0.42296612215652868 0 0.36905142820508552 -0.42917232846767789 0 0.37241381966677689 -0.417360225696081 0 0.36195200988480669 -0.41065981681110758 0 0.36990343230398692 -0.40830781576793279 0 0.37241381966677689 -0.417360225696081 0 0.36195200988480669 -0.41065981681110758 0 0.37635446215448021 -0.40784891206015261 0 0.36990343230398692 -0.40830781576793279 0 0.37241381966677689 -0.417360225696081 0 0.37505152225636262 -0.40368306209891941 0 0.37635446215448021 -0.40784891206015261 0 0.36990343230398692 -0.40830781576793279 0 0.36990343230398692 -0.40830781576793279 0 0.36195200988480669 -0.41065981681110758 0 0.36876771314038492 -0.40452533678464098 0 0.34573835196119679 -0.42296612215652868 0 0.36195200988480669 -0.41065981681110758 0 0.35211107663302149 -0.40015425695529971 0 0.34573835196119679 -0.42296612215652868 0 0.36905142820508552 -0.42917232846767789 0 0.36195200988480669 -0.41065981681110758 0 0.34573835196119679 -0.42296612215652868 0 0.35211107663302149 -0.40015425695529971 0 0.33563788842162012 -0.39728816287537172 0 0.35211107663302149 -0.40015425695529971 0 0.35352794608594401 -0.38791341326287138 0 0.33563788842162012 -0.39728816287537172 0 0.35211107663302149 -0.40015425695529971 0 0.36816388811638329 -0.39545065246060412 0 0.35352794608594401 -0.38791341326287138 0 0.36195200988480669 -0.41065981681110758 0 0.36816388811638329 -0.39545065246060412 0 0.36876771314038492 -0.40452533678464098 0 0.36195200988480669 -0.41065981681110758 0 0.35211107663302149 -0.40015425695529971 0 0.36816388811638329 -0.39545065246060412 0 0.37505152225636262 -0.40368306209891941 0 0.36816388811638329 -0.39545065246060412 0 0.36876771314038492 -0.40452533678464098 0 0.37799680588164719 -0.40353053649882148 0 0.37505152225636262 -0.40368306209891941 0 0.36816388811638329 -0.39545065246060412 0 0.37505152225636262 -0.40368306209891941 0 0.36990343230398692 -0.40830781576793279 0 0.36876771314038492 -0.40452533678464098 0 0.38601585554704992 -0.38244526212700758 0 0.36816388811638329 -0.39545065246060412 0 0.3689120952668708 -0.37284951495870189 0 0.36816388811638329 -0.39545065246060412 0 0.35352794608594401 -0.38791341326287138 0 0.3689120952668708 -0.37284951495870189 0 0.35352794608594401 -0.38791341326287138 0 0.33563788842162012 -0.39728816287537172 0 0.34467783115022588 -0.37252705130409253 0 0.35352794608594401 -0.38791341326287138 0 0.3689120952668708 -0.37284951495870189 0 0.34467783115022588 -0.37252705130409253 0 0.33563788842162012 -0.39728816287537172 0 0.3255374248820434 -0.37161020359421471 0 0.33563788842162012 -0.39728816287537172 0 0.34467783115022588 -0.37252705130409253 0 0.3255374248820434 -0.37161020359421471 0 0.3193156137706864 -0.40941365839269389 0 0.33563788842162012 -0.39728816287537172 0 0.30534853388527528 -0.38930881101125692 0 0.33563788842162012 -0.39728816287537172 0 0.30534853388527528 -0.38930881101125692 0 0.3255374248820434 -0.37161020359421471 0 0.30534853388527528 -0.38930881101125692 0 0.3255374248820434 -0.37161020359421471 0 0.30525369772634148 -0.37164386163485291 0 0.30534853388527528 -0.38930881101125692 0 0.28783989868818821 -0.37644057584389279 0 0.30525369772634148 -0.37164386163485291 0 0.3193156137706864 -0.40941365839269389 0 0.30534853388527528 -0.38930881101125692 0 0.29937418247959258 -0.41817563384508599 0 0.30534853388527528 -0.38930881101125692 0 0.28922044672054198 -0.39637746652331562 0 0.29937418247959258 -0.41817563384508599 0 0.28922044672054198 -0.39637746652331562 0 0.27510086349567708 -0.39798721671617321 0 0.28320928432356041 -0.41012407252970262 0 0.28922044672054198 -0.39637746652331562 0 0.28783989868818821 -0.37644057584389279 0 0.27924907625512951 -0.38731579260330862 0 0.30534853388527528 -0.38930881101125692 0 0.28922044672054198 -0.39637746652331562 0 0.28783989868818821 -0.37644057584389279 0 0.30534853388527528 -0.38930881101125692 0 0.28783989868818821 -0.37644057584389279 0 0.28783989868818821 -0.37644057584389279 0 0.27447250226623809 -0.37821124143188289 0 0.27924907625512951 -0.38731579260330862 0 0.27447250226623809 -0.37821124143188289 0 0.27924907625512951 -0.38731579260330862 0 0.26961167010500181 -0.38756246250127813 0 0.27447250226623809 -0.37821124143188289 0 0.26961167010500181 -0.38756246250127813 0 0.26423397132697279 -0.37890457124200982 0 0.26961167010500181 -0.38756246250127813 0 0.26423397132697279 -0.37890457124200982 0 0.25687819372407023 -0.38903915957053298 0 0.26423397132697279 -0.37890457124200982 0 0.25687819372407023 -0.38903915957053298 0 0.24987622704845311 -0.37613765202982719 0 0.25108303853213881 -0.40002667887407228 0 0.26390234922262928 -0.39930308446362528 0 0.256136481120742 -0.41447562176841068 0 0.25687819372407023 -0.38903915957053298 0 0.25108303853213881 -0.40002667887407228 0 0.24309899287842279 -0.39271330151873202 0 0.25687819372407023 -0.38903915957053298 0 0.25108303853213881 -0.40002667887407228 0 0.26390234922262928 -0.39930308446362528 0 0.26961167010500181 -0.38756246250127813 0 0.25687819372407023 -0.38903915957053298 0 0.26390234922262928 -0.39930308446362528 0 0.26390234922262928 -0.39930308446362528 0 0.27510086349567708 -0.39798721671617321 0 0.2708804648698091 -0.41009655218672442 0 0.26961167010500181 -0.38756246250127813 0 0.26390234922262928 -0.39930308446362528 0 0.27510086349567708 -0.39798721671617321 0 0.28922044672054198 -0.39637746652331562 0 0.27924907625512951 -0.38731579260330862 0 0.27510086349567708 -0.39798721671617321 0 0.27924907625512951 -0.38731579260330862 0 0.26961167010500181 -0.38756246250127813 0 0.27510086349567708 -0.39798721671617321 0 0.27510086349567708 -0.39798721671617321 0 0.2708804648698091 -0.41009655218672442 0 0.28320928432356041 -0.41012407252970262 0 0.2708804648698091 -0.41009655218672442 0 0.256136481120742 -0.41447562176841068 0 0.27433621812851161 -0.42550461519375637 0 0.2708804648698091 -0.41009655218672442 0 0.27433621812851161 -0.42550461519375637 0 0.28320928432356041 -0.41012407252970262 0 0.26390234922262928 -0.39930308446362528 0 0.2708804648698091 -0.41009655218672442 0 0.256136481120742 -0.41447562176841068 0 0.25108303853213881 -0.40002667887407228 0 0.256136481120742 -0.41447562176841068 0 0.24629253832767661 -0.41022035877505542 0 0.256136481120742 -0.41447562176841068 0 0.25513396950241118 -0.43290986753561628 0 0.2453827316299185 -0.42192330194190181 0 0.256136481120742 -0.41447562176841068 0 0.25513396950241118 -0.43290986753561628 0 0.27433621812851161 -0.42550461519375637 0 0.25513396950241118 -0.43290986753561628 0 0.27433621812851161 -0.42550461519375637 0 0.26752346795397081 -0.44788636482661331 0 0.27433621812851161 -0.42550461519375637 0 0.29937418247959258 -0.41817563384508599 0 0.28546596250580908 -0.44246723239800262 0 0.29937418247959258 -0.41817563384508599 0 0.30480654487456732 -0.44641521679941309 0 0.28546596250580908 -0.44246723239800262 0 0.28922044672054198 -0.39637746652331562 0 0.28320928432356041 -0.41012407252970262 0 0.29937418247959258 -0.41817563384508599 0 0.27433621812851161 -0.42550461519375637 0 0.28320928432356041 -0.41012407252970262 0 0.29937418247959258 -0.41817563384508599 0 0.32126124445813709 -0.43429719032362252 0 0.29937418247959258 -0.41817563384508599 0 0.30480654487456732 -0.44641521679941309 0 0.3189449745883719 -0.46117016543644002 0 0.30480654487456732 -0.44641521679941309 0 0.28880919487484108 -0.4658549053918814 0 0.30480654487456732 -0.44641521679941309 0 0.28880919487484108 -0.4658549053918814 0 0.28546596250580908 -0.44246723239800262 0 0.27433621812851161 -0.42550461519375637 0 0.28546596250580908 -0.44246723239800262 0 0.26752346795397081 -0.44788636482661331 0 0.28880919487484108 -0.4658549053918814 0 0.28546596250580908 -0.44246723239800262 0 0.26752346795397081 -0.44788636482661331 0 0.25513396950241118 -0.43290986753561628 0 0.26752346795397081 -0.44788636482661331 0 0.24480843210435321 -0.45079661158300749 0 0.26752346795397081 -0.44788636482661331 0 0.2588368117714554 -0.46700690363883102 0 0.24480843210435321 -0.45079661158300749 0 0.28880919487484108 -0.4658549053918814 0 0.26752346795397081 -0.44788636482661331 0 0.2588368117714554 -0.46700690363883102 0 0.28880919487484108 -0.4658549053918814 0 0.2588368117714554 -0.46700690363883102 0 0.27227655507569209 -0.48076744006000099 0 0.2588368117714554 -0.46700690363883102 0 0.27227655507569209 -0.48076744006000099 0 0.25270961841775552 -0.48460016746525392 0 0.2588368117714554 -0.46700690363883102 0 0.25270961841775552 -0.48460016746525392 0 0.23949561189523169 -0.47426551941090739 0 0.25270961841775552 -0.48460016746525392 0 0.26826962257648529 -0.5 0 0.2413270925756249 -0.5 0 0.27227655507569209 -0.48076744006000099 0 0.25270961841775552 -0.48460016746525392 0 0.26826962257648529 -0.5 0 0.27227655507569209 -0.48076744006000099 0 0.26826962257648529 -0.5 0 0.29521215257734579 -0.5 0 0.28880919487484108 -0.4658549053918814 0 0.27227655507569209 -0.48076744006000099 0 0.29521215257734579 -0.5 0 0.28880919487484108 -0.4658549053918814 0 0.29521215257734579 -0.5 0 0.31005432530219129 -0.48106067464861729 0 0.3189449745883719 -0.46117016543644002 0 0.28880919487484108 -0.4658549053918814 0 0.31005432530219129 -0.48106067464861729 0 0.32215468257820618 -0.5 0 0.29521215257734579 -0.5 0 0.31005432530219129 -0.48106067464861729 0 0.33463237856908817 -0.28956894479377399 0 0.33485830675890288 -0.30442904333306592 0 0.35657459314761941 -0.2860097891906741 0 0.33463237856908817 -0.28956894479377399 0 0.32894302133540282 -0.28710755170783531 0 0.35195887039823659 -0.28200771363307098 0 0.32894302133540282 -0.28710755170783531 0 0.35195887039823659 -0.28200771363307098 0 0.32894302133540282 -0.28710755170783531 0 0.33255663915089151 -0.29722249741805129 0 0.33463237856908817 -0.28956894479377399 0 0.32894302133540282 -0.28710755170783531 0 0.33255663915089151 -0.29722249741805129 0 0.32894302133540282 -0.28710755170783531 0 0.33255663915089151 -0.29722249741805129 0 0.32301709761150521 -0.2972128627914089 0 0.33485830675890288 -0.30442904333306592 0 0.34824447571033601 -0.30253517369681238 0 0.34533870308018377 -0.31598934501886372 0 0.33485830675890288 -0.30442904333306592 0 0.33255663915089151 -0.29722249741805129 0 0.32434770264142349 -0.30499280498860082 0 0.33463237856908817 -0.28956894479377399 0 0.33485830675890288 -0.30442904333306592 0 0.33255663915089151 -0.29722249741805129 0 0.32301709761150521 -0.2972128627914089 0 0.32434770264142349 -0.30499280498860082 0 0.3171485971304504 -0.30589952111326829 0 0.32434770264142349 -0.30499280498860082 0 0.3171485971304504 -0.30589952111326829 0 0.31314202037018413 -0.32284829747545468 0 0.33485830675890288 -0.30442904333306592 0 0.32434770264142349 -0.30499280498860082 0 0.31314202037018413 -0.32284829747545468 0 0.33255663915089151 -0.29722249741805129 0 0.32301709761150521 -0.2972128627914089 0 0.32434770264142349 -0.30499280498860082 0 0.3171485971304504 -0.30589952111326829 0 0.31208952779935789 -0.2908419387292881 0 0.30833746379913463 -0.30503745501229762 0 0.32301709761150521 -0.2972128627914089 0 0.3171485971304504 -0.30589952111326829 0 0.31208952779935789 -0.2908419387292881 0 0.32894302133540282 -0.28710755170783531 0 0.31611371382327402 -0.28007222207304999 0 0.31208952779935789 -0.2908419387292881 0 0.32894302133540282 -0.28710755170783531 0 0.32301709761150521 -0.2972128627914089 0 0.31208952779935789 -0.2908419387292881 0 0.32894302133540282 -0.28710755170783531 0 0.31208952779935789 -0.2908419387292881 0 0.32894302133540282 -0.28710755170783531 0 0.32245882367699719 -0.26895751187574157 0 0.32894302133540282 -0.28710755170783531 0 0.31611371382327402 -0.28007222207304999 0 0.32245882367699719 -0.26895751187574157 0 0.31611371382327402 -0.28007222207304999 0 0.32245882367699719 -0.26895751187574157 0 0.30706455279928557 -0.27339796693147528 0 0.32245882367699719 -0.26895751187574157 0 0.30981211567343969 -0.26250129009931661 0 0.30706455279928557 -0.27339796693147528 0 0.32245882367699719 -0.26895751187574157 0 0.31597462601859122 -0.25080747204364812 0 0.32245882367699719 -0.26895751187574157 0 0.31597462601859122 -0.25080747204364812 0 0.30981211567343969 -0.26250129009931661 0 0.32245882367699719 -0.26895751187574157 0 0.31597462601859122 -0.25080747204364812 0 0.33396674820841349 -0.26640759283836002 0 0.31597462601859122 -0.25080747204364812 0 0.33396674820841349 -0.26640759283836002 0 0.33517615116993849 -0.24743488902137309 0 0.33396674820841349 -0.26640759283836002 0 0.35185333732921159 -0.25428502110151557 0 0.33517615116993849 -0.24743488902137309 0 0.31597462601859122 -0.25080747204364812 0 0.33396674820841349 -0.26640759283836002 0 0.32894302133540282 -0.28710755170783531 0 0.32245882367699719 -0.26895751187574157 0 0.33396674820841349 -0.26640759283836002 0 0.33396674820841349 -0.26640759283836002 0 0.35195887039823659 -0.28200771363307098 0 0.32894302133540282 -0.28710755170783531 0 0.33396674820841349 -0.26640759283836002 0 0.35195887039823659 -0.28200771363307098 0 0.33396674820841349 -0.26640759283836002 0 0.35159414215374007 -0.26901089914998932 0 0.35195887039823659 -0.28200771363307098 0 0.35159414215374007 -0.26901089914998932 0 0.36459381448795669 -0.2792080702757721 0 0.35195887039823659 -0.28200771363307098 0 0.36459381448795669 -0.2792080702757721 0 0.35195887039823659 -0.28200771363307098 0 0.33396674820841349 -0.26640759283836002 0 0.35159414215374007 -0.26901089914998932 0 0.35185333732921159 -0.25428502110151557 0 0.35159414215374007 -0.26901089914998932 0 0.35185333732921159 -0.25428502110151557 0 0.36435388824524378 -0.26651308148643732 0 0.37477580018058132 -0.24095111383496479 0 0.37683953433427181 -0.26882153263446662 0 0.36563983252638571 -0.25462703483095822 0 0.36075586336603621 -0.2426037127049111 0 0.35185333732921159 -0.25428502110151557 0 0.36563983252638571 -0.25462703483095822 0 0.35185333732921159 -0.25428502110151557 0 0.36563983252638571 -0.25462703483095822 0 0.36435388824524378 -0.26651308148643732 0 0.37683953433427181 -0.26882153263446662 0 0.36563983252638571 -0.25462703483095822 0 0.36435388824524378 -0.26651308148643732 0 0.36459381448795669 -0.2792080702757721 0 0.36308990924476459 -0.28048364807874221 0 0.35195887039823659 -0.28200771363307098 0 0.36459381448795669 -0.2792080702757721 0 0.36308990924476459 -0.28048364807874221 0 0.37273728942595791 -0.27740364396778311 0 0.36459381448795669 -0.2792080702757721 0 0.36308990924476459 -0.28048364807874221 0 0.35159414215374007 -0.26901089914998932 0 0.36459381448795669 -0.2792080702757721 0 0.36435388824524378 -0.26651308148643732 0 0.37683953433427181 -0.26882153263446662 0 0.36459381448795669 -0.2792080702757721 0 0.36435388824524378 -0.26651308148643732 0 0.36459381448795669 -0.2792080702757721 0 0.37273728942595791 -0.27740364396778311 0 0.37683953433427181 -0.26882153263446662 0 0.36459381448795669 -0.2792080702757721 0 0.37273728942595791 -0.27740364396778311 0 0.37683953433427181 -0.26882153263446662 0 0.36459381448795669 -0.2792080702757721 0 0.36308990924476459 -0.28048364807874221 0 0.37273728942595791 -0.27740364396778311 0 0.37795999762798671 -0.28395322059410122 0 0.37273728942595791 -0.27740364396778311 0 0.36936745264149701 -0.28627283508716472 0 0.35657459314761941 -0.2860097891906741 0 0.35620629985463748 -0.30371251724464648 0 0.37101427446782781 -0.29852975601036341 0 0.36308990924476459 -0.28048364807874221 0 0.37273728942595791 -0.27740364396778311 0 0.36936745264149701 -0.28627283508716472 0 0.37519981906117678 -0.29055939022370142 0 0.37795999762798671 -0.28395322059410122 0 0.36936745264149701 -0.28627283508716472 0 0.37519981906117678 -0.29055939022370142 0 0.36936745264149701 -0.28627283508716472 0 0.37101427446782781 -0.29852975601036341 0 0.36936745264149701 -0.28627283508716472 0 0.35657459314761941 -0.2860097891906741 0 0.37101427446782781 -0.29852975601036341 0 0.35657459314761941 -0.2860097891906741 0 0.37101427446782781 -0.29852975601036341 0 0.36308990924476459 -0.28048364807874221 0 0.36936745264149701 -0.28627283508716472 0 0.35657459314761941 -0.2860097891906741 0 0.36308990924476459 -0.28048364807874221 0 0.35657459314761941 -0.2860097891906741 0 0.36308990924476459 -0.28048364807874221 0 0.35366972758071469 -0.28349111722646431 0 0.33463237856908817 -0.28956894479377399 0 0.35366972758071469 -0.28349111722646431 0 0.33463237856908817 -0.28956894479377399 0 0.35366972758071469 -0.28349111722646431 0 0.35195887039823659 -0.28200771363307098 0 0.36308990924476459 -0.28048364807874221 0 0.35366972758071469 -0.28349111722646431 0 0.35195887039823659 -0.28200771363307098 0 0.33485830675890288 -0.30442904333306592 0 0.35657459314761941 -0.2860097891906741 0 0.36308990924476459 -0.28048364807874221 0 0.35366972758071469 -0.28349111722646431 0 0.35657459314761941 -0.2860097891906741 0 0.33463237856908817 -0.28956894479377399 0 0.35366972758071469 -0.28349111722646431 0 0.35657459314761941 -0.2860097891906741 0 0.35366972758071469 -0.28349111722646431 0 0.35657459314761941 -0.2860097891906741 0 0.35366972758071469 -0.28349111722646431 0 0.35195887039823659 -0.28200771363307098 0 0.35620629985463748 -0.30371251724464648 0 0.36380134767337091 -0.31365371592763602 0 0.34533870308018377 -0.31598934501886372 0 0.35657459314761941 -0.2860097891906741 0 0.34824447571033601 -0.30253517369681238 0 0.35620629985463748 -0.30371251724464648 0 0.33485830675890288 -0.30442904333306592 0 0.35657459314761941 -0.2860097891906741 0 0.34824447571033601 -0.30253517369681238 0 0.34824447571033601 -0.30253517369681238 0 0.35620629985463748 -0.30371251724464648 0 0.34533870308018377 -0.31598934501886372 0 0.38545395578803499 -0.31104972283005378 0 0.37101427446782781 -0.29852975601036341 0 0.36380134767337091 -0.31365371592763602 0 0.35620629985463748 -0.30371251724464648 0 0.37101427446782781 -0.29852975601036341 0 0.36380134767337091 -0.31365371592763602 0 0.38545395578803499 -0.31104972283005378 0 0.36380134767337091 -0.31365371592763602 0 0.36945761595668469 -0.32738841673247931 0 0.36380134767337091 -0.31365371592763602 0 0.36945761595668469 -0.32738841673247931 0 0.35533723689285712 -0.32525253772940937 0 0.36945761595668469 -0.32738841673247931 0 0.35618710249729552 -0.34088690244721892 0 0.35533723689285712 -0.32525253772940937 0 0.36945761595668469 -0.32738841673247931 0 0.35618710249729552 -0.34088690244721892 0 0.37368731816096312 -0.34897020548070451 0 0.35618710249729552 -0.34088690244721892 0 0.33810128782584858 -0.35072533414536311 0 0.34064131712366241 -0.33181983138849169 0 0.35618710249729552 -0.34088690244721892 0 0.35533723689285712 -0.32525253772940937 0 0.34064131712366241 -0.33181983138849169 0 0.34533870308018377 -0.31598934501886372 0 0.35533723689285712 -0.32525253772940937 0 0.34064131712366241 -0.33181983138849169 0 0.36380134767337091 -0.31365371592763602 0 0.34533870308018377 -0.31598934501886372 0 0.35533723689285712 -0.32525253772940937 0 0.3689120952668708 -0.37284951495870189 0 0.37368731816096312 -0.34897020548070451 0 0.35738528973841999 -0.35772904562383351 0 0.35618710249729552 -0.34088690244721892 0 0.37368731816096312 -0.34897020548070451 0 0.35738528973841999 -0.35772904562383351 0 0.35618710249729552 -0.34088690244721892 0 0.35738528973841999 -0.35772904562383351 0 0.33810128782584858 -0.35072533414536311 0 0.35738528973841999 -0.35772904562383351 0 0.34467783115022588 -0.37252705130409253 0 0.33810128782584858 -0.35072533414536311 0 0.3689120952668708 -0.37284951495870189 0 0.35738528973841999 -0.35772904562383351 0 0.34467783115022588 -0.37252705130409253 0 0.34467783115022588 -0.37252705130409253 0 0.33810128782584858 -0.35072533414536311 0 0.3255374248820434 -0.37161020359421471 0 0.31543696134246668 -0.34593224431305769 0 0.3255374248820434 -0.37161020359421471 0 0.30900602422585888 -0.35865430802761772 0 0.31543696134246668 -0.34593224431305769 0 0.3255374248820434 -0.37161020359421471 0 0.33810128782584858 -0.35072533414536311 0 0.31543696134246668 -0.34593224431305769 0 0.3255374248820434 -0.37161020359421471 0 0.3255374248820434 -0.37161020359421471 0 0.30525369772634148 -0.37164386163485291 0 0.30900602422585888 -0.35865430802761772 0 0.34533870308018377 -0.31598934501886372 0 0.33130220335757699 -0.32186248444176119 0 0.34064131712366241 -0.33181983138849169 0 0.33485830675890288 -0.30442904333306592 0 0.34533870308018377 -0.31598934501886372 0 0.33130220335757699 -0.32186248444176119 0 0.33810128782584858 -0.35072533414536311 0 0.34064131712366241 -0.33181983138849169 0 0.3268430880468266 -0.33457206034663262 0 0.33130220335757699 -0.32186248444176119 0 0.34064131712366241 -0.33181983138849169 0 0.3268430880468266 -0.33457206034663262 0 0.31543696134246668 -0.34593224431305769 0 0.3268430880468266 -0.33457206034663262 0 0.31314202037018413 -0.32284829747545468 0 0.33810128782584858 -0.35072533414536311 0 0.31543696134246668 -0.34593224431305769 0 0.3268430880468266 -0.33457206034663262 0 0.33130220335757699 -0.32186248444176119 0 0.3268430880468266 -0.33457206034663262 0 0.31314202037018413 -0.32284829747545468 0 0.33485830675890288 -0.30442904333306592 0 0.31314202037018413 -0.32284829747545468 0 0.3171485971304504 -0.30589952111326829 0 0.31314202037018413 -0.32284829747545468 0 0.3109911447756647 -0.31350988965823029 0 0.33485830675890288 -0.30442904333306592 0 0.33130220335757699 -0.32186248444176119 0 0.31314202037018413 -0.32284829747545468 0 0.31314202037018413 -0.32284829747545468 0 0.30533649780288991 -0.32025428503190068 0 0.3109911447756647 -0.31350988965823029 0 0.30533649780288991 -0.32025428503190068 0 0.3109911447756647 -0.31350988965823029 0 0.30833746379913463 -0.30503745501229762 0 0.31543696134246668 -0.34593224431305769 0 0.30533649780288991 -0.32025428503190068 0 0.30314188851555429 -0.3464145030398364 0 0.30533649780288991 -0.32025428503190068 0 0.29792146783109758 -0.32077626486014349 0 0.30314188851555429 -0.3464145030398364 0 0.31543696134246668 -0.34593224431305769 0 0.31314202037018413 -0.32284829747545468 0 0.30533649780288991 -0.32025428503190068 0 0.29792146783109758 -0.32077626486014349 0 0.30314188851555429 -0.3464145030398364 0 0.31543696134246668 -0.34593224431305769 0 0.30533649780288991 -0.32025428503190068 0 0.29792146783109758 -0.32077626486014349 0 0.29422135484035322 -0.33366994296298719 0 0.30314188851555429 -0.3464145030398364 0 0.29422135484035322 -0.33366994296298719 0 0.29546103181119637 -0.34185893253319311 0 0.30314188851555429 -0.3464145030398364 0 0.29422135484035322 -0.33366994296298719 0 0.29546103181119637 -0.34185893253319311 0 0.28827175492889229 -0.34275780055790278 0 0.29546103181119637 -0.34185893253319311 0 0.28827175492889229 -0.34275780055790278 0 0.29811044553331972 -0.34650788457159087 0 0.29422135484035322 -0.33366994296298719 0 0.28827175492889229 -0.34275780055790278 0 0.27955848846152698 -0.33666113426449551 0 0.29422135484035322 -0.33366994296298719 0 0.28744860979629389 -0.32474860906702402 0 0.27955848846152698 -0.33666113426449551 0 0.28744860979629389 -0.32474860906702402 0 0.29019889155513462 -0.31620785207956748 0 0.28097437988070417 -0.31138482246715898 0 0.29792146783109758 -0.32077626486014349 0 0.29019889155513462 -0.31620785207956748 0 0.29244758100571983 -0.32385066724243061 0 0.29422135484035322 -0.33366994296298719 0 0.28744860979629389 -0.32474860906702402 0 0.29244758100571983 -0.32385066724243061 0 0.29792146783109758 -0.32077626486014349 0 0.29422135484035322 -0.33366994296298719 0 0.29244758100571983 -0.32385066724243061 0 0.28744860979629389 -0.32474860906702402 0 0.29019889155513462 -0.31620785207956748 0 0.29244758100571983 -0.32385066724243061 0 0.30525369772634148 -0.37164386163485291 0 0.30031449930387721 -0.36082981960256849 0 0.30900602422585888 -0.35865430802761772 0 0.30525369772634148 -0.37164386163485291 0 0.30031449930387721 -0.36082981960256849 0 0.29483415024835152 -0.36747827247447862 0 0.30080593951138668 -0.35381036279877531 0 0.30900602422585888 -0.35865430802761772 0 0.30314188851555429 -0.3464145030398364 0 0.30080593951138668 -0.35381036279877531 0 0.29811044553331972 -0.34650788457159087 0 0.29345683997832372 -0.35664529875226292 0 0.30031449930387721 -0.36082981960256849 0 0.30080593951138668 -0.35381036279877531 0 0.30900602422585888 -0.35865430802761772 0 0.30031449930387721 -0.36082981960256849 0 0.30080593951138668 -0.35381036279877531 0 0.29345683997832372 -0.35664529875226292 0 0.31543696134246668 -0.34593224431305769 0 0.30900602422585888 -0.35865430802761772 0 0.30314188851555429 -0.3464145030398364 0 0.30080593951138668 -0.35381036279877531 0 0.30314188851555429 -0.3464145030398364 0 0.29811044553331972 -0.34650788457159087 0 0.29546103181119637 -0.34185893253319311 0 0.30314188851555429 -0.3464145030398364 0 0.29811044553331972 -0.34650788457159087 0 0.29811044553331972 -0.34650788457159087 0 0.29345683997832372 -0.35664529875226292 0 0.28122462644821988 -0.35688066365974619 0 0.28827175492889229 -0.34275780055790278 0 0.29811044553331972 -0.34650788457159087 0 0.28122462644821988 -0.35688066365974619 0 0.28827175492889229 -0.34275780055790278 0 0.28122462644821988 -0.35688066365974619 0 0.27955848846152698 -0.33666113426449551 0 0.29811044553331972 -0.34650788457159087 0 0.28122462644821988 -0.35688066365974619 0 0.29345683997832372 -0.35664529875226292 0 0.28676543400443838 -0.36101512068260139 0 0.28122462644821988 -0.35688066365974619 0 0.28676543400443838 -0.36101512068260139 0 0.28122462644821988 -0.35688066365974619 0 0.28783989868818821 -0.37644057584389279 0 0.30525369772634148 -0.37164386163485291 0 0.29483415024835152 -0.36747827247447862 0 0.28783989868818821 -0.37644057584389279 0 0.28676543400443838 -0.36101512068260139 0 0.27033126349110148 -0.36357234067652822 0 0.29357505063040601 -0.36145191270551408 0 0.28676543400443838 -0.36101512068260139 0 0.29483415024835152 -0.36747827247447862 0 0.30031449930387721 -0.36082981960256849 0 0.29357505063040601 -0.36145191270551408 0 0.29483415024835152 -0.36747827247447862 0 0.30031449930387721 -0.36082981960256849 0 0.29345683997832372 -0.35664529875226292 0 0.29357505063040601 -0.36145191270551408 0 0.29345683997832372 -0.35664529875226292 0 0.29357505063040601 -0.36145191270551408 0 0.28676543400443838 -0.36101512068260139 0 0.28783989868818821 -0.37644057584389279 0 0.28676543400443838 -0.36101512068260139 0 0.29483415024835152 -0.36747827247447862 0 0.28783989868818821 -0.37644057584389279 0 0.27033126349110148 -0.36357234067652822 0 0.28783989868818821 -0.37644057584389279 0 0.27447250226623809 -0.37821124143188289 0 0.27033126349110148 -0.36357234067652822 0 0.28676543400443838 -0.36101512068260139 0 0.27033126349110148 -0.36357234067652822 0 0.28122462644821988 -0.35688066365974619 0 0.27447250226623809 -0.37821124143188289 0 0.26423397132697279 -0.37890457124200982 0 0.27033126349110148 -0.36357234067652822 0 0.27033126349110148 -0.36357234067652822 0 0.28122462644821988 -0.35688066365974619 0 0.28122462644821988 -0.35688066365974619 0 0.26082083375001269 -0.34165569813656432 0 0.27033126349110148 -0.36357234067652822 0 0.28122462644821988 -0.35688066365974619 0 0.26082083375001269 -0.34165569813656432 0 0.28122462644821988 -0.35688066365974619 0 0.27955848846152698 -0.33666113426449551 0 0.26082083375001269 -0.34165569813656432 0 0.27033126349110148 -0.36357234067652822 0 0.25099839141978419 -0.34936335514031408 0 0.27033126349110148 -0.36357234067652822 0 0.25099839141978419 -0.34936335514031408 0 0.26082083375001269 -0.34165569813656432 0 0.27033126349110148 -0.36357234067652822 0 0.25099839141978419 -0.34936335514031408 0 0.24534349961555019 -0.36253701182870851 0 0.26423397132697279 -0.37890457124200982 0 0.27033126349110148 -0.36357234067652822 0 0.24987622704845311 -0.37613765202982719 0 0.27033126349110148 -0.36357234067652822 0 0.24534349961555019 -0.36253701182870851 0 0.24987622704845311 -0.37613765202982719 0 0.27033126349110148 -0.36357234067652822 0 0.24987622704845311 -0.37613765202982719 0 0.28744860979629389 -0.32474860906702402 0 0.26598899428458778 -0.32103793389256657 0 0.27955848846152698 -0.33666113426449551 0 0.28744860979629389 -0.32474860906702402 0 0.26598899428458778 -0.32103793389256657 0 0.28097437988070417 -0.31138482246715898 0 0.26598899428458778 -0.32103793389256657 0 0.27955848846152698 -0.33666113426449551 0 0.26082083375001269 -0.34165569813656432 0 0.26082083375001269 -0.34165569813656432 0 0.2404170410518052 -0.32643073261338312 0 0.26598899428458778 -0.32103793389256657 0 0.26082083375001269 -0.34165569813656432 0 0.2404170410518052 -0.32643073261338312 0 0.25099839141978419 -0.34936335514031408 0 0.26082083375001269 -0.34165569813656432 0 0.2404170410518052 -0.32643073261338312 0 0.26598899428458778 -0.32103793389256657 0 0.24423538898563429 -0.30587701823941071 0 0.2404170410518052 -0.32643073261338312 0 0.26846821806613752 -0.30050752245993012 0 0.24423538898563429 -0.30587701823941071 0 0.25301376652256202 -0.2892367573709661 0 0.26846821806613752 -0.30050752245993012 0 0.24423538898563429 -0.30587701823941071 0 0.26598899428458778 -0.32103793389256657 0 0.26846821806613752 -0.30050752245993012 0 0.24423538898563429 -0.30587701823941071 0 0.25301376652256202 -0.2892367573709661 0 0.26500420865911251 -0.28331687632378699 0 0.26846821806613752 -0.30050752245993012 0 0.25301376652256202 -0.2892367573709661 0 0.26500420865911251 -0.28331687632378699 0 0.2507153324002197 -0.27704953531328702 0 0.26500420865911251 -0.28331687632378699 0 0.27805302037335089 -0.28584974436810762 0 0.26846821806613752 -0.30050752245993012 0 0.27805302037335089 -0.28584974436810762 0 0.26846821806613752 -0.30050752245993012 0 0.29270104714664102 -0.29513802668045069 0 0.26500420865911251 -0.28331687632378699 0 0.27805302037335089 -0.28584974436810762 0 0.27342558025451552 -0.27498979272208851 0 0.26598899428458778 -0.32103793389256657 0 0.26846821806613752 -0.30050752245993012 0 0.28097437988070417 -0.31138482246715898 0 0.26846821806613752 -0.30050752245993012 0 0.28097437988070417 -0.31138482246715898 0 0.29270104714664102 -0.29513802668045069 0 0.26846821806613752 -0.30050752245993012 0 0.29270104714664102 -0.29513802668045069 0 0.29792146783109758 -0.32077626486014349 0 0.29270104714664102 -0.29513802668045069 0 0.29019889155513462 -0.31620785207956748 0 0.28097437988070417 -0.31138482246715898 0 0.29270104714664102 -0.29513802668045069 0 0.29792146783109758 -0.32077626486014349 0 0.29019889155513462 -0.31620785207956748 0 0.29270104714664102 -0.29513802668045069 0 0.29792146783109758 -0.32077626486014349 0 0.29270104714664102 -0.29513802668045069 0 0.29523603426331357 -0.29457632575074338 0 0.27805302037335089 -0.28584974436810762 0 0.29026987947112831 -0.28319821192468808 0 0.29270104714664102 -0.29513802668045069 0 0.27805302037335089 -0.28584974436810762 0 0.29026987947112831 -0.28319821192468808 0 0.28863308206368682 -0.27515966401439529 0 0.29026987947112831 -0.28319821192468808 0 0.29523603426331357 -0.29457632575074338 0 0.29026987947112831 -0.28319821192468808 0 0.29523603426331357 -0.29457632575074338 0 0.30320790951940702 -0.28313078900162059 0 0.29026987947112831 -0.28319821192468808 0 0.29270104714664102 -0.29513802668045069 0 0.29523603426331357 -0.29457632575074338 0 0.29026987947112831 -0.28319821192468808 0 0.29270104714664102 -0.29513802668045069 0 0.29270104714664102 -0.29513802668045069 0 0.29523603426331357 -0.29457632575074338 0 0.29523603426331357 -0.29457632575074338 0 0.31208952779935789 -0.2908419387292881 0 0.29523603426331357 -0.29457632575074338 0 0.30320790951940702 -0.28313078900162059 0 0.31208952779935789 -0.2908419387292881 0 0.29523603426331357 -0.29457632575074338 0 0.31208952779935789 -0.2908419387292881 0 0.30833746379913463 -0.30503745501229762 0 0.31611371382327402 -0.28007222207304999 0 0.30320790951940702 -0.28313078900162059 0 0.31208952779935789 -0.2908419387292881 0 0.30533649780288991 -0.32025428503190068 0 0.29523603426331357 -0.29457632575074338 0 0.30833746379913463 -0.30503745501229762 0 0.30533649780288991 -0.32025428503190068 0 0.29792146783109758 -0.32077626486014349 0 0.29523603426331357 -0.29457632575074338 0 0.30533649780288991 -0.32025428503190068 0 0.29523603426331357 -0.29457632575074338 0 0.3171485971304504 -0.30589952111326829 0 0.3109911447756647 -0.31350988965823029 0 0.30833746379913463 -0.30503745501229762 0 0.29812220868357159 -0.26533402464574418 0 0.30111904597271899 -0.2536098058489899 0 0.30981211567343969 -0.26250129009931661 0 0.31597462601859122 -0.25080747204364812 0 0.30111904597271899 -0.2536098058489899 0 0.30981211567343969 -0.26250129009931661 0 0.29812220868357159 -0.26533402464574418 0 0.30981211567343969 -0.26250129009931661 0 0.30706455279928557 -0.27339796693147528 0 0.31611371382327402 -0.28007222207304999 0 0.30320790951940702 -0.28313078900162059 0 0.30706455279928557 -0.27339796693147528 0 0.29026987947112831 -0.28319821192468808 0 0.30320790951940702 -0.28313078900162059 0 0.29755036247591721 -0.27602563541609298 0 0.30320790951940702 -0.28313078900162059 0 0.30706455279928557 -0.27339796693147528 0 0.29755036247591721 -0.27602563541609298 0 0.29812220868357159 -0.26533402464574418 0 0.30706455279928557 -0.27339796693147528 0 0.29755036247591721 -0.27602563541609298 0 0.29812220868357159 -0.26533402464574418 0 0.29755036247591721 -0.27602563541609298 0 0.28863308206368682 -0.27515966401439529 0 0.29026987947112831 -0.28319821192468808 0 0.28863308206368682 -0.27515966401439529 0 0.29026987947112831 -0.28319821192468808 0 0.29755036247591721 -0.27602563541609298 0 0.28863308206368682 -0.27515966401439529 0 0.28863308206368682 -0.27515966401439529 0 0.28456511698073272 -0.25518130134833977 0 0.29812220868357159 -0.26533402464574418 0 0.28863308206368682 -0.27515966401439529 0 0.28456511698073272 -0.25518130134833977 0 0.29812220868357159 -0.26533402464574418 0 0.30111904597271899 -0.2536098058489899 0 0.28456511698073272 -0.25518130134833977 0 0.28863308206368682 -0.27515966401439529 0 0.28456511698073272 -0.25518130134833977 0 0.27223885194073971 -0.26265851400849172 0 0.28456511698073272 -0.25518130134833977 0 0.27223885194073971 -0.26265851400849172 0 0.26629969424128969 -0.25192769388052821 0 0.27223885194073971 -0.26265851400849172 0 0.26629969424128969 -0.25192769388052821 0 0.2629172406837702 -0.26740365320709081 0 0.26500420865911251 -0.28331687632378699 0 0.27342558025451552 -0.27498979272208851 0 0.2629172406837702 -0.26740365320709081 0 0.28863308206368682 -0.27515966401439529 0 0.27223885194073971 -0.26265851400849172 0 0.27342558025451552 -0.27498979272208851 0 0.27805302037335089 -0.28584974436810762 0 0.28863308206368682 -0.27515966401439529 0 0.27342558025451552 -0.27498979272208851 0 0.27223885194073971 -0.26265851400849172 0 0.27342558025451552 -0.27498979272208851 0 0.2629172406837702 -0.26740365320709081 0 0.26500420865911251 -0.28331687632378699 0 0.2629172406837702 -0.26740365320709081 0 0.2507153324002197 -0.27704953531328702 0 0.2629172406837702 -0.26740365320709081 0 0.2507153324002197 -0.27704953531328702 0 0.2466218950091964 -0.26012473444713258 0 0.25037283077400019 -0.2416092145933311 0 0.26629969424128969 -0.25192769388052821 0 0.2466218950091964 -0.26012473444713258 0 0.26629969424128969 -0.25192769388052821 0 0.2629172406837702 -0.26740365320709081 0 0.2466218950091964 -0.26012473444713258 0 0.25037283077400019 -0.2416092145933311 0 0.2466218950091964 -0.26012473444713258 0 0.2339549802858914 -0.24933471903745599 0 0.2466218950091964 -0.26012473444713258 0 0.22717476572977791 -0.26325637954660608 0 0.2339549802858914 -0.24933471903745599 0 0.2466218950091964 -0.26012473444713258 0 0.23628574795648369 -0.27498419313581679 0 0.22717476572977791 -0.26325637954660608 0 0.2507153324002197 -0.27704953531328702 0 0.2466218950091964 -0.26012473444713258 0 0.23628574795648369 -0.27498419313581679 0 0.2507153324002197 -0.27704953531328702 0 0.23628574795648369 -0.27498419313581679 0 0.24044913557019401 -0.28723099739492908 0 0.2247339410531527 -0.27667652802353632 0 0.21554844428562811 -0.26491471108287651 0 0.21653111649902579 -0.28712771180040292 0 0.23628574795648369 -0.27498419313581679 0 0.2247339410531527 -0.27667652802353632 0 0.22717476572977791 -0.26325637954660608 0 0.2247339410531527 -0.27667652802353632 0 0.22717476572977791 -0.26325637954660608 0 0.21554844428562811 -0.26491471108287651 0 0.22717476572977791 -0.26325637954660608 0 0.22331750647786899 -0.25281133177650322 0 0.2339549802858914 -0.24933471903745599 0 0.22717476572977791 -0.26325637954660608 0 0.22331750647786899 -0.25281133177650322 0 0.21554844428562811 -0.26491471108287651 0 0.2084475354763706 -0.25511513831035743 0 0.21554844428562811 -0.26491471108287651 0 0.1982966667633215 -0.26354120971092698 0 0.21554844428562811 -0.26491471108287651 0 0.21456577207223029 -0.24270171036535029 0 0.22331750647786899 -0.25281133177650322 0 0.21554844428562811 -0.26491471108287651 0 0.21456577207223029 -0.24270171036535029 0 0.2084475354763706 -0.25511513831035743 0 0.21554844428562811 -0.26491471108287651 0 0.21336353465090491 -0.24693864317134839 0 0.21554844428562811 -0.26491471108287651 0 0.21336353465090491 -0.24693864317134839 0 0.21456577207223029 -0.24270171036535029 0 0.2084475354763706 -0.25511513831035743 0 0.1982966667633215 -0.26354120971092698 0 0.2080714594183444 -0.2424179483002232 0 0.1982966667633215 -0.26354120971092698 0 0.2080714594183444 -0.2424179483002232 0 0.21554844428562811 -0.26491471108287651 0 0.21653111649902579 -0.28712771180040292 0 0.21554844428562811 -0.26491471108287651 0 0.20859607852913339 -0.28093905456482821 0 0.21653111649902579 -0.28712771180040292 0 0.21554844428562811 -0.26491471108287651 0 0.20859607852913339 -0.28093905456482821 0 0.2011380539128553 -0.27767933622792518 0 0.21554844428562811 -0.26491471108287651 0 0.2011380539128553 -0.27767933622792518 0 0.1982966667633215 -0.26354120971092698 0 0.1982966667633215 -0.26354120971092698 0 0.18852187410829821 -0.28466447112163068 0 0.1982966667633215 -0.26354120971092698 0 0.18852187410829821 -0.28466447112163068 0 0.1845366839674035 -0.26640487959885623 0 0.2011380539128553 -0.27767933622792518 0 0.1982966667633215 -0.26354120971092698 0 0.18852187410829821 -0.28466447112163068 0 0.1982966667633215 -0.26354120971092698 0 0.2080714594183444 -0.2424179483002232 0 0.19254414318066221 -0.24961624770678509 0 0.1982966667633215 -0.26354120971092698 0 0.18706352147094041 -0.25756661524031438 0 0.1845366839674035 -0.26640487959885623 0 0.1982966667633215 -0.26354120971092698 0 0.18706352147094041 -0.25756661524031438 0 0.19254414318066221 -0.24961624770678509 0 0.18706352147094041 -0.25756661524031438 0 0.19254414318066221 -0.24961624770678509 0 0.18399505531774341 -0.24981832115951039 0 0.20249447748908611 -0.29813355613580778 0 0.1976485991634879 -0.30796138879627621 0 0.19462594870140809 -0.30164723750547567 0 0.20249447748908611 -0.29813355613580778 0 0.19462594870140809 -0.30164723750547567 0 0.19392418081794471 -0.29575522021664652 0 0.20249447748908611 -0.29813355613580778 0 0.1976485991634879 -0.30796138879627621 0 0.20782414549410869 -0.30817847155873718 0 0.1976485991634879 -0.30796138879627621 0 0.20782414549410869 -0.30817847155873718 0 0.20282381327660201 -0.31505297042611552 0 0.1976485991634879 -0.30796138879627621 0 0.19009702279388629 -0.3064242775921906 0 0.18802618722583669 -0.31833181955932999 0 0.1976485991634879 -0.30796138879627621 0 0.19009702279388629 -0.3064242775921906 0 0.19462594870140809 -0.30164723750547567 0 0.19009702279388629 -0.3064242775921906 0 0.19462594870140809 -0.30164723750547567 0 0.1880606218677118 -0.30022154946313712 0 0.19462594870140809 -0.30164723750547567 0 0.19110113081553529 -0.29631368747161629 0 0.19392418081794471 -0.29575522021664652 0 0.1880606218677118 -0.30022154946313712 0 0.19110113081553529 -0.29631368747161629 0 0.18734834214976739 -0.29514628785519947 0 0.19462594870140809 -0.30164723750547567 0 0.1880606218677118 -0.30022154946313712 0 0.19110113081553529 -0.29631368747161629 0 0.20249447748908611 -0.29813355613580778 0 0.18747516626574931 -0.28692639975368628 0 0.20249447748908611 -0.29813355613580778 0 0.19392418081794471 -0.29575522021664652 0 0.18747516626574931 -0.28692639975368628 0 0.19110113081553529 -0.29631368747161629 0 0.19392418081794471 -0.29575522021664652 0 0.18747516626574931 -0.28692639975368628 0 0.19110113081553529 -0.29631368747161629 0 0.18747516626574931 -0.28692639975368628 0 0.18734834214976739 -0.29514628785519947 0 0.18852187410829821 -0.28466447112163068 0 0.19787122383615691 -0.29172525818392958 0 0.18852187410829821 -0.28466447112163068 0 0.19731262536099689 -0.28481999283041842 0 0.19787122383615691 -0.29172525818392958 0 0.18852187410829821 -0.28466447112163068 0 0.19787122383615691 -0.29172525818392958 0 0.18747516626574931 -0.28692639975368628 0 0.18852187410829821 -0.28466447112163068 0 0.18747516626574931 -0.28692639975368628 0 0.2011380539128553 -0.27767933622792518 0 0.18852187410829821 -0.28466447112163068 0 0.19731262536099689 -0.28481999283041842 0 0.201719349586677 -0.2852109057881882 0 0.19787122383615691 -0.29172525818392958 0 0.206049533411369 -0.28982701925762389 0 0.19731262536099689 -0.28481999283041842 0 0.201719349586677 -0.2852109057881882 0 0.19787122383615691 -0.29172525818392958 0 0.2011380539128553 -0.27767933622792518 0 0.19731262536099689 -0.28481999283041842 0 0.201719349586677 -0.2852109057881882 0 0.20249447748908611 -0.29813355613580778 0 0.19787122383615691 -0.29172525818392958 0 0.18747516626574931 -0.28692639975368628 0 0.20249447748908611 -0.29813355613580778 0 0.19787122383615691 -0.29172525818392958 0 0.206049533411369 -0.28982701925762389 0 0.20249447748908611 -0.29813355613580778 0 0.206049533411369 -0.28982701925762389 0 0.20903552332543929 -0.29406903275804652 0 0.206049533411369 -0.28982701925762389 0 0.20903552332543929 -0.29406903275804652 0 0.21653111649902579 -0.28712771180040292 0 0.20249447748908611 -0.29813355613580778 0 0.20903552332543929 -0.29406903275804652 0 0.2123558614978226 -0.29827812898856709 0 0.20859607852913339 -0.28093905456482821 0 0.206049533411369 -0.28982701925762389 0 0.21653111649902579 -0.28712771180040292 0 0.20859607852913339 -0.28093905456482821 0 0.201719349586677 -0.2852109057881882 0 0.206049533411369 -0.28982701925762389 0 0.20859607852913339 -0.28093905456482821 0 0.2011380539128553 -0.27767933622792518 0 0.201719349586677 -0.2852109057881882 0 0.20903552332543929 -0.29406903275804652 0 0.21653111649902579 -0.28712771180040292 0 0.2123558614978226 -0.29827812898856709 0 0.21653111649902579 -0.28712771180040292 0 0.2175137887124228 -0.30934071251792922 0 0.21653111649902579 -0.28712771180040292 0 0.2123558614978226 -0.29827812898856709 0 0.2175137887124228 -0.30934071251792922 0 0.20249447748908611 -0.29813355613580778 0 0.2123558614978226 -0.29827812898856709 0 0.2175137887124228 -0.30934071251792922 0 0.20249447748908611 -0.29813355613580778 0 0.2175137887124228 -0.30934071251792922 0 0.20782414549410869 -0.30817847155873718 0 0.2176214393273678 -0.31177412129290383 0 0.20282381327660201 -0.31505297042611552 0 0.20249447748908611 -0.29813355613580778 0 0.20782414549410869 -0.30817847155873718 0 0.2175137887124228 -0.30934071251792922 0 0.20782414549410869 -0.30817847155873718 0 0.2175137887124228 -0.30934071251792922 0 0.2176214393273678 -0.31177412129290383 0 0.2175137887124228 -0.30934071251792922 0 0.2176214393273678 -0.31177412129290383 0 0.2175137887124228 -0.30934071251792922 0 0.2176214393273678 -0.31177412129290383 0 0.21999804566891551 -0.31122614102315033 0 0.21999804566891551 -0.31122614102315033 0 0.24423538898563429 -0.30587701823941071 0 0.2175137887124228 -0.30934071251792922 0 0.21999804566891551 -0.31122614102315033 0 0.22812963079484819 -0.29309964455197901 0 0.21999804566891551 -0.31122614102315033 0 0.22812963079484819 -0.29309964455197901 0 0.21999804566891551 -0.31122614102315033 0 0.22812963079484819 -0.29309964455197901 0 0.24423538898563429 -0.30587701823941071 0 0.2176214393273678 -0.31177412129290383 0 0.21999804566891551 -0.31122614102315033 0 0.2175137887124228 -0.30934071251792922 0 0.21999804566891551 -0.31122614102315033 0 0.23628574795648369 -0.27498419313581679 0 0.22812963079484819 -0.29309964455197901 0 0.2247339410531527 -0.27667652802353632 0 0.21653111649902579 -0.28712771180040292 0 0.22812963079484819 -0.29309964455197901 0 0.23628574795648369 -0.27498419313581679 0 0.2247339410531527 -0.27667652802353632 0 0.22812963079484819 -0.29309964455197901 0 0.21653111649902579 -0.28712771180040292 0 0.2175137887124228 -0.30934071251792922 0 0.22812963079484819 -0.29309964455197901 0 0.23628574795648369 -0.27498419313581679 0 0.22812963079484819 -0.29309964455197901 0 0.24044913557019401 -0.28723099739492908 0 0.25301376652256202 -0.2892367573709661 0 0.24044913557019401 -0.28723099739492908 0 0.24423538898563429 -0.30587701823941071 0 0.22812963079484819 -0.29309964455197901 0 0.24044913557019401 -0.28723099739492908 0 0.24423538898563429 -0.30587701823941071 0 0.25301376652256202 -0.2892367573709661 0 0.2507153324002197 -0.27704953531328702 0 0.24044913557019401 -0.28723099739492908 0 0.21999804566891551 -0.31122614102315033 0 0.24423538898563429 -0.30587701823941071 0 0.2404170410518052 -0.32643073261338312 0 0.25099839141978419 -0.34936335514031408 0 0.2316655193484673 -0.33515436960409939 0 0.25099839141978419 -0.34936335514031408 0 0.2404170410518052 -0.32643073261338312 0 0.2316655193484673 -0.33515436960409939 0 0.2404170410518052 -0.32643073261338312 0 0.2316655193484673 -0.33515436960409939 0 0.2247705650129608 -0.32491873692320528 0 0.2316655193484673 -0.33515436960409939 0 0.22208049410379579 -0.34309390150507102 0 0.22867514261462599 -0.34782526071452929 0 0.2316655193484673 -0.33515436960409939 0 0.22208049410379579 -0.34309390150507102 0 0.220555537226792 -0.33578323097752499 0 0.22208049410379579 -0.34309390150507102 0 0.220555537226792 -0.33578323097752499 0 0.21451162402718699 -0.34512658597487872 0 0.220555537226792 -0.33578323097752499 0 0.2247705650129608 -0.32491873692320528 0 0.21820242441149371 -0.32490710899175251 0 0.2316655193484673 -0.33515436960409939 0 0.220555537226792 -0.33578323097752499 0 0.2247705650129608 -0.32491873692320528 0 0.21999804566891551 -0.31122614102315033 0 0.2404170410518052 -0.32643073261338312 0 0.2247705650129608 -0.32491873692320528 0 0.21999804566891551 -0.31122614102315033 0 0.2404170410518052 -0.32643073261338312 0 0.2247705650129608 -0.32491873692320528 0 0.21780935440599439 -0.31602188338433101 0 0.21820242441149371 -0.32490710899175251 0 0.21999804566891551 -0.31122614102315033 0 0.2247705650129608 -0.32491873692320528 0 0.21780935440599439 -0.31602188338433101 0 0.21999804566891551 -0.31122614102315033 0 0.21780935440599439 -0.31602188338433101 0 0.23679608458568241 -0.3713456781615978 0 0.24534349961555019 -0.36253701182870851 0 0.24987622704845311 -0.37613765202982719 0 0.23679608458568241 -0.3713456781615978 0 0.24534349961555019 -0.36253701182870851 0 0.23133102347449649 -0.35950822589080189 0 0.25099839141978419 -0.34936335514031408 0 0.2316655193484673 -0.33515436960409939 0 0.23760271529458479 -0.35087764463569071 0 0.24534349961555019 -0.36253701182870851 0 0.23760271529458479 -0.35087764463569071 0 0.23133102347449649 -0.35950822589080189 0 0.25099839141978419 -0.34936335514031408 0 0.24534349961555019 -0.36253701182870851 0 0.23760271529458479 -0.35087764463569071 0 0.2316655193484673 -0.33515436960409939 0 0.23760271529458479 -0.35087764463569071 0 0.22867514261462599 -0.34782526071452929 0 0.22208049410379579 -0.34309390150507102 0 0.22076837523631451 -0.35267920974236072 0 0.21451162402718699 -0.34512658597487872 0 0.22208049410379579 -0.34309390150507102 0 0.22867514261462599 -0.34782526071452929 0 0.22076837523631451 -0.35267920974236072 0 0.22076837523631451 -0.35267920974236072 0 0.22341137818785181 -0.36337688942730773 0 0.21609027172906259 -0.36087537471117581 0 0.22076837523631451 -0.35267920974236072 0 0.23133102347449649 -0.35950822589080189 0 0.22341137818785181 -0.36337688942730773 0 0.22867514261462599 -0.34782526071452929 0 0.22076837523631451 -0.35267920974236072 0 0.23133102347449649 -0.35950822589080189 0 0.23760271529458479 -0.35087764463569071 0 0.22867514261462599 -0.34782526071452929 0 0.23133102347449649 -0.35950822589080189 0 0.23133102347449649 -0.35950822589080189 0 0.22341137818785181 -0.36337688942730773 0 0.22699371624108439 -0.37103399677892651 0 0.22341137818785181 -0.36337688942730773 0 0.22699371624108439 -0.37103399677892651 0 0.21663927632257499 -0.37152038636996992 0 0.22699371624108439 -0.37103399677892651 0 0.21663927632257499 -0.37152038636996992 0 0.22189277223980711 -0.38054577212349588 0 0.23679608458568241 -0.3713456781615978 0 0.22699371624108439 -0.37103399677892651 0 0.23010576568282681 -0.37607478874810818 0 0.23679608458568241 -0.3713456781615978 0 0.23133102347449649 -0.35950822589080189 0 0.22699371624108439 -0.37103399677892651 0 0.21663927632257499 -0.37152038636996992 0 0.20683644217058031 -0.36558797855932218 0 0.20576161095015591 -0.37595213443190167 0 0.22341137818785181 -0.36337688942730773 0 0.21663927632257499 -0.37152038636996992 0 0.21609027172906259 -0.36087537471117581 0 0.21609027172906259 -0.36087537471117581 0 0.20683644217058031 -0.36558797855932218 0 0.21089823393406021 -0.35324530101306001 0 0.21663927632257499 -0.37152038636996992 0 0.21609027172906259 -0.36087537471117581 0 0.20683644217058031 -0.36558797855932218 0 0.19940837682496099 -0.35689206815154528 0 0.20777431361625601 -0.33831058893907762 0 0.21089823393406021 -0.35324530101306001 0 0.19940837682496099 -0.35689206815154528 0 0.20777431361625601 -0.33831058893907762 0 0.20683644217058031 -0.36558797855932218 0 0.21089823393406021 -0.35324530101306001 0 0.19940837682496099 -0.35689206815154528 0 0.22076837523631451 -0.35267920974236072 0 0.21609027172906259 -0.36087537471117581 0 0.21089823393406021 -0.35324530101306001 0 0.21089823393406021 -0.35324530101306001 0 0.21451162402718699 -0.34512658597487872 0 0.20777431361625601 -0.33831058893907762 0 0.22076837523631451 -0.35267920974236072 0 0.21089823393406021 -0.35324530101306001 0 0.21451162402718699 -0.34512658597487872 0 0.1971616983813648 -0.34495631128618592 0 0.19940837682496099 -0.35689206815154528 0 0.20777431361625601 -0.33831058893907762 0 0.1971616983813648 -0.34495631128618592 0 0.18787137947787569 -0.35180034780069419 0 0.18864170350563411 -0.33720407153827198 0 0.1971616983813648 -0.34495631128618592 0 0.18787137947787569 -0.35180034780069419 0 0.19940837682496099 -0.35689206815154528 0 0.20683644217058031 -0.36558797855932218 0 0.20576161095015591 -0.37595213443190167 0 0.1910424400336663 -0.37547354736401328 0 0.18787137947787569 -0.35180034780069419 0 0.19940837682496099 -0.35689206815154528 0 0.1910424400336663 -0.37547354736401328 0 0.19940837682496099 -0.35689206815154528 0 0.1910424400336663 -0.37547354736401328 0 0.20683644217058031 -0.36558797855932218 0 0.19940837682496099 -0.35689206815154528 0 0.1910424400336663 -0.37547354736401328 0 0.21780935440599439 -0.31602188338433101 0 0.20777431361625601 -0.33831058893907762 0 0.21780935440599439 -0.31602188338433101 0 0.20777431361625601 -0.33831058893907762 0 0.20282381327660201 -0.31505297042611552 0 0.21780935440599439 -0.31602188338433101 0 0.21820242441149371 -0.32490710899175251 0 0.20777431361625601 -0.33831058893907762 0 0.2176214393273678 -0.31177412129290383 0 0.20282381327660201 -0.31505297042611552 0 0.2176214393273678 -0.31177412129290383 0 0.21780935440599439 -0.31602188338433101 0 0.20282381327660201 -0.31505297042611552 0 0.2176214393273678 -0.31177412129290383 0 0.21780935440599439 -0.31602188338433101 0 0.2176214393273678 -0.31177412129290383 0 0.21999804566891551 -0.31122614102315033 0 0.21780935440599439 -0.31602188338433101 0 0.21780935440599439 -0.31602188338433101 0 0.21820242441149371 -0.32490710899175251 0 0.220555537226792 -0.33578323097752499 0 0.21820242441149371 -0.32490710899175251 0 0.20777431361625601 -0.33831058893907762 0 0.220555537226792 -0.33578323097752499 0 0.21451162402718699 -0.34512658597487872 0 0.20777431361625601 -0.33831058893907762 0 0.21451162402718699 -0.34512658597487872 0 0.20777431361625601 -0.33831058893907762 0 0.1971616983813648 -0.34495631128618592 0 0.20777431361625601 -0.33831058893907762 0 0.18864170350563411 -0.33720407153827198 0 0.20777431361625601 -0.33831058893907762 0 0.18802618722583669 -0.31833181955932999 0 0.20777431361625601 -0.33831058893907762 0 0.18864170350563411 -0.33720407153827198 0 0.18802618722583669 -0.31833181955932999 0 0.20777431361625601 -0.33831058893907762 0 0.20282381327660201 -0.31505297042611552 0 0.18802618722583669 -0.31833181955932999 0 0.20282381327660201 -0.31505297042611552 0 0.18802618722583669 -0.31833181955932999 0 0.1976485991634879 -0.30796138879627621 0 0.20282381327660201 -0.31505297042611552 0 0.18802618722583669 -0.31833181955932999 0 0.18802618722583669 -0.31833181955932999 0 0.1791507244663583 -0.32983729973660558 0 0.16791254130802971 -0.3227885891963716 0 0.18802618722583669 -0.31833181955932999 0 0.17151825735526699 -0.31325416760549368 0 0.16791254130802971 -0.3227885891963716 0 0.18802618722583669 -0.31833181955932999 0 0.16791254130802971 -0.3227885891963716 0 0.18864170350563411 -0.33720407153827198 0 0.18802618722583669 -0.31833181955932999 0 0.1791507244663583 -0.32983729973660558 0 0.17202246582593331 -0.34102471865244838 0 0.1791507244663583 -0.32983729973660558 0 0.16791254130802971 -0.3227885891963716 0 0.18787137947787569 -0.35180034780069419 0 0.18864170350563411 -0.33720407153827198 0 0.17202246582593331 -0.34102471865244838 0 0.18864170350563411 -0.33720407153827198 0 0.17202246582593331 -0.34102471865244838 0 0.1791507244663583 -0.32983729973660558 0 0.17202246582593331 -0.34102471865244838 0 0.1546435437787094 -0.34381338892778002 0 0.1557586906108582 -0.32786840018592928 0 0.17202246582593331 -0.34102471865244838 0 0.16791254130802971 -0.3227885891963716 0 0.1557586906108582 -0.32786840018592928 0 0.16791254130802971 -0.3227885891963716 0 0.1557586906108582 -0.32786840018592928 0 0.1602411687519314 -0.31190927739118429 0 0.17151825735526699 -0.31325416760549368 0 0.16791254130802971 -0.3227885891963716 0 0.1602411687519314 -0.31190927739118429 0 0.18787137947787569 -0.35180034780069419 0 0.17662324672053431 -0.35795823269279659 0 0.1910424400336663 -0.37547354736401328 0 0.17662324672053431 -0.35795823269279659 0 0.17035242753357599 -0.36877211446365682 0 0.1910424400336663 -0.37547354736401328 0 0.17035242753357599 -0.36877211446365682 0 0.1910424400336663 -0.37547354736401328 0 0.1737051017910701 -0.38004230502140057 0 0.18787137947787569 -0.35180034780069419 0 0.17202246582593331 -0.34102471865244838 0 0.17662324672053431 -0.35795823269279659 0 0.17202246582593331 -0.34102471865244838 0 0.17662324672053431 -0.35795823269279659 0 0.16265844046108829 -0.35526087104265458 0 0.17202246582593331 -0.34102471865244838 0 0.16265844046108829 -0.35526087104265458 0 0.1546435437787094 -0.34381338892778002 0 0.17662324672053431 -0.35795823269279659 0 0.16265844046108829 -0.35526087104265458 0 0.17035242753357599 -0.36877211446365682 0 0.16265844046108829 -0.35526087104265458 0 0.1569593121701936 -0.36832063090657668 0 0.17035242753357599 -0.36877211446365682 0 0.1569593121701936 -0.36832063090657668 0 0.17035242753357599 -0.36877211446365682 0 0.16307541855137739 -0.37743582412871929 0 0.14536400873927011 -0.3681220756701501 0 0.1426630499740982 -0.35652090160864008 0 0.13524945632583441 -0.37311377610700652 0 0.16265844046108829 -0.35526087104265458 0 0.1569593121701936 -0.36832063090657668 0 0.1426630499740982 -0.35652090160864008 0 0.14536400873927011 -0.3681220756701501 0 0.13524945632583441 -0.37311377610700652 0 0.14973869037300869 -0.38096853745143089 0 0.1569593121701936 -0.36832063090657668 0 0.14536400873927011 -0.3681220756701501 0 0.14973869037300869 -0.38096853745143089 0 0.1569593121701936 -0.36832063090657668 0 0.14536400873927011 -0.3681220756701501 0 0.1426630499740982 -0.35652090160864008 0 0.1546435437787094 -0.34381338892778002 0 0.1426630499740982 -0.35652090160864008 0 0.1424354920479888 -0.33775294740649747 0 0.16265844046108829 -0.35526087104265458 0 0.1546435437787094 -0.34381338892778002 0 0.1426630499740982 -0.35652090160864008 0 0.13449730155472761 -0.34743155680512378 0 0.12784456261830821 -0.36308533366748658 0 0.123981461538115 -0.35128285539313481 0 0.1426630499740982 -0.35652090160864008 0 0.13449730155472761 -0.34743155680512378 0 0.1424354920479888 -0.33775294740649747 0 0.1426630499740982 -0.35652090160864008 0 0.13449730155472761 -0.34743155680512378 0 0.12784456261830821 -0.36308533366748658 0 0.13449730155472761 -0.34743155680512378 0 0.13051916655351839 -0.33696304048325831 0 0.123981461538115 -0.35128285539313481 0 0.1426630499740982 -0.35652090160864008 0 0.12784456261830821 -0.36308533366748658 0 0.13524945632583441 -0.37311377610700652 0 0.12784456261830821 -0.36308533366748658 0 0.13524945632583441 -0.37311377610700652 0 0.12609635470998201 -0.38402791619100712 0 0.14855409589738661 -0.31441038212804873 0 0.1557586906108582 -0.32786840018592928 0 0.1602411687519314 -0.31190927739118429 0 0.1445015266660287 -0.32337949759917511 0 0.14855409589738661 -0.31441038212804873 0 0.13871327718005111 -0.31332369293528212 0 0.1445015266660287 -0.32337949759917511 0 0.14855409589738661 -0.31441038212804873 0 0.1557586906108582 -0.32786840018592928 0 0.1546435437787094 -0.34381338892778002 0 0.1557586906108582 -0.32786840018592928 0 0.1424354920479888 -0.33775294740649747 0 0.1445015266660287 -0.32337949759917511 0 0.1557586906108582 -0.32786840018592928 0 0.1424354920479888 -0.33775294740649747 0 0.1445015266660287 -0.32337949759917511 0 0.1424354920479888 -0.33775294740649747 0 0.13219802669416811 -0.32498852212276208 0 0.1424354920479888 -0.33775294740649747 0 0.13051916655351839 -0.33696304048325831 0 0.13219802669416811 -0.32498852212276208 0 0.13449730155472761 -0.34743155680512378 0 0.1424354920479888 -0.33775294740649747 0 0.13051916655351839 -0.33696304048325831 0 0.13051916655351839 -0.33696304048325831 0 0.13219802669416811 -0.32498852212276208 0 0.12260601330919629 -0.33072698382653798 0 0.1445015266660287 -0.32337949759917511 0 0.13219802669416811 -0.32498852212276208 0 0.13871327718005111 -0.31332369293528212 0 0.13219802669416811 -0.32498852212276208 0 0.1265219532001009 -0.3124330460259736 0 0.1192961391526948 -0.32261879728377291 0 0.13219802669416811 -0.32498852212276208 0 0.13871327718005111 -0.31332369293528212 0 0.1265219532001009 -0.3124330460259736 0 0.1265219532001009 -0.3124330460259736 0 0.1332586495603032 -0.30031372317270688 0 0.1198701537204314 -0.30089140532399938 0 0.1332586495603032 -0.30031372317270688 0 0.1242383748246253 -0.29131174999725179 0 0.1198701537204314 -0.30089140532399938 0 0.13871327718005111 -0.31332369293528212 0 0.1265219532001009 -0.3124330460259736 0 0.1332586495603032 -0.30031372317270688 0 0.13871327718005111 -0.31332369293528212 0 0.1332586495603032 -0.30031372317270688 0 0.147245411062319 -0.30441698656302629 0 0.14855409589738661 -0.31441038212804873 0 0.13871327718005111 -0.31332369293528212 0 0.147245411062319 -0.30441698656302629 0 0.147245411062319 -0.30441698656302629 0 0.15432967412725099 -0.29846298066074151 0 0.14327492933615671 -0.29425024746867751 0 0.1332586495603032 -0.30031372317270688 0 0.147245411062319 -0.30441698656302629 0 0.14327492933615671 -0.29425024746867751 0 0.147245411062319 -0.30441698656302629 0 0.15432967412725099 -0.29846298066074151 0 0.1602411687519314 -0.31190927739118429 0 0.14855409589738661 -0.31441038212804873 0 0.147245411062319 -0.30441698656302629 0 0.1602411687519314 -0.31190927739118429 0 0.15432967412725099 -0.29846298066074151 0 0.1517600770447052 -0.28164214899084639 0 0.14327492933615671 -0.29425024746867751 0 0.1517600770447052 -0.28164214899084639 0 0.14327492933615671 -0.29425024746867751 0 0.13646338677899769 -0.28546266283427663 0 0.1332586495603032 -0.30031372317270688 0 0.14327492933615671 -0.29425024746867751 0 0.13646338677899769 -0.28546266283427663 0 0.1332586495603032 -0.30031372317270688 0 0.13646338677899769 -0.28546266283427663 0 0.1242383748246253 -0.29131174999725179 0 0.13646338677899769 -0.28546266283427663 0 0.1233023238440631 -0.28097148456094378 0 0.1242383748246253 -0.29131174999725179 0 0.1517600770447052 -0.28164214899084639 0 0.13646338677899769 -0.28546266283427663 0 0.1311170075682456 -0.27142576198599933 0 0.1517600770447052 -0.28164214899084639 0 0.1311170075682456 -0.27142576198599933 0 0.1364827709165429 -0.26618641562940759 0 0.13646338677899769 -0.28546266283427663 0 0.1311170075682456 -0.27142576198599933 0 0.1233023238440631 -0.28097148456094378 0 0.1311170075682456 -0.27142576198599933 0 0.1364827709165429 -0.26618641562940759 0 0.1212054647883809 -0.25073068226796852 0 0.1364827709165429 -0.26618641562940759 0 0.13217397618885759 -0.25462043987800831 0 0.1212054647883809 -0.25073068226796852 0 0.1364827709165429 -0.26618641562940759 0 0.1212054647883809 -0.25073068226796852 0 0.1364827709165429 -0.26618641562940759 0 0.13217397618885759 -0.25462043987800831 0 0.14275904560399111 -0.25945725309375861 0 0.13217397618885759 -0.25462043987800831 0 0.1429630926125974 -0.2502577086919005 0 0.14275904560399111 -0.25945725309375861 0 0.1429630926125974 -0.2502577086919005 0 0.16574248336044761 -0.26746108990676593 0 0.1429630926125974 -0.2502577086919005 0 0.15128247879849499 -0.26292486595599002 0 0.16574248336044761 -0.26746108990676593 0 0.1429630926125974 -0.2502577086919005 0 0.16574248336044761 -0.26746108990676593 0 0.16001236861667459 -0.2513654190734112 0 0.1429630926125974 -0.2502577086919005 0 0.14275904560399111 -0.25945725309375861 0 0.15128247879849499 -0.26292486595599002 0 0.1364827709165429 -0.26618641562940759 0 0.14275904560399111 -0.25945725309375861 0 0.15128247879849499 -0.26292486595599002 0 0.1517600770447052 -0.28164214899084639 0 0.1364827709165429 -0.26618641562940759 0 0.15128247879849499 -0.26292486595599002 0 0.1517600770447052 -0.28164214899084639 0 0.15128247879849499 -0.26292486595599002 0 0.15776774232478771 -0.26956647822523339 0 0.1517600770447052 -0.28164214899084639 0 0.1311170075682456 -0.27142576198599933 0 0.1517600770447052 -0.28164214899084639 0 0.1364827709165429 -0.26618641562940759 0 0.1517600770447052 -0.28164214899084639 0 0.16209364730358741 -0.27452888323759039 0 0.16594555478614451 -0.28284233368471318 0 0.1517600770447052 -0.28164214899084639 0 0.16209364730358741 -0.27452888323759039 0 0.15776774232478771 -0.26956647822523339 0 0.16209364730358741 -0.27452888323759039 0 0.15776774232478771 -0.26956647822523339 0 0.16574248336044761 -0.26746108990676593 0 0.15128247879849499 -0.26292486595599002 0 0.15776774232478771 -0.26956647822523339 0 0.16574248336044761 -0.26746108990676593 0 0.16209364730358741 -0.27452888323759039 0 0.16574248336044761 -0.26746108990676593 0 0.16920230535812411 -0.27329149954452342 0 0.16209364730358741 -0.27452888323759039 0 0.16920230535812411 -0.27329149954452342 0 0.16594555478614451 -0.28284233368471318 0 0.16920230535812411 -0.27329149954452342 0 0.1710222018321049 -0.28124575318360368 0 0.16594555478614451 -0.28284233368471318 0 0.16574248336044761 -0.26746108990676593 0 0.16001236861667459 -0.2513654190734112 0 0.16988601458932601 -0.2589500224365659 0 0.16574248336044761 -0.26746108990676593 0 0.16988601458932601 -0.2589500224365659 0 0.17628584543496439 -0.26683535894776161 0 0.16001236861667459 -0.2513654190734112 0 0.16988601458932601 -0.2589500224365659 0 0.16978669848249819 -0.25098739912941831 0 0.1767458594742066 -0.25730285456071711 0 0.17619278994504239 -0.24587918172992959 0 0.18399505531774341 -0.24981832115951039 0 0.16978669848249819 -0.25098739912941831 0 0.1767458594742066 -0.25730285456071711 0 0.17619278994504239 -0.24587918172992959 0 0.16988601458932601 -0.2589500224365659 0 0.16978669848249819 -0.25098739912941831 0 0.1767458594742066 -0.25730285456071711 0 0.16988601458932601 -0.2589500224365659 0 0.1767458594742066 -0.25730285456071711 0 0.17628584543496439 -0.26683535894776161 0 0.1767458594742066 -0.25730285456071711 0 0.17628584543496439 -0.26683535894776161 0 0.1845366839674035 -0.26640487959885623 0 0.1767458594742066 -0.25730285456071711 0 0.18706352147094041 -0.25756661524031438 0 0.1845366839674035 -0.26640487959885623 0 0.1767458594742066 -0.25730285456071711 0 0.18706352147094041 -0.25756661524031438 0 0.18399505531774341 -0.24981832115951039 0 0.18852187410829821 -0.28466447112163068 0 0.17628584543496439 -0.26683535894776161 0 0.1845366839674035 -0.26640487959885623 0 0.18852187410829821 -0.28466447112163068 0 0.16574248336044761 -0.26746108990676593 0 0.18852187410829821 -0.28466447112163068 0 0.16574248336044761 -0.26746108990676593 0 0.17628584543496439 -0.26683535894776161 0 0.16920230535812411 -0.27329149954452342 0 0.18747516626574931 -0.28692639975368628 0 0.17602993407772211 -0.2832030986568283 0 0.18852187410829821 -0.28466447112163068 0 0.16574248336044761 -0.26746108990676593 0 0.16920230535812411 -0.27329149954452342 0 0.16920230535812411 -0.27329149954452342 0 0.18747516626574931 -0.28692639975368628 0 0.16920230535812411 -0.27329149954452342 0 0.1710222018321049 -0.28124575318360368 0 0.17602993407772211 -0.2832030986568283 0 0.18747516626574931 -0.28692639975368628 0 0.1806905449634813 -0.28832929748571318 0 0.17602993407772211 -0.2832030986568283 0 0.18852187410829821 -0.28466447112163068 0 0.16920230535812411 -0.27329149954452342 0 0.18747516626574931 -0.28692639975368628 0 0.18747516626574931 -0.28692639975368628 0 0.1806905449634813 -0.28832929748571318 0 0.18301660310609241 -0.29114958545392738 0 0.17291101310642881 -0.28564608084835003 0 0.17864991096044419 -0.29495009963706692 0 0.16594555478614451 -0.28284233368471318 0 0.1806905449634813 -0.28832929748571318 0 0.17602993407772211 -0.2832030986568283 0 0.17673138357400531 -0.28840876668861409 0 0.17602993407772211 -0.2832030986568283 0 0.17673138357400531 -0.28840876668861409 0 0.17291101310642881 -0.28564608084835003 0 0.1710222018321049 -0.28124575318360368 0 0.17602993407772211 -0.2832030986568283 0 0.17291101310642881 -0.28564608084835003 0 0.17673138357400531 -0.28840876668861409 0 0.17291101310642881 -0.28564608084835003 0 0.17864991096044419 -0.29495009963706692 0 0.17673138357400531 -0.28840876668861409 0 0.17909088347012619 -0.29088019083727579 0 0.17864991096044419 -0.29495009963706692 0 0.1806905449634813 -0.28832929748571318 0 0.17673138357400531 -0.28840876668861409 0 0.17909088347012619 -0.29088019083727579 0 0.17909088347012619 -0.29088019083727579 0 0.17864991096044419 -0.29495009963706692 0 0.18114425154506539 -0.29221912984395187 0 0.18747516626574931 -0.28692639975368628 0 0.18734834214976739 -0.29514628785519947 0 0.1827564496500734 -0.29712351473235832 0 0.18747516626574931 -0.28692639975368628 0 0.18301660310609241 -0.29114958545392738 0 0.1827564496500734 -0.29712351473235832 0 0.18114425154506539 -0.29221912984395187 0 0.18301660310609241 -0.29114958545392738 0 0.1827564496500734 -0.29712351473235832 0 0.17864991096044419 -0.29495009963706692 0 0.18114425154506539 -0.29221912984395187 0 0.1827564496500734 -0.29712351473235832 0 0.18747516626574931 -0.28692639975368628 0 0.1827564496500734 -0.29712351473235832 0 0.1806905449634813 -0.28832929748571318 0 0.18114425154506539 -0.29221912984395187 0 0.18301660310609241 -0.29114958545392738 0 0.1806905449634813 -0.28832929748571318 0 0.17909088347012619 -0.29088019083727579 0 0.18114425154506539 -0.29221912984395187 0 0.18802618722583669 -0.31833181955932999 0 0.18221347423979239 -0.30458962683289892 0 0.1698931321352706 -0.29998698427508858 0 0.1880606218677118 -0.30022154946313712 0 0.18734834214976739 -0.29514628785519947 0 0.1827564496500734 -0.29712351473235832 0 0.19009702279388629 -0.3064242775921906 0 0.1880606218677118 -0.30022154946313712 0 0.18221347423979239 -0.30458962683289892 0 0.18802618722583669 -0.31833181955932999 0 0.17151825735526699 -0.31325416760549368 0 0.1698931321352706 -0.29998698427508858 0 0.1880606218677118 -0.30022154946313712 0 0.18221347423979239 -0.30458962683289892 0 0.1827564496500734 -0.29712351473235832 0 0.18802618722583669 -0.31833181955932999 0 0.1698931321352706 -0.29998698427508858 0 0.17864991096044419 -0.29495009963706692 0 0.1827564496500734 -0.29712351473235832 0 0.17837824174639511 -0.29916255636935318 0 0.18221347423979239 -0.30458962683289892 0 0.1827564496500734 -0.29712351473235832 0 0.17837824174639511 -0.29916255636935318 0 0.19009702279388629 -0.3064242775921906 0 0.18802618722583669 -0.31833181955932999 0 0.18221347423979239 -0.30458962683289892 0 0.18221347423979239 -0.30458962683289892 0 0.17837824174639511 -0.29916255636935318 0 0.1698931321352706 -0.29998698427508858 0 0.17864991096044419 -0.29495009963706692 0 0.17837824174639511 -0.29916255636935318 0 0.1698931321352706 -0.29998698427508858 0 0.17151825735526699 -0.31325416760549368 0 0.1698931321352706 -0.29998698427508858 0 0.1602411687519314 -0.31190927739118429 0 0.15432967412725099 -0.29846298066074151 0 0.1698931321352706 -0.29998698427508858 0 0.1602411687519314 -0.31190927739118429 0 0.1517600770447052 -0.28164214899084639 0 0.17864991096044419 -0.29495009963706692 0 0.1698931321352706 -0.29998698427508858 0 0.1517600770447052 -0.28164214899084639 0 0.1698931321352706 -0.29998698427508858 0 0.15432967412725099 -0.29846298066074151 0 0.1517600770447052 -0.28164214899084639 0 0.1698931321352706 -0.29998698427508858 0 0.1517600770447052 -0.28164214899084639 0 0.17864991096044419 -0.29495009963706692 0 0.1517600770447052 -0.28164214899084639 0 0.17864991096044419 -0.29495009963706692 0 0.16594555478614451 -0.28284233368471318 0 0.1710222018321049 -0.28124575318360368 0 0.17291101310642881 -0.28564608084835003 0 0.16594555478614451 -0.28284233368471318 0 0.21438456257476449 -0.5 0 0.2048745361024723 -0.48472171768082351 0 0.18744203257390391 -0.5 0 0.19122796324104871 -0.48466606029959602 0 0.2048745361024723 -0.48472171768082351 0 0.18744203257390391 -0.5 0 0.19122796324104871 -0.48466606029959602 0 0.20365346230900849 -0.47086657296764728 0 0.1938641377332887 -0.4633108835168005 0 0.19122796324104871 -0.48466606029959602 0 0.20365346230900849 -0.47086657296764728 0 0.2048745361024723 -0.48472171768082351 0 0.21766866328091511 -0.47157360957620892 0 0.2048745361024723 -0.48472171768082351 0 0.22288060450936709 -0.48400008360299168 0 0.20365346230900849 -0.47086657296764728 0 0.21766866328091511 -0.47157360957620892 0 0.2048745361024723 -0.48472171768082351 0 0.21438456257476449 -0.5 0 0.2048745361024723 -0.48472171768082351 0 0.22288060450936709 -0.48400008360299168 0 0.21438456257476449 -0.5 0 0.23633351028628971 -0.48712361601618398 0 0.2413270925756249 -0.5 0 0.21438456257476449 -0.5 0 0.23633351028628971 -0.48712361601618398 0 0.22288060450936709 -0.48400008360299168 0 0.25270961841775552 -0.48460016746525392 0 0.23633351028628971 -0.48712361601618398 0 0.2413270925756249 -0.5 0 0.25270961841775552 -0.48460016746525392 0 0.23633351028628971 -0.48712361601618398 0 0.23949561189523169 -0.47426551941090739 0 0.23949561189523169 -0.47426551941090739 0 0.22288060450936709 -0.48400008360299168 0 0.22545312399173489 -0.46028769725088831 0 0.21766866328091511 -0.47157360957620892 0 0.22288060450936709 -0.48400008360299168 0 0.22545312399173489 -0.46028769725088831 0 0.23633351028628971 -0.48712361601618398 0 0.23949561189523169 -0.47426551941090739 0 0.22288060450936709 -0.48400008360299168 0 0.22288060450936709 -0.48400008360299168 0 0.22545312399173489 -0.46028769725088831 0 0.21766866328091511 -0.47157360957620892 0 0.22545312399173489 -0.46028769725088831 0 0.2186728293425339 -0.44755637628226819 0 0.2588368117714554 -0.46700690363883102 0 0.23949561189523169 -0.47426551941090739 0 0.2409729068143365 -0.46262444708906358 0 0.22545312399173489 -0.46028769725088831 0 0.2409729068143365 -0.46262444708906358 0 0.24480843210435321 -0.45079661158300749 0 0.2588368117714554 -0.46700690363883102 0 0.2409729068143365 -0.46262444708906358 0 0.24480843210435321 -0.45079661158300749 0 0.23949561189523169 -0.47426551941090739 0 0.22545312399173489 -0.46028769725088831 0 0.2409729068143365 -0.46262444708906358 0 0.24480843210435321 -0.45079661158300749 0 0.22802564347410281 -0.43657531089878487 0 0.2418992233321238 -0.43333026798624508 0 0.25513396950241118 -0.43290986753561628 0 0.24480843210435321 -0.45079661158300749 0 0.2418992233321238 -0.43333026798624508 0 0.22545312399173489 -0.46028769725088831 0 0.22802564347410281 -0.43657531089878487 0 0.2186728293425339 -0.44755637628226819 0 0.21246462128442831 -0.43168381348743168 0 0.22802564347410281 -0.43657531089878487 0 0.22545312399173489 -0.46028769725088831 0 0.2186728293425339 -0.44755637628226819 0 0.22802564347410281 -0.43657531089878487 0 0.22545312399173489 -0.46028769725088831 0 0.24480843210435321 -0.45079661158300749 0 0.22802564347410281 -0.43657531089878487 0 0.20442019459899149 -0.44533796874460208 0 0.2186728293425339 -0.44755637628226819 0 0.21246462128442831 -0.43168381348743168 0 0.21766866328091511 -0.47157360957620892 0 0.20442019459899149 -0.44533796874460208 0 0.21766866328091511 -0.47157360957620892 0 0.20442019459899149 -0.44533796874460208 0 0.2186728293425339 -0.44755637628226819 0 0.20365346230900849 -0.47086657296764728 0 0.21766866328091511 -0.47157360957620892 0 0.20442019459899149 -0.44533796874460208 0 0.20365346230900849 -0.47086657296764728 0 0.20442019459899149 -0.44533796874460208 0 0.1938641377332887 -0.4633108835168005 0 0.20442019459899149 -0.44533796874460208 0 0.18484232774876749 -0.43033534366960768 0 0.18590039067086719 -0.44115637567916172 0 0.20442019459899149 -0.44533796874460208 0 0.18923595964957429 -0.45067509688328122 0 0.18590039067086719 -0.44115637567916172 0 0.20442019459899149 -0.44533796874460208 0 0.1938641377332887 -0.4633108835168005 0 0.18923595964957429 -0.45067509688328122 0 0.20442019459899149 -0.44533796874460208 0 0.1911717259170673 -0.41910232791299562 0 0.20473537155931409 -0.42802668409371708 0 0.20442019459899149 -0.44533796874460208 0 0.1911717259170673 -0.41910232791299562 0 0.20442019459899149 -0.44533796874460208 0 0.1911717259170673 -0.41910232791299562 0 0.18484232774876749 -0.43033534366960768 0 0.1911717259170673 -0.41910232791299562 0 0.21088494443676881 -0.41598262622983972 0 0.20473537155931409 -0.42802668409371708 0 0.18851111772050869 -0.41383358608972459 0 0.208966154163157 -0.40126827473642579 0 0.1911717259170673 -0.41910232791299562 0 0.21088494443676881 -0.41598262622983972 0 0.1911717259170673 -0.41910232791299562 0 0.18851111772050869 -0.41383358608972459 0 0.21088494443676881 -0.41598262622983972 0 0.18851111772050869 -0.41383358608972459 0 0.21088494443676881 -0.41598262622983972 0 0.208966154163157 -0.40126827473642579 0 0.1911717259170673 -0.41910232791299562 0 0.18851111772050869 -0.41383358608972459 0 0.21088494443676881 -0.41598262622983972 0 0.22155668588658281 -0.40529615173032069 0 0.208966154163157 -0.40126827473642579 0 0.21088494443676881 -0.41598262622983972 0 0.20473537155931409 -0.42802668409371708 0 0.21246462128442831 -0.43168381348743168 0 0.21088494443676881 -0.41598262622983972 0 0.21246462128442831 -0.43168381348743168 0 0.21959695705502991 -0.42408781639437282 0 0.20442019459899149 -0.44533796874460208 0 0.20473537155931409 -0.42802668409371708 0 0.21246462128442831 -0.43168381348743168 0 0.21246462128442831 -0.43168381348743168 0 0.21959695705502991 -0.42408781639437282 0 0.22802564347410281 -0.43657531089878487 0 0.22802564347410281 -0.43657531089878487 0 0.23614533994983331 -0.4244462479719151 0 0.23059816295646979 -0.4128629245466815 0 0.22802564347410281 -0.43657531089878487 0 0.23059816295646979 -0.4128629245466815 0 0.21959695705502991 -0.42408781639437282 0 0.22802564347410281 -0.43657531089878487 0 0.23059816295646979 -0.4128629245466815 0 0.22802564347410281 -0.43657531089878487 0 0.2418992233321238 -0.43333026798624508 0 0.23614533994983331 -0.4244462479719151 0 0.2418992233321238 -0.43333026798624508 0 0.23614533994983331 -0.4244462479719151 0 0.2453827316299185 -0.42192330194190181 0 0.25513396950241118 -0.43290986753561628 0 0.2418992233321238 -0.43333026798624508 0 0.2453827316299185 -0.42192330194190181 0 0.256136481120742 -0.41447562176841068 0 0.2453827316299185 -0.42192330194190181 0 0.24629253832767661 -0.41022035877505542 0 0.2453827316299185 -0.42192330194190181 0 0.24629253832767661 -0.41022035877505542 0 0.2366098857920339 -0.41191154353144788 0 0.23614533994983331 -0.4244462479719151 0 0.2366098857920339 -0.41191154353144788 0 0.23059816295646979 -0.4128629245466815 0 0.23614533994983331 -0.4244462479719151 0 0.2453827316299185 -0.42192330194190181 0 0.2366098857920339 -0.41191154353144788 0 0.24629253832767661 -0.41022035877505542 0 0.2366098857920339 -0.41191154353144788 0 0.2422505545635501 -0.40276464775944387 0 0.21088494443676881 -0.41598262622983972 0 0.23059816295646979 -0.4128629245466815 0 0.2366098857920339 -0.41191154353144788 0 0.23059816295646979 -0.4128629245466815 0 0.23156745731421779 -0.4039283829592023 0 0.23059816295646979 -0.4128629245466815 0 0.22155668588658281 -0.40529615173032069 0 0.23156745731421779 -0.4039283829592023 0 0.23059816295646979 -0.4128629245466815 0 0.23156745731421779 -0.4039283829592023 0 0.21088494443676881 -0.41598262622983972 0 0.23059816295646979 -0.4128629245466815 0 0.22155668588658281 -0.40529615173032069 0 0.21088494443676881 -0.41598262622983972 0 0.21959695705502991 -0.42408781639437282 0 0.23059816295646979 -0.4128629245466815 0 0.2366098857920339 -0.41191154353144788 0 0.23059816295646979 -0.4128629245466815 0 0.22155668588658281 -0.40529615173032069 0 0.22942119060580499 -0.38870296338312649 0 0.208966154163157 -0.40126827473642579 0 0.22155668588658281 -0.40529615173032069 0 0.23156745731421779 -0.4039283829592023 0 0.22942119060580499 -0.38870296338312649 0 0.22942119060580499 -0.38870296338312649 0 0.208966154163157 -0.40126827473642579 0 0.23156745731421779 -0.4039283829592023 0 0.24309899287842279 -0.39271330151873202 0 0.2422505545635501 -0.40276464775944387 0 0.2366098857920339 -0.41191154353144788 0 0.23156745731421779 -0.4039283829592023 0 0.2422505545635501 -0.40276464775944387 0 0.23156745731421779 -0.4039283829592023 0 0.24309899287842279 -0.39271330151873202 0 0.22942119060580499 -0.38870296338312649 0 0.25108303853213881 -0.40002667887407228 0 0.24629253832767661 -0.41022035877505542 0 0.2422505545635501 -0.40276464775944387 0 0.25108303853213881 -0.40002667887407228 0 0.24309899287842279 -0.39271330151873202 0 0.2422505545635501 -0.40276464775944387 0 0.24987622704845311 -0.37613765202982719 0 0.22942119060580499 -0.38870296338312649 0 0.24309899287842279 -0.39271330151873202 0 0.24987622704845311 -0.37613765202982719 0 0.22942119060580499 -0.38870296338312649 0 0.24987622704845311 -0.37613765202982719 0 0.23474048966473349 -0.38137370792841258 0 0.22942119060580499 -0.38870296338312649 0 0.25687819372407023 -0.38903915957053298 0 0.24309899287842279 -0.39271330151873202 0 0.24987622704845311 -0.37613765202982719 0 0.23679608458568241 -0.3713456781615978 0 0.24987622704845311 -0.37613765202982719 0 0.23474048966473349 -0.38137370792841258 0 0.23474048966473349 -0.38137370792841258 0 0.23010576568282681 -0.37607478874810818 0 0.22189277223980711 -0.38054577212349588 0 0.23474048966473349 -0.38137370792841258 0 0.22189277223980711 -0.38054577212349588 0 0.20961824525516401 -0.3936281247522696 0 0.23474048966473349 -0.38137370792841258 0 0.22942119060580499 -0.38870296338312649 0 0.20961824525516401 -0.3936281247522696 0 0.23679608458568241 -0.3713456781615978 0 0.23474048966473349 -0.38137370792841258 0 0.23010576568282681 -0.37607478874810818 0 0.23474048966473349 -0.38137370792841258 0 0.20961824525516401 -0.3936281247522696 0 0.22699371624108439 -0.37103399677892651 0 0.23010576568282681 -0.37607478874810818 0 0.22189277223980711 -0.38054577212349588 0 0.21663927632257499 -0.37152038636996992 0 0.22189277223980711 -0.38054577212349588 0 0.21119602619295649 -0.38157571206759561 0 0.21663927632257499 -0.37152038636996992 0 0.21119602619295649 -0.38157571206759561 0 0.20576161095015591 -0.37595213443190167 0 0.21119602619295649 -0.38157571206759561 0 0.20576161095015591 -0.37595213443190167 0 0.20229958674085519 -0.38616776423662919 0 0.21119602619295649 -0.38157571206759561 0 0.20961824525516401 -0.3936281247522696 0 0.20229958674085519 -0.38616776423662919 0 0.22189277223980711 -0.38054577212349588 0 0.21119602619295649 -0.38157571206759561 0 0.20961824525516401 -0.3936281247522696 0 0.22942119060580499 -0.38870296338312649 0 0.208966154163157 -0.40126827473642579 0 0.20961824525516401 -0.3936281247522696 0 0.20961824525516401 -0.3936281247522696 0 0.18449600084559339 -0.40588254157612419 0 0.20961824525516401 -0.3936281247522696 0 0.19262774622386039 -0.39991289132556063 0 0.20229958674085519 -0.38616776423662919 0 0.18851111772050869 -0.41383358608972459 0 0.20961824525516401 -0.3936281247522696 0 0.18449600084559339 -0.40588254157612419 0 0.19262774622386039 -0.39991289132556063 0 0.193172237845981 -0.38760648281860499 0 0.20229958674085519 -0.38616776423662919 0 0.20961824525516401 -0.3936281247522696 0 0.19262774622386039 -0.39991289132556063 0 0.18449600084559339 -0.40588254157612419 0 0.18851111772050869 -0.41383358608972459 0 0.208966154163157 -0.40126827473642579 0 0.20961824525516401 -0.3936281247522696 0 0.19262774622386039 -0.39991289132556063 0 0.18963514604776821 -0.39361523539988952 0 0.193172237845981 -0.38760648281860499 0 0.19262774622386039 -0.39991289132556063 0 0.18963514604776821 -0.39361523539988952 0 0.18221634088723479 -0.40136818287387582 0 0.18963514604776821 -0.39361523539988952 0 0.193172237845981 -0.38760648281860499 0 0.18267650324237161 -0.39405502657648112 0 0.193172237845981 -0.38760648281860499 0 0.1910424400336663 -0.37547354736401328 0 0.18267650324237161 -0.39405502657648112 0 0.20576161095015591 -0.37595213443190167 0 0.1910424400336663 -0.37547354736401328 0 0.20229958674085519 -0.38616776423662919 0 0.193172237845981 -0.38760648281860499 0 0.1910424400336663 -0.37547354736401328 0 0.20229958674085519 -0.38616776423662919 0 0.1910424400336663 -0.37547354736401328 0 0.17822948803450961 -0.38676940160015832 0 0.1737051017910701 -0.38004230502140057 0 0.1910424400336663 -0.37547354736401328 0 0.18267650324237161 -0.39405502657648112 0 0.1910424400336663 -0.37547354736401328 0 0.17822948803450961 -0.38676940160015832 0 0.18267650324237161 -0.39405502657648112 0 0.17822948803450961 -0.38676940160015832 0 0.17910183421640119 -0.39520059623836468 0 0.1646215608890387 -0.38907553280053181 0 0.17822948803450961 -0.38676940160015832 0 0.1737051017910701 -0.38004230502140057 0 0.1646215608890387 -0.38907553280053181 0 0.17822948803450961 -0.38676940160015832 0 0.18267650324237161 -0.39405502657648112 0 0.17910183421640119 -0.39520059623836468 0 0.18221634088723479 -0.40136818287387582 0 0.17910183421640119 -0.39520059623836468 0 0.15805845094365739 -0.40474493864538458 0 0.18963514604776821 -0.39361523539988952 0 0.18267650324237161 -0.39405502657648112 0 0.18221634088723479 -0.40136818287387582 0 0.18267650324237161 -0.39405502657648112 0 0.18221634088723479 -0.40136818287387582 0 0.17910183421640119 -0.39520059623836468 0 0.18221634088723479 -0.40136818287387582 0 0.17910183421640119 -0.39520059623836468 0 0.19262774622386039 -0.39991289132556063 0 0.18221634088723479 -0.40136818287387582 0 0.19262774622386039 -0.39991289132556063 0 0.18449600084559339 -0.40588254157612419 0 0.18221634088723479 -0.40136818287387582 0 0.18449600084559339 -0.40588254157612419 0 0.18221634088723479 -0.40136818287387582 0 0.17910183421640119 -0.39520059623836468 0 0.15805845094365739 -0.40474493864538458 0 0.1646215608890387 -0.38907553280053181 0 0.18221634088723479 -0.40136818287387582 0 0.15805845094365739 -0.40474493864538458 0 0.15805845094365739 -0.40474493864538458 0 0.1646215608890387 -0.38907553280053181 0 0.14706277844018539 -0.39464292458295508 0 0.1737051017910701 -0.38004230502140057 0 0.1646215608890387 -0.38907553280053181 0 0.16307541855137739 -0.37743582412871929 0 0.17035242753357599 -0.36877211446365682 0 0.1737051017910701 -0.38004230502140057 0 0.16307541855137739 -0.37743582412871929 0 0.1569593121701936 -0.36832063090657668 0 0.16307541855137739 -0.37743582412871929 0 0.14973869037300869 -0.38096853745143089 0 0.1646215608890387 -0.38907553280053181 0 0.16307541855137739 -0.37743582412871929 0 0.14973869037300869 -0.38096853745143089 0 0.1646215608890387 -0.38907553280053181 0 0.14973869037300869 -0.38096853745143089 0 0.14706277844018539 -0.39464292458295508 0 0.14973869037300869 -0.38096853745143089 0 0.1375772795987745 -0.38493757303029391 0 0.14706277844018539 -0.39464292458295508 0 0.13524945632583441 -0.37311377610700652 0 0.14973869037300869 -0.38096853745143089 0 0.1375772795987745 -0.38493757303029391 0 0.13524945632583441 -0.37311377610700652 0 0.1375772795987745 -0.38493757303029391 0 0.12609635470998201 -0.38402791619100712 0 0.1375772795987745 -0.38493757303029391 0 0.12609635470998201 -0.38402791619100712 0 0.13569313113510631 -0.39589912548093298 0 0.12645644117523869 -0.39722706905544619 0 0.13569313113510631 -0.39589912548093298 0 0.1339005610000801 -0.40812169441689322 0 0.12645644117523869 -0.39722706905544619 0 0.1339005610000801 -0.40812169441689322 0 0.1250254850364893 -0.40936224001308058 0 0.12609635470998201 -0.38402791619100712 0 0.12645644117523869 -0.39722706905544619 0 0.13569313113510631 -0.39589912548093298 0 0.1375772795987745 -0.38493757303029391 0 0.13569313113510631 -0.39589912548093298 0 0.14706277844018539 -0.39464292458295508 0 0.13569313113510631 -0.39589912548093298 0 0.14706277844018539 -0.39464292458295508 0 0.1339005610000801 -0.40812169441689322 0 0.13569313113510631 -0.39589912548093298 0 0.1339005610000801 -0.40812169441689322 0 0.15805845094365739 -0.40474493864538458 0 0.14706277844018539 -0.39464292458295508 0 0.1339005610000801 -0.40812169441689322 0 0.15805845094365739 -0.40474493864538458 0 0.1339005610000801 -0.40812169441689322 0 0.15805845094365739 -0.40474493864538458 0 0.15398562739609989 -0.414436145328195 0 0.14500783119440661 -0.41410657591589572 0 0.15805845094365739 -0.40474493864538458 0 0.14500783119440661 -0.41410657591589572 0 0.1339005610000801 -0.40812169441689322 0 0.15398562739609989 -0.414436145328195 0 0.15088002640467921 -0.42009116626417142 0 0.14500783119440661 -0.41410657591589572 0 0.15088002640467921 -0.42009116626417142 0 0.15979138776423191 -0.42406840149736191 0 0.15636365466176849 -0.41960526040447821 0 0.15398562739609989 -0.414436145328195 0 0.15088002640467921 -0.42009116626417142 0 0.15636365466176849 -0.41960526040447821 0 0.15088002640467921 -0.42009116626417142 0 0.14500783119440661 -0.41410657591589572 0 0.14354831806896931 -0.42663893719234869 0 0.14500783119440661 -0.41410657591589572 0 0.1339005610000801 -0.40812169441689322 0 0.13212255532719441 -0.42024495614079282 0 0.14500783119440661 -0.41410657591589572 0 0.13212255532719441 -0.42024495614079282 0 0.14354831806896931 -0.42663893719234869 0 0.1339005610000801 -0.40812169441689322 0 0.13212255532719441 -0.42024495614079282 0 0.13212255532719441 -0.42024495614079282 0 0.1250254850364893 -0.40936224001308058 0 0.117866085899093 -0.41583132647739651 0 0.13212255532719441 -0.42024495614079282 0 0.1250254850364893 -0.40936224001308058 0 0.1339005610000801 -0.40812169441689322 0 0.13212255532719441 -0.42024495614079282 0 0.1250254850364893 -0.40936224001308058 0 0.1339005610000801 -0.40812169441689322 0 0.1250254850364893 -0.40936224001308058 0 0.13212255532719441 -0.42024495614079282 0 0.14354831806896931 -0.42663893719234869 0 0.1460535583969573 -0.44160689079445481 0 0.13212255532719441 -0.42024495614079282 0 0.128223579302082 -0.44682997076052833 0 0.13212255532719441 -0.42024495614079282 0 0.128223579302082 -0.44682997076052833 0 0.1159996351348133 -0.43474120747525058 0 0.13212255532719441 -0.42024495614079282 0 0.1460535583969573 -0.44160689079445481 0 0.13212255532719441 -0.42024495614079282 0 0.1460535583969573 -0.44160689079445481 0 0.128223579302082 -0.44682997076052833 0 0.15088002640467921 -0.42009116626417142 0 0.14354831806896931 -0.42663893719234869 0 0.15979138776423191 -0.42406840149736191 0 0.14354831806896931 -0.42663893719234869 0 0.15979138776423191 -0.42406840149736191 0 0.14354831806896931 -0.42663893719234869 0 0.15423293294423909 -0.43386412417913311 0 0.1460535583969573 -0.44160689079445481 0 0.14354831806896931 -0.42663893719234869 0 0.15423293294423909 -0.43386412417913311 0 0.15979138776423191 -0.42406840149736191 0 0.15423293294423909 -0.43386412417913311 0 0.16088991666547389 -0.43196094602310392 0 0.16557730454712019 -0.44172028084172121 0 0.1713980071398 -0.42434598792645378 0 0.15979138776423191 -0.42406840149736191 0 0.1760344574594947 -0.42149786580237669 0 0.15423293294423909 -0.43386412417913311 0 0.16088991666547389 -0.43196094602310392 0 0.15979138776423191 -0.42406840149736191 0 0.15979138776423191 -0.42406840149736191 0 0.1760344574594947 -0.42149786580237669 0 0.16626302434537371 -0.43076979168845952 0 0.17509911994716071 -0.43336510097506958 0 0.16557730454712019 -0.44172028084172121 0 0.16088991666547389 -0.43196094602310392 0 0.16626302434537371 -0.43076979168845952 0 0.16557730454712019 -0.44172028084172121 0 0.16626302434537371 -0.43076979168845952 0 0.1713980071398 -0.42434598792645378 0 0.17509911994716071 -0.43336510097506958 0 0.16626302434537371 -0.43076979168845952 0 0.1713980071398 -0.42434598792645378 0 0.15979138776423191 -0.42406840149736191 0 0.16088991666547389 -0.43196094602310392 0 0.16626302434537371 -0.43076979168845952 0 0.15979138776423191 -0.42406840149736191 0 0.15636365466176849 -0.41960526040447821 0 0.16176651730702801 -0.41283252991975622 0 0.17042982775368151 -0.41274390099030239 0 0.18221634088723479 -0.40136818287387582 0 0.15805845094365739 -0.40474493864538458 0 0.17042982775368151 -0.41274390099030239 0 0.15979138776423191 -0.42406840149736191 0 0.15636365466176849 -0.41960526040447821 0 0.17042982775368151 -0.41274390099030239 0 0.15636365466176849 -0.41960526040447821 0 0.17042982775368151 -0.41274390099030239 0 0.15979138776423191 -0.42406840149736191 0 0.17042982775368151 -0.41274390099030239 0 0.1760344574594947 -0.42149786580237669 0 0.15398562739609989 -0.414436145328195 0 0.15636365466176849 -0.41960526040447821 0 0.16176651730702801 -0.41283252991975622 0 0.15805845094365739 -0.40474493864538458 0 0.15398562739609989 -0.414436145328195 0 0.16176651730702801 -0.41283252991975622 0 0.15805845094365739 -0.40474493864538458 0 0.16176651730702801 -0.41283252991975622 0 0.17042982775368151 -0.41274390099030239 0 0.17042982775368151 -0.41274390099030239 0 0.1760344574594947 -0.42149786580237669 0 0.17986785094481991 -0.4134894736146324 0 0.18449600084559339 -0.40588254157612419 0 0.17042982775368151 -0.41274390099030239 0 0.18449600084559339 -0.40588254157612419 0 0.18221634088723479 -0.40136818287387582 0 0.17042982775368151 -0.41274390099030239 0 0.18449600084559339 -0.40588254157612419 0 0.17042982775368151 -0.41274390099030239 0 0.17986785094481991 -0.4134894736146324 0 0.18851111772050869 -0.41383358608972459 0 0.18449600084559339 -0.40588254157612419 0 0.18851111772050869 -0.41383358608972459 0 0.18449600084559339 -0.40588254157612419 0 0.17986785094481991 -0.4134894736146324 0 0.18851111772050869 -0.41383358608972459 0 0.1760344574594947 -0.42149786580237669 0 0.1911717259170673 -0.41910232791299562 0 0.1760344574594947 -0.42149786580237669 0 0.18851111772050869 -0.41383358608972459 0 0.1760344574594947 -0.42149786580237669 0 0.17986785094481991 -0.4134894736146324 0 0.1911717259170673 -0.41910232791299562 0 0.18851111772050869 -0.41383358608972459 0 0.1760344574594947 -0.42149786580237669 0 0.1911717259170673 -0.41910232791299562 0 0.1760344574594947 -0.42149786580237669 0 0.18484232774876749 -0.43033534366960768 0 0.18484232774876749 -0.43033534366960768 0 0.17509911994716071 -0.43336510097506958 0 0.18590039067086719 -0.44115637567916172 0 0.18484232774876749 -0.43033534366960768 0 0.17509911994716071 -0.43336510097506958 0 0.17653319474121221 -0.42750765242104072 0 0.1713980071398 -0.42434598792645378 0 0.17509911994716071 -0.43336510097506958 0 0.17653319474121221 -0.42750765242104072 0 0.1760344574594947 -0.42149786580237669 0 0.18484232774876749 -0.43033534366960768 0 0.17653319474121221 -0.42750765242104072 0 0.1713980071398 -0.42434598792645378 0 0.1760344574594947 -0.42149786580237669 0 0.17653319474121221 -0.42750765242104072 0 0.1713980071398 -0.42434598792645378 0 0.1760344574594947 -0.42149786580237669 0 0.17791556380287959 -0.4455361086535346 0 0.17376504419967539 -0.46076368888843938 0 0.16557730454712019 -0.44172028084172121 0 0.17509911994716071 -0.43336510097506958 0 0.17791556380287959 -0.4455361086535346 0 0.18590039067086719 -0.44115637567916172 0 0.17509911994716071 -0.43336510097506958 0 0.17791556380287959 -0.4455361086535346 0 0.16557730454712019 -0.44172028084172121 0 0.18923595964957429 -0.45067509688328122 0 0.17791556380287959 -0.4455361086535346 0 0.18590039067086719 -0.44115637567916172 0 0.18923595964957429 -0.45067509688328122 0 0.17791556380287959 -0.4455361086535346 0 0.17376504419967539 -0.46076368888843938 0 0.1938641377332887 -0.4633108835168005 0 0.18923595964957429 -0.45067509688328122 0 0.17376504419967539 -0.46076368888843938 0 0.1938641377332887 -0.4633108835168005 0 0.17376504419967539 -0.46076368888843938 0 0.17718182015316611 -0.48165544175840053 0 0.17376504419967539 -0.46076368888843938 0 0.15550290350416551 -0.45157236434768988 0 0.1539044029471725 -0.46809795184702829 0 0.17376504419967539 -0.46076368888843938 0 0.16557730454712019 -0.44172028084172121 0 0.15550290350416551 -0.45157236434768988 0 0.15423293294423909 -0.43386412417913311 0 0.16557730454712019 -0.44172028084172121 0 0.15550290350416551 -0.45157236434768988 0 0.15423293294423909 -0.43386412417913311 0 0.15550290350416551 -0.45157236434768988 0 0.1460535583969573 -0.44160689079445481 0 0.15550290350416551 -0.45157236434768988 0 0.1460535583969573 -0.44160689079445481 0 0.14153074802588431 -0.45654190970348868 0 0.1460535583969573 -0.44160689079445481 0 0.128223579302082 -0.44682997076052833 0 0.14153074802588431 -0.45654190970348868 0 0.128223579302082 -0.44682997076052833 0 0.12432460327697011 -0.47341498538026422 0 0.128223579302082 -0.44682997076052833 0 0.14153074802588431 -0.45654190970348868 0 0.12432460327697011 -0.47341498538026422 0 0.1539044029471725 -0.46809795184702829 0 0.14153074802588431 -0.45654190970348868 0 0.12432460327697011 -0.47341498538026422 0 0.15550290350416551 -0.45157236434768988 0 0.1539044029471725 -0.46809795184702829 0 0.14153074802588431 -0.45654190970348868 0 0.1539044029471725 -0.46809795184702829 0 0.15048103374274721 -0.48484579871078243 0 0.12432460327697011 -0.47341498538026422 0 0.1404625649124509 -0.5 0 0.15048103374274721 -0.48484579871078243 0 0.12432460327697011 -0.47341498538026422 0 0.1404625649124509 -0.5 0 0.12042562725185831 -0.49999999999999989 0 0.12432460327697011 -0.47341498538026422 0 0.1404625649124509 -0.5 0 0.15048103374274721 -0.48484579871078243 0 0.16049950257304349 -0.50000000000000033 0 0.16049950257304349 -0.50000000000000033 0 0.17718182015316611 -0.48165544175840053 0 0.15048103374274721 -0.48484579871078243 0 0.16049950257304349 -0.50000000000000033 0 0.17718182015316611 -0.48165544175840053 0 0.17376504419967539 -0.46076368888843938 0 0.1539044029471725 -0.46809795184702829 0 0.17718182015316611 -0.48165544175840053 0 0.1539044029471725 -0.46809795184702829 0 0.15048103374274721 -0.48484579871078243 0 0.17718182015316611 -0.48165544175840053 0 0.1938641377332887 -0.4633108835168005 0 0.17718182015316611 -0.48165544175840053 0 0.19122796324104871 -0.48466606029959602 0 0.1938641377332887 -0.4633108835168005 0 0.17718182015316611 -0.48165544175840053 0 0.16049950257304349 -0.50000000000000033 0 0.17718182015316611 -0.48165544175840053 0 0.18744203257390391 -0.5 0 0.19122796324104871 -0.48466606029959602 0 0.17718182015316611 -0.48165544175840053 0 0.18744203257390391 -0.5 0 0.072018957471098571 -0.48629524479662273 0 0.069142552082564368 -0.5 0 0.082735946582200875 -0.4892045976485363 0 0.072018957471098571 -0.48629524479662273 0 0.079568506083734697 -0.4785915255016745 0 0.082735946582200875 -0.4892045976485363 0 0.072018957471098571 -0.48629524479662273 0 0.062670741706174135 -0.48944359682069549 0 0.064881374578912687 -0.4815757870058418 0 0.072018957471098571 -0.48629524479662273 0 0.069142552082564368 -0.5 0 0.062670741706174135 -0.48944359682069549 0 0.073180054077148754 -0.46968413697177741 0 0.079568506083734697 -0.4785915255016745 0 0.081395248040860374 -0.46160025678040811 0 0.067447632246636219 -0.45716428258124142 0 0.05849497948899289 -0.47642287528831911 0 0.061758178687080389 -0.47580514524370598 0 0.072018957471098571 -0.48629524479662273 0 0.064881374578912687 -0.4815757870058418 0 0.070673492561877091 -0.4782128222507579 0 0.064881374578912687 -0.4815757870058418 0 0.066280053791524171 -0.47680462027284459 0 0.061758178687080389 -0.47580514524370598 0 0.064881374578912687 -0.4815757870058418 0 0.066280053791524171 -0.47680462027284459 0 0.070673492561877091 -0.4782128222507579 0 0.066280053791524171 -0.47680462027284459 0 0.067807169338226503 -0.47162472659107291 0 0.061758178687080389 -0.47580514524370598 0 0.066280053791524171 -0.47680462027284459 0 0.067807169338226503 -0.47162472659107291 0 0.070673492561877091 -0.4782128222507579 0 0.067807169338226503 -0.47162472659107291 0 0.073180054077148754 -0.46968413697177741 0 0.070673492561877091 -0.4782128222507579 0 0.073180054077148754 -0.46968413697177741 0 0.070673492561877091 -0.4782128222507579 0 0.079568506083734697 -0.4785915255016745 0 0.072018957471098571 -0.48629524479662273 0 0.070673492561877091 -0.4782128222507579 0 0.079568506083734697 -0.4785915255016745 0 0.096876661376123455 -0.48080012839020431 0 0.081395248040860374 -0.46160025678040811 0 0.096876661376123455 -0.48080012839020431 0 0.095349939854524335 -0.46404107218864848 0 0.081395248040860374 -0.46160025678040811 0 0.079568506083734697 -0.4785915255016745 0 0.082735946582200875 -0.4892045976485363 0 0.096876661376123455 -0.48080012839020431 0 0.079568506083734697 -0.4785915255016745 0 0.096876661376123455 -0.48080012839020431 0 0.081395248040860374 -0.46160025678040811 0 0.090750313396975479 -0.5 0 0.082735946582200875 -0.4892045976485363 0 0.096876661376123455 -0.48080012839020431 0 0.069142552082564368 -0.5 0 0.090750313396975479 -0.5 0 0.082735946582200875 -0.4892045976485363 0 0.1123580747113867 -0.50000000000000033 0 0.1124728586670535 -0.48406595427175642 0 0.096876661376123455 -0.48080012839020431 0 0.090750313396975479 -0.5 0 0.1123580747113867 -0.50000000000000033 0 0.096876661376123455 -0.48080012839020431 0 0.1123580747113867 -0.50000000000000033 0 0.096876661376123455 -0.48080012839020431 0 0.1123580747113867 -0.50000000000000033 0 0.12042562725185831 -0.49999999999999989 0 0.1124728586670535 -0.48406595427175642 0 0.12042562725185831 -0.49999999999999989 0 0.1124728586670535 -0.48406595427175642 0 0.12432460327697011 -0.47341498538026422 0 0.12042562725185831 -0.49999999999999989 0 0.12432460327697011 -0.47341498538026422 0 0.1124728586670535 -0.48406595427175642 0 0.12432460327697011 -0.47341498538026422 0 0.1082250197838846 -0.46311527911574241 0 0.096876661376123455 -0.48080012839020431 0 0.095349939854524335 -0.46404107218864848 0 0.1082250197838846 -0.46311527911574241 0 0.1124728586670535 -0.48406595427175642 0 0.096876661376123455 -0.48080012839020431 0 0.1082250197838846 -0.46311527911574241 0 0.095349939854524335 -0.46404107218864848 0 0.1082250197838846 -0.46311527911574241 0 0.094902830217228867 -0.45064862446823939 0 0.128223579302082 -0.44682997076052833 0 0.12432460327697011 -0.47341498538026422 0 0.1082250197838846 -0.46311527911574241 0 0.128223579302082 -0.44682997076052833 0 0.1069391861142964 -0.44299064961396012 0 0.1159996351348133 -0.43474120747525058 0 0.128223579302082 -0.44682997076052833 0 0.1082250197838846 -0.46311527911574241 0 0.1069391861142964 -0.44299064961396012 0 0.1082250197838846 -0.46311527911574241 0 0.1069391861142964 -0.44299064961396012 0 0.094902830217228867 -0.45064862446823939 0 0.1069391861142964 -0.44299064961396012 0 0.091812697424993442 -0.4386357446441016 0 0.098414951810672224 -0.43233268446502993 0 0.1069391861142964 -0.44299064961396012 0 0.094902830217228867 -0.45064862446823939 0 0.091812697424993442 -0.4386357446441016 0 0.094902830217228867 -0.45064862446823939 0 0.091812697424993442 -0.4386357446441016 0 0.082434724511159588 -0.44537142502386151 0 0.094902830217228867 -0.45064862446823939 0 0.082434724511159588 -0.44537142502386151 0 0.081395248040860374 -0.46160025678040811 0 0.091812697424993442 -0.4386357446441016 0 0.082434724511159588 -0.44537142502386151 0 0.078149012167117934 -0.43357211405594609 0 0.095349939854524335 -0.46404107218864848 0 0.094902830217228867 -0.45064862446823939 0 0.081395248040860374 -0.46160025678040811 0 0.067447632246636219 -0.45716428258124142 0 0.065913834705597293 -0.44240038517061198 0 0.057068655694905858 -0.46015288389510001 0 0.067447632246636219 -0.45716428258124142 0 0.05849497948899289 -0.47642287528831911 0 0.067807169338226503 -0.47162472659107291 0 0.067447632246636219 -0.45716428258124142 0 0.061758178687080389 -0.47580514524370598 0 0.081395248040860374 -0.46160025678040811 0 0.067447632246636219 -0.45716428258124142 0 0.065913834705597293 -0.44240038517061198 0 0.073180054077148754 -0.46968413697177741 0 0.081395248040860374 -0.46160025678040811 0 0.067447632246636219 -0.45716428258124142 0 0.067807169338226503 -0.47162472659107291 0 0.073180054077148754 -0.46968413697177741 0 0.067447632246636219 -0.45716428258124142 0 0.081395248040860374 -0.46160025678040811 0 0.065913834705597293 -0.44240038517061198 0 0.082434724511159588 -0.44537142502386151 0 0.081395248040860374 -0.46160025678040811 0 0.065913834705597293 -0.44240038517061198 0 0.082434724511159588 -0.44537142502386151 0 0.065913834705597293 -0.44240038517061198 0 0.078149012167117934 -0.43357211405594609 0 0.065921365320016911 -0.4273577277455588 0 0.073982485551444349 -0.42005290588181732 0 0.078149012167117934 -0.43357211405594609 0 0.065913834705597293 -0.44240038517061198 0 0.065921365320016911 -0.4273577277455588 0 0.078149012167117934 -0.43357211405594609 0 0.073982485551444349 -0.42005290588181732 0 0.069775570718114244 -0.40426700169235308 0 0.060774245729122177 -0.41691050055794487 0 0.065921365320016911 -0.4273577277455588 0 0.073982485551444349 -0.42005290588181732 0 0.060774245729122177 -0.41691050055794487 0 0.073982485551444349 -0.42005290588181732 0 0.086447448161059384 -0.41120764722282821 0 0.069775570718114244 -0.40426700169235308 0 0.073982485551444349 -0.42005290588181732 0 0.086447448161059384 -0.41120764722282821 0 0.088692331433278357 -0.42535053834926723 0 0.086447448161059384 -0.41120764722282821 0 0.093827427438274241 -0.41775801958915132 0 0.099702730965631758 -0.41290181884877419 0 0.086447448161059384 -0.41120764722282821 0 0.088692331433278357 -0.42535053834926723 0 0.093827427438274241 -0.41775801958915132 0 0.088692331433278357 -0.42535053834926723 0 0.097645949564215143 -0.42435504664253748 0 0.093827427438274241 -0.41775801958915132 0 0.073982485551444349 -0.42005290588181732 0 0.088692331433278357 -0.42535053834926723 0 0.078149012167117934 -0.43357211405594609 0 0.091812697424993442 -0.4386357446441016 0 0.088692331433278357 -0.42535053834926723 0 0.078149012167117934 -0.43357211405594609 0 0.091812697424993442 -0.4386357446441016 0 0.088692331433278357 -0.42535053834926723 0 0.098414951810672224 -0.43233268446502993 0 0.098414951810672224 -0.43233268446502993 0 0.097645949564215143 -0.42435504664253748 0 0.1061961683754654 -0.43004895598907111 0 0.088692331433278357 -0.42535053834926723 0 0.098414951810672224 -0.43233268446502993 0 0.097645949564215143 -0.42435504664253748 0 0.1061961683754654 -0.43004895598907111 0 0.11152958735588871 -0.42539382439527612 0 0.1045809803654715 -0.42051706085107571 0 0.097645949564215143 -0.42435504664253748 0 0.1061961683754654 -0.43004895598907111 0 0.1045809803654715 -0.42051706085107571 0 0.1069391861142964 -0.44299064961396012 0 0.098414951810672224 -0.43233268446502993 0 0.1061961683754654 -0.43004895598907111 0 0.1061961683754654 -0.43004895598907111 0 0.1159996351348133 -0.43474120747525058 0 0.11152958735588871 -0.42539382439527612 0 0.13212255532719441 -0.42024495614079282 0 0.1159996351348133 -0.43474120747525058 0 0.11851153239627241 -0.42275952171654291 0 0.1069391861142964 -0.44299064961396012 0 0.1061961683754654 -0.43004895598907111 0 0.1159996351348133 -0.43474120747525058 0 0.1159996351348133 -0.43474120747525058 0 0.11152958735588871 -0.42539382439527612 0 0.11851153239627241 -0.42275952171654291 0 0.11152958735588871 -0.42539382439527612 0 0.11851153239627241 -0.42275952171654291 0 0.1123596205074209 -0.41890237594444008 0 0.1250254850364893 -0.40936224001308058 0 0.117866085899093 -0.41583132647739651 0 0.1096180349996463 -0.41151587164058129 0 0.1250254850364893 -0.40936224001308058 0 0.1096180349996463 -0.41151587164058129 0 0.13212255532719441 -0.42024495614079282 0 0.11851153239627241 -0.42275952171654291 0 0.117866085899093 -0.41583132647739651 0 0.117866085899093 -0.41583132647739651 0 0.1123596205074209 -0.41890237594444008 0 0.1096180349996463 -0.41151587164058129 0 0.11851153239627241 -0.42275952171654291 0 0.117866085899093 -0.41583132647739651 0 0.1123596205074209 -0.41890237594444008 0 0.11152958735588871 -0.42539382439527612 0 0.1123596205074209 -0.41890237594444008 0 0.1045809803654715 -0.42051706085107571 0 0.1123596205074209 -0.41890237594444008 0 0.1096180349996463 -0.41151587164058129 0 0.1065506547415149 -0.41613106226330793 0 0.1096180349996463 -0.41151587164058129 0 0.1065506547415149 -0.41613106226330793 0 0.099702730965631758 -0.41290181884877419 0 0.1096180349996463 -0.41151587164058129 0 0.099702730965631758 -0.41290181884877419 0 0.1096180349996463 -0.41151587164058129 0 0.099702730965631758 -0.41290181884877419 0 0.1041447551606165 -0.40305668800175581 0 0.1123596205074209 -0.41890237594444008 0 0.1065506547415149 -0.41613106226330793 0 0.1045809803654715 -0.42051706085107571 0 0.1065506547415149 -0.41613106226330793 0 0.1045809803654715 -0.42051706085107571 0 0.099702730965631758 -0.41290181884877419 0 0.1045809803654715 -0.42051706085107571 0 0.093827427438274241 -0.41775801958915132 0 0.099702730965631758 -0.41290181884877419 0 0.097645949564215143 -0.42435504664253748 0 0.1045809803654715 -0.42051706085107571 0 0.093827427438274241 -0.41775801958915132 0 0.086447448161059384 -0.41120764722282821 0 0.099702730965631758 -0.41290181884877419 0 0.095691580682652475 -0.39908469234235189 0 0.095691580682652475 -0.39908469234235189 0 0.1041447551606165 -0.40305668800175581 0 0.1115666739945345 -0.38872436917531578 0 0.099702730965631758 -0.41290181884877419 0 0.095691580682652475 -0.39908469234235189 0 0.1041447551606165 -0.40305668800175581 0 0.1096180349996463 -0.41151587164058129 0 0.1041447551606165 -0.40305668800175581 0 0.1115666739945345 -0.38872436917531578 0 0.1250254850364893 -0.40936224001308058 0 0.1115666739945345 -0.38872436917531578 0 0.1096180349996463 -0.41151587164058129 0 0.1115666739945345 -0.38872436917531578 0 0.1250254850364893 -0.40936224001308058 0 0.1096180349996463 -0.41151587164058129 0 0.1115666739945345 -0.38872436917531578 0 0.12645644117523869 -0.39722706905544619 0 0.1250254850364893 -0.40936224001308058 0 0.1115666739945345 -0.38872436917531578 0 0.12609635470998201 -0.38402791619100712 0 0.1115666739945345 -0.38872436917531578 0 0.113745377556003 -0.36324200547299851 0 0.1115666739945345 -0.38872436917531578 0 0.113745377556003 -0.36324200547299851 0 0.12609635470998201 -0.38402791619100712 0 0.12645644117523869 -0.39722706905544619 0 0.1115666739945345 -0.38872436917531578 0 0.1115666739945345 -0.38872436917531578 0 0.096372132326470572 -0.36542491223168638 0 0.1115666739945345 -0.38872436917531578 0 0.089853218628298884 -0.38394717958202601 0 0.096372132326470572 -0.36542491223168638 0 0.095691580682652475 -0.39908469234235189 0 0.1115666739945345 -0.38872436917531578 0 0.089853218628298884 -0.38394717958202601 0 0.089853218628298884 -0.38394717958202601 0 0.082924844884061683 -0.39714926844771359 0 0.072939106935086151 -0.38728773006234168 0 0.089853218628298884 -0.38394717958202601 0 0.072939106935086151 -0.38728773006234168 0 0.07582030708563034 -0.37256671738353597 0 0.095691580682652475 -0.39908469234235189 0 0.089853218628298884 -0.38394717958202601 0 0.082924844884061683 -0.39714926844771359 0 0.086447448161059384 -0.41120764722282821 0 0.082924844884061683 -0.39714926844771359 0 0.069775570718114244 -0.40426700169235308 0 0.086447448161059384 -0.41120764722282821 0 0.095691580682652475 -0.39908469234235189 0 0.082924844884061683 -0.39714926844771359 0 0.069775570718114244 -0.40426700169235308 0 0.072939106935086151 -0.38728773006234168 0 0.058313699768321348 -0.39007371912844929 0 0.082924844884061683 -0.39714926844771359 0 0.069775570718114244 -0.40426700169235308 0 0.072939106935086151 -0.38728773006234168 0 0.072939106935086151 -0.38728773006234168 0 0.05933500968155693 -0.37671477575793533 0 0.058313699768321348 -0.39007371912844929 0 0.072939106935086151 -0.38728773006234168 0 0.05933500968155693 -0.37671477575793533 0 0.07582030708563034 -0.37256671738353597 0 0.05933500968155693 -0.37671477575793533 0 0.043300396670470892 -0.38581293046691678 0 0.039079294002052851 -0.37065651216905859 0 0.05933500968155693 -0.37671477575793533 0 0.058313699768321348 -0.39007371912844929 0 0.043300396670470892 -0.38581293046691678 0 0.058313699768321348 -0.39007371912844929 0 0.0466875803122518 -0.39705513158652528 0 0.054373060569327003 -0.40663711634463268 0 0.069775570718114244 -0.40426700169235308 0 0.058313699768321348 -0.39007371912844929 0 0.054373060569327003 -0.40663711634463268 0 0.058313699768321348 -0.39007371912844929 0 0.054373060569327003 -0.40663711634463268 0 0.0466875803122518 -0.39705513158652528 0 0.042121557959679479 -0.40689397827368962 0 0.054373060569327003 -0.40663711634463268 0 0.058313699768321348 -0.39007371912844929 0 0.0466875803122518 -0.39705513158652528 0 0.043300396670470892 -0.38581293046691678 0 0.0466875803122518 -0.39705513158652528 0 0.032645317368698572 -0.39721328630736241 0 0.043300396670470892 -0.38581293046691678 0 0.0466875803122518 -0.39705513158652528 0 0.032645317368698572 -0.39721328630736241 0 0.042121557959679479 -0.40689397827368962 0 0.032645317368698572 -0.39721328630736241 0 0.043300396670470892 -0.38581293046691678 0 0.025542853711361019 -0.38384675294920401 0 0.043300396670470892 -0.38581293046691678 0 0.025542853711361019 -0.38384675294920401 0 0.039079294002052851 -0.37065651216905859 0 0.025542853711361019 -0.38384675294920401 0 0.009690974369139977 -0.39295199195252922 0 0.016784443680880379 -0.36713146693108112 0 -0.0064694903547723136 -0.38059021958606692 0 0.009690974369139977 -0.39295199195252922 0 0.016784443680880379 -0.36713146693108112 0 0.032645317368698572 -0.39721328630736241 0 0.009690974369139977 -0.39295199195252922 0 0.030062121183744069 -0.41560348860952728 0 0.032645317368698572 -0.39721328630736241 0 0.025542853711361019 -0.38384675294920401 0 0.009690974369139977 -0.39295199195252922 0 0.009690974369139977 -0.39295199195252922 0 0.030062121183744069 -0.41560348860952728 0 0.01224976062295041 -0.42183763890738629 0 -0.0080625817845775948 -0.40608726553411861 0 0.009690974369139977 -0.39295199195252922 0 0.01224976062295041 -0.42183763890738629 0 0.009690974369139977 -0.39295199195252922 0 0.01224976062295041 -0.42183763890738629 0 0.01224976062295041 -0.42183763890738629 0 0.01480854687676085 -0.45072328586224342 0 0.030062121183744069 -0.41560348860952728 0 0.01224976062295041 -0.42183763890738629 0 0.028535899264767479 -0.43733174884408438 0 0.01224976062295041 -0.42183763890738629 0 0.028535899264767479 -0.43733174884408438 0 0.01480854687676085 -0.45072328586224342 0 0.030062121183744069 -0.41560348860952728 0 0.028535899264767479 -0.43733174884408438 0 0.039909128579099777 -0.42893709763038412 0 0.039909128579099777 -0.42893709763038412 0 0.050432421370333713 -0.42320051356081623 0 0.04400553312424714 -0.45021417746364167 0 0.039909128579099777 -0.42893709763038412 0 0.046509667952406512 -0.41833555967385072 0 0.050432421370333713 -0.42320051356081623 0 0.032645317368698572 -0.39721328630736241 0 0.030062121183744069 -0.41560348860952728 0 0.042121557959679479 -0.40689397827368962 0 0.030062121183744069 -0.41560348860952728 0 0.039909128579099777 -0.42893709763038412 0 0.046509667952406512 -0.41833555967385072 0 0.030062121183744069 -0.41560348860952728 0 0.042121557959679479 -0.40689397827368962 0 0.046509667952406512 -0.41833555967385072 0 0.054373060569327003 -0.40663711634463268 0 0.050432421370333713 -0.42320051356081623 0 0.046509667952406512 -0.41833555967385072 0 0.054373060569327003 -0.40663711634463268 0 0.050432421370333713 -0.42320051356081623 0 0.054373060569327003 -0.40663711634463268 0 0.060774245729122177 -0.41691050055794487 0 0.050432421370333713 -0.42320051356081623 0 0.046509667952406512 -0.41833555967385072 0 0.050432421370333713 -0.42320051356081623 0 0.042121557959679479 -0.40689397827368962 0 0.046509667952406512 -0.41833555967385072 0 0.054373060569327003 -0.40663711634463268 0 0.069775570718114244 -0.40426700169235308 0 0.054373060569327003 -0.40663711634463268 0 0.060774245729122177 -0.41691050055794487 0 0.050432421370333713 -0.42320051356081623 0 0.04400553312424714 -0.45021417746364167 0 0.065913834705597293 -0.44240038517061198 0 0.050432421370333713 -0.42320051356081623 0 0.065913834705597293 -0.44240038517061198 0 0.065921365320016911 -0.4273577277455588 0 0.050432421370333713 -0.42320051356081623 0 0.065921365320016911 -0.4273577277455588 0 0.060774245729122177 -0.41691050055794487 0 0.050432421370333713 -0.42320051356081623 0 0.065913834705597293 -0.44240038517061198 0 0.050432421370333713 -0.42320051356081623 0 0.04400553312424714 -0.45021417746364167 0 0.065913834705597293 -0.44240038517061198 0 0.057068655694905858 -0.46015288389510001 0 0.04400553312424714 -0.45021417746364167 0 0.057068655694905858 -0.46015288389510001 0 0.048043393468649283 -0.46676160836513853 0 0.04400553312424714 -0.45021417746364167 0 0.067447632246636219 -0.45716428258124142 0 0.057068655694905858 -0.46015288389510001 0 0.05849497948899289 -0.47642287528831911 0 0.057068655694905858 -0.46015288389510001 0 0.048043393468649283 -0.46676160836513853 0 0.052635520687858477 -0.47072247146996382 0 0.04400553312424714 -0.45021417746364167 0 0.037578644878161642 -0.47722784136646751 0 0.048043393468649283 -0.46676160836513853 0 0.04400553312424714 -0.45021417746364167 0 0.037578644878161642 -0.47722784136646751 0 0.04400553312424714 -0.45021417746364167 0 0.030366658319331299 -0.45781827645911538 0 0.037578644878161642 -0.47722784136646751 0 0.028535899264767479 -0.43733174884408438 0 0.039909128579099777 -0.42893709763038412 0 0.04400553312424714 -0.45021417746364167 0 0.028535899264767479 -0.43733174884408438 0 0.04400553312424714 -0.45021417746364167 0 0.030366658319331299 -0.45781827645911538 0 0.028535899264767479 -0.43733174884408438 0 0.01480854687676085 -0.45072328586224342 0 0.030366658319331299 -0.45781827645911538 0 -0.008216644178786571 -0.4466179140804285 0 0.01224976062295041 -0.42183763890738629 0 0.01480854687676085 -0.45072328586224342 0 0.01480854687676085 -0.45072328586224342 0 0.017367333130571299 -0.47960893281710049 0 0.0084119176919832291 -0.471974008478943 0 -0.0021957942935651631 -0.46571035637089769 0 0.01480854687676085 -0.45072328586224342 0 0.0084119176919832291 -0.471974008478943 0 -0.008216644178786571 -0.4466179140804285 0 -0.0021957942935651631 -0.46571035637089769 0 0.01480854687676085 -0.45072328586224342 0 0.01480854687676085 -0.45072328586224342 0 0.017367333130571299 -0.47960893281710049 0 0.01480854687676085 -0.45072328586224342 0 0.030366658319331299 -0.45781827645911538 0 0.0269046674527194 -0.47359432875914009 0 0.01480854687676085 -0.45072328586224342 0 0.0269046674527194 -0.47359432875914009 0 0.017367333130571299 -0.47960893281710049 0 0.017367333130571299 -0.47960893281710049 0 0.012735562036971701 -0.48508522326900949 0 0.035615270762982369 -0.48075404927866472 0 0.012735562036971701 -0.48508522326900949 0 0.035615270762982369 -0.48075404927866472 0 0.0269046674527194 -0.47359432875914009 0 0.017367333130571299 -0.47960893281710049 0 0.035615270762982369 -0.48075404927866472 0 0.017367333130571299 -0.47960893281710049 0 0.0084119176919832291 -0.471974008478943 0 0.012735562036971701 -0.48508522326900949 0 -0.00065605929082254884 -0.47874224407546379 0 0.0084119176919832291 -0.471974008478943 0 0.012735562036971701 -0.48508522326900949 0 -0.0021957942935651631 -0.46571035637089769 0 -0.00065605929082254884 -0.47874224407546379 0 0.0084119176919832291 -0.471974008478943 0 -0.010144146689038991 -0.48941639725935437 0 -0.00065605929082254884 -0.47874224407546379 0 0.012735562036971701 -0.48508522326900949 0 -0.010144146689038991 -0.48941639725935437 0 0.012735562036971701 -0.48508522326900949 0 -0.011489863113854141 -0.5 0 0.012735562036971701 -0.48508522326900949 0 0.01802246382714956 -0.5 0 0.01802246382714956 -0.5 0 0.025329369399590369 -0.48901546815995378 0 0.047534790768153173 -0.50000000000000044 0 0.012735562036971701 -0.48508522326900949 0 0.025329369399590369 -0.48901546815995378 0 0.035615270762982369 -0.48075404927866472 0 0.012735562036971701 -0.48508522326900949 0 0.01802246382714956 -0.5 0 0.025329369399590369 -0.48901546815995378 0 0.025329369399590369 -0.48901546815995378 0 0.035615270762982369 -0.48075404927866472 0 0.047534790768153173 -0.50000000000000044 0 0.030366658319331299 -0.45781827645911538 0 0.0269046674527194 -0.47359432875914009 0 0.037578644878161642 -0.47722784136646751 0 0.0269046674527194 -0.47359432875914009 0 0.037578644878161642 -0.47722784136646751 0 0.035615270762982369 -0.48075404927866472 0 0.048043393468649283 -0.46676160836513853 0 0.037578644878161642 -0.47722784136646751 0 0.046296380844488463 -0.47463440362945558 0 0.035615270762982369 -0.48075404927866472 0 0.046296380844488463 -0.47463440362945558 0 0.049693011087844949 -0.4756354888466594 0 0.037578644878161642 -0.47722784136646751 0 0.035615270762982369 -0.48075404927866472 0 0.046296380844488463 -0.47463440362945558 0 0.057068655694905858 -0.46015288389510001 0 0.052635520687858477 -0.47072247146996382 0 0.05849497948899289 -0.47642287528831911 0 0.035615270762982369 -0.48075404927866472 0 0.049693011087844949 -0.4756354888466594 0 0.05849497948899289 -0.47642287528831911 0 0.035615270762982369 -0.48075404927866472 0 0.05849497948899289 -0.47642287528831911 0 0.048043393468649283 -0.46676160836513853 0 0.046296380844488463 -0.47463440362945558 0 0.052635520687858477 -0.47072247146996382 0 0.049693011087844949 -0.4756354888466594 0 0.052635520687858477 -0.47072247146996382 0 0.05849497948899289 -0.47642287528831911 0 0.046296380844488463 -0.47463440362945558 0 0.049693011087844949 -0.4756354888466594 0 0.052635520687858477 -0.47072247146996382 0 0.05849497948899289 -0.47642287528831911 0 0.061758178687080389 -0.47580514524370598 0 0.062670741706174135 -0.48944359682069549 0 0.064881374578912687 -0.4815757870058418 0 0.05849497948899289 -0.47642287528831911 0 0.064881374578912687 -0.4815757870058418 0 0.05849497948899289 -0.47642287528831911 0 0.061758178687080389 -0.47580514524370598 0 0.069142552082564368 -0.5 0 0.062670741706174135 -0.48944359682069549 0 0.047534790768153173 -0.50000000000000044 0 0.05849497948899289 -0.47642287528831911 0 0.047534790768153173 -0.50000000000000044 0 0.035615270762982369 -0.48075404927866472 0 0.05849497948899289 -0.47642287528831911 0 0.047534790768153173 -0.50000000000000044 0 0.062670741706174135 -0.48944359682069549 0 0.05849497948899289 -0.47642287528831911 0 0.047534790768153173 -0.50000000000000044 0 0.089727975817252392 -0.29646224842349211 0 0.069967983226982527 -0.30495776272600778 0 0.075483032258224086 -0.28815868119130272 0 0.089727975817252392 -0.29646224842349211 0 0.088503230311337153 -0.27716835087377989 0 0.101883582619993 -0.28460947857741209 0 0.089727975817252392 -0.29646224842349211 0 0.075483032258224086 -0.28815868119130272 0 0.088503230311337153 -0.27716835087377989 0 0.089727975817252392 -0.29646224842349211 0 0.086214248119208581 -0.31193359067875348 0 0.069967983226982527 -0.30495776272600778 0 0.089727975817252392 -0.29646224842349211 0 0.086214248119208581 -0.31193359067875348 0 0.10049372866807189 -0.31082656242210721 0 0.069967983226982527 -0.30495776272600778 0 0.075483032258224086 -0.28815868119130272 0 0.059449054433483903 -0.28956707473318272 0 0.075483032258224086 -0.28815868119130272 0 0.0646939085167762 -0.2722383315448984 0 0.059449054433483903 -0.28956707473318272 0 0.0646939085167762 -0.2722383315448984 0 0.077350866508299074 -0.27549126298099152 0 0.080723294946858856 -0.26439968831398508 0 0.075483032258224086 -0.28815868119130272 0 0.0646939085167762 -0.2722383315448984 0 0.077350866508299074 -0.27549126298099152 0 0.0646939085167762 -0.2722383315448984 0 0.070005134957367529 -0.25889031236374099 0 0.080723294946858856 -0.26439968831398508 0 0.070005134957367529 -0.25889031236374099 0 0.061490933840310687 -0.25382890142296882 0 0.070069103552599196 -0.24823964670048029 0 0.0646939085167762 -0.2722383315448984 0 0.070005134957367529 -0.25889031236374099 0 0.060614126731859473 -0.2624009925450973 0 0.070005134957367529 -0.25889031236374099 0 0.061490933840310687 -0.25382890142296882 0 0.060614126731859473 -0.2624009925450973 0 0.070005134957367529 -0.25889031236374099 0 0.080071368274292315 -0.25145738896057979 0 0.080723294946858856 -0.26439968831398508 0 0.070005134957367529 -0.25889031236374099 0 0.080071368274292315 -0.25145738896057979 0 0.070069103552599196 -0.24823964670048029 0 0.080071368274292315 -0.25145738896057979 0 0.080723294946858856 -0.26439968831398508 0 0.090706365013478091 -0.25245448435890872 0 0.080723294946858856 -0.26439968831398508 0 0.090706365013478091 -0.25245448435890872 0 0.095060577752172304 -0.26241188567384149 0 0.075483032258224086 -0.28815868119130272 0 0.077350866508299074 -0.27549126298099152 0 0.088503230311337153 -0.27716835087377989 0 0.077350866508299074 -0.27549126298099152 0 0.080723294946858856 -0.26439968831398508 0 0.088503230311337153 -0.27716835087377989 0 0.080723294946858856 -0.26439968831398508 0 0.088503230311337153 -0.27716835087377989 0 0.095060577752172304 -0.26241188567384149 0 0.088503230311337153 -0.27716835087377989 0 0.1016952336099234 -0.27235330725820578 0 0.101883582619993 -0.28460947857741209 0 0.088503230311337153 -0.27716835087377989 0 0.1016952336099234 -0.27235330725820578 0 0.095060577752172304 -0.26241188567384149 0 0.1016952336099234 -0.27235330725820578 0 0.1104739380917857 -0.2612093749811526 0 0.1125548392743288 -0.27636744618484282 0 0.1016952336099234 -0.27235330725820578 0 0.1125548392743288 -0.27636744618484282 0 0.101883582619993 -0.28460947857741209 0 0.090706365013478091 -0.25245448435890872 0 0.099550463170151926 -0.25262580003909579 0 0.095060577752172304 -0.26241188567384149 0 0.1016952336099234 -0.27235330725820578 0 0.095060577752172304 -0.26241188567384149 0 0.1104739380917857 -0.2612093749811526 0 0.099550463170151926 -0.25262580003909579 0 0.095060577752172304 -0.26241188567384149 0 0.1104739380917857 -0.2612093749811526 0 0.099550463170151926 -0.25262580003909579 0 0.1104739380917857 -0.2612093749811526 0 0.1078238037173969 -0.24832262031645649 0 0.1311170075682456 -0.27142576198599933 0 0.1104739380917857 -0.2612093749811526 0 0.1212054647883809 -0.25073068226796852 0 0.1104739380917857 -0.2612093749811526 0 0.1212054647883809 -0.25073068226796852 0 0.1078238037173969 -0.24832262031645649 0 0.1311170075682456 -0.27142576198599933 0 0.1104739380917857 -0.2612093749811526 0 0.1311170075682456 -0.27142576198599933 0 0.1104739380917857 -0.2612093749811526 0 0.1193620271946058 -0.27249351692823448 0 0.1104739380917857 -0.2612093749811526 0 0.1125548392743288 -0.27636744618484282 0 0.1193620271946058 -0.27249351692823448 0 0.1125548392743288 -0.27636744618484282 0 0.1193620271946058 -0.27249351692823448 0 0.1233023238440631 -0.28097148456094378 0 0.1311170075682456 -0.27142576198599933 0 0.1193620271946058 -0.27249351692823448 0 0.1233023238440631 -0.28097148456094378 0 0.1233023238440631 -0.28097148456094378 0 0.1242383748246253 -0.29131174999725179 0 0.1141297936923768 -0.28878453930630188 0 0.1242383748246253 -0.29131174999725179 0 0.1141297936923768 -0.28878453930630188 0 0.1198701537204314 -0.30089140532399938 0 0.1141297936923768 -0.28878453930630188 0 0.10622170970645189 -0.29895353846799488 0 0.1198701537204314 -0.30089140532399938 0 0.1125548392743288 -0.27636744618484282 0 0.1233023238440631 -0.28097148456094378 0 0.1141297936923768 -0.28878453930630188 0 0.1125548392743288 -0.27636744618484282 0 0.1141297936923768 -0.28878453930630188 0 0.101883582619993 -0.28460947857741209 0 0.089727975817252392 -0.29646224842349211 0 0.101883582619993 -0.28460947857741209 0 0.10622170970645189 -0.29895353846799488 0 0.1141297936923768 -0.28878453930630188 0 0.101883582619993 -0.28460947857741209 0 0.10622170970645189 -0.29895353846799488 0 0.089727975817252392 -0.29646224842349211 0 0.10049372866807189 -0.31082656242210721 0 0.10622170970645189 -0.29895353846799488 0 0.10049372866807189 -0.31082656242210721 0 0.10622170970645189 -0.29895353846799488 0 0.1134387524627216 -0.31086840579325631 0 0.10622170970645189 -0.29895353846799488 0 0.1134387524627216 -0.31086840579325631 0 0.1198701537204314 -0.30089140532399938 0 0.1265219532001009 -0.3124330460259736 0 0.1134387524627216 -0.31086840579325631 0 0.1198701537204314 -0.30089140532399938 0 0.1265219532001009 -0.3124330460259736 0 0.1134387524627216 -0.31086840579325631 0 0.1192961391526948 -0.32261879728377291 0 0.1134387524627216 -0.31086840579325631 0 0.1192961391526948 -0.32261879728377291 0 0.1082288303285789 -0.31948708523568958 0 0.1192961391526948 -0.32261879728377291 0 0.1093748658769356 -0.32997486192450581 0 0.1082288303285789 -0.31948708523568958 0 0.1192961391526948 -0.32261879728377291 0 0.1168506625355451 -0.3296807312869221 0 0.1093748658769356 -0.32997486192450581 0 0.1192961391526948 -0.32261879728377291 0 0.12260601330919629 -0.33072698382653798 0 0.1168506625355451 -0.3296807312869221 0 0.13219802669416811 -0.32498852212276208 0 0.1192961391526948 -0.32261879728377291 0 0.12260601330919629 -0.33072698382653798 0 0.13051916655351839 -0.33696304048325831 0 0.12260601330919629 -0.33072698382653798 0 0.1159240811174677 -0.33775964177068091 0 0.12260601330919629 -0.33072698382653798 0 0.1159240811174677 -0.33775964177068091 0 0.1161256318033537 -0.33540228211287182 0 0.12260601330919629 -0.33072698382653798 0 0.1168506625355451 -0.3296807312869221 0 0.1161256318033537 -0.33540228211287182 0 0.13051916655351839 -0.33696304048325831 0 0.1159240811174677 -0.33775964177068091 0 0.13051916655351839 -0.33696304048325831 0 0.1159240811174677 -0.33775964177068091 0 0.123981461538115 -0.35128285539313481 0 0.1159240811174677 -0.33775964177068091 0 0.1161256318033537 -0.33540228211287182 0 0.1168506625355451 -0.3296807312869221 0 0.1161256318033537 -0.33540228211287182 0 0.1093748658769356 -0.32997486192450581 0 0.1159240811174677 -0.33775964177068091 0 0.1161256318033537 -0.33540228211287182 0 0.1093748658769356 -0.32997486192450581 0 0.1159240811174677 -0.33775964177068091 0 0.092335912071574502 -0.33904708650077298 0 0.1159240811174677 -0.33775964177068091 0 0.1093748658769356 -0.32997486192450581 0 0.092335912071574502 -0.33904708650077298 0 0.1093748658769356 -0.32997486192450581 0 0.096347407600029022 -0.32440529872184809 0 0.092335912071574502 -0.33904708650077298 0 0.1159240811174677 -0.33775964177068091 0 0.10211321446004019 -0.35101158716873732 0 0.092335912071574502 -0.33904708650077298 0 0.086214248119208581 -0.31193359067875348 0 0.10049372866807189 -0.31082656242210721 0 0.096347407600029022 -0.32440529872184809 0 0.10049372866807189 -0.31082656242210721 0 0.1134387524627216 -0.31086840579325631 0 0.1082288303285789 -0.31948708523568958 0 0.10049372866807189 -0.31082656242210721 0 0.096347407600029022 -0.32440529872184809 0 0.1082288303285789 -0.31948708523568958 0 0.1093748658769356 -0.32997486192450581 0 0.096347407600029022 -0.32440529872184809 0 0.1082288303285789 -0.31948708523568958 0 0.12784456261830821 -0.36308533366748658 0 0.12609635470998201 -0.38402791619100712 0 0.113745377556003 -0.36324200547299851 0 0.1159240811174677 -0.33775964177068091 0 0.113745377556003 -0.36324200547299851 0 0.123981461538115 -0.35128285539313481 0 0.1159240811174677 -0.33775964177068091 0 0.113745377556003 -0.36324200547299851 0 0.1159240811174677 -0.33775964177068091 0 0.113745377556003 -0.36324200547299851 0 0.10211321446004019 -0.35101158716873732 0 0.12784456261830821 -0.36308533366748658 0 0.113745377556003 -0.36324200547299851 0 0.123981461538115 -0.35128285539313481 0 0.1115666739945345 -0.38872436917531578 0 0.113745377556003 -0.36324200547299851 0 0.096372132326470572 -0.36542491223168638 0 0.113745377556003 -0.36324200547299851 0 0.10211321446004019 -0.35101158716873732 0 0.096372132326470572 -0.36542491223168638 0 0.089853218628298884 -0.38394717958202601 0 0.096372132326470572 -0.36542491223168638 0 0.07582030708563034 -0.37256671738353597 0 0.096372132326470572 -0.36542491223168638 0 0.082110249222110576 -0.35466523699539548 0 0.07582030708563034 -0.37256671738353597 0 0.10211321446004019 -0.35101158716873732 0 0.096372132326470572 -0.36542491223168638 0 0.082110249222110576 -0.35466523699539548 0 0.082110249222110576 -0.35466523699539548 0 0.092335912071574502 -0.33904708650077298 0 0.068747743025681235 -0.34033453123086538 0 0.10211321446004019 -0.35101158716873732 0 0.082110249222110576 -0.35466523699539548 0 0.092335912071574502 -0.33904708650077298 0 0.082110249222110576 -0.35466523699539548 0 0.068747743025681235 -0.34033453123086538 0 0.057272186363266697 -0.35960658745677498 0 0.082110249222110576 -0.35466523699539548 0 0.07582030708563034 -0.37256671738353597 0 0.057272186363266697 -0.35960658745677498 0 0.05933500968155693 -0.37671477575793533 0 0.07582030708563034 -0.37256671738353597 0 0.057272186363266697 -0.35960658745677498 0 0.086214248119208581 -0.31193359067875348 0 0.096347407600029022 -0.32440529872184809 0 0.078030795921920637 -0.32434601069550512 0 0.092335912071574502 -0.33904708650077298 0 0.068747743025681235 -0.34033453123086538 0 0.078030795921920637 -0.32434601069550512 0 0.092335912071574502 -0.33904708650077298 0 0.068747743025681235 -0.34033453123086538 0 0.096347407600029022 -0.32440529872184809 0 0.092335912071574502 -0.33904708650077298 0 0.078030795921920637 -0.32434601069550512 0 0.068747743025681235 -0.34033453123086538 0 0.078030795921920637 -0.32434601069550512 0 0.053863538987460123 -0.3232816795844588 0 0.069967983226982527 -0.30495776272600778 0 0.078030795921920637 -0.32434601069550512 0 0.053863538987460123 -0.3232816795844588 0 0.086214248119208581 -0.31193359067875348 0 0.069967983226982527 -0.30495776272600778 0 0.078030795921920637 -0.32434601069550512 0 0.068747743025681235 -0.34033453123086538 0 0.045159573979787898 -0.34162197596095778 0 0.068747743025681235 -0.34033453123086538 0 0.053863538987460123 -0.3232816795844588 0 0.045159573979787898 -0.34162197596095778 0 0.053863538987460123 -0.3232816795844588 0 0.034832013842728909 -0.33032259781876938 0 0.045159573979787898 -0.34162197596095778 0 0.034832013842728909 -0.33032259781876938 0 0.045159573979787898 -0.34162197596095778 0 0.02157140493389462 -0.34290942069105018 0 0.045159573979787898 -0.34162197596095778 0 0.02157140493389462 -0.34290942069105018 0 0.053863538987460123 -0.3232816795844588 0 0.034832013842728909 -0.33032259781876938 0 0.03621734991660093 -0.31670946998547028 0 0.053863538987460123 -0.3232816795844588 0 0.03621734991660093 -0.31670946998547028 0 0.048768037075517537 -0.30442990221103089 0 0.05933500968155693 -0.37671477575793533 0 0.057272186363266697 -0.35960658745677498 0 0.039079294002052851 -0.37065651216905859 0 0.068747743025681235 -0.34033453123086538 0 0.045159573979787898 -0.34162197596095778 0 0.057272186363266697 -0.35960658745677498 0 0.045159573979787898 -0.34162197596095778 0 0.034512899630155462 -0.3545258348651717 0 0.02157140493389462 -0.34290942069105018 0 0.045159573979787898 -0.34162197596095778 0 0.057272186363266697 -0.35960658745677498 0 0.034512899630155462 -0.3545258348651717 0 0.057272186363266697 -0.35960658745677498 0 0.034512899630155462 -0.3545258348651717 0 0.039079294002052851 -0.37065651216905859 0 0.025542853711361019 -0.38384675294920401 0 0.039079294002052851 -0.37065651216905859 0 0.016784443680880379 -0.36713146693108112 0 0.034512899630155462 -0.3545258348651717 0 0.039079294002052851 -0.37065651216905859 0 0.016784443680880379 -0.36713146693108112 0 0.034512899630155462 -0.3545258348651717 0 0.016784443680880379 -0.36713146693108112 0 0.02157140493389462 -0.34290942069105018 0 -0.0043130761299947744 -0.35643483176966217 0 0.016784443680880379 -0.36713146693108112 0 0.02157140493389462 -0.34290942069105018 0 -0.0038616663111063101 -0.33241552487502413 0 -0.0043130761299947744 -0.35643483176966217 0 0.02157140493389462 -0.34290942069105018 0 -0.0043130761299947744 -0.35643483176966217 0 -0.0064694903547723136 -0.38059021958606692 0 0.016784443680880379 -0.36713146693108112 0 0.03621734991660093 -0.31670946998547028 0 0.020048637459846991 -0.32439583124448262 0 0.029165048793799431 -0.30349547286963757 0 0.034832013842728909 -0.33032259781876938 0 0.03621734991660093 -0.31670946998547028 0 0.020048637459846991 -0.32439583124448262 0 0.020048637459846991 -0.32439583124448262 0 0.0094652366165251054 -0.31053241408104548 0 0.029165048793799431 -0.30349547286963757 0 0.034832013842728909 -0.33032259781876938 0 0.020048637459846991 -0.32439583124448262 0 0.02157140493389462 -0.34290942069105018 0 -0.0038616663111063101 -0.33241552487502413 0 0.020048637459846991 -0.32439583124448262 0 0.02157140493389462 -0.34290942069105018 0 -0.0038616663111063101 -0.33241552487502413 0 0.020048637459846991 -0.32439583124448262 0 0.0094652366165251054 -0.31053241408104548 0 -0.01007927323019326 -0.3103345258507364 0 0.0094652366165251054 -0.31053241408104548 0 0.0017563221397047381 -0.2997067901486577 0 0.0094652366165251054 -0.31053241408104548 0 0.0017563221397047381 -0.2997067901486577 0 0.017453688627786131 -0.29322190620108468 0 0.0017563221397047381 -0.2997067901486577 0 0.0066437179820165657 -0.2861171845936395 0 0.017453688627786131 -0.29322190620108468 0 -0.0080748459131490501 -0.2914060437848453 0 0.0017563221397047381 -0.2997067901486577 0 0.0066437179820165657 -0.2861171845936395 0 0.0066437179820165657 -0.2861171845936395 0 0.017453688627786131 -0.29322190620108468 0 0.01908241754038794 -0.28073467218482329 0 0.017453688627786131 -0.29322190620108468 0 0.029398966714908509 -0.28692964748338379 0 0.029165048793799431 -0.30349547286963757 0 0.017453688627786131 -0.29322190620108468 0 0.029398966714908509 -0.28692964748338379 0 0.01908241754038794 -0.28073467218482329 0 0.0094652366165251054 -0.31053241408104548 0 0.017453688627786131 -0.29322190620108468 0 0.029165048793799431 -0.30349547286963757 0 0.03621734991660093 -0.31670946998547028 0 0.029165048793799431 -0.30349547286963757 0 0.048768037075517537 -0.30442990221103089 0 0.029165048793799431 -0.30349547286963757 0 0.043029943860180789 -0.28970337243015992 0 0.048768037075517537 -0.30442990221103089 0 0.029398966714908509 -0.28692964748338379 0 0.029165048793799431 -0.30349547286963757 0 0.043029943860180789 -0.28970337243015992 0 0.029398966714908509 -0.28692964748338379 0 0.043029943860180789 -0.28970337243015992 0 0.038396769586432553 -0.27977596087564799 0 0.043029943860180789 -0.28970337243015992 0 0.051749435803858171 -0.27840569125857739 0 0.038396769586432553 -0.27977596087564799 0 0.043029943860180789 -0.28970337243015992 0 0.059449054433483903 -0.28956707473318272 0 0.051749435803858171 -0.27840569125857739 0 0.043029943860180789 -0.28970337243015992 0 0.059449054433483903 -0.28956707473318272 0 0.048768037075517537 -0.30442990221103089 0 0.069967983226982527 -0.30495776272600778 0 0.059449054433483903 -0.28956707473318272 0 0.048768037075517537 -0.30442990221103089 0 0.069967983226982527 -0.30495776272600778 0 0.053863538987460123 -0.3232816795844588 0 0.048768037075517537 -0.30442990221103089 0 0.053380735395516472 -0.25867595766617779 0 0.04428054005230446 -0.26275141268032309 0 0.045372505498807933 -0.25408090721008542 0 0.053380735395516472 -0.25867595766617779 0 0.053158010572478251 -0.26777612517812432 0 0.04428054005230446 -0.26275141268032309 0 0.053380735395516472 -0.25867595766617779 0 0.045372505498807933 -0.25408090721008542 0 0.05268811686830014 -0.24901610311096159 0 0.053380735395516472 -0.25867595766617779 0 0.061490933840310687 -0.25382890142296882 0 0.05268811686830014 -0.24901610311096159 0 0.053380735395516472 -0.25867595766617779 0 0.060614126731859473 -0.2624009925450973 0 0.053158010572478251 -0.26777612517812432 0 0.053380735395516472 -0.25867595766617779 0 0.061490933840310687 -0.25382890142296882 0 0.060614126731859473 -0.2624009925450973 0 0.0646939085167762 -0.2722383315448984 0 0.060614126731859473 -0.2624009925450973 0 0.053158010572478251 -0.26777612517812432 0 0.0646939085167762 -0.2722383315448984 0 0.059449054433483903 -0.28956707473318272 0 0.051749435803858171 -0.27840569125857739 0 0.0646939085167762 -0.2722383315448984 0 0.051749435803858171 -0.27840569125857739 0 0.053158010572478251 -0.26777612517812432 0 0.053158010572478251 -0.26777612517812432 0 0.044229316934554799 -0.27218436537367241 0 0.04428054005230446 -0.26275141268032309 0 0.051749435803858171 -0.27840569125857739 0 0.053158010572478251 -0.26777612517812432 0 0.044229316934554799 -0.27218436537367241 0 0.044229316934554799 -0.27218436537367241 0 0.031885251388666561 -0.26470215361104171 0 0.04428054005230446 -0.26275141268032309 0 0.051749435803858171 -0.27840569125857739 0 0.044229316934554799 -0.27218436537367241 0 0.038396769586432553 -0.27977596087564799 0 0.044229316934554799 -0.27218436537367241 0 0.038396769586432553 -0.27977596087564799 0 0.029696712261103771 -0.27487286106778819 0 0.029398966714908509 -0.28692964748338379 0 0.038396769586432553 -0.27977596087564799 0 0.029696712261103771 -0.27487286106778819 0 0.044229316934554799 -0.27218436537367241 0 0.031885251388666561 -0.26470215361104171 0 0.029696712261103771 -0.27487286106778819 0 0.037315510146954597 -0.25849363249326118 0 0.031885251388666561 -0.26470215361104171 0 0.04428054005230446 -0.26275141268032309 0 0.037315510146954597 -0.25849363249326118 0 0.031885251388666561 -0.26470215361104171 0 0.03069464768829987 -0.25176037071845259 0 0.037315510146954597 -0.25849363249326118 0 0.04428054005230446 -0.26275141268032309 0 0.045372505498807933 -0.25408090721008542 0 0.045372505498807933 -0.25408090721008542 0 0.03069464768829987 -0.25176037071845259 0 0.042588116356466379 -0.2448823624008481 0 0.037315510146954597 -0.25849363249326118 0 0.045372505498807933 -0.25408090721008542 0 0.03069464768829987 -0.25176037071845259 0 0.031885251388666561 -0.26470215361104171 0 0.021199614426200629 -0.26114166245967918 0 0.019908913466960752 -0.27058631964059482 0 0.031885251388666561 -0.26470215361104171 0 0.03069464768829987 -0.25176037071845259 0 0.021199614426200629 -0.26114166245967918 0 0.03069464768829987 -0.25176037071845259 0 0.021199614426200629 -0.26114166245967918 0 0.016145176335298529 -0.25210595968411048 0 0.029398966714908509 -0.28692964748338379 0 0.029696712261103771 -0.27487286106778819 0 0.01908241754038794 -0.28073467218482329 0 0.031885251388666561 -0.26470215361104171 0 0.029696712261103771 -0.27487286106778819 0 0.019908913466960752 -0.27058631964059482 0 0.019908913466960752 -0.27058631964059482 0 0.01908241754038794 -0.28073467218482329 0 0.01128192931255503 -0.27464126756021451 0 0.029696712261103771 -0.27487286106778819 0 0.019908913466960752 -0.27058631964059482 0 0.01908241754038794 -0.28073467218482329 0 -0.01145854626600548 -0.26602311564559261 0 0.01128192931255503 -0.27464126756021451 0 0.0057158633005241696 -0.26337829885565528 0 0.0066437179820165657 -0.2861171845936395 0 0.01908241754038794 -0.28073467218482329 0 0.01128192931255503 -0.27464126756021451 0 0.019908913466960752 -0.27058631964059482 0 0.01128192931255503 -0.27464126756021451 0 0.0057158633005241696 -0.26337829885565528 0 -0.002848760243290064 -0.27761611820401882 0 0.0066437179820165657 -0.2861171845936395 0 0.01128192931255503 -0.27464126756021451 0 0.016145176335298529 -0.25210595968411048 0 0.0057158633005241696 -0.26337829885565528 0 0.0054759062840018038 -0.25064707341720888 0 0.021199614426200629 -0.26114166245967918 0 0.019908913466960752 -0.27058631964059482 0 0.0057158633005241696 -0.26337829885565528 0 0.021199614426200629 -0.26114166245967918 0 0.016145176335298529 -0.25210595968411048 0 0.0057158633005241696 -0.26337829885565528 0 -0.0009620894167222515 -0.25496392916579452 0 0.0057158633005241696 -0.26337829885565528 0 0.0054759062840018038 -0.25064707341720888 0 -0.0009620894167222515 -0.25496392916579452 0 -0.0029313858115674811 -0.24854412401401971 0 0.0054759062840018038 -0.25064707341720888 0 0.0054759062840018038 -0.25064707341720888 0 0.0026199421412959989 -0.2430643023623929 0 0.011589873569895199 -0.24127835128668559 0 -0.0029313858115674811 -0.24854412401401971 0 0.0054759062840018038 -0.25064707341720888 0 0.0026199421412959989 -0.2430643023623929 0 0.016145176335298529 -0.25210595968411048 0 0.0054759062840018038 -0.25064707341720888 0 0.011589873569895199 -0.24127835128668559 0 0.011589873569895199 -0.24127835128668559 0 0.010668172172219499 -0.2272828987723072 0 0.020574075722817331 -0.2351284197632682 0 0.0026199421412959989 -0.2430643023623929 0 0.011589873569895199 -0.24127835128668559 0 0.0017465435191736189 -0.23378549097037141 0 -0.00080535468136348092 -0.21995366459000901 0 0.010668172172219499 -0.2272828987723072 0 0.01016515501406726 -0.20926501301563591 0 -0.00080535468136348092 -0.21995366459000901 0 0.0017465435191736189 -0.23378549097037141 0 0.010668172172219499 -0.2272828987723072 0 0.010668172172219499 -0.2272828987723072 0 0.02170661161633574 -0.22145314359659171 0 0.01016515501406726 -0.20926501301563591 0 0.011589873569895199 -0.24127835128668559 0 0.0017465435191736189 -0.23378549097037141 0 0.010668172172219499 -0.2272828987723072 0 0.010668172172219499 -0.2272828987723072 0 0.02170661161633574 -0.22145314359659171 0 0.020574075722817331 -0.2351284197632682 0 0.02170661161633574 -0.22145314359659171 0 0.02866695829179056 -0.22960637228307629 0 0.036392787169896093 -0.22322562645731159 0 0.02170661161633574 -0.22145314359659171 0 0.02866695829179056 -0.22960637228307629 0 0.020574075722817331 -0.2351284197632682 0 0.02866695829179056 -0.22960637228307629 0 0.020574075722817331 -0.2351284197632682 0 0.032071787069821417 -0.24054619649286721 0 0.022195152742869501 -0.2444300013669817 0 0.020574075722817331 -0.2351284197632682 0 0.032071787069821417 -0.24054619649286721 0 0.03069464768829987 -0.25176037071845259 0 0.022195152742869501 -0.2444300013669817 0 0.032071787069821417 -0.24054619649286721 0 0.03069464768829987 -0.25176037071845259 0 0.016145176335298529 -0.25210595968411048 0 0.022195152742869501 -0.2444300013669817 0 0.016145176335298529 -0.25210595968411048 0 0.011589873569895199 -0.24127835128668559 0 0.022195152742869501 -0.2444300013669817 0 0.011589873569895199 -0.24127835128668559 0 0.022195152742869501 -0.2444300013669817 0 0.020574075722817331 -0.2351284197632682 0 -0.003739977245034012 -0.19168309442994089 0 0.010514116253606281 -0.1925853606064957 0 0.01016515501406726 -0.20926501301563591 0 0.010514116253606281 -0.1925853606064957 0 0.01016515501406726 -0.20926501301563591 0 0.018596641755985681 -0.20049862993462389 0 0.02170661161633574 -0.22145314359659171 0 0.01016515501406726 -0.20926501301563591 0 0.028304225500431591 -0.20785134554231141 0 0.01016515501406726 -0.20926501301563591 0 0.028304225500431591 -0.20785134554231141 0 0.018596641755985681 -0.20049862993462389 0 0.02170661161633574 -0.22145314359659171 0 0.028304225500431591 -0.20785134554231141 0 0.036392787169896093 -0.22322562645731159 0 0.028304225500431591 -0.20785134554231141 0 0.018596641755985681 -0.20049862993462389 0 0.02540307025583758 -0.19229280057405279 0 0.010514116253606281 -0.1925853606064957 0 0.018596641755985681 -0.20049862993462389 0 0.02540307025583758 -0.19229280057405279 0 0.010514116253606281 -0.1925853606064957 0 0.02540307025583758 -0.19229280057405279 0 0.015764016274472759 -0.1812646672695073 0 0.02540307025583758 -0.19229280057405279 0 0.041440672425083092 -0.19607701236864419 0 0.030421272951226121 -0.1778391783376792 0 0.028304225500431591 -0.20785134554231141 0 0.02540307025583758 -0.19229280057405279 0 0.041440672425083092 -0.19607701236864419 0 0.041440672425083092 -0.19607701236864419 0 0.042310424588804782 -0.2140630995529598 0 0.055497750511994078 -0.2086068857692274 0 0.028304225500431591 -0.20785134554231141 0 0.041440672425083092 -0.19607701236864419 0 0.042310424588804782 -0.2140630995529598 0 0.028304225500431591 -0.20785134554231141 0 0.042310424588804782 -0.2140630995529598 0 0.036392787169896093 -0.22322562645731159 0 0.042310424588804782 -0.2140630995529598 0 0.055497750511994078 -0.2086068857692274 0 0.052955454276687589 -0.2198291654371925 0 0.062338921595789062 -0.21792006704763969 0 0.055497750511994078 -0.2086068857692274 0 0.052955454276687589 -0.2198291654371925 0 0.062338921595789062 -0.21792006704763969 0 0.055497750511994078 -0.2086068857692274 0 0.067863046951983474 -0.20503048868511209 0 0.055497750511994078 -0.2086068857692274 0 0.056257937900538298 -0.19577788601322099 0 0.067863046951983474 -0.20503048868511209 0 0.041440672425083092 -0.19607701236864419 0 0.056257937900538298 -0.19577788601322099 0 0.051449240160577621 -0.1762857105508405 0 0.041440672425083092 -0.19607701236864419 0 0.055497750511994078 -0.2086068857692274 0 0.056257937900538298 -0.19577788601322099 0 0.040491861427302538 -0.2355872617630255 0 0.042588116356466379 -0.2448823624008481 0 0.052307832003780613 -0.23884346229351339 0 0.040491861427302538 -0.2355872617630255 0 0.045866106706223042 -0.22907627795895011 0 0.052307832003780613 -0.23884346229351339 0 0.03069464768829987 -0.25176037071845259 0 0.042588116356466379 -0.2448823624008481 0 0.032071787069821417 -0.24054619649286721 0 0.040491861427302538 -0.2355872617630255 0 0.042588116356466379 -0.2448823624008481 0 0.032071787069821417 -0.24054619649286721 0 0.02866695829179056 -0.22960637228307629 0 0.040491861427302538 -0.2355872617630255 0 0.032071787069821417 -0.24054619649286721 0 0.02866695829179056 -0.22960637228307629 0 0.040491861427302538 -0.2355872617630255 0 0.036392787169896093 -0.22322562645731159 0 0.042310424588804782 -0.2140630995529598 0 0.036392787169896093 -0.22322562645731159 0 0.045866106706223042 -0.22907627795895011 0 0.040491861427302538 -0.2355872617630255 0 0.036392787169896093 -0.22322562645731159 0 0.045866106706223042 -0.22907627795895011 0 0.045866106706223042 -0.22907627795895011 0 0.058764067980626958 -0.22947949685718549 0 0.052307832003780613 -0.23884346229351339 0 0.045866106706223042 -0.22907627795895011 0 0.052955454276687589 -0.2198291654371925 0 0.058764067980626958 -0.22947949685718549 0 0.042310424588804782 -0.2140630995529598 0 0.045866106706223042 -0.22907627795895011 0 0.052955454276687589 -0.2198291654371925 0 0.062338921595789062 -0.21792006704763969 0 0.058764067980626958 -0.22947949685718549 0 0.065719467571416057 -0.22489822263154319 0 0.062338921595789062 -0.21792006704763969 0 0.052955454276687589 -0.2198291654371925 0 0.058764067980626958 -0.22947949685718549 0 0.058764067980626958 -0.22947949685718549 0 0.062159259289524899 -0.2368834247622158 0 0.052307832003780613 -0.23884346229351339 0 0.062159259289524899 -0.2368834247622158 0 0.052307832003780613 -0.23884346229351339 0 0.061229972926465738 -0.2445427902389527 0 0.045372505498807933 -0.25408090721008542 0 0.042588116356466379 -0.2448823624008481 0 0.05268811686830014 -0.24901610311096159 0 0.042588116356466379 -0.2448823624008481 0 0.052307832003780613 -0.23884346229351339 0 0.05268811686830014 -0.24901610311096159 0 0.061490933840310687 -0.25382890142296882 0 0.05268811686830014 -0.24901610311096159 0 0.061229972926465738 -0.2445427902389527 0 0.052307832003780613 -0.23884346229351339 0 0.05268811686830014 -0.24901610311096159 0 0.061229972926465738 -0.2445427902389527 0 0.061490933840310687 -0.25382890142296882 0 0.061229972926465738 -0.2445427902389527 0 0.070069103552599196 -0.24823964670048029 0 0.061229972926465738 -0.2445427902389527 0 0.070069103552599196 -0.24823964670048029 0 0.069856411684105391 -0.23913895996007839 0 0.062159259289524899 -0.2368834247622158 0 0.061229972926465738 -0.2445427902389527 0 0.069856411684105391 -0.23913895996007839 0 0.062159259289524899 -0.2368834247622158 0 0.069856411684105391 -0.23913895996007839 0 0.067142239376285745 -0.23139328163069281 0 0.069856411684105391 -0.23913895996007839 0 0.077788170153509889 -0.24196191377257101 0 0.076767606518392539 -0.23187249677345001 0 0.080071368274292315 -0.25145738896057979 0 0.070069103552599196 -0.24823964670048029 0 0.077788170153509889 -0.24196191377257101 0 0.070069103552599196 -0.24823964670048029 0 0.069856411684105391 -0.23913895996007839 0 0.077788170153509889 -0.24196191377257101 0 0.080071368274292315 -0.25145738896057979 0 0.090706365013478091 -0.25245448435890872 0 0.085906732882507178 -0.24385162082211831 0 0.080071368274292315 -0.25145738896057979 0 0.077788170153509889 -0.24196191377257101 0 0.085906732882507178 -0.24385162082211831 0 0.077788170153509889 -0.24196191377257101 0 0.085906732882507178 -0.24385162082211831 0 0.083256636250354649 -0.23616880796388259 0 0.077788170153509889 -0.24196191377257101 0 0.083256636250354649 -0.23616880796388259 0 0.076767606518392539 -0.23187249677345001 0 0.085906732882507178 -0.24385162082211831 0 0.089657973372422345 -0.23730775202069579 0 0.094006026236525903 -0.2441335510050745 0 0.085906732882507178 -0.24385162082211831 0 0.083256636250354649 -0.23616880796388259 0 0.089657973372422345 -0.23730775202069579 0 0.083256636250354649 -0.23616880796388259 0 0.089657973372422345 -0.23730775202069579 0 0.089763789457938253 -0.2306791647953326 0 0.089657973372422345 -0.23730775202069579 0 0.089763789457938253 -0.2306791647953326 0 0.096012267649498176 -0.23702186761809721 0 0.089657973372422345 -0.23730775202069579 0 0.094006026236525903 -0.2441335510050745 0 0.096012267649498176 -0.23702186761809721 0 0.090706365013478091 -0.25245448435890872 0 0.085906732882507178 -0.24385162082211831 0 0.094006026236525903 -0.2441335510050745 0 0.086446736705125371 -0.22420087797706609 0 0.091303359373345411 -0.22339335178318359 0 0.089763789457938253 -0.2306791647953326 0 0.086446736705125371 -0.22420087797706609 0 0.091303359373345411 -0.22339335178318359 0 0.086853981468707001 -0.2185547472363609 0 0.091303359373345411 -0.22339335178318359 0 0.086853981468707001 -0.2185547472363609 0 0.09077468002378962 -0.21857675351640271 0 0.091303359373345411 -0.22339335178318359 0 0.09077468002378962 -0.21857675351640271 0 0.094530837428433365 -0.22086489816084981 0 0.091303359373345411 -0.22339335178318359 0 0.089763789457938253 -0.2306791647953326 0 0.098670227838192195 -0.22970514568366851 0 0.086446736705125371 -0.22420087797706609 0 0.089763789457938253 -0.2306791647953326 0 0.083020570332336119 -0.22791650227557511 0 0.083256636250354649 -0.23616880796388259 0 0.083020570332336119 -0.22791650227557511 0 0.076767606518392539 -0.23187249677345001 0 0.083256636250354649 -0.23616880796388259 0 0.089763789457938253 -0.2306791647953326 0 0.083020570332336119 -0.22791650227557511 0 0.083020570332336119 -0.22791650227557511 0 0.077930889523722374 -0.22519622511208121 0 0.076767606518392539 -0.23187249677345001 0 0.083020570332336119 -0.22791650227557511 0 0.081291982893300085 -0.22046062379487821 0 0.077930889523722374 -0.22519622511208121 0 0.086446736705125371 -0.22420087797706609 0 0.083020570332336119 -0.22791650227557511 0 0.081291982893300085 -0.22046062379487821 0 0.086446736705125371 -0.22420087797706609 0 0.081291982893300085 -0.22046062379487821 0 0.086853981468707001 -0.2185547472363609 0 0.081291982893300085 -0.22046062379487821 0 0.077930889523722374 -0.22519622511208121 0 0.073706539318973169 -0.21796036257100029 0 0.072234091795087663 -0.22574485878751241 0 0.065719467571416057 -0.22489822263154319 0 0.073706539318973169 -0.21796036257100029 0 0.077930889523722374 -0.22519622511208121 0 0.072234091795087663 -0.22574485878751241 0 0.073706539318973169 -0.21796036257100029 0 0.069856411684105391 -0.23913895996007839 0 0.076767606518392539 -0.23187249677345001 0 0.067142239376285745 -0.23139328163069281 0 0.072234091795087663 -0.22574485878751241 0 0.076767606518392539 -0.23187249677345001 0 0.067142239376285745 -0.23139328163069281 0 0.077930889523722374 -0.22519622511208121 0 0.072234091795087663 -0.22574485878751241 0 0.076767606518392539 -0.23187249677345001 0 0.058764067980626958 -0.22947949685718549 0 0.062159259289524899 -0.2368834247622158 0 0.067142239376285745 -0.23139328163069281 0 0.058764067980626958 -0.22947949685718549 0 0.067142239376285745 -0.23139328163069281 0 0.065719467571416057 -0.22489822263154319 0 0.072234091795087663 -0.22574485878751241 0 0.067142239376285745 -0.23139328163069281 0 0.065719467571416057 -0.22489822263154319 0 0.062338921595789062 -0.21792006704763969 0 0.065719467571416057 -0.22489822263154319 0 0.073706539318973169 -0.21796036257100029 0 0.062338921595789062 -0.21792006704763969 0 0.067863046951983474 -0.20503048868511209 0 0.073706539318973169 -0.21796036257100029 0 0.067863046951983474 -0.20503048868511209 0 0.073706539318973169 -0.21796036257100029 0 0.079094442607528917 -0.20913243433380641 0 0.067863046951983474 -0.20503048868511209 0 0.081482512553192915 -0.1953056794767786 0 0.079094442607528917 -0.20913243433380641 0 0.056257937900538298 -0.19577788601322099 0 0.067863046951983474 -0.20503048868511209 0 0.066040058368007956 -0.18964665730407451 0 0.067863046951983474 -0.20503048868511209 0 0.066040058368007956 -0.18964665730407451 0 0.081482512553192915 -0.1953056794767786 0 0.081482512553192915 -0.1953056794767786 0 0.095454742848087734 -0.19451486061966669 0 0.093505174579280592 -0.1731787749771625 0 0.081482512553192915 -0.1953056794767786 0 0.08833530696517819 -0.21036332105093219 0 0.095454742848087734 -0.19451486061966669 0 0.08833530696517819 -0.21036332105093219 0 0.097404311116896569 -0.21585094626217091 0 0.095454742848087734 -0.19451486061966669 0 0.081291982893300085 -0.22046062379487821 0 0.073706539318973169 -0.21796036257100029 0 0.082946926161669862 -0.2149195339015407 0 0.082946926161669862 -0.2149195339015407 0 0.079094442607528917 -0.20913243433380641 0 0.08833530696517819 -0.21036332105093219 0 0.073706539318973169 -0.21796036257100029 0 0.082946926161669862 -0.2149195339015407 0 0.079094442607528917 -0.20913243433380641 0 0.081291982893300085 -0.22046062379487821 0 0.082946926161669862 -0.2149195339015407 0 0.086853981468707001 -0.2185547472363609 0 0.081482512553192915 -0.1953056794767786 0 0.079094442607528917 -0.20913243433380641 0 0.08833530696517819 -0.21036332105093219 0 0.082946926161669862 -0.2149195339015407 0 0.08833530696517819 -0.21036332105093219 0 0.086853981468707001 -0.2185547472363609 0 0.08833530696517819 -0.21036332105093219 0 0.086853981468707001 -0.2185547472363609 0 0.09077468002378962 -0.21857675351640271 0 0.08833530696517819 -0.21036332105093219 0 0.09077468002378962 -0.21857675351640271 0 0.092213447725184278 -0.21529843562297729 0 0.08833530696517819 -0.21036332105093219 0 0.092213447725184278 -0.21529843562297729 0 0.097404311116896569 -0.21585094626217091 0 0.09077468002378962 -0.21857675351640271 0 0.094501608789943028 -0.21679829355882299 0 0.094530837428433365 -0.22086489816084981 0 0.09077468002378962 -0.21857675351640271 0 0.092213447725184278 -0.21529843562297729 0 0.094501608789943028 -0.21679829355882299 0 0.094501608789943028 -0.21679829355882299 0 0.097404311116896569 -0.21585094626217091 0 0.094530837428433365 -0.22086489816084981 0 0.092213447725184278 -0.21529843562297729 0 0.094501608789943028 -0.21679829355882299 0 0.097404311116896569 -0.21585094626217091 0 0.097404311116896569 -0.21585094626217091 0 0.095454742848087734 -0.19451486061966669 0 0.097404311116896569 -0.21585094626217091 0 0.1059898830346106 -0.20430933332548051 0 0.095454742848087734 -0.19451486061966669 0 0.097404311116896569 -0.21585094626217091 0 0.1089347031997706 -0.21297733173581901 0 0.1146171121197104 -0.21980430615730401 0 0.097404311116896569 -0.21585094626217091 0 0.1059898830346106 -0.20430933332548051 0 0.1089347031997706 -0.21297733173581901 0 0.095454742848087734 -0.19451486061966669 0 0.1128143282819509 -0.19216489626002589 0 0.10772522460311169 -0.17968171223372481 0 0.1059898830346106 -0.20430933332548051 0 0.095454742848087734 -0.19451486061966669 0 0.1128143282819509 -0.19216489626002589 0 0.1128143282819509 -0.19216489626002589 0 0.1237689835273371 -0.19605207676116951 0 0.1178461100078927 -0.20838697738218431 0 0.1059898830346106 -0.20430933332548051 0 0.1128143282819509 -0.19216489626002589 0 0.1178461100078927 -0.20838697738218431 0 0.1128143282819509 -0.19216489626002589 0 0.1237689835273371 -0.19605207676116951 0 0.1232013989280239 -0.1819146573535104 0 0.1089347031997706 -0.21297733173581901 0 0.1178461100078927 -0.20838697738218431 0 0.1146171121197104 -0.21980430615730401 0 0.1059898830346106 -0.20430933332548051 0 0.1089347031997706 -0.21297733173581901 0 0.1178461100078927 -0.20838697738218431 0 0.1178461100078927 -0.20838697738218431 0 0.1146171121197104 -0.21980430615730401 0 0.12895394136930069 -0.22163642029703709 0 0.1146171121197104 -0.21980430615730401 0 0.12018370186474731 -0.23305432747703519 0 0.12895394136930069 -0.22163642029703709 0 0.097404311116896569 -0.21585094626217091 0 0.1146171121197104 -0.21980430615730401 0 0.12018370186474731 -0.23305432747703519 0 0.1212054647883809 -0.25073068226796852 0 0.12018370186474731 -0.23305432747703519 0 0.1059281586602189 -0.23527494890652931 0 0.13217397618885759 -0.25462043987800831 0 0.1212054647883809 -0.25073068226796852 0 0.12018370186474731 -0.23305432747703519 0 0.1212054647883809 -0.25073068226796852 0 0.1059281586602189 -0.23527494890652931 0 0.1078238037173969 -0.24832262031645649 0 0.1212054647883809 -0.25073068226796852 0 0.1059281586602189 -0.23527494890652931 0 0.099550463170151926 -0.25262580003909579 0 0.1078238037173969 -0.24832262031645649 0 0.10103467245524091 -0.24298905409433241 0 0.1059281586602189 -0.23527494890652931 0 0.1078238037173969 -0.24832262031645649 0 0.10103467245524091 -0.24298905409433241 0 0.099550463170151926 -0.25262580003909579 0 0.10103467245524091 -0.24298905409433241 0 0.094006026236525903 -0.2441335510050745 0 0.090706365013478091 -0.25245448435890872 0 0.099550463170151926 -0.25262580003909579 0 0.094006026236525903 -0.2441335510050745 0 0.1059281586602189 -0.23527494890652931 0 0.10103467245524091 -0.24298905409433241 0 0.096012267649498176 -0.23702186761809721 0 0.10103467245524091 -0.24298905409433241 0 0.094006026236525903 -0.2441335510050745 0 0.096012267649498176 -0.23702186761809721 0 0.1059281586602189 -0.23527494890652931 0 0.096012267649498176 -0.23702186761809721 0 0.098670227838192195 -0.22970514568366851 0 0.089763789457938253 -0.2306791647953326 0 0.096012267649498176 -0.23702186761809721 0 0.098670227838192195 -0.22970514568366851 0 0.097404311116896569 -0.21585094626217091 0 0.12018370186474731 -0.23305432747703519 0 0.097404311116896569 -0.21585094626217091 0 0.12018370186474731 -0.23305432747703519 0 0.1059281586602189 -0.23527494890652931 0 0.097404311116896569 -0.21585094626217091 0 0.1059281586602189 -0.23527494890652931 0 0.098670227838192195 -0.22970514568366851 0 0.091303359373345411 -0.22339335178318359 0 0.098670227838192195 -0.22970514568366851 0 0.094530837428433365 -0.22086489816084981 0 0.097404311116896569 -0.21585094626217091 0 0.098670227838192195 -0.22970514568366851 0 0.094530837428433365 -0.22086489816084981 0 0.097404311116896569 -0.21585094626217091 0 0.098670227838192195 -0.22970514568366851 0 0.1071373084330472 -0.14482826815459701 0 0.1035248479174861 -0.15311019857333261 0 0.098760878024456711 -0.14050656481393209 0 0.1071373084330472 -0.14482826815459701 0 0.1035248479174861 -0.15311019857333261 0 0.1121477659277255 -0.1503271840913511 0 0.1035248479174861 -0.15311019857333261 0 0.098760878024456711 -0.14050656481393209 0 0.091560400862706559 -0.15189516094014111 0 0.098760878024456711 -0.14050656481393209 0 0.099399694252258627 -0.1328638184600745 0 0.089615627146132512 -0.13061154690311971 0 0.099399694252258627 -0.1328638184600745 0 0.099525338641528904 -0.12611341339503321 0 0.089615627146132512 -0.13061154690311971 0 0.099525338641528904 -0.12611341339503321 0 0.1096969331969164 -0.13422374872821319 0 0.1121708616464093 -0.1216807098986791 0 0.099399694252258627 -0.1328638184600745 0 0.099525338641528904 -0.12611341339503321 0 0.1096969331969164 -0.13422374872821319 0 0.098760878024456711 -0.14050656481393209 0 0.099399694252258627 -0.1328638184600745 0 0.1096969331969164 -0.13422374872821319 0 0.1071373084330472 -0.14482826815459701 0 0.098760878024456711 -0.14050656481393209 0 0.1096969331969164 -0.13422374872821319 0 0.1096969331969164 -0.13422374872821319 0 0.1155243526086871 -0.14484298486410191 0 0.12532898621889721 -0.13663811256420449 0 0.1096969331969164 -0.13422374872821319 0 0.11997683785091839 -0.1276371159963853 0 0.12532898621889721 -0.13663811256420449 0 0.1096969331969164 -0.13422374872821319 0 0.11997683785091839 -0.1276371159963853 0 0.1121708616464093 -0.1216807098986791 0 0.1217036921304827 -0.1482443959076799 0 0.1155243526086871 -0.14484298486410191 0 0.12532898621889721 -0.13663811256420449 0 0.1217036921304827 -0.1482443959076799 0 0.1155243526086871 -0.14484298486410191 0 0.1179114041550178 -0.15136128022523329 0 0.1071373084330472 -0.14482826815459701 0 0.1155243526086871 -0.14484298486410191 0 0.1121477659277255 -0.1503271840913511 0 0.1071373084330472 -0.14482826815459701 0 0.1096969331969164 -0.13422374872821319 0 0.1155243526086871 -0.14484298486410191 0 0.1035248479174861 -0.15311019857333261 0 0.1121477659277255 -0.1503271840913511 0 0.1169082366172023 -0.15609331882735419 0 0.1155243526086871 -0.14484298486410191 0 0.1121477659277255 -0.1503271840913511 0 0.1179114041550178 -0.15136128022523329 0 0.1121477659277255 -0.1503271840913511 0 0.1169082366172023 -0.15609331882735419 0 0.1179114041550178 -0.15136128022523329 0 0.1169082366172023 -0.15609331882735419 0 0.1179114041550178 -0.15136128022523329 0 0.12324902196630889 -0.15465793599018671 0 0.1217036921304827 -0.1482443959076799 0 0.1179114041550178 -0.15136128022523329 0 0.12324902196630889 -0.15465793599018671 0 0.1217036921304827 -0.1482443959076799 0 0.12324902196630889 -0.15465793599018671 0 0.12831016946945831 -0.1492440347933528 0 0.1035248479174861 -0.15311019857333261 0 0.12443417021765769 -0.1709717485187108 0 0.1227471198665283 -0.15880086614903269 0 0.12098675462827781 -0.16200852072179159 0 0.1290045142054978 -0.1612372837293575 0 0.1035248479174861 -0.15311019857333261 0 0.12443417021765769 -0.1709717485187108 0 0.12083528946942131 -0.1711597280255607 0 0.1035248479174861 -0.15311019857333261 0 0.12098675462827781 -0.16200852072179159 0 0.12443417021765769 -0.1709717485187108 0 0.1035248479174861 -0.15311019857333261 0 0.1169082366172023 -0.15609331882735419 0 0.12098675462827781 -0.16200852072179159 0 0.1169082366172023 -0.15609331882735419 0 0.1227471198665283 -0.15880086614903269 0 0.12098675462827781 -0.16200852072179159 0 0.1169082366172023 -0.15609331882735419 0 0.12324902196630889 -0.15465793599018671 0 0.1227471198665283 -0.15880086614903269 0 0.12098675462827781 -0.16200852072179159 0 0.12443417021765769 -0.1709717485187108 0 0.12715697753007521 -0.16591248018761531 0 0.1128143282819509 -0.19216489626002589 0 0.1232013989280239 -0.1819146573535104 0 0.1157139550245927 -0.18029465614444529 0 0.12083528946942131 -0.1711597280255607 0 0.1232013989280239 -0.1819146573535104 0 0.1157139550245927 -0.18029465614444529 0 0.12443417021765769 -0.1709717485187108 0 0.12083528946942131 -0.1711597280255607 0 0.1232013989280239 -0.1819146573535104 0 0.12083528946942131 -0.1711597280255607 0 0.1157139550245927 -0.18029465614444529 0 0.10772522460311169 -0.17968171223372481 0 0.1128143282819509 -0.19216489626002589 0 0.1157139550245927 -0.18029465614444529 0 0.10772522460311169 -0.17968171223372481 0 0.095454742848087734 -0.19451486061966669 0 0.10772522460311169 -0.17968171223372481 0 0.093505174579280592 -0.1731787749771625 0 0.12083528946942131 -0.1711597280255607 0 0.093505174579280592 -0.1731787749771625 0 0.095454742848087734 -0.19451486061966669 0 0.093505174579280592 -0.1731787749771625 0 0.12083528946942131 -0.1711597280255607 0 0.10772522460311169 -0.17968171223372481 0 0.093505174579280592 -0.1731787749771625 0 0.1035248479174861 -0.15311019857333261 0 0.093505174579280592 -0.1731787749771625 0 0.091560400862706559 -0.15189516094014111 0 0.1035248479174861 -0.15311019857333261 0 0.12083528946942131 -0.1711597280255607 0 0.093505174579280592 -0.1731787749771625 0 0.078133883947979807 -0.15717501910519549 0 0.093505174579280592 -0.1731787749771625 0 0.091560400862706559 -0.15189516094014111 0 0.078133883947979807 -0.15717501910519549 0 0.093505174579280592 -0.1731787749771625 0 0.072477207369929117 -0.17473224276400179 0 0.093505174579280592 -0.1731787749771625 0 0.091560400862706559 -0.15189516094014111 0 0.081482512553192915 -0.1953056794767786 0 0.093505174579280592 -0.1731787749771625 0 0.072477207369929117 -0.17473224276400179 0 0.093505174579280592 -0.1731787749771625 0 0.072477207369929117 -0.17473224276400179 0 0.066040058368007956 -0.18964665730407451 0 0.072477207369929117 -0.17473224276400179 0 0.051449240160577621 -0.1762857105508405 0 0.066040058368007956 -0.18964665730407451 0 0.081482512553192915 -0.1953056794767786 0 0.072477207369929117 -0.17473224276400179 0 0.078133883947979807 -0.15717501910519549 0 0.072477207369929117 -0.17473224276400179 0 0.063878974636528515 -0.16401540189567099 0 0.072477207369929117 -0.17473224276400179 0 0.063878974636528515 -0.16401540189567099 0 0.051449240160577621 -0.1762857105508405 0 0.078133883947979807 -0.15717501910519549 0 0.063878974636528515 -0.16401540189567099 0 0.06522271263887458 -0.15305574504012881 0 0.06522271263887458 -0.15305574504012881 0 0.069316279952888193 -0.14186668388360371 0 0.075278834721760557 -0.14616760919767161 0 0.06522271263887458 -0.15305574504012881 0 0.069316279952888193 -0.14186668388360371 0 0.05757515479497001 -0.1486962131740798 0 0.069316279952888193 -0.14186668388360371 0 0.075278834721760557 -0.14616760919767161 0 0.079765110473415279 -0.13788087003968491 0 0.078133883947979807 -0.15717501910519549 0 0.06522271263887458 -0.15305574504012881 0 0.075278834721760557 -0.14616760919767161 0 0.098760878024456711 -0.14050656481393209 0 0.091560400862706559 -0.15189516094014111 0 0.089615627146132512 -0.13061154690311971 0 0.078133883947979807 -0.15717501910519549 0 0.083611330147541921 -0.14459745320402559 0 0.091560400862706559 -0.15189516094014111 0 0.091560400862706559 -0.15189516094014111 0 0.089615627146132512 -0.13061154690311971 0 0.078133883947979807 -0.15717501910519549 0 0.075278834721760557 -0.14616760919767161 0 0.083611330147541921 -0.14459745320402559 0 0.083611330147541921 -0.14459745320402559 0 0.091560400862706559 -0.15189516094014111 0 0.089615627146132512 -0.13061154690311971 0 0.075278834721760557 -0.14616760919767161 0 0.083611330147541921 -0.14459745320402559 0 0.079765110473415279 -0.13788087003968491 0 0.099525338641528904 -0.12611341339503321 0 0.089615627146132512 -0.13061154690311971 0 0.081894058627025895 -0.12584863130967919 0 0.083611330147541921 -0.14459745320402559 0 0.089615627146132512 -0.13061154690311971 0 0.079765110473415279 -0.13788087003968491 0 0.089615627146132512 -0.13061154690311971 0 0.079765110473415279 -0.13788087003968491 0 0.081894058627025895 -0.12584863130967919 0 0.081894058627025895 -0.12584863130967919 0 0.065576399090336079 -0.13067912082877309 0 0.057907204523981459 -0.13951585418161591 0 0.081894058627025895 -0.12584863130967919 0 0.057907204523981459 -0.13951585418161591 0 0.069316279952888193 -0.14186668388360371 0 0.081894058627025895 -0.12584863130967919 0 0.057907204523981459 -0.13951585418161591 0 0.081894058627025895 -0.12584863130967919 0 0.068207364780656948 -0.12563827965844471 0 0.065576399090336079 -0.13067912082877309 0 0.069316279952888193 -0.14186668388360371 0 0.079765110473415279 -0.13788087003968491 0 0.081894058627025895 -0.12584863130967919 0 0.068207364780656948 -0.12563827965844471 0 0.065576399090336079 -0.13067912082877309 0 0.054296968429680029 -0.13171371816535249 0 0.054296968429680029 -0.13171371816535249 0 0.057907204523981459 -0.13951585418161591 0 0.034849001543539322 -0.1503583031021323 0 0.054296968429680029 -0.13171371816535249 0 0.045553716665441668 -0.12681104972785159 0 0.052448498866582129 -0.1166826243517366 0 0.065576399090336079 -0.13067912082877309 0 0.054296968429680029 -0.13171371816535249 0 0.057907204523981459 -0.13951585418161591 0 0.069316279952888193 -0.14186668388360371 0 0.057907204523981459 -0.13951585418161591 0 0.05757515479497001 -0.1486962131740798 0 0.06522271263887458 -0.15305574504012881 0 0.05757515479497001 -0.1486962131740798 0 0.052111829065281459 -0.15882829201818821 0 0.046808539919221563 -0.15014413002933799 0 0.052111829065281459 -0.15882829201818821 0 0.043031393960321331 -0.1571354857308308 0 0.05757515479497001 -0.1486962131740798 0 0.046808539919221563 -0.15014413002933799 0 0.052111829065281459 -0.15882829201818821 0 0.057907204523981459 -0.13951585418161591 0 0.05757515479497001 -0.1486962131740798 0 0.046808539919221563 -0.15014413002933799 0 0.057907204523981459 -0.13951585418161591 0 0.046808539919221563 -0.15014413002933799 0 0.033920350420936912 -0.1531830770535528 0 0.057907204523981459 -0.13951585418161591 0 0.034849001543539322 -0.1503583031021323 0 0.033920350420936912 -0.1531830770535528 0 0.054296968429680029 -0.13171371816535249 0 0.034849001543539322 -0.1503583031021323 0 0.038558521200612962 -0.14006542407622449 0 0.054296968429680029 -0.13171371816535249 0 0.034849001543539322 -0.1503583031021323 0 0.057907204523981459 -0.13951585418161591 0 0.033920350420936912 -0.1531830770535528 0 0.046808539919221563 -0.15014413002933799 0 0.040219483271594643 -0.15466785876887121 0 0.033920350420936912 -0.1531830770535528 0 0.046808539919221563 -0.15014413002933799 0 0.040219483271594643 -0.15466785876887121 0 0.043031393960321331 -0.1571354857308308 0 0.040219483271594643 -0.15466785876887121 0 0.033920350420936912 -0.1531830770535528 0 0.037117648785898759 -0.15820874226176301 0 0.034849001543539322 -0.1503583031021323 0 0.031672068294339203 -0.14528428076340441 0 0.030051573782975471 -0.15027594372919439 0 0.034849001543539322 -0.1503583031021323 0 0.033920350420936912 -0.1531830770535528 0 0.030051573782975471 -0.15027594372919439 0 0.034849001543539322 -0.1503583031021323 0 0.031672068294339203 -0.14528428076340441 0 0.038558521200612962 -0.14006542407622449 0 0.031672068294339203 -0.14528428076340441 0 0.038558521200612962 -0.14006542407622449 0 0.030566093298411881 -0.13865773310914861 0 0.054296968429680029 -0.13171371816535249 0 0.038558521200612962 -0.14006542407622449 0 0.040644455285911409 -0.1338393175667463 0 0.038558521200612962 -0.14006542407622449 0 0.040644455285911409 -0.1338393175667463 0 0.030566093298411881 -0.13865773310914861 0 0.034824944079593127 -0.12500853882757099 0 0.040644455285911409 -0.1338393175667463 0 0.030566093298411881 -0.13865773310914861 0 0.034824944079593127 -0.12500853882757099 0 0.045553716665441668 -0.12681104972785159 0 0.040644455285911409 -0.1338393175667463 0 0.054296968429680029 -0.13171371816535249 0 0.045553716665441668 -0.12681104972785159 0 0.040644455285911409 -0.1338393175667463 0 0.072477207369929117 -0.17473224276400179 0 0.051449240160577621 -0.1762857105508405 0 0.056257937900538298 -0.19577788601322099 0 0.066040058368007956 -0.18964665730407451 0 0.051449240160577621 -0.1762857105508405 0 0.063878974636528515 -0.16401540189567099 0 0.051449240160577621 -0.1762857105508405 0 0.052111829065281459 -0.15882829201818821 0 0.051449240160577621 -0.1762857105508405 0 0.052111829065281459 -0.15882829201818821 0 0.040502396519655252 -0.1663673850483231 0 0.063878974636528515 -0.16401540189567099 0 0.06522271263887458 -0.15305574504012881 0 0.052111829065281459 -0.15882829201818821 0 0.043031393960321331 -0.1571354857308308 0 0.037117648785898759 -0.15820874226176301 0 0.040502396519655252 -0.1663673850483231 0 0.052111829065281459 -0.15882829201818821 0 0.043031393960321331 -0.1571354857308308 0 0.040502396519655252 -0.1663673850483231 0 0.040219483271594643 -0.15466785876887121 0 0.043031393960321331 -0.1571354857308308 0 0.037117648785898759 -0.15820874226176301 0 0.033920350420936912 -0.1531830770535528 0 0.033509818979212957 -0.15868168045615499 0 0.027465449436243041 -0.1628752445715565 0 0.037117648785898759 -0.15820874226176301 0 0.034071859908748191 -0.1623715567021686 0 0.040502396519655252 -0.1663673850483231 0 0.033920350420936912 -0.1531830770535528 0 0.037117648785898759 -0.15820874226176301 0 0.033509818979212957 -0.15868168045615499 0 0.037117648785898759 -0.15820874226176301 0 0.033509818979212957 -0.15868168045615499 0 0.034071859908748191 -0.1623715567021686 0 0.033509818979212957 -0.15868168045615499 0 0.034071859908748191 -0.1623715567021686 0 0.027465449436243041 -0.1628752445715565 0 0.031586668938662611 -0.1691709391612749 0 0.040502396519655252 -0.1663673850483231 0 0.030421272951226121 -0.1778391783376792 0 0.034071859908748191 -0.1623715567021686 0 0.031586668938662611 -0.1691709391612749 0 0.040502396519655252 -0.1663673850483231 0 0.051449240160577621 -0.1762857105508405 0 0.040502396519655252 -0.1663673850483231 0 0.030421272951226121 -0.1778391783376792 0 0.041440672425083092 -0.19607701236864419 0 0.051449240160577621 -0.1762857105508405 0 0.030421272951226121 -0.1778391783376792 0 0.051449240160577621 -0.1762857105508405 0 0.030421272951226121 -0.1778391783376792 0 0.02540307025583758 -0.19229280057405279 0 0.015764016274472759 -0.1812646672695073 0 0.030421272951226121 -0.1778391783376792 0 0.031586668938662611 -0.1691709391612749 0 0.030421272951226121 -0.1778391783376792 0 0.021575687727073561 -0.1734893605992324 0 0.015764016274472759 -0.1812646672695073 0 0.021575687727073561 -0.1734893605992324 0 0.012676990919703311 -0.16924925594887871 0 0.015764016274472759 -0.1812646672695073 0 0.030421272951226121 -0.1778391783376792 0 0.021575687727073561 -0.1734893605992324 0 0.033920350420936912 -0.1531830770535528 0 0.009933496317892726 -0.16685029992549011 0 0.02294500892830088 -0.1542832107784407 0 0.033920350420936912 -0.1531830770535528 0 0.027465449436243041 -0.1628752445715565 0 0.009933496317892726 -0.16685029992549011 0 0.019596439448784399 -0.16744493330375371 0 0.027465449436243041 -0.1628752445715565 0 0.009933496317892726 -0.16685029992549011 0 0.033920350420936912 -0.1531830770535528 0 0.009933496317892726 -0.16685029992549011 0 0.021575687727073561 -0.1734893605992324 0 0.019596439448784399 -0.16744493330375371 0 0.012676990919703311 -0.16924925594887871 0 0.021575687727073561 -0.1734893605992324 0 0.019596439448784399 -0.16744493330375371 0 0.025540403417393751 -0.1677775419388785 0 0.031586668938662611 -0.1691709391612749 0 0.021575687727073561 -0.1734893605992324 0 0.025540403417393751 -0.1677775419388785 0 0.019596439448784399 -0.16744493330375371 0 0.025540403417393751 -0.1677775419388785 0 0.027465449436243041 -0.1628752445715565 0 0.034071859908748191 -0.1623715567021686 0 0.031586668938662611 -0.1691709391612749 0 0.027465449436243041 -0.1628752445715565 0 0.031586668938662611 -0.1691709391612749 0 0.025540403417393751 -0.1677775419388785 0 0.027465449436243041 -0.1628752445715565 0 0.009933496317892726 -0.16685029992549011 0 0.01648447247354291 -0.15404273338364399 0 0.02294500892830088 -0.1542832107784407 0 0.009933496317892726 -0.16685029992549011 0 0.01648447247354291 -0.15404273338364399 0 0.0068311679390763679 -0.1533437069849535 0 0.019596439448784399 -0.16744493330375371 0 0.009933496317892726 -0.16685029992549011 0 0.012676990919703311 -0.16924925594887871 0 0.009933496317892726 -0.16685029992549011 0 0.012676990919703311 -0.16924925594887871 0 0.0034571977838801569 -0.17702496179755631 0 0.009933496317892726 -0.16685029992549011 0 0.012676990919703311 -0.16924925594887871 0 -0.0085976242789068957 -0.177408956520272 0 0.009933496317892726 -0.16685029992549011 0 -0.0085976242789068957 -0.177408956520272 0 0.009933496317892726 -0.16685029992549011 0 0.0034571977838801569 -0.17702496179755631 0 0.015764016274472759 -0.1812646672695073 0 0.012676990919703311 -0.16924925594887871 0 0.0034571977838801569 -0.17702496179755631 0 -0.003739977245034012 -0.19168309442994089 0 0.010514116253606281 -0.1925853606064957 0 0.0034571977838801569 -0.17702496179755631 0 0.010514116253606281 -0.1925853606064957 0 0.015764016274472759 -0.1812646672695073 0 0.0034571977838801569 -0.17702496179755631 0 0.02166725362828328 -0.1398342401410575 0 0.019282665512654749 -0.1297026577714144 0 0.01241268948209219 -0.14437852502616319 0 0.034824944079593127 -0.12500853882757099 0 0.019282665512654749 -0.1297026577714144 0 0.030566093298411881 -0.13865773310914861 0 0.02166725362828328 -0.1398342401410575 0 0.019282665512654749 -0.1297026577714144 0 0.030566093298411881 -0.13865773310914861 0 0.031672068294339203 -0.14528428076340441 0 0.030566093298411881 -0.13865773310914861 0 0.024335151646156381 -0.14706399980032239 0 0.02166725362828328 -0.1398342401410575 0 0.030566093298411881 -0.13865773310914861 0 0.024335151646156381 -0.14706399980032239 0 0.031672068294339203 -0.14528428076340441 0 0.024335151646156381 -0.14706399980032239 0 0.030051573782975471 -0.15027594372919439 0 0.033920350420936912 -0.1531830770535528 0 0.030051573782975471 -0.15027594372919439 0 0.02294500892830088 -0.1542832107784407 0 0.024335151646156381 -0.14706399980032239 0 0.030051573782975471 -0.15027594372919439 0 0.02294500892830088 -0.1542832107784407 0 0.024335151646156381 -0.14706399980032239 0 0.01648447247354291 -0.15404273338364399 0 0.01241268948209219 -0.14437852502616319 0 0.024335151646156381 -0.14706399980032239 0 0.01648447247354291 -0.15404273338364399 0 0.02294500892830088 -0.1542832107784407 0 0.02166725362828328 -0.1398342401410575 0 0.024335151646156381 -0.14706399980032239 0 0.01241268948209219 -0.14437852502616319 0 -0.011505986517222349 -0.14810326960451681 0 0.01241268948209219 -0.14437852502616319 0 0.0068311679390763679 -0.1533437069849535 0 -0.011505986517222349 -0.14810326960451681 0 0.009933496317892726 -0.16685029992549011 0 0.0068311679390763679 -0.1533437069849535 0 -0.011505986517222349 -0.14810326960451681 0 0.01241268948209219 -0.14437852502616319 0 0.0027021066240326768 -0.1317064378292063 0 0.01648447247354291 -0.15404273338364399 0 0.01241268948209219 -0.14437852502616319 0 0.0068311679390763679 -0.1533437069849535 0 0.019282665512654749 -0.1297026577714144 0 0.01241268948209219 -0.14437852502616319 0 0.0027021066240326768 -0.1317064378292063 0 0.019282665512654749 -0.1297026577714144 0 0.0027021066240326768 -0.1317064378292063 0 0.005085065621477718 -0.1151057880332567 0 0.019282665512654749 -0.1297026577714144 0 0.005085065621477718 -0.1151057880332567 0 0.024129304522527751 -0.1089818526354679 0 0.034824944079593127 -0.12500853882757099 0 0.019282665512654749 -0.1297026577714144 0 0.024129304522527751 -0.1089818526354679 0 0.024129304522527751 -0.1089818526354679 0 0.01380815825635252 -0.094132232187142617 0 0.031293966725895003 -0.08518965294817829 0 -0.00044729776891663488 -0.1011528385718463 0 0.005085065621477718 -0.1151057880332567 0 0.01380815825635252 -0.094132232187142617 0 0.005085065621477718 -0.1151057880332567 0 0.024129304522527751 -0.1089818526354679 0 0.01380815825635252 -0.094132232187142617 0 0.01380815825635252 -0.094132232187142617 0 0.0042106568376920582 -0.081118225430045127 0 0.020039989671696231 -0.071989185162356889 0 -0.00044729776891663488 -0.1011528385718463 0 0.01380815825635252 -0.094132232187142617 0 0.0042106568376920582 -0.081118225430045127 0 0.0042106568376920582 -0.081118225430045127 0 0.0052181775422467033 -0.064346337314722044 0 0.020039989671696231 -0.071989185162356889 0 -0.0043762627118289626 -0.071729097412358583 0 0.0042106568376920582 -0.081118225430045127 0 0.0052181775422467033 -0.064346337314722044 0 0.0052181775422467033 -0.064346337314722044 0 0.020039989671696231 -0.071989185162356889 0 0.0052181775422467033 -0.064346337314722044 0 0.020039989671696231 -0.071989185162356889 0 0.017880224012190679 -0.058506375123621113 0 0.020039989671696231 -0.071989185162356889 0 0.017880224012190679 -0.058506375123621113 0 0.035073137211611732 -0.060365082031122411 0 0.020039989671696231 -0.071989185162356889 0 0.031293966725895003 -0.08518965294817829 0 0.035073137211611732 -0.060365082031122411 0 0.01380815825635252 -0.094132232187142617 0 0.020039989671696231 -0.071989185162356889 0 0.031293966725895003 -0.08518965294817829 0 0.031293966725895003 -0.08518965294817829 0 0.050629459546369923 -0.074776417317023003 0 0.042727201812981508 -0.099892478072297022 0 0.050629459546369923 -0.074776417317023003 0 0.042727201812981508 -0.099892478072297022 0 0.031293966725895003 -0.08518965294817829 0 0.050629459546369923 -0.074776417317023003 0 0.035073137211611732 -0.060365082031122411 0 0.050629459546369923 -0.074776417317023003 0 0.058531717279758283 -0.049660356561749108 0 0.072219385832792832 -0.066659644627356851 0 0.050629459546369923 -0.074776417317023003 0 0.042727201812981508 -0.099892478072297022 0 0.069701838591585213 -0.089386546866783212 0 0.059655618646742382 -0.10475769562984739 0 0.052448498866582129 -0.1166826243517366 0 0.042727201812981508 -0.099892478072297022 0 0.059655618646742382 -0.10475769562984739 0 0.042727201812981508 -0.099892478072297022 0 0.069701838591585213 -0.089386546866783212 0 0.054296968429680029 -0.13171371816535249 0 0.052448498866582129 -0.1166826243517366 0 0.073744935315820714 -0.1130691332285727 0 0.059655618646742382 -0.10475769562984739 0 0.052448498866582129 -0.1166826243517366 0 0.073744935315820714 -0.1130691332285727 0 0.034824944079593127 -0.12500853882757099 0 0.045553716665441668 -0.12681104972785159 0 0.052448498866582129 -0.1166826243517366 0 0.034824944079593127 -0.12500853882757099 0 0.052448498866582129 -0.1166826243517366 0 0.042727201812981508 -0.099892478072297022 0 0.034824944079593127 -0.12500853882757099 0 0.024129304522527751 -0.1089818526354679 0 0.042727201812981508 -0.099892478072297022 0 0.034824944079593127 -0.12500853882757099 0 0.042727201812981508 -0.099892478072297022 0 0.024129304522527751 -0.1089818526354679 0 0.031293966725895003 -0.08518965294817829 0 0.042727201812981508 -0.099892478072297022 0 0.034885408484197772 0.0062912350017927032 0 0.01265631079038235 -0.01012693536007268 0 0.042517259973231587 -0.011683923625132649 0 -0.00118246574067416 -0.01324232368796026 0 0.0012074066645448821 -0.00065723147797176382 0 0.01265631079038235 -0.01012693536007268 0 0.01265631079038235 -0.01012693536007268 0 0.02406773205363014 -0.026959444655171291 0 0.0015263381015913891 -0.033415212413580753 0 0.01265631079038235 -0.01012693536007268 0 0.0015263381015913891 -0.033415212413580753 0 -0.00118246574067416 -0.01324232368796026 0 0.01265631079038235 -0.01012693536007268 0 0.0015263381015913891 -0.033415212413580753 0 0.01265631079038235 -0.01012693536007268 0 0.02406773205363014 -0.026959444655171291 0 0.042517259973231587 -0.011683923625132649 0 0.02406773205363014 -0.026959444655171291 0 0.021771409900077709 -0.044354063799483319 0 0.04186734150286768 -0.035217088077587062 0 0.02406773205363014 -0.026959444655171291 0 0.021771409900077709 -0.044354063799483319 0 0.0015263381015913891 -0.033415212413580753 0 0.021771409900077709 -0.044354063799483319 0 0.0015263381015913891 -0.033415212413580753 0 0.007298405735321048 -0.051477207310420908 0 -0.0096036345872028556 -0.056703489467087059 0 0.0052181775422467033 -0.064346337314722044 0 0.007298405735321048 -0.051477207310420908 0 0.0052181775422467033 -0.064346337314722044 0 0.007298405735321048 -0.051477207310420908 0 0.017880224012190679 -0.058506375123621113 0 0.021771409900077709 -0.044354063799483319 0 0.017880224012190679 -0.058506375123621113 0 0.035073137211611732 -0.060365082031122411 0 0.021771409900077709 -0.044354063799483319 0 0.007298405735321048 -0.051477207310420908 0 0.017880224012190679 -0.058506375123621113 0 0.035073137211611732 -0.060365082031122411 0 0.058531717279758283 -0.049660356561749108 0 0.04186734150286768 -0.035217088077587062 0 0.050629459546369923 -0.074776417317023003 0 0.058531717279758283 -0.049660356561749108 0 0.050629459546369923 -0.074776417317023003 0 0.035073137211611732 -0.060365082031122411 0 0.058531717279758283 -0.049660356561749108 0 0.058531717279758283 -0.049660356561749108 0 0.066433975013146629 -0.02454429580647528 0 0.058531717279758283 -0.049660356561749108 0 0.04186734150286768 -0.035217088077587062 0 0.066433975013146629 -0.02454429580647528 0 0.021771409900077709 -0.044354063799483319 0 0.035073137211611732 -0.060365082031122411 0 0.04186734150286768 -0.035217088077587062 0 0.02406773205363014 -0.026959444655171291 0 0.04186734150286768 -0.035217088077587062 0 0.042517259973231587 -0.011683923625132649 0 0.04186734150286768 -0.035217088077587062 0 0.042517259973231587 -0.011683923625132649 0 0.066433975013146629 -0.02454429580647528 0 0.052968053050369737 0.0090809173488315582 0 0.042517259973231587 -0.011683923625132649 0 0.067492943165135169 -0.0019794682467893379 0 0.042517259973231587 -0.011683923625132649 0 0.067492943165135169 -0.0019794682467893379 0 0.066433975013146629 -0.02454429580647528 0 0.087040675587819916 -0.0096101539263870796 0 0.066433975013146629 -0.02454429580647528 0 0.098032226742104309 -0.02831505409649597 0 0.083930998993742512 0.0059737405228527038 0 0.087040675587819916 -0.0096101539263870796 0 0.067492943165135169 -0.0019794682467893379 0 0.083930998993742512 0.0059737405228527038 0 0.098495163759696414 0.0029673617968291321 0 0.087040675587819916 -0.0096101539263870796 0 0.087040675587819916 -0.0096101539263870796 0 0.067492943165135169 -0.0019794682467893379 0 0.066433975013146629 -0.02454429580647528 0 0.066433975013146629 -0.02454429580647528 0 0.080663194565618018 -0.042742664855397232 0 0.098032226742104309 -0.02831505409649597 0 0.080663194565618018 -0.042742664855397232 0 0.099119978598511321 -0.045144617550746849 0 0.098032226742104309 -0.02831505409649597 0 0.058531717279758283 -0.049660356561749108 0 0.066433975013146629 -0.02454429580647528 0 0.080663194565618018 -0.042742664855397232 0 0.058531717279758283 -0.049660356561749108 0 0.080663194565618018 -0.042742664855397232 0 0.072219385832792832 -0.066659644627356851 0 0.080663194565618018 -0.042742664855397232 0 0.091985945990252393 -0.059557823171565508 0 0.072219385832792832 -0.066659644627356851 0 0.080663194565618018 -0.042742664855397232 0 0.091985945990252393 -0.059557823171565508 0 0.099119978598511321 -0.045144617550746849 0 0.091985945990252393 -0.059557823171565508 0 0.109385226414503 -0.056941989317685793 0 0.099119978598511321 -0.045144617550746849 0 0.109385226414503 -0.056941989317685793 0 0.1174221699598199 -0.069046986946925279 0 0.12664898879935529 -0.055605769639440771 0 0.109385226414503 -0.056941989317685793 0 0.1155332992800789 -0.038165556312589707 0 0.12664898879935529 -0.055605769639440771 0 0.1155332992800789 -0.038165556312589707 0 0.12954193793015309 -0.041748568408345607 0 0.12664898879935529 -0.055605769639440771 0 0.1155332992800789 -0.038165556312589707 0 0.1294320674019063 -0.023146095115484211 0 0.12954193793015309 -0.041748568408345607 0 0.109385226414503 -0.056941989317685793 0 0.1155332992800789 -0.038165556312589707 0 0.099119978598511321 -0.045144617550746849 0 0.1155332992800789 -0.038165556312589707 0 0.099119978598511321 -0.045144617550746849 0 0.098032226742104309 -0.02831505409649597 0 0.1155332992800789 -0.038165556312589707 0 0.098032226742104309 -0.02831505409649597 0 0.1112777463759113 -0.012222875866518469 0 0.087040675587819916 -0.0096101539263870796 0 0.098032226742104309 -0.02831505409649597 0 0.1112777463759113 -0.012222875866518469 0 0.1155332992800789 -0.038165556312589707 0 0.1112777463759113 -0.012222875866518469 0 0.1294320674019063 -0.023146095115484211 0 0.1158546052028349 0.0064685721448778594 0 0.13464870039648349 0.00080453217212592717 0 0.1112777463759113 -0.012222875866518469 0 0.098495163759696414 0.0029673617968291321 0 0.087040675587819916 -0.0096101539263870796 0 0.1112777463759113 -0.012222875866518469 0 0.1158546052028349 0.0064685721448778594 0 0.098495163759696414 0.0029673617968291321 0 0.1112777463759113 -0.012222875866518469 0 0.093192902201961414 -0.094424548291792879 0 0.088899626305776192 -0.1113374325741409 0 0.073744935315820714 -0.1130691332285727 0 0.093192902201961414 -0.094424548291792879 0 0.073744935315820714 -0.1130691332285727 0 0.069701838591585213 -0.089386546866783212 0 0.093192902201961414 -0.094424548291792879 0 0.073744935315820714 -0.1130691332285727 0 0.081894058627025895 -0.12584863130967919 0 0.088899626305776192 -0.1113374325741409 0 0.09397493983509804 -0.11322330148444169 0 0.081894058627025895 -0.12584863130967919 0 0.079920122843727764 -0.11786127252462281 0 0.075141871126288284 -0.1211898929860986 0 0.081894058627025895 -0.12584863130967919 0 0.088899626305776192 -0.1113374325741409 0 0.079920122843727764 -0.11786127252462281 0 0.088899626305776192 -0.1113374325741409 0 0.079920122843727764 -0.11786127252462281 0 0.073744935315820714 -0.1130691332285727 0 0.068207364780656948 -0.12563827965844471 0 0.054296968429680029 -0.13171371816535249 0 0.073744935315820714 -0.1130691332285727 0 0.054296968429680029 -0.13171371816535249 0 0.073744935315820714 -0.1130691332285727 0 0.068207364780656948 -0.12563827965844471 0 0.073744935315820714 -0.1130691332285727 0 0.075141871126288284 -0.1211898929860986 0 0.079920122843727764 -0.11786127252462281 0 0.073744935315820714 -0.1130691332285727 0 0.075141871126288284 -0.1211898929860986 0 0.081894058627025895 -0.12584863130967919 0 0.068207364780656948 -0.12563827965844471 0 0.075141871126288284 -0.1211898929860986 0 0.059655618646742382 -0.10475769562984739 0 0.073744935315820714 -0.1130691332285727 0 0.069701838591585213 -0.089386546866783212 0 0.050629459546369923 -0.074776417317023003 0 0.069701838591585213 -0.089386546866783212 0 0.072219385832792832 -0.066659644627356851 0 0.069701838591585213 -0.089386546866783212 0 0.072219385832792832 -0.066659644627356851 0 0.089711563165187497 -0.078251462936863553 0 0.091985945990252393 -0.059557823171565508 0 0.072219385832792832 -0.066659644627356851 0 0.089711563165187497 -0.078251462936863553 0 0.093192902201961414 -0.094424548291792879 0 0.069701838591585213 -0.089386546866783212 0 0.089711563165187497 -0.078251462936863553 0 0.093192902201961414 -0.094424548291792879 0 0.089711563165187497 -0.078251462936863553 0 0.1048667032735431 -0.089595599910983495 0 0.089711563165187497 -0.078251462936863553 0 0.1048667032735431 -0.089595599910983495 0 0.1056935618466131 -0.072691272791708894 0 0.1048667032735431 -0.089595599910983495 0 0.1056935618466131 -0.072691272791708894 0 0.11564058922802831 -0.08068930143821873 0 0.091985945990252393 -0.059557823171565508 0 0.089711563165187497 -0.078251462936863553 0 0.1056935618466131 -0.072691272791708894 0 0.091985945990252393 -0.059557823171565508 0 0.109385226414503 -0.056941989317685793 0 0.1056935618466131 -0.072691272791708894 0 0.1174221699598199 -0.069046986946925279 0 0.12840026197867099 -0.078951386265116219 0 0.12664898879935529 -0.055605769639440771 0 0.109385226414503 -0.056941989317685793 0 0.1056935618466131 -0.072691272791708894 0 0.1174221699598199 -0.069046986946925279 0 0.1056935618466131 -0.072691272791708894 0 0.1174221699598199 -0.069046986946925279 0 0.11564058922802831 -0.08068930143821873 0 0.1174221699598199 -0.069046986946925279 0 0.11564058922802831 -0.08068930143821873 0 0.12840026197867099 -0.078951386265116219 0 0.1048667032735431 -0.089595599910983495 0 0.11564058922802831 -0.08068930143821873 0 0.1191358060176364 -0.092450830711447801 0 0.1191358060176364 -0.092450830711447801 0 0.12840026197867099 -0.078951386265116219 0 0.11564058922802831 -0.08068930143821873 0 0.1191358060176364 -0.092450830711447801 0 0.12840026197867099 -0.078951386265116219 0 0.1058809127300703 -0.11218140843774239 0 0.12023297736745781 -0.1110263554770618 0 0.12986776683311119 -0.098514185565799078 0 0.1058809127300703 -0.11218140843774239 0 0.12986776683311119 -0.098514185565799078 0 0.1048667032735431 -0.089595599910983495 0 0.1191358060176364 -0.092450830711447801 0 0.10987135005660249 -0.1059502751577799 0 0.10987135005660249 -0.1059502751577799 0 0.1058809127300703 -0.11218140843774239 0 0.12986776683311119 -0.098514185565799078 0 0.1191358060176364 -0.092450830711447801 0 0.10987135005660249 -0.1059502751577799 0 0.12986776683311119 -0.098514185565799078 0 0.1191358060176364 -0.092450830711447801 0 0.10987135005660249 -0.1059502751577799 0 0.093192902201961414 -0.094424548291792879 0 0.088899626305776192 -0.1113374325741409 0 0.099225161677519755 -0.1035257336162041 0 0.1048667032735431 -0.089595599910983495 0 0.10987135005660249 -0.1059502751577799 0 0.099225161677519755 -0.1035257336162041 0 0.10987135005660249 -0.1059502751577799 0 0.099225161677519755 -0.1035257336162041 0 0.1058809127300703 -0.11218140843774239 0 0.088899626305776192 -0.1113374325741409 0 0.099225161677519755 -0.1035257336162041 0 0.09397493983509804 -0.11322330148444169 0 0.093192902201961414 -0.094424548291792879 0 0.1048667032735431 -0.089595599910983495 0 0.099225161677519755 -0.1035257336162041 0 0.081894058627025895 -0.12584863130967919 0 0.1058809127300703 -0.11218140843774239 0 0.099525338641528904 -0.12611341339503321 0 0.081894058627025895 -0.12584863130967919 0 0.1058809127300703 -0.11218140843774239 0 0.081894058627025895 -0.12584863130967919 0 0.09397493983509804 -0.11322330148444169 0 0.1058809127300703 -0.11218140843774239 0 0.099225161677519755 -0.1035257336162041 0 0.09397493983509804 -0.11322330148444169 0 0.1058809127300703 -0.11218140843774239 0 0.099525338641528904 -0.12611341339503321 0 0.1058809127300703 -0.11218140843774239 0 0.1121708616464093 -0.1216807098986791 0 0.1058809127300703 -0.11218140843774239 0 0.1121708616464093 -0.1216807098986791 0 0.12023297736745781 -0.1110263554770618 0 0.11997683785091839 -0.1276371159963853 0 0.121067612134044 -0.1214532534018402 0 0.13188977167139071 -0.12546883223523481 0 0.12023297736745781 -0.1110263554770618 0 0.121067612134044 -0.1214532534018402 0 0.13188977167139071 -0.12546883223523481 0 0.11997683785091839 -0.1276371159963853 0 0.1121708616464093 -0.1216807098986791 0 0.121067612134044 -0.1214532534018402 0 0.1121708616464093 -0.1216807098986791 0 0.12023297736745781 -0.1110263554770618 0 0.121067612134044 -0.1214532534018402 0 0.12023297736745781 -0.1110263554770618 0 0.12986776683311119 -0.098514185565799078 0 0.13188977167139071 -0.12546883223523481 0 0.12986776683311119 -0.098514185565799078 0 0.13188977167139071 -0.12546883223523481 0 0.14925441928633251 -0.10969288085116551 0 0.13995942417209239 -0.1034127274713456 0 0.13188977167139071 -0.12546883223523481 0 0.14724036225017881 -0.1245170930860646 0 0.14925441928633251 -0.10969288085116551 0 0.13188977167139071 -0.12546883223523481 0 0.14925441928633251 -0.10969288085116551 0 0.15485465026004211 -0.11932571079310079 0 0.15999890680388329 -0.1096406796162286 0 0.14724036225017881 -0.1245170930860646 0 0.15485465026004211 -0.11932571079310079 0 0.15557261582888751 -0.13003178131142151 0 0.14724036225017881 -0.1245170930860646 0 0.14925441928633251 -0.10969288085116551 0 0.15485465026004211 -0.11932571079310079 0 0.14925441928633251 -0.10969288085116551 0 0.14348993397904131 -0.092765062884646393 0 0.1620153957752187 -0.097165399419701551 0 0.14348993397904131 -0.092765062884646393 0 0.1620153957752187 -0.097165399419701551 0 0.14925441928633251 -0.10969288085116551 0 0.13995942417209239 -0.1034127274713456 0 0.14348993397904131 -0.092765062884646393 0 0.13995942417209239 -0.1034127274713456 0 0.12986776683311119 -0.098514185565799078 0 0.13188977167139071 -0.12546883223523481 0 0.13995942417209239 -0.1034127274713456 0 0.12986776683311119 -0.098514185565799078 0 0.14348993397904131 -0.092765062884646393 0 0.12986776683311119 -0.098514185565799078 0 0.12840026197867099 -0.078951386265116219 0 0.1428482005174804 -0.076716741777837147 0 0.1191358060176364 -0.092450830711447801 0 0.12986776683311119 -0.098514185565799078 0 0.12840026197867099 -0.078951386265116219 0 0.12986776683311119 -0.098514185565799078 0 0.12840026197867099 -0.078951386265116219 0 0.12840026197867099 -0.078951386265116219 0 0.12664898879935529 -0.055605769639440771 0 0.12840026197867099 -0.078951386265116219 0 0.12664898879935529 -0.055605769639440771 0 0.14464694777039611 -0.055277979731059648 0 0.12840026197867099 -0.078951386265116219 0 0.1428482005174804 -0.076716741777837147 0 0.14464694777039611 -0.055277979731059648 0 0.12840026197867099 -0.078951386265116219 0 0.14464694777039611 -0.055277979731059648 0 0.1428482005174804 -0.076716741777837147 0 0.15680899227989839 -0.06637062400294011 0 0.14464694777039611 -0.055277979731059648 0 0.1428482005174804 -0.076716741777837147 0 0.15451703372532541 -0.084469533324270707 0 0.15680899227989839 -0.06637062400294011 0 0.12986776683311119 -0.098514185565799078 0 0.15451703372532541 -0.084469533324270707 0 0.12986776683311119 -0.098514185565799078 0 0.14348993397904131 -0.092765062884646393 0 0.15451703372532541 -0.084469533324270707 0 0.14348993397904131 -0.092765062884646393 0 0.15451703372532541 -0.084469533324270707 0 0.1620153957752187 -0.097165399419701551 0 0.12986776683311119 -0.098514185565799078 0 0.1428482005174804 -0.076716741777837147 0 0.15451703372532541 -0.084469533324270707 0 0.15451703372532541 -0.084469533324270707 0 0.1674193516126988 -0.088794767656503876 0 0.1620153957752187 -0.097165399419701551 0 0.15451703372532541 -0.084469533324270707 0 0.1674193516126988 -0.088794767656503876 0 0.16389165652408541 -0.076485311925560115 0 0.1674193516126988 -0.088794767656503876 0 0.16389165652408541 -0.076485311925560115 0 0.17613181446746839 -0.084287857658230353 0 0.15451703372532541 -0.084469533324270707 0 0.15680899227989839 -0.06637062400294011 0 0.16389165652408541 -0.076485311925560115 0 0.16389165652408541 -0.076485311925560115 0 0.1717227713635387 -0.067009979361705274 0 0.17613181446746839 -0.084287857658230353 0 0.15680899227989839 -0.06637062400294011 0 0.16389165652408541 -0.076485311925560115 0 0.1717227713635387 -0.067009979361705274 0 0.15680899227989839 -0.06637062400294011 0 0.1717227713635387 -0.067009979361705274 0 0.1652446184022294 -0.054500080927008407 0 0.1717227713635387 -0.067009979361705274 0 0.17613181446746839 -0.084287857658230353 0 0.1717227713635387 -0.067009979361705274 0 0.18346211879182289 -0.064955309332027283 0 0.18137547142311691 -0.085525622921553163 0 0.18346211879182289 -0.064955309332027283 0 0.18137547142311691 -0.085525622921553163 0 0.1952329782378138 -0.068464889048657496 0 0.1717227713635387 -0.067009979361705274 0 0.18137547142311691 -0.085525622921553163 0 0.1717227713635387 -0.067009979361705274 0 0.18346211879182289 -0.064955309332027283 0 0.1746283364613696 -0.057560297553190053 0 0.18137547142311691 -0.085525622921553163 0 0.17613181446746839 -0.084287857658230353 0 0.18054085757139629 -0.1015657359547559 0 0.17613181446746839 -0.084287857658230353 0 0.18054085757139629 -0.1015657359547559 0 0.1674193516126988 -0.088794767656503876 0 0.17613181446746839 -0.084287857658230353 0 0.18054085757139629 -0.1015657359547559 0 0.1717227713635387 -0.067009979361705274 0 0.18137547142311691 -0.085525622921553163 0 0.17613181446746839 -0.084287857658230353 0 0.18137547142311691 -0.085525622921553163 0 0.19100769245097829 -0.1040519139747048 0 0.18137547142311691 -0.085525622921553163 0 0.18054085757139629 -0.1015657359547559 0 0.19100769245097829 -0.1040519139747048 0 0.18054085757139629 -0.1015657359547559 0 0.1749190978293893 -0.1165979942053425 0 0.16884250162088479 -0.1080310140379921 0 0.18054085757139629 -0.1015657359547559 0 0.19100769245097829 -0.1040519139747048 0 0.18054085757139629 -0.1015657359547559 0 0.1862357176231304 -0.1238823921021804 0 0.1749190978293893 -0.1165979942053425 0 0.18054085757139629 -0.1015657359547559 0 0.1862357176231304 -0.1238823921021804 0 0.19100769245097829 -0.1040519139747048 0 0.18054085757139629 -0.1015657359547559 0 0.1862357176231304 -0.1238823921021804 0 0.1862357176231304 -0.1238823921021804 0 0.1749190978293893 -0.1165979942053425 0 0.17324983187337631 -0.13165498831909611 0 0.1749190978293893 -0.1165979942053425 0 0.16471491079178111 -0.1205264202314431 0 0.16884250162088479 -0.1080310140379921 0 0.16471491079178111 -0.1205264202314431 0 0.15999890680388329 -0.1096406796162286 0 0.16884250162088479 -0.1080310140379921 0 0.1749190978293893 -0.1165979942053425 0 0.16471491079178111 -0.1205264202314431 0 0.17324983187337631 -0.13165498831909611 0 0.15485465026004211 -0.11932571079310079 0 0.16471491079178111 -0.1205264202314431 0 0.15557261582888751 -0.13003178131142151 0 0.15485465026004211 -0.11932571079310079 0 0.16471491079178111 -0.1205264202314431 0 0.15999890680388329 -0.1096406796162286 0 0.18054085757139629 -0.1015657359547559 0 0.1620153957752187 -0.097165399419701551 0 0.1674193516126988 -0.088794767656503876 0 0.18054085757139629 -0.1015657359547559 0 0.1620153957752187 -0.097165399419701551 0 0.14925441928633251 -0.10969288085116551 0 0.15999890680388329 -0.1096406796162286 0 0.1620153957752187 -0.097165399419701551 0 0.15999890680388329 -0.1096406796162286 0 0.1620153957752187 -0.097165399419701551 0 0.16884250162088479 -0.1080310140379921 0 0.18054085757139629 -0.1015657359547559 0 0.1620153957752187 -0.097165399419701551 0 0.16884250162088479 -0.1080310140379921 0 0.13464870039648349 0.00080453217212592717 0 0.15480995508657039 -0.001084596553268768 0 0.14892696920713289 -0.018041582065753459 0 0.13464870039648349 0.00080453217212592717 0 0.1294320674019063 -0.023146095115484211 0 0.14892696920713289 -0.018041582065753459 0 0.13464870039648349 0.00080453217212592717 0 0.1112777463759113 -0.012222875866518469 0 0.1294320674019063 -0.023146095115484211 0 0.1294320674019063 -0.023146095115484211 0 0.14892696920713289 -0.018041582065753459 0 0.14270131340979469 -0.036531096068384838 0 0.14892696920713289 -0.018041582065753459 0 0.14270131340979469 -0.036531096068384838 0 0.16089363356212191 -0.031604573197003549 0 0.14270131340979469 -0.036531096068384838 0 0.14464694777039611 -0.055277979731059648 0 0.16089363356212191 -0.031604573197003549 0 0.14464694777039611 -0.055277979731059648 0 0.15561449558007559 -0.051164132387281437 0 0.16089363356212191 -0.031604573197003549 0 0.14464694777039611 -0.055277979731059648 0 0.16089363356212191 -0.031604573197003549 0 0.14270131340979469 -0.036531096068384838 0 0.12954193793015309 -0.041748568408345607 0 0.14464694777039611 -0.055277979731059648 0 0.1294320674019063 -0.023146095115484211 0 0.14270131340979469 -0.036531096068384838 0 0.12954193793015309 -0.041748568408345607 0 0.12954193793015309 -0.041748568408345607 0 0.12664898879935529 -0.055605769639440771 0 0.14464694777039611 -0.055277979731059648 0 0.15680899227989839 -0.06637062400294011 0 0.14464694777039611 -0.055277979731059648 0 0.15561449558007559 -0.051164132387281437 0 0.15680899227989839 -0.06637062400294011 0 0.15561449558007559 -0.051164132387281437 0 0.1652446184022294 -0.054500080927008407 0 0.15561449558007559 -0.051164132387281437 0 0.1652446184022294 -0.054500080927008407 0 0.1617942405007988 -0.043199732881276223 0 0.1652446184022294 -0.054500080927008407 0 0.1746283364613696 -0.057560297553190053 0 0.1617942405007988 -0.043199732881276223 0 0.1717227713635387 -0.067009979361705274 0 0.1652446184022294 -0.054500080927008407 0 0.1717227713635387 -0.067009979361705274 0 0.1652446184022294 -0.054500080927008407 0 0.1746283364613696 -0.057560297553190053 0 0.1746283364613696 -0.057560297553190053 0 0.1828119860636557 -0.050363577362968731 0 0.1617942405007988 -0.043199732881276223 0 0.18346211879182289 -0.064955309332027283 0 0.1746283364613696 -0.057560297553190053 0 0.1828119860636557 -0.050363577362968731 0 0.18346211879182289 -0.064955309332027283 0 0.1828119860636557 -0.050363577362968731 0 0.19188844298534441 -0.056659859735039647 0 0.1617942405007988 -0.043199732881276223 0 0.18853740735089011 -0.033706188378118708 0 0.1828119860636557 -0.050363577362968731 0 0.1617942405007988 -0.043199732881276223 0 0.18853740735089011 -0.033706188378118708 0 0.15561449558007559 -0.051164132387281437 0 0.16089363356212191 -0.031604573197003549 0 0.1617942405007988 -0.043199732881276223 0 0.16089363356212191 -0.031604573197003549 0 0.1617942405007988 -0.043199732881276223 0 0.18853740735089011 -0.033706188378118708 0 0.16089363356212191 -0.031604573197003549 0 0.17714031935384769 -0.0079311666629475405 0 0.14892696920713289 -0.018041582065753459 0 0.16089363356212191 -0.031604573197003549 0 0.17714031935384769 -0.0079311666629475405 0 0.16089363356212191 -0.031604573197003549 0 0.17714031935384769 -0.0079311666629475405 0 0.18853740735089011 -0.033706188378118708 0 0.1657030786406338 0.0084270166623369204 0 0.15480995508657039 -0.001084596553268768 0 0.17714031935384769 -0.0079311666629475405 0 0.15480995508657039 -0.001084596553268768 0 0.14892696920713289 -0.018041582065753459 0 0.17714031935384769 -0.0079311666629475405 0 0.21351355446813719 -0.0021103410187178909 0 0.2110126965438916 -0.012672932103663791 0 0.2228246624943325 -0.0092295053444410857 0 0.2110126965438916 -0.012672932103663791 0 0.21911622703360889 -0.015650702578479541 0 0.2228246624943325 -0.0092295053444410857 0 0.21351355446813719 -0.0021103410187178909 0 0.2110126965438916 -0.012672932103663791 0 0.19836939172364151 -0.01016904411482358 0 0.1998105265397013 0.00335350757378736 0 0.21351355446813719 -0.0021103410187178909 0 0.19836939172364151 -0.01016904411482358 0 0.1998105265397013 0.00335350757378736 0 0.17714031935384769 -0.0079311666629475405 0 0.19836939172364151 -0.01016904411482358 0 0.17714031935384769 -0.0079311666629475405 0 0.19836939172364151 -0.01016904411482358 0 0.18853740735089011 -0.033706188378118708 0 0.2110126965438916 -0.012672932103663791 0 0.19836939172364151 -0.01016904411482358 0 0.18853740735089011 -0.033706188378118708 0 0.21528057420098159 -0.024212643874961401 0 0.18853740735089011 -0.033706188378118708 0 0.2110126965438916 -0.012672932103663791 0 0.21528057420098159 -0.024212643874961401 0 0.18853740735089011 -0.033706188378118708 0 0.21528057420098159 -0.024212643874961401 0 0.20886364623554921 -0.031523512657201581 0 0.18853740735089011 -0.033706188378118708 0 0.2110126965438916 -0.012672932103663791 0 0.21528057420098159 -0.024212643874961401 0 0.21911622703360889 -0.015650702578479541 0 0.21528057420098159 -0.024212643874961401 0 0.2158000993154765 -0.027276596113623111 0 0.21360323626451261 -0.02858374534336202 0 0.21528057420098159 -0.024212643874961401 0 0.2158000993154765 -0.027276596113623111 0 0.21995729679401421 -0.029331280632926501 0 0.2158000993154765 -0.027276596113623111 0 0.21503400689837671 -0.030930810510401429 0 0.21995729679401421 -0.029331280632926501 0 0.2158000993154765 -0.027276596113623111 0 0.21503400689837671 -0.030930810510401429 0 0.21360323626451261 -0.02858374534336202 0 0.21528057420098159 -0.024212643874961401 0 0.21360323626451261 -0.02858374534336202 0 0.20886364623554921 -0.031523512657201581 0 0.21503400689837671 -0.030930810510401429 0 0.21360323626451261 -0.02858374534336202 0 0.20886364623554921 -0.031523512657201581 0 0.2128060919330283 -0.035124071741943173 0 0.2180191377477218 -0.035203133534298187 0 0.2167024847658664 -0.043974661413588162 0 0.21503400689837671 -0.030930810510401429 0 0.2128060919330283 -0.035124071741943173 0 0.20886364623554921 -0.031523512657201581 0 0.21503400689837671 -0.030930810510401429 0 0.2128060919330283 -0.035124071741943173 0 0.2180191377477218 -0.035203133534298187 0 0.21503400689837671 -0.030930810510401429 0 0.2180191377477218 -0.035203133534298187 0 0.21995729679401421 -0.029331280632926501 0 0.2167024847658664 -0.043974661413588162 0 0.20890374551960481 -0.040729144831228678 0 0.20897987019450001 -0.050060865146210963 0 0.2128060919330283 -0.035124071741943173 0 0.2167024847658664 -0.043974661413588162 0 0.20890374551960481 -0.040729144831228678 0 0.20890374551960481 -0.040729144831228678 0 0.19655169947710091 -0.043788383486002072 0 0.20897987019450001 -0.050060865146210963 0 0.2128060919330283 -0.035124071741943173 0 0.20890374551960481 -0.040729144831228678 0 0.20886364623554921 -0.031523512657201581 0 0.20890374551960481 -0.040729144831228678 0 0.20886364623554921 -0.031523512657201581 0 0.19655169947710091 -0.043788383486002072 0 0.1828119860636557 -0.050363577362968731 0 0.18853740735089011 -0.033706188378118708 0 0.19655169947710091 -0.043788383486002072 0 0.20886364623554921 -0.031523512657201581 0 0.18853740735089011 -0.033706188378118708 0 0.19655169947710091 -0.043788383486002072 0 0.19655169947710091 -0.043788383486002072 0 0.20138343235632811 -0.055727139445542639 0 0.20897987019450001 -0.050060865146210963 0 0.19655169947710091 -0.043788383486002072 0 0.19188844298534441 -0.056659859735039647 0 0.20138343235632811 -0.055727139445542639 0 0.1828119860636557 -0.050363577362968731 0 0.19655169947710091 -0.043788383486002072 0 0.19188844298534441 -0.056659859735039647 0 0.19188844298534441 -0.056659859735039647 0 0.20138343235632811 -0.055727139445542639 0 0.1952329782378138 -0.068464889048657496 0 0.20138343235632811 -0.055727139445542639 0 0.22670270369963491 -0.067064047377793826 0 0.20138343235632811 -0.055727139445542639 0 0.21577564808412511 -0.056666161138016313 0 0.22670270369963491 -0.067064047377793826 0 0.20138343235632811 -0.055727139445542639 0 0.20897987019450001 -0.050060865146210963 0 0.21577564808412511 -0.056666161138016313 0 0.2167024847658664 -0.043974661413588162 0 0.20897987019450001 -0.050060865146210963 0 0.21577564808412511 -0.056666161138016313 0 0.21577564808412511 -0.056666161138016313 0 0.23694359709532001 -0.061394592404840097 0 0.22670270369963491 -0.067064047377793826 0 0.21577564808412511 -0.056666161138016313 0 0.22648325856373289 -0.049317463857355977 0 0.23694359709532001 -0.061394592404840097 0 0.21577564808412511 -0.056666161138016313 0 0.23694359709532001 -0.061394592404840097 0 0.2167024847658664 -0.043974661413588162 0 0.21577564808412511 -0.056666161138016313 0 0.22648325856373289 -0.049317463857355977 0 0.22648325856373289 -0.049317463857355977 0 0.23694359709532001 -0.061394592404840097 0 0.23716366819637241 -0.046229271507985323 0 0.25811154610651499 -0.066123023671663908 0 0.23694359709532001 -0.061394592404840097 0 0.24870160087168189 -0.052882304334001928 0 0.23694359709532001 -0.061394592404840097 0 0.24870160087168189 -0.052882304334001928 0 0.23716366819637241 -0.046229271507985323 0 0.24870160087168189 -0.052882304334001928 0 0.23716366819637241 -0.046229271507985323 0 0.24731406762381819 -0.035960341631652723 0 0.23716366819637241 -0.046229271507985323 0 0.24731406762381819 -0.035960341631652723 0 0.23342582712955959 -0.033308149953783547 0 0.23342582712955959 -0.033308149953783547 0 0.2258308946769807 -0.038322632822349968 0 0.22548915127375299 -0.027513718828695861 0 0.22648325856373289 -0.049317463857355977 0 0.23716366819637241 -0.046229271507985323 0 0.2258308946769807 -0.038322632822349968 0 0.23716366819637241 -0.046229271507985323 0 0.23342582712955959 -0.033308149953783547 0 0.2258308946769807 -0.038322632822349968 0 0.2180191377477218 -0.035203133534298187 0 0.2167024847658664 -0.043974661413588162 0 0.2258308946769807 -0.038322632822349968 0 0.2167024847658664 -0.043974661413588162 0 0.22648325856373289 -0.049317463857355977 0 0.2258308946769807 -0.038322632822349968 0 0.2180191377477218 -0.035203133534298187 0 0.2258308946769807 -0.038322632822349968 0 0.21995729679401421 -0.029331280632926501 0 0.2258308946769807 -0.038322632822349968 0 0.22548915127375299 -0.027513718828695861 0 0.21995729679401421 -0.029331280632926501 0 0.21528057420098159 -0.024212643874961401 0 0.2313313538768734 -0.018514784978234038 0 0.22829619310998309 -0.01520182636873813 0 0.21528057420098159 -0.024212643874961401 0 0.2313313538768734 -0.018514784978234038 0 0.21528057420098159 -0.024212643874961401 0 0.22548915127375299 -0.027513718828695861 0 0.2313313538768734 -0.018514784978234038 0 0.21528057420098159 -0.024212643874961401 0 0.22548915127375299 -0.027513718828695861 0 0.21995729679401421 -0.029331280632926501 0 0.21528057420098159 -0.024212643874961401 0 0.22829619310998309 -0.01520182636873813 0 0.21528057420098159 -0.024212643874961401 0 0.21911622703360889 -0.015650702578479541 0 0.22829619310998309 -0.01520182636873813 0 0.2313313538768734 -0.018514784978234038 0 0.22829619310998309 -0.01520182636873813 0 0.23342582712955959 -0.033308149953783547 0 0.22548915127375299 -0.027513718828695861 0 0.2313313538768734 -0.018514784978234038 0 0.25508119948702751 -0.010083838205662381 0 0.2313313538768734 -0.018514784978234038 0 0.2482857443068576 -0.021714794414400052 0 0.24731406762381819 -0.035960341631652723 0 0.2313313538768734 -0.018514784978234038 0 0.2482857443068576 -0.021714794414400052 0 0.24731406762381819 -0.035960341631652723 0 0.23342582712955959 -0.033308149953783547 0 0.2313313538768734 -0.018514784978234038 0 0.24731406762381819 -0.035960341631652723 0 0.2313313538768734 -0.018514784978234038 0 0.25508119948702751 -0.010083838205662381 0 0.2313313538768734 -0.018514784978234038 0 0.24138147174972829 -0.0061427828714447699 0 0.25508119948702751 -0.010083838205662381 0 0.2313313538768734 -0.018514784978234038 0 0.24138147174972829 -0.0061427828714447699 0 0.22829619310998309 -0.01520182636873813 0 0.25446675038947358 0.0029162606258486688 0 0.2541426920980116 -0.0036136263454906951 0 0.24138147174972829 -0.0061427828714447699 0 0.25446675038947358 0.0029162606258486688 0 0.24138147174972829 -0.0061427828714447699 0 0.22999165343287109 0.0038227322559807589 0 0.24138147174972829 -0.0061427828714447699 0 0.23189167676904729 -0.0064153040848911828 0 0.22999165343287109 0.0038227322559807589 0 0.23189167676904729 -0.0064153040848911828 0 0.2228246624943325 -0.0092295053444410857 0 0.22999165343287109 0.0038227322559807589 0 0.21351355446813719 -0.0021103410187178909 0 0.2228246624943325 -0.0092295053444410857 0 0.23189167676904729 -0.0064153040848911828 0 0.22829619310998309 -0.01520182636873813 0 0.2228246624943325 -0.0092295053444410857 0 0.2313313538768734 -0.018514784978234038 0 0.24138147174972829 -0.0061427828714447699 0 0.22829619310998309 -0.01520182636873813 0 0.24138147174972829 -0.0061427828714447699 0 0.23189167676904729 -0.0064153040848911828 0 0.22829619310998309 -0.01520182636873813 0 0.21911622703360889 -0.015650702578479541 0 0.22829619310998309 -0.01520182636873813 0 0.2228246624943325 -0.0092295053444410857 0 0.22829619310998309 -0.01520182636873813 0 0.2228246624943325 -0.0092295053444410857 0 0.2084634723971549 -0.097930235578601213 0 0.21737999015654699 -0.1103161024944793 0 0.2275791846540145 -0.10054182369239011 0 0.21737999015654699 -0.1103161024944793 0 0.19100769245097829 -0.1040519139747048 0 0.2084634723971549 -0.097930235578601213 0 0.21140608144591419 -0.084503356370523836 0 0.2275791846540145 -0.10054182369239011 0 0.2084634723971549 -0.097930235578601213 0 0.21737999015654699 -0.1103161024944793 0 0.19100769245097829 -0.1040519139747048 0 0.21737999015654699 -0.1103161024944793 0 0.21277072480774051 -0.1248863227998855 0 0.20025029595199689 -0.1218288277367077 0 0.21737999015654699 -0.1103161024944793 0 0.21277072480774051 -0.1248863227998855 0 0.2239597136694004 -0.1277946194696456 0 0.1862357176231304 -0.1238823921021804 0 0.20025029595199689 -0.1218288277367077 0 0.19100769245097829 -0.1040519139747048 0 0.21737999015654699 -0.1103161024944793 0 0.20025029595199689 -0.1218288277367077 0 0.19100769245097829 -0.1040519139747048 0 0.20025029595199689 -0.1218288277367077 0 0.19100769245097829 -0.1040519139747048 0 0.2084634723971549 -0.097930235578601213 0 0.19100769245097829 -0.1040519139747048 0 0.19624682445825681 -0.08914472739044943 0 0.18137547142311691 -0.085525622921553163 0 0.19100769245097829 -0.1040519139747048 0 0.19624682445825681 -0.08914472739044943 0 0.19624682445825681 -0.08914472739044943 0 0.1952329782378138 -0.068464889048657496 0 0.21140608144591419 -0.084503356370523836 0 0.18137547142311691 -0.085525622921553163 0 0.19624682445825681 -0.08914472739044943 0 0.1952329782378138 -0.068464889048657496 0 0.20138343235632811 -0.055727139445542639 0 0.1952329782378138 -0.068464889048657496 0 0.21149591893834541 -0.070957707586151192 0 0.18346211879182289 -0.064955309332027283 0 0.19188844298534441 -0.056659859735039647 0 0.1952329782378138 -0.068464889048657496 0 0.1952329782378138 -0.068464889048657496 0 0.21140608144591419 -0.084503356370523836 0 0.20138343235632811 -0.055727139445542639 0 0.21149591893834541 -0.070957707586151192 0 0.22670270369963491 -0.067064047377793826 0 0.1952329782378138 -0.068464889048657496 0 0.21149591893834541 -0.070957707586151192 0 0.21140608144591419 -0.084503356370523836 0 0.2084634723971549 -0.097930235578601213 0 0.19624682445825681 -0.08914472739044943 0 0.21140608144591419 -0.084503356370523836 0 0.21149591893834541 -0.070957707586151192 0 0.21140608144591419 -0.084503356370523836 0 0.2227543989520358 -0.079029105688238177 0 0.21140608144591419 -0.084503356370523836 0 0.2275791846540145 -0.10054182369239011 0 0.2227543989520358 -0.079029105688238177 0 0.23449163343577681 -0.083610487294907485 0 0.2275791846540145 -0.10054182369239011 0 0.21140608144591419 -0.084503356370523836 0 0.2227543989520358 -0.079029105688238177 0 0.2275791846540145 -0.10054182369239011 0 0.2227543989520358 -0.079029105688238177 0 0.22670270369963491 -0.067064047377793826 0 0.23449163343577681 -0.083610487294907485 0 0.21149591893834541 -0.070957707586151192 0 0.2227543989520358 -0.079029105688238177 0 0.22670270369963491 -0.067064047377793826 0 0.25202197504294188 -0.078400955310045109 0 0.25811154610651499 -0.066123023671663908 0 0.23694359709532001 -0.061394592404840097 0 0.25202197504294188 -0.078400955310045109 0 0.22670270369963491 -0.067064047377793826 0 0.25202197504294188 -0.078400955310045109 0 0.22670270369963491 -0.067064047377793826 0 0.23449163343577681 -0.083610487294907485 0 0.25202197504294188 -0.078400955310045109 0 0.23694359709532001 -0.061394592404840097 0 0.22670270369963491 -0.067064047377793826 0 0.25811154610651499 -0.066123023671663908 0 0.23694359709532001 -0.061394592404840097 0 0.25202197504294188 -0.078400955310045109 0 0.23449163343577681 -0.083610487294907485 0 0.24624903761231479 -0.086847438891893419 0 0.23449163343577681 -0.083610487294907485 0 0.24292322406264641 -0.096552741650977186 0 0.2275791846540145 -0.10054182369239011 0 0.23449163343577681 -0.083610487294907485 0 0.24624903761231479 -0.086847438891893419 0 0.24292322406264641 -0.096552741650977186 0 0.25304747237378489 -0.090741332181114118 0 0.24624903761231479 -0.086847438891893419 0 0.24292322406264641 -0.096552741650977186 0 0.2275791846540145 -0.10054182369239011 0 0.24375228786211539 -0.116580291014256 0 0.24292322406264641 -0.096552741650977186 0 0.2275791846540145 -0.10054182369239011 0 0.24375228786211539 -0.116580291014256 0 0.25771864553297669 -0.099620140202181948 0 0.24292322406264641 -0.096552741650977186 0 0.24375228786211539 -0.116580291014256 0 0.21737999015654699 -0.1103161024944793 0 0.2275791846540145 -0.10054182369239011 0 0.24375228786211539 -0.116580291014256 0 0.21737999015654699 -0.1103161024944793 0 0.24375228786211539 -0.116580291014256 0 0.2239597136694004 -0.1277946194696456 0 0.21737999015654699 -0.1103161024944793 0 0.24375228786211539 -0.116580291014256 0 0.24375228786211539 -0.116580291014256 0 0.235054631712311 -0.13955626642273861 0 0.24955680073527009 -0.143898101237383 0 0.235054631712311 -0.13955626642273861 0 0.24955680073527009 -0.143898101237383 0 0.23627457688356679 -0.15840319400941011 0 0.25449645062408999 -0.16331052089379791 0 0.24955680073527009 -0.143898101237383 0 0.23627457688356679 -0.15840319400941011 0 0.235054631712311 -0.13955626642273861 0 0.22199130801810529 -0.1478171468904442 0 0.23627457688356679 -0.15840319400941011 0 0.24375228786211539 -0.116580291014256 0 0.235054631712311 -0.13955626642273861 0 0.2239597136694004 -0.1277946194696456 0 0.235054631712311 -0.13955626642273861 0 0.22199130801810529 -0.1478171468904442 0 0.2239597136694004 -0.1277946194696456 0 0.20025029595199689 -0.1218288277367077 0 0.20949289945301761 -0.1396057414987095 0 0.22199130801810529 -0.1478171468904442 0 0.2239597136694004 -0.1277946194696456 0 0.20949289945301761 -0.1396057414987095 0 0.21277072480774051 -0.1248863227998855 0 0.20025029595199689 -0.1218288277367077 0 0.20949289945301761 -0.1396057414987095 0 0.21277072480774051 -0.1248863227998855 0 0.2239597136694004 -0.1277946194696456 0 0.20949289945301761 -0.1396057414987095 0 0.22199130801810529 -0.1478171468904442 0 0.20949289945301761 -0.1396057414987095 0 0.2069794531536403 -0.1537888919124783 0 0.20949289945301761 -0.1396057414987095 0 0.2069794531536403 -0.1537888919124783 0 0.1919305776748628 -0.1461990482496055 0 0.2069794531536403 -0.1537888919124783 0 0.1919305776748628 -0.1461990482496055 0 0.19225769977326759 -0.16432491474026781 0 0.1862357176231304 -0.1238823921021804 0 0.1919305776748628 -0.1461990482496055 0 0.19714487019074359 -0.1333469628700395 0 0.20025029595199689 -0.1218288277367077 0 0.20949289945301761 -0.1396057414987095 0 0.19714487019074359 -0.1333469628700395 0 0.20949289945301761 -0.1396057414987095 0 0.1919305776748628 -0.1461990482496055 0 0.19714487019074359 -0.1333469628700395 0 0.1862357176231304 -0.1238823921021804 0 0.1919305776748628 -0.1461990482496055 0 0.1862357176231304 -0.1238823921021804 0 0.20025029595199689 -0.1218288277367077 0 0.19714487019074359 -0.1333469628700395 0 0.19629081049063871 -0.1815365299480412 0 0.19225769977326759 -0.16432491474026781 0 0.17982600751226671 -0.1762593337595659 0 0.19629081049063871 -0.1815365299480412 0 0.19225769977326759 -0.16432491474026781 0 0.22018657323669569 -0.16775416802968299 0 0.2069794531536403 -0.1537888919124783 0 0.19225769977326759 -0.16432491474026781 0 0.22018657323669569 -0.16775416802968299 0 0.22199130801810529 -0.1478171468904442 0 0.2069794531536403 -0.1537888919124783 0 0.22018657323669569 -0.16775416802968299 0 0.19629081049063871 -0.1815365299480412 0 0.22018657323669569 -0.16775416802968299 0 0.21237941264848451 -0.18810475376770611 0 0.22018657323669569 -0.16775416802968299 0 0.23934418379307471 -0.18436482883247621 0 0.22018657323669569 -0.16775416802968299 0 0.23934418379307471 -0.18436482883247621 0 0.21237941264848451 -0.18810475376770611 0 0.22018657323669569 -0.16775416802968299 0 0.23627457688356679 -0.15840319400941011 0 0.23934418379307471 -0.18436482883247621 0 0.22199130801810529 -0.1478171468904442 0 0.22018657323669569 -0.16775416802968299 0 0.23627457688356679 -0.15840319400941011 0 0.25449645062408999 -0.16331052089379791 0 0.23627457688356679 -0.15840319400941011 0 0.23934418379307471 -0.18436482883247621 0 0.25850179434945381 -0.20097548963526929 0 0.23934418379307471 -0.18436482883247621 0 0.25850179434945381 -0.20097548963526929 0 0.23934418379307471 -0.18436482883247621 0 0.23907695871134879 -0.21289681242661959 0 0.23907695871134879 -0.21289681242661959 0 0.22308479462261119 -0.20217133576560289 0 0.21722062693650279 -0.2226466586169516 0 0.23934418379307471 -0.18436482883247621 0 0.22308479462261119 -0.20217133576560289 0 0.21237941264848451 -0.18810475376770611 0 0.23934418379307471 -0.18436482883247621 0 0.23907695871134879 -0.21289681242661959 0 0.22308479462261119 -0.20217133576560289 0 0.25037283077400019 -0.2416092145933311 0 0.23239962387573149 -0.2337287944253621 0 0.2339549802858914 -0.24933471903745599 0 0.25658827463044448 -0.2222138965281123 0 0.23907695871134879 -0.21289681242661959 0 0.2446094219978813 -0.2276121794933563 0 0.25037283077400019 -0.2416092145933311 0 0.2446094219978813 -0.2276121794933563 0 0.23239962387573149 -0.2337287944253621 0 0.23907695871134879 -0.21289681242661959 0 0.2446094219978813 -0.2276121794933563 0 0.23239962387573149 -0.2337287944253621 0 0.23907695871134879 -0.21289681242661959 0 0.23239962387573149 -0.2337287944253621 0 0.21722062693650279 -0.2226466586169516 0 0.23239962387573149 -0.2337287944253621 0 0.2194561222393229 -0.23682627783696539 0 0.21722062693650279 -0.2226466586169516 0 0.23239962387573149 -0.2337287944253621 0 0.22502312889380549 -0.2426362774769398 0 0.2339549802858914 -0.24933471903745599 0 0.2194561222393229 -0.23682627783696539 0 0.22502312889380549 -0.2426362774769398 0 0.21456577207223029 -0.24270171036535029 0 0.23239962387573149 -0.2337287944253621 0 0.2194561222393229 -0.23682627783696539 0 0.22502312889380549 -0.2426362774769398 0 0.22331750647786899 -0.25281133177650322 0 0.22502312889380549 -0.2426362774769398 0 0.21456577207223029 -0.24270171036535029 0 0.22331750647786899 -0.25281133177650322 0 0.22502312889380549 -0.2426362774769398 0 0.2339549802858914 -0.24933471903745599 0 0.2084475354763706 -0.25511513831035743 0 0.2080714594183444 -0.2424179483002232 0 0.21336353465090491 -0.24693864317134839 0 0.2080714594183444 -0.2424179483002232 0 0.21336353465090491 -0.24693864317134839 0 0.2080714594183444 -0.2424179483002232 0 0.21336353465090491 -0.24693864317134839 0 0.21456577207223029 -0.24270171036535029 0 0.2194561222393229 -0.23682627783696539 0 0.2080714594183444 -0.2424179483002232 0 0.21456577207223029 -0.24270171036535029 0 0.21722062693650279 -0.2226466586169516 0 0.20244123733496699 -0.2260211367091485 0 0.19848523837712481 -0.2136299623964425 0 0.2080714594183444 -0.2424179483002232 0 0.21722062693650279 -0.2226466586169516 0 0.2194561222393229 -0.23682627783696539 0 0.2080714594183444 -0.2424179483002232 0 0.21722062693650279 -0.2226466586169516 0 0.2080714594183444 -0.2424179483002232 0 0.21722062693650279 -0.2226466586169516 0 0.20244123733496699 -0.2260211367091485 0 0.2080714594183444 -0.2424179483002232 0 0.18716213711817259 -0.22455639835484539 0 0.2080714594183444 -0.2424179483002232 0 0.20244123733496699 -0.2260211367091485 0 0.18716213711817259 -0.22455639835484539 0 0.20244123733496699 -0.2260211367091485 0 0.19848523837712481 -0.2136299623964425 0 0.18716213711817259 -0.22455639835484539 0 0.2080714594183444 -0.2424179483002232 0 0.19254414318066221 -0.24961624770678509 0 0.1866817818972302 -0.23981118877977231 0 0.2080714594183444 -0.2424179483002232 0 0.1866817818972302 -0.23981118877977231 0 0.18716213711817259 -0.22455639835484539 0 0.19254414318066221 -0.24961624770678509 0 0.18399505531774341 -0.24981832115951039 0 0.1866817818972302 -0.23981118877977231 0 0.21237941264848451 -0.18810475376770611 0 0.20793523744788639 -0.20366419955677639 0 0.19447652973028121 -0.19759128756789451 0 0.22308479462261119 -0.20217133576560289 0 0.21237941264848451 -0.18810475376770611 0 0.20793523744788639 -0.20366419955677639 0 0.22308479462261119 -0.20217133576560289 0 0.21722062693650279 -0.2226466586169516 0 0.20793523744788639 -0.20366419955677639 0 0.21722062693650279 -0.2226466586169516 0 0.20793523744788639 -0.20366419955677639 0 0.19848523837712481 -0.2136299623964425 0 0.19848523837712481 -0.2136299623964425 0 0.19447652973028121 -0.19759128756789451 0 0.1831457957419608 -0.2071674304332729 0 0.20793523744788639 -0.20366419955677639 0 0.19848523837712481 -0.2136299623964425 0 0.19447652973028121 -0.19759128756789451 0 0.19848523837712481 -0.2136299623964425 0 0.1831457957419608 -0.2071674304332729 0 0.18716213711817259 -0.22455639835484539 0 0.19629081049063871 -0.1815365299480412 0 0.19447652973028121 -0.19759128756789451 0 0.1840061663436266 -0.1900566622106199 0 0.19629081049063871 -0.1815365299480412 0 0.21237941264848451 -0.18810475376770611 0 0.19447652973028121 -0.19759128756789451 0 0.19447652973028121 -0.19759128756789451 0 0.1840061663436266 -0.1900566622106199 0 0.1831457957419608 -0.2071674304332729 0 0.1840061663436266 -0.1900566622106199 0 0.1831457957419608 -0.2071674304332729 0 0.16486725365112659 -0.18785963188663279 0 0.1831457957419608 -0.2071674304332729 0 0.16486725365112659 -0.18785963188663279 0 0.1831457957419608 -0.2071674304332729 0 0.16625281481800089 -0.2066948484094672 0 0.18716213711817259 -0.22455639835484539 0 0.16625281481800089 -0.2066948484094672 0 0.18716213711817259 -0.22455639835484539 0 0.16625281481800089 -0.2066948484094672 0 0.18716213711817259 -0.22455639835484539 0 0.16937657335138201 -0.22198425569814831 0 0.16625281481800089 -0.2066948484094672 0 0.15661990237239229 -0.21733625041789439 0 0.14909823278687431 -0.20687378182447139 0 0.16625281481800089 -0.2066948484094672 0 0.15661990237239229 -0.21733625041789439 0 0.16937657335138201 -0.22198425569814831 0 0.1831457957419608 -0.2071674304332729 0 0.16625281481800089 -0.2066948484094672 0 0.16486725365112659 -0.18785963188663279 0 0.16625281481800089 -0.2066948484094672 0 0.16486725365112659 -0.18785963188663279 0 0.14534349251782941 -0.188833298464089 0 0.17619278994504239 -0.24587918172992959 0 0.18399505531774341 -0.24981832115951039 0 0.1866817818972302 -0.23981118877977231 0 0.17619278994504239 -0.24587918172992959 0 0.17450151464944069 -0.23276490516368609 0 0.16609645978724119 -0.24143951784646769 0 0.17619278994504239 -0.24587918172992959 0 0.1866817818972302 -0.23981118877977231 0 0.17450151464944069 -0.23276490516368609 0 0.17450151464944069 -0.23276490516368609 0 0.18716213711817259 -0.22455639835484539 0 0.16937657335138201 -0.22198425569814831 0 0.1866817818972302 -0.23981118877977231 0 0.17450151464944069 -0.23276490516368609 0 0.18716213711817259 -0.22455639835484539 0 0.15661990237239229 -0.21733625041789439 0 0.1623464977989032 -0.22856887614484861 0 0.15090654410468329 -0.22688320449844629 0 0.15661990237239229 -0.21733625041789439 0 0.16937657335138201 -0.22198425569814831 0 0.1623464977989032 -0.22856887614484861 0 0.17450151464944069 -0.23276490516368609 0 0.1623464977989032 -0.22856887614484861 0 0.16609645978724119 -0.24143951784646769 0 0.17450151464944069 -0.23276490516368609 0 0.16937657335138201 -0.22198425569814831 0 0.1623464977989032 -0.22856887614484861 0 0.1623464977989032 -0.22856887614484861 0 0.16609645978724119 -0.24143951784646769 0 0.1528270009437688 -0.23836283418195289 0 0.16001236861667459 -0.2513654190734112 0 0.16609645978724119 -0.24143951784646769 0 0.1528270009437688 -0.23836283418195289 0 0.16978669848249819 -0.25098739912941831 0 0.17619278994504239 -0.24587918172992959 0 0.16609645978724119 -0.24143951784646769 0 0.16001236861667459 -0.2513654190734112 0 0.16978669848249819 -0.25098739912941831 0 0.16609645978724119 -0.24143951784646769 0 0.1429630926125974 -0.2502577086919005 0 0.16001236861667459 -0.2513654190734112 0 0.1528270009437688 -0.23836283418195289 0 0.1429630926125974 -0.2502577086919005 0 0.1528270009437688 -0.23836283418195289 0 0.13988621804673579 -0.23152362256679451 0 0.1528270009437688 -0.23836283418195289 0 0.15090654410468329 -0.22688320449844629 0 0.13988621804673579 -0.23152362256679451 0 0.1623464977989032 -0.22856887614484861 0 0.1528270009437688 -0.23836283418195289 0 0.15090654410468329 -0.22688320449844629 0 0.15661990237239229 -0.21733625041789439 0 0.15090654410468329 -0.22688320449844629 0 0.1428531013616163 -0.21862443918074129 0 0.15090654410468329 -0.22688320449844629 0 0.13988621804673579 -0.23152362256679451 0 0.1428531013616163 -0.21862443918074129 0 0.12018370186474731 -0.23305432747703519 0 0.12895394136930069 -0.22163642029703709 0 0.13988621804673579 -0.23152362256679451 0 0.12895394136930069 -0.22163642029703709 0 0.13988621804673579 -0.23152362256679451 0 0.1428531013616163 -0.21862443918074129 0 0.1429630926125974 -0.2502577086919005 0 0.12018370186474731 -0.23305432747703519 0 0.1429630926125974 -0.2502577086919005 0 0.12018370186474731 -0.23305432747703519 0 0.13988621804673579 -0.23152362256679451 0 0.13217397618885759 -0.25462043987800831 0 0.1429630926125974 -0.2502577086919005 0 0.12018370186474731 -0.23305432747703519 0 0.16625281481800089 -0.2066948484094672 0 0.14534349251782941 -0.188833298464089 0 0.16625281481800089 -0.2066948484094672 0 0.14534349251782941 -0.188833298464089 0 0.14909823278687431 -0.20687378182447139 0 0.14534349251782941 -0.188833298464089 0 0.14909823278687431 -0.20687378182447139 0 0.1346280568372662 -0.20359450925845249 0 0.15661990237239229 -0.21733625041789439 0 0.14909823278687431 -0.20687378182447139 0 0.1428531013616163 -0.21862443918074129 0 0.14909823278687431 -0.20687378182447139 0 0.1428531013616163 -0.21862443918074129 0 0.1346280568372662 -0.20359450925845249 0 0.1178461100078927 -0.20838697738218431 0 0.12895394136930069 -0.22163642029703709 0 0.1346280568372662 -0.20359450925845249 0 0.12895394136930069 -0.22163642029703709 0 0.1428531013616163 -0.21862443918074129 0 0.1346280568372662 -0.20359450925845249 0 0.14534349251782941 -0.188833298464089 0 0.1346280568372662 -0.20359450925845249 0 0.13128332926409281 -0.18787359724935929 0 0.1237689835273371 -0.19605207676116951 0 0.1178461100078927 -0.20838697738218431 0 0.1346280568372662 -0.20359450925845249 0 0.1237689835273371 -0.19605207676116951 0 0.1346280568372662 -0.20359450925845249 0 0.13128332926409281 -0.18787359724935929 0 0.1237689835273371 -0.19605207676116951 0 0.1232013989280239 -0.1819146573535104 0 0.13128332926409281 -0.18787359724935929 0 0.12443417021765769 -0.1709717485187108 0 0.14534349251782941 -0.188833298464089 0 0.12443417021765769 -0.1709717485187108 0 0.1232013989280239 -0.1819146573535104 0 0.13128332926409281 -0.18787359724935929 0 0.12443417021765769 -0.1709717485187108 0 0.14534349251782941 -0.188833298464089 0 0.13128332926409281 -0.18787359724935929 0 0.12443417021765769 -0.1709717485187108 0 0.14534349251782941 -0.188833298464089 0 0.13540865390058859 -0.1688207667960602 0 0.14534349251782941 -0.188833298464089 0 0.14658871156029241 -0.16855183333999291 0 0.13540865390058859 -0.1688207667960602 0 0.16486725365112659 -0.18785963188663279 0 0.14658871156029241 -0.16855183333999291 0 0.16486725365112659 -0.18785963188663279 0 0.14534349251782941 -0.188833298464089 0 0.14658871156029241 -0.16855183333999291 0 0.14658871156029241 -0.16855183333999291 0 0.13391177650968769 -0.15242347890466901 0 0.14971917460686079 -0.1530450482394467 0 0.14658871156029241 -0.16855183333999291 0 0.14971917460686079 -0.1530450482394467 0 0.16192904395431579 -0.15800089119817939 0 0.14658871156029241 -0.16855183333999291 0 0.13391177650968769 -0.15242347890466901 0 0.12831016946945831 -0.1492440347933528 0 0.14658871156029241 -0.16855183333999291 0 0.12831016946945831 -0.1492440347933528 0 0.14658871156029241 -0.16855183333999291 0 0.13540865390058859 -0.1688207667960602 0 0.1290045142054978 -0.1612372837293575 0 0.14658871156029241 -0.16855183333999291 0 0.1290045142054978 -0.1612372837293575 0 0.12831016946945831 -0.1492440347933528 0 0.13540865390058859 -0.1688207667960602 0 0.12715697753007521 -0.16591248018761531 0 0.1290045142054978 -0.1612372837293575 0 0.12443417021765769 -0.1709717485187108 0 0.13540865390058859 -0.1688207667960602 0 0.12715697753007521 -0.16591248018761531 0 0.12098675462827781 -0.16200852072179159 0 0.12715697753007521 -0.16591248018761531 0 0.1290045142054978 -0.1612372837293575 0 0.12324902196630889 -0.15465793599018671 0 0.1227471198665283 -0.15880086614903269 0 0.1290045142054978 -0.1612372837293575 0 0.13391177650968769 -0.15242347890466901 0 0.12831016946945831 -0.1492440347933528 0 0.12532898621889721 -0.13663811256420449 0 0.12324902196630889 -0.15465793599018671 0 0.1290045142054978 -0.1612372837293575 0 0.12831016946945831 -0.1492440347933528 0 0.1217036921304827 -0.1482443959076799 0 0.12831016946945831 -0.1492440347933528 0 0.12532898621889721 -0.13663811256420449 0 0.13391177650968769 -0.15242347890466901 0 0.13188977167139071 -0.12546883223523481 0 0.13391177650968769 -0.15242347890466901 0 0.13188977167139071 -0.12546883223523481 0 0.1446303542042412 -0.1380662602394005 0 0.13391177650968769 -0.15242347890466901 0 0.13188977167139071 -0.12546883223523481 0 0.12532898621889721 -0.13663811256420449 0 0.11997683785091839 -0.1276371159963853 0 0.13188977167139071 -0.12546883223523481 0 0.12532898621889721 -0.13663811256420449 0 0.1446303542042412 -0.1380662602394005 0 0.15557261582888751 -0.13003178131142151 0 0.1621281360659286 -0.14191921566573409 0 0.14724036225017881 -0.1245170930860646 0 0.13188977167139071 -0.12546883223523481 0 0.1446303542042412 -0.1380662602394005 0 0.14724036225017881 -0.1245170930860646 0 0.1446303542042412 -0.1380662602394005 0 0.15557261582888751 -0.13003178131142151 0 0.13391177650968769 -0.15242347890466901 0 0.1446303542042412 -0.1380662602394005 0 0.14971917460686079 -0.1530450482394467 0 0.1446303542042412 -0.1380662602394005 0 0.14971917460686079 -0.1530450482394467 0 0.1621281360659286 -0.14191921566573409 0 0.1621281360659286 -0.14191921566573409 0 0.17324983187337631 -0.13165498831909611 0 0.17651024624945799 -0.1485415537171802 0 0.14971917460686079 -0.1530450482394467 0 0.1621281360659286 -0.14191921566573409 0 0.16192904395431579 -0.15800089119817939 0 0.1621281360659286 -0.14191921566573409 0 0.17651024624945799 -0.1485415537171802 0 0.16192904395431579 -0.15800089119817939 0 0.16471491079178111 -0.1205264202314431 0 0.15557261582888751 -0.13003178131142151 0 0.1639163736399934 -0.1310331013819237 0 0.15557261582888751 -0.13003178131142151 0 0.1621281360659286 -0.14191921566573409 0 0.1639163736399934 -0.1310331013819237 0 0.1621281360659286 -0.14191921566573409 0 0.1639163736399934 -0.1310331013819237 0 0.17324983187337631 -0.13165498831909611 0 0.16471491079178111 -0.1205264202314431 0 0.1639163736399934 -0.1310331013819237 0 0.17324983187337631 -0.13165498831909611 0 0.1862357176231304 -0.1238823921021804 0 0.1919305776748628 -0.1461990482496055 0 0.17324983187337631 -0.13165498831909611 0 0.1919305776748628 -0.1461990482496055 0 0.17324983187337631 -0.13165498831909611 0 0.17651024624945799 -0.1485415537171802 0 0.1919305776748628 -0.1461990482496055 0 0.19225769977326759 -0.16432491474026781 0 0.17651024624945799 -0.1485415537171802 0 0.19225769977326759 -0.16432491474026781 0 0.17526083145963689 -0.16308053239281189 0 0.17982600751226671 -0.1762593337595659 0 0.19225769977326759 -0.16432491474026781 0 0.17651024624945799 -0.1485415537171802 0 0.17526083145963689 -0.16308053239281189 0 0.17526083145963689 -0.16308053239281189 0 0.17982600751226671 -0.1762593337595659 0 0.16627328335530381 -0.17069773137902189 0 0.1840061663436266 -0.1900566622106199 0 0.16486725365112659 -0.18785963188663279 0 0.17982600751226671 -0.1762593337595659 0 0.19629081049063871 -0.1815365299480412 0 0.1840061663436266 -0.1900566622106199 0 0.17982600751226671 -0.1762593337595659 0 0.16486725365112659 -0.18785963188663279 0 0.14658871156029241 -0.16855183333999291 0 0.16627328335530381 -0.17069773137902189 0 0.16486725365112659 -0.18785963188663279 0 0.17982600751226671 -0.1762593337595659 0 0.16627328335530381 -0.17069773137902189 0 0.14658871156029241 -0.16855183333999291 0 0.16192904395431579 -0.15800089119817939 0 0.16627328335530381 -0.17069773137902189 0 0.17526083145963689 -0.16308053239281189 0 0.16192904395431579 -0.15800089119817939 0 0.16627328335530381 -0.17069773137902189 0 0.17651024624945799 -0.1485415537171802 0 0.17526083145963689 -0.16308053239281189 0 0.16192904395431579 -0.15800089119817939 0 
</DataArray>
</Points>
<Cells>
<DataArray type="UInt32" Name="connectivity" format="ascii">
0 1 2 3 4 5 6 7 8 9 10 11 12 13 14 15 16 17 18 19 20 21 22 23 24 25 26 27 28 29 30 31 32 33 34 35 36 37 38 39 40 41 42 43 44 45 46 47 48 49 50 51 52 53 54 55 56 57 58 59 60 61 62 63 64 65 66 67 68 69 70 71 72 73 74 75 76 77 78 79 80 81 82 83 84 85 86 87 88 89 90 91 92 93 94 95 96 97 98 99 100 101 102 103 104 105 106 107 108 109 110 111 112 113 114 115 116 117 118 119 120 121 122 123 124 125 126 127 128 129 130 131 132 133 134 135 136 137 138 139 140 141 142 143 144 145 146 147 148 149 150 151 152 153 154 155 156 157 158 159 160 161 162 163 164 165 166 167 168 169 170 171 172 173 174 175 176 177 178 179 180 181 182 183 184 185 186 187 188 189 190 191 192 193 194 195 196 197 198 199 200 201 202 203 204 205 206 207 208 209 210 211 212 213 214 215 216 217 218 219 220 221 222 223 224 225 226 227 228 229 230 231 232 233 234 235 236 237 238 239 240 241 242 243 244 245 246 247 248 249 250 251 252 253 254 255 256 257 258 259 260 261 262 263 264 265 266 267 268 269 270 271 272 273 274 275 276 277 278 279 280 281 282 283 284 285 286 287 288 289 290 291 292 293 294 295 296 297 298 299 300 301 302 303 304 305 306 307 308 309 310 311 312 313 314 315 316 317 318 319 320 321 322 323 324 325 326 327 328 329 330 331 332 333 334 335 336 337 338 339 340 341 342 343 344 345 346 347 348 349 350 351 352 353 354 355 356 357 358 359 360 361 362 363 364 365 366 367 368 369 370 371 372 373 374 375 376 377 378 379 380 381 382 383 384 385 386 387 388 389 390 391 392 393 394 395 396 397 398 399 400 401 402 403 404 405 406 407 408 409 410 411 412 413 414 415 416 417 418 419 420 421 422 423 424 425 426 427 428 429 430 431 432 433 434 435 436 437 438 439 440 441 442 443 444 445 446 447 448 449 450 451 452 453 454 455 456 457 458 459 460 461 462 463 464 465 466 467 468 469 470 471 472 473 474 475 476 477 478 479 480 481 482 483 484 485 486 487 488 489 490 491 492 493 494 495 496 497 498 499 500 501 502 503 504 505 506 507 508 509 510 511 512 513 514 515 516 517 518 519 520 521 522 523 524 525 526 527 528 529 530 531 532 533 534 535 536 537 538 539 540 541 542 543 544 545 546 547 548 549 550 551 552 553 554 555 556 557 558 559 560 561 562 563 564 565 566 567 568 569 570 571 572 573 574 575 576 577 578 579 580 581 582 583 584 585 586 587 588 589 590 591 592 593 594 595 596 597 598 599 600 601 602 603 604 605 606 607 608 609 610 611 612 613 614 615 616 617 618 619 620 621 622 623 624 625 626 627 628 629 630 631 632 633 634 635 636 637 638 639 640 641 642 643 644 645 646 647 648 649 650 651 652 653 654 655 656 657 658 659 660 661 662 663 664 665 666 667 668 669 670 671 672 673 674 675 676 677 678 679 680 681 682 683 684 685 686 687 688 689 690 691 692 693 694 695 696 697 698 699 700 701 702 703 704 705 706 707 708 709 710 711 712 713 714 715 716 717 718 719 720 721 722 723 724 725 726 727 728 729 730 731 732 733 734 735 736 737 738 739 740 741 742 743 744 745 746 747 748 749 750 751 752 753 754 755 756 757 758 759 760 761 762 763 764 765 766 767 768 769 770 771 772 773 774 775 776 777 778 779 780 781 782 783 784 785 786 787 788 789 790 791 792 793 794 795 796 797 798 799 800 801 802 803 804 805 806 807 808 809 810 811 812 813 814 815 816 817 818 819 820 821 822 823 824 825 826 827 828 829 830 831 832 833 834 835 836 837 838 839 840 841 842 843 844 845 846 847 848 849 850 851 852 853 854 855 856 857 858 859 860 861 862 863 864 865 866 867 868 869 870 871 872 873 874 875 876 877 878 879 880 881 882 883 884 885 886 887 888 889 890 891 892 893 894 895 896 897 898 899 900 901 902 903 904 905 906 907 908 909 910 911 912 913 914 915 916 917 918 919 920 921 922 923 924 925 926 927 928 929 930 931 932 933 934 935 936 937 938 939 940 941 942 943 944 945 946 947 948 949 950 951 952 953 954 955 956 957 958 959 960 961 962 963 964 965 966 967 968 969 970 971 972 973 974 975 976 977 978 979 980 981 982 983 984 985 986 987 988 989 990 991 992 993 994 995 996 997 998 999 1000 1001 1002 1003 1004 1005 1006 1007 1008 1009 1010 1011 1012 1013 1014 1015 1016 1017 1018 1019 1020 1021 1022 1023 1024 1025 1026 1027 1028 1029 1030 1031 1032 1033 1034 1035 1036 1037 1038 1039 1040 1041 1042 1043 1044 1045 1046 1047 1048 1049 1050 1051 1052 1053 1054 1055 1056 1057 1058 1059 1060 1061 1062 1063 1064 1065 1066 1067 1068 1069 1070 1071 1072 1073 1074 1075 1076 1077 1078 1079 1080 1081 1082 1083 1084 1085 1086 1087 1088 1089 1090 1091 1092 1093 1094 1095 1096 1097 1098 1099 1100 1101 1102 1103 1104 1105 1106 1107 1108 1109 1110 1111 1112 1113 1114 1115 1116 1117 1118 1119 1120 1121 1122 1123 1124 1125 1126 1127 1128 1129 1130 1131 1132 1133 1134 1135 1136 1137 1138 1139 1140 1141 1142 1143 1144 1145 1146 1147 1148 1149 1150 1151 1152 1153 1154 1155 1156 1157 1158 1159 1160 1161 1162 1163 1164 1165 1166 1167 1168 1169 1170 1171 1172 1173 1174 1175 1176 1177 1178 1179 1180 1181 1182 1183 1184 1185 1186 1187 1188 1189 1190 1191 1192 1193 1194 1195 1196 1197 1198 1199 1200 1201 1202 1203 1204 1205 1206 1207 1208 1209 1210 1211 1212 1213 1214 1215 1216 1217 1218 1219 1220 1221 1222 1223 1224 1225 1226 1227 1228 1229 1230 1231 1232 1233 1234 1235 1236 1237 1238 1239 1240 1241 1242 1243 1244 1245 1246 1247 1248 1249 1250 1251 1252 1253 1254 1255 1256 1257 1258 1259 1260 1261 1262 1263 1264 1265 1266 1267 1268 1269 1270 1271 1272 1273 1274 1275 1276 1277 1278 1279 1280 1281 1282 1283 1284 1285 1286 1287 1288 1289 1290 1291 1292 1293 1294 1295 1296 1297 1298 1299 1300 1301 1302 1303 1304 1305 1306 1307 1308 1309 1310 1311 1312 1313 1314 1315 1316 1317 1318 1319 1320 1321 1322 1323 1324 1325 1326 1327 1328 1329 1330 1331 1332 1333 1334 1335 1336 1337 1338 1339 1340 1341 1342 1343 1344 1345 1346 1347 1348 1349 1350 1351 1352 1353 1354 1355 1356 1357 1358 1359 1360 1361 1362 1363 1364 1365 1366 1367 1368 1369 1370 1371 1372 1373 1374 1375 1376 1377 1378 1379 1380 1381 1382 1383 1384 1385 1386 1387 1388 1389 1390 1391 1392 1393 1394 1395 1396 1397 1398 1399 1400 1401 1402 1403 1404 1405 1406 1407 1408 1409 1410 1411 1412 1413 1414 1415 1416 1417 1418 1419 1420 1421 1422 1423 1424 1425 1426 1427 1428 1429 1430 1431 1432 1433 1434 1435 1436 1437 1438 1439 1440 1441 1442 1443 1444 1445 1446 1447 1448 1449 1450 1451 1452 1453 1454 1455 1456 1457 1458 1459 1460 1461 1462 1463 1464 1465 1466 1467 1468 1469 1470 1471 1472 1473 1474 1475 1476 1477 1478 1479 1480 1481 1482 1483 1484 1485 1486 1487 1488 1489 1490 1491 1492 1493 1494 1495 1496 1497 1498 1499 1500 1501 1502 1503 1504 1505 1506 1507 1508 1509 1510 1511 1512 1513 1514 1515 1516 1517 1518 1519 1520 1521 1522 1523 1524 1525 1526 1527 1528 1529 1530 1531 1532 1533 1534 1535 1536 1537 1538 1539 1540 1541 1542 1543 1544 1545 1546 1547 1548 1549 1550 1551 1552 1553 1554 1555 1556 1557 1558 1559 1560 1561 1562 1563 1564 1565 1566 1567 1568 1569 1570 1571 1572 1573 1574 1575 1576 1577 1578 1579 1580 1581 1582 1583 1584 1585 1586 1587 1588 1589 1590 1591 1592 1593 1594 1595 1596 1597 1598 1599 1600 1601 1602 1603 1604 1605 1606 1607 1608 1609 1610 1611 1612 1613 1614 1615 1616 1617 1618 1619 1620 1621 1622 1623 1624 1625 1626 1627 1628 1629 1630 1631 1632 1633 1634 1635 1636 1637 1638 1639 1640 1641 1642 1643 1644 1645 1646 1647 1648 1649 1650 1651 1652 1653 1654 1655 1656 1657 1658 1659 1660 1661 1662 1663 1664 1665 1666 1667 1668 1669 1670 1671 1672 1673 1674 1675 1676 1677 1678 1679 1680 1681 1682 1683 1684 1685 1686 1687 1688 1689 1690 1691 1692 1693 1694 1695 1696 1697 1698 1699 1700 1701 1702 1703 1704 1705 1706 1707 1708 1709 1710 1711 1712 1713 1714 1715 1716 1717 1718 1719 1720 1721 1722 1723 1724 1725 1726 1727 1728 1729 1730 1731 1732 1733 1734 1735 1736 1737 1738 1739 1740 1741 1742 1743 1744 1745 1746 1747 1748 1749 1750 1751 1752 1753 1754 1755 1756 1757 1758 1759 1760 1761 1762 1763 1764 1765 1766 1767 1768 1769 1770 1771 1772 1773 1774 1775 1776 1777 1778 1779 1780 1781 1782 1783 1784 1785 1786 1787 1788 1789 1790 1791 1792 1793 1794 1795 1796 1797 1798 1799 1800 1801 1802 1803 1804 1805 1806 1807 1808 1809 1810 1811 1812 1813 1814 1815 1816 1817 1818 1819 1820 1821 1822 1823 1824 1825 1826 1827 1828 1829 1830 1831 1832 1833 1834 1835 1836 1837 1838 1839 1840 1841 1842 1843 1844 1845 1846 1847 1848 1849 1850 1851 1852 1853 1854 1855 1856 1857 1858 1859 1860 1861 1862 1863 1864 1865 1866 1867 1868 1869 1870 1871 1872 1873 1874 1875 1876 1877 1878 1879 1880 1881 1882 1883 1884 1885 1886 1887 1888 1889 1890 1891 1892 1893 1894 1895 1896 1897 1898 1899 1900 1901 1902 1903 1904 1905 1906 1907 1908 1909 1910 1911 1912 1913 1914 1915 1916 1917 1918 1919 1920 1921 1922 1923 1924 1925 1926 1927 1928 1929 1930 1931 1932 1933 1934 1935 1936 1937 1938 1939 1940 1941 1942 1943 1944 1945 1946 1947 1948 1949 1950 1951 1952 1953 1954 1955 1956 1957 1958 1959 1960 1961 1962 1963 1964 1965 1966 1967 1968 1969 1970 1971 1972 1973 1974 1975 1976 1977 1978 1979 1980 1981 1982 1983 1984 1985 1986 1987 1988 1989 1990 1991 1992 1993 1994 1995 1996 1997 1998 1999 2000 2001 2002 2003 2004 2005 2006 2007 2008 2009 2010 2011 2012 2013 2014 2015 2016 2017 2018 2019 2020 2021 2022 2023 2024 2025 2026 2027 2028 2029 2030 2031 2032 2033 2034 2035 2036 2037 2038 2039 2040 2041 2042 2043 2044 2045 2046 2047 2048 2049 2050 2051 2052 2053 2054 2055 2056 2057 2058 2059 2060 2061 2062 2063 2064 2065 2066 2067 2068 2069 2070 2071 2072 2073 2074 2075 2076 2077 2078 2079 2080 2081 2082 2083 2084 2085 2086 2087 2088 2089 2090 2091 2092 2093 2094 2095 2096 2097 2098 2099 2100 2101 2102 2103 2104 2105 2106 2107 2108 2109 2110 2111 2112 2113 2114 2115 2116 2117 2118 2119 2120 2121 2122 2123 2124 2125 2126 2127 2128 2129 2130 2131 2132 2133 2134 2135 2136 2137 2138 2139 2140 2141 2142 2143 2144 2145 2146 2147 2148 2149 2150 2151 2152 2153 2154 2155 2156 2157 2158 2159 2160 2161 2162 2163 2164 2165 2166 2167 2168 2169 2170 2171 2172 2173 2174 2175 2176 2177 2178 2179 2180 2181 2182 2183 2184 2185 2186 2187 2188 2189 2190 2191 2192 2193 2194 2195 2196 2197 2198 2199 2200 2201 2202 2203 2204 2205 2206 2207 2208 2209 2210 2211 2212 2213 2214 2215 2216 2217 2218 2219 2220 2221 2222 2223 2224 2225 2226 2227 2228 2229 2230 2231 2232 2233 2234 2235 2236 2237 2238 2239 2240 2241 2242 2243 2244 2245 2246 2247 2248 2249 2250 2251 2252 2253 2254 2255 2256 2257 2258 2259 2260 2261 2262 2263 2264 2265 2266 2267 2268 2269 2270 2271 2272 2273 2274 2275 2276 2277 2278 2279 2280 2281 2282 2283 2284 2285 2286 2287 2288 2289 2290 2291 2292 2293 2294 2295 2296 2297 2298 2299 2300 2301 2302 2303 2304 2305 2306 2307 2308 2309 2310 2311 2312 2313 2314 2315 2316 2317 2318 2319 2320 2321 2322 2323 2324 2325 2326 2327 2328 2329 2330 2331 2332 2333 2334 2335 2336 2337 2338 2339 2340 2341 2342 2343 2344 2345 2346 2347 2348 2349 2350 2351 2352 2353 2354 2355 2356 2357 2358 2359 2360 2361 2362 2363 2364 2365 2366 2367 2368 2369 2370 2371 2372 2373 2374 2375 2376 2377 2378 2379 2380 2381 2382 2383 2384 2385 2386 2387 2388 2389 2390 2391 2392 2393 2394 2395 2396 2397 2398 2399 2400 2401 2402 2403 2404 2405 2406 2407 2408 2409 2410 2411 2412 2413 2414 2415 2416 2417 2418 2419 2420 2421 2422 2423 2424 2425 2426 2427 2428 2429 2430 2431 2432 2433 2434 2435 2436 2437 2438 2439 2440 2441 2442 2443 2444 2445 2446 2447 2448 2449 2450 2451 2452 2453 2454 2455 2456 2457 2458 2459 2460 2461 2462 2463 2464 2465 2466 2467 2468 2469 2470 2471 2472 2473 2474 2475 2476 2477 2478 2479 2480 2481 2482 2483 2484 2485 2486 2487 2488 2489 2490 2491 2492 2493 2494 2495 2496 2497 2498 2499 2500 2501 2502 2503 2504 2505 2506 2507 2508 2509 2510 2511 2512 2513 2514 2515 2516 2517 2518 2519 2520 2521 2522 2523 2524 2525 2526 2527 2528 2529 2530 2531 2532 2533 2534 2535 2536 2537 2538 2539 2540 2541 2542 2543 2544 2545 2546 2547 2548 2549 2550 2551 2552 2553 2554 2555 2556 2557 2558 2559 2560 2561 2562 2563 2564 2565 2566 2567 2568 2569 2570 2571 2572 2573 2574 2575 2576 2577 2578 2579 2580 2581 2582 2583 2584 2585 2586 2587 2588 2589 2590 2591 2592 2593 2594 2595 2596 2597 2598 2599 2600 2601 2602 2603 2604 2605 2606 2607 2608 2609 2610 2611 2612 2613 2614 2615 2616 2617 2618 2619 2620 2621 2622 2623 2624 2625 2626 2627 2628 2629 2630 2631 2632 2633 2634 2635 2636 2637 2638 2639 2640 2641 2642 2643 2644 2645 2646 2647 2648 2649 2650 2651 2652 2653 2654 2655 2656 2657 2658 2659 2660 2661 2662 2663 2664 2665 2666 2667 2668 2669 2670 2671 2672 2673 2674 2675 2676 2677 2678 2679 2680 2681 2682 2683 2684 2685 2686 2687 2688 2689 2690 2691 2692 2693 2694 2695 2696 2697 2698 2699 2700 2701 2702 2703 2704 2705 2706 2707 2708 2709 2710 2711 2712 2713 2714 2715 2716 2717 2718 2719 2720 2721 2722 2723 2724 2725 2726 2727 2728 2729 2730 2731 2732 2733 2734 2735 2736 2737 2738 2739 2740 2741 2742 2743 2744 2745 2746 2747 2748 2749 2750 2751 2752 2753 2754 2755 2756 2757 2758 2759 2760 2761 2762 2763 2764 2765 2766 2767 2768 2769 2770 2771 2772 2773 2774 2775 2776 2777 2778 2779 2780 2781 2782 2783 2784 2785 2786 2787 2788 2789 2790 2791 2792 2793 2794 2795 2796 2797 2798 2799 2800 2801 2802 2803 2804 2805 2806 2807 2808 2809 2810 2811 2812 2813 2814 2815 2816 2817 2818 2819 2820 2821 2822 2823 2824 2825 2826 2827 2828 2829 2830 2831 2832 2833 2834 2835 2836 2837 2838 2839 2840 2841 2842 2843 2844 2845 2846 2847 2848 2849 2850 2851 2852 2853 2854 2855 2856 2857 2858 2859 2860 2861 2862 2863 2864 2865 2866 2867 2868 2869 2870 2871 2872 2873 2874 2875 2876 2877 2878 2879 2880 2881 2882 2883 2884 2885 2886 2887 2888 2889 2890 2891 2892 2893 2894 2895 2896 2897 2898 2899 2900 2901 2902 2903 2904 2905 2906 2907 2908 2909 2910 2911 2912 2913 2914 2915 2916 2917 2918 2919 2920 2921 2922 2923 2924 2925 2926 2927 2928 2929 2930 2931 2932 2933 2934 2935 2936 2937 2938 2939 2940 2941 2942 2943 2944 2945 2946 2947 2948 2949 2950 2951 2952 2953 2954 2955 2956 2957 2958 2959 2960 2961 2962 2963 2964 2965 2966 2967 2968 2969 2970 2971 2972 2973 2974 2975 2976 2977 2978 2979 2980 2981 2982 2983 2984 2985 2986 2987 2988 2989 2990 2991 2992 2993 2994 2995 2996 2997 2998 2999 3000 3001 3002 3003 3004 3005 3006 3007 3008 3009 3010 3011 3012 3013 3014 3015 3016 3017 3018 3019 3020 3021 3022 3023 3024 3025 3026 3027 3028 3029 3030 3031 3032 3033 3034 3035 3036 3037 3038 3039 3040 3041 3042 3043 3044 3045 3046 3047 3048 3049 3050 3051 3052 3053 3054 3055 3056 3057 3058 3059 3060 3061 3062 3063 3064 3065 3066 3067 3068 3069 3070 3071 3072 3073 3074 3075 3076 3077 3078 3079 3080 3081 3082 3083 3084 3085 3086 3087 3088 3089 3090 3091 3092 3093 3094 3095 3096 3097 3098 3099 3100 3101 3102 3103 3104 3105 3106 3107 3108 3109 3110 3111 3112 3113 3114 3115 3116 3117 3118 3119 3120 3121 3122 3123 3124 3125 3126 3127 3128 3129 3130 3131 3132 3133 3134 3135 3136 3137 3138 3139 3140 3141 3142 3143 3144 3145 3146 3147 3148 3149 3150 3151 3152 3153 3154 3155 3156 3157 3158 3159 3160 3161 3162 3163 3164 3165 3166 3167 3168 3169 3170 3171 3172 3173 3174 3175 3176 3177 3178 3179 3180 3181 3182 3183 3184 3185 3186 3187 3188 3189 3190 3191 3192 3193 3194 3195 3196 3197 3198 3199 3200 3201 3202 3203 3204 3205 3206 3207 3208 3209 3210 3211 3212 3213 3214 3215 3216 3217 3218 3219 3220 3221 3222 3223 3224 3225 3226 3227 3228 3229 3230 3231 3232 3233 3234 3235 3236 3237 3238 3239 3240 3241 3242 3243 3244 3245 3246 3247 3248 3249 3250 3251 3252 3253 3254 3255 3256 3257 3258 3259 3260 3261 3262 3263 3264 3265 3266 3267 3268 3269 3270 3271 3272 3273 3274 3275 3276 3277 3278 3279 3280 3281 3282 3283 3284 3285 3286 3287 3288 3289 3290 3291 3292 3293 3294 3295 3296 3297 3298 3299 3300 3301 3302 3303 3304 3305 3306 3307 3308 3309 3310 3311 3312 3313 3314 3315 3316 3317 3318 3319 3320 3321 3322 3323 3324 3325 3326 3327 3328 3329 3330 3331 3332 3333 3334 3335 3336 3337 3338 3339 3340 3341 3342 3343 3344 3345 3346 3347 3348 3349 3350 3351 3352 3353 3354 3355 3356 3357 3358 3359 3360 3361 3362 3363 3364 3365 3366 3367 3368 3369 3370 3371 3372 3373 3374 3375 3376 3377 3378 3379 3380 3381 3382 3383 3384 3385 3386 3387 3388 3389 3390 3391 3392 3393 3394 3395 3396 3397 3398 3399 3400 3401 3402 3403 3404 3405 3406 3407 3408 3409 3410 3411 3412 3413 3414 3415 3416 3417 3418 3419 3420 3421 3422 3423 3424 3425 3426 3427 3428 3429 3430 3431 3432 3433 3434 3435 3436 3437 3438 3439 3440 3441 3442 3443 3444 3445 3446 3447 3448 3449 3450 3451 3452 3453 3454 3455 3456 3457 3458 3459 3460 3461 3462 3463 3464 3465 3466 3467 3468 3469 3470 3471 3472 3473 3474 3475 3476 3477 3478 3479 3480 3481 3482 3483 3484 3485 3486 3487 3488 3489 3490 3491 3492 3493 3494 3495 3496 3497 3498 3499 3500 3501 3502 3503 3504 3505 3506 3507 3508 3509 3510 3511 3512 3513 3514 3515 3516 3517 3518 3519 3520 3521 3522 3523 3524 3525 3526 3527 3528 3529 3530 3531 3532 3533 3534 3535 3536 3537 3538 3539 3540 3541 3542 3543 3544 3545 3546 3547 3548 3549 3550 3551 3552 3553 3554 3555 3556 3557 3558 3559 3560 3561 3562 3563 3564 3565 3566 3567 3568 3569 3570 3571 3572 3573 3574 3575 3576 3577 3578 3579 3580 3581 3582 3583 3584 3585 3586 3587 3588 3589 3590 3591 3592 3593 3594 3595 3596 3597 3598 3599 3600 3601 3602 3603 3604 3605 3606 3607 3608 3609 3610 3611 3612 3613 3614 3615 3616 3617 3618 3619 3620 3621 3622 3623 3624 3625 3626 3627 3628 3629 3630 3631 3632 3633 3634 3635 3636 3637 3638 3639 3640 3641 3642 3643 3644 3645 3646 3647 3648 3649 3650 3651 3652 3653 3654 3655 3656 3657 3658 3659 3660 3661 3662 3663 3664 3665 3666 3667 3668 3669 3670 3671 3672 3673 3674 3675 3676 3677 3678 3679 3680 3681 3682 3683 3684 3685 3686 3687 3688 3689 3690 3691 3692 3693 3694 3695 3696 3697 3698 3699 3700 3701 3702 3703 3704 3705 3706 3707 3708 3709 3710 3711 3712 3713 3714 3715 3716 3717 3718 3719 3720 3721 3722 3723 3724 3725 3726 3727 3728 3729 3730 3731 3732 3733 3734 3735 3736 3737 3738 3739 3740 3741 3742 3743 3744 3745 3746 3747 3748 3749 3750 3751 3752 3753 3754 3755 3756 3757 3758 3759 3760 3761 3762 3763 3764 3765 3766 3767 3768 3769 3770 3771 3772 3773 3774 3775 3776 3777 3778 3779 3780 3781 3782 3783 3784 3785 3786 3787 3788 3789 3790 3791 3792 3793 3794 3795 3796 3797 3798 3799 3800 3801 3802 3803 3804 3805 3806 3807 3808 3809 3810 3811 3812 3813 3814 3815 3816 3817 3818 3819 3820 3821 3822 3823 3824 3825 3826 3827 3828 3829 3830 3831 3832 3833 3834 3835 3836 3837 3838 3839 3840 3841 3842 3843 3844 3845 3846 3847 3848 3849 3850 3851 3852 3853 3854 3855 3856 3857 3858 3859 3860 3861 3862 3863 3864 3865 3866 3867 3868 3869 3870 3871 3872 3873 3874 3875 3876 3877 3878 3879 3880 3881 3882 3883 3884 3885 3886 3887 3888 3889 3890 3891 3892 3893 3894 3895 3896 3897 3898 3899 3900 3901 3902 3903 3904 3905 3906 3907 3908 3909 3910 3911 3912 3913 3914 3915 3916 3917 3918 3919 3920 3921 3922 3923 3924 3925 3926 3927 3928 3929 3930 3931 3932 3933 3934 3935 3936 3937 3938 3939 3940 3941 3942 3943 3944 3945 3946 3947 3948 3949 3950 3951 3952 3953 3954 3955 3956 3957 3958 3959 3960 3961 3962 3963 3964 3965 3966 3967 3968 3969 3970 3971 3972 3973 3974 3975 3976 3977 3978 3979 3980 3981 3982 3983 3984 3985 3986 3987 3988 3989 3990 3991 3992 3993 3994 3995 3996 3997 3998 3999 4000 4001 4002 4003 4004 4005 4006 4007 4008 4009 4010 4011 4012 4013 4014 4015 4016 4017 4018 4019 4020 4021 4022 4023 4024 4025 4026 4027 4028 4029 4030 4031 4032 4033 4034 4035 4036 4037 4038 4039 4040 4041 4042 4043 4044 4045 4046 4047 4048 4049 4050 4051 4052 4053 4054 4055 4056 4057 4058 4059 4060 4061 4062 4063 4064 4065 4066 4067 4068 4069 4070 4071 4072 4073 4074 4075 4076 4077 4078 4079 4080 4081 4082 4083 4084 4085 4086 4087 4088 4089 4090 4091 4092 4093 4094 4095 4096 4097 4098 4099 4100 4101 4102 4103 4104 4105 4106 4107 4108 4109 4110 4111 4112 4113 4114 4115 4116 4117 4118 4119 4120 4121 4122 4123 4124 4125 4126 4127 4128 4129 4130 4131 4132 4133 4134 4135 4136 4137 4138 4139 4140 4141 4142 4143 4144 4145 4146 4147 4148 4149 4150 4151 4152 4153 4154 4155 4156 4157 4158 4159 4160 4161 4162 4163 4164 4165 4166 4167 4168 4169 4170 4171 4172 4173 4174 4175 4176 4177 4178 4179 4180 4181 4182 4183 4184 4185 4186 4187 4188 4189 4190 4191 4192 4193 4194 4195 4196 4197 4198 4199 4200 4201 4202 4203 4204 4205 4206 4207 4208 4209 4210 4211 4212 4213 4214 4215 4216 4217 4218 4219 4220 4221 4222 4223 4224 4225 4226 4227 4228 4229 4230 4231 4232 4233 4234 4235 4236 4237 4238 4239 4240 4241 4242 4243 4244 4245 4246 4247 4248 4249 4250 4251 4252 4253 4254 4255 4256 4257 4258 4259 4260 4261 4262 4263 4264 4265 4266 4267 4268 4269 4270 4271 4272 4273 4274 4275 4276 4277 4278 4279 4280 4281 4282 4283 4284 4285 4286 4287 4288 4289 4290 4291 4292 4293 4294 4295 4296 4297 4298 4299 4300 4301 4302 4303 4304 4305 4306 4307 4308 4309 4310 4311 4312 4313 4314 4315 4316 4317 4318 4319 4320 4321 4322 4323 4324 4325 4326 4327 4328 4329 4330 4331 4332 4333 4334 4335 4336 4337 4338 4339 4340 4341 4342 4343 4344 4345 4346 4347 4348 4349 4350 4351 4352 4353 4354 4355 4356 4357 4358 4359 4360 4361 4362 4363 4364 4365 4366 4367 4368 4369 4370 4371 4372 4373 4374 4375 4376 4377 4378 4379 4380 4381 4382 4383 4384 4385 4386 4387 4388 4389 4390 4391 4392 4393 4394 4395 4396 4397 4398 4399 4400 4401 4402 4403 4404 4405 4406 4407 4408 4409 4410 4411 4412 4413 4414 4415 4416 4417 4418 4419 4420 4421 4422 4423 4424 4425 4426 4427 4428 4429 4430 4431 4432 4433 4434 4435 4436 4437 4438 4439 4440 4441 4442 4443 4444 4445 4446 4447 4448 4449 4450 4451 4452 4453 4454 4455 4456 4457 4458 4459 4460 4461 4462 4463 4464 4465 4466 4467 4468 4469 4470 4471 4472 4473 4474 4475 4476 4477 4478 4479 4480 4481 4482 4483 4484 4485 4486 4487 4488 4489 4490 4491 4492 4493 4494 4495 4496 4497 4498 4499 4500 4501 4502 4503 4504 4505 4506 4507 4508 4509 4510 4511 4512 4513 4514 4515 4516 4517 4518 4519 4520 4521 4522 4523 4524 4525 4526 4527 4528 4529 4530 4531 4532 4533 4534 4535 4536 4537 4538 4539 4540 4541 4542 4543 4544 4545 4546 4547 4548 4549 4550 4551 4552 4553 4554 4555 4556 4557 4558 4559 4560 4561 4562 4563 4564 4565 4566 4567 4568 4569 4570 4571 4572 4573 4574 4575 4576 4577 4578 4579 4580 4581 4582 4583 4584 4585 4586 4587 4588 4589 4590 4591 4592 4593 4594 4595 4596 4597 4598 4599 4600 4601 4602 4603 4604 4605 4606 4607 4608 4609 4610 4611 4612 4613 4614 4615 4616 4617 4618 4619 4620 4621 4622 4623 4624 4625 4626 4627 4628 4629 4630 4631 4632 4633 4634 4635 4636 4637 4638 4639 4640 4641 4642 4643 4644 4645 4646 4647 4648 4649 4650 4651 4652 4653 4654 4655 4656 4657 4658 4659 4660 4661 4662 4663 4664 4665 4666 4667 4668 4669 4670 4671 4672 4673 4674 4675 4676 4677 4678 4679 4680 4681 4682 4683 4684 4685 4686 4687 4688 4689 4690 4691 4692 4693 4694 4695 4696 4697 4698 4699 4700 4701 4702 4703 4704 4705 4706 4707 4708 4709 4710 4711 4712 4713 4714 4715 4716 4717 4718 4719 4720 4721 4722 4723 4724 4725 4726 4727 4728 4729 4730 4731 4732 4733 4734 4735 4736 4737 4738 4739 4740 4741 4742 4743 4744 4745 4746 4747 4748 4749 4750 4751 4752 4753 4754 4755 4756 4757 4758 4759 4760 4761 4762 4763 4764 4765 4766 4767 4768 4769 4770 4771 4772 4773 4774 4775 4776 4777 4778 4779 4780 4781 4782 4783 4784 4785 4786 4787 4788 4789 4790 4791 4792 4793 4794 4795 4796 4797 4798 4799 4800 4801 4802 4803 4804 4805 4806 4807 4808 4809 4810 4811 4812 4813 4814 4815 4816 4817 4818 4819 4820 4821 4822 4823 4824 4825 4826 4827 4828 4829 4830 4831 4832 4833 4834 4835 4836 4837 4838 4839 4840 4841 4842 4843 4844 4845 4846 4847 4848 4849 4850 4851 4852 4853 4854 4855 4856 4857 4858 4859 4860 4861 4862 4863 4864 4865 4866 4867 4868 4869 4870 4871 4872 4873 4874 4875 4876 4877 4878 4879 4880 4881 4882 4883 4884 4885 4886 4887 4888 4889 4890 4891 4892 4893 4894 4895 4896 4897 4898 4899 4900 4901 4902 4903 4904 4905 4906 4907 4908 4909 4910 4911 4912 4913 4914 4915 4916 4917 4918 4919 4920 4921 4922 4923 4924 4925 4926 4927 4928 4929 4930 4931 4932 4933 4934 4935 4936 4937 4938 4939 4940 4941 4942 4943 4944 4945 4946 4947 4948 4949 4950 4951 4952 4953 4954 4955 4956 4957 4958 4959 4960 4961 4962 4963 4964 4965 4966 4967 4968 4969 4970 4971 4972 4973 4974 4975 4976 4977 4978 4979 4980 4981 4982 4983 4984 4985 4986 4987 4988 4989 4990 4991 4992 4993 4994 4995 4996 4997 4998 4999 5000 5001 5002 5003 5004 5005 5006 5007 5008 5009 5010 5011 5012 5013 5014 5015 5016 5017 5018 5019 5020 5021 5022 5023 5024 5025 5026 5027 5028 5029 5030 5031 5032 5033 5034 5035 5036 5037 5038 5039 5040 5041 5042 5043 5044 5045 5046 5047 5048 5049 5050 5051 5052 5053 5054 5055 5056 5057 5058 5059 5060 5061 5062 5063 5064 5065 5066 5067 5068 5069 5070 5071 5072 5073 5074 5075 5076 5077 5078 5079 5080 5081 5082 5083 5084 5085 5086 5087 5088 5089 5090 5091 5092 5093 5094 5095 5096 5097 5098 5099 5100 5101 5102 5103 5104 5105 5106 5107 5108 5109 5110 5111 5112 5113 5114 5115 5116 5117 5118 5119 5120 5121 5122 5123 5124 5125 5126 5127 5128 5129 5130 5131 5132 5133 5134 5135 5136 5137 5138 5139 5140 5141 5142 5143 5144 5145 5146 5147 5148 5149 5150 5151 5152 5153 5154 5155 5156 5157 5158 5159 5160 5161 5162 5163 5164 5165 5166 5167 5168 5169 5170 5171 5172 5173 5174 5175 5176 5177 5178 5179 5180 5181 5182 5183 5184 5185 5186 5187 5188 5189 5190 5191 5192 5193 5194 5195 5196 5197 5198 5199 5200 5201 5202 5203 5204 5205 5206 5207 5208 5209 5210 5211 5212 5213 5214 5215 5216 5217 5218 5219 5220 5221 5222 5223 5224 5225 5226 5227 5228 5229 5230 5231 5232 5233 5234 5235 5236 5237 5238 5239 5240 5241 5242 5243 5244 5245 5246 5247 5248 5249 5250 5251 5252 5253 5254 5255 5256 5257 5258 5259 5260 5261 5262 5263 5264 5265 5266 5267 5268 5269 5270 5271 5272 5273 5274 5275 5276 5277 5278 5279 5280 5281 5282 5283 5284 5285 5286 5287 5288 5289 5290 5291 5292 5293 5294 5295 5296 5297 5298 5299 5300 5301 5302 5303 5304 5305 5306 5307 5308 5309 5310 5311 5312 5313 5314 5315 5316 5317 5318 5319 5320 5321 5322 5323 5324 5325 5326 5327 5328 5329 5330 5331 5332 5333 5334 5335 5336 5337 5338 5339 5340 5341 5342 5343 5344 5345 5346 5347 5348 5349 5350 5351 5352 5353 5354 5355 5356 5357 5358 5359 5360 5361 5362 5363 5364 5365 5366 5367 5368 5369 5370 5371 5372 5373 5374 5375 5376 5377 5378 5379 5380 5381 5382 5383 5384 5385 5386 5387 5388 5389 5390 5391 5392 5393 5394 5395 5396 5397 5398 5399 5400 5401 5402 5403 5404 5405 5406 5407 5408 5409 5410 5411 5412 5413 5414 5415 5416 5417 5418 5419 5420 5421 5422 5423 5424 5425 5426 5427 5428 5429 5430 5431 5432 5433 5434 5435 5436 5437 5438 5439 5440 5441 5442 5443 5444 5445 5446 5447 5448 5449 5450 5451 5452 5453 5454 5455 5456 5457 5458 5459 5460 5461 5462 5463 5464 5465 5466 5467 5468 5469 5470 5471 5472 5473 5474 5475 5476 5477 5478 5479 5480 5481 5482 5483 5484 5485 5486 5487 5488 5489 5490 5491 5492 5493 5494 5495 5496 5497 5498 5499 5500 5501 5502 5503 5504 5505 5506 5507 5508 5509 5510 5511 5512 5513 5514 5515 5516 5517 5518 5519 5520 5521 5522 5523 5524 5525 5526 5527 5528 5529 5530 5531 5532 5533 5534 5535 5536 5537 5538 5539 5540 5541 5542 5543 5544 5545 5546 5547 5548 5549 5550 5551 5552 5553 5554 5555 5556 5557 5558 5559 5560 5561 5562 5563 5564 5565 5566 5567 5568 5569 5570 5571 5572 5573 5574 5575 5576 5577 5578 5579 5580 5581 5582 5583 5584 5585 5586 5587 5588 5589 5590 5591 5592 5593 5594 5595 5596 5597 5598 5599 5600 5601 5602 5603 5604 5605 5606 5607 5608 5609 5610 5611 5612 5613 5614 5615 5616 5617 5618 5619 5620 5621 5622 5623 5624 5625 5626 5627 5628 5629 5630 5631 5632 5633 5634 5635 5636 5637 5638 5639 5640 5641 5642 5643 5644 5645 5646 5647 5648 5649 5650 5651 5652 5653 5654 5655 5656 5657 5658 5659 5660 5661 5662 5663 5664 5665 5666 5667 5668 5669 5670 5671 5672 5673 5674 5675 5676 5677 5678 5679 5680 5681 5682 5683 5684 5685 5686 5687 5688 5689 5690 5691 5692 5693 5694 5695 5696 5697 5698 5699 5700 5701 5702 5703 5704 5705 5706 5707 5708 5709 5710 5711 5712 5713 5714 5715 5716 5717 5718 5719 5720 5721 5722 5723 5724 5725 5726 5727 5728 5729 5730 5731 5732 5733 5734 5735 5736 5737 5738 5739 5740 5741 5742 5743 5744 5745 5746 5747 5748 5749 5750 5751 5752 5753 5754 5755 5756 5757 5758 5759 5760 5761 5762 5763 5764 5765 5766 5767 5768 5769 5770 5771 5772 5773 5774 5775 5776 5777 5778 5779 5780 5781 5782 5783 5784 5785 5786 5787 5788 5789 5790 5791 5792 5793 5794 5795 5796 5797 5798 5799 5800 5801 5802 5803 5804 5805 5806 5807 5808 5809 5810 5811 5812 5813 5814 5815 5816 5817 5818 5819 5820 5821 5822 5823 5824 5825 5826 5827 5828 5829 5830 5831 5832 5833 5834 5835 5836 5837 5838 5839 5840 5841 5842 5843 5844 5845 5846 5847 5848 5849 5850 5851 5852 5853 5854 5855 5856 5857 5858 5859 5860 5861 5862 5863 5864 5865 5866 5867 5868 5869 5870 5871 5872 5873 5874 5875 5876 5877 5878 5879 5880 5881 5882 5883 5884 5885 5886 5887 5888 5889 5890 5891 5892 5893 5894 5895 5896 5897 5898 5899 5900 5901 5902 5903 5904 5905 5906 5907 5908 5909 5910 5911 5912 5913 5914 5915 5916 5917 5918 5919 5920 5921 5922 5923 5924 5925 5926 5927 5928 5929 5930 5931 5932 5933 5934 5935 5936 5937 5938 5939 5940 5941 5942 5943 5944 5945 5946 5947 5948 5949 5950 5951 5952 5953 5954 5955 5956 5957 5958 5959 5960 5961 5962 5963 5964 5965 5966 5967 5968 5969 5970 5971 5972 5973 5974 5975 5976 5977 5978 5979 5980 5981 5982 5983 5984 5985 5986 5987 5988 5989 5990 5991 5992 5993 5994 5995 5996 5997 5998 5999 6000 6001 6002 6003 6004 6005 6006 6007 6008 6009 6010 6011 6012 6013 6014 6015 6016 6017 6018 6019 6020 6021 6022 6023 6024 6025 6026 6027 6028 6029 6030 6031 6032 6033 6034 6035 6036 6037 6038 6039 6040 6041 6042 6043 6044 6045 6046 6047 6048 6049 6050 6051 6052 6053 6054 6055 6056 6057 6058 6059 6060 6061 6062 6063 6064 6065 6066 6067 6068 6069 6070 6071 6072 6073 6074 6075 6076 6077 6078 6079 6080 6081 6082 6083 6084 6085 6086 6087 6088 6089 6090 6091 6092 6093 6094 6095 6096 6097 6098 6099 6100 6101 6102 6103 6104 6105 6106 6107 6108 6109 6110 6111 6112 6113 6114 6115 6116 6117 6118 6119 6120 6121 6122 6123 6124 6125 6126 6127 6128 6129 6130 6131 6132 6133 6134 6135 6136 6137 6138 6139 6140 6141 6142 6143 6144 6145 6146 6147 6148 6149 6150 6151 6152 6153 6154 6155 6156 6157 6158 6159 6160 6161 6162 6163 6164 6165 6166 6167 6168 6169 6170 6171 6172 6173 6174 6175 6176 6177 6178 6179 6180 6181 6182 6183 6184 6185 6186 6187 6188 6189 6190 6191 6192 6193 6194 6195 6196 6197 6198 6199 6200 6201 6202 6203 6204 6205 6206 6207 6208 6209 6210 6211 6212 6213 6214 6215 6216 6217 6218 6219 6220 6221 6222 6223 6224 6225 6226 6227 6228 6229 6230 6231 6232 6233 6234 6235 6236 6237 6238 6239 6240 6241 6242 6243 6244 6245 6246 6247 6248 6249 6250 6251 6252 6253 6254 6255 6256 6257 6258 6259 6260 6261 6262 6263 6264 6265 6266 6267 6268 6269 6270 6271 6272 6273 6274 6275 6276 6277 6278 6279 6280 6281 6282 6283 6284 6285 6286 6287 6288 6289 6290 6291 6292 6293 6294 6295 6296 6297 6298 6299 6300 6301 6302 6303 6304 6305 6306 6307 6308 6309 6310 6311 6312 6313 6314 6315 6316 6317 6318 6319 6320 6321 6322 6323 6324 6325 6326 6327 6328 6329 6330 6331 6332 6333 6334 6335 6336 6337 6338 6339 6340 6341 6342 6343 6344 6345 6346 6347 6348 6349 6350 6351 6352 6353 6354 6355 6356 6357 6358 6359 6360 6361 6362 6363 6364 6365 6366 6367 6368 6369 6370 6371 6372 6373 6374 6375 6376 6377 6378 6379 6380 6381 6382 6383 6384 6385 6386 6387 6388 6389 6390 6391 6392 6393 6394 6395 6396 6397 6398 6399 6400 6401 6402 6403 6404 6405 6406 6407 6408 6409 6410 6411 6412 6413 6414 6415 6416 6417 6418 6419 6420 6421 6422 6423 6424 6425 6426 6427 6428 6429 6430 6431 6432 6433 6434 6435 6436 6437 6438 6439 6440 6441 6442 6443 6444 6445 6446 6447 6448 6449 6450 6451 6452 6453 6454 6455 6456 6457 6458 6459 6460 6461 6462 6463 6464 6465 6466 6467 6468 6469 6470 6471 6472 6473 6474 6475 6476 6477 6478 6479 6480 6481 6482 6483 6484 6485 6486 6487 6488 6489 6490 6491 6492 6493 6494 6495 6496 6497 6498 6499 6500 6501 6502 6503 6504 6505 6506 6507 6508 6509 6510 6511 6512 6513 6514 6515 6516 6517 6518 6519 6520 6521 6522 6523 6524 6525 6526 6527 6528 6529 6530 6531 6532 6533 6534 6535 6536 6537 6538 6539 6540 6541 6542 6543 6544 6545 6546 6547 6548 6549 6550 6551 6552 6553 6554 6555 6556 6557 6558 6559 6560 6561 6562 6563 6564 6565 6566 6567 6568 6569 6570 6571 6572 6573 6574 6575 6576 6577 6578 6579 6580 6581 6582 6583 6584 6585 6586 6587 6588 6589 6590 6591 6592 6593 6594 6595 6596 6597 6598 6599 6600 6601 6602 6603 6604 6605 6606 6607 6608 6609 6610 6611 6612 6613 6614 6615 6616 6617 6618 6619 6620 6621 6622 6623 6624 6625 6626 6627 6628 6629 6630 6631 6632 6633 6634 6635 6636 6637 6638 6639 6640 6641 6642 6643 6644 6645 6646 6647 6648 6649 6650 6651 6652 6653 6654 6655 6656 6657 6658 6659 6660 6661 6662 6663 6664 6665 6666 6667 6668 6669 6670 6671 6672 6673 6674 6675 6676 6677 6678 6679 6680 6681 6682 6683 6684 6685 6686 6687 6688 6689 6690 6691 6692 6693 6694 6695 6696 6697 6698 6699 6700 6701 6702 6703 6704 6705 6706 6707 6708 6709 6710 6711 6712 6713 6714 6715 6716 6717 6718 6719 6720 6721 6722 6723 6724 6725 6726 6727 6728 6729 6730 6731 6732 6733 6734 6735 6736 6737 6738 6739 6740 6741 6742 6743 6744 6745 6746 6747 6748 6749 6750 6751 6752 6753 6754 6755 6756 6757 6758 6759 6760 6761 6762 6763 6764 6765 6766 6767 6768 6769 6770 6771 6772 6773 6774 6775 6776 6777 6778 6779 6780 6781 6782 6783 6784 6785 6786 6787 6788 6789 6790 6791 6792 6793 6794 6795 6796 6797 6798 6799 6800 6801 6802 6803 6804 6805 6806 6807 6808 6809 6810 6811 6812 6813 6814 6815 6816 6817 6818 6819 6820 6821 6822 6823 6824 6825 6826 6827 6828 6829 6830 6831 6832 6833 6834 6835 6836 6837 6838 6839 6840 6841 6842 6843 6844 6845 6846 6847 6848 6849 6850 6851 6852 6853 6854 6855 6856 6857 6858 6859 6860 6861 6862 6863 6864 6865 6866 6867 6868 6869 6870 6871 6872 6873 6874 6875 6876 6877 6878 6879 6880 6881 6882 6883 6884 6885 6886 6887 6888 6889 6890 6891 6892 6893 6894 6895 6896 6897 6898 6899 6900 6901 6902 6903 6904 6905 6906 6907 6908 6909 6910 6911 6912 6913 6914 6915 6916 6917 6918 6919 6920 6921 6922 6923 6924 6925 6926 6927 6928 6929 6930 6931 6932 6933 6934 6935 6936 6937 6938 6939 6940 6941 6942 6943 6944 6945 6946 6947 6948 6949 6950 6951 6952 6953 6954 6955 6956 6957 6958 6959 6960 6961 6962 6963 6964 6965 6966 6967 6968 6969 6970 6971 6972 6973 6974 6975 6976 6977 6978 6979 6980 6981 6982 6983 6984 6985 6986 6987 6988 6989 6990 6991 6992 6993 6994 6995 6996 6997 6998 6999 7000 7001 7002 7003 7004 7005 7006 7007 7008 7009 7010 7011 7012 7013 7014 7015 7016 7017 7018 7019 7020 7021 7022 7023 7024 7025 7026 7027 7028 7029 7030 7031 7032 7033 7034 7035 7036 7037 7038 7039 7040 7041 7042 7043 7044 7045 7046 7047 7048 7049 7050 7051 7052 7053 7054 7055 7056 7057 7058 7059 7060 7061 7062 7063 7064 7065 7066 7067 7068 7069 7070 7071 7072 7073 7074 7075 7076 7077 7078 7079 7080 7081 7082 7083 7084 7085 7086 7087 7088 7089 7090 7091 7092 7093 7094 7095 7096 7097 7098 7099 7100 7101 7102 7103 7104 7105 7106 7107 7108 7109 7110 7111 7112 7113 7114 7115 7116 7117 7118 7119 7120 7121 7122 7123 7124 7125 7126 7127 7128 7129 7130 7131 7132 7133 7134 7135 7136 7137 7138 7139 7140 7141 7142 7143 7144 7145 7146 7147 7148 7149 7150 7151 7152 7153 7154 7155 7156 7157 7158 7159 7160 7161 7162 7163 7164 7165 7166 7167 7168 7169 7170 7171 7172 7173 7174 7175 7176 7177 7178 7179 7180 7181 7182 7183 7184 7185 7186 7187 7188 7189 7190 7191 7192 7193 7194 7195 7196 7197 7198 7199 7200 7201 7202 7203 7204 7205 7206 7207 7208 7209 7210 7211 7212 7213 7214 7215 7216 7217 7218 7219 7220 7221 7222 7223 7224 7225 7226 7227 7228 7229 7230 7231 7232 7233 7234 7235 7236 7237 7238 7239 7240 7241 7242 7243 7244 7245 7246 7247 7248 7249 7250 7251 7252 7253 7254 7255 7256 7257 7258 7259 7260 7261 7262 7263 7264 7265 7266 7267 7268 7269 7270 7271 7272 7273 7274 7275 7276 7277 7278 7279 7280 7281 7282 7283 7284 7285 7286 7287 7288 7289 7290 7291 7292 7293 7294 7295 7296 7297 7298 7299 7300 7301 7302 7303 7304 7305 7306 7307 7308 7309 7310 7311 7312 7313 7314 7315 7316 7317 7318 7319 7320 7321 7322 7323 7324 7325 7326 7327 7328 7329 7330 7331 7332 7333 7334 7335 7336 7337 7338 7339 7340 7341 7342 7343 7344 7345 7346 7347 7348 7349 7350 7351 7352 7353 7354 7355 7356 7357 7358 7359 7360 7361 7362 7363 7364 7365 7366 7367 7368 7369 7370 7371 7372 7373 7374 7375 7376 7377 7378 7379 7380 7381 7382 7383 7384 7385 7386 7387 7388 7389 7390 7391 7392 7393 7394 7395 7396 7397 7398 7399 7400 7401 7402 7403 7404 7405 7406 7407 7408 7409 7410 7411 7412 7413 7414 7415 7416 7417 7418 7419 7420 7421 7422 7423 7424 7425 7426 7427 7428 7429 7430 7431 7432 7433 7434 7435 7436 7437 7438 7439 7440 7441 7442 7443 7444 7445 7446 7447 7448 7449 7450 7451 7452 7453 7454 7455 7456 7457 7458 7459 7460 7461 7462 7463 7464 7465 7466 7467 7468 7469 7470 7471 7472 7473 7474 7475 7476 7477 7478 7479 7480 7481 7482 7483 7484 7485 7486 7487 7488 7489 7490 7491 7492 7493 7494 7495 7496 7497 7498 7499 7500 7501 7502 7503 7504 7505 7506 7507 7508 7509 7510 7511 7512 7513 7514 7515 7516 7517 7518 7519 7520 7521 7522 7523 7524 7525 7526 7527 7528 7529 7530 7531 7532 7533 7534 7535 7536 7537 7538 7539 7540 7541 7542 7543 7544 7545 7546 7547 7548 7549 7550 7551 7552 7553 7554 7555 7556 7557 7558 7559 7560 7561 7562 7563 7564 7565 7566 7567 7568 7569 7570 7571 7572 7573 7574 7575 7576 7577 7578 7579 7580 7581 7582 7583 7584 7585 7586 7587 7588 7589 7590 7591 7592 7593 7594 7595 7596 7597 7598 7599 7600 7601 7602 7603 7604 7605 7606 7607 7608 7609 7610 7611 7612 7613 7614 7615 7616 7617 7618 7619 7620 7621 7622 7623 7624 7625 7626 7627 7628 7629 7630 7631 7632 7633 7634 7635 7636 7637 7638 7639 7640 7641 7642 7643 7644 7645 7646 7647 7648 7649 7650 7651 7652 7653 7654 7655 7656 7657 7658 7659 7660 7661 7662 7663 7664 7665 7666 7667 7668 7669 7670 7671 7672 7673 7674 7675 7676 7677 7678 7679 7680 7681 7682 7683 7684 7685 7686 7687 7688 7689 7690 7691 7692 7693 7694 7695 7696 7697 7698 7699 7700 7701 7702 7703 7704 7705 7706 7707 7708 7709 7710 7711 7712 7713 7714 7715 7716 7717 7718 7719 7720 7721 7722 7723 7724 7725 7726 7727 7728 7729 7730 7731 7732 7733 7734 7735 7736 7737 7738 7739 7740 7741 7742 7743 7744 7745 7746 7747 7748 7749 7750 7751 7752 7753 7754 7755 7756 7757 7758 7759 7760 7761 7762 7763 7764 7765 7766 7767 7768 7769 7770 7771 7772 7773 7774 7775 7776 7777 7778 7779 7780 7781 7782 7783 7784 7785 7786 7787 7788 7789 7790 7791 7792 7793 7794 7795 7796 7797 7798 7799 7800 7801 7802 7803 7804 7805 7806 7807 7808 7809 7810 7811 7812 7813 7814 7815 7816 7817 7818 7819 7820 7821 7822 7823 7824 7825 7826 7827 7828 7829 7830 7831 7832 7833 7834 7835 7836 7837 7838 7839 7840 7841 7842 7843 7844 7845 7846 7847 7848 7849 7850 7851 7852 7853 7854 7855 7856 7857 7858 7859 7860 7861 7862 7863 7864 7865 7866 7867 7868 7869 7870 7871 7872 7873 7874 7875 7876 7877 7878 7879 7880 7881 7882 7883 7884 7885 7886 7887 7888 7889 7890 7891 7892 7893 7894 7895 7896 7897 7898 7899 7900 7901 7902 7903 7904 7905 7906 7907 7908 7909 7910 7911 7912 7913 7914 7915 7916 7917 7918 7919 7920 7921 7922 7923 7924 7925 7926 7927 7928 7929 7930 7931 7932 7933 7934 7935 7936 7937 7938 7939 7940 7941 7942 7943 7944 7945 7946 7947 7948 7949 7950 7951 7952 7953 7954 7955 7956 7957 7958 7959 7960 7961 7962 7963 7964 7965 7966 7967 7968 7969 7970 7971 7972 7973 7974 7975 7976 7977 7978 7979 7980 7981 7982 7983 7984 7985 7986 7987 7988 7989 7990 7991 7992 7993 7994 7995 7996 7997 7998 7999 8000 8001 8002 8003 8004 8005 8006 8007 8008 8009 8010 8011 8012 8013 8014 8015 8016 8017 8018 8019 8020 8021 8022 8023 8024 8025 8026 8027 8028 8029 8030 8031 8032 8033 8034 8035 8036 8037 8038 8039 8040 8041 8042 8043 8044 8045 8046 8047 8048 8049 8050 8051 8052 8053 8054 8055 8056 8057 8058 8059 8060 8061 8062 8063 8064 8065 8066 8067 8068 8069 8070 8071 8072 8073 8074 8075 8076 8077 8078 8079 8080 8081 8082 8083 8084 8085 8086 8087 8088 8089 8090 8091 8092 8093 8094 8095 8096 8097 8098 8099 8100 8101 8102 8103 8104 8105 8106 8107 8108 8109 8110 8111 8112 8113 8114 8115 8116 8117 8118 8119 8120 8121 8122 8123 8124 8125 8126 8127 8128 8129 8130 8131 8132 8133 8134 8135 8136 8137 8138 8139 8140 8141 8142 8143 8144 8145 8146 8147 8148 8149 8150 8151 8152 8153 8154 8155 8156 8157 8158 8159 8160 8161 8162 8163 8164 8165 8166 8167 8168 8169 8170 8171 8172 8173 8174 8175 8176 8177 8178 8179 8180 8181 8182 8183 8184 8185 8186 8187 8188 8189 8190 8191 8192 8193 8194 8195 8196 8197 8198 8199 8200 8201 8202 8203 8204 8205 8206 8207 8208 8209 8210 8211 8212 8213 8214 8215 8216 8217 8218 8219 8220 8221 8222 8223 8224 8225 8226 8227 8228 8229 8230 8231 8232 8233 8234 8235 8236 8237 8238 8239 8240 8241 8242 8243 8244 8245 8246 8247 8248 8249 8250 8251 8252 8253 8254 8255 8256 8257 8258 8259 8260 8261 8262 8263 8264 8265 8266 8267 8268 8269 8270 8271 8272 8273 8274 8275 8276 8277 8278 8279 8280 8281 8282 8283 8284 8285 8286 8287 8288 8289 8290 8291 8292 8293 8294 8295 8296 8297 8298 8299 8300 8301 8302 8303 8304 8305 8306 8307 8308 8309 8310 8311 8312 8313 8314 8315 8316 8317 8318 8319 8320 8321 8322 8323 8324 8325 8326 8327 8328 8329 8330 8331 8332 8333 8334 8335 8336 8337 8338 8339 8340 8341 8342 8343 8344 8345 8346 8347 8348 8349 8350 8351 8352 8353 8354 8355 8356 8357 8358 8359 8360 8361 8362 8363 8364 8365 8366 8367 8368 8369 8370 8371 8372 8373 8374 8375 8376 8377 8378 8379 8380 8381 8382 8383 8384 8385 8386 8387 8388 8389 8390 8391 8392 8393 8394 8395 8396 8397 8398 8399 8400 8401 8402 8403 8404 8405 8406 8407 8408 8409 8410 8411 8412 8413 8414 8415 8416 8417 8418 8419 8420 8421 8422 8423 8424 8425 8426 8427 8428 8429 8430 8431 8432 8433 8434 8435 8436 8437 8438 8439 8440 8441 8442 8443 8444 8445 8446 8447 8448 8449 8450 8451 8452 8453 8454 8455 8456 8457 8458 8459 8460 8461 8462 8463 8464 8465 8466 8467 8468 8469 8470 8471 8472 8473 8474 8475 8476 8477 8478 8479 8480 8481 8482 8483 8484 8485 8486 8487 8488 8489 8490 8491 8492 8493 8494 8495 8496 8497 8498 8499 8500 8501 8502 8503 8504 8505 8506 8507 8508 8509 8510 8511 8512 8513 8514 8515 8516 8517 8518 8519 8520 8521 8522 8523 8524 8525 8526 8527 8528 8529 8530 8531 8532 8533 8534 8535 8536 8537 8538 8539 8540 8541 8542 8543 8544 8545 8546 8547 8548 8549 8550 8551 8552 8553 8554 8555 8556 8557 8558 8559 8560 8561 8562 8563 8564 8565 8566 8567 8568 8569 8570 8571 8572 8573 8574 8575 8576 8577 8578 8579 8580 8581 8582 8583 8584 8585 8586 8587 8588 8589 8590 8591 8592 8593 8594 8595 8596 8597 8598 8599 8600 8601 8602 8603 8604 8605 8606 8607 8608 8609 8610 8611 8612 8613 8614 8615 8616 8617 8618 8619 8620 8621 8622 8623 8624 8625 8626 8627 8628 8629 8630 8631 8632 8633 8634 8635 8636 8637 8638 8639 8640 8641 8642 8643 8644 8645 8646 8647 8648 8649 8650 8651 8652 8653 8654 8655 8656 8657 8658 8659 8660 8661 8662 8663 8664 8665 8666 8667 8668 8669 8670 8671 8672 8673 8674 8675 8676 8677 8678 8679 8680 8681 8682 8683 8684 8685 8686 8687 8688 8689 8690 8691 8692 8693 8694 8695 8696 8697 8698 8699 8700 8701 8702 8703 8704 8705 8706 8707 8708 8709 8710 8711 8712 8713 8714 8715 8716 8717 8718 8719 8720 8721 8722 8723 8724 8725 8726 8727 8728 8729 8730 8731 8732 8733 8734 8735 8736 8737 8738 8739 8740 8741 8742 8743 8744 8745 8746 8747 8748 8749 8750 8751 8752 8753 8754 8755 8756 8757 8758 8759 8760 8761 8762 8763 8764 8765 8766 8767 8768 8769 8770 8771 8772 8773 8774 8775 8776 8777 8778 8779 8780 8781 8782 8783 8784 8785 8786 8787 8788 8789 8790 8791 8792 8793 8794 8795 8796 8797 8798 8799 8800 8801 8802 8803 8804 8805 8806 8807 8808 8809 8810 8811 8812 8813 8814 8815 8816 8817 8818 8819 8820 8821 8822 8823 8824 8825 8826 8827 8828 8829 8830 8831 8832 8833 8834 8835 8836 8837 8838 8839 8840 8841 8842 8843 8844 8845 8846 8847 8848 8849 8850 8851 8852 8853 8854 8855 8856 8857 8858 8859 8860 8861 8862 8863 8864 8865 8866 8867 8868 8869 8870 8871 8872 8873 8874 8875 8876 8877 8878 8879 8880 8881 8882 8883 8884 8885 8886 8887 8888 8889 8890 8891 8892 8893 8894 8895 8896 8897 8898 8899 8900 8901 8902 8903 8904 8905 8906 8907 8908 8909 8910 8911 8912 8913 8914 8915 8916 8917 8918 8919 8920 8921 8922 8923 8924 8925 8926 8927 8928 8929 8930 8931 8932 8933 8934 8935 8936 8937 8938 8939 8940 8941 8942 8943 8944 8945 8946 8947 8948 8949 8950 8951 8952 8953 8954 8955 8956 8957 8958 8959 8960 8961 8962 8963 8964 8965 8966 8967 8968 8969 8970 8971 8972 8973 8974 8975 8976 8977 8978 8979 8980 8981 8982 8983 8984 8985 8986 8987 8988 8989 8990 8991 8992 8993 8994 8995 8996 8997 8998 8999 9000 9001 9002 9003 9004 9005 9006 9007 9008 9009 9010 9011 9012 9013 9014 9015 9016 9017 9018 9019 9020 9021 9022 9023 9024 9025 9026 9027 9028 9029 9030 9031 9032 9033 9034 9035 9036 9037 9038 9039 9040 9041 9042 9043 9044 9045 9046 9047 9048 9049 9050 9051 9052 9053 9054 9055 9056 9057 9058 9059 9060 9061 9062 9063 9064 9065 9066 9067 9068 9069 9070 9071 9072 9073 9074 9075 9076 9077 9078 9079 9080 9081 9082 9083 9084 9085 9086 9087 9088 9089 9090 9091 9092 9093 9094 9095 9096 9097 9098 9099 9100 9101 9102 9103 9104 9105 9106 9107 9108 9109 9110 9111 9112 9113 9114 9115 9116 9117 9118 9119 9120 9121 9122 9123 9124 9125 9126 9127 9128 9129 9130 9131 9132 9133 9134 9135 9136 9137 9138 9139 9140 9141 9142 9143 9144 9145 9146 9147 9148 9149 9150 9151 9152 9153 9154 9155 9156 9157 9158 9159 9160 9161 9162 9163 9164 9165 9166 9167 9168 9169 9170 9171 9172 9173 9174 9175 9176 9177 9178 9179 9180 9181 9182 9183 9184 9185 9186 9187 9188 9189 9190 9191 9192 9193 9194 9195 9196 9197 9198 9199 9200 9201 9202 9203 9204 9205 9206 9207 9208 9209 9210 9211 9212 9213 9214 9215 9216 9217 9218 9219 9220 9221 9222 9223 9224 9225 9226 9227 9228 9229 9230 9231 9232 9233 9234 9235 9236 9237 9238 9239 9240 9241 9242 9243 9244 9245 9246 9247 9248 9249 9250 9251 9252 9253 9254 9255 9256 9257 9258 9259 9260 9261 9262 9263 9264 9265 9266 9267 9268 9269 9270 9271 9272 9273 9274 9275 9276 9277 9278 9279 9280 9281 9282 9283 9284 9285 9286 9287 9288 9289 9290 9291 9292 9293 9294 9295 9296 9297 9298 9299 9300 9301 9302 9303 9304 9305 9306 9307 9308 9309 9310 9311 9312 9313 9314 9315 9316 9317 9318 9319 9320 9321 9322 9323 9324 9325 9326 9327 9328 9329 9330 9331 9332 9333 9334 9335 9336 9337 9338 9339 9340 9341 9342 9343 9344 9345 9346 9347 9348 9349 9350 9351 9352 9353 9354 9355 9356 9357 9358 9359 9360 9361 9362 9363 9364 9365 9366 9367 9368 9369 9370 9371 9372 9373 9374 9375 9376 9377 9378 9379 9380 9381 9382 9383 9384 9385 9386 9387 9388 9389 9390 9391 9392 9393 9394 9395 9396 9397 9398 9399 9400 9401 9402 9403 9404 9405 9406 9407 9408 9409 9410 9411 9412 9413 9414 9415 9416 9417 9418 9419 9420 9421 9422 9423 9424 9425 9426 9427 9428 9429 9430 9431 9432 9433 9434 9435 9436 9437 9438 9439 9440 9441 9442 9443 9444 9445 9446 9447 9448 9449 9450 9451 9452 9453 9454 9455 9456 9457 9458 9459 9460 9461 9462 9463 9464 9465 9466 9467 9468 9469 9470 9471 9472 9473 9474 9475 9476 9477 9478 9479 9480 9481 9482 9483 9484 9485 9486 9487 9488 9489 9490 9491 9492 9493 9494 9495 9496 9497 9498 9499 9500 9501 9502 9503 9504 9505 9506 9507 9508 9509 9510 9511 9512 9513 9514 9515 9516 9517 9518 9519 9520 9521 9522 9523 9524 9525 9526 9527 9528 9529 9530 9531 9532 9533 9534 9535 9536 9537 9538 9539 9540 9541 9542 9543 9544 9545 9546 9547 9548 9549 9550 9551 9552 9553 9554 9555 9556 9557 9558 9559 9560 9561 9562 9563 9564 9565 9566 9567 9568 9569 9570 9571 9572 9573 9574 9575 9576 9577 9578 9579 9580 9581 9582 9583 9584 9585 9586 9587 9588 9589 9590 9591 9592 9593 9594 9595 9596 9597 9598 9599 9600 9601 9602 9603 9604 9605 9606 9607 9608 9609 9610 9611 9612 9613 9614 9615 9616 9617 9618 9619 9620 9621 9622 9623 9624 9625 9626 9627 9628 9629 9630 9631 9632 9633 9634 9635 9636 9637 9638 9639 9640 9641 9642 9643 9644 9645 9646 9647 9648 9649 9650 9651 9652 9653 9654 9655 9656 9657 9658 9659 9660 9661 9662 9663 9664 9665 9666 9667 9668 9669 9670 9671 9672 9673 9674 9675 9676 9677 9678 9679 9680 9681 9682 9683 9684 9685 9686 9687 9688 9689 9690 9691 9692 9693 9694 9695 9696 9697 9698 9699 9700 9701 9702 9703 9704 9705 9706 9707 9708 9709 9710 9711 9712 9713 9714 9715 9716 9717 9718 9719 9720 9721 9722 9723 9724 9725 9726 9727 9728 9729 9730 9731 9732 9733 9734 9735 9736 9737 9738 9739 9740 9741 9742 9743 9744 9745 9746 9747 9748 9749 9750 9751 9752 9753 9754 9755 9756 9757 9758 9759 9760 9761 9762 9763 9764 9765 9766 9767 9768 9769 9770 9771 9772 9773 9774 9775 9776 9777 9778 9779 9780 9781 9782 9783 9784 9785 9786 9787 9788 9789 9790 9791 9792 9793 9794 9795 9796 9797 9798 9799 9800 9801 9802 9803 9804 9805 9806 9807 9808 9809 9810 9811 9812 9813 9814 9815 9816 9817 9818 9819 9820 9821 9822 9823 9824 9825 9826 9827 9828 9829 9830 9831 9832 9833 9834 9835 9836 9837 9838 9839 9840 9841 9842 9843 9844 9845 9846 9847 9848 9849 9850 9851 9852 9853 9854 9855 9856 9857 9858 9859 9860 9861 9862 9863 9864 9865 9866 9867 9868 9869 9870 9871 9872 9873 9874 9875 9876 9877 9878 9879 9880 9881 9882 9883 9884 9885 9886 9887 9888 9889 9890 9891 9892 9893 9894 9895 9896 9897 9898 9899 9900 9901 9902 9903 9904 9905 9906 9907 9908 9909 9910 9911 9912 9913 9914 9915 9916 9917 9918 9919 9920 9921 9922 9923 9924 9925 9926 9927 9928 9929 9930 9931 9932 9933 9934 9935 9936 9937 9938 9939 9940 9941 9942 9943 9944 9945 9946 9947 9948 9949 9950 9951 9952 9953 9954 9955 9956 9957 9958 9959 9960 9961 9962 9963 9964 9965 9966 9967 9968 9969 9970 9971 9972 9973 9974 9975 9976 9977 9978 9979 9980 9981 9982 9983 9984 9985 9986 9987 9988 9989 9990 9991 9992 9993 9994 9995 9996 9997 9998 9999 10000 10001 10002 10003 10004 10005 10006 10007 10008 10009 10010 10011 10012 10013 10014 10015 10016 10017 10018 10019 10020 10021 10022 10023 10024 10025 10026 10027 10028 10029 10030 10031 10032 10033 10034 10035 10036 10037 10038 10039 10040 10041 10042 10043 10044 10045 10046 10047 10048 10049 10050 10051 10052 10053 10054 10055 10056 10057 10058 10059 10060 10061 10062 10063 10064 10065 10066 10067 10068 10069 10070 10071 10072 10073 10074 10075 10076 10077 10078 10079 10080 10081 10082 10083 10084 10085 10086 10087 10088 10089 10090 10091 10092 10093 10094 10095 10096 10097 10098 10099 10100 10101 10102 10103 10104 10105 10106 10107 10108 10109 10110 10111 10112 10113 10114 10115 10116 10117 10118 10119 10120 10121 10122 10123 10124 10125 10126 10127 10128 10129 10130 10131 10132 10133 10134 10135 10136 10137 10138 10139 10140 10141 10142 10143 10144 10145 10146 10147 10148 10149 10150 10151 10152 10153 10154 10155 10156 10157 10158 10159 10160 10161 10162 10163 10164 10165 10166 10167 10168 10169 10170 10171 10172 10173 10174 10175 10176 10177 10178 10179 10180 10181 10182 10183 10184 10185 10186 10187 10188 10189 10190 10191 10192 10193 10194 10195 10196 10197 10198 10199 10200 10201 10202 10203 10204 10205 10206 10207 10208 10209 10210 10211 10212 10213 10214 10215 10216 10217 10218 10219 10220 10221 10222 10223 10224 10225 10226 10227 10228 10229 10230 10231 10232 10233 10234 10235 10236 10237 10238 10239 10240 10241 10242 10243 10244 10245 10246 10247 10248 10249 10250 10251 10252 10253 10254 10255 10256 10257 10258 10259 10260 10261 10262 10263 10264 10265 10266 10267 10268 10269 10270 10271 10272 10273 10274 10275 10276 10277 10278 10279 10280 10281 10282 10283 10284 10285 10286 10287 10288 10289 10290 10291 10292 10293 10294 10295 10296 10297 10298 10299 10300 10301 10302 10303 10304 10305 10306 10307 10308 10309 10310 10311 10312 10313 10314 10315 10316 10317 10318 10319 10320 10321 10322 10323 10324 10325 10326 10327 10328 10329 10330 10331 10332 10333 10334 10335 10336 10337 10338 10339 10340 10341 10342 10343 10344 10345 10346 10347 10348 10349 10350 10351 10352 10353 10354 10355 10356 10357 10358 10359 10360 10361 10362 10363 10364 10365 10366 10367 10368 10369 10370 10371 10372 10373 10374 10375 10376 10377 10378 10379 10380 10381 10382 10383 10384 10385 10386 10387 10388 10389 10390 10391 10392 10393 10394 10395 10396 10397 10398 10399 10400 10401 10402 10403 10404 10405 10406 10407 10408 10409 10410 10411 10412 10413 10414 10415 10416 10417 10418 10419 10420 10421 10422 10423 10424 10425 10426 10427 10428 10429 10430 10431 10432 10433 10434 10435 10436 10437 10438 10439 10440 10441 10442 10443 10444 10445 10446 10447 10448 10449 10450 10451 10452 10453 10454 10455 10456 10457 10458 10459 10460 10461 10462 10463 10464 10465 10466 10467 10468 10469 10470 10471 10472 10473 10474 10475 10476 10477 10478 10479 10480 10481 10482 10483 10484 10485 10486 10487 10488 10489 10490 10491 10492 10493 10494 10495 10496 10497 10498 10499 10500 10501 10502 10503 10504 10505 10506 10507 10508 10509 10510 10511 10512 10513 10514 10515 10516 10517 10518 10519 10520 10521 10522 10523 10524 10525 10526 10527 10528 10529 10530 10531 10532 10533 10534 10535 10536 10537 10538 10539 10540 10541 10542 10543 10544 10545 10546 10547 10548 10549 10550 10551 10552 10553 10554 10555 10556 10557 10558 10559 10560 10561 10562 10563 10564 10565 10566 10567 10568 10569 10570 10571 10572 10573 10574 10575 10576 10577 10578 10579 10580 10581 10582 10583 10584 10585 10586 10587 10588 10589 10590 10591 10592 10593 10594 10595 10596 10597 10598 10599 10600 10601 10602 10603 10604 10605 10606 10607 10608 10609 10610 10611 10612 10613 10614 10615 10616 10617 10618 10619 10620 10621 10622 10623 10624 10625 10626 10627 10628 10629 10630 10631 10632 10633 10634 10635 10636 10637 10638 10639 10640 10641 10642 10643 10644 10645 10646 10647 10648 10649 10650 10651 10652 10653 10654 10655 10656 10657 10658 10659 10660 10661 10662 10663 10664 10665 10666 10667 10668 10669 10670 10671 10672 10673 10674 10675 10676 10677 10678 10679 10680 10681 10682 10683 10684 10685 10686 10687 10688 10689 10690 10691 10692 10693 10694 10695 10696 10697 10698 10699 10700 10701 10702 10703 10704 10705 10706 10707 10708 10709 10710 10711 10712 10713 10714 10715 10716 10717 10718 10719 10720 10721 10722 10723 10724 10725 10726 10727 10728 10729 10730 10731 10732 10733 10734 10735 10736 10737 10738 10739 10740 10741 10742 10743 10744 10745 10746 10747 10748 10749 10750 10751 10752 10753 10754 10755 10756 10757 10758 10759 10760 10761 10762 10763 10764 10765 10766 10767 10768 10769 10770 10771 10772 10773 10774 10775 10776 10777 10778 10779 10780 10781 10782 10783 10784 10785 10786 10787 10788 10789 10790 10791 10792 10793 10794 10795 10796 10797 10798 10799 10800 10801 10802 10803 10804 10805 10806 10807 10808 10809 10810 10811 10812 10813 10814 10815 10816 10817 10818 10819 10820 10821 10822 10823 10824 10825 10826 10827 10828 10829 10830 10831 10832 10833 10834 10835 10836 10837 10838 10839 10840 10841 10842 10843 10844 10845 10846 10847 10848 10849 10850 10851 10852 10853 10854 10855 10856 10857 10858 10859 10860 10861 10862 10863 10864 10865 10866 10867 10868 10869 10870 10871 10872 10873 10874 10875 10876 10877 10878 10879 10880 10881 10882 10883 10884 10885 10886 10887 10888 10889 10890 10891 10892 10893 10894 10895 10896 10897 10898 10899 10900 10901 10902 10903 10904 10905 10906 10907 10908 10909 10910 10911 10912 10913 10914 10915 10916 10917 10918 10919 10920 10921 10922 10923 10924 10925 10926 10927 10928 10929 10930 10931 10932 10933 10934 10935 10936 10937 10938 10939 10940 10941 10942 10943 10944 10945 10946 10947 10948 10949 10950 10951 10952 10953 10954 10955 10956 10957 10958 10959 10960 10961 10962 10963 10964 10965 10966 10967 10968 10969 10970 10971 10972 10973 10974 10975 10976 10977 10978 10979 10980 10981 10982 10983 10984 10985 10986 10987 10988 10989 10990 10991 10992 10993 10994 10995 10996 10997 10998 10999 11000 11001 11002 11003 11004 11005 11006 11007 11008 11009 11010 11011 11012 11013 11014 11015 11016 11017 11018 11019 11020 11021 11022 11023 11024 11025 11026 11027 11028 11029 11030 11031 11032 11033 11034 11035 11036 11037 11038 11039 11040 11041 11042 11043 11044 11045 11046 11047 11048 11049 11050 11051 11052 11053 11054 11055 11056 11057 11058 11059 11060 11061 11062 11063 11064 11065 11066 11067 11068 11069 11070 11071 11072 11073 11074 11075 11076 11077 11078 11079 11080 11081 11082 11083 11084 11085 11086 11087 11088 11089 11090 11091 11092 11093 11094 11095 11096 11097 11098 11099 11100 11101 11102 11103 11104 11105 11106 11107 11108 11109 11110 11111 11112 11113 11114 11115 11116 11117 11118 11119 11120 11121 11122 11123 11124 11125 11126 11127 11128 11129 11130 11131 11132 11133 11134 11135 11136 11137 11138 11139 11140 11141 11142 11143 11144 11145 11146 11147 11148 11149 11150 11151 11152 11153 11154 11155 11156 11157 11158 11159 11160 11161 11162 11163 11164 11165 11166 11167 11168 11169 11170 11171 11172 11173 11174 11175 11176 11177 11178 11179 11180 11181 11182 11183 11184 11185 11186 11187 11188 11189 11190 11191 11192 11193 11194 11195 11196 11197 11198 11199 11200 11201 11202 11203 11204 11205 11206 11207 11208 11209 11210 11211 11212 11213 11214 11215 11216 11217 11218 11219 11220 11221 11222 11223 11224 11225 11226 11227 11228 11229 11230 11231 11232 11233 11234 11235 11236 11237 11238 11239 11240 11241 11242 11243 11244 11245 11246 11247 11248 11249 11250 11251 11252 11253 11254 11255 11256 11257 11258 11259 11260 11261 11262 11263 11264 11265 11266 11267 11268 11269 11270 11271 11272 11273 11274 11275 11276 11277 11278 11279 11280 11281 11282 11283 11284 11285 11286 11287 11288 11289 11290 11291 11292 11293 11294 11295 11296 11297 11298 11299 11300 11301 11302 11303 11304 11305 11306 11307 11308 11309 11310 11311 11312 11313 11314 11315 11316 11317 11318 11319 11320 11321 11322 11323 11324 11325 11326 11327 11328 11329 11330 11331 11332 11333 11334 11335 11336 11337 11338 11339 11340 11341 11342 11343 11344 11345 11346 11347 11348 11349 11350 11351 11352 11353 11354 11355 11356 11357 11358 11359 11360 11361 11362 11363 11364 11365 11366 11367 11368 11369 11370 11371 11372 11373 11374 11375 11376 11377 11378 11379 11380 11381 11382 11383 11384 11385 11386 11387 11388 11389 11390 11391 11392 11393 11394 11395 11396 11397 11398 11399 11400 11401 11402 11403 11404 11405 11406 11407 11408 11409 11410 11411 11412 11413 11414 11415 11416 11417 11418 11419 11420 11421 11422 11423 11424 11425 11426 11427 11428 11429 11430 11431 11432 11433 11434 11435 11436 11437 11438 11439 11440 11441 11442 11443 11444 11445 11446 11447 11448 11449 11450 11451 11452 11453 11454 11455 11456 11457 11458 11459 11460 11461 11462 11463 11464 11465 11466 11467 11468 11469 11470 11471 11472 11473 11474 11475 11476 11477 11478 11479 11480 11481 11482 11483 11484 11485 11486 11487 11488 11489 11490 11491 11492 11493 11494 11495 11496 11497 11498 11499 11500 11501 11502 11503 11504 11505 11506 11507 11508 11509 11510 11511 11512 11513 11514 11515 11516 11517 11518 11519 11520 11521 11522 11523 11524 11525 11526 11527 11528 11529 11530 11531 11532 11533 11534 11535 11536 11537 11538 11539 11540 11541 11542 11543 11544 11545 11546 11547 11548 11549 11550 11551 11552 11553 11554 11555 11556 11557 11558 11559 11560 11561 11562 11563 11564 11565 11566 11567 11568 11569 11570 11571 11572 11573 11574 11575 11576 11577 11578 11579 11580 11581 11582 11583 11584 11585 11586 11587 11588 11589 11590 11591 11592 11593 11594 11595 11596 11597 11598 11599 11600 11601 11602 11603 11604 11605 11606 11607 11608 11609 11610 11611 11612 11613 11614 11615 11616 11617 11618 11619 11620 11621 11622 11623 11624 11625 11626 11627 11628 11629 11630 11631 11632 11633 11634 11635 11636 11637 11638 11639 11640 11641 11642 11643 11644 11645 11646 11647 11648 11649 11650 11651 11652 11653 11654 11655 11656 11657 11658 11659 11660 11661 11662 11663 11664 11665 11666 11667 11668 11669 11670 11671 11672 11673 11674 11675 11676 11677 11678 11679 11680 11681 11682 11683 11684 11685 11686 11687 11688 11689 11690 11691 11692 11693 11694 11695 11696 11697 11698 11699 11700 11701 11702 11703 11704 11705 11706 11707 11708 11709 11710 11711 11712 11713 11714 11715 11716 11717 11718 11719 11720 11721 11722 11723 11724 11725 11726 11727 11728 11729 11730 11731 11732 11733 11734 11735 11736 11737 11738 11739 11740 11741 11742 11743 11744 11745 11746 11747 11748 11749 11750 11751 11752 11753 11754 11755 11756 11757 11758 11759 11760 11761 11762 11763 11764 11765 11766 11767 11768 11769 11770 11771 11772 11773 11774 11775 11776 11777 11778 11779 11780 11781 11782 11783 11784 11785 11786 11787 11788 11789 11790 11791 11792 11793 11794 11795 11796 11797 11798 11799 11800 11801 11802 11803 11804 11805 11806 11807 11808 11809 11810 11811 11812 11813 11814 11815 11816 11817 11818 11819 11820 11821 11822 11823 11824 11825 11826 11827 11828 11829 11830 11831 11832 11833 11834 11835 11836 11837 11838 11839 11840 11841 11842 11843 11844 11845 11846 11847 11848 11849 11850 11851 11852 11853 11854 11855 11856 11857 11858 11859 11860 11861 11862 11863 11864 11865 11866 11867 11868 11869 11870 11871 11872 11873 11874 11875 11876 11877 11878 11879 11880 11881 11882 11883 11884 11885 11886 11887 11888 11889 11890 11891 11892 11893 11894 11895 11896 11897 11898 11899 11900 11901 11902 11903 11904 11905 11906 11907 11908 11909 11910 11911 11912 11913 11914 11915 11916 11917 11918 11919 11920 11921 11922 11923 11924 11925 11926 11927 11928 11929 11930 11931 11932 11933 11934 11935 11936 11937 11938 11939 11940 11941 11942 11943 11944 11945 11946 11947 11948 11949 11950 11951 11952 11953 11954 11955 11956 11957 11958 11959 11960 11961 11962 11963 11964 11965 11966 11967 11968 11969 11970 11971 11972 11973 11974 11975 11976 11977 11978 11979 11980 11981 11982 11983 11984 11985 11986 11987 11988 11989 11990 11991 11992 11993 11994 11995 11996 11997 11998 11999 12000 12001 12002 12003 12004 12005 12006 12007 12008 12009 12010 12011 12012 12013 12014 12015 12016 12017 12018 12019 12020 12021 12022 12023 12024 12025 12026 12027 12028 12029 12030 12031 12032 12033 12034 12035 12036 12037 12038 12039 12040 12041 12042 12043 12044 12045 12046 12047 12048 12049 12050 12051 12052 12053 12054 12055 12056 12057 12058 12059 12060 12061 12062 12063 12064 12065 12066 12067 12068 12069 12070 12071 12072 12073 12074 12075 12076 12077 12078 12079 12080 12081 12082 12083 12084 12085 12086 12087 12088 12089 12090 12091 12092 12093 12094 12095 12096 12097 12098 12099 12100 12101 12102 12103 12104 12105 12106 12107 12108 12109 12110 12111 12112 12113 12114 12115 12116 12117 12118 12119 12120 12121 12122 12123 12124 12125 12126 12127 12128 12129 12130 12131 12132 12133 12134 12135 12136 12137 12138 12139 12140 12141 12142 12143 12144 12145 12146 12147 12148 12149 12150 12151 12152 12153 12154 12155 12156 12157 12158 12159 12160 12161 12162 12163 12164 12165 12166 12167 12168 12169 12170 12171 12172 12173 12174 12175 12176 12177 12178 12179 12180 12181 12182 12183 12184 12185 12186 12187 12188 12189 12190 12191 12192 12193 12194 12195 12196 12197 12198 12199 12200 12201 12202 12203 12204 12205 12206 12207 12208 12209 12210 12211 12212 12213 12214 12215 12216 12217 12218 12219 12220 12221 12222 12223 12224 12225 12226 12227 12228 12229 12230 12231 12232 12233 12234 12235 12236 12237 12238 12239 12240 12241 12242 12243 12244 12245 12246 12247 12248 12249 12250 12251 12252 12253 12254 12255 12256 12257 12258 12259 12260 12261 12262 12263 12264 12265 12266 12267 12268 12269 12270 12271 12272 12273 12274 12275 12276 12277 12278 12279 12280 12281 12282 12283 12284 12285 12286 12287 12288 12289 12290 12291 12292 12293 12294 12295 12296 12297 12298 12299 12300 12301 12302 12303 12304 12305 12306 12307 12308 12309 12310 12311 12312 12313 12314 12315 12316 12317 12318 12319 12320 12321 12322 12323 12324 12325 12326 12327 12328 12329 12330 12331 12332 12333 12334 12335 12336 12337 12338 12339 12340 12341 12342 12343 12344 12345 12346 12347 12348 12349 12350 12351 12352 12353 12354 12355 12356 12357 12358 12359 12360 12361 12362 12363 12364 12365 12366 12367 12368 12369 12370 12371 12372 12373 12374 12375 12376 12377 12378 12379 12380 12381 12382 12383 12384 12385 12386 12387 12388 12389 12390 12391 12392 12393 12394 12395 12396 12397 12398 12399 12400 12401 12402 12403 12404 12405 12406 12407 12408 12409 12410 12411 12412 12413 12414 12415 12416 12417 12418 12419 12420 12421 12422 12423 12424 12425 12426 12427 12428 12429 12430 12431 12432 12433 12434 12435 12436 12437 12438 12439 12440 12441 12442 12443 12444 12445 12446 12447 12448 12449 12450 12451 12452 12453 12454 12455 12456 12457 12458 12459 12460 12461 12462 12463 12464 12465 12466 12467 12468 12469 12470 12471 12472 12473 12474 12475 12476 12477 12478 12479 12480 12481 12482 12483 12484 12485 12486 12487 12488 12489 12490 12491 12492 12493 12494 12495 12496 12497 12498 12499 12500 12501 12502 12503 12504 12505 12506 12507 12508 12509 12510 12511 12512 12513 12514 12515 12516 12517 12518 12519 12520 12521 12522 12523 12524 12525 12526 12527 12528 12529 12530 12531 12532 12533 12534 12535 12536 12537 12538 12539 12540 12541 12542 12543 12544 12545 12546 12547 12548 12549 12550 12551 12552 12553 12554 12555 12556 12557 12558 12559 12560 12561 12562 12563 12564 12565 12566 12567 12568 12569 12570 12571 12572 12573 12574 12575 12576 12577 12578 12579 12580 12581 12582 12583 12584 12585 12586 12587 12588 12589 12590 12591 12592 12593 12594 12595 12596 12597 12598 12599 12600 12601 12602 12603 12604 12605 12606 12607 12608 12609 12610 12611 12612 12613 12614 12615 12616 12617 12618 12619 12620 12621 12622 12623 12624 12625 12626 12627 12628 12629 12630 12631 12632 12633 12634 12635 12636 12637 12638 12639 12640 12641 12642 12643 12644 12645 12646 12647 12648 12649 12650 12651 12652 12653 12654 12655 12656 12657 12658 12659 12660 12661 12662 12663 12664 12665 12666 12667 12668 12669 12670 12671 12672 12673 12674 12675 12676 12677 12678 12679 12680 12681 12682 12683 12684 12685 12686 12687 12688 12689 12690 12691 12692 12693 12694 12695 12696 12697 12698 12699 12700 12701 12702 12703 12704 12705 12706 12707 12708 12709 12710 12711 12712 12713 12714 12715 12716 12717 12718 12719 12720 12721 12722 12723 12724 12725 12726 12727 12728 12729 12730 12731 12732 12733 12734 12735 12736 12737 12738 12739 12740 12741 12742 12743 12744 12745 12746 12747 12748 12749 12750 12751 12752 12753 12754 12755 12756 12757 12758 12759 12760 12761 12762 12763 12764 12765 12766 12767 12768 12769 12770 12771 12772 12773 12774 12775 12776 12777 12778 12779 12780 12781 12782 12783 12784 12785 12786 12787 12788 12789 12790 12791 12792 12793 12794 12795 12796 12797 12798 12799 12800 12801 12802 12803 12804 12805 12806 12807 12808 12809 12810 12811 12812 12813 12814 12815 12816 12817 12818 12819 12820 12821 12822 12823 12824 12825 12826 12827 12828 12829 12830 12831 12832 12833 12834 12835 12836 12837 12838 12839 12840 12841 12842 12843 12844 12845 12846 12847 12848 12849 12850 12851 12852 12853 12854 12855 12856 12857 12858 12859 12860 12861 12862 12863 12864 12865 12866 12867 12868 12869 12870 12871 12872 12873 12874 12875 12876 12877 12878 12879 12880 12881 12882 12883 12884 12885 12886 12887 12888 12889 12890 12891 12892 12893 12894 12895 12896 12897 12898 12899 12900 12901 12902 12903 12904 12905 12906 12907 12908 12909 12910 12911 12912 12913 12914 12915 12916 12917 12918 12919 12920 12921 12922 12923 12924 12925 12926 12927 12928 12929 12930 12931 12932 12933 12934 12935 12936 12937 12938 12939 12940 12941 12942 12943 12944 12945 12946 12947 12948 12949 12950 12951 12952 12953 12954 12955 12956 12957 12958 12959 12960 12961 12962 12963 12964 12965 12966 12967 12968 12969 12970 12971 12972 12973 12974 12975 12976 12977 12978 12979 12980 12981 12982 12983 12984 12985 12986 12987 12988 12989 12990 12991 12992 12993 12994 12995 12996 12997 12998 12999 13000 13001 13002 13003 13004 13005 13006 13007 13008 13009 13010 13011 13012 13013 13014 13015 13016 13017 13018 13019 13020 13021 13022 13023 13024 13025 13026 13027 13028 13029 13030 13031 13032 13033 13034 13035 13036 13037 13038 13039 13040 13041 13042 13043 13044 13045 13046 13047 13048 13049 13050 13051 13052 13053 13054 13055 13056 13057 13058 13059 13060 13061 13062 13063 13064 13065 13066 13067 13068 13069 13070 13071 13072 13073 13074 13075 13076 13077 13078 13079 13080 13081 13082 13083 13084 13085 13086 13087 13088 13089 13090 13091 13092 13093 13094 13095 13096 13097 13098 13099 13100 13101 13102 13103 13104 13105 13106 13107 13108 13109 13110 13111 13112 13113 13114 13115 13116 13117 13118 13119 13120 13121 13122 13123 13124 13125 13126 13127 13128 13129 13130 13131 13132 13133 13134 13135 13136 13137 13138 13139 13140 13141 13142 13143 13144 13145 13146 13147 13148 13149 13150 13151 13152 13153 13154 13155 13156 13157 13158 13159 13160 13161 13162 13163 13164 13165 13166 13167 13168 13169 13170 13171 13172 13173 13174 13175 13176 13177 13178 13179 13180 13181 13182 13183 13184 13185 13186 13187 13188 13189 13190 13191 13192 13193 13194 13195 13196 13197 13198 13199 13200 13201 13202 13203 13204 13205 13206 13207 13208 13209 13210 13211 13212 13213 13214 13215 13216 13217 13218 13219 13220 13221 13222 13223 13224 13225 13226 13227 13228 13229 13230 13231 13232 13233 13234 13235 13236 13237 13238 13239 13240 13241 13242 13243 13244 13245 13246 13247 13248 13249 13250 13251 13252 13253 13254 13255 13256 13257 13258 13259 13260 13261 13262 13263 13264 13265 13266 13267 13268 13269 13270 13271 13272 13273 13274 13275 13276 13277 13278 13279 13280 13281 13282 13283 13284 13285 13286 13287 13288 13289 13290 13291 13292 13293 13294 13295 13296 13297 13298 13299 13300 13301 13302 13303 13304 13305 13306 13307 13308 13309 13310 13311 13312 13313 13314 13315 13316 13317 13318 13319 13320 13321 13322 13323 13324 13325 13326 13327 13328 13329 13330 13331 13332 13333 13334 13335 13336 13337 13338 13339 13340 13341 13342 13343 13344 13345 13346 13347 13348 13349 13350 13351 13352 13353 13354 13355 13356 13357 13358 13359 13360 13361 13362 13363 13364 13365 13366 13367 13368 13369 13370 13371 13372 13373 13374 13375 13376 13377 13378 13379 13380 13381 13382 13383 13384 13385 13386 13387 13388 13389 13390 13391 13392 13393 13394 13395 13396 13397 13398 13399 13400 13401 13402 13403 13404 13405 13406 13407 13408 13409 13410 13411 13412 13413 13414 13415 13416 13417 13418 13419 13420 13421 13422 13423 13424 13425 13426 13427 13428 13429 13430 13431 13432 13433 13434 13435 13436 13437 13438 13439 13440 13441 13442 13443 13444 13445 13446 13447 13448 13449 13450 13451 13452 13453 13454 13455 13456 13457 13458 13459 13460 13461 13462 13463 13464 13465 13466 13467 13468 13469 13470 13471 13472 13473 13474 13475 13476 13477 13478 13479 13480 13481 13482 13483 13484 13485 13486 13487 13488 13489 13490 13491 13492 13493 13494 13495 13496 13497 13498 13499 13500 13501 13502 13503 13504 13505 13506 13507 13508 13509 13510 13511 13512 13513 13514 13515 13516 13517 13518 13519 13520 13521 13522 13523 13524 13525 13526 13527 13528 13529 13530 13531 13532 13533 13534 13535 13536 13537 13538 13539 13540 13541 13542 13543 13544 13545 13546 13547 13548 13549 13550 13551 13552 13553 13554 13555 13556 13557 13558 13559 13560 13561 13562 13563 13564 13565 13566 13567 13568 13569 13570 13571 13572 13573 13574 13575 13576 13577 13578 13579 13580 13581 13582 13583 13584 13585 13586 13587 13588 13589 13590 13591 13592 13593 13594 13595 13596 13597 13598 13599 13600 13601 13602 13603 13604 13605 13606 13607 13608 13609 13610 13611 13612 13613 13614 13615 13616 13617 13618 13619 13620 13621 13622 13623 13624 13625 13626 13627 13628 13629 13630 13631 13632 13633 13634 13635 13636 13637 13638 13639 13640 13641 13642 13643 13644 13645 13646 13647 13648 13649 13650 13651 13652 13653 13654 13655 13656 13657 13658 13659 13660 13661 13662 13663 13664 13665 13666 13667 13668 13669 13670 13671 13672 13673 13674 13675 13676 13677 13678 13679 13680 13681 13682 13683 13684 13685 13686 13687 13688 13689 13690 13691 13692 13693 13694 13695 13696 13697 13698 13699 13700 13701 13702 13703 13704 13705 13706 13707 13708 13709 13710 13711 13712 13713 13714 13715 13716 13717 13718 13719 13720 13721 13722 13723 13724 13725 13726 13727 13728 13729 13730 13731 13732 13733 13734 13735 13736 13737 13738 13739 13740 13741 13742 13743 13744 13745 13746 13747 13748 13749 13750 13751 13752 13753 13754 13755 13756 13757 13758 13759 13760 13761 13762 13763 13764 13765 13766 13767 13768 13769 13770 13771 13772 13773 13774 13775 13776 13777 13778 13779 13780 13781 13782 13783 13784 13785 13786 13787 13788 13789 13790 13791 13792 13793 13794 13795 13796 13797 13798 13799 13800 13801 13802 13803 13804 13805 13806 13807 13808 13809 13810 13811 13812 13813 13814 13815 13816 13817 13818 13819 13820 13821 13822 13823 13824 13825 13826 13827 13828 13829 13830 13831 13832 13833 13834 13835 13836 13837 13838 13839 13840 13841 13842 13843 13844 13845 13846 13847 13848 13849 13850 13851 13852 13853 13854 13855 13856 13857 13858 13859 13860 13861 13862 13863 13864 13865 13866 13867 13868 13869 13870 13871 13872 13873 13874 13875 13876 13877 13878 13879 13880 13881 13882 13883 13884 13885 13886 13887 13888 13889 13890 13891 13892 13893 13894 13895 13896 13897 13898 13899 13900 13901 13902 13903 13904 13905 13906 13907 13908 13909 13910 13911 13912 13913 13914 13915 13916 13917 13918 13919 13920 13921 13922 13923 13924 13925 13926 13927 13928 13929 13930 13931 13932 13933 13934 13935 13936 13937 13938 13939 13940 13941 13942 13943 13944 13945 13946 13947 13948 13949 13950 13951 13952 13953 13954 13955 13956 13957 13958 13959 13960 13961 13962 13963 13964 13965 13966 13967 13968 13969 13970 13971 13972 13973 13974 13975 13976 13977 13978 13979 13980 13981 13982 13983 13984 13985 13986 13987 13988 13989 13990 13991 13992 13993 13994 13995 13996 13997 13998 13999 14000 14001 14002 14003 14004 14005 14006 14007 14008 14009 14010 14011 14012 14013 14014 14015 14016 14017 14018 14019 14020 14021 14022 14023 14024 14025 14026 14027 14028 14029 14030 14031 14032 14033 14034 14035 14036 14037 14038 14039 14040 14041 14042 14043 14044 14045 14046 14047 14048 14049 14050 14051 14052 14053 14054 14055 14056 14057 14058 14059 14060 14061 14062 14063 14064 14065 14066 14067 14068 14069 14070 14071 14072 14073 14074 14075 14076 14077 14078 14079 14080 14081 14082 14083 14084 14085 14086 14087 14088 14089 14090 14091 14092 14093 14094 14095 14096 14097 14098 14099 14100 14101 14102 14103 14104 14105 14106 14107 14108 14109 14110 14111 14112 14113 14114 14115 14116 14117 14118 14119 14120 14121 14122 14123 14124 14125 14126 14127 14128 14129 14130 14131 14132 14133 14134 14135 14136 14137 14138 14139 14140 14141 14142 14143 14144 14145 14146 14147 14148 14149 14150 14151 14152 14153 14154 14155 14156 14157 14158 14159 14160 14161 14162 14163 14164 14165 14166 14167 14168 14169 14170 14171 14172 14173 14174 14175 14176 14177 14178 14179 14180 14181 14182 14183 14184 14185 14186 14187 14188 14189 14190 14191 14192 14193 14194 14195 14196 14197 14198 14199 14200 14201 14202 14203 14204 14205 14206 14207 14208 14209 14210 14211 14212 14213 14214 14215 14216 14217 14218 14219 14220 14221 14222 14223 14224 14225 14226 14227 14228 14229 14230 14231 14232 14233 14234 14235 14236 14237 14238 14239 14240 14241 14242 14243 14244 14245 14246 14247 14248 14249 14250 14251 14252 14253 14254 14255 14256 14257 14258 14259 14260 14261 14262 14263 14264 14265 14266 14267 14268 14269 14270 14271 14272 14273 14274 14275 14276 14277 14278 14279 14280 14281 14282 14283 14284 14285 14286 14287 14288 14289 14290 14291 14292 14293 14294 14295 14296 14297 14298 14299 14300 14301 14302 14303 14304 14305 14306 14307 14308 14309 14310 14311 14312 14313 14314 14315 14316 14317 14318 14319 14320 14321 14322 14323 14324 14325 14326 14327 14328 14329 14330 14331 14332 14333 14334 14335 14336 14337 14338 14339 14340 14341 14342 14343 14344 14345 14346 14347 14348 14349 14350 14351 14352 14353 14354 14355 14356 14357 14358 14359 14360 14361 14362 14363 14364 14365 14366 14367 14368 14369 14370 14371 14372 14373 14374 14375 14376 14377 14378 14379 14380 14381 14382 14383 14384 14385 14386 14387 14388 14389 14390 14391 14392 14393 14394 14395 14396 14397 14398 14399 14400 14401 14402 14403 14404 14405 14406 14407 14408 14409 14410 14411 14412 14413 14414 14415 14416 14417 14418 14419 14420 14421 14422 14423 14424 14425 14426 14427 14428 14429 14430 14431 14432 14433 14434 14435 14436 14437 14438 14439 14440 14441 14442 14443 14444 14445 14446 14447 14448 14449 14450 14451 14452 14453 14454 14455 14456 14457 14458 14459 14460 14461 14462 14463 14464 14465 14466 14467 14468 14469 14470 14471 14472 14473 14474 14475 14476 14477 14478 14479 14480 14481 14482 14483 14484 14485 14486 14487 14488 14489 14490 14491 14492 14493 14494 14495 14496 14497 14498 14499 14500 14501 14502 14503 14504 14505 14506 14507 14508 14509 14510 14511 14512 14513 14514 14515 14516 14517 14518 14519 14520 14521 14522 14523 14524 14525 14526 14527 14528 14529 14530 14531 14532 14533 14534 14535 14536 14537 14538 14539 14540 14541 14542 14543 14544 14545 14546 14547 14548 14549 14550 14551 14552 14553 14554 14555 14556 14557 14558 14559 14560 14561 14562 14563 14564 14565 14566 14567 14568 14569 14570 14571 14572 14573 14574 14575 14576 14577 14578 14579 14580 14581 14582 14583 14584 14585 14586 14587 14588 14589 14590 14591 14592 14593 14594 14595 14596 14597 14598 14599 14600 14601 14602 14603 14604 14605 14606 14607 14608 14609 14610 14611 14612 14613 14614 14615 14616 14617 14618 14619 14620 14621 14622 14623 14624 14625 14626 14627 14628 14629 14630 14631 14632 14633 14634 14635 14636 14637 14638 14639 14640 14641 14642 14643 14644 14645 14646 14647 14648 14649 14650 14651 14652 14653 14654 14655 14656 14657 14658 14659 14660 14661 14662 14663 14664 14665 14666 14667 14668 14669 14670 14671 14672 14673 14674 14675 14676 14677 14678 14679 14680 14681 14682 14683 14684 14685 14686 14687 14688 14689 14690 14691 14692 14693 14694 14695 14696 14697 14698 14699 14700 14701 14702 14703 14704 14705 14706 14707 14708 14709 14710 14711 14712 14713 14714 14715 14716 14717 14718 14719 14720 14721 14722 14723 14724 14725 14726 14727 14728 14729 14730 14731 14732 14733 14734 14735 14736 14737 14738 14739 14740 14741 14742 14743 14744 14745 14746 14747 14748 14749 14750 14751 14752 14753 14754 14755 14756 14757 14758 14759 14760 14761 14762 14763 14764 14765 14766 14767 14768 14769 14770 14771 14772 14773 14774 14775 14776 14777 14778 14779 14780 14781 14782 14783 14784 14785 14786 14787 14788 14789 14790 14791 14792 14793 14794 14795 14796 14797 14798 14799 14800 14801 14802 14803 14804 14805 14806 14807 14808 14809 14810 14811 14812 14813 14814 14815 14816 14817 14818 14819 14820 14821 14822 14823 14824 14825 14826 14827 14828 14829 14830 14831 14832 14833 14834 14835 14836 14837 14838 14839 14840 14841 14842 14843 14844 14845 14846 14847 14848 14849 14850 14851 14852 14853 14854 14855 14856 14857 14858 14859 14860 14861 14862 14863 14864 14865 14866 14867 14868 14869 14870 14871 14872 14873 14874 14875 14876 14877 14878 14879 14880 14881 14882 14883 14884 14885 14886 14887 14888 14889 14890 14891 14892 14893 14894 14895 14896 14897 14898 14899 14900 14901 14902 14903 14904 14905 14906 14907 14908 14909 14910 14911 14912 14913 14914 14915 14916 14917 14918 14919 14920 14921 14922 14923 14924 14925 14926 14927 14928 14929 14930 14931 14932 14933 14934 14935 14936 14937 14938 14939 14940 14941 14942 14943 14944 14945 14946 14947 14948 14949 14950 14951 14952 14953 14954 14955 14956 14957 14958 14959 14960 14961 14962 14963 14964 14965 14966 14967 14968 14969 14970 14971 14972 14973 14974 14975 14976 14977 14978 14979 14980 14981 14982 14983 14984 14985 14986 14987 14988 14989 14990 14991 14992 14993 14994 14995 14996 14997 14998 14999 15000 15001 15002 15003 15004 15005 15006 15007 15008 15009 15010 15011 15012 15013 15014 15015 15016 15017 15018 15019 15020 15021 15022 15023 15024 15025 15026 15027 15028 15029 15030 15031 15032 15033 15034 15035 15036 15037 15038 15039 15040 15041 15042 15043 15044 15045 15046 15047 15048 15049 15050 15051 15052 15053 15054 15055 15056 15057 15058 15059 15060 15061 15062 15063 15064 15065 15066 15067 15068 15069 15070 15071 15072 15073 15074 15075 15076 15077 15078 15079 15080 15081 15082 15083 15084 15085 15086 15087 15088 15089 15090 15091 15092 15093 15094 15095 15096 15097 15098 15099 15100 15101 15102 15103 15104 15105 15106 15107 15108 15109 15110 15111 15112 15113 15114 15115 15116 15117 15118 15119 15120 15121 15122 15123 15124 15125 15126 15127 15128 15129 15130 15131 15132 15133 15134 15135 15136 15137 15138 15139 15140 15141 15142 15143 15144 15145 15146 15147 15148 15149 15150 15151 15152 15153 15154 15155 15156 15157 15158 15159 15160 15161 15162 15163 15164 15165 15166 15167 15168 15169 15170 15171 15172 15173 15174 15175 15176 15177 15178 15179 15180 15181 15182 15183 15184 15185 15186 15187 15188 15189 15190 15191 15192 15193 15194 15195 15196 15197 15198 15199 15200 15201 15202 15203 15204 15205 15206 15207 15208 15209 15210 15211 15212 15213 15214 15215 15216 15217 15218 15219 15220 15221 15222 15223 15224 15225 15226 15227 15228 15229 15230 15231 15232 15233 15234 15235 15236 15237 15238 15239 15240 15241 15242 15243 15244 15245 15246 15247 15248 15249 15250 15251 15252 15253 15254 15255 15256 15257 15258 15259 15260 15261 15262 15263 15264 15265 15266 15267 15268 15269 15270 15271 15272 15273 15274 15275 15276 15277 15278 15279 15280 15281 15282 15283 15284 15285 15286 15287 15288 15289 15290 15291 15292 15293 15294 15295 15296 15297 15298 15299 15300 15301 15302 15303 15304 15305 15306 15307 15308 15309 15310 15311 15312 15313 15314 15315 15316 15317 15318 15319 15320 15321 15322 15323 15324 15325 15326 15327 15328 15329 15330 15331 15332 15333 15334 15335 15336 15337 15338 15339 15340 15341 15342 15343 15344 15345 15346 15347 15348 15349 15350 15351 15352 15353 15354 15355 15356 15357 15358 15359 15360 15361 15362 15363 15364 15365 15366 15367 15368 15369 15370 15371 15372 15373 15374 15375 15376 15377 15378 15379 15380 15381 15382 15383 15384 15385 15386 15387 15388 15389 15390 15391 15392 15393 15394 15395 15396 15397 15398 15399 15400 15401 15402 15403 15404 15405 15406 15407 15408 15409 15410 15411 15412 15413 15414 15415 15416 15417 15418 15419 15420 15421 15422 15423 15424 15425 15426 15427 15428 15429 15430 15431 15432 15433 15434 15435 15436 15437 15438 15439 15440 15441 15442 15443 15444 15445 15446 15447 15448 15449 15450 15451 15452 15453 15454 15455 15456 15457 15458 15459 15460 15461 15462 15463 15464 15465 15466 15467 15468 15469 15470 15471 15472 15473 15474 15475 15476 15477 15478 15479 15480 15481 15482 15483 15484 15485 15486 15487 15488 15489 15490 15491 15492 15493 15494 15495 15496 15497 15498 15499 15500 15501 15502 15503 15504 15505 15506 15507 15508 15509 15510 15511 15512 15513 15514 15515 15516 15517 15518 15519 15520 15521 15522 15523 15524 15525 15526 15527 15528 15529 15530 15531 15532 15533 15534 15535 15536 15537 15538 15539 15540 15541 15542 15543 15544 15545 15546 15547 15548 15549 15550 15551 15552 15553 15554 15555 15556 15557 15558 15559 15560 15561 15562 15563 15564 15565 15566 15567 15568 15569 15570 15571 15572 15573 15574 15575 15576 15577 15578 15579 15580 15581 15582 15583 15584 15585 15586 15587 15588 15589 15590 15591 15592 15593 15594 15595 15596 15597 15598 15599 15600 15601 15602 15603 15604 15605 15606 15607 15608 15609 15610 15611 15612 15613 15614 15615 15616 15617 15618 15619 15620 15621 15622 15623 15624 15625 15626 15627 15628 15629 15630 15631 15632 15633 15634 15635 15636 15637 15638 15639 15640 15641 15642 15643 15644 15645 15646 15647 15648 15649 15650 15651 15652 15653 15654 15655 15656 15657 15658 15659 15660 15661 15662 15663 15664 15665 15666 15667 15668 15669 15670 15671 15672 15673 15674 15675 15676 15677 15678 15679 15680 15681 15682 15683 15684 15685 15686 15687 15688 15689 15690 15691 15692 15693 15694 15695 15696 15697 15698 15699 15700 15701 15702 15703 15704 15705 15706 15707 15708 15709 15710 15711 15712 15713 15714 15715 15716 15717 15718 15719 15720 15721 15722 15723 15724 15725 15726 15727 15728 15729 15730 15731 15732 15733 15734 15735 15736 15737 15738 15739 15740 15741 15742 15743 15744 15745 15746 15747 15748 15749 15750 15751 15752 15753 15754 15755 15756 15757 15758 15759 15760 15761 15762 15763 15764 15765 15766 15767 15768 15769 15770 15771 15772 15773 15774 15775 15776 15777 15778 15779 15780 15781 15782 15783 15784 15785 15786 15787 15788 15789 15790 15791 15792 15793 15794 15795 15796 15797 15798 15799 15800 15801 15802 15803 15804 15805 15806 15807 15808 15809 15810 15811 15812 15813 15814 15815 15816 15817 15818 15819 15820 15821 15822 15823 15824 15825 15826 15827 15828 15829 15830 15831 15832 15833 15834 15835 15836 15837 15838 15839 15840 15841 15842 15843 15844 15845 15846 15847 15848 15849 15850 15851 15852 15853 15854 15855 15856 15857 15858 15859 15860 15861 15862 15863 15864 15865 15866 15867 15868 15869 15870 15871 15872 15873 15874 15875 15876 15877 15878 15879 15880 15881 15882 15883 15884 15885 15886 15887 15888 15889 15890 15891 15892 15893 15894 15895 15896 15897 15898 15899 15900 15901 15902 15903 15904 15905 15906 15907 15908 15909 15910 15911 15912 15913 15914 15915 15916 15917 15918 15919 15920 15921 15922 15923 15924 15925 15926 15927 15928 15929 15930 15931 15932 15933 15934 15935 15936 15937 15938 15939 15940 15941 15942 15943 15944 15945 15946 15947 15948 15949 15950 15951 15952 15953 15954 15955 15956 15957 15958 15959 15960 15961 15962 15963 15964 15965 15966 15967 15968 15969 15970 15971 15972 15973 15974 15975 15976 15977 15978 15979 15980 15981 15982 15983 15984 15985 15986 15987 15988 15989 15990 15991 15992 15993 15994 15995 15996 15997 15998 15999 16000 16001 16002 16003 16004 16005 16006 16007 16008 16009 16010 16011 16012 16013 16014 16015 16016 16017 16018 16019 16020 16021 16022 16023 16024 16025 16026 16027 16028 16029 16030 16031 16032 16033 16034 16035 16036 16037 16038 16039 16040 16041 16042 16043 16044 16045 16046 16047 16048 16049 16050 16051 16052 16053 16054 16055 16056 16057 16058 16059 16060 16061 16062 16063 16064 16065 16066 16067 16068 16069 16070 16071 16072 16073 16074 16075 16076 16077 16078 16079 16080 16081 16082 16083 16084 16085 16086 16087 16088 16089 16090 16091 16092 16093 16094 16095 16096 16097 16098 16099 16100 16101 16102 16103 16104 16105 16106 16107 16108 16109 16110 16111 16112 16113 16114 16115 16116 16117 16118 16119 16120 16121 16122 16123 16124 16125 16126 16127 16128 16129 16130 16131 16132 16133 16134 16135 16136 16137 16138 16139 16140 16141 16142 16143 16144 16145 16146 16147 16148 16149 16150 16151 16152 16153 16154 16155 16156 16157 16158 16159 16160 16161 16162 16163 16164 16165 16166 16167 16168 16169 16170 16171 16172 16173 16174 16175 16176 16177 16178 16179 16180 16181 16182 16183 16184 16185 16186 16187 16188 16189 16190 16191 16192 16193 16194 16195 16196 16197 16198 16199 16200 16201 16202 16203 16204 16205 16206 16207 16208 16209 16210 16211 16212 16213 16214 16215 16216 16217 16218 16219 16220 16221 16222 16223 16224 16225 16226 16227 16228 16229 16230 16231 16232 16233 16234 16235 16236 16237 16238 16239 16240 16241 16242 16243 16244 16245 16246 16247 16248 16249 16250 16251 16252 16253 16254 16255 16256 16257 16258 16259 16260 16261 16262 16263 16264 16265 16266 16267 16268 16269 16270 16271 16272 16273 16274 16275 16276 16277 16278 16279 16280 16281 16282 16283 16284 16285 16286 16287 16288 16289 16290 16291 16292 16293 16294 16295 16296 16297 16298 16299 16300 16301 16302 16303 16304 16305 16306 16307 16308 16309 16310 16311 16312 16313 16314 16315 16316 16317 16318 16319 16320 16321 16322 16323 16324 16325 16326 16327 16328 16329 16330 16331 16332 16333 16334 16335 16336 16337 16338 16339 16340 16341 16342 16343 16344 16345 16346 16347 16348 16349 16350 16351 16352 16353 16354 16355 16356 16357 16358 16359 16360 16361 16362 16363 16364 16365 16366 16367 16368 16369 16370 16371 16372 16373 16374 16375 16376 16377 16378 16379 16380 16381 16382 16383 16384 16385 16386 16387 16388 16389 16390 16391 16392 16393 16394 16395 16396 16397 16398 16399 16400 16401 16402 16403 16404 16405 16406 16407 16408 16409 16410 16411 16412 16413 16414 16415 16416 16417 16418 16419 16420 16421 16422 16423 16424 16425 16426 16427 16428 16429 16430 16431 16432 16433 16434 16435 16436 16437 16438 16439 16440 16441 16442 16443 16444 16445 16446 16447 16448 16449 16450 16451 16452 16453 16454 16455 16456 16457 16458 16459 16460 16461 16462 16463 16464 16465 16466 16467 16468 16469 16470 16471 16472 16473 16474 16475 16476 16477 16478 16479 16480 16481 16482 16483 16484 16485 16486 16487 16488 16489 16490 16491 16492 16493 16494 16495 16496 16497 16498 16499 16500 16501 16502 16503 16504 16505 16506 16507 16508 16509 16510 16511 16512 16513 16514 16515 16516 16517 16518 16519 16520 16521 16522 16523 16524 16525 16526 16527 16528 16529 16530 16531 16532 16533 16534 16535 16536 16537 16538 16539 16540 16541 16542 16543 16544 16545 16546 16547 16548 16549 16550 16551 16552 16553 16554 16555 16556 16557 16558 16559 16560 16561 16562 16563 16564 16565 16566 16567 16568 16569 16570 16571 16572 16573 16574 16575 16576 16577 16578 16579 16580 16581 16582 16583 16584 16585 16586 16587 16588 16589 16590 16591 16592 16593 16594 16595 16596 16597 16598 16599 16600 16601 16602 16603 16604 16605 16606 16607 16608 16609 16610 16611 16612 16613 16614 16615 16616 16617 16618 16619 16620 16621 16622 16623 16624 16625 16626 16627 16628 16629 16630 16631 16632 16633 16634 16635 16636 16637 16638 16639 16640 16641 16642 16643 16644 16645 16646 16647 16648 16649 16650 16651 16652 16653 16654 16655 16656 16657 16658 16659 16660 16661 16662 16663 16664 16665 16666 16667 16668 16669 16670 16671 16672 16673 16674 16675 16676 16677 16678 16679 16680 16681 16682 16683 16684 16685 16686 16687 16688 16689 16690 16691 16692 16693 16694 16695 16696 16697 16698 16699 16700 16701 16702 16703 16704 16705 16706 16707 16708 16709 16710 16711 16712 16713 16714 16715 16716 16717 16718 16719 16720 16721 16722 16723 16724 16725 16726 16727 16728 16729 16730 16731 16732 16733 16734 16735 16736 16737 16738 16739 16740 16741 16742 16743 16744 16745 16746 16747 16748 16749 16750 16751 16752 16753 16754 16755 16756 16757 16758 16759 16760 16761 16762 16763 16764 16765 16766 16767 16768 16769 16770 16771 16772 16773 16774 16775 16776 16777 16778 16779 16780 16781 16782 16783 16784 16785 16786 16787 16788 16789 16790 16791 16792 16793 16794 16795 16796 16797 16798 16799 16800 16801 16802 16803 16804 16805 16806 16807 16808 16809 16810 16811 16812 16813 16814 16815 16816 16817 16818 16819 16820 16821 16822 16823 16824 16825 16826 16827 16828 16829 16830 16831 16832 16833 16834 16835 16836 16837 16838 16839 16840 16841 16842 16843 16844 16845 16846 16847 16848 16849 16850 16851 16852 16853 16854 16855 16856 16857 16858 16859 16860 16861 16862 16863 16864 16865 16866 16867 16868 16869 16870 16871 16872 16873 16874 16875 16876 16877 16878 16879 16880 16881 16882 16883 16884 16885 16886 16887 16888 16889 16890 16891 16892 16893 16894 16895 16896 16897 16898 16899 16900 16901 16902 16903 16904 16905 16906 16907 16908 16909 16910 16911 16912 16913 16914 16915 16916 16917 16918 16919 16920 16921 16922 16923 16924 16925 16926 16927 16928 16929 16930 16931 16932 16933 16934 16935 16936 16937 16938 16939 16940 16941 16942 16943 16944 16945 16946 16947 16948 16949 16950 16951 16952 16953 16954 16955 16956 16957 16958 16959 16960 16961 16962 16963 16964 16965 16966 16967 16968 16969 16970 16971 16972 16973 16974 16975 16976 16977 16978 16979 16980 16981 16982 16983 16984 16985 16986 16987 16988 16989 16990 16991 16992 16993 16994 16995 16996 16997 16998 16999 17000 17001 17002 17003 17004 17005 17006 17007 17008 17009 17010 17011 17012 17013 17014 17015 17016 17017 17018 17019 17020 17021 17022 17023 17024 17025 17026 17027 17028 17029 17030 17031 17032 17033 17034 17035 17036 17037 17038 17039 17040 17041 17042 17043 17044 17045 17046 17047 17048 17049 17050 17051 17052 17053 17054 17055 17056 17057 17058 17059 17060 17061 17062 17063 17064 17065 17066 17067 17068 17069 17070 17071 17072 17073 17074 17075 17076 17077 17078 17079 17080 17081 17082 17083 17084 17085 17086 17087 17088 17089 17090 17091 17092 17093 17094 17095 17096 17097 17098 17099 17100 17101 17102 17103 17104 17105 17106 17107 17108 17109 17110 17111 17112 17113 17114 17115 17116 17117 17118 17119 17120 17121 17122 17123 17124 17125 17126 17127 17128 17129 17130 17131 17132 17133 17134 17135 17136 17137 17138 17139 17140 17141 17142 17143 17144 17145 17146 17147 17148 17149 17150 17151 17152 17153 17154 17155 17156 17157 17158 17159 17160 17161 17162 17163 17164 17165 17166 17167 17168 17169 17170 17171 17172 17173 17174 17175 17176 17177 17178 17179 17180 17181 17182 17183 17184 17185 17186 17187 17188 17189 17190 17191 17192 17193 17194 17195 17196 17197 17198 17199 17200 17201 17202 17203 17204 17205 17206 17207 17208 17209 17210 17211 17212 17213 17214 17215 17216 17217 17218 17219 17220 17221 17222 17223 17224 17225 17226 17227 17228 17229 17230 17231 17232 17233 17234 17235 17236 17237 17238 17239 17240 17241 17242 17243 17244 17245 17246 17247 17248 17249 17250 17251 17252 17253 17254 17255 17256 17257 17258 17259 17260 17261 17262 17263 17264 17265 17266 17267 17268 17269 17270 17271 17272 17273 17274 17275 17276 17277 17278 17279 17280 17281 17282 17283 17284 17285 17286 17287 17288 17289 17290 17291 17292 17293 17294 17295 17296 17297 17298 17299 17300 17301 17302 17303 17304 17305 17306 17307 17308 17309 17310 17311 17312 17313 17314 17315 17316 17317 17318 17319 17320 17321 17322 17323 17324 17325 17326 17327 17328 17329 17330 17331 17332 17333 17334 17335 17336 17337 17338 17339 17340 17341 17342 17343 17344 17345 17346 17347 17348 17349 17350 17351 17352 17353 17354 17355 17356 17357 17358 17359 17360 17361 17362 17363 17364 17365 17366 17367 17368 17369 17370 17371 17372 17373 17374 17375 17376 17377 17378 17379 17380 17381 17382 17383 17384 17385 17386 17387 17388 17389 17390 17391 17392 17393 17394 17395 17396 17397 17398 17399 17400 17401 17402 17403 17404 17405 17406 17407 17408 17409 17410 17411 17412 17413 17414 17415 17416 17417 17418 17419 17420 17421 17422 17423 17424 17425 17426 17427 17428 17429 17430 17431 17432 17433 17434 17435 17436 17437 17438 17439 17440 17441 17442 17443 17444 17445 17446 17447 17448 17449 17450 17451 17452 17453 17454 17455 17456 17457 17458 17459 17460 17461 17462 17463 17464 17465 17466 17467 17468 17469 17470 17471 17472 17473 17474 17475 17476 17477 17478 17479 17480 17481 17482 17483 17484 17485 17486 17487 17488 17489 17490 17491 17492 17493 17494 17495 17496 17497 17498 17499 17500 17501 17502 17503 17504 17505 17506 17507 17508 17509 17510 17511 17512 17513 17514 17515 17516 17517 17518 17519 17520 17521 17522 17523 17524 17525 17526 17527 17528 17529 17530 17531 17532 17533 17534 17535 17536 17537 17538 17539 17540 17541 17542 17543 17544 17545 17546 17547 17548 17549 17550 17551 17552 17553 17554 17555 17556 17557 17558 17559 17560 17561 17562 17563 17564 17565 17566 17567 17568 17569 17570 17571 17572 17573 17574 17575 17576 17577 17578 17579 17580 17581 17582 17583 17584 17585 17586 17587 17588 17589 17590 17591 17592 17593 17594 17595 17596 17597 17598 17599 17600 17601 17602 17603 17604 17605 17606 17607 17608 17609 17610 17611 17612 17613 17614 17615 17616 17617 17618 17619 17620 17621 17622 17623 17624 17625 17626 17627 17628 17629 17630 17631 17632 17633 17634 17635 17636 17637 17638 17639 17640 17641 17642 17643 17644 17645 17646 17647 17648 17649 17650 17651 17652 17653 17654 17655 17656 17657 17658 17659 17660 17661 17662 17663 17664 17665 17666 17667 17668 17669 17670 17671 17672 17673 17674 17675 17676 17677 17678 17679 17680 17681 17682 17683 17684 17685 17686 17687 17688 17689 17690 17691 17692 17693 17694 17695 17696 17697 17698 17699 17700 17701 17702 17703 17704 17705 17706 17707 17708 17709 17710 17711 17712 17713 17714 17715 17716 17717 17718 17719 17720 17721 17722 17723 17724 17725 17726 17727 17728 17729 17730 17731 17732 17733 17734 17735 17736 17737 17738 17739 17740 17741 17742 17743 17744 17745 17746 17747 17748 17749 17750 17751 17752 17753 17754 17755 17756 17757 17758 17759 17760 17761 17762 17763 17764 17765 17766 17767 17768 17769 17770 17771 17772 17773 17774 17775 17776 17777 17778 17779 17780 17781 17782 17783 17784 17785 17786 17787 17788 17789 17790 17791 17792 17793 17794 17795 17796 17797 17798 17799 17800 17801 17802 17803 17804 17805 17806 17807 17808 17809 17810 17811 17812 17813 17814 17815 17816 17817 17818 17819 17820 17821 17822 17823 17824 17825 17826 17827 17828 17829 17830 17831 17832 17833 17834 17835 17836 17837 17838 17839 17840 17841 17842 17843 17844 17845 17846 17847 17848 17849 17850 17851 17852 17853 17854 17855 17856 17857 17858 17859 17860 17861 17862 17863 17864 17865 17866 17867 17868 17869 17870 17871 17872 17873 17874 17875 17876 17877 17878 17879 17880 17881 17882 17883 17884 17885 17886 17887 17888 17889 17890 17891 17892 17893 17894 17895 17896 17897 17898 17899 17900 17901 17902 17903 17904 17905 17906 17907 17908 17909 17910 17911 17912 17913 17914 17915 17916 17917 17918 17919 17920 17921 17922 17923 17924 17925 17926 17927 17928 17929 17930 17931 17932 17933 17934 17935 17936 17937 17938 17939 17940 17941 17942 17943 17944 17945 17946 17947 17948 17949 17950 17951 17952 17953 17954 17955 17956 17957 17958 17959 17960 17961 17962 17963 17964 17965 17966 17967 17968 17969 17970 17971 17972 17973 17974 17975 17976 17977 17978 17979 17980 17981 17982 17983 17984 17985 17986 17987 17988 17989 17990 17991 17992 17993 17994 17995 17996 17997 17998 17999 18000 18001 18002 18003 18004 18005 18006 18007 18008 18009 18010 18011 18012 18013 18014 18015 18016 18017 18018 18019 18020 18021 18022 18023 18024 18025 18026 18027 18028 18029 18030 18031 18032 18033 18034 18035 18036 18037 18038 18039 18040 18041 18042 18043 18044 18045 18046 18047 18048 18049 18050 18051 18052 18053 18054 18055 18056 18057 18058 18059 18060 18061 18062 18063 18064 18065 18066 18067 18068 18069 18070 18071 18072 18073 18074 18075 18076 18077 18078 18079 18080 18081 18082 18083 18084 18085 18086 18087 18088 18089 18090 18091 18092 18093 18094 18095 18096 18097 18098 18099 18100 18101 18102 18103 18104 18105 18106 18107 18108 18109 18110 18111 18112 18113 18114 18115 18116 18117 18118 18119 18120 18121 18122 18123 18124 18125 18126 18127 18128 18129 18130 18131 18132 18133 18134 18135 18136 18137 18138 18139 18140 18141 18142 18143 18144 18145 18146 18147 18148 18149 18150 18151 18152 18153 18154 18155 18156 18157 18158 18159 18160 18161 18162 18163 18164 18165 18166 18167 18168 18169 18170 18171 18172 18173 18174 18175 18176 18177 18178 18179 18180 18181 18182 18183 18184 18185 18186 18187 18188 18189 18190 18191 18192 18193 18194 18195 18196 18197 18198 18199 18200 18201 18202 18203 18204 18205 18206 18207 18208 18209 18210 18211 18212 18213 18214 18215 18216 18217 18218 18219 18220 18221 18222 18223 18224 18225 18226 18227 18228 18229 18230 18231 18232 18233 18234 18235 18236 18237 18238 18239 18240 18241 18242 18243 18244 18245 18246 18247 18248 18249 18250 18251 18252 18253 18254 18255 18256 18257 18258 18259 18260 18261 18262 18263 18264 18265 18266 18267 18268 18269 18270 18271 18272 18273 18274 18275 18276 18277 18278 18279 18280 18281 18282 18283 18284 18285 18286 18287 18288 18289 18290 18291 18292 18293 18294 18295 18296 18297 18298 18299 18300 18301 18302 18303 18304 18305 18306 18307 18308 18309 18310 18311 18312 18313 18314 18315 18316 18317 18318 18319 18320 18321 18322 18323 18324 18325 18326 18327 18328 18329 18330 18331 18332 18333 18334 18335 18336 18337 18338 18339 18340 18341 18342 18343 18344 18345 18346 18347 18348 18349 18350 18351 18352 18353 18354 18355 18356 18357 18358 18359 18360 18361 18362 18363 18364 18365 18366 18367 18368 18369 18370 18371 18372 18373 18374 18375 18376 18377 18378 18379 18380 18381 18382 18383 18384 18385 18386 18387 18388 18389 18390 18391 18392 18393 18394 18395 18396 18397 18398 18399 18400 18401 18402 18403 18404 18405 18406 18407 18408 18409 18410 18411 18412 18413 18414 18415 18416 18417 18418 18419 18420 18421 18422 18423 18424 18425 18426 18427 18428 18429 18430 18431 18432 18433 18434 18435 18436 18437 18438 18439 18440 18441 18442 18443 18444 18445 18446 18447 18448 18449 18450 18451 18452 18453 18454 18455 18456 18457 18458 18459 18460 18461 18462 18463 18464 18465 18466 18467 18468 18469 18470 18471 18472 18473 18474 18475 18476 18477 18478 18479 18480 18481 18482 18483 18484 18485 18486 18487 18488 18489 18490 18491 18492 18493 18494 18495 18496 18497 18498 18499 18500 18501 18502 18503 18504 18505 18506 18507 18508 18509 18510 18511 18512 18513 18514 18515 18516 18517 18518 18519 18520 18521 18522 18523 18524 18525 18526 18527 18528 18529 18530 18531 18532 18533 18534 18535 18536 18537 18538 18539 18540 18541 18542 18543 18544 18545 18546 18547 18548 18549 18550 18551 18552 18553 18554 18555 18556 18557 18558 18559 18560 18561 18562 18563 18564 18565 18566 18567 18568 18569 18570 18571 18572 18573 18574 18575 18576 18577 18578 18579 18580 18581 18582 18583 18584 18585 18586 18587 18588 18589 18590 18591 18592 18593 18594 18595 18596 18597 18598 18599 18600 18601 18602 18603 18604 18605 18606 18607 18608 18609 18610 18611 18612 18613 18614 18615 18616 18617 18618 18619 18620 18621 18622 18623 18624 18625 18626 18627 18628 18629 18630 18631 18632 18633 18634 18635 18636 18637 18638 18639 18640 18641 18642 18643 18644 18645 18646 18647 18648 18649 18650 18651 18652 18653 18654 18655 18656 18657 18658 18659 18660 18661 18662 18663 18664 18665 18666 18667 18668 18669 18670 18671 18672 18673 18674 18675 18676 18677 18678 18679 18680 18681 18682 18683 18684 18685 18686 18687 18688 18689 18690 18691 18692 18693 18694 18695 18696 18697 18698 18699 18700 18701 18702 18703 18704 18705 18706 18707 18708 18709 18710 18711 18712 18713 18714 18715 18716 18717 18718 18719 18720 18721 18722 18723 18724 18725 18726 18727 18728 18729 18730 18731 18732 18733 18734 18735 18736 18737 18738 18739 18740 18741 18742 18743 18744 18745 18746 18747 18748 18749 18750 18751 18752 18753 18754 18755 18756 18757 18758 18759 18760 18761 18762 18763 18764 18765 18766 18767 18768 18769 18770 18771 18772 18773 18774 18775 18776 18777 18778 18779 18780 18781 18782 18783 18784 18785 18786 18787 18788 18789 18790 18791 18792 18793 18794 18795 18796 18797 18798 18799 18800 18801 18802 18803 18804 18805 18806 18807 18808 18809 18810 18811 18812 18813 18814 18815 18816 18817 18818 18819 18820 18821 18822 18823 18824 18825 18826 18827 18828 18829 18830 18831 18832 18833 18834 18835 18836 18837 18838 18839 18840 18841 18842 18843 18844 18845 18846 18847 18848 18849 18850 18851 18852 18853 18854 18855 18856 18857 18858 18859 18860 18861 18862 18863 18864 18865 18866 18867 18868 18869 18870 18871 18872 18873 18874 18875 18876 18877 18878 18879 18880 18881 18882 18883 18884 18885 18886 18887 18888 18889 18890 18891 18892 18893 18894 18895 18896 18897 18898 18899 18900 18901 18902 18903 18904 18905 18906 18907 18908 18909 18910 18911 18912 18913 18914 18915 18916 18917 18918 18919 18920 18921 18922 18923 18924 18925 18926 18927 18928 18929 18930 18931 18932 18933 18934 18935 18936 18937 18938 18939 18940 18941 18942 18943 18944 18945 18946 18947 18948 18949 18950 18951 18952 18953 18954 18955 18956 18957 18958 18959 18960 18961 18962 18963 18964 18965 18966 18967 18968 18969 18970 18971 18972 18973 18974 18975 18976 18977 18978 18979 18980 18981 18982 18983 18984 18985 18986 18987 18988 18989 18990 18991 18992 18993 18994 18995 18996 18997 18998 18999 19000 19001 19002 19003 19004 19005 19006 19007 19008 19009 19010 19011 19012 19013 19014 19015 19016 19017 19018 19019 19020 19021 19022 19023 19024 19025 19026 19027 19028 19029 19030 19031 19032 19033 19034 19035 19036 19037 19038 19039 19040 19041 19042 19043 19044 19045 19046 19047 19048 19049 19050 19051 19052 19053 19054 19055 19056 19057 19058 19059 19060 19061 19062 19063 19064 19065 19066 19067 19068 19069 19070 19071 19072 19073 19074 19075 19076 19077 19078 19079 19080 19081 19082 19083 19084 19085 19086 19087 19088 19089 19090 19091 19092 19093 19094 19095 19096 19097 19098 19099 19100 19101 19102 19103 19104 19105 19106 19107 19108 19109 19110 19111 19112 19113 19114 19115 19116 19117 19118 19119 19120 19121 19122 19123 19124 19125 19126 19127 19128 19129 19130 19131 19132 19133 19134 19135 19136 19137 19138 19139 19140 19141 19142 19143 19144 19145 19146 19147 19148 19149 19150 19151 19152 19153 19154 19155 19156 19157 19158 19159 19160 19161 19162 19163 19164 19165 19166 19167 19168 19169 19170 19171 19172 19173 19174 19175 19176 19177 19178 19179 19180 19181 19182 19183 19184 19185 19186 19187 19188 19189 19190 19191 19192 19193 19194 19195 19196 19197 19198 19199 19200 19201 19202 19203 19204 19205 19206 19207 19208 19209 19210 19211 19212 19213 19214 19215 19216 19217 19218 19219 19220 19221 19222 19223 19224 19225 19226 19227 19228 19229 19230 19231 19232 19233 19234 19235 19236 19237 19238 19239 19240 19241 19242 19243 19244 19245 19246 19247 19248 19249 19250 19251 19252 19253 19254 19255 19256 19257 19258 19259 19260 19261 19262 19263 19264 19265 19266 19267 19268 19269 19270 19271 19272 19273 19274 19275 19276 19277 19278 19279 19280 19281 19282 19283 19284 19285 19286 19287 19288 19289 19290 19291 19292 19293 19294 19295 19296 19297 19298 19299 19300 19301 19302 19303 19304 19305 19306 19307 19308 19309 19310 19311 19312 19313 19314 19315 19316 19317 19318 19319 19320 19321 19322 19323 19324 19325 19326 19327 19328 19329 19330 19331 19332 19333 19334 19335 19336 19337 19338 19339 19340 19341 19342 19343 19344 19345 19346 19347 19348 19349 19350 19351 19352 19353 19354 19355 19356 19357 19358 19359 19360 19361 19362 19363 19364 19365 19366 19367 19368 19369 19370 19371 19372 19373 19374 19375 19376 19377 19378 19379 19380 19381 19382 19383 19384 19385 19386 19387 19388 19389 19390 19391 19392 19393 19394 19395 19396 19397 19398 19399 19400 19401 19402 19403 19404 19405 19406 19407 19408 19409 19410 19411 19412 19413 19414 19415 19416 19417 19418 19419 19420 19421 19422 19423 19424 19425 19426 19427 19428 19429 19430 19431 19432 19433 19434 19435 19436 19437 19438 19439 19440 19441 19442 19443 19444 19445 19446 19447 19448 19449 19450 19451 19452 19453 19454 19455 19456 19457 19458 19459 19460 19461 19462 19463 19464 19465 19466 19467 19468 19469 19470 19471 19472 19473 19474 19475 19476 19477 19478 19479 19480 19481 19482 19483 19484 19485 19486 19487 19488 19489 19490 19491 19492 19493 19494 19495 19496 19497 19498 19499 19500 19501 19502 19503 19504 19505 19506 19507 19508 19509 19510 19511 19512 19513 19514 19515 19516 19517 19518 19519 19520 19521 19522 19523 19524 19525 19526 19527 19528 19529 19530 19531 19532 19533 19534 19535 19536 19537 19538 19539 19540 19541 19542 19543 19544 19545 19546 19547 19548 19549 19550 19551 19552 19553 19554 19555 19556 19557 19558 19559 19560 19561 19562 19563 19564 19565 19566 19567 19568 19569 19570 19571 19572 19573 19574 19575 19576 19577 19578 19579 19580 19581 19582 19583 19584 19585 19586 19587 19588 19589 19590 19591 19592 19593 19594 19595 19596 19597 19598 19599 19600 19601 19602 19603 19604 19605 19606 19607 19608 19609 19610 19611 19612 19613 19614 19615 19616 19617 19618 19619 19620 19621 19622 19623 19624 19625 19626 19627 19628 19629 19630 19631 19632 19633 19634 19635 19636 19637 19638 19639 19640 19641 19642 19643 19644 19645 19646 19647 19648 19649 19650 19651 19652 19653 19654 19655 19656 19657 19658 19659 19660 19661 19662 19663 19664 19665 19666 19667 19668 19669 19670 19671 19672 19673 19674 19675 19676 19677 19678 19679 19680 19681 19682 19683 19684 19685 19686 19687 19688 19689 19690 19691 19692 19693 19694 19695 19696 19697 19698 19699 19700 19701 19702 19703 19704 19705 19706 19707 19708 19709 19710 19711 19712 19713 19714 19715 19716 19717 19718 19719 19720 19721 19722 19723 19724 19725 19726 19727 19728 19729 19730 19731 19732 19733 19734 19735 19736 19737 19738 19739 19740 19741 19742 19743 19744 19745 19746 19747 19748 19749 19750 19751 19752 19753 19754 19755 19756 19757 19758 19759 19760 19761 19762 19763 19764 19765 19766 19767 19768 19769 19770 19771 19772 19773 19774 19775 19776 19777 19778 19779 19780 19781 19782 19783 19784 19785 19786 19787 19788 19789 19790 19791 19792 19793 19794 19795 19796 19797 19798 19799 19800 19801 19802 19803 19804 19805 19806 19807 19808 19809 19810 19811 19812 19813 19814 19815 19816 19817 19818 19819 19820 19821 19822 19823 19824 19825 19826 19827 19828 19829 19830 19831 19832 19833 19834 19835 19836 19837 19838 19839 19840 19841 19842 19843 19844 19845 19846 19847 19848 19849 19850 19851 19852 19853 19854 19855 19856 19857 19858 19859 19860 19861 19862 19863 19864 19865 19866 19867 19868 19869 19870 19871 19872 19873 19874 19875 19876 19877 19878 19879 19880 19881 19882 19883 19884 19885 19886 19887 19888 19889 19890 19891 19892 19893 19894 19895 19896 19897 19898 19899 19900 19901 19902 19903 19904 19905 19906 19907 19908 19909 19910 19911 19912 19913 19914 19915 19916 19917 19918 19919 19920 19921 19922 19923 19924 19925 19926 19927 19928 19929 19930 19931 19932 19933 19934 19935 19936 19937 19938 19939 19940 19941 19942 19943 19944 19945 19946 19947 19948 19949 19950 19951 19952 19953 19954 19955 19956 19957 19958 19959 19960 19961 19962 19963 19964 19965 19966 19967 19968 19969 19970 19971 19972 19973 19974 19975 19976 19977 19978 19979 19980 19981 19982 19983 19984 19985 19986 19987 19988 19989 19990 19991 19992 19993 19994 19995 19996 19997 19998 19999 20000 20001 20002 20003 20004 20005 20006 20007 20008 20009 20010 20011 20012 20013 20014 20015 20016 20017 20018 20019 20020 20021 20022 20023 20024 20025 20026 20027 20028 20029 20030 20031 20032 20033 20034 20035 20036 20037 20038 20039 20040 20041 20042 20043 20044 20045 20046 20047 20048 20049 20050 20051 20052 20053 20054 20055 20056 20057 20058 20059 20060 20061 20062 20063 20064 20065 20066 20067 20068 20069 20070 20071 20072 20073 20074 20075 20076 20077 20078 20079 20080 20081 20082 20083 20084 20085 20086 20087 20088 20089 20090 20091 20092 20093 20094 20095 20096 20097 20098 20099 20100 20101 20102 20103 20104 20105 20106 20107 20108 20109 20110 20111 20112 20113 20114 20115 20116 20117 20118 20119 20120 20121 20122 20123 20124 20125 20126 20127 20128 20129 20130 20131 20132 20133 20134 20135 20136 20137 20138 20139 20140 20141 20142 20143 20144 20145 20146 20147 20148 20149 20150 20151 20152 20153 20154 20155 20156 20157 20158 20159 20160 20161 20162 20163 20164 20165 20166 20167 20168 20169 20170 20171 20172 20173 20174 20175 20176 20177 20178 20179 20180 20181 20182 20183 20184 20185 20186 20187 20188 20189 20190 20191 20192 20193 20194 20195 20196 20197 20198 20199 20200 20201 20202 20203 20204 20205 20206 20207 20208 20209 20210 20211 20212 20213 20214 20215 20216 20217 20218 20219 20220 20221 20222 20223 20224 20225 20226 20227 20228 20229 20230 20231 20232 20233 20234 20235 20236 20237 20238 20239 20240 20241 20242 20243 20244 20245 20246 20247 20248 20249 20250 20251 20252 20253 20254 20255 20256 20257 20258 20259 20260 20261 20262 20263 20264 20265 20266 20267 20268 20269 20270 20271 20272 20273 20274 20275 20276 20277 20278 20279 20280 20281 20282 20283 20284 20285 20286 20287 20288 20289 20290 20291 20292 20293 20294 20295 20296 20297 20298 20299 20300 20301 20302 20303 20304 20305 20306 20307 20308 20309 20310 20311 20312 20313 20314 20315 20316 20317 20318 20319 20320 20321 20322 20323 20324 20325 20326 20327 20328 20329 20330 20331 20332 20333 20334 20335 20336 20337 20338 20339 20340 20341 20342 20343 20344 20345 20346 20347 20348 20349 20350 20351 20352 20353 20354 20355 20356 20357 20358 20359 20360 20361 20362 20363 20364 20365 20366 20367 20368 20369 20370 20371 20372 20373 20374 20375 20376 20377 20378 20379 20380 20381 20382 20383 20384 20385 20386 20387 20388 20389 20390 20391 20392 20393 20394 20395 20396 20397 20398 20399 20400 20401 20402 20403 20404 20405 20406 20407 20408 20409 20410 20411 20412 20413 20414 20415 20416 20417 20418 20419 20420 20421 20422 20423 20424 20425 20426 20427 20428 20429 20430 20431 20432 20433 20434 20435 20436 20437 20438 20439 20440 20441 20442 20443 20444 20445 20446 20447 20448 20449 20450 20451 20452 20453 20454 20455 20456 20457 20458 20459 20460 20461 20462 20463 20464 20465 20466 20467 20468 20469 20470 20471 20472 20473 20474 20475 20476 20477 20478 20479 20480 20481 20482 20483 20484 20485 20486 20487 20488 20489 20490 20491 20492 20493 20494 20495 20496 20497 20498 20499 20500 20501 20502 20503 20504 20505 20506 20507 20508 20509 20510 20511 20512 20513 20514 20515 20516 20517 20518 20519 20520 20521 20522 20523 20524 20525 20526 20527 20528 20529 20530 20531 20532 20533 20534 20535 20536 20537 20538 20539 20540 20541 20542 20543 20544 20545 20546 20547 20548 20549 20550 20551 20552 20553 20554 20555 20556 20557 20558 20559 20560 20561 20562 20563 20564 20565 20566 20567 20568 20569 20570 20571 20572 20573 20574 20575 20576 20577 20578 20579 20580 20581 20582 20583 20584 20585 20586 20587 20588 20589 20590 20591 20592 20593 20594 20595 20596 20597 20598 20599 20600 20601 20602 20603 20604 20605 20606 20607 20608 20609 20610 20611 20612 20613 20614 20615 20616 20617 20618 20619 20620 20621 20622 20623 20624 20625 20626 20627 20628 20629 20630 20631 20632 20633 20634 20635 20636 20637 20638 20639 20640 20641 20642 20643 20644 20645 20646 20647 20648 20649 20650 20651 20652 20653 20654 20655 20656 20657 20658 20659 20660 20661 20662 20663 20664 20665 20666 20667 20668 20669 20670 20671 20672 20673 20674 20675 20676 20677 20678 20679 20680 20681 20682 20683 20684 20685 20686 20687 20688 20689 20690 20691 20692 20693 20694 20695 20696 20697 20698 20699 20700 20701 20702 20703 20704 20705 20706 20707 20708 20709 20710 20711 20712 20713 20714 20715 20716 20717 20718 20719 20720 20721 20722 20723 20724 20725 20726 20727 20728 20729 20730 20731 20732 20733 20734 20735 20736 20737 20738 20739 20740 20741 20742 20743 20744 20745 20746 20747 20748 20749 20750 20751 20752 20753 20754 20755 20756 20757 20758 20759 20760 20761 20762 20763 20764 20765 20766 20767 20768 20769 20770 20771 20772 20773 20774 20775 20776 20777 20778 20779 20780 20781 20782 20783 20784 20785 20786 20787 20788 20789 20790 20791 20792 20793 20794 20795 20796 20797 20798 20799 20800 20801 20802 20803 20804 20805 20806 20807 20808 20809 20810 20811 20812 20813 20814 20815 20816 20817 20818 20819 20820 20821 20822 20823 20824 20825 20826 20827 20828 20829 20830 20831 20832 20833 20834 20835 20836 20837 20838 20839 20840 20841 20842 20843 20844 20845 20846 20847 20848 20849 20850 20851 20852 20853 20854 20855 20856 20857 20858 20859 20860 20861 20862 20863 20864 20865 20866 20867 20868 20869 20870 20871 20872 20873 20874 20875 20876 20877 20878 20879 20880 20881 20882 20883 20884 20885 20886 20887 20888 20889 20890 20891 20892 20893 20894 20895 20896 20897 20898 20899 20900 20901 20902 20903 20904 20905 20906 20907 20908 20909 20910 20911 20912 20913 20914 20915 20916 20917 20918 20919 20920 20921 20922 20923 20924 20925 20926 20927 20928 20929 20930 20931 20932 20933 20934 20935 20936 20937 20938 20939 20940 20941 20942 20943 20944 20945 20946 20947 20948 20949 20950 20951 20952 20953 20954 20955 20956 20957 20958 20959 20960 20961 20962 20963 20964 20965 20966 20967 20968 20969 20970 20971 20972 20973 20974 20975 20976 20977 20978 20979 20980 20981 20982 20983 20984 20985 20986 20987 20988 20989 20990 20991 20992 20993 20994 20995 20996 20997 20998 20999 21000 21001 21002 21003 21004 21005 21006 21007 21008 21009 21010 21011 21012 21013 21014 21015 21016 21017 21018 21019 21020 21021 21022 21023 21024 21025 21026 21027 21028 21029 21030 21031 21032 21033 21034 21035 21036 21037 21038 21039 21040 21041 21042 21043 21044 21045 21046 21047 21048 21049 21050 21051 21052 21053 21054 21055 21056 21057 21058 21059 21060 21061 21062 21063 21064 21065 21066 21067 21068 21069 21070 21071 21072 21073 21074 21075 21076 21077 21078 21079 21080 21081 21082 21083 21084 21085 21086 21087 21088 21089 21090 21091 21092 21093 21094 21095 21096 21097 21098 21099 21100 21101 21102 21103 21104 21105 21106 21107 21108 21109 21110 21111 21112 21113 21114 21115 21116 21117 21118 21119 21120 21121 21122 21123 21124 21125 21126 21127 21128 21129 21130 21131 21132 21133 21134 21135 21136 21137 21138 21139 21140 21141 21142 21143 21144 21145 21146 21147 21148 21149 21150 21151 21152 21153 21154 21155 21156 21157 21158 21159 21160 21161 21162 21163 21164 21165 21166 21167 21168 21169 21170 21171 21172 21173 21174 21175 21176 21177 21178 21179 21180 21181 21182 21183 21184 21185 21186 21187 21188 21189 21190 21191 21192 21193 21194 21195 21196 21197 21198 21199 21200 21201 21202 21203 21204 21205 21206 21207 21208 21209 21210 21211 21212 21213 21214 21215 21216 21217 21218 21219 21220 21221 21222 21223 21224 21225 21226 21227 21228 21229 21230 21231 21232 21233 21234 21235 21236 21237 21238 21239 21240 21241 21242 21243 21244 21245 21246 21247 21248 21249 21250 21251 21252 21253 21254 21255 21256 21257 21258 21259 21260 21261 21262 21263 21264 21265 21266 21267 21268 21269 21270 21271 21272 21273 21274 21275 21276 21277 21278 21279 21280 21281 21282 21283 21284 21285 21286 21287 21288 21289 21290 21291 21292 21293 21294 21295 21296 21297 21298 21299 21300 21301 21302 21303 21304 21305 21306 21307 21308 21309 21310 21311 21312 21313 21314 21315 21316 21317 21318 21319 21320 21321 21322 21323 21324 21325 21326 21327 21328 21329 21330 21331 21332 21333 21334 21335 21336 21337 21338 21339 21340 21341 21342 21343 21344 21345 21346 21347 21348 21349 21350 21351 21352 21353 21354 21355 21356 21357 21358 21359 21360 21361 21362 21363 21364 21365 21366 21367 21368 21369 21370 21371 21372 21373 21374 21375 21376 21377 21378 21379 21380 21381 21382 21383 21384 21385 21386 21387 21388 21389 21390 21391 21392 21393 21394 21395 21396 21397 21398 21399 21400 21401 21402 21403 21404 21405 21406 21407 21408 21409 21410 21411 21412 21413 21414 21415 21416 21417 21418 21419 21420 21421 21422 21423 21424 21425 21426 21427 21428 21429 21430 21431 21432 21433 21434 21435 21436 21437 21438 21439 21440 21441 21442 21443 21444 21445 21446 21447 21448 21449 21450 21451 21452 21453 21454 21455 21456 21457 21458 21459 21460 21461 21462 21463 21464 21465 21466 21467 21468 21469 21470 21471 21472 21473 21474 21475 21476 21477 21478 21479 21480 21481 21482 21483 21484 21485 21486 21487 21488 21489 21490 21491 21492 21493 21494 21495 21496 21497 21498 21499 21500 21501 21502 21503 21504 21505 21506 21507 21508 21509 21510 21511 21512 21513 21514 21515 21516 21517 21518 21519 21520 21521 21522 21523 21524 21525 21526 21527 21528 21529 21530 21531 21532 21533 21534 21535 21536 21537 21538 21539 21540 21541 21542 21543 21544 21545 21546 21547 21548 21549 21550 21551 21552 21553 21554 21555 21556 21557 21558 21559 21560 21561 21562 21563 21564 21565 21566 21567 21568 21569 21570 21571 21572 21573 21574 21575 21576 21577 21578 21579 21580 21581 21582 21583 21584 21585 21586 21587 21588 21589 21590 21591 21592 21593 21594 21595 21596 21597 21598 21599 21600 21601 21602 21603 21604 21605 21606 21607 21608 21609 21610 21611 21612 21613 21614 21615 21616 21617 21618 21619 21620 21621 21622 21623 21624 21625 21626 21627 21628 21629 21630 21631 21632 21633 21634 21635 21636 21637 21638 21639 21640 21641 21642 21643 21644 21645 21646 21647 21648 21649 21650 21651 21652 21653 21654 21655 21656 21657 21658 21659 21660 21661 21662 21663 21664 21665 21666 21667 21668 21669 21670 21671 21672 21673 21674 21675 21676 21677 21678 21679 21680 21681 21682 21683 21684 21685 21686 21687 21688 21689 21690 21691 21692 21693 21694 21695 21696 21697 21698 21699 21700 21701 21702 21703 21704 21705 21706 21707 21708 21709 21710 21711 21712 21713 21714 21715 21716 21717 21718 21719 21720 21721 21722 21723 21724 21725 21726 21727 21728 21729 21730 21731 21732 21733 21734 21735 21736 21737 21738 21739 21740 21741 21742 21743 21744 21745 21746 21747 21748 21749 21750 21751 21752 21753 21754 21755 21756 21757 21758 21759 21760 21761 21762 21763 21764 21765 21766 21767 21768 21769 21770 21771 21772 21773 21774 21775 21776 21777 21778 21779 21780 21781 21782 21783 21784 21785 21786 21787 21788 21789 21790 21791 21792 21793 21794 21795 21796 21797 21798 21799 21800 21801 21802 21803 21804 21805 21806 21807 21808 21809 21810 21811 21812 21813 21814 21815 21816 21817 21818 21819 21820 21821 21822 21823 21824 21825 21826 21827 21828 21829 21830 21831 21832 21833 21834 21835 21836 21837 21838 21839 21840 21841 21842 21843 21844 21845 21846 21847 21848 21849 21850 21851 21852 21853 21854 21855 21856 21857 21858 21859 21860 21861 21862 21863 21864 21865 21866 21867 21868 21869 21870 21871 21872 21873 21874 21875 21876 21877 21878 21879 21880 21881 21882 21883 21884 21885 21886 21887 21888 21889 21890 21891 21892 21893 21894 21895 21896 21897 21898 21899 21900 21901 21902 21903 21904 21905 21906 21907 21908 21909 21910 21911 21912 21913 21914 21915 21916 21917 21918 21919 21920 21921 21922 21923 21924 21925 21926 21927 21928 21929 21930 21931 21932 21933 21934 21935 21936 21937 21938 21939 21940 21941 21942 21943 21944 21945 21946 21947 21948 21949 21950 21951 21952 21953 21954 21955 21956 21957 21958 21959 21960 21961 21962 21963 21964 21965 21966 21967 21968 21969 21970 21971 21972 21973 21974 21975 21976 21977 21978 21979 21980 21981 21982 21983 21984 21985 21986 21987 21988 21989 21990 21991 21992 21993 21994 21995 21996 21997 21998 21999 22000 22001 22002 22003 22004 22005 22006 22007 22008 22009 22010 22011 22012 22013 22014 22015 22016 22017 22018 22019 22020 22021 22022 22023 22024 22025 22026 22027 22028 22029 22030 22031 22032 22033 22034 22035 22036 22037 22038 22039 22040 22041 22042 22043 22044 22045 22046 22047 22048 22049 22050 22051 22052 22053 22054 22055 22056 22057 22058 22059 22060 22061 22062 22063 22064 22065 22066 22067 22068 22069 22070 22071 22072 22073 22074 22075 22076 22077 22078 22079 22080 22081 22082 22083 22084 22085 22086 22087 22088 22089 22090 22091 22092 22093 22094 22095 22096 22097 22098 22099 22100 22101 22102 22103 22104 22105 22106 22107 22108 22109 22110 22111 22112 22113 22114 22115 22116 22117 22118 22119 22120 22121 22122 22123 22124 22125 22126 22127 22128 22129 22130 22131 22132 22133 22134 22135 22136 22137 22138 22139 22140 22141 22142 22143 22144 22145 22146 22147 22148 22149 22150 22151 22152 22153 22154 22155 22156 22157 22158 22159 22160 22161 22162 22163 22164 22165 22166 22167 22168 22169 22170 22171 22172 22173 22174 22175 22176 22177 22178 22179 22180 22181 22182 22183 22184 22185 22186 22187 22188 22189 22190 22191 22192 22193 22194 22195 22196 22197 22198 22199 22200 22201 22202 22203 22204 22205 22206 22207 22208 22209 22210 22211 22212 22213 22214 22215 22216 22217 22218 22219 22220 22221 22222 22223 22224 22225 22226 22227 22228 22229 22230 22231 22232 22233 22234 22235 22236 22237 22238 22239 22240 22241 22242 22243 22244 22245 22246 22247 22248 22249 22250 22251 22252 22253 22254 22255 22256 22257 22258 22259 22260 22261 22262 22263 22264 22265 22266 22267 22268 22269 22270 22271 22272 22273 22274 22275 22276 22277 22278 22279 22280 22281 22282 22283 22284 22285 22286 22287 22288 22289 22290 22291 22292 22293 22294 22295 22296 22297 22298 22299 22300 22301 22302 22303 22304 22305 22306 22307 22308 22309 22310 22311 22312 22313 22314 22315 22316 22317 22318 22319 22320 22321 22322 22323 22324 22325 22326 22327 22328 22329 22330 22331 22332 22333 22334 22335 22336 22337 22338 22339 22340 22341 22342 22343 22344 22345 22346 22347 22348 22349 22350 22351 22352 22353 22354 22355 22356 22357 22358 22359 22360 22361 22362 22363 22364 22365 22366 22367 22368 22369 22370 22371 22372 22373 22374 22375 22376 22377 22378 22379 22380 22381 22382 22383 22384 22385 22386 22387 22388 22389 22390 22391 22392 22393 22394 22395 22396 22397 22398 22399 22400 22401 22402 22403 22404 22405 22406 22407 22408 22409 22410 22411 22412 22413 22414 22415 22416 22417 22418 22419 22420 22421 22422 22423 22424 22425 22426 22427 22428 22429 22430 22431 22432 22433 22434 22435 22436 22437 22438 22439 22440 22441 22442 22443 22444 22445 22446 22447 22448 22449 22450 22451 22452 22453 22454 22455 22456 22457 22458 22459 22460 22461 22462 22463 22464 22465 22466 22467 22468 22469 22470 22471 22472 22473 22474 22475 22476 22477 22478 22479 22480 22481 22482 22483 22484 22485 22486 22487 22488 22489 22490 22491 22492 22493 22494 22495 22496 22497 22498 22499 22500 22501 22502 22503 22504 22505 22506 22507 22508 22509 22510 22511 22512 22513 22514 22515 22516 22517 22518 22519 22520 22521 22522 22523 22524 22525 22526 22527 22528 22529 22530 22531 22532 22533 22534 22535 22536 22537 22538 22539 22540 22541 22542 22543 22544 22545 22546 22547 22548 22549 22550 22551 22552 22553 22554 22555 22556 22557 22558 22559 22560 22561 22562 22563 22564 22565 22566 22567 22568 22569 22570 22571 22572 22573 22574 22575 22576 22577 22578 22579 22580 22581 22582 22583 22584 22585 22586 22587 22588 22589 22590 22591 22592 22593 22594 22595 22596 22597 22598 22599 22600 22601 22602 22603 22604 22605 22606 22607 22608 22609 22610 22611 22612 22613 22614 22615 22616 22617 22618 22619 22620 22621 22622 22623 22624 22625 22626 22627 22628 22629 22630 22631 22632 22633 22634 22635 22636 22637 22638 22639 22640 22641 22642 22643 22644 22645 22646 22647 22648 22649 22650 22651 22652 22653 22654 22655 22656 22657 22658 22659 22660 22661 22662 22663 22664 22665 22666 22667 22668 22669 22670 22671 22672 22673 22674 22675 22676 22677 22678 22679 22680 22681 22682 22683 22684 22685 22686 22687 22688 22689 22690 22691 22692 22693 22694 22695 22696 22697 22698 22699 22700 22701 22702 22703 22704 22705 22706 22707 22708 22709 22710 22711 22712 22713 22714 22715 22716 22717 22718 22719 22720 22721 22722 22723 22724 22725 22726 22727 22728 22729 22730 22731 22732 22733 22734 22735 22736 22737 22738 22739 22740 22741 22742 22743 22744 22745 22746 22747 22748 22749 22750 22751 22752 22753 22754 22755 22756 22757 22758 22759 22760 22761 22762 22763 22764 22765 22766 22767 22768 22769 22770 22771 22772 22773 22774 22775 22776 22777 22778 22779 22780 22781 22782 22783 22784 22785 22786 22787 22788 22789 22790 22791 22792 22793 22794 22795 22796 22797 22798 22799 22800 22801 22802 22803 22804 22805 22806 22807 22808 22809 22810 22811 22812 22813 22814 22815 22816 22817 22818 22819 22820 22821 22822 22823 22824 22825 22826 22827 22828 22829 22830 22831 22832 22833 22834 22835 22836 22837 22838 22839 22840 22841 22842 22843 22844 22845 22846 22847 22848 22849 22850 22851 22852 22853 22854 22855 22856 22857 22858 22859 22860 22861 22862 22863 22864 22865 22866 22867 22868 22869 22870 22871 22872 22873 22874 22875 22876 22877 22878 22879 22880 22881 22882 22883 22884 22885 22886 22887 22888 22889 22890 22891 22892 22893 22894 22895 22896 22897 22898 22899 22900 22901 22902 22903 22904 22905 22906 22907 22908 22909 22910 22911 22912 22913 22914 22915 22916 22917 22918 22919 22920 22921 22922 22923 22924 22925 22926 22927 22928 22929 22930 22931 22932 22933 22934 22935 22936 22937 22938 22939 22940 22941 22942 22943 22944 22945 22946 22947 22948 22949 22950 22951 22952 22953 22954 22955 22956 22957 22958 22959 22960 22961 22962 22963 22964 22965 22966 22967 22968 22969 22970 22971 22972 22973 22974 22975 22976 22977 22978 22979 22980 22981 22982 22983 22984 22985 22986 22987 22988 22989 22990 22991 22992 22993 22994 22995 22996 22997 22998 22999 23000 23001 23002 23003 23004 23005 23006 23007 23008 23009 23010 23011 23012 23013 23014 23015 23016 23017 23018 23019 23020 23021 23022 23023 23024 23025 23026 23027 23028 23029 23030 23031 23032 23033 23034 23035 23036 23037 23038 23039 23040 23041 23042 23043 23044 23045 23046 23047 23048 23049 23050 23051 23052 23053 23054 23055 23056 23057 23058 23059 23060 23061 23062 23063 23064 23065 23066 23067 23068 23069 23070 23071 23072 23073 23074 23075 23076 23077 23078 23079 23080 23081 23082 23083 23084 23085 23086 23087 23088 23089 23090 23091 23092 23093 23094 23095 23096 23097 23098 23099 23100 23101 23102 23103 23104 23105 23106 23107 23108 23109 23110 23111 23112 23113 23114 23115 23116 23117 23118 23119 23120 23121 23122 23123 23124 23125 23126 23127 23128 23129 23130 23131 23132 23133 23134 23135 23136 23137 23138 23139 23140 23141 23142 23143 23144 23145 23146 23147 23148 23149 23150 23151 23152 23153 23154 23155 23156 23157 23158 23159 23160 23161 23162 23163 23164 23165 23166 23167 23168 23169 23170 23171 23172 23173 23174 23175 23176 23177 23178 23179 23180 23181 23182 23183 23184 23185 23186 23187 23188 23189 23190 23191 23192 23193 23194 23195 23196 23197 23198 23199 23200 23201 23202 23203 23204 23205 23206 23207 23208 23209 23210 23211 23212 23213 23214 23215 23216 23217 23218 23219 23220 23221 23222 23223 23224 23225 23226 23227 23228 23229 23230 23231 23232 23233 23234 23235 23236 23237 23238 23239 23240 23241 23242 23243 23244 23245 23246 23247 23248 23249 23250 23251 23252 23253 23254 23255 23256 23257 23258 23259 23260 23261 23262 23263 23264 23265 23266 23267 23268 23269 23270 23271 23272 23273 23274 23275 23276 23277 23278 23279 23280 23281 23282 23283 23284 23285 23286 23287 23288 23289 23290 23291 23292 23293 23294 23295 23296 23297 23298 23299 23300 23301 23302 23303 23304 23305 23306 23307 23308 23309 23310 23311 23312 23313 23314 23315 23316 23317 23318 23319 23320 23321 23322 23323 23324 23325 23326 23327 23328 23329 23330 23331 23332 23333 23334 23335 23336 23337 23338 23339 23340 23341 23342 23343 23344 23345 23346 23347 23348 23349 23350 23351 23352 23353 23354 23355 23356 23357 23358 23359 23360 23361 23362 23363 23364 23365 23366 23367 23368 23369 23370 23371 23372 23373 23374 23375 23376 23377 23378 23379 23380 23381 23382 23383 23384 23385 23386 23387 23388 23389 23390 23391 23392 23393 23394 23395 23396 23397 23398 23399 23400 23401 23402 23403 23404 23405 23406 23407 23408 23409 23410 23411 23412 23413 23414 23415 23416 23417 23418 23419 23420 23421 23422 23423 23424 23425 23426 23427 23428 23429 23430 23431 23432 23433 23434 23435 23436 23437 23438 23439 23440 23441 23442 23443 23444 23445 23446 23447 23448 23449 23450 23451 23452 23453 23454 23455 23456 23457 23458 23459 23460 23461 23462 23463 23464 23465 23466 23467 23468 23469 23470 23471 23472 23473 23474 23475 23476 23477 23478 23479 23480 23481 23482 23483 23484 23485 23486 23487 23488 23489 23490 23491 23492 23493 23494 23495 23496 23497 23498 23499 23500 23501 23502 23503 23504 23505 23506 23507 23508 23509 23510 23511 23512 23513 23514 23515 23516 23517 23518 23519 23520 23521 23522 23523 23524 23525 23526 23527 23528 23529 23530 23531 23532 23533 23534 23535 23536 23537 23538 23539 23540 23541 23542 23543 23544 23545 23546 23547 23548 23549 23550 23551 23552 23553 23554 23555 23556 23557 23558 23559 23560 23561 23562 23563 23564 23565 23566 23567 23568 23569 23570 23571 23572 23573 23574 23575 23576 23577 23578 23579 23580 23581 23582 23583 23584 23585 23586 23587 23588 23589 23590 23591 23592 23593 23594 23595 23596 23597 23598 23599 23600 23601 23602 23603 23604 23605 23606 23607 23608 23609 23610 23611 23612 23613 23614 23615 23616 23617 23618 23619 23620 23621 23622 23623 23624 23625 23626 23627 23628 23629 23630 23631 23632 23633 23634 23635 23636 23637 23638 23639 23640 23641 23642 23643 23644 23645 23646 23647 23648 23649 23650 23651 23652 23653 23654 23655 23656 23657 23658 23659 23660 23661 23662 23663 23664 23665 23666 23667 23668 23669 23670 23671 23672 23673 23674 23675 23676 23677 23678 23679 23680 23681 23682 23683 23684 23685 23686 23687 23688 23689 23690 23691 23692 23693 23694 23695 23696 23697 23698 23699 23700 23701 23702 23703 23704 23705 23706 23707 23708 23709 23710 23711 23712 23713 23714 23715 23716 23717 23718 23719 23720 23721 23722 23723 23724 23725 23726 23727 23728 23729 23730 23731 23732 23733 23734 23735 23736 23737 23738 23739 23740 23741 23742 23743 23744 23745 23746 23747 23748 23749 23750 23751 23752 23753 23754 23755 23756 23757 23758 23759 23760 23761 23762 23763 23764 23765 23766 23767 23768 23769 23770 23771 23772 23773 23774 23775 23776 23777 23778 23779 23780 23781 23782 23783 23784 23785 23786 23787 23788 23789 23790 23791 23792 23793 23794 23795 23796 23797 23798 23799 23800 23801 23802 23803 23804 23805 23806 23807 23808 23809 23810 23811 23812 23813 23814 23815 23816 23817 23818 23819 23820 23821 23822 23823 23824 23825 23826 23827 23828 23829 23830 23831 23832 23833 23834 23835 23836 23837 23838 23839 23840 23841 23842 23843 23844 23845 23846 23847 23848 23849 23850 23851 23852 23853 23854 23855 23856 23857 23858 23859 23860 23861 23862 23863 23864 23865 23866 23867 23868 23869 23870 23871 23872 23873 23874 23875 23876 23877 23878 23879 23880 23881 23882 23883 23884 23885 23886 23887 23888 23889 23890 23891 23892 23893 23894 23895 23896 23897 23898 23899 23900 23901 23902 23903 23904 23905 23906 23907 23908 23909 23910 23911 23912 23913 23914 23915 23916 23917 23918 23919 23920 23921 23922 23923 23924 23925 23926 23927 23928 23929 23930 23931 23932 23933 23934 23935 23936 23937 23938 23939 23940 23941 23942 23943 23944 23945 23946 23947 23948 23949 23950 23951 23952 23953 23954 23955 23956 23957 23958 23959 23960 23961 23962 23963 23964 23965 23966 23967 23968 23969 23970 23971 23972 23973 23974 23975 23976 23977 23978 23979 23980 23981 23982 23983 23984 23985 23986 23987 23988 23989 23990 23991 23992 23993 23994 23995 23996 23997 23998 23999 24000 24001 24002 24003 24004 24005 24006 24007 24008 24009 24010 24011 24012 24013 24014 24015 24016 24017 24018 24019 24020 24021 24022 24023 24024 24025 24026 24027 24028 24029 24030 24031 24032 24033 24034 24035 24036 24037 24038 24039 24040 24041 24042 24043 24044 24045 24046 24047 24048 24049 24050 24051 24052 24053 24054 24055 24056 24057 24058 24059 24060 24061 24062 24063 24064 24065 24066 24067 24068 24069 24070 24071 24072 24073 24074 24075 24076 24077 24078 24079 24080 24081 24082 24083 24084 24085 24086 24087 24088 24089 24090 24091 24092 24093 24094 24095 24096 24097 24098 24099 24100 24101 24102 24103 24104 24105 24106 24107 24108 24109 24110 24111 24112 24113 24114 24115 24116 24117 24118 24119 24120 24121 24122 24123 24124 24125 24126 24127 24128 24129 24130 24131 24132 24133 24134 24135 24136 24137 24138 24139 24140 24141 24142 24143 24144 24145 24146 24147 24148 24149 24150 24151 24152 24153 24154 24155 24156 24157 24158 24159 24160 24161 24162 24163 24164 24165 24166 24167 24168 24169 24170 24171 24172 24173 24174 24175 24176 24177 24178 24179 24180 24181 24182 24183 24184 24185 24186 24187 24188 24189 24190 24191 24192 24193 24194 24195 24196 24197 24198 24199 24200 24201 24202 24203 24204 24205 24206 24207 24208 24209 24210 24211 24212 24213 24214 24215 24216 24217 24218 24219 24220 24221 24222 24223 24224 24225 24226 24227 24228 24229 24230 24231 24232 24233 24234 24235 24236 24237 24238 24239 24240 24241 24242 24243 24244 24245 24246 24247 24248 24249 24250 24251 24252 24253 24254 24255 24256 24257 24258 24259 24260 24261 24262 24263 24264 24265 24266 24267 24268 24269 24270 24271 24272 24273 24274 24275 24276 24277 24278 24279 24280 24281 24282 24283 24284 24285 24286 24287 24288 24289 24290 24291 24292 24293 24294 24295 24296 24297 24298 24299 24300 24301 24302 24303 24304 24305 24306 24307 24308 24309 24310 24311 24312 24313 24314 24315 24316 24317 24318 24319 24320 24321 24322 24323 24324 24325 24326 24327 24328 24329 24330 24331 24332 24333 24334 24335 24336 24337 24338 24339 24340 24341 24342 24343 24344 24345 24346 24347 24348 24349 24350 24351 24352 24353 24354 24355 24356 24357 24358 24359 24360 24361 24362 24363 24364 24365 24366 24367 24368 24369 24370 24371 24372 24373 24374 24375 24376 24377 24378 24379 24380 24381 24382 24383 24384 24385 24386 24387 24388 24389 24390 24391 24392 24393 24394 24395 24396 24397 24398 24399 24400 24401 24402 24403 24404 24405 24406 24407 24408 24409 24410 24411 24412 24413 24414 24415 24416 24417 24418 24419 24420 24421 24422 24423 24424 24425 24426 24427 24428 24429 24430 24431 24432 24433 24434 24435 24436 24437 24438 24439 24440 24441 24442 24443 24444 24445 24446 24447 24448 24449 24450 24451 24452 24453 24454 24455 24456 24457 24458 24459 24460 24461 24462 24463 24464 24465 24466 24467 24468 24469 24470 24471 24472 24473 24474 24475 24476 24477 24478 24479 24480 24481 24482 24483 24484 24485 24486 24487 24488 24489 24490 24491 24492 24493 24494 24495 24496 24497 24498 24499 24500 24501 24502 24503 24504 24505 24506 24507 24508 24509 24510 24511 24512 24513 24514 24515 24516 24517 24518 24519 24520 24521 24522 24523 24524 24525 24526 24527 24528 24529 24530 24531 24532 24533 24534 24535 24536 24537 24538 24539 24540 24541 24542 24543 24544 24545 24546 24547 24548 24549 24550 24551 24552 24553 24554 24555 24556 24557 24558 24559 24560 24561 24562 24563 24564 24565 24566 24567 24568 24569 24570 24571 24572 24573 24574 24575 24576 24577 24578 24579 24580 24581 24582 24583 24584 24585 24586 24587 24588 24589 24590 24591 24592 24593 24594 24595 24596 24597 24598 24599 24600 24601 24602 24603 24604 24605 24606 24607 24608 24609 24610 24611 24612 24613 24614 24615 24616 24617 24618 24619 24620 24621 24622 24623 24624 24625 24626 24627 24628 24629 24630 24631 24632 24633 24634 24635 24636 24637 24638 24639 24640 24641 24642 24643 24644 24645 24646 24647 24648 24649 24650 24651 24652 24653 24654 24655 24656 24657 24658 24659 24660 24661 24662 24663 24664 24665 24666 24667 24668 24669 24670 24671 24672 24673 24674 24675 24676 24677 24678 24679 24680 24681 24682 24683 24684 24685 24686 24687 24688 24689 24690 24691 24692 24693 24694 24695 24696 24697 24698 24699 24700 24701 24702 24703 24704 24705 24706 24707 24708 24709 24710 24711 24712 24713 24714 24715 24716 24717 24718 24719 24720 24721 24722 24723 24724 24725 24726 24727 24728 24729 24730 24731 24732 24733 24734 24735 24736 24737 24738 24739 24740 24741 24742 24743 24744 24745 24746 24747 24748 24749 24750 24751 24752 24753 24754 24755 24756 24757 24758 24759 24760 24761 24762 24763 24764 24765 24766 24767 24768 24769 24770 24771 24772 24773 24774 24775 24776 24777 24778 24779 24780 24781 24782 24783 24784 24785 24786 24787 24788 24789 24790 24791 24792 24793 24794 24795 24796 24797 24798 24799 24800 24801 24802 24803 24804 24805 24806 24807 24808 24809 24810 24811 24812 24813 24814 24815 24816 24817 24818 24819 24820 24821 24822 24823 24824 24825 24826 24827 24828 24829 24830 24831 24832 24833 24834 24835 24836 24837 24838 24839 24840 24841 24842 24843 24844 24845 24846 24847 24848 24849 24850 24851 24852 24853 24854 24855 24856 24857 24858 24859 24860 24861 24862 24863 24864 24865 24866 24867 24868 24869 24870 24871 24872 24873 24874 24875 24876 24877 24878 24879 24880 24881 24882 24883 24884 24885 24886 24887 24888 24889 24890 24891 24892 24893 24894 24895 24896 24897 24898 24899 24900 24901 24902 24903 24904 24905 24906 24907 24908 24909 24910 24911 24912 24913 24914 24915 24916 24917 24918 24919 24920 24921 24922 24923 24924 24925 24926 24927 24928 24929 24930 24931 24932 24933 24934 24935 24936 24937 24938 24939 24940 24941 24942 24943 24944 24945 24946 24947 24948 24949 24950 24951 24952 24953 24954 24955 24956 24957 24958 24959 24960 24961 24962 24963 24964 24965 24966 24967 24968 24969 24970 24971 24972 24973 24974 24975 24976 24977 24978 24979 24980 24981 24982 24983 24984 24985 24986 24987 24988 24989 24990 24991 24992 24993 24994 24995 24996 24997 24998 24999 25000 25001 25002 25003 25004 25005 25006 25007 25008 25009 25010 25011 25012 25013 25014 25015 25016 25017 25018 25019 25020 25021 25022 25023 25024 25025 25026 25027 25028 25029 25030 25031 25032 25033 25034 25035 25036 25037 25038 25039 25040 25041 25042 25043 25044 25045 25046 25047 25048 25049 25050 25051 25052 25053 25054 25055 25056 25057 25058 25059 25060 25061 25062 25063 25064 25065 25066 25067 25068 25069 25070 25071 25072 25073 25074 25075 25076 25077 25078 25079 25080 25081 25082 25083 25084 25085 25086 25087 25088 25089 25090 25091 25092 25093 25094 25095 25096 25097 25098 25099 25100 25101 25102 25103 25104 25105 25106 25107 25108 25109 25110 25111 25112 25113 25114 25115 25116 25117 25118 25119 25120 25121 25122 25123 25124 25125 25126 25127 25128 25129 25130 25131 25132 25133 25134 25135 25136 25137 25138 25139 25140 25141 25142 25143 25144 25145 25146 25147 25148 25149 25150 25151 25152 25153 25154 25155 25156 25157 25158 25159 25160 25161 25162 25163 25164 25165 25166 25167 25168 25169 25170 25171 25172 25173 25174 25175 25176 25177 25178 25179 25180 25181 25182 25183 25184 25185 25186 25187 25188 25189 25190 25191 25192 25193 25194 25195 25196 25197 25198 25199 25200 25201 25202 25203 25204 25205 25206 25207 25208 25209 25210 25211 25212 25213 25214 25215 25216 25217 25218 25219 25220 25221 25222 25223 25224 25225 25226 25227 25228 25229 25230 25231 25232 25233 25234 25235 25236 25237 25238 25239 25240 25241 25242 25243 25244 25245 25246 25247 25248 25249 25250 25251 25252 25253 25254 25255 25256 25257 25258 25259 25260 25261 25262 25263 25264 25265 25266 25267 25268 25269 25270 25271 25272 25273 25274 25275 25276 25277 25278 25279 25280 25281 25282 25283 25284 25285 25286 25287 25288 25289 25290 25291 25292 25293 25294 25295 25296 25297 25298 25299 25300 25301 25302 25303 25304 25305 25306 25307 25308 25309 25310 25311 25312 25313 25314 25315 25316 25317 25318 25319 25320 25321 25322 25323 25324 25325 25326 25327 25328 25329 25330 25331 25332 25333 25334 25335 25336 25337 25338 25339 25340 25341 25342 25343 25344 25345 25346 25347 25348 25349 25350 25351 25352 25353 25354 25355 25356 25357 25358 25359 25360 25361 25362 25363 25364 25365 25366 25367 25368 25369 25370 25371 25372 25373 25374 25375 25376 25377 25378 25379 25380 25381 25382 25383 25384 25385 25386 25387 25388 25389 25390 25391 25392 25393 25394 25395 25396 25397 25398 25399 25400 25401 25402 25403 25404 25405 25406 25407 25408 25409 25410 25411 25412 25413 25414 25415 25416 25417 25418 25419 25420 25421 25422 25423 25424 25425 25426 25427 25428 25429 25430 25431 25432 25433 25434 25435 25436 25437 25438 25439 25440 25441 25442 25443 25444 25445 25446 25447 25448 25449 25450 25451 25452 25453 25454 25455 25456 25457 25458 25459 25460 25461 25462 25463 25464 25465 25466 25467 25468 25469 25470 25471 25472 25473 25474 25475 25476 25477 25478 25479 25480 25481 25482 25483 25484 25485 25486 25487 25488 25489 25490 25491 25492 25493 25494 25495 25496 25497 25498 25499 25500 25501 25502 25503 25504 25505 25506 25507 25508 25509 25510 25511 25512 25513 25514 25515 25516 25517 25518 25519 25520 25521 25522 25523 25524 25525 25526 25527 25528 25529 25530 25531 25532 25533 25534 25535 25536 25537 25538 25539 25540 25541 25542 25543 25544 25545 25546 25547 25548 25549 25550 25551 25552 25553 25554 25555 25556 25557 25558 25559 25560 25561 25562 25563 25564 25565 25566 25567 25568 25569 25570 25571 25572 25573 25574 25575 25576 25577 25578 25579 25580 25581 25582 25583 25584 25585 25586 25587 25588 25589 25590 25591 25592 25593 25594 25595 25596 25597 25598 25599 25600 25601 25602 25603 25604 25605 25606 25607 25608 25609 25610 25611 25612 25613 25614 25615 25616 25617 25618 25619 25620 25621 25622 25623 25624 25625 25626 25627 25628 25629 25630 25631 25632 25633 25634 25635 25636 25637 25638 25639 25640 25641 25642 25643 25644 25645 25646 25647 25648 25649 25650 25651 25652 25653 25654 25655 25656 25657 25658 25659 25660 25661 25662 25663 25664 25665 25666 25667 25668 25669 25670 25671 25672 25673 25674 25675 25676 25677 25678 25679 25680 25681 25682 25683 25684 25685 25686 25687 25688 25689 25690 25691 25692 25693 25694 25695 25696 25697 25698 25699 25700 25701 25702 25703 25704 25705 25706 25707 25708 25709 25710 25711 25712 25713 25714 25715 25716 25717 25718 25719 25720 25721 25722 25723 25724 25725 25726 25727 25728 25729 25730 25731 25732 25733 25734 25735 25736 25737 25738 25739 25740 25741 25742 25743 25744 25745 25746 25747 25748 25749 25750 25751 25752 25753 25754 25755 25756 25757 25758 25759 25760 25761 25762 25763 25764 25765 25766 25767 25768 25769 25770 25771 25772 25773 25774 25775 25776 25777 25778 25779 25780 25781 25782 25783 25784 25785 25786 25787 25788 25789 25790 25791 25792 25793 25794 25795 25796 25797 25798 25799 25800 25801 25802 25803 25804 25805 25806 25807 25808 25809 25810 25811 25812 25813 25814 25815 25816 25817 25818 25819 25820 25821 25822 25823 25824 25825 25826 25827 25828 25829 25830 25831 25832 25833 25834 25835 25836 25837 25838 25839 25840 25841 25842 25843 25844 25845 25846 25847 25848 25849 25850 25851 25852 25853 25854 25855 25856 25857 25858 25859 25860 25861 25862 25863 25864 25865 25866 25867 25868 25869 25870 25871 25872 25873 25874 25875 25876 25877 25878 25879 25880 25881 25882 25883 25884 25885 25886 25887 25888 25889 25890 25891 25892 25893 25894 25895 25896 25897 25898 25899 25900 25901 25902 25903 25904 25905 25906 25907 25908 25909 25910 25911 25912 25913 25914 25915 25916 25917 25918 25919 25920 25921 25922 25923 25924 25925 25926 25927 25928 25929 25930 25931 25932 25933 25934 25935 25936 25937 25938 25939 25940 25941 25942 25943 25944 25945 25946 25947 25948 25949 25950 25951 25952 25953 25954 25955 25956 25957 25958 25959 25960 25961 25962 25963 25964 25965 25966 25967 25968 25969 25970 25971 25972 25973 25974 25975 25976 25977 25978 25979 25980 25981 25982 25983 25984 25985 25986 25987 25988 25989 25990 25991 25992 25993 25994 25995 25996 25997 25998 25999 26000 26001 26002 26003 26004 26005 26006 26007 26008 26009 26010 26011 26012 26013 26014 26015 26016 26017 26018 26019 26020 26021 26022 26023 26024 26025 26026 26027 26028 26029 26030 26031 26032 26033 26034 26035 26036 26037 26038 26039 26040 26041 26042 26043 26044 26045 26046 26047 26048 26049 26050 26051 26052 26053 26054 26055 26056 26057 26058 26059 26060 26061 26062 26063 26064 26065 26066 26067 26068 26069 26070 26071 26072 26073 26074 26075 26076 26077 26078 26079 26080 26081 26082 26083 26084 26085 26086 26087 26088 26089 26090 26091 26092 26093 26094 26095 26096 26097 26098 26099 26100 26101 26102 26103 26104 26105 26106 26107 26108 26109 26110 26111 26112 26113 26114 26115 26116 26117 26118 26119 26120 26121 26122 26123 26124 26125 26126 26127 26128 26129 26130 26131 26132 26133 26134 26135 26136 26137 26138 26139 26140 26141 26142 26143 26144 26145 26146 26147 26148 26149 26150 26151 26152 26153 26154 26155 26156 26157 26158 26159 26160 26161 26162 26163 26164 26165 26166 26167 26168 26169 26170 26171 26172 26173 26174 26175 26176 26177 26178 26179 26180 26181 26182 26183 26184 26185 26186 26187 26188 26189 26190 26191 26192 26193 26194 26195 26196 26197 26198 26199 26200 26201 26202 26203 26204 26205 26206 26207 26208 26209 26210 26211 26212 26213 26214 26215 26216 26217 26218 26219 26220 26221 26222 26223 26224 26225 26226 26227 26228 26229 26230 26231 26232 26233 26234 26235 26236 26237 26238 26239 26240 26241 26242 26243 26244 26245 26246 26247 26248 26249 26250 26251 26252 26253 26254 26255 26256 26257 26258 26259 26260 26261 26262 26263 26264 26265 26266 26267 26268 26269 26270 26271 26272 26273 26274 26275 26276 26277 26278 26279 26280 26281 26282 26283 26284 26285 26286 26287 26288 26289 26290 26291 26292 26293 26294 26295 26296 26297 26298 26299 26300 26301 26302 26303 26304 26305 26306 26307 26308 26309 26310 26311 26312 26313 26314 26315 26316 26317 26318 26319 26320 26321 26322 26323 26324 26325 26326 26327 26328 26329 26330 26331 26332 26333 26334 26335 26336 26337 26338 26339 26340 26341 26342 26343 26344 26345 26346 26347 26348 26349 26350 26351 26352 26353 26354 26355 26356 26357 26358 26359 26360 26361 26362 26363 26364 26365 26366 26367 26368 26369 26370 26371 26372 26373 26374 26375 26376 26377 26378 26379 26380 26381 26382 26383 26384 26385 26386 26387 26388 26389 26390 26391 26392 26393 26394 26395 26396 26397 26398 26399 26400 26401 26402 26403 26404 26405 26406 26407 26408 26409 26410 26411 26412 26413 26414 26415 26416 26417 26418 26419 26420 26421 26422 26423 26424 26425 26426 26427 26428 26429 26430 26431 26432 26433 26434 26435 26436 26437 26438 26439 26440 26441 26442 26443 26444 26445 26446 26447 26448 26449 26450 26451 26452 26453 26454 26455 26456 26457 26458 26459 26460 26461 26462 26463 26464 26465 26466 26467 26468 26469 26470 26471 26472 26473 26474 26475 26476 26477 26478 26479 26480 26481 26482 26483 26484 26485 26486 26487 26488 26489 26490 26491 26492 26493 26494 26495 26496 26497 26498 26499 26500 26501 26502 26503 26504 26505 26506 26507 26508 26509 26510 26511 26512 26513 26514 26515 26516 26517 26518 26519 26520 26521 26522 26523 26524 26525 26526 26527 26528 26529 26530 26531 26532 26533 26534 26535 26536 26537 26538 26539 26540 26541 26542 26543 26544 26545 26546 26547 26548 26549 26550 26551 26552 26553 26554 26555 26556 26557 26558 26559 26560 26561 26562 26563 26564 26565 26566 26567 26568 26569 26570 26571 26572 26573 26574 26575 26576 26577 26578 26579 26580 26581 26582 26583 26584 26585 26586 26587 26588 26589 26590 26591 26592 26593 26594 26595 26596 26597 26598 26599 26600 26601 26602 26603 26604 26605 26606 26607 26608 26609 26610 26611 26612 26613 26614 26615 26616 26617 26618 26619 26620 26621 26622 26623 26624 26625 26626 26627 26628 26629 26630 26631 26632 26633 26634 26635 26636 26637 26638 26639 26640 26641 26642 26643 26644 26645 26646 26647 26648 26649 26650 26651 26652 26653 26654 26655 26656 26657 26658 26659 26660 26661 26662 26663 26664 26665 26666 26667 26668 26669 26670 26671 26672 26673 26674 26675 26676 26677 26678 26679 26680 26681 26682 26683 26684 26685 26686 26687 26688 26689 26690 26691 26692 26693 26694 26695 26696 26697 26698 26699 26700 26701 26702 26703 26704 26705 26706 26707 26708 26709 26710 26711 26712 26713 26714 26715 26716 26717 26718 26719 26720 26721 26722 26723 26724 26725 26726 26727 26728 26729 26730 26731 26732 26733 26734 26735 26736 26737 26738 26739 26740 26741 26742 26743 26744 26745 26746 26747 26748 26749 26750 26751 26752 26753 26754 26755 26756 26757 26758 26759 26760 26761 26762 26763 26764 26765 26766 26767 26768 26769 26770 26771 26772 26773 26774 26775 26776 26777 26778 26779 26780 26781 26782 26783 26784 26785 26786 26787 26788 26789 26790 26791 26792 26793 26794 26795 26796 26797 26798 26799 26800 26801 26802 26803 26804 26805 26806 26807 26808 26809 26810 26811 26812 26813 26814 26815 26816 26817 26818 26819 26820 26821 26822 26823 26824 26825 26826 26827 26828 26829 26830 26831 26832 26833 26834 26835 26836 26837 26838 26839 26840 26841 26842 26843 26844 26845 26846 26847 26848 26849 26850 26851 26852 26853 26854 26855 26856 26857 26858 26859 26860 26861 26862 26863 26864 26865 26866 26867 26868 26869 26870 26871 26872 26873 26874 26875 26876 26877 26878 26879 26880 26881 26882 26883 26884 26885 26886 26887 26888 26889 26890 26891 26892 26893 26894 26895 26896 26897 26898 26899 26900 26901 26902 26903 26904 26905 26906 26907 26908 26909 26910 26911 26912 26913 26914 26915 26916 26917 26918 26919 26920 26921 26922 26923 26924 26925 26926 26927 26928 26929 26930 26931 26932 26933 26934 26935 26936 26937 26938 26939 26940 26941 26942 26943 26944 26945 26946 26947 26948 26949 26950 26951 26952 26953 26954 26955 26956 26957 26958 26959 26960 26961 26962 26963 26964 26965 26966 26967 26968 26969 26970 26971 26972 26973 26974 26975 26976 26977 26978 26979 26980 26981 26982 26983 26984 26985 26986 26987 26988 26989 26990 26991 26992 26993 26994 26995 26996 26997 26998 26999 27000 27001 27002 27003 27004 27005 27006 27007 27008 27009 27010 27011 27012 27013 27014 27015 27016 27017 27018 27019 27020 27021 27022 27023 27024 27025 27026 27027 27028 27029 27030 27031 27032 27033 27034 27035 27036 27037 27038 27039 27040 27041 27042 27043 27044 27045 27046 27047 27048 27049 27050 27051 27052 27053 27054 27055 27056 27057 27058 27059 27060 27061 27062 27063 27064 27065 27066 27067 27068 27069 27070 27071 27072 27073 27074 27075 27076 27077 27078 27079 27080 27081 27082 27083 27084 27085 27086 27087 27088 27089 27090 27091 27092 27093 27094 27095 27096 27097 27098 27099 27100 27101 27102 27103 27104 27105 27106 27107 27108 27109 27110 27111 27112 27113 27114 27115 27116 27117 27118 27119 27120 27121 27122 27123 27124 27125 27126 27127 27128 27129 27130 27131 27132 27133 27134 27135 27136 27137 27138 27139 27140 27141 27142 27143 27144 27145 27146 27147 27148 27149 27150 27151 27152 27153 27154 27155 27156 27157 27158 27159 27160 27161 27162 27163 27164 27165 27166 27167 27168 27169 27170 27171 27172 27173 27174 27175 27176 27177 27178 27179 27180 27181 27182 27183 27184 27185 27186 27187 27188 27189 27190 27191 27192 27193 27194 27195 27196 27197 27198 27199 27200 27201 27202 27203 27204 27205 27206 27207 27208 27209 27210 27211 27212 27213 27214 27215 27216 27217 27218 27219 27220 27221 27222 27223 27224 27225 27226 27227 27228 27229 27230 27231 27232 27233 27234 27235 27236 27237 27238 27239 27240 27241 27242 27243 27244 27245 27246 27247 27248 27249 27250 27251 27252 27253 27254 27255 27256 27257 27258 27259 27260 27261 27262 27263 27264 27265 27266 27267 27268 27269 27270 27271 27272 27273 27274 27275 27276 27277 27278 27279 27280 27281 27282 27283 27284 27285 27286 27287 27288 27289 27290 27291 27292 27293 27294 27295 27296 27297 27298 27299 27300 27301 27302 27303 27304 27305 27306 27307 27308 27309 27310 27311 27312 27313 27314 27315 27316 27317 27318 27319 27320 27321 27322 27323 27324 27325 27326 27327 27328 27329 27330 27331 27332 27333 27334 27335 27336 27337 27338 27339 27340 27341 27342 27343 27344 27345 27346 27347 27348 27349 27350 27351 27352 27353 27354 27355 27356 27357 27358 27359 27360 27361 27362 27363 27364 27365 27366 27367 27368 27369 27370 27371 27372 27373 27374 27375 27376 27377 27378 27379 27380 27381 27382 27383 27384 27385 27386 27387 27388 27389 27390 27391 27392 27393 27394 27395 27396 27397 27398 27399 27400 27401 27402 27403 27404 27405 27406 27407 27408 27409 27410 27411 27412 27413 27414 27415 27416 27417 27418 27419 27420 27421 27422 27423 27424 27425 27426 27427 27428 27429 27430 27431 27432 27433 27434 27435 27436 27437 27438 27439 27440 27441 27442 27443 27444 27445 27446 27447 27448 27449 27450 27451 27452 27453 27454 27455 27456 27457 27458 27459 27460 27461 27462 27463 27464 27465 27466 27467 27468 27469 27470 27471 27472 27473 27474 27475 27476 27477 27478 27479 27480 27481 27482 27483 27484 27485 27486 27487 27488 27489 27490 27491 27492 27493 27494 27495 27496 27497 27498 27499 27500 27501 27502 27503 27504 27505 27506 27507 27508 27509 27510 27511 27512 27513 27514 27515 27516 27517 27518 27519 27520 27521 27522 27523 27524 27525 27526 27527 27528 27529 27530 27531 27532 27533 27534 27535 27536 27537 27538 27539 27540 27541 27542 27543 27544 27545 27546 27547 27548 27549 27550 27551 27552 27553 27554 27555 27556 27557 27558 27559 27560 27561 27562 27563 27564 27565 27566 27567 27568 27569 27570 27571 27572 27573 27574 27575 27576 27577 27578 27579 27580 27581 27582 27583 27584 27585 27586 27587 27588 27589 27590 27591 27592 27593 27594 27595 27596 27597 27598 27599 27600 27601 27602 27603 27604 27605 27606 27607 27608 27609 27610 27611 27612 27613 27614 27615 27616 27617 27618 27619 27620 27621 27622 27623 27624 27625 27626 27627 27628 27629 27630 27631 27632 27633 27634 27635 27636 27637 27638 27639 27640 27641 27642 27643 27644 27645 27646 27647 27648 27649 27650 27651 27652 27653 27654 27655 27656 27657 27658 27659 27660 27661 27662 27663 27664 27665 27666 27667 27668 27669 27670 27671 27672 27673 27674 27675 27676 27677 27678 27679 27680 27681 27682 27683 27684 27685 27686 27687 27688 27689 27690 27691 27692 27693 27694 27695 27696 27697 27698 27699 27700 27701 27702 27703 27704 27705 27706 27707 27708 27709 27710 27711 27712 27713 27714 27715 27716 27717 27718 27719 27720 27721 27722 27723 27724 27725 27726 27727 27728 27729 27730 27731 27732 27733 27734 27735 27736 27737 27738 27739 27740 27741 27742 27743 27744 27745 27746 27747 27748 27749 27750 27751 27752 27753 27754 27755 27756 27757 27758 27759 27760 27761 27762 27763 27764 27765 27766 27767 27768 27769 27770 27771 27772 27773 27774 27775 27776 27777 27778 27779 27780 27781 27782 27783 27784 27785 27786 27787 27788 27789 27790 27791 27792 27793 27794 27795 27796 27797 27798 27799 27800 27801 27802 27803 27804 27805 27806 27807 27808 27809 27810 27811 27812 27813 27814 27815 27816 27817 27818 27819 27820 27821 27822 27823 27824 27825 27826 27827 27828 27829 27830 27831 27832 27833 27834 27835 27836 27837 27838 27839 27840 27841 27842 27843 27844 27845 27846 27847 27848 27849 27850 27851 27852 27853 27854 27855 27856 27857 27858 27859 27860 27861 27862 27863 27864 27865 27866 27867 27868 27869 27870 27871 27872 27873 27874 27875 27876 27877 27878 27879 27880 27881 27882 27883 27884 27885 27886 27887 27888 27889 27890 27891 27892 27893 27894 27895 27896 27897 27898 27899 27900 27901 27902 27903 27904 27905 27906 27907 27908 27909 27910 27911 27912 27913 27914 27915 27916 27917 27918 27919 27920 27921 27922 27923 27924 27925 27926 27927 27928 27929 27930 27931 27932 27933 27934 27935 27936 27937 27938 27939 27940 27941 27942 27943 27944 27945 27946 27947 27948 27949 27950 27951 27952 27953 27954 27955 27956 27957 27958 27959 27960 27961 27962 27963 27964 27965 27966 27967 27968 27969 27970 27971 27972 27973 27974 27975 27976 27977 27978 27979 27980 27981 27982 27983 27984 27985 27986 27987 27988 27989 27990 27991 27992 27993 27994 27995 27996 27997 27998 27999 28000 28001 28002 28003 28004 28005 28006 28007 28008 28009 28010 28011 28012 28013 28014 28015 28016 28017 28018 28019 28020 28021 28022 28023 28024 28025 28026 28027 28028 28029 28030 28031 28032 28033 28034 28035 28036 28037 28038 28039 28040 28041 28042 28043 28044 28045 28046 28047 28048 28049 28050 28051 28052 28053 28054 28055 28056 28057 28058 28059 28060 28061 28062 28063 28064 28065 28066 28067 28068 28069 28070 28071 28072 28073 28074 28075 28076 28077 28078 28079 28080 28081 28082 28083 28084 28085 28086 28087 28088 28089 28090 28091 28092 28093 28094 28095 28096 28097 28098 28099 28100 28101 28102 28103 28104 28105 28106 28107 28108 28109 28110 28111 28112 28113 28114 28115 28116 28117 28118 28119 28120 28121 28122 28123 28124 28125 28126 28127 28128 28129 28130 28131 28132 28133 28134 28135 28136 28137 28138 28139 28140 28141 28142 28143 28144 28145 28146 28147 28148 28149 28150 28151 28152 28153 28154 28155 28156 28157 28158 28159 28160 28161 28162 28163 28164 28165 28166 28167 28168 28169 28170 28171 28172 28173 28174 28175 28176 28177 28178 28179 28180 28181 28182 28183 28184 28185 28186 28187 28188 28189 28190 28191 28192 28193 28194 28195 28196 28197 28198 28199 28200 28201 28202 28203 28204 28205 28206 28207 28208 28209 28210 28211 28212 28213 28214 28215 28216 28217 28218 28219 28220 28221 28222 28223 28224 28225 28226 28227 28228 28229 28230 28231 28232 28233 28234 28235 28236 28237 28238 28239 28240 28241 28242 28243 28244 28245 28246 28247 28248 28249 28250 28251 28252 28253 28254 28255 28256 28257 28258 28259 28260 28261 28262 28263 28264 28265 28266 28267 28268 28269 28270 28271 28272 28273 28274 28275 28276 28277 28278 28279 28280 28281 28282 28283 28284 28285 28286 28287 28288 28289 28290 28291 28292 28293 28294 28295 28296 28297 28298 28299 28300 28301 28302 28303 28304 28305 28306 28307 28308 28309 28310 28311 28312 28313 28314 28315 28316 28317 28318 28319 28320 28321 28322 28323 28324 28325 28326 28327 28328 28329 28330 28331 28332 28333 28334 28335 28336 28337 28338 28339 28340 28341 28342 28343 28344 28345 28346 28347 28348 28349 28350 28351 28352 28353 28354 28355 28356 28357 28358 28359 28360 28361 28362 28363 28364 28365 28366 28367 28368 28369 28370 28371 28372 28373 28374 28375 28376 28377 28378 28379 28380 28381 28382 28383 28384 28385 28386 28387 28388 28389 28390 28391 28392 28393 28394 28395 28396 28397 28398 28399 28400 28401 28402 28403 28404 28405 28406 28407 28408 28409 28410 28411 28412 28413 28414 28415 28416 28417 28418 28419 28420 28421 28422 28423 28424 28425 28426 28427 28428 28429 28430 28431 28432 28433 28434 28435 28436 28437 28438 28439 28440 28441 28442 28443 28444 28445 28446 28447 28448 28449 28450 28451 28452 28453 28454 28455 28456 28457 28458 28459 28460 28461 28462 28463 28464 28465 28466 28467 28468 28469 28470 28471 28472 28473 28474 28475 28476 28477 28478 28479 28480 28481 28482 28483 28484 28485 28486 28487 28488 28489 28490 28491 28492 28493 28494 28495 28496 28497 28498 28499 28500 28501 28502 28503 28504 28505 28506 28507 28508 28509 28510 28511 28512 28513 28514 28515 28516 28517 28518 28519 28520 28521 28522 28523 28524 28525 28526 28527 28528 28529 28530 28531 28532 28533 28534 28535 28536 28537 28538 28539 28540 28541 28542 28543 28544 28545 28546 28547 28548 28549 28550 28551 28552 28553 28554 28555 28556 28557 28558 28559 28560 28561 28562 28563 28564 28565 28566 28567 28568 28569 28570 28571 28572 28573 28574 28575 28576 28577 28578 28579 28580 28581 28582 28583 28584 28585 28586 28587 28588 28589 28590 28591 28592 28593 28594 28595 28596 28597 28598 28599 28600 28601 28602 28603 28604 28605 28606 28607 28608 28609 28610 28611 28612 28613 28614 28615 28616 28617 28618 28619 28620 28621 28622 28623 28624 28625 28626 28627 28628 28629 28630 28631 28632 28633 28634 28635 28636 28637 28638 28639 28640 28641 28642 28643 28644 28645 28646 28647 28648 28649 28650 28651 28652 28653 28654 28655 28656 28657 28658 28659 28660 28661 28662 28663 28664 28665 28666 28667 28668 28669 28670 28671 28672 28673 28674 28675 28676 28677 28678 28679 28680 28681 28682 28683 28684 28685 28686 28687 28688 28689 28690 28691 28692 28693 28694 28695 28696 28697 28698 28699 28700 28701 28702 28703 28704 28705 28706 28707 28708 28709 28710 28711 28712 28713 28714 28715 28716 28717 28718 28719 28720 28721 28722 28723 28724 28725 28726 28727 28728 28729 28730 28731 28732 28733 28734 28735 28736 28737 28738 28739 28740 28741 28742 28743 28744 28745 28746 28747 28748 28749 28750 28751 28752 28753 28754 28755 28756 28757 28758 28759 28760 28761 28762 28763 28764 28765 28766 28767 28768 28769 28770 28771 28772 28773 28774 28775 28776 28777 28778 28779 28780 28781 28782 28783 28784 28785 28786 28787 28788 28789 28790 28791 28792 28793 28794 28795 28796 28797 28798 28799 28800 28801 28802 28803 28804 28805 28806 28807 28808 28809 28810 28811 28812 28813 28814 28815 28816 28817 28818 28819 28820 28821 28822 28823 28824 28825 28826 28827 28828 28829 28830 28831 28832 28833 28834 28835 28836 28837 28838 28839 28840 28841 28842 28843 28844 28845 28846 28847 28848 28849 28850 28851 28852 28853 28854 28855 28856 28857 28858 28859 28860 28861 28862 28863 28864 28865 28866 28867 28868 28869 28870 28871 28872 28873 28874 28875 28876 28877 28878 28879 28880 28881 28882 28883 28884 28885 28886 28887 28888 28889 28890 28891 28892 28893 28894 28895 28896 28897 28898 28899 28900 28901 28902 28903 28904 28905 28906 28907 28908 28909 28910 28911 28912 28913 28914 28915 28916 28917 28918 28919 28920 28921 28922 28923 28924 28925 28926 28927 28928 28929 28930 28931 28932 28933 28934 28935 28936 28937 28938 28939 28940 28941 28942 28943 28944 28945 28946 28947 28948 28949 28950 28951 28952 28953 28954 28955 28956 28957 28958 28959 28960 28961 28962 28963 28964 28965 28966 28967 28968 28969 28970 28971 28972 28973 28974 28975 28976 28977 28978 28979 28980 28981 28982 28983 28984 28985 28986 28987 28988 28989 28990 28991 28992 28993 28994 28995 28996 28997 28998 28999 29000 29001 29002 29003 29004 29005 29006 29007 29008 29009 29010 29011 29012 29013 29014 29015 29016 29017 29018 29019 29020 29021 29022 29023 29024 29025 29026 29027 29028 29029 29030 29031 29032 29033 29034 29035 29036 29037 29038 29039 29040 29041 29042 29043 29044 29045 29046 29047 29048 29049 29050 29051 29052 29053 29054 29055 29056 29057 29058 29059 29060 29061 29062 29063 29064 29065 29066 29067 29068 29069 29070 29071 29072 29073 29074 29075 29076 29077 29078 29079 29080 29081 29082 29083 29084 29085 29086 29087 29088 29089 29090 29091 29092 29093 29094 29095 29096 29097 29098 29099 29100 29101 29102 29103 29104 29105 29106 29107 29108 29109 29110 29111 29112 29113 29114 29115 29116 29117 29118 29119 29120 29121 29122 29123 29124 29125 29126 29127 29128 29129 29130 29131 29132 29133 29134 29135 29136 29137 29138 29139 29140 29141 29142 29143 29144 29145 29146 29147 29148 29149 29150 29151 29152 29153 29154 29155 29156 29157 29158 29159 29160 29161 29162 29163 29164 29165 29166 29167 29168 29169 29170 29171 29172 29173 29174 29175 29176 29177 29178 29179 29180 29181 29182 29183 29184 29185 29186 29187 29188 29189 29190 29191 29192 29193 29194 29195 29196 29197 29198 29199 29200 29201 29202 29203 29204 29205 29206 29207 29208 29209 29210 29211 29212 29213 29214 29215 29216 29217 29218 29219 29220 29221 29222 29223 29224 29225 29226 29227 29228 29229 29230 29231 29232 29233 29234 29235 29236 29237 29238 29239 29240 29241 29242 29243 29244 29245 29246 29247 29248 29249 29250 29251 29252 29253 29254 29255 29256 29257 29258 29259 29260 29261 29262 29263 29264 29265 29266 29267 29268 29269 29270 29271 29272 29273 29274 29275 29276 29277 29278 29279 29280 29281 29282 29283 29284 29285 29286 29287 29288 29289 29290 29291 29292 29293 29294 29295 29296 29297 29298 29299 29300 29301 29302 29303 29304 29305 29306 29307 29308 29309 29310 29311 29312 29313 29314 29315 29316 29317 29318 29319 29320 29321 29322 29323 29324 29325 29326 29327 29328 29329 29330 29331 29332 29333 29334 29335 29336 29337 29338 29339 29340 29341 29342 29343 29344 29345 29346 29347 29348 29349 29350 29351 29352 29353 29354 29355 29356 29357 29358 29359 29360 29361 29362 29363 29364 29365 29366 29367 29368 29369 29370 29371 29372 29373 29374 29375 29376 29377 29378 29379 29380 29381 29382 29383 29384 29385 29386 29387 29388 29389 29390 29391 29392 29393 29394 29395 29396 29397 29398 29399 29400 29401 29402 29403 29404 29405 29406 29407 29408 29409 29410 29411 29412 29413 29414 29415 29416 29417 29418 29419 29420 29421 29422 29423 29424 29425 29426 29427 29428 29429 29430 29431 29432 29433 29434 29435 29436 29437 29438 29439 29440 29441 29442 29443 29444 29445 29446 29447 29448 29449 29450 29451 29452 29453 29454 29455 29456 29457 29458 29459 29460 29461 29462 29463 29464 29465 29466 29467 29468 29469 29470 29471 29472 29473 29474 29475 29476 29477 29478 29479 29480 29481 29482 29483 29484 29485 29486 29487 29488 29489 29490 29491 29492 29493 29494 29495 29496 29497 29498 29499 29500 29501 29502 29503 29504 29505 29506 29507 29508 29509 29510 29511 29512 29513 29514 29515 29516 29517 29518 29519 29520 29521 29522 29523 29524 29525 29526 29527 29528 29529 29530 29531 29532 29533 29534 29535 29536 29537 29538 29539 29540 29541 29542 29543 29544 29545 29546 29547 29548 29549 29550 29551 29552 29553 29554 29555 29556 29557 29558 29559 29560 29561 29562 29563 29564 29565 29566 29567 29568 29569 29570 29571 29572 29573 29574 29575 29576 29577 29578 29579 29580 29581 29582 29583 29584 29585 29586 29587 29588 29589 29590 29591 29592 29593 29594 29595 29596 29597 29598 29599 29600 29601 29602 29603 29604 29605 29606 29607 29608 29609 29610 29611 29612 29613 29614 29615 29616 29617 29618 29619 29620 29621 29622 29623 29624 29625 29626 29627 29628 29629 29630 29631 29632 29633 29634 29635 29636 29637 29638 29639 29640 29641 29642 29643 29644 29645 29646 29647 29648 29649 29650 29651 29652 29653 29654 29655 29656 29657 29658 29659 29660 29661 29662 29663 29664 29665 29666 29667 29668 29669 29670 29671 29672 29673 29674 29675 29676 29677 29678 29679 29680 29681 29682 29683 29684 29685 29686 29687 29688 29689 29690 29691 29692 29693 29694 29695 29696 29697 29698 29699 29700 29701 29702 29703 29704 29705 29706 29707 29708 29709 29710 29711 29712 29713 29714 29715 29716 29717 29718 29719 29720 29721 29722 29723 29724 29725 29726 29727 29728 29729 29730 29731 29732 29733 29734 29735 29736 29737 29738 29739 29740 29741 29742 29743 29744 29745 29746 29747 29748 29749 29750 29751 29752 29753 29754 29755 29756 29757 29758 29759 29760 29761 29762 29763 29764 29765 29766 29767 29768 29769 29770 29771 29772 29773 29774 29775 29776 29777 29778 29779 29780 29781 29782 29783 29784 29785 29786 29787 29788 29789 29790 29791 29792 29793 29794 29795 29796 29797 29798 29799 29800 29801 29802 29803 29804 29805 29806 29807 29808 29809 29810 29811 29812 29813 29814 29815 29816 29817 29818 29819 29820 29821 29822 29823 29824 29825 29826 29827 29828 29829 29830 29831 29832 29833 29834 29835 29836 29837 29838 29839 29840 29841 29842 29843 29844 29845 29846 29847 29848 29849 29850 29851 29852 29853 29854 29855 29856 29857 29858 29859 29860 29861 29862 29863 29864 29865 29866 29867 29868 29869 29870 29871 29872 29873 29874 29875 29876 29877 29878 29879 29880 29881 29882 29883 29884 29885 29886 29887 29888 29889 29890 29891 29892 29893 29894 29895 29896 29897 29898 29899 29900 29901 29902 29903 29904 29905 29906 29907 29908 29909 29910 29911 29912 29913 29914 29915 29916 29917 29918 29919 29920 29921 29922 29923 29924 29925 29926 29927 29928 29929 29930 29931 29932 29933 29934 29935 29936 29937 29938 29939 29940 29941 29942 29943 29944 29945 29946 29947 29948 29949 29950 29951 29952 29953 29954 29955 29956 29957 29958 29959 29960 29961 29962 29963 29964 29965 29966 29967 29968 29969 29970 29971 29972 29973 29974 29975 29976 29977 29978 29979 29980 29981 29982 29983 29984 29985 29986 29987 29988 29989 29990 29991 29992 29993 29994 29995 29996 29997 29998 29999 30000 30001 30002 30003 30004 30005 30006 30007 30008 30009 30010 30011 30012 30013 30014 30015 30016 30017 30018 30019 30020 30021 30022 30023 30024 30025 30026 30027 30028 30029 30030 30031 30032 30033 30034 30035 30036 30037 30038 30039 30040 30041 30042 30043 30044 30045 30046 30047 30048 30049 30050 30051 30052 30053 30054 30055 30056 30057 30058 30059 30060 30061 30062 30063 30064 30065 30066 30067 30068 30069 30070 30071 30072 30073 30074 30075 30076 30077 30078 30079 30080 30081 30082 30083 30084 30085 30086 30087 30088 30089 30090 30091 30092 30093 30094 30095 30096 30097 30098 30099 30100 30101 30102 30103 30104 30105 30106 30107 30108 30109 30110 30111 30112 30113 30114 30115 30116 30117 30118 30119 30120 30121 30122 30123 30124 30125 30126 30127 30128 30129 30130 30131 30132 30133 30134 30135 30136 30137 30138 30139 30140 30141 30142 30143 30144 30145 30146 30147 30148 30149 30150 30151 30152 30153 30154 30155 30156 30157 30158 30159 30160 30161 30162 30163 30164 30165 30166 30167 30168 30169 30170 30171 30172 30173 30174 30175 30176 30177 30178 30179 30180 30181 30182 30183 30184 30185 30186 30187 30188 30189 30190 30191 30192 30193 30194 30195 30196 30197 30198 30199 30200 30201 30202 30203 30204 30205 30206 30207 30208 30209 30210 30211 30212 30213 30214 30215 30216 30217 30218 30219 30220 30221 30222 30223 30224 30225 30226 30227 30228 30229 30230 30231 30232 30233 30234 30235 30236 30237 30238 30239 30240 30241 30242 30243 30244 30245 30246 30247 30248 30249 30250 30251 30252 30253 30254 30255 30256 30257 30258 30259 30260 30261 30262 30263 30264 30265 30266 30267 30268 30269 30270 30271 30272 30273 30274 30275 30276 30277 30278 30279 30280 30281 30282 30283 30284 30285 30286 30287 30288 30289 30290 30291 30292 30293 30294 30295 30296 30297 30298 30299 30300 30301 30302 30303 30304 30305 30306 30307 30308 30309 30310 30311 30312 30313 30314 30315 30316 30317 30318 30319 30320 30321 30322 30323 30324 30325 30326 30327 30328 30329 30330 30331 30332 30333 30334 30335 30336 30337 30338 30339 30340 30341 30342 30343 30344 30345 30346 30347 30348 30349 30350 30351 30352 30353 30354 30355 30356 30357 30358 30359 30360 30361 30362 30363 30364 30365 30366 30367 30368 30369 30370 30371 30372 30373 30374 30375 30376 30377 30378 30379 30380 30381 30382 30383 30384 30385 30386 30387 30388 30389 30390 30391 30392 30393 30394 30395 30396 30397 30398 30399 30400 30401 30402 30403 30404 30405 30406 30407 30408 30409 30410 30411 30412 30413 30414 30415 30416 30417 30418 30419 30420 30421 30422 30423 30424 30425 30426 30427 30428 30429 30430 30431 30432 30433 30434 30435 30436 30437 30438 30439 30440 30441 30442 30443 30444 30445 30446 30447 30448 30449 30450 30451 30452 30453 30454 30455 30456 30457 30458 30459 30460 30461 30462 30463 30464 30465 30466 30467 30468 30469 30470 30471 30472 30473 30474 30475 30476 30477 30478 30479 30480 30481 30482 30483 30484 30485 30486 30487 30488 30489 30490 30491 30492 30493 30494 30495 30496 30497 30498 30499 30500 30501 30502 30503 30504 30505 30506 30507 30508 30509 30510 30511 30512 30513 30514 30515 30516 30517 30518 30519 30520 30521 30522 30523 30524 30525 30526 30527 30528 30529 30530 30531 30532 30533 30534 30535 30536 30537 30538 30539 30540 30541 30542 30543 30544 30545 30546 30547 30548 30549 30550 30551 30552 30553 30554 30555 30556 30557 30558 30559 30560 30561 30562 30563 30564 30565 30566 30567 30568 30569 30570 30571 30572 30573 30574 30575 30576 30577 30578 30579 30580 30581 30582 30583 30584 30585 30586 30587 30588 30589 30590 30591 30592 30593 30594 30595 30596 30597 30598 30599 30600 30601 30602 30603 30604 30605 30606 30607 30608 30609 30610 30611 30612 30613 30614 30615 30616 30617 30618 30619 30620 30621 30622 30623 30624 30625 30626 30627 30628 30629 30630 30631 30632 30633 30634 30635 30636 30637 30638 30639 30640 30641 30642 30643 30644 30645 30646 30647 30648 30649 30650 30651 30652 30653 30654 30655 30656 30657 30658 30659 30660 30661 30662 30663 30664 30665 30666 30667 30668 30669 30670 30671 30672 30673 30674 30675 30676 30677 30678 30679 30680 30681 30682 30683 30684 30685 30686 30687 30688 30689 30690 30691 30692 30693 30694 30695 30696 30697 30698 30699 30700 30701 30702 30703 30704 30705 30706 30707 30708 30709 30710 30711 30712 30713 30714 30715 30716 30717 30718 30719 30720 30721 30722 30723 30724 30725 30726 30727 30728 30729 30730 30731 30732 30733 30734 30735 30736 30737 30738 30739 30740 30741 30742 30743 30744 30745 30746 30747 30748 30749 30750 30751 30752 30753 30754 30755 30756 30757 30758 30759 30760 30761 30762 30763 30764 30765 30766 30767 30768 30769 30770 30771 30772 30773 30774 30775 30776 30777 30778 30779 30780 30781 30782 30783 30784 30785 30786 30787 30788 30789 30790 30791 30792 30793 30794 30795 30796 30797 30798 30799 30800 30801 30802 30803 30804 30805 30806 30807 30808 30809 30810 30811 30812 30813 30814 30815 30816 30817 30818 30819 30820 30821 30822 30823 30824 30825 30826 30827 30828 30829 30830 30831 30832 30833 30834 30835 30836 30837 30838 30839 30840 30841 30842 30843 30844 30845 30846 30847 30848 30849 30850 30851 30852 30853 30854 30855 30856 30857 30858 30859 30860 30861 30862 30863 30864 30865 30866 30867 30868 30869 30870 30871 30872 30873 30874 30875 30876 30877 30878 30879 30880 30881 30882 30883 30884 30885 30886 30887 30888 30889 30890 30891 30892 30893 30894 30895 30896 30897 30898 30899 30900 30901 30902 30903 30904 30905 30906 30907 30908 30909 30910 30911 30912 30913 30914 30915 30916 30917 30918 30919 30920 30921 30922 30923 30924 30925 30926 30927 30928 30929 30930 30931 30932 30933 30934 30935 30936 30937 30938 30939 30940 30941 30942 30943 30944 30945 30946 30947 30948 30949 30950 30951 30952 30953 30954 30955 30956 30957 30958 30959 30960 30961 30962 30963 30964 30965 30966 30967 30968 30969 30970 30971 30972 30973 30974 30975 30976 30977 30978 30979 30980 30981 30982 30983 30984 30985 30986 30987 30988 30989 30990 30991 30992 30993 30994 30995 30996 30997 30998 30999 31000 31001 31002 31003 31004 31005 31006 31007 31008 31009 31010 31011 31012 31013 31014 31015 31016 31017 31018 31019 31020 31021 31022 31023 31024 31025 31026 31027 31028 31029 31030 31031 31032 31033 31034 31035 31036 31037 31038 31039 31040 31041 31042 31043 31044 31045 31046 31047 31048 31049 31050 31051 31052 31053 31054 31055 31056 31057 31058 31059 31060 31061 31062 31063 31064 31065 31066 31067 31068 31069 31070 31071 31072 31073 31074 31075 31076 31077 31078 31079 31080 31081 31082 31083 31084 31085 31086 31087 31088 31089 31090 31091 31092 31093 31094 31095 31096 31097 31098 31099 31100 31101 31102 31103 31104 31105 31106 31107 31108 31109 31110 31111 31112 31113 31114 31115 31116 31117 31118 31119 31120 31121 31122 31123 31124 31125 31126 31127 31128 31129 31130 31131 31132 31133 31134 31135 31136 31137 31138 31139 31140 31141 31142 31143 31144 31145 31146 31147 31148 31149 31150 31151 31152 31153 31154 31155 31156 31157 31158 31159 31160 31161 31162 31163 31164 31165 31166 31167 31168 31169 31170 31171 31172 31173 31174 31175 31176 31177 31178 31179 31180 31181 31182 31183 31184 31185 31186 31187 31188 31189 31190 31191 31192 31193 31194 31195 31196 31197 31198 31199 31200 31201 31202 31203 31204 31205 31206 31207 31208 31209 31210 31211 31212 31213 31214 31215 31216 31217 31218 31219 31220 31221 31222 31223 31224 31225 31226 31227 31228 31229 31230 31231 31232 31233 31234 31235 31236 31237 31238 31239 31240 31241 31242 31243 31244 31245 31246 31247 31248 31249 31250 31251 31252 31253 31254 31255 31256 31257 31258 31259 31260 31261 31262 31263 31264 31265 31266 31267 31268 31269 31270 31271 31272 31273 31274 31275 31276 31277 31278 31279 31280 31281 31282 31283 31284 31285 31286 31287 31288 31289 31290 31291 31292 31293 31294 31295 31296 31297 31298 31299 31300 31301 31302 31303 31304 31305 31306 31307 31308 31309 31310 31311 31312 31313 31314 31315 31316 31317 31318 31319 31320 31321 31322 31323 31324 31325 31326 31327 31328 31329 31330 31331 31332 31333 31334 31335 31336 31337 31338 31339 31340 31341 31342 31343 31344 31345 31346 31347 31348 31349 31350 31351 31352 31353 31354 31355 31356 31357 31358 31359 31360 31361 31362 31363 31364 31365 31366 31367 31368 31369 31370 31371 31372 31373 31374 31375 31376 31377 31378 31379 31380 31381 31382 31383 31384 31385 31386 31387 31388 31389 31390 31391 31392 31393 31394 31395 31396 31397 31398 31399 31400 31401 31402 31403 31404 31405 31406 31407 31408 31409 31410 31411 31412 31413 31414 31415 31416 31417 31418 31419 31420 31421 31422 31423 31424 31425 31426 31427 31428 31429 31430 31431 31432 31433 31434 31435 31436 31437 31438 31439 31440 31441 31442 31443 31444 31445 31446 31447 31448 31449 31450 31451 31452 31453 31454 31455 31456 31457 31458 31459 31460 31461 31462 31463 31464 31465 31466 31467 31468 31469 31470 31471 31472 31473 31474 31475 31476 31477 31478 31479 31480 31481 31482 31483 31484 31485 31486 31487 31488 31489 31490 31491 31492 31493 31494 31495 31496 31497 31498 31499 31500 31501 31502 31503 31504 31505 31506 31507 31508 31509 31510 31511 31512 31513 31514 31515 31516 31517 31518 31519 31520 31521 31522 31523 31524 31525 31526 31527 31528 31529 31530 31531 31532 31533 31534 31535 31536 31537 31538 31539 31540 31541 31542 31543 31544 31545 31546 31547 31548 31549 31550 31551 31552 31553 31554 31555 31556 31557 31558 31559 31560 31561 31562 31563 31564 31565 31566 31567 31568 31569 31570 31571 31572 31573 31574 31575 31576 31577 31578 31579 31580 31581 31582 31583 31584 31585 31586 31587 31588 31589 31590 31591 31592 31593 31594 31595 31596 31597 31598 31599 31600 31601 31602 31603 31604 31605 31606 31607 31608 31609 31610 31611 31612 31613 31614 31615 31616 31617 31618 31619 31620 31621 31622 31623 31624 31625 31626 31627 31628 31629 31630 31631 31632 31633 31634 31635 31636 31637 31638 31639 31640 31641 31642 31643 31644 31645 31646 31647 31648 31649 31650 31651 31652 31653 31654 31655 31656 31657 31658 31659 31660 31661 31662 31663 31664 31665 31666 31667 31668 31669 31670 31671 31672 31673 31674 31675 31676 31677 31678 31679 31680 31681 31682 31683 31684 31685 31686 31687 31688 31689 31690 31691 31692 31693 31694 31695 31696 31697 31698 31699 31700 31701 31702 31703 31704 31705 31706 31707 31708 31709 31710 31711 31712 31713 31714 31715 31716 31717 31718 31719 31720 31721 31722 31723 31724 31725 31726 31727 31728 31729 31730 31731 31732 31733 31734 31735 31736 31737 31738 31739 31740 31741 31742 31743 31744 31745 31746 31747 31748 31749 31750 31751 31752 31753 31754 31755 31756 31757 31758 31759 31760 31761 31762 31763 31764 31765 31766 31767 31768 31769 31770 31771 31772 31773 31774 31775 31776 31777 31778 31779 31780 31781 31782 31783 31784 31785 31786 31787 31788 31789 31790 31791 31792 31793 31794 31795 31796 31797 31798 31799 31800 31801 31802 31803 31804 31805 31806 31807 31808 31809 31810 31811 31812 31813 31814 31815 31816 31817 31818 31819 31820 31821 31822 31823 31824 31825 31826 31827 31828 31829 31830 31831 31832 31833 31834 31835 31836 31837 31838 31839 31840 31841 31842 31843 31844 31845 31846 31847 31848 31849 31850 31851 31852 31853 31854 31855 31856 31857 31858 31859 31860 31861 31862 31863 31864 31865 31866 31867 31868 31869 31870 31871 31872 31873 31874 31875 31876 31877 31878 31879 31880 31881 31882 31883 31884 31885 31886 31887 31888 31889 31890 31891 31892 31893 31894 31895 31896 31897 
</DataArray>
<DataArray type="UInt32" Name="offsets" format="ascii">
3 6 9 12 15 17 20 23 26 29 32 35 38 40 43 46 49 52 54 57 60 62 65 68 71 74 76 79 82 85 88 90 93 96 99 102 105 108 111 114 117 120 123 126 129 131 134 137 139 142 145 148 151 154 156 159 162 165 168 171 174 177 179 182 185 188 191 193 196 199 202 205 208 211 214 217 220 222 225 228 230 233 236 238 241 244 247 250 252 255 258 261 264 267 270 273 275 277 279 282 285 287 290 293 296 299 302 304 307 310 313 316 319 322 325 328 331 334 337 340 343 345 348 351 354 356 359 362 365 368 371 374 376 379 382 385 388 391 394 397 400 403 406 409 412 415 418 421 424 427 430 433 436 439 442 445 448 451 453 456 459 462 464 467 470 472 475 478 481 484 487 490 493 496 499 502 505 507 510 513 516 519 522 525 528 531 533 536 539 542 545 548 551 554 557 559 562 565 568 571 574 577 580 583 586 588 591 594 597 600 603 606 609 612 615 618 621 624 627 630 633 636 639 642 645 648 651 654 657 659 662 665 668 670 673 675 678 680 683 686 688 691 694 697 699 702 704 707 709 712 714 716 719 721 724 727 729 732 734 737 740 743 745 748 750 752 755 758 760 763 766 769 771 774 776 778 780 783 785 788 791 794 796 799 801 803 805 808 811 813 815 818 821 824 827 829 832 834 837 840 842 845 848 851 853 856 858 860 862 865 868 871 873 876 878 880 882 884 887 890 893 895 897 900 903 905 907 909 912 914 917 920 923 926 928 931 934 937 940 943 946 949 951 954 957 960 963 966 969 971 973 976 979 982 984 987 990 993 995 998 1000 1003 1005 1007 1010 1013 1016 1019 1021 1024 1027 1029 1032 1035 1038 1041 1043 1046 1048 1051 1054 1057 1060 1063 1065 1067 1070 1073 1076 1079 1082 1085 1088 1091 1093 1096 1099 1102 1104 1107 1110 1112 1115 1117 1120 1123 1126 1129 1132 1135 1138 1141 1144 1147 1150 1152 1155 1157 1160 1162 1165 1168 1171 1173 1176 1178 1181 1183 1186 1189 1192 1195 1198 1201 1203 1206 1208 1211 1214 1217 1219 1222 1225 1228 1230 1233 1235 1237 1240 1243 1246 1249 1251 1254 1257 1260 1263 1265 1267 1270 1273 1275 1278 1280 1283 1285 1287 1290 1293 1296 1298 1301 1304 1307 1310 1312 1315 1318 1321 1324 1327 1330 1333 1336 1339 1342 1345 1347 1350 1353 1356 1359 1361 1364 1367 1370 1372 1375 1377 1379 1381 1384 1387 1390 1392 1394 1397 1399 1402 1405 1407 1410 1413 1416 1419 1421 1424 1427 1430 1433 1436 1439 1442 1445 1448 1451 1454 1456 1458 1461 1464 1466 1469 1472 1475 1477 1480 1483 1486 1489 1492 1495 1497 1500 1503 1506 1508 1511 1514 1517 1519 1522 1525 1528 1531 1534 1537 1540 1543 1546 1549 1552 1554 1557 1560 1563 1565 1568 1571 1574 1577 1580 1583 1586 1588 1591 1594 1597 1600 1603 1605 1608 1611 1614 1617 1620 1623 1626 1629 1632 1635 1638 1641 1644 1647 1650 1653 1656 1659 1662 1664 1667 1670 1673 1676 1678 1681 1684 1686 1689 1692 1695 1698 1701 1704 1707 1709 1712 1715 1718 1721 1724 1727 1730 1733 1735 1738 1740 1743 1746 1748 1751 1754 1757 1759 1762 1765 1767 1770 1773 1776 1778 1781 1783 1786 1789 1791 1794 1796 1799 1802 1805 1808 1811 1814 1817 1820 1823 1826 1829 1832 1835 1838 1841 1844 1847 1850 1853 1856 1859 1862 1864 1867 1869 1872 1874 1877 1880 1883 1886 1889 1892 1895 1898 1901 1904 1907 1910 1913 1916 1919 1921 1924 1927 1930 1933 1936 1939 1942 1945 1948 1950 1953 1956 1959 1962 1965 1968 1971 1974 1977 1980 1983 1986 1989 1992 1995 1998 2001 2004 2007 2010 2013 2016 2019 2022 2025 2028 2031 2034 2037 2039 2042 2045 2047 2050 2053 2056 2058 2060 2063 2065 2068 2071 2074 2077 2080 2082 2085 2088 2091 2094 2097 2099 2102 2105 2108 2111 2114 2117 2120 2123 2126 2129 2132 2135 2138 2141 2144 2147 2150 2153 2156 2159 2162 2165 2168 2171 2174 2177 2180 2183 2186 2189 2192 2195 2198 2201 2204 2207 2210 2213 2216 2219 2222 2225 2228 2231 2234 2237 2240 2243 2246 2248 2251 2254 2257 2260 2263 2266 2269 2272 2275 2278 2281 2284 2287 2290 2293 2295 2298 2301 2304 2307 2309 2312 2315 2318 2321 2324 2327 2330 2333 2336 2339 2342 2345 2348 2351 2354 2357 2360 2363 2366 2369 2372 2375 2378 2381 2384 2387 2390 2392 2395 2398 2400 2403 2405 2407 2409 2411 2414 2417 2419 2422 2425 2428 2431 2434 2437 2440 2443 2446 2449 2452 2455 2458 2461 2464 2467 2470 2472 2475 2478 2480 2483 2485 2488 2491 2494 2497 2499 2502 2504 2507 2510 2513 2516 2518 2521 2524 2527 2529 2532 2535 2538 2541 2544 2546 2549 2551 2554 2557 2559 2561 2564 2566 2569 2572 2575 2578 2581 2584 2587 2590 2593 2596 2599 2601 2604 2607 2610 2612 2615 2618 2621 2623 2626 2629 2631 2633 2635 2638 2641 2644 2647 2650 2653 2656 2659 2662 2665 2668 2670 2673 2676 2679 2682 2685 2688 2691 2694 2696 2698 2700 2703 2706 2709 2712 2715 2718 2721 2724 2726 2728 2731 2734 2737 2739 2742 2745 2747 2750 2753 2756 2759 2762 2765 2768 2771 2774 2777 2780 2782 2785 2788 2791 2794 2797 2800 2803 2806 2808 2811 2814 2817 2820 2823 2826 2829 2832 2835 2838 2840 2843 2845 2847 2849 2852 2855 2858 2861 2864 2867 2870 2872 2874 2877 2879 2882 2885 2888 2891 2894 2896 2899 2901 2903 2906 2909 2912 2914 2917 2919 2922 2925 2928 2931 2933 2936 2939 2942 2945 2948 2951 2954 2957 2960 2963 2966 2969 2972 2975 2978 2981 2984 2986 2989 2992 2995 2997 3000 3003 3006 3009 3012 3014 3017 3020 3023 3026 3029 3032 3034 3037 3039 3042 3045 3048 3051 3054 3057 3060 3063 3065 3068 3071 3074 3076 3079 3082 3085 3088 3091 3094 3097 3100 3103 3106 3109 3112 3115 3118 3121 3124 3127 3130 3133 3136 3139 3142 3145 3148 3151 3153 3155 3157 3160 3163 3166 3169 3171 3174 3177 3180 3183 3185 3188 3191 3194 3197 3200 3203 3206 3208 3211 3214 3217 3220 3223 3226 3229 3232 3234 3237 3240 3243 3246 3249 3252 3255 3258 3261 3264 3267 3270 3272 3275 3278 3281 3284 3287 3290 3292 3295 3298 3301 3304 3307 3310 3313 3316 3318 3321 3324 3327 3329 3332 3335 3338 3341 3344 3347 3350 3353 3356 3359 3362 3365 3367 3370 3373 3376 3379 3382 3385 3388 3391 3394 3397 3400 3403 3406 3409 3412 3415 3418 3421 3424 3427 3430 3433 3436 3439 3442 3445 3448 3451 3454 3457 3460 3463 3466 3469 3472 3475 3478 3481 3484 3487 3490 3493 3496 3499 3502 3505 3508 3510 3513 3516 3519 3522 3525 3528 3531 3534 3537 3540 3543 3546 3549 3552 3555 3558 3561 3564 3567 3570 3573 3576 3579 3582 3584 3587 3590 3593 3596 3599 3602 3605 3608 3611 3614 3616 3619 3622 3624 3627 3630 3633 3636 3639 3642 3645 3648 3651 3653 3656 3658 3661 3664 3667 3670 3672 3675 3678 3680 3683 3685 3688 3691 3694 3697 3700 3702 3705 3708 3711 3714 3717 3720 3723 3726 3728 3731 3734 3737 3740 3743 3746 3749 3752 3755 3758 3761 3764 3767 3770 3772 3775 3777 3779 3782 3785 3788 3791 3794 3796 3799 3802 3805 3808 3811 3814 3817 3820 3823 3826 3829 3832 3835 3838 3841 3843 3846 3849 3852 3855 3858 3861 3864 3867 3870 3873 3876 3879 3882 3885 3888 3891 3893 3896 3899 3902 3905 3908 3910 3912 3915 3918 3920 3923 3926 3929 3932 3935 3938 3941 3944 3947 3950 3952 3955 3958 3961 3964 3967 3970 3973 3976 3979 3981 3984 3986 3989 3992 3995 3998 4001 4003 4006 4009 4012 4015 4017 4020 4023 4026 4028 4031 4034 4037 4039 4042 4045 4047 4050 4053 4056 4059 4062 4065 4068 4071 4074 4077 4080 4083 4086 4089 4092 4095 4097 4100 4103 4106 4109 4112 4115 4118 4120 4123 4126 4129 4132 4135 4138 4141 4144 4147 4150 4153 4156 4159 4162 4165 4168 4171 4174 4177 4180 4183 4186 4189 4192 4195 4198 4201 4203 4206 4209 4212 4215 4217 4220 4223 4226 4228 4231 4234 4237 4240 4243 4246 4249 4252 4255 4257 4260 4262 4265 4268 4271 4274 4277 4280 4283 4286 4289 4292 4295 4298 4301 4304 4307 4310 4313 4316 4318 4320 4323 4326 4329 4331 4334 4337 4339 4342 4345 4347 4350 4353 4356 4358 4361 4364 4366 4369 4372 4375 4378 4381 4384 4387 4390 4393 4396 4399 4402 4405 4408 4411 4414 4417 4420 4423 4426 4428 4431 4433 4436 4439 4442 4445 4448 4451 4454 4457 4460 4463 4466 4468 4471 4473 4476 4479 4482 4484 4487 4490 4493 4496 4499 4501 4504 4507 4510 4513 4516 4519 4521 4524 4527 4530 4533 4536 4539 4542 4545 4548 4551 4554 4556 4559 4562 4565 4568 4571 4574 4577 4580 4582 4585 4588 4591 4593 4596 4599 4601 4604 4607 4610 4613 4616 4618 4621 4624 4627 4630 4633 4636 4639 4642 4645 4647 4650 4653 4655 4658 4660 4663 4665 4667 4669 4672 4674 4677 4680 4683 4686 4689 4692 4694 4697 4700 4703 4706 4709 4712 4714 4717 4720 4723 4726 4729 4732 4735 4737 4740 4743 4746 4749 4751 4754 4757 4760 4763 4766 4768 4771 4773 4776 4779 4782 4785 4788 4791 4794 4797 4800 4803 4805 4808 4811 4814 4817 4820 4823 4826 4828 4831 4834 4837 4840 4843 4846 4849 4851 4854 4856 4859 4862 4865 4868 4871 4874 4877 4880 4882 4885 4888 4891 4893 4895 4898 4901 4904 4907 4910 4912 4914 4917 4919 4922 4925 4927 4930 4933 4935 4938 4941 4944 4947 4950 4953 4956 4959 4961 4964 4967 4970 4973 4976 4978 4981 4984 4987 4990 4992 4995 4998 5000 5003 5006 5009 5012 5015 5018 5021 5024 5027 5030 5033 5036 5039 5042 5045 5048 5051 5054 5057 5060 5063 5066 5069 5072 5075 5078 5081 5084 5087 5090 5093 5096 5099 5102 5105 5108 5111 5114 5117 5120 5123 5125 5128 5131 5133 5136 5139 5142 5145 5148 5150 5153 5156 5159 5162 5164 5167 5170 5173 5176 5179 5182 5185 5188 5191 5194 5197 5200 5203 5206 5209 5212 5215 5218 5221 5224 5227 5230 5233 5236 5238 5241 5244 5247 5249 5252 5255 5258 5261 5264 5267 5269 5272 5275 5278 5281 5284 5287 5290 5293 5296 5299 5302 5304 5307 5309 5311 5314 5317 5319 5322 5325 5328 5331 5334 5337 5340 5343 5346 5349 5352 5354 5357 5360 5362 5365 5368 5371 5374 5377 5380 5383 5386 5389 5392 5395 5398 5401 5404 5407 5409 5412 5415 5418 5421 5424 5427 5430 5432 5435 5437 5440 5443 5446 5449 5451 5454 5456 5459 5462 5465 5468 5471 5474 5477 5480 5483 5485 5488 5491 5494 5497 5500 5503 5506 5509 5512 5515 5518 5521 5524 5527 5530 5533 5536 5538 5541 5544 5547 5550 5553 5556 5559 5562 5565 5568 5571 5574 5577 5580 5583 5586 5589 5592 5595 5598 5601 5604 5607 5610 5613 5615 5617 5620 5623 5626 5629 5632 5635 5638 5641 5644 5647 5650 5652 5655 5658 5661 5664 5666 5669 5672 5675 5678 5680 5683 5686 5689 5692 5695 5698 5701 5704 5706 5709 5712 5715 5718 5721 5724 5727 5730 5733 5735 5738 5741 5744 5747 5750 5753 5756 5759 5762 5765 5768 5771 5774 5777 5780 5783 5786 5789 5792 5795 5797 5800 5803 5806 5809 5812 5815 5818 5821 5824 5827 5830 5833 5836 5839 5841 5844 5846 5849 5852 5855 5858 5861 5864 5867 5870 5872 5875 5878 5880 5883 5886 5889 5892 5895 5898 5901 5904 5907 5910 5913 5916 5919 5922 5925 5928 5931 5934 5937 5940 5943 5946 5949 5952 5955 5958 5961 5964 5967 5970 5973 5976 5979 5982 5985 5988 5990 5993 5996 5998 6001 6004 6007 6010 6012 6015 6017 6020 6023 6025 6028 6030 6033 6036 6039 6042 6045 6047 6050 6053 6056 6059 6062 6065 6068 6071 6074 6077 6080 6083 6085 6088 6091 6094 6096 6099 6102 6105 6108 6111 6114 6117 6120 6123 6125 6128 6131 6134 6137 6139 6141 6144 6147 6150 6153 6156 6159 6162 6165 6167 6170 6173 6176 6179 6182 6184 6187 6190 6193 6195 6198 6201 6204 6206 6209 6212 6215 6218 6220 6223 6226 6229 6232 6235 6238 6241 6244 6247 6250 6253 6256 6259 6262 6264 6267 6270 6273 6276 6279 6282 6284 6287 6289 6291 6294 6296 6299 6301 6304 6307 6310 6313 6315 6318 6321 6324 6327 6329 6332 6335 6338 6341 6344 6347 6350 6353 6356 6358 6361 6364 6367 6370 6373 6376 6379 6382 6385 6388 6391 6394 6397 6400 6402 6405 6408 6411 6413 6416 6419 6422 6424 6427 6429 6432 6435 6438 6441 6444 6447 6450 6453 6456 6459 6462 6465 6468 6471 6474 6477 6479 6482 6485 6488 6491 6494 6497 6499 6502 6505 6508 6511 6514 6517 6520 6523 6526 6529 6532 6535 6538 6541 6544 6547 6550 6553 6555 6558 6561 6564 6567 6570 6573 6576 6579 6582 6585 6588 6591 6594 6597 6600 6603 6606 6609 6612 6615 6618 6621 6624 6627 6630 6633 6636 6639 6642 6645 6648 6651 6654 6657 6659 6662 6665 6668 6671 6673 6676 6679 6682 6685 6688 6691 6694 6696 6699 6702 6705 6708 6711 6714 6717 6720 6723 6725 6728 6731 6733 6736 6739 6742 6745 6748 6750 6753 6756 6759 6761 6764 6767 6769 6772 6775 6778 6781 6784 6787 6790 6793 6796 6799 6802 6805 6808 6811 6814 6817 6820 6823 6826 6829 6831 6834 6837 6840 6843 6846 6849 6852 6855 6858 6861 6863 6865 6868 6870 6873 6876 6879 6882 6885 6887 6890 6893 6896 6899 6901 6904 6907 6910 6913 6916 6918 6921 6923 6926 6929 6931 6934 6937 6940 6943 6946 6949 6952 6955 6957 6960 6963 6966 6969 6972 6975 6977 6980 6983 6986 6989 6992 6995 6997 7000 7003 7006 7009 7011 7014 7017 7019 7022 7024 7027 7030 7032 7035 7038 7041 7044 7047 7050 7052 7055 7058 7061 7064 7066 7069 7072 7075 7078 7081 7084 7087 7090 7092 7094 7097 7100 7103 7106 7109 7112 7115 7118 7120 7123 7126 7129 7132 7135 7138 7140 7143 7146 7149 7152 7155 7158 7161 7163 7166 7169 7172 7174 7177 7180 7183 7186 7189 7192 7195 7198 7201 7204 7207 7210 7212 7215 7218 7221 7224 7226 7229 7232 7234 7237 7240 7243 7246 7248 7251 7254 7257 7259 7261 7264 7267 7270 7272 7275 7278 7281 7283 7286 7289 7292 7295 7298 7301 7304 7307 7310 7312 7315 7318 7321 7323 7326 7329 7332 7335 7338 7341 7344 7347 7350 7353 7356 7359 7361 7364 7366 7369 7372 7374 7377 7380 7382 7385 7388 7391 7394 7397 7400 7403 7405 7408 7411 7414 7417 7420 7422 7425 7427 7430 7433 7436 7438 7440 7443 7445 7447 7450 7452 7455 7458 7461 7464 7467 7470 7472 7475 7477 7480 7483 7486 7489 7492 7495 7498 7501 7504 7507 7510 7513 7516 7518 7521 7524 7526 7529 7531 7534 7537 7539 7542 7545 7548 7550 7552 7555 7558 7560 7563 7566 7569 7572 7575 7578 7581 7584 7587 7590 7593 7596 7599 7602 7605 7608 7611 7614 7617 7620 7623 7626 7629 7631 7633 7636 7638 7641 7643 7646 7649 7651 7653 7656 7659 7661 7664 7667 7669 7672 7675 7677 7680 7682 7685 7688 7691 7694 7696 7699 7702 7705 7708 7710 7713 7715 7717 7720 7722 7725 7728 7730 7732 7735 7738 7741 7743 7746 7749 7752 7755 7757 7759 7762 7765 7768 7771 7774 7776 7779 7782 7785 7788 7791 7794 7797 7800 7803 7806 7809 7811 7814 7816 7819 7821 7824 7827 7829 7832 7834 7837 7840 7843 7846 7849 7852 7855 7858 7860 7863 7866 7868 7871 7874 7877 7880 7882 7885 7888 7891 7894 7897 7900 7903 7906 7909 7912 7915 7918 7920 7923 7926 7929 7932 7935 7938 7941 7944 7947 7950 7953 7955 7958 7961 7964 7967 7970 7973 7975 7978 7980 7983 7986 7988 7991 7994 7997 8000 8003 8006 8009 8012 8015 8018 8021 8024 8027 8030 8033 8036 8039 8041 8043 8046 8049 8052 8054 8057 8060 8062 8065 8068 8071 8074 8077 8080 8083 8086 8089 8092 8095 8098 8101 8104 8107 8110 8113 8116 8119 8122 8125 8128 8131 8134 8137 8139 8141 8144 8147 8150 8153 8156 8159 8162 8165 8168 8171 8174 8176 8179 8182 8185 8188 8191 8194 8197 8200 8203 8206 8209 8212 8215 8218 8221 8224 8227 8230 8233 8236 8239 8242 8245 8248 8251 8254 8257 8260 8263 8266 8269 8272 8275 8277 8280 8283 8286 8289 8292 8294 8297 8300 8302 8305 8308 8310 8312 8315 8318 8321 8324 8327 8330 8333 8336 8339 8342 8345 8348 8351 8353 8356 8359 8361 8364 8367 8370 8373 8376 8379 8381 8384 8387 8389 8392 8395 8398 8401 8404 8407 8410 8413 8416 8419 8422 8425 8428 8430 8433 8436 8439 8442 8445 8448 8451 8453 8456 8459 8462 8465 8468 8471 8474 8477 8480 8483 8486 8489 8491 8494 8497 8499 8502 8505 8508 8511 8514 8517 8520 8523 8526 8529 8532 8535 8538 8541 8544 8547 8550 8553 8556 8559 8561 8564 8567 8569 8572 8574 8577 8580 8583 8585 8588 8591 8593 8596 8598 8601 8604 8607 8609 8612 8615 8618 8621 8623 8626 8629 8632 8635 8638 8641 8644 8646 8649 8652 8655 8657 8660 8663 8666 8669 8672 8675 8678 8681 8684 8687 8690 8693 8695 8698 8701 8704 8707 8710 8713 8716 8719 8721 8724 8727 8730 8733 8736 8739 8742 8745 8748 8751 8754 8756 8759 8762 8765 8768 8771 8774 8777 8780 8783 8786 8789 8792 8795 8798 8801 8804 8807 8810 8813 8815 8817 8820 8823 8826 8828 8831 8834 8837 8840 8843 8846 8849 8852 8855 8858 8861 8864 8866 8869 8872 8875 8878 8881 8884 8887 8890 8893 8895 8898 8901 8904 8907 8910 8913 8916 8919 8922 8925 8928 8931 8934 8937 8940 8943 8945 8948 8950 8953 8956 8959 8962 8965 8967 8970 8973 8976 8979 8981 8984 8987 8990 8992 8995 8998 9001 9003 9006 9009 9012 9015 9018 9021 9024 9027 9030 9032 9035 9038 9041 9043 9046 9049 9051 9054 9057 9060 9063 9066 9069 9071 9074 9077 9080 9083 9086 9089 9092 9095 9097 9100 9103 9106 9108 9111 9114 9117 9120 9123 9126 9129 9132 9135 9138 9141 9144 9147 9150 9153 9156 9159 9162 9165 9168 9171 9174 9177 9180 9183 9186 9189 9191 9194 9197 9200 9203 9206 9209 9212 9214 9217 9220 9223 9226 9229 9232 9235 9238 9241 9244 9247 9250 9253 9256 9259 9262 9265 9268 9271 9274 9277 9280 9283 9286 9289 9291 9294 9296 9299 9302 9305 9308 9311 9314 9316 9319 9322 9325 9327 9330 9333 9335 9338 9341 9344 9347 9350 9353 9356 9359 9362 9365 9368 9371 9373 9376 9379 9382 9385 9388 9390 9393 9396 9399 9402 9405 9408 9411 9414 9417 9420 9423 9426 9429 9431 9434 9437 9440 9442 9445 9448 9451 9454 9457 9460 9463 9466 9469 9472 9475 9478 9480 9482 9485 9488 9491 9494 9496 9499 9502 9505 9508 9511 9514 9517 9520 9523 9525 9527 9530 9533 9536 9539 9542 9544 9547 9550 9553 9556 9559 9561 9564 9567 9570 9573 9576 9578 9581 9583 9586 9589 9592 9595 9597 9600 9602 9605 9607 9609 9612 9615 9618 9621 9624 9627 9630 9632 9634 9637 9640 9643 9646 9649 9652 9654 9656 9658 9661 9663 9665 9668 9671 9674 9676 9679 9682 9685 9688 9691 9693 9695 9697 9700 9702 9705 9708 9711 9713 9716 9718 9720 9723 9726 9729 9732 9735 9738 9741 9743 9745 9748 9751 9753 9755 9757 9760 9763 9766 9769 9772 9775 9778 9781 9784 9787 9790 9793 9796 9799 9802 9805 9808 9811 9814 9817 9820 9823 9826 9829 9832 9835 9838 9841 9844 9847 9850 9853 9856 9859 9862 9865 9868 9871 9874 9877 9879 9882 9885 9888 9891 9894 9897 9900 9903 9906 9909 9911 9914 9917 9920 9923 9926 9929 9931 9934 9937 9939 9942 9945 9948 9951 9954 9957 9960 9963 9966 9969 9972 9975 9978 9980 9983 9985 9988 9991 9994 9997 9999 10002 10005 10008 10010 10013 10016 10018 10021 10024 10027 10029 10032 10035 10037 10040 10043 10046 10049 10052 10054 10057 10060 10063 10066 10069 10072 10075 10077 10080 10083 10086 10089 10092 10095 10098 10100 10103 10106 10108 10111 10114 10117 10120 10122 10125 10127 10130 10133 10136 10139 10142 10144 10147 10150 10153 10156 10158 10161 10164 10167 10170 10173 10176 10178 10180 10183 10186 10189 10192 10195 10197 10200 10203 10205 10208 10211 10214 10217 10220 10223 10226 10229 10232 10235 10237 10240 10243 10246 10249 10252 10255 10258 10261 10264 10267 10270 10273 10276 10279 10282 10285 10288 10291 10293 10296 10299 10302 10305 10308 10311 10313 10316 10319 10322 10325 10328 10331 10334 10336 10338 10341 10344 10347 10350 10352 10355 10358 10361 10364 10367 10370 10373 10375 10378 10381 10383 10386 10388 10390 10392 10395 10398 10401 10404 10407 10410 10412 10415 10418 10421 10424 10427 10429 10432 10435 10438 10441 10443 10446 10449 10452 10454 10457 10460 10463 10465 10468 10471 10474 10477 10480 10483 10486 10489 10492 10495 10498 10501 10504 10507 10510 10513 10516 10519 10522 10525 10528 10531 10534 10537 10540 10542 10545 10548 10551 10554 10557 10560 10563 10565 10568 10570 10573 10576 10579 10582 10585 10588 10590 10593 10596 10598 10601 10604 10607 10609 10612 10615 10617 10620 10623 10626 10629 10632 10634 10637 10640 10643 10645 10647 10650 10653 10656 10659 10662 10665 10668 10671 10674 10677 10680 10683 10685 10688 10691 10694 10697 10700 10703 10706 10709 10712 10714 10717 10720 10723 10726 10729 10731 10733 10736 10739 10742 10745 10748 10751 10754 10757 10760 10762 10765 10768 10771 10774 10777 10780 10783 10786 10788 10791 10794 10797 10800 10803 10806 10809 10812 10815 10818 10821 10824 10827 10830 10833 10836 10839 10842 10844 10847 10850 10853 10856 10858 10861 10863 10866 10868 10871 10874 10877 10880 10883 10886 10889 10892 10895 10898 10901 10904 10907 10910 10913 10916 10919 10921 10924 10927 10930 10933 10936 10938 10941 10944 10947 10949 10951 10954 10957 10960 10963 10966 10968 10971 10974 10977 10980 10982 10985 10988 10991 10994 10997 11000 11003 11006 11008 11011 11014 11017 11020 11023 11026 11029 11031 11034 11037 11040 11043 11046 11049 11052 11055 11058 11060 11063 11066 11069 11072 11075 11078 11081 11084 11087 11090 11093 11096 11099 11102 11105 11108 11111 11114 11116 11119 11122 11125 11128 11131 11134 11137 11140 11143 11146 11149 11152 11155 11157 11160 11163 11166 11169 11172 11175 11177 11180 11183 11185 11188 11191 11193 11196 11199 11202 11205 11208 11211 11214 11217 11220 11223 11226 11229 11232 11235 11238 11241 11244 11247 11250 11253 11256 11259 11262 11265 11268 11271 11273 11276 11278 11281 11283 11285 11288 11291 11294 11296 11299 11302 11305 11308 11311 11314 11317 11320 11323 11325 11327 11330 11332 11335 11338 11341 11344 11347 11350 11353 11356 11359 11362 11365 11368 11371 11374 11376 11379 11381 11383 11386 11388 11391 11394 11397 11400 11403 11406 11409 11412 11415 11417 11419 11422 11425 11428 11431 11434 11437 11440 11443 11446 11449 11452 11455 11458 11461 11464 11467 11470 11473 11476 11479 11482 11485 11487 11490 11493 11496 11499 11502 11504 11507 11510 11513 11516 11519 11521 11524 11527 11530 11532 11535 11538 11541 11544 11547 11550 11553 11556 11559 11561 11564 11567 11570 11573 11575 11578 11581 11584 11587 11590 11593 11595 11598 11601 11604 11607 11610 11613 11616 11618 11621 11624 11627 11630 11632 11635 11638 11641 11644 11647 11650 11653 11656 11659 11662 11664 11667 11670 11673 11676 11678 11681 11684 11687 11689 11692 11695 11698 11701 11704 11706 11709 11712 11715 11718 11721 11724 11727 11730 11733 11736 11739 11742 11745 11748 11750 11752 11755 11758 11760 11763 11766 11769 11772 11775 11778 11781 11783 11786 11789 11792 11795 11798 11801 11803 11806 11809 11812 11815 11818 11821 11824 11827 11830 11833 11836 11839 11842 11845 11848 11851 11854 11857 11860 11863 11866 11869 11872 11874 11877 11880 11883 11886 11889 11892 11895 11898 11900 11903 11906 11909 11912 11914 11917 11920 11923 11926 11929 11931 11934 11936 11939 11941 11944 11947 11950 11953 11956 11959 11962 11964 11967 11970 11973 11975 11978 11981 11984 11987 11990 11992 11995 11998 12001 12004 12007 12009 12012 12014 12017 12020 12022 12025 12027 12030 12033 12036 12039 12042 12044 12047 12050 12053 12055 12058 12061 12064 12067 12070 12073 12076 12079 12082 12085 12087 12090 12093 12096 12099 12102 12105 12108 12111 12114 12117 12120 12123 12126 12129 12132 12135 12138 12141 12144 12147 12150 12153 12155 12158 12161 12164 12167 12170 12173 12176 12179 12182 12185 12188 12191 12194 12197 12200 12203 12206 12209 12211 12214 12217 12220 12222 12225 12228 12231 12234 12237 12240 12242 12245 12248 12251 12253 12255 12258 12260 12263 12265 12267 12270 12272 12275 12278 12280 12283 12286 12288 12290 12293 12296 12299 12302 12305 12308 12311 12314 12316 12319 12321 12324 12327 12330 12333 12336 12339 12342 12345 12348 12351 12354 12357 12360 12363 12366 12369 12372 12375 12378 12381 12384 12387 12389 12392 12395 12398 12401 12404 12407 12410 12413 12415 12418 12421 12423 12426 12429 12431 12433 12436 12439 12441 12444 12447 12450 12453 12456 12459 12462 12465 12468 12471 12474 12477 12480 12483 12486 12489 12492 12495 12498 12501 12504 12507 12510 12513 12516 12519 12522 12525 12528 12531 12534 12537 12540 12543 12546 12549 12552 12555 12558 12560 12563 12565 12568 12571 12574 12577 12580 12583 12586 12589 12592 12595 12598 12601 12604 12607 12610 12613 12616 12619 12622 12625 12628 12631 12634 12637 12640 12643 12646 12649 12652 12655 12658 12661 12664 12667 12670 12673 12676 12679 12682 12685 12687 12690 12693 12695 12698 12701 12704 12707 12710 12712 12715 12717 12720 12723 12725 12728 12731 12734 12737 12740 12743 12745 12748 12751 12754 12757 12760 12763 12766 12769 12772 12775 12778 12780 12783 12786 12788 12790 12793 12795 12798 12801 12803 12806 12809 12812 12815 12817 12820 12823 12826 12829 12832 12835 12838 12841 12844 12846 12849 12851 12854 12857 12860 12863 12866 12869 12872 12874 12877 12879 12882 12885 12888 12891 12894 12897 12900 12903 12906 12908 12911 12913 12916 12919 12922 12925 12928 12931 12934 12937 12940 12943 12945 12948 12951 12954 12956 12959 12962 12964 12967 12970 12972 12975 12978 12981 12984 12986 12989 12992 12995 12997 13000 13003 13006 13009 13012 13015 13018 13021 13024 13027 13030 13033 13036 13039 13041 13044 13047 13050 13053 13056 13059 13061 13064 13066 13069 13071 13074 13077 13080 13082 13085 13088 13091 13094 13097 13100 13103 13106 13108 13111 13114 13117 13120 13123 13125 13128 13131 13133 13136 13139 13142 13145 13148 13151 13154 13157 13160 13162 13165 13168 13171 13173 13176 13179 13182 13185 13188 13191 13193 13196 13199 13202 13205 13208 13211 13214 13217 13220 13223 13226 13229 13232 13235 13238 13241 13244 13247 13250 13253 13256 13259 13262 13265 13268 13271 13274 13277 13280 13283 13286 13288 13291 13294 13297 13300 13303 13305 13308 13311 13313 13315 13318 13321 13324 13327 13329 13332 13335 13338 13341 13344 13346 13349 13352 13355 13358 13361 13364 13367 13370 13373 13376 13379 13382 13385 13388 13391 13394 13396 13399 13402 13405 13408 13411 13414 13417 13420 13422 13424 13427 13430 13433 13436 13439 13442 13444 13447 13450 13453 13456 13458 13461 13464 13467 13470 13473 13476 13479 13482 13485 13488 13491 13494 13497 13500 13503 13506 13509 13512 13515 13518 13521 13524 13527 13530 13532 13535 13538 13540 13543 13546 13549 13552 13555 13558 13561 13564 13567 13570 13573 13576 13579 13582 13585 13588 13591 13594 13597 13600 13603 13606 13609 13612 13615 13618 13621 13623 13626 13628 13631 13634 13637 13640 13643 13645 13648 13651 13654 13657 13660 13663 13666 13669 13672 13675 13678 13681 13684 13687 13690 13693 13696 13699 13702 13705 13707 13709 13712 13714 13717 13720 13723 13726 13729 13732 13735 13738 13741 13744 13747 13750 13753 13756 13759 13762 13764 13767 13770 13773 13775 13778 13781 13784 13787 13790 13793 13796 13799 13802 13805 13808 13811 13814 13816 13819 13822 13825 13828 13831 13834 13837 13840 13843 13846 13849 13852 13855 13858 13861 13864 13867 13870 13873 13876 13879 13882 13884 13887 13890 13893 13896 13899 13902 13905 13908 13911 13914 13917 13920 13923 13925 13928 13930 13933 13936 13938 13940 13943 13946 13949 13952 13955 13958 13961 13964 13967 13970 13973 13976 13979 13982 13985 13988 13991 13994 13997 14000 14002 14005 14008 14010 14013 14016 14019 14021 14024 14027 14030 14033 14036 14039 14041 14044 14047 14050 14052 14055 14058 14061 14064 14067 14070 14073 14076 14078 14081 14084 14086 14089 14092 14094 14097 14099 14102 14105 14108 14111 14113 14115 14118 14121 14123 14125 14128 14131 14133 14136 14139 14142 14145 14147 14150 14153 14155 14157 14160 14162 14165 14168 14171 14174 14177 14180 14183 14186 14189 14192 14195 14198 14201 14204 14207 14210 14213 14216 14219 14222 14224 14227 14230 14233 14236 14238 14241 14244 14247 14250 14252 14254 14257 14260 14263 14266 14269 14272 14275 14278 14281 14284 14287 14290 14292 14295 14298 14301 14303 14306 14309 14312 14315 14318 14321 14324 14326 14329 14332 14335 14337 14340 14343 14345 14347 14350 14353 14356 14358 14361 14364 14367 14369 14372 14375 14378 14381 14384 14387 14390 14393 14396 14399 14402 14405 14408 14411 14414 14417 14420 14423 14425 14428 14431 14434 14437 14440 14443 14446 14449 14452 14455 14458 14461 14464 14467 14470 14473 14476 14479 14481 14483 14486 14489 14492 14495 14498 14500 14502 14505 14507 14510 14513 14516 14519 14522 14525 14528 14531 14534 14536 14539 14542 14545 14547 14550 14553 14556 14559 14562 14565 14568 14571 14574 14577 14580 14583 14586 14589 14591 14594 14597 14600 14603 14606 14609 14612 14614 14617 14620 14622 14625 14628 14631 14634 14637 14640 14642 14645 14648 14651 14654 14656 14659 14662 14665 14668 14671 14674 14676 14679 14682 14685 14688 14691 14694 14697 14700 14702 14704 14707 14710 14713 14715 14717 14720 14723 14726 14729 14732 14734 14737 14740 14743 14746 14749 14752 14754 14757 14760 14763 14766 14768 14771 14774 14777 14780 14783 14785 14788 14791 14794 14797 14799 14802 14805 14808 14811 14814 14817 14820 14823 14826 14829 14832 14835 14838 14841 14844 14847 14850 14853 14856 14859 14862 14865 14868 14871 14874 14876 14879 14882 14885 14888 14890 14893 14895 14898 14900 14903 14906 14908 14911 14914 14916 14919 14922 14924 14927 14930 14933 14936 14939 14942 14944 14947 14950 14952 14955 14957 14959 14961 14964 14967 14969 14972 14974 14976 14979 14982 14985 14987 14990 14992 14995 14998 15001 15004 15007 15010 15012 15015 15018 15021 15023 15026 15029 15032 15035 15038 15041 15044 15046 15049 15052 15055 15057 15060 15062 15064 15067 15070 15073 15076 15079 15082 15085 15087 15090 15093 15096 15099 15102 15105 15108 15111 15113 15115 15118 15121 15124 15127 15129 15132 15135 15137 15140 15143 15146 15148 15151 15154 15157 15159 15161 15164 15167 15170 15173 15175 15178 15181 15184 15187 15190 15192 15194 15197 15200 15203 15206 15209 15212 15215 15218 15221 15224 15227 15230 15233 15236 15239 15242 15245 15248 15251 15254 15257 15260 15263 15266 15269 15272 15275 15278 15281 15284 15287 15289 15292 15295 15298 15300 15303 15306 15309 15312 15315 15318 15321 15324 15327 15330 15333 15336 15339 15342 15345 15347 15350 15352 15354 15357 15360 15362 15365 15368 15371 15374 15377 15380 15383 15386 15389 15392 15395 15398 15401 15404 15407 15410 15413 15416 15419 15422 15425 15428 15431 15433 15436 15439 15441 15443 15446 15449 15452 15455 15458 15461 15464 15466 15469 15472 15475 15477 15480 15483 15486 15489 15491 15493 15496 15499 15502 15505 15508 15511 15514 15516 15519 15522 15525 15528 15530 15533 15536 15539 15542 15544 15547 15550 15553 15556 15559 15562 15565 15568 15571 15574 15577 15580 15583 15586 15589 15592 15595 15598 15601 15603 15606 15609 15612 15615 15618 15621 15624 15627 15630 15633 15636 15639 15642 15645 15648 15651 15653 15656 15659 15662 15664 15667 15670 15673 15676 15679 15682 15685 15688 15691 15693 15696 15699 15702 15705 15708 15711 15714 15717 15720 15723 15726 15729 15732 15735 15738 15741 15744 15747 15750 15753 15756 15758 15761 15764 15767 15770 15773 15776 15779 15782 15785 15788 15791 15794 15797 15800 15803 15806 15809 15811 15814 15817 15820 15823 15826 15828 15831 15834 15837 15840 15843 15846 15849 15852 15855 15858 15861 15864 15867 15870 15873 15876 15879 15882 15885 15888 15891 15894 15897 15900 15903 15906 15909 15911 15914 15917 15919 15922 15925 15928 15930 15933 15936 15939 15942 15945 15948 15951 15954 15957 15960 15963 15966 15969 15972 15975 15977 15980 15982 15985 15988 15991 15994 15997 16000 16003 16006 16009 16011 16014 16017 16020 16023 16026 16029 16032 16035 16038 16040 16042 16045 16048 16051 16054 16057 16060 16063 16066 16069 16072 16075 16078 16081 16084 16087 16090 16093 16096 16099 16102 16105 16108 16111 16114 16117 16120 16123 16126 16129 16132 16135 16138 16141 16144 16147 16150 16153 16156 16159 16162 16165 16168 16171 16174 16177 16180 16183 16186 16189 16192 16195 16198 16201 16204 16207 16210 16213 16216 16219 16222 16225 16228 16231 16234 16237 16240 16243 16246 16249 16252 16255 16257 16260 16263 16266 16269 16272 16275 16277 16280 16283 16286 16289 16292 16295 16298 16301 16304 16306 16309 16311 16314 16317 16320 16323 16326 16329 16332 16335 16338 16341 16344 16347 16350 16353 16356 16359 16362 16365 16368 16371 16374 16377 16380 16383 16386 16389 16392 16395 16398 16401 16404 16407 16410 16413 16415 16418 16421 16424 16426 16428 16431 16434 16437 16440 16443 16446 16449 16452 16455 16458 16461 16464 16467 16470 16473 16476 16479 16482 16485 16488 16491 16494 16496 16498 16501 16504 16507 16510 16513 16516 16519 16522 16524 16527 16530 16533 16536 16539 16542 16544 16547 16550 16553 16556 16559 16561 16564 16567 16570 16573 16575 16578 16581 16584 16586 16589 16592 16595 16597 16600 16603 16605 16608 16611 16614 16617 16620 16623 16626 16629 16632 16635 16638 16641 16644 16646 16649 16652 16655 16658 16661 16664 16667 16670 16672 16675 16678 16681 16684 16687 16690 16693 16696 16699 16702 16705 16707 16710 16713 16716 16718 16721 16724 16727 16730 16732 16735 16738 16741 16744 16747 16750 16753 16756 16758 16761 16763 16766 16769 16771 16774 16777 16780 16783 16786 16788 16791 16794 16797 16800 16803 16806 16809 16812 16815 16818 16821 16824 16826 16829 16832 16835 16838 16841 16844 16847 16850 16853 16855 16858 16861 16864 16867 16870 16873 16875 16878 16881 16884 16887 16890 16893 16896 16898 16901 16904 16907 16910 16913 16915 16918 16921 16924 16927 16930 16933 16936 16939 16942 16945 16948 16951 16954 16957 16960 16963 16966 16969 16972 16975 16978 16981 16984 16987 16990 16993 16996 16999 17002 17005 17008 17011 17014 17017 17020 17023 17026 17029 17032 17035 17038 17041 17044 17047 17050 17053 17056 17058 17061 17063 17066 17069 17072 17075 17078 17081 17084 17087 17090 17093 17096 17099 17102 17105 17107 17110 17113 17116 17119 17122 17125 17128 17131 17134 17137 17140 17143 17146 17149 17152 17154 17157 17160 17162 17165 17167 17170 17173 17176 17179 17182 17184 17187 17190 17193 17196 17199 17202 17205 17208 17211 17214 17217 17220 17223 17226 17229 17232 17235 17238 17241 17244 17246 17249 17252 17255 17258 17261 17264 17267 17270 17273 17276 17279 17281 17284 17286 17289 17292 17294 17297 17299 17302 17305 17308 17311 17314 17317 17320 17322 17325 17327 17330 17333 17336 17339 17341 17344 17347 17350 17353 17355 17357 17360 17363 17365 17368 17371 17374 17377 17380 17383 17386 17389 17392 17395 17398 17401 17404 17407 17410 17413 17415 17418 17421 17424 17427 17430 17433 17436 17439 17442 17445 17448 17451 17454 17457 17459 17462 17464 17467 17470 17473 17476 17479 17482 17485 17487 17490 17492 17495 17498 17501 17504 17507 17510 17513 17516 17519 17521 17523 17526 17529 17532 17534 17537 17540 17543 17546 17548 17551 17553 17556 17559 17561 17564 17566 17568 17570 17573 17576 17578 17581 17584 17587 17589 17591 17593 17596 17599 17602 17605 17608 17611 17614 17617 17620 17623 17626 17628 17631 17634 17637 17640 17643 17646 17648 17651 17654 17657 17659 17662 17665 17668 17671 17674 17677 17680 17683 17685 17688 17691 17694 17696 17699 17702 17705 17708 17711 17714 17717 17720 17723 17726 17729 17732 17735 17738 17741 17744 17747 17750 17753 17756 17759 17762 17765 17768 17771 17774 17777 17780 17783 17786 17789 17792 17795 17798 17801 17804 17807 17810 17813 17816 17819 17822 17825 17828 17831 17834 17837 17840 17843 17846 17849 17852 17855 17858 17861 17864 17867 17870 17873 17876 17878 17881 17884 17887 17890 17893 17895 17898 17901 17904 17907 17909 17912 17915 17918 17920 17923 17926 17929 17932 17935 17938 17941 17944 17947 17950 17953 17956 17959 17962 17965 17968 17971 17974 17977 17980 17983 17986 17989 17992 17995 17998 18001 18004 18007 18010 18013 18016 18019 18022 18025 18028 18031 18034 18037 18040 18042 18045 18048 18050 18053 18056 18059 18062 18065 18068 18071 18073 18076 18079 18082 18085 18088 18091 18094 18097 18100 18103 18106 18108 18111 18114 18116 18119 18121 18124 18127 18130 18132 18135 18138 18141 18144 18147 18150 18153 18156 18158 18161 18164 18167 18170 18172 18175 18178 18181 18184 18186 18189 18191 18194 18197 18200 18203 18206 18209 18212 18215 18218 18221 18224 18227 18229 18232 18234 18237 18240 18243 18246 18249 18252 18255 18258 18261 18264 18267 18270 18273 18275 18278 18281 18284 18287 18290 18293 18296 18299 18302 18304 18307 18310 18313 18315 18318 18321 18324 18327 18330 18333 18336 18339 18342 18345 18348 18351 18354 18357 18360 18363 18366 18369 18372 18375 18378 18381 18384 18387 18390 18393 18396 18399 18402 18405 18408 18411 18414 18417 18420 18422 18425 18428 18430 18433 18436 18439 18442 18444 18447 18450 18453 18456 18459 18462 18465 18468 18471 18474 18477 18480 18483 18486 18489 18491 18494 18497 18500 18503 18506 18509 18512 18515 18518 18520 18523 18525 18528 18531 18534 18537 18540 18543 18546 18548 18551 18554 18557 18560 18563 18566 18569 18572 18575 18578 18581 18584 18587 18590 18592 18595 18598 18601 18604 18607 18610 18613 18616 18619 18622 18625 18627 18630 18633 18636 18639 18642 18645 18648 18651 18654 18657 18660 18663 18666 18669 18672 18675 18678 18681 18684 18687 18690 18693 18696 18698 18701 18703 18706 18709 18712 18715 18718 18721 18723 18726 18728 18731 18734 18737 18739 18742 18745 18748 18750 18753 18756 18759 18761 18764 18767 18769 18772 18775 18778 18781 18784 18787 18790 18792 18795 18798 18801 18804 18807 18810 18813 18815 18818 18821 18824 18827 18830 18833 18836 18839 18842 18845 18848 18851 18854 18856 18859 18862 18865 18868 18871 18874 18877 18880 18882 18885 18888 18891 18894 18897 18900 18903 18906 18909 18912 18915 18918 18921 18924 18927 18930 18933 18936 18939 18942 18944 18947 18950 18953 18956 18959 18962 18965 18968 18971 18974 18977 18980 18983 18986 18989 18992 18995 18998 19001 19004 19007 19010 19013 19016 19019 19022 19025 19028 19031 19034 19037 19040 19043 19046 19049 19052 19055 19058 19061 19064 19067 19070 19073 19076 19079 19082 19085 19088 19091 19094 19096 19099 19101 19104 19107 19110 19112 19115 19118 19120 19122 19125 19127 19130 19133 19136 19139 19142 19145 19148 19151 19154 19157 19160 19163 19166 19169 19172 19175 19178 19181 19184 19187 19190 19193 19196 19199 19202 19205 19208 19211 19214 19217 19220 19223 19226 19229 19232 19234 19237 19240 19243 19246 19248 19251 19254 19256 19259 19262 19265 19267 19270 19273 19276 19279 19281 19284 19286 19288 19291 19294 19297 19300 19302 19305 19308 19311 19313 19316 19319 19322 19324 19327 19330 19333 19336 19339 19342 19344 19347 19350 19353 19356 19359 19362 19365 19368 19371 19374 19377 19380 19383 19386 19389 19392 19395 19398 19401 19404 19406 19409 19412 19415 19418 19421 19424 19427 19430 19433 19436 19439 19442 19445 19448 19451 19454 19457 19460 19462 19465 19468 19470 19473 19476 19478 19481 19484 19487 19490 19493 19496 19499 19502 19505 19508 19511 19513 19516 19519 19522 19525 19527 19530 19533 19536 19539 19541 19544 19547 19550 19552 19555 19558 19561 19564 19567 19570 19573 19576 19579 19582 19585 19588 19591 19594 19597 19600 19603 19606 19609 19612 19615 19618 19621 19624 19627 19629 19632 19635 19638 19641 19644 19647 19650 19653 19655 19658 19661 19664 19666 19669 19672 19675 19678 19681 19684 19687 19690 19693 19696 19699 19702 19705 19708 19711 19714 19717 19720 19723 19726 19729 19732 19735 19738 19740 19743 19746 19749 19751 19754 19757 19760 19763 19766 19769 19772 19775 19777 19780 19783 19785 19788 19791 19794 19797 19799 19802 19805 19808 19811 19814 19817 19820 19822 19825 19827 19830 19833 19835 19838 19841 19843 19845 19848 19851 19854 19857 19860 19863 19866 19869 19872 19875 19878 19881 19884 19887 19890 19893 19896 19899 19902 19905 19908 19910 19913 19916 19919 19922 19924 19927 19930 19933 19936 19939 19942 19945 19948 19951 19954 19957 19960 19963 19965 19968 19971 19973 19976 19979 19982 19985 19988 19991 19994 19997 20000 20003 20006 20009 20012 20015 20018 20021 20024 20027 20030 20033 20036 20039 20042 20045 20048 20051 20054 20057 20060 20063 20066 20069 20072 20075 20078 20081 20084 20087 20090 20093 20096 20099 20102 20105 20108 20111 20114 20117 20120 20123 20126 20129 20132 20135 20138 20141 20144 20147 20150 20153 20156 20159 20162 20165 20168 20171 20174 20177 20180 20183 20186 20189 20192 20195 20198 20201 20204 20207 20210 20213 20216 20219 20222 20225 20228 20231 20234 20237 20240 20243 20246 20249 20252 20255 20258 20261 20264 20267 20270 20273 20276 20279 20282 20285 20288 20291 20294 20297 20300 20303 20306 20309 20312 20315 20318 20321 20324 20327 20330 20333 20336 20339 20342 20345 20348 20351 20354 20357 20359 20362 20365 20368 20371 20374 20377 20380 20382 20385 20388 20391 20394 20397 20400 20403 20406 20409 20411 20414 20416 20419 20422 20425 20427 20430 20433 20435 20438 20441 20444 20447 20450 20453 20456 20459 20462 20465 20468 20471 20474 20477 20480 20483 20486 20489 20492 20495 20498 20501 20504 20507 20510 20513 20516 20519 20522 20525 20528 20531 20534 20537 20540 20543 20546 20548 20551 20554 20556 20558 20561 20564 20566 20569 20572 20574 20577 20580 20583 20585 20588 20591 20594 20597 20600 20603 20606 20609 20612 20614 20617 20620 20623 20626 20629 20632 20634 20637 20640 20643 20646 20649 20652 20655 20658 20661 20664 20667 20670 20673 20676 20679 20682 20685 20688 20691 20694 20697 20700 20703 20706 20709 20712 20715 20718 20721 20724 20727 20729 20732 20735 20738 20741 20744 20747 20750 20753 20756 20759 20762 20765 20768 20771 20774 20777 20780 20783 20786 20789 20792 20795 20798 20801 20804 20807 20810 20813 20816 20819 20822 20825 20828 20831 20834 20837 20840 20843 20846 20849 20852 20855 20858 20861 20864 20867 20869 20872 20874 20877 20880 20883 20886 20888 20891 20894 20897 20900 20902 20905 20908 20911 20914 20916 20919 20922 20925 20928 20931 20934 20937 20940 20942 20945 20948 20950 20953 20955 20958 20961 20964 20967 20969 20972 20975 20977 20979 20982 20985 20988 20991 20994 20997 20999 21002 21005 21008 21011 21014 21017 21020 21023 21026 21029 21031 21033 21036 21039 21042 21045 21048 21050 21053 21056 21058 21061 21064 21067 21070 21072 21075 21078 21080 21083 21086 21089 21092 21095 21098 21101 21104 21107 21110 21113 21116 21119 21122 21125 21128 21131 21134 21137 21140 21143 21146 21149 21152 21155 21158 21161 21164 21167 21169 21172 21174 21177 21180 21183 21186 21189 21192 21195 21198 21201 21204 21207 21210 21213 21215 21218 21221 21224 21227 21229 21231 21234 21237 21240 21243 21246 21249 21252 21255 21258 21261 21264 21267 21270 21273 21276 21279 21282 21285 21288 21291 21294 21297 21300 21303 21306 21309 21312 21315 21318 21321 21324 21327 21330 21333 21336 21339 21342 21345 21348 21351 21354 21357 21359 21362 21365 21368 21370 21373 21376 21379 21382 21385 21388 21391 21394 21397 21400 21403 21406 21409 21412 21415 21418 21421 21424 21427 21430 21432 21435 21438 21440 21443 21446 21449 21452 21455 21458 21461 21464 21467 21469 21472 21475 21478 21481 21484 21486 21489 21492 21495 21498 21501 21503 21506 21508 21511 21514 21517 21520 21523 21526 21529 21532 21535 21538 21541 21544 21547 21549 21552 21555 21558 21560 21562 21565 21568 21571 21574 21577 21580 21583 21586 21588 21591 21594 21596 21599 21602 21604 21606 21609 21612 21615 21618 21621 21623 21626 21629 21632 21635 21638 21641 21644 21646 21649 21652 21654 21656 21659 21662 21665 21668 21671 21674 21676 21678 21681 21684 21687 21689 21692 21695 21698 21701 21704 21707 21710 21712 21715 21718 21721 21724 21727 21730 21733 21736 21739 21742 21745 21748 21751 21754 21757 21760 21763 21766 21769 21772 21775 21778 21781 21784 21787 21790 21792 21795 21798 21801 21804 21807 21810 21813 21815 21818 21821 21824 21827 21830 21833 21836 21839 21842 21845 21848 21850 21853 21856 21859 21862 21865 21868 21871 21874 21876 21879 21882 21885 21888 21891 21894 21897 21900 21903 21906 21909 21912 21915 21918 21921 21924 21926 21929 21932 21935 21937 21940 21943 21946 21949 21952 21954 21957 21960 21963 21966 21969 21972 21975 21978 21981 21984 21987 21990 21993 21996 21998 22001 22004 22007 22010 22012 22015 22018 22020 22023 22026 22029 22032 22035 22037 22040 22043 22046 22049 22052 22055 22058 22061 22064 22067 22070 22073 22076 22079 22081 22084 22086 22089 22092 22095 22097 22100 22102 22105 22107 22110 22113 22116 22119 22122 22125 22127 22129 22132 22135 22138 22141 22144 22147 22149 22152 22154 22157 22160 22163 22166 22169 22172 22175 22178 22181 22184 22187 22190 22193 22196 22199 22202 22205 22207 22210 22213 22216 22218 22220 22223 22226 22229 22232 22235 22237 22240 22243 22245 22247 22250 22253 22256 22259 22262 22265 22268 22271 22274 22277 22280 22283 22286 22289 22292 22295 22298 22301 22304 22307 22310 22313 22316 22319 22322 22325 22328 22331 22334 22337 22340 22343 22346 22349 22352 22355 22358 22361 22364 22367 22370 22373 22376 22379 22381 22384 22387 22389 22391 22393 22396 22399 22402 22405 22408 22411 22413 22416 22419 22422 22425 22428 22431 22434 22437 22440 22442 22445 22448 22451 22453 22456 22459 22462 22465 22468 22471 22474 22477 22480 22483 22486 22489 22492 22495 22498 22501 22504 22507 22510 22513 22515 22518 22521 22524 22527 22529 22532 22535 22538 22541 22544 22547 22550 22553 22556 22559 22562 22565 22568 22571 22574 22577 22580 22583 22586 22589 22592 22595 22598 22601 22604 22607 22610 22613 22616 22619 22622 22625 22628 22631 22633 22636 22638 22641 22644 22647 22650 22653 22656 22659 22662 22664 22667 22670 22673 22675 22678 22680 22683 22686 22689 22692 22695 22698 22701 22704 22706 22709 22712 22715 22718 22720 22723 22726 22729 22732 22734 22737 22740 22743 22746 22749 22752 22755 22757 22760 22763 22766 22769 22771 22774 22777 22780 22783 22786 22789 22792 22795 22798 22801 22804 22807 22810 22813 22816 22819 22822 22825 22828 22831 22834 22837 22840 22843 22846 22849 22852 22855 22858 22861 22864 22867 22870 22873 22876 22879 22882 22885 22888 22891 22894 22897 22900 22903 22906 22909 22911 22914 22917 22920 22923 22925 22927 22930 22933 22935 22937 22940 22943 22946 22949 22952 22955 22958 22961 22964 22967 22970 22973 22976 22979 22982 22985 22988 22991 22994 22996 22999 23002 23005 23007 23009 23012 23015 23018 23021 23024 23027 23030 23033 23036 23039 23042 23045 23048 23051 23054 23057 23060 23063 23066 23069 23072 23075 23078 23081 23084 23087 23090 23092 23095 23098 23101 23104 23107 23110 23113 23115 23118 23121 23124 23127 23130 23133 23136 23139 23142 23145 23148 23151 23154 23157 23160 23162 23165 23168 23171 23174 23177 23180 23183 23186 23188 23191 23193 23195 23198 23201 23204 23207 23210 23213 23216 23219 23222 23225 23228 23231 23233 23236 23239 23242 23245 23248 23251 23254 23257 23260 23263 23266 23269 23272 23275 23278 23281 23284 23287 23289 23292 23295 23298 23300 23303 23306 23309 23312 23315 23318 23321 23324 23326 23329 23332 23335 23338 23341 23344 23347 23350 23353 23356 23359 23362 23365 23368 23371 23373 23376 23379 23382 23384 23387 23390 23393 23396 23399 23402 23405 23408 23411 23414 23417 23420 23423 23426 23429 23432 23435 23438 23441 23444 23447 23450 23453 23456 23459 23462 23465 23468 23471 23474 23477 23480 23483 23485 23488 23490 23493 23496 23499 23502 23505 23508 23511 23514 23516 23519 23522 23525 23528 23531 23534 23537 23540 23543 23545 23548 23551 23553 23556 23559 23562 23565 23568 23570 23573 23576 23579 23582 23584 23587 23590 23593 23596 23598 23601 23604 23607 23609 23612 23614 23617 23620 23622 23625 23628 23631 23634 23637 23640 23643 23646 23649 23652 23655 23658 23661 23664 23666 23669 23672 23674 23677 23679 23682 23685 23688 23690 23693 23696 23698 23701 23704 23707 23710 23712 23715 23717 23720 23723 23726 23729 23732 23735 23737 23740 23742 23745 23748 23751 23754 23757 23759 23762 23765 23768 23771 23773 23776 23779 23782 23785 23788 23791 23793 23796 23799 23802 23805 23808 23811 23814 23817 23820 23823 23826 23829 23832 23835 23838 23841 23844 23847 23850 23853 23856 23859 23862 23865 23868 23871 23874 23877 23880 23883 23886 23889 23892 23894 23896 23899 23902 23905 23908 23911 23914 23917 23920 23923 23926 23928 23931 23934 23936 23938 23941 23943 23946 23949 23952 23955 23958 23961 23964 23966 23969 23972 23975 23978 23981 23984 23987 23990 23993 23996 23999 24002 24004 24007 24010 24013 24016 24018 24021 24024 24027 24030 24033 24036 24039 24042 24045 24048 24051 24054 24056 24059 24062 24065 24068 24071 24074 24077 24080 24083 24086 24089 24092 24095 24098 24101 24104 24107 24109 24112 24115 24118 24121 24124 24126 24129 24132 24135 24137 24140 24143 24146 24149 24152 24155 24157 24160 24162 24165 24168 24171 24173 24176 24179 24182 24185 24188 24191 24194 24197 24200 24202 24205 24208 24210 24213 24216 24219 24222 24225 24228 24231 24233 24236 24239 24242 24245 24248 24251 24254 24257 24260 24263 24266 24269 24272 24274 24277 24280 24282 24285 24288 24291 24294 24297 24300 24302 24305 24308 24311 24314 24317 24320 24322 24325 24328 24331 24334 24337 24340 24343 24345 24348 24351 24354 24357 24360 24363 24366 24369 24372 24375 24378 24381 24384 24387 24390 24393 24396 24399 24402 24405 24408 24411 24413 24416 24419 24422 24425 24428 24431 24434 24437 24440 24443 24445 24448 24451 24454 24457 24459 24461 24464 24467 24470 24473 24475 24478 24481 24484 24487 24490 24493 24496 24499 24502 24504 24507 24510 24513 24516 24519 24522 24525 24528 24531 24534 24537 24539 24542 24545 24548 24550 24553 24556 24559 24561 24564 24567 24570 24573 24576 24579 24582 24585 24588 24591 24594 24597 24599 24602 24605 24608 24611 24614 24616 24619 24622 24624 24627 24630 24633 24636 24639 24642 24645 24648 24651 24654 24657 24660 24663 24666 24668 24671 24674 24677 24680 24683 24686 24689 24691 24694 24697 24700 24702 24705 24708 24711 24714 24717 24719 24722 24725 24728 24731 24734 24737 24740 24743 24746 24748 24751 24754 24757 24760 24763 24766 24769 24772 24774 24777 24780 24783 24786 24789 24791 24794 24797 24800 24803 24806 24809 24812 24814 24817 24820 24823 24826 24829 24832 24835 24838 24841 24844 24847 24850 24853 24856 24859 24862 24865 24868 24871 24874 24877 24880 24883 24886 24889 24892 24895 24898 24901 24904 24907 24910 24913 24916 24919 24922 24925 24928 24931 24934 24937 24940 24943 24946 24949 24952 24955 24958 24960 24963 24966 24969 24972 24975 24978 24981 24983 24986 24989 24992 24995 24998 25001 25004 25007 25010 25013 25016 25019 25022 25025 25028 25031 25034 25037 25040 25043 25046 25049 25051 25053 25056 25059 25061 25063 25066 25069 25072 25075 25078 25081 25084 25086 25089 25092 25095 25098 25101 25104 25107 25110 25113 25116 25119 25122 25125 25128 25130 25133 25136 25139 25142 25145 25148 25151 25154 25156 25159 25162 25164 25167 25170 25173 25175 25178 25181 25184 25187 25190 25193 25196 25199 25202 25205 25208 25211 25214 25217 25220 25223 25226 25229 25232 25235 25238 25241 25244 25247 25250 25253 25256 25259 25261 25264 25267 25270 25273 25276 25279 25282 25285 25287 25290 25293 25296 25299 25302 25305 25307 25309 25312 25315 25318 25321 25323 25326 25329 25331 25334 25337 25339 25342 25345 25348 25351 25354 25357 25359 25362 25365 25368 25371 25374 25377 25380 25383 25385 25388 25391 25394 25397 25400 25403 25406 25409 25412 25415 25418 25420 25423 25426 25428 25431 25434 25437 25440 25443 25446 25449 25451 25454 25457 25460 25462 25465 25467 25470 25472 25475 25478 25481 25484 25487 25490 25493 25496 25499 25502 25505 25508 25511 25514 25517 25520 25523 25525 25528 25530 25533 25536 25539 25542 25545 25548 25551 25554 25557 25560 25562 25565 25568 25571 25574 25577 25580 25583 25585 25588 25591 25594 25596 25599 25601 25603 25606 25609 25611 25614 25617 25620 25623 25625 25628 25631 25634 25636 25639 25642 25645 25647 25650 25652 25654 25657 25660 25663 25666 25669 25672 25674 25677 25680 25683 25686 25689 25692 25695 25698 25700 25702 25704 25707 25709 25712 25715 25717 25719 25722 25725 25727 25730 25733 25736 25739 25742 25745 25748 25751 25754 25757 25760 25762 25765 25768 25771 25774 25777 25780 25783 25786 25789 25792 25795 25798 25801 25803 25805 25808 25811 25814 25817 25819 25822 25825 25828 25830 25833 25836 25839 25842 25845 25847 25849 25852 25855 25858 25860 25863 25866 25869 25872 25875 25878 25881 25884 25887 25890 25893 25896 25899 25902 25905 25907 25910 25913 25916 25918 25921 25924 25927 25929 25932 25935 25938 25941 25944 25947 25949 25952 25955 25958 25961 25964 25966 25969 25972 25975 25978 25981 25984 25987 25990 25992 25995 25998 26001 26004 26007 26010 26013 26016 26019 26021 26024 26027 26030 26033 26035 26038 26040 26043 26046 26048 26051 26053 26056 26059 26062 26065 26068 26071 26073 26076 26078 26080 26083 26086 26089 26092 26095 26098 26101 26104 26106 26109 26111 26114 26116 26119 26121 26124 26127 26130 26133 26136 26139 26142 26145 26148 26151 26154 26156 26159 26162 26165 26167 26170 26173 26176 26179 26182 26185 26188 26191 26193 26196 26199 26202 26205 26208 26211 26214 26217 26220 26222 26225 26228 26231 26234 26236 26239 26242 26244 26247 26250 26253 26256 26259 26262 26265 26268 26271 26273 26276 26279 26282 26284 26287 26290 26293 26296 26299 26302 26305 26308 26311 26314 26317 26320 26323 26326 26329 26332 26335 26338 26341 26343 26346 26349 26352 26355 26358 26361 26364 26367 26370 26373 26375 26378 26381 26384 26387 26390 26393 26396 26399 26402 26405 26408 26411 26414 26417 26420 26423 26426 26429 26432 26435 26438 26441 26444 26447 26450 26453 26456 26459 26462 26465 26468 26471 26474 26477 26480 26483 26486 26489 26492 26495 26498 26501 26504 26507 26510 26512 26514 26517 26520 26523 26526 26529 26532 26535 26538 26541 26544 26547 26550 26553 26555 26557 26560 26563 26566 26568 26571 26574 26576 26579 26582 26585 26587 26590 26593 26596 26598 26601 26604 26607 26610 26613 26616 26619 26622 26624 26627 26630 26632 26635 26637 26639 26642 26645 26648 26651 26654 26657 26659 26662 26664 26666 26668 26671 26674 26676 26679 26682 26684 26686 26689 26692 26695 26698 26701 26704 26707 26710 26713 26716 26719 26722 26725 26728 26731 26734 26737 26740 26743 26746 26749 26751 26754 26757 26760 26763 26766 26769 26772 26775 26778 26780 26783 26786 26789 26792 26795 26798 26801 26803 26805 26808 26811 26814 26817 26820 26823 26826 26829 26832 26835 26838 26841 26844 26847 26850 26853 26856 26859 26862 26865 26868 26871 26874 26876 26879 26881 26884 26887 26890 26893 26896 26899 26902 26904 26907 26910 26913 26915 26917 26920 26923 26925 26928 26931 26934 26937 26939 26942 26945 26948 26950 26953 26956 26959 26961 26964 26967 26970 26973 26976 26979 26982 26985 26988 26990 26992 26995 26998 27001 27004 27007 27009 27012 27015 27017 27019 27021 27024 27027 27030 27033 27036 27038 27041 27044 27047 27050 27053 27056 27059 27062 27065 27067 27070 27072 27075 27078 27081 27084 27087 27090 27093 27096 27099 27102 27105 27108 27111 27114 27117 27120 27123 27126 27129 27132 27135 27138 27141 27144 27146 27149 27152 27155 27158 27160 27162 27165 27168 27171 27173 27176 27179 27182 27185 27188 27191 27194 27197 27200 27203 27206 27209 27212 27215 27218 27221 27223 27226 27229 27232 27234 27237 27240 27242 27245 27248 27251 27254 27257 27260 27263 27266 27269 27272 27275 27278 27281 27283 27286 27289 27291 27294 27297 27300 27302 27305 27307 27310 27312 27315 27317 27319 27321 27324 27327 27330 27333 27336 27339 27342 27345 27347 27350 27353 27356 27359 27362 27365 27368 27371 27373 27376 27379 27381 27384 27387 27390 27393 27396 27399 27402 27405 27408 27411 27414 27417 27420 27423 27426 27429 27432 27435 27438 27441 27444 27446 27449 27452 27455 27458 27461 27464 27467 27470 27473 27476 27478 27481 27483 27486 27489 27491 27494 27496 27499 27501 27504 27507 27509 27512 27514 27517 27520 27522 27525 27528 27531 27533 27536 27539 27542 27545 27548 27551 27554 27557 27560 27563 27566 27569 27572 27575 27578 27581 27584 27587 27590 27593 27596 27599 27602 27605 27608 27611 27614 27617 27620 27623 27626 27629 27632 27635 27638 27641 27644 27647 27650 27653 27656 27659 27662 27665 27668 27671 27674 27677 27680 27683 27686 27689 27692 27695 27698 27701 27704 27707 27710 27713 27716 27718 27721 27724 27726 27729 27732 27735 27738 27741 27744 27746 27748 27751 27754 27757 27760 27763 27766 27769 27772 27775 27778 27781 27784 27787 27790 27793 27796 27799 27802 27804 27807 27810 27813 27815 27818 27821 27824 27827 27830 27833 27836 27839 27842 27845 27848 27851 27854 27857 27860 27863 27865 27868 27871 27874 27877 27880 27883 27886 27888 27891 27894 27897 27900 27903 27906 27909 27912 27914 27917 27919 27922 27925 27928 27931 27934 27937 27940 27943 27946 27949 27952 27955 27958 27961 27964 27967 27969 27972 27975 27978 27981 27984 27987 27990 27992 27995 27998 28001 28004 28006 28009 28012 28015 28018 28021 28024 28027 28029 28032 28035 28037 28039 28042 28045 28047 28050 28053 28056 28059 28062 28065 28067 28070 28073 28076 28079 28082 28085 28088 28091 28094 28096 28099 28102 28104 28107 28110 28112 28115 28118 28120 28123 28126 28129 28132 28135 28137 28140 28143 28146 28149 28152 28155 28158 28161 28163 28166 28169 28172 28175 28178 28181 28184 28186 28189 28192 28195 28198 28201 28204 28207 28210 28213 28216 28219 28222 28224 28227 28230 28233 28236 28239 28242 28245 28247 28249 28252 28254 28257 28259 28262 28265 28268 28271 28274 28277 28280 28283 28286 28289 28292 28295 28298 28301 28304 28306 28309 28311 28314 28317 28320 28323 28326 28329 28332 28335 28337 28340 28342 28345 28347 28350 28352 28355 28357 28360 28363 28365 28368 28371 28374 28377 28380 28382 28385 28388 28391 28394 28397 28400 28403 28406 28408 28411 28414 28417 28420 28423 28425 28428 28431 28433 28436 28438 28440 28443 28446 28449 28452 28455 28458 28461 28464 28466 28469 28472 28475 28478 28481 28484 28487 28490 28493 28496 28499 28502 28505 28507 28510 28513 28516 28519 28522 28525 28528 28530 28533 28536 28539 28541 28544 28547 28550 28553 28556 28559 28562 28565 28568 28571 28574 28577 28580 28583 28586 28589 28592 28594 28597 28600 28603 28606 28609 28612 28615 28617 28620 28623 28625 28628 28631 28634 28637 28640 28643 28646 28649 28652 28655 28658 28661 28664 28667 28670 28672 28675 28678 28681 28684 28686 28689 28692 28695 28698 28701 28704 28707 28710 28713 28716 28719 28722 28725 28728 28731 28734 28737 28740 28743 28746 28749 28752 28755 28758 28761 28763 28766 28769 28772 28775 28778 28781 28783 28786 28789 28792 28795 28798 28801 28804 28807 28810 28812 28814 28817 28820 28823 28825 28828 28830 28833 28836 28839 28842 28845 28848 28851 28854 28857 28860 28863 28866 28869 28872 28875 28877 28880 28883 28886 28889 28892 28895 28898 28901 28904 28907 28910 28913 28915 28917 28920 28923 28926 28929 28932 28935 28938 28941 28943 28946 28949 28951 28954 28957 28959 28961 28964 28967 28970 28973 28976 28979 28982 28984 28987 28990 28993 28996 28999 29002 29005 29008 29011 29013 29016 29019 29022 29024 29027 29030 29033 29036 29039 29041 29044 29047 29050 29053 29056 29059 29062 29065 29068 29071 29074 29077 29079 29082 29085 29088 29090 29093 29096 29099 29101 29104 29107 29110 29113 29116 29119 29122 29125 29128 29131 29134 29137 29140 29143 29146 29149 29152 29155 29158 29161 29164 29167 29170 29173 29176 29179 29182 29185 29188 29191 29194 29197 29199 29202 29205 29208 29211 29214 29217 29220 29223 29226 29229 29232 29235 29238 29241 29244 29247 29250 29253 29256 29259 29262 29265 29268 29271 29273 29276 29278 29281 29284 29286 29289 29292 29295 29298 29301 29304 29307 29310 29313 29315 29318 29321 29324 29327 29330 29333 29336 29339 29342 29345 29348 29351 29354 29357 29359 29362 29365 29368 29371 29373 29376 29379 29382 29384 29387 29390 29393 29396 29399 29402 29405 29408 29411 29414 29417 29420 29423 29426 29429 29432 29435 29438 29441 29444 29447 29450 29453 29456 29459 29462 29465 29468 29471 29474 29477 29480 29483 29486 29489 29492 29495 29498 29501 29504 29507 29510 29513 29516 29519 29522 29525 29528 29531 29534 29537 29540 29543 29546 29549 29552 29555 29558 29561 29564 29567 29570 29573 29576 29579 29582 29585 29588 29591 29594 29597 29600 29603 29606 29609 29612 29615 29618 29621 29624 29627 29630 29633 29636 29639 29642 29645 29648 29651 29654 29657 29660 29663 29666 29669 29672 29675 29678 29681 29684 29687 29690 29693 29696 29699 29702 29705 29708 29711 29714 29717 29720 29723 29726 29729 29732 29735 29738 29741 29744 29747 29750 29753 29756 29759 29762 29765 29768 29771 29774 29777 29780 29783 29786 29789 29792 29795 29798 29801 29804 29807 29810 29813 29816 29819 29822 29825 29828 29831 29834 29837 29840 29843 29846 29849 29852 29855 29858 29861 29864 29867 29870 29873 29876 29879 29882 29885 29888 29891 29894 29897 29900 29903 29906 29909 29912 29915 29918 29921 29924 29927 29930 29933 29936 29939 29942 29945 29948 29951 29953 29956 29959 29962 29965 29968 29971 29974 29977 29980 29983 29986 29989 29992 29995 29998 30001 30003 30006 30009 30012 30015 30018 30021 30024 30027 30029 30032 30035 30038 30041 30043 30046 30049 30052 30055 30058 30061 30064 30067 30070 30073 30076 30079 30082 30085 30088 30091 30094 30097 30100 30103 30106 30109 30111 30114 30117 30120 30123 30126 30129 30132 30135 30138 30141 30144 30147 30150 30152 30154 30157 30160 30163 30166 30169 30171 30174 30176 30179 30182 30185 30188 30191 30194 30197 30200 30203 30206 30209 30211 30214 30217 30220 30223 30226 30229 30232 30234 30237 30240 30243 30246 30249 30252 30255 30258 30261 30264 30267 30270 30273 30276 30279 30281 30283 30286 30289 30292 30295 30298 30301 30304 30307 30310 30313 30316 30319 30321 30324 30327 30330 30333 30336 30339 30342 30345 30348 30351 30354 30357 30360 30363 30366 30369 30371 30374 30377 30380 30383 30386 30389 30392 30394 30397 30400 30403 30406 30409 30412 30415 30418 30421 30424 30426 30428 30431 30434 30437 30440 30443 30446 30449 30452 30455 30458 30461 30464 30467 30470 30473 30476 30479 30482 30485 30488 30491 30494 30497 30500 30503 30506 30509 30512 30515 30518 30520 30523 30526 30529 30532 30535 30537 30540 30543 30546 30549 30552 30555 30558 30561 30564 30567 30569 30572 30575 30578 30581 30583 30586 30589 30592 30595 30598 30601 30604 30607 30610 30613 30615 30618 30620 30623 30626 30629 30632 30635 30638 30641 30644 30647 30650 30653 30656 30659 30662 30665 30668 30671 30674 30677 30680 30683 30686 30689 30692 30695 30698 30701 30704 30707 30710 30713 30715 30718 30721 30724 30727 30730 30732 30735 30738 30741 30744 30747 30750 30753 30756 30759 30762 30765 30768 30771 30774 30777 30780 30783 30786 30788 30791 30794 30796 30799 30802 30805 30807 30810 30813 30816 30819 30822 30824 30827 30830 30833 30836 30839 30842 30845 30848 30851 30854 30856 30859 30862 30865 30868 30871 30874 30876 30879 30882 30885 30888 30891 30893 30895 30898 30901 30903 30906 30909 30911 30914 30917 30920 30923 30926 30929 30932 30935 30938 30941 30943 30946 30949 30951 30954 30957 30959 30962 30965 30967 30970 30973 30975 30978 30981 30983 30986 30989 30992 30995 30998 31001 31003 31006 31009 31012 31015 31018 31021 31024 31027 31030 31033 31036 31038 31041 31044 31047 31050 31053 31056 31059 31061 31064 31067 31070 31073 31075 31078 31081 31084 31086 31089 31092 31095 31098 31101 31104 31107 31110 31113 31116 31119 31121 31124 31127 31130 31133 31136 31139 31142 31145 31148 31151 31154 31157 31160 31163 31166 31169 31172 31175 31178 31181 31184 31187 31190 31193 31195 31198 31201 31204 31207 31210 31212 31215 31218 31221 31224 31227 31230 31233 31236 31239 31242 31245 31248 31251 31254 31256 31259 31262 31264 31267 31269 31272 31275 31278 31281 31283 31286 31288 31290 31293 31295 31298 31301 31304 31307 31310 31313 31316 31318 31321 31323 31326 31329 31332 31335 31338 31341 31343 31346 31349 31352 31355 31358 31361 31363 31366 31369 31372 31375 31377 31380 31383 31386 31389 31392 31394 31397 31400 31402 31405 31408 31411 31414 31416 31419 31422 31425 31428 31430 31433 31436 31439 31442 31445 31448 31450 31453 31456 31459 31462 31465 31468 31471 31474 31477 31479 31482 31485 31488 31491 31494 31497 31499 31502 31505 31508 31511 31513 31516 31519 31522 31525 31528 31531 31534 31537 31540 31543 31546 31549 31552 31555 31558 31561 31563 31566 31569 31572 31574 31577 31580 31582 31585 31588 31591 31594 31597 31600 31603 31606 31609 31612 31615 31618 31621 31624 31627 31630 31632 31635 31637 31640 31643 31646 31649 31652 31655 31658 31661 31664 31667 31670 31673 31676 31679 31682 31685 31688 31691 31694 31697 31700 31703 31706 31709 31712 31715 31717 31720 31723 31725 31728 31731 31734 31737 31740 31743 31746 31749 31752 31755 31757 31760 31763 31766 31769 31771 31774 31777 31780 31783 31785 31788 31791 31794 31797 31800 31803 31806 31809 31812 31814 31817 31820 31823 31826 31829 31832 31835 31838 31841 31844 31847 31850 31853 31856 31859 31862 31865 31868 31871 31874 31877 31880 31883 31886 31889 31892 31895 31898 
</DataArray>
<DataArray type="UInt32" Name="types" format="ascii">
5 5 5 5 5 3 5 5 5 5 5 5 5 3 5 5 5 5 3 5 5 3 5 5 5 5 3 5 5 5 5 3 5 5 5 5 5 5 5 5 5 5 5 5 5 3 5 5 3 5 5 5 5 5 3 5 5 5 5 5 5 5 3 5 5 5 5 3 5 5 5 5 5 5 5 5 5 3 5 5 3 5 5 3 5 5 5 5 3 5 5 5 5 5 5 5 3 3 3 5 5 3 5 5 5 5 5 3 5 5 5 5 5 5 5 5 5 5 5 5 5 3 5 5 5 3 5 5 5 5 5 5 3 5 5 5 5 5 5 5 5 5 5 5 5 5 5 5 5 5 5 5 5 5 5 5 5 5 3 5 5 5 3 5 5 3 5 5 5 5 5 5 5 5 5 5 5 3 5 5 5 5 5 5 5 5 3 5 5 5 5 5 5 5 5 3 5 5 5 5 5 5 5 5 5 3 5 5 5 5 5 5 5 5 5 5 5 5 5 5 5 5 5 5 5 5 5 5 5 3 5 5 5 3 5 3 5 3 5 5 3 5 5 5 3 5 3 5 3 5 3 3 5 3 5 5 3 5 3 5 5 5 3 5 3 3 5 5 3 5 5 5 3 5 3 3 3 5 3 5 5 5 3 5 3 3 3 5 5 3 3 5 5 5 5 3 5 3 5 5 3 5 5 5 3 5 3 3 3 5 5 5 3 5 3 3 3 3 5 5 5 3 3 5 5 3 3 3 5 3 5 5 5 5 3 5 5 5 5 5 5 5 3 5 5 5 5 5 5 3 3 5 5 5 3 5 5 5 3 5 3 5 3 3 5 5 5 5 3 5 5 3 5 5 5 5 3 5 3 5 5 5 5 5 3 3 5 5 5 5 5 5 5 5 3 5 5 5 3 5 5 3 5 3 5 5 5 5 5 5 5 5 5 5 5 3 5 3 5 3 5 5 5 3 5 3 5 3 5 5 5 5 5 5 3 5 3 5 5 5 3 5 5 5 3 5 3 3 5 5 5 5 3 5 5 5 5 3 3 5 5 3 5 3 5 3 3 5 5 5 3 5 5 5 5 3 5 5 5 5 5 5 5 5 5 5 5 3 5 5 5 5 3 5 5 5 3 5 3 3 3 5 5 5 3 3 5 3 5 5 3 5 5 5 5 3 5 5 5 5 5 5 5 5 5 5 5 3 3 5 5 3 5 5 5 3 5 5 5 5 5 5 3 5 5 5 3 5 5 5 3 5 5 5 5 5 5 5 5 5 5 5 3 5 5 5 3 5 5 5 5 5 5 5 3 5 5 5 5 5 3 5 5 5 5 5 5 5 5 5 5 5 5 5 5 5 5 5 5 5 3 5 5 5 5 3 5 5 3 5 5 5 5 5 5 5 3 5 5 5 5 5 5 5 5 3 5 3 5 5 3 5 5 5 3 5 5 3 5 5 5 3 5 3 5 5 3 5 3 5 5 5 5 5 5 5 5 5 5 5 5 5 5 5 5 5 5 5 5 5 5 3 5 3 5 3 5 5 5 5 5 5 5 5 5 5 5 5 5 5 5 3 5 5 5 5 5 5 5 5 5 3 5 5 5 5 5 5 5 5 5 5 5 5 5 5 5 5 5 5 5 5 5 5 5 5 5 5 5 5 5 3 5 5 3 5 5 5 3 3 5 3 5 5 5 5 5 3 5 5 5 5 5 3 5 5 5 5 5 5 5 5 5 5 5 5 5 5 5 5 5 5 5 5 5 5 5 5 5 5 5 5 5 5 5 5 5 5 5 5 5 5 5 5 5 5 5 5 5 5 5 5 5 3 5 5 5 5 5 5 5 5 5 5 5 5 5 5 5 3 5 5 5 5 3 5 5 5 5 5 5 5 5 5 5 5 5 5 5 5 5 5 5 5 5 5 5 5 5 5 5 5 3 5 5 3 5 3 3 3 3 5 5 3 5 5 5 5 5 5 5 5 5 5 5 5 5 5 5 5 5 3 5 5 3 5 3 5 5 5 5 3 5 3 5 5 5 5 3 5 5 5 3 5 5 5 5 5 3 5 3 5 5 3 3 5 3 5 5 5 5 5 5 5 5 5 5 5 3 5 5 5 3 5 5 5 3 5 5 3 3 3 5 5 5 5 5 5 5 5 5 5 5 3 5 5 5 5 5 5 5 5 3 3 3 5 5 5 5 5 5 5 5 3 3 5 5 5 3 5 5 3 5 5 5 5 5 5 5 5 5 5 5 3 5 5 5 5 5 5 5 5 3 5 5 5 5 5 5 5 5 5 5 3 5 3 3 3 5 5 5 5 5 5 5 3 3 5 3 5 5 5 5 5 3 5 3 3 5 5 5 3 5 3 5 5 5 5 3 5 5 5 5 5 5 5 5 5 5 5 5 5 5 5 5 5 3 5 5 5 3 5 5 5 5 5 3 5 5 5 5 5 5 3 5 3 5 5 5 5 5 5 5 5 3 5 5 5 3 5 5 5 5 5 5 5 5 5 5 5 5 5 5 5 5 5 5 5 5 5 5 5 5 5 3 3 3 5 5 5 5 3 5 5 5 5 3 5 5 5 5 5 5 5 3 5 5 5 5 5 5 5 5 3 5 5 5 5 5 5 5 5 5 5 5 5 3 5 5 5 5 5 5 3 5 5 5 5 5 5 5 5 3 5 5 5 3 5 5 5 5 5 5 5 5 5 5 5 5 3 5 5 5 5 5 5 5 5 5 5 5 5 5 5 5 5 5 5 5 5 5 5 5 5 5 5 5 5 5 5 5 5 5 5 5 5 5 5 5 5 5 5 5 5 5 5 5 3 5 5 5 5 5 5 5 5 5 5 5 5 5 5 5 5 5 5 5 5 5 5 5 5 3 5 5 5 5 5 5 5 5 5 5 3 5 5 3 5 5 5 5 5 5 5 5 5 3 5 3 5 5 5 5 3 5 5 3 5 3 5 5 5 5 5 3 5 5 5 5 5 5 5 5 3 5 5 5 5 5 5 5 5 5 5 5 5 5 5 3 5 3 3 5 5 5 5 5 3 5 5 5 5 5 5 5 5 5 5 5 5 5 5 5 3 5 5 5 5 5 5 5 5 5 5 5 5 5 5 5 5 3 5 5 5 5 5 3 3 5 5 3 5 5 5 5 5 5 5 5 5 5 3 5 5 5 5 5 5 5 5 5 3 5 3 5 5 5 5 5 3 5 5 5 5 3 5 5 5 3 5 5 5 3 5 5 3 5 5 5 5 5 5 5 5 5 5 5 5 5 5 5 5 3 5 5 5 5 5 5 5 3 5 5 5 5 5 5 5 5 5 5 5 5 5 5 5 5 5 5 5 5 5 5 5 5 5 5 5 3 5 5 5 5 3 5 5 5 3 5 5 5 5 5 5 5 5 5 3 5 3 5 5 5 5 5 5 5 5 5 5 5 5 5 5 5 5 5 5 3 3 5 5 5 3 5 5 3 5 5 3 5 5 5 3 5 5 3 5 5 5 5 5 5 5 5 5 5 5 5 5 5 5 5 5 5 5 5 3 5 3 5 5 5 5 5 5 5 5 5 5 5 3 5 3 5 5 5 3 5 5 5 5 5 3 5 5 5 5 5 5 3 5 5 5 5 5 5 5 5 5 5 5 3 5 5 5 5 5 5 5 5 3 5 5 5 3 5 5 3 5 5 5 5 5 3 5 5 5 5 5 5 5 5 5 3 5 5 3 5 3 5 3 3 3 5 3 5 5 5 5 5 5 3 5 5 5 5 5 5 3 5 5 5 5 5 5 5 3 5 5 5 5 3 5 5 5 5 5 3 5 3 5 5 5 5 5 5 5 5 5 5 3 5 5 5 5 5 5 5 3 5 5 5 5 5 5 5 3 5 3 5 5 5 5 5 5 5 5 3 5 5 5 3 3 5 5 5 5 5 3 3 5 3 5 5 3 5 5 3 5 5 5 5 5 5 5 5 3 5 5 5 5 5 3 5 5 5 5 3 5 5 3 5 5 5 5 5 5 5 5 5 5 5 5 5 5 5 5 5 5 5 5 5 5 5 5 5 5 5 5 5 5 5 5 5 5 5 5 5 5 5 5 5 3 5 5 3 5 5 5 5 5 3 5 5 5 5 3 5 5 5 5 5 5 5 5 5 5 5 5 5 5 5 5 5 5 5 5 5 5 5 5 3 5 5 5 3 5 5 5 5 5 5 3 5 5 5 5 5 5 5 5 5 5 5 3 5 3 3 5 5 3 5 5 5 5 5 5 5 5 5 5 5 3 5 5 3 5 5 5 5 5 5 5 5 5 5 5 5 5 5 5 3 5 5 5 5 5 5 5 3 5 3 5 5 5 5 3 5 3 5 5 5 5 5 5 5 5 5 3 5 5 5 5 5 5 5 5 5 5 5 5 5 5 5 5 5 3 5 5 5 5 5 5 5 5 5 5 5 5 5 5 5 5 5 5 5 5 5 5 5 5 5 3 3 5 5 5 5 5 5 5 5 5 5 5 3 5 5 5 5 3 5 5 5 5 3 5 5 5 5 5 5 5 5 3 5 5 5 5 5 5 5 5 5 3 5 5 5 5 5 5 5 5 5 5 5 5 5 5 5 5 5 5 5 5 3 5 5 5 5 5 5 5 5 5 5 5 5 5 5 3 5 3 5 5 5 5 5 5 5 5 3 5 5 3 5 5 5 5 5 5 5 5 5 5 5 5 5 5 5 5 5 5 5 5 5 5 5 5 5 5 5 5 5 5 5 5 5 5 5 5 3 5 5 3 5 5 5 5 3 5 3 5 5 3 5 3 5 5 5 5 5 3 5 5 5 5 5 5 5 5 5 5 5 5 3 5 5 5 3 5 5 5 5 5 5 5 5 5 3 5 5 5 5 3 3 5 5 5 5 5 5 5 5 3 5 5 5 5 5 3 5 5 5 3 5 5 5 3 5 5 5 5 3 5 5 5 5 5 5 5 5 5 5 5 5 5 5 3 5 5 5 5 5 5 3 5 3 3 5 3 5 3 5 5 5 5 3 5 5 5 5 3 5 5 5 5 5 5 5 5 5 3 5 5 5 5 5 5 5 5 5 5 5 5 5 5 3 5 5 5 3 5 5 5 3 5 3 5 5 5 5 5 5 5 5 5 5 5 5 5 5 5 5 3 5 5 5 5 5 5 3 5 5 5 5 5 5 5 5 5 5 5 5 5 5 5 5 5 5 3 5 5 5 5 5 5 5 5 5 5 5 5 5 5 5 5 5 5 5 5 5 5 5 5 5 5 5 5 5 5 5 5 5 5 3 5 5 5 5 3 5 5 5 5 5 5 5 3 5 5 5 5 5 5 5 5 5 3 5 5 3 5 5 5 5 5 3 5 5 5 3 5 5 3 5 5 5 5 5 5 5 5 5 5 5 5 5 5 5 5 5 5 5 5 3 5 5 5 5 5 5 5 5 5 5 3 3 5 3 5 5 5 5 5 3 5 5 5 5 3 5 5 5 5 5 3 5 3 5 5 3 5 5 5 5 5 5 5 5 3 5 5 5 5 5 5 3 5 5 5 5 5 5 3 5 5 5 5 3 5 5 3 5 3 5 5 3 5 5 5 5 5 5 3 5 5 5 5 3 5 5 5 5 5 5 5 5 3 3 5 5 5 5 5 5 5 5 3 5 5 5 5 5 5 3 5 5 5 5 5 5 5 3 5 5 5 3 5 5 5 5 5 5 5 5 5 5 5 5 3 5 5 5 5 3 5 5 3 5 5 5 5 3 5 5 5 3 3 5 5 5 3 5 5 5 3 5 5 5 5 5 5 5 5 5 3 5 5 5 3 5 5 5 5 5 5 5 5 5 5 5 5 3 5 3 5 5 3 5 5 3 5 5 5 5 5 5 5 3 5 5 5 5 5 3 5 3 5 5 5 3 3 5 3 3 5 3 5 5 5 5 5 5 3 5 3 5 5 5 5 5 5 5 5 5 5 5 5 5 3 5 5 3 5 3 5 5 3 5 5 5 3 3 5 5 3 5 5 5 5 5 5 5 5 5 5 5 5 5 5 5 5 5 5 5 5 5 5 5 3 3 5 3 5 3 5 5 3 3 5 5 3 5 5 3 5 5 3 5 3 5 5 5 5 3 5 5 5 5 3 5 3 3 5 3 5 5 3 3 5 5 5 3 5 5 5 5 3 3 5 5 5 5 5 3 5 5 5 5 5 5 5 5 5 5 5 3 5 3 5 3 5 5 3 5 3 5 5 5 5 5 5 5 5 3 5 5 3 5 5 5 5 3 5 5 5 5 5 5 5 5 5 5 5 5 3 5 5 5 5 5 5 5 5 5 5 5 3 5 5 5 5 5 5 3 5 3 5 5 3 5 5 5 5 5 5 5 5 5 5 5 5 5 5 5 5 5 3 3 5 5 5 3 5 5 3 5 5 5 5 5 5 5 5 5 5 5 5 5 5 5 5 5 5 5 5 5 5 5 5 5 3 3 5 5 5 5 5 5 5 5 5 5 5 3 5 5 5 5 5 5 5 5 5 5 5 5 5 5 5 5 5 5 5 5 5 5 5 5 5 5 5 5 5 5 5 5 5 3 5 5 5 5 5 3 5 5 3 5 5 3 3 5 5 5 5 5 5 5 5 5 5 5 5 5 3 5 5 3 5 5 5 5 5 5 3 5 5 3 5 5 5 5 5 5 5 5 5 5 5 5 5 3 5 5 5 5 5 5 5 3 5 5 5 5 5 5 5 5 5 5 5 5 3 5 5 3 5 5 5 5 5 5 5 5 5 5 5 5 5 5 5 5 5 5 5 5 3 5 5 3 5 3 5 5 5 3 5 5 3 5 3 5 5 5 3 5 5 5 5 3 5 5 5 5 5 5 5 3 5 5 5 3 5 5 5 5 5 5 5 5 5 5 5 5 3 5 5 5 5 5 5 5 5 3 5 5 5 5 5 5 5 5 5 5 5 3 5 5 5 5 5 5 5 5 5 5 5 5 5 5 5 5 5 5 5 3 3 5 5 5 3 5 5 5 5 5 5 5 5 5 5 5 5 3 5 5 5 5 5 5 5 5 5 3 5 5 5 5 5 5 5 5 5 5 5 5 5 5 5 5 3 5 3 5 5 5 5 5 3 5 5 5 5 3 5 5 5 3 5 5 5 3 5 5 5 5 5 5 5 5 5 3 5 5 5 3 5 5 3 5 5 5 5 5 5 3 5 5 5 5 5 5 5 5 3 5 5 5 3 5 5 5 5 5 5 5 5 5 5 5 5 5 5 5 5 5 5 5 5 5 5 5 5 5 5 5 3 5 5 5 5 5 5 5 3 5 5 5 5 5 5 5 5 5 5 5 5 5 5 5 5 5 5 5 5 5 5 5 5 5 3 5 3 5 5 5 5 5 5 3 5 5 5 3 5 5 3 5 5 5 5 5 5 5 5 5 5 5 5 3 5 5 5 5 5 3 5 5 5 5 5 5 5 5 5 5 5 5 5 3 5 5 5 3 5 5 5 5 5 5 5 5 5 5 5 5 3 3 5 5 5 5 3 5 5 5 5 5 5 5 5 5 3 3 5 5 5 5 5 3 5 5 5 5 5 3 5 5 5 5 5 3 5 3 5 5 5 5 3 5 3 5 3 3 5 5 5 5 5 5 5 3 3 5 5 5 5 5 5 3 3 3 5 3 3 5 5 5 3 5 5 5 5 5 3 3 3 5 3 5 5 5 3 5 3 3 5 5 5 5 5 5 5 3 3 5 5 3 3 3 5 5 5 5 5 5 5 5 5 5 5 5 5 5 5 5 5 5 5 5 5 5 5 5 5 5 5 5 5 5 5 5 5 5 5 5 5 5 5 5 3 5 5 5 5 5 5 5 5 5 5 3 5 5 5 5 5 5 3 5 5 3 5 5 5 5 5 5 5 5 5 5 5 5 5 3 5 3 5 5 5 5 3 5 5 5 3 5 5 3 5 5 5 3 5 5 3 5 5 5 5 5 3 5 5 5 5 5 5 5 3 5 5 5 5 5 5 5 3 5 5 3 5 5 5 5 3 5 3 5 5 5 5 5 3 5 5 5 5 3 5 5 5 5 5 5 3 3 5 5 5 5 5 3 5 5 3 5 5 5 5 5 5 5 5 5 5 3 5 5 5 5 5 5 5 5 5 5 5 5 5 5 5 5 5 5 3 5 5 5 5 5 5 3 5 5 5 5 5 5 5 3 3 5 5 5 5 3 5 5 5 5 5 5 5 3 5 5 3 5 3 3 3 5 5 5 5 5 5 3 5 5 5 5 5 3 5 5 5 5 3 5 5 5 3 5 5 5 3 5 5 5 5 5 5 5 5 5 5 5 5 5 5 5 5 5 5 5 5 5 5 5 5 5 3 5 5 5 5 5 5 5 3 5 3 5 5 5 5 5 5 3 5 5 3 5 5 5 3 5 5 3 5 5 5 5 5 3 5 5 5 3 3 5 5 5 5 5 5 5 5 5 5 5 5 3 5 5 5 5 5 5 5 5 5 3 5 5 5 5 5 3 3 5 5 5 5 5 5 5 5 5 3 5 5 5 5 5 5 5 5 3 5 5 5 5 5 5 5 5 5 5 5 5 5 5 5 5 5 5 3 5 5 5 5 3 5 3 5 3 5 5 5 5 5 5 5 5 5 5 5 5 5 5 5 5 5 3 5 5 5 5 5 3 5 5 5 3 3 5 5 5 5 5 3 5 5 5 5 3 5 5 5 5 5 5 5 5 3 5 5 5 5 5 5 5 3 5 5 5 5 5 5 5 5 5 3 5 5 5 5 5 5 5 5 5 5 5 5 5 5 5 5 5 5 3 5 5 5 5 5 5 5 5 5 5 5 5 5 3 5 5 5 5 5 5 3 5 5 3 5 5 3 5 5 5 5 5 5 5 5 5 5 5 5 5 5 5 5 5 5 5 5 5 5 5 5 5 5 3 5 3 5 3 3 5 5 5 3 5 5 5 5 5 5 5 5 5 3 3 5 3 5 5 5 5 5 5 5 5 5 5 5 5 5 5 3 5 3 3 5 3 5 5 5 5 5 5 5 5 5 3 3 5 5 5 5 5 5 5 5 5 5 5 5 5 5 5 5 5 5 5 5 5 5 3 5 5 5 5 5 3 5 5 5 5 5 3 5 5 5 3 5 5 5 5 5 5 5 5 5 3 5 5 5 5 3 5 5 5 5 5 5 3 5 5 5 5 5 5 5 3 5 5 5 5 3 5 5 5 5 5 5 5 5 5 5 3 5 5 5 5 3 5 5 5 3 5 5 5 5 5 3 5 5 5 5 5 5 5 5 5 5 5 5 5 5 3 3 5 5 3 5 5 5 5 5 5 5 3 5 5 5 5 5 5 3 5 5 5 5 5 5 5 5 5 5 5 5 5 5 5 5 5 5 5 5 5 5 5 3 5 5 5 5 5 5 5 5 3 5 5 5 5 3 5 5 5 5 5 3 5 3 5 3 5 5 5 5 5 5 5 3 5 5 5 3 5 5 5 5 5 3 5 5 5 5 5 3 5 3 5 5 3 5 3 5 5 5 5 5 3 5 5 5 3 5 5 5 5 5 5 5 5 5 5 3 5 5 5 5 5 5 5 5 5 5 5 5 5 5 5 5 5 5 5 5 5 5 3 5 5 5 5 5 5 5 5 5 5 5 5 5 5 5 5 5 5 3 5 5 5 3 5 5 5 5 5 5 3 5 5 5 3 3 5 3 5 3 3 5 3 5 5 3 5 5 3 3 5 5 5 5 5 5 5 5 3 5 3 5 5 5 5 5 5 5 5 5 5 5 5 5 5 5 5 5 5 5 5 5 5 3 5 5 5 5 5 5 5 5 3 5 5 3 5 5 3 3 5 5 3 5 5 5 5 5 5 5 5 5 5 5 5 5 5 5 5 5 5 5 5 5 5 5 5 5 5 5 5 5 5 5 5 5 5 5 5 5 5 5 3 5 3 5 5 5 5 5 5 5 5 5 5 5 5 5 5 5 5 5 5 5 5 5 5 5 5 5 5 5 5 5 5 5 5 5 5 5 5 5 5 5 5 3 5 5 3 5 5 5 5 5 3 5 3 5 5 3 5 5 5 5 5 5 3 5 5 5 5 5 5 5 5 5 5 5 3 5 5 3 3 5 3 5 5 3 5 5 5 5 3 5 5 5 5 5 5 5 5 5 3 5 3 5 5 5 5 5 5 5 3 5 3 5 5 5 5 5 5 5 5 5 3 5 3 5 5 5 5 5 5 5 5 5 5 3 5 5 5 3 5 5 3 5 5 3 5 5 5 5 3 5 5 5 3 5 5 5 5 5 5 5 5 5 5 5 5 5 5 3 5 5 5 5 5 5 3 5 3 5 3 5 5 5 3 5 5 5 5 5 5 5 5 3 5 5 5 5 5 3 5 5 3 5 5 5 5 5 5 5 5 5 3 5 5 5 3 5 5 5 5 5 5 3 5 5 5 5 5 5 5 5 5 5 5 5 5 5 5 5 5 5 5 5 5 5 5 5 5 5 5 5 5 5 5 3 5 5 5 5 5 3 5 5 3 3 5 5 5 5 3 5 5 5 5 5 3 5 5 5 5 5 5 5 5 5 5 5 5 5 5 5 5 3 5 5 5 5 5 5 5 5 3 3 5 5 5 5 5 5 3 5 5 5 5 3 5 5 5 5 5 5 5 5 5 5 5 5 5 5 5 5 5 5 5 5 5 5 5 5 3 5 5 3 5 5 5 5 5 5 5 5 5 5 5 5 5 5 5 5 5 5 5 5 5 5 5 5 5 5 5 3 5 3 5 5 5 5 5 3 5 5 5 5 5 5 5 5 5 5 5 5 5 5 5 5 5 5 5 5 3 3 5 3 5 5 5 5 5 5 5 5 5 5 5 5 5 5 5 5 3 5 5 5 3 5 5 5 5 5 5 5 5 5 5 5 5 5 3 5 5 5 5 5 5 5 5 5 5 5 5 5 5 5 5 5 5 5 5 5 5 3 5 5 5 5 5 5 5 5 5 5 5 5 5 3 5 3 5 5 3 3 5 5 5 5 5 5 5 5 5 5 5 5 5 5 5 5 5 5 5 5 3 5 5 3 5 5 5 3 5 5 5 5 5 5 3 5 5 5 3 5 5 5 5 5 5 5 5 3 5 5 3 5 5 3 5 3 5 5 5 5 3 3 5 5 3 3 5 5 3 5 5 5 5 3 5 5 3 3 5 3 5 5 5 5 5 5 5 5 5 5 5 5 5 5 5 5 5 5 5 5 3 5 5 5 5 3 5 5 5 5 3 3 5 5 5 5 5 5 5 5 5 5 5 5 3 5 5 5 3 5 5 5 5 5 5 5 3 5 5 5 3 5 5 3 3 5 5 5 3 5 5 5 3 5 5 5 5 5 5 5 5 5 5 5 5 5 5 5 5 5 5 3 5 5 5 5 5 5 5 5 5 5 5 5 5 5 5 5 5 5 3 3 5 5 5 5 5 3 3 5 3 5 5 5 5 5 5 5 5 5 3 5 5 5 3 5 5 5 5 5 5 5 5 5 5 5 5 5 5 3 5 5 5 5 5 5 5 3 5 5 3 5 5 5 5 5 5 3 5 5 5 5 3 5 5 5 5 5 5 3 5 5 5 5 5 5 5 5 3 3 5 5 5 3 3 5 5 5 5 5 3 5 5 5 5 5 5 3 5 5 5 5 3 5 5 5 5 5 3 5 5 5 5 3 5 5 5 5 5 5 5 5 5 5 5 5 5 5 5 5 5 5 5 5 5 5 5 5 5 3 5 5 5 5 3 5 3 5 3 5 5 3 5 5 3 5 5 3 5 5 5 5 5 5 3 5 5 3 5 3 3 3 5 5 3 5 3 3 5 5 5 3 5 3 5 5 5 5 5 5 3 5 5 5 3 5 5 5 5 5 5 5 3 5 5 5 3 5 3 3 5 5 5 5 5 5 5 3 5 5 5 5 5 5 5 5 3 3 5 5 5 5 3 5 5 3 5 5 5 3 5 5 5 3 3 5 5 5 5 3 5 5 5 5 5 3 3 5 5 5 5 5 5 5 5 5 5 5 5 5 5 5 5 5 5 5 5 5 5 5 5 5 5 5 5 5 5 5 3 5 5 5 3 5 5 5 5 5 5 5 5 5 5 5 5 5 5 5 3 5 3 3 5 5 3 5 5 5 5 5 5 5 5 5 5 5 5 5 5 5 5 5 5 5 5 5 5 5 3 5 5 3 3 5 5 5 5 5 5 5 3 5 5 5 3 5 5 5 5 3 3 5 5 5 5 5 5 5 3 5 5 5 5 3 5 5 5 5 3 5 5 5 5 5 5 5 5 5 5 5 5 5 5 5 5 5 5 5 3 5 5 5 5 5 5 5 5 5 5 5 5 5 5 5 5 3 5 5 5 3 5 5 5 5 5 5 5 5 5 3 5 5 5 5 5 5 5 5 5 5 5 5 5 5 5 5 5 5 5 5 5 3 5 5 5 5 5 5 5 5 5 5 5 5 5 5 5 5 5 3 5 5 5 5 5 3 5 5 5 5 5 5 5 5 5 5 5 5 5 5 5 5 5 5 5 5 5 5 5 5 5 5 5 3 5 5 3 5 5 5 3 5 5 5 5 5 5 5 5 5 5 5 5 5 5 5 3 5 3 5 5 5 5 5 5 5 5 5 3 5 5 5 5 5 5 5 5 5 3 3 5 5 5 5 5 5 5 5 5 5 5 5 5 5 5 5 5 5 5 5 5 5 5 5 5 5 5 5 5 5 5 5 5 5 5 5 5 5 5 5 5 5 5 5 5 5 5 5 5 5 5 5 5 5 5 5 5 5 5 5 5 5 5 5 5 5 5 5 5 5 5 3 5 5 5 5 5 5 3 5 5 5 5 5 5 5 5 5 3 5 3 5 5 5 5 5 5 5 5 5 5 5 5 5 5 5 5 5 5 5 5 5 5 5 5 5 5 5 5 5 5 5 5 5 5 3 5 5 5 3 3 5 5 5 5 5 5 5 5 5 5 5 5 5 5 5 5 5 5 5 5 5 5 3 3 5 5 5 5 5 5 5 5 3 5 5 5 5 5 5 3 5 5 5 5 5 3 5 5 5 5 3 5 5 5 3 5 5 5 3 5 5 3 5 5 5 5 5 5 5 5 5 5 5 5 5 3 5 5 5 5 5 5 5 5 3 5 5 5 5 5 5 5 5 5 5 5 3 5 5 5 3 5 5 5 5 3 5 5 5 5 5 5 5 5 3 5 3 5 5 3 5 5 5 5 5 3 5 5 5 5 5 5 5 5 5 5 5 5 3 5 5 5 5 5 5 5 5 5 3 5 5 5 5 5 5 3 5 5 5 5 5 5 5 3 5 5 5 5 5 3 5 5 5 5 5 5 5 5 5 5 5 5 5 5 5 5 5 5 5 5 5 5 5 5 5 5 5 5 5 5 5 5 5 5 5 5 5 5 5 5 5 5 5 5 5 5 5 3 5 3 5 5 5 5 5 5 5 5 5 5 5 5 5 5 3 5 5 5 5 5 5 5 5 5 5 5 5 5 5 5 3 5 5 3 5 3 5 5 5 5 5 3 5 5 5 5 5 5 5 5 5 5 5 5 5 5 5 5 5 5 5 5 3 5 5 5 5 5 5 5 5 5 5 5 3 5 3 5 5 3 5 3 5 5 5 5 5 5 5 3 5 3 5 5 5 5 3 5 5 5 5 3 3 5 5 3 5 5 5 5 5 5 5 5 5 5 5 5 5 5 5 5 3 5 5 5 5 5 5 5 5 5 5 5 5 5 5 3 5 3 5 5 5 5 5 5 5 3 5 3 5 5 5 5 5 5 5 5 5 3 3 5 5 5 3 5 5 5 5 3 5 3 5 5 3 5 3 3 3 5 5 3 5 5 5 3 3 3 5 5 5 5 5 5 5 5 5 5 5 3 5 5 5 5 5 5 3 5 5 5 3 5 5 5 5 5 5 5 5 3 5 5 5 3 5 5 5 5 5 5 5 5 5 5 5 5 5 5 5 5 5 5 5 5 5 5 5 5 5 5 5 5 5 5 5 5 5 5 5 5 5 5 5 5 5 5 5 5 5 5 5 5 5 5 5 5 5 5 5 5 5 5 5 5 3 5 5 5 5 5 3 5 5 5 5 3 5 5 5 3 5 5 5 5 5 5 5 5 5 5 5 5 5 5 5 5 5 5 5 5 5 5 5 5 5 5 5 5 5 5 5 5 5 5 5 5 5 5 5 5 3 5 5 3 5 5 5 5 5 5 5 3 5 5 5 5 5 5 5 5 5 5 5 3 5 5 3 5 3 5 5 5 3 5 5 5 5 5 5 5 5 3 5 5 5 5 3 5 5 5 5 3 5 3 5 5 5 5 5 5 5 5 5 5 5 5 3 5 3 5 5 5 5 5 5 5 5 5 5 5 5 5 3 5 5 5 5 5 5 5 5 5 3 5 5 5 3 5 5 5 5 5 5 5 5 5 5 5 5 5 5 5 5 5 5 5 5 5 5 5 5 5 5 5 5 5 5 5 5 5 5 5 3 5 5 3 5 5 5 5 3 5 5 5 5 5 5 5 5 5 5 5 5 5 5 5 3 5 5 5 5 5 5 5 5 5 3 5 3 5 5 5 5 5 5 5 3 5 5 5 5 5 5 5 5 5 5 5 5 5 5 3 5 5 5 5 5 5 5 5 5 5 5 3 5 5 5 5 5 5 5 5 5 5 5 5 5 5 5 5 5 5 5 5 5 5 5 3 5 3 5 5 5 5 5 5 3 5 3 5 5 5 3 5 5 5 3 5 5 5 3 5 5 3 5 5 5 5 5 5 5 3 5 5 5 5 5 5 5 3 5 5 5 5 5 5 5 5 5 5 5 5 5 3 5 5 5 5 5 5 5 5 3 5 5 5 5 5 5 5 5 5 5 5 5 5 5 5 5 5 5 5 5 3 5 5 5 5 5 5 5 5 5 5 5 5 5 5 5 5 5 5 5 5 5 5 5 5 5 5 5 5 5 5 5 5 5 5 5 5 5 5 5 5 5 5 5 5 5 5 5 5 5 5 3 5 3 5 5 5 3 5 5 3 3 5 3 5 5 5 5 5 5 5 5 5 5 5 5 5 5 5 5 5 5 5 5 5 5 5 5 5 5 5 5 5 5 5 5 5 5 5 3 5 5 5 5 3 5 5 3 5 5 5 3 5 5 5 5 3 5 3 3 5 5 5 5 3 5 5 5 3 5 5 5 3 5 5 5 5 5 5 3 5 5 5 5 5 5 5 5 5 5 5 5 5 5 5 5 5 5 5 5 3 5 5 5 5 5 5 5 5 5 5 5 5 5 5 5 5 5 5 3 5 5 3 5 5 3 5 5 5 5 5 5 5 5 5 5 5 3 5 5 5 5 3 5 5 5 5 3 5 5 5 3 5 5 5 5 5 5 5 5 5 5 5 5 5 5 5 5 5 5 5 5 5 5 5 5 5 3 5 5 5 5 5 5 5 5 3 5 5 5 3 5 5 5 5 5 5 5 5 5 5 5 5 5 5 5 5 5 5 5 5 5 5 5 5 3 5 5 5 3 5 5 5 5 5 5 5 5 3 5 5 3 5 5 5 5 3 5 5 5 5 5 5 5 3 5 3 5 5 3 5 5 3 3 5 5 5 5 5 5 5 5 5 5 5 5 5 5 5 5 5 5 5 5 5 3 5 5 5 5 3 5 5 5 5 5 5 5 5 5 5 5 5 5 3 5 5 3 5 5 5 5 5 5 5 5 5 5 5 5 5 5 5 5 5 5 5 5 5 5 5 5 5 5 5 5 5 5 5 5 5 5 5 5 5 5 5 5 5 5 5 5 5 5 5 5 5 5 5 5 5 5 5 5 5 5 5 5 5 5 5 5 5 5 5 5 5 5 5 5 5 5 5 5 5 5 5 5 5 5 5 5 5 5 5 5 5 5 5 5 5 5 5 5 5 5 5 5 5 5 5 5 5 5 5 5 5 5 5 5 5 5 5 5 5 5 5 5 5 5 5 5 5 5 5 5 3 5 5 5 5 5 5 5 3 5 5 5 5 5 5 5 5 5 3 5 3 5 5 5 3 5 5 3 5 5 5 5 5 5 5 5 5 5 5 5 5 5 5 5 5 5 5 5 5 5 5 5 5 5 5 5 5 5 5 5 5 5 5 5 5 3 5 5 3 3 5 5 3 5 5 3 5 5 5 3 5 5 5 5 5 5 5 5 5 3 5 5 5 5 5 5 3 5 5 5 5 5 5 5 5 5 5 5 5 5 5 5 5 5 5 5 5 5 5 5 5 5 5 5 5 5 5 5 3 5 5 5 5 5 5 5 5 5 5 5 5 5 5 5 5 5 5 5 5 5 5 5 5 5 5 5 5 5 5 5 5 5 5 5 5 5 5 5 5 5 5 5 5 5 5 3 5 3 5 5 5 5 3 5 5 5 5 3 5 5 5 5 3 5 5 5 5 5 5 5 5 3 5 5 3 5 3 5 5 5 5 3 5 5 3 3 5 5 5 5 5 5 3 5 5 5 5 5 5 5 5 5 5 3 3 5 5 5 5 5 3 5 5 3 5 5 5 5 3 5 5 3 5 5 5 5 5 5 5 5 5 5 5 5 5 5 5 5 5 5 5 5 5 5 5 5 5 5 5 5 5 3 5 3 5 5 5 5 5 5 5 5 5 5 5 5 5 3 5 5 5 5 3 3 5 5 5 5 5 5 5 5 5 5 5 5 5 5 5 5 5 5 5 5 5 5 5 5 5 5 5 5 5 5 5 5 5 5 5 5 5 5 5 5 5 5 3 5 5 5 3 5 5 5 5 5 5 5 5 5 5 5 5 5 5 5 5 5 5 5 5 3 5 5 3 5 5 5 5 5 5 5 5 5 3 5 5 5 5 5 3 5 5 5 5 5 3 5 3 5 5 5 5 5 5 5 5 5 5 5 5 5 3 5 5 5 3 3 5 5 5 5 5 5 5 5 3 5 5 3 5 5 3 3 5 5 5 5 5 3 5 5 5 5 5 5 5 3 5 5 3 3 5 5 5 5 5 5 3 3 5 5 5 3 5 5 5 5 5 5 5 3 5 5 5 5 5 5 5 5 5 5 5 5 5 5 5 5 5 5 5 5 5 5 5 5 5 5 3 5 5 5 5 5 5 5 3 5 5 5 5 5 5 5 5 5 5 5 3 5 5 5 5 5 5 5 5 3 5 5 5 5 5 5 5 5 5 5 5 5 5 5 5 5 3 5 5 5 3 5 5 5 5 5 3 5 5 5 5 5 5 5 5 5 5 5 5 5 5 3 5 5 5 5 3 5 5 3 5 5 5 5 5 3 5 5 5 5 5 5 5 5 5 5 5 5 5 5 3 5 3 5 5 5 3 5 3 5 3 5 5 5 5 5 5 3 3 5 5 5 5 5 5 3 5 3 5 5 5 5 5 5 5 5 5 5 5 5 5 5 5 5 5 3 5 5 5 3 3 5 5 5 5 5 3 5 5 3 3 5 5 5 5 5 5 5 5 5 5 5 5 5 5 5 5 5 5 5 5 5 5 5 5 5 5 5 5 5 5 5 5 5 5 5 5 5 5 5 5 5 5 5 5 3 5 5 3 3 3 5 5 5 5 5 5 3 5 5 5 5 5 5 5 5 5 3 5 5 5 3 5 5 5 5 5 5 5 5 5 5 5 5 5 5 5 5 5 5 5 5 3 5 5 5 5 3 5 5 5 5 5 5 5 5 5 5 5 5 5 5 5 5 5 5 5 5 5 5 5 5 5 5 5 5 5 5 5 5 5 5 3 5 3 5 5 5 5 5 5 5 5 3 5 5 5 3 5 3 5 5 5 5 5 5 5 5 3 5 5 5 5 3 5 5 5 5 3 5 5 5 5 5 5 5 3 5 5 5 5 3 5 5 5 5 5 5 5 5 5 5 5 5 5 5 5 5 5 5 5 5 5 5 5 5 5 5 5 5 5 5 5 5 5 5 5 5 5 5 5 5 5 5 5 5 5 5 3 5 5 5 5 3 3 5 5 3 3 5 5 5 5 5 5 5 5 5 5 5 5 5 5 5 5 5 5 5 3 5 5 5 3 3 5 5 5 5 5 5 5 5 5 5 5 5 5 5 5 5 5 5 5 5 5 5 5 5 5 5 5 3 5 5 5 5 5 5 5 3 5 5 5 5 5 5 5 5 5 5 5 5 5 5 5 3 5 5 5 5 5 5 5 5 3 5 3 3 5 5 5 5 5 5 5 5 5 5 5 5 3 5 5 5 5 5 5 5 5 5 5 5 5 5 5 5 5 5 5 3 5 5 5 3 5 5 5 5 5 5 5 5 3 5 5 5 5 5 5 5 5 5 5 5 5 5 5 5 3 5 5 5 3 5 5 5 5 5 5 5 5 5 5 5 5 5 5 5 5 5 5 5 5 5 5 5 5 5 5 5 5 5 5 5 5 5 3 5 3 5 5 5 5 5 5 5 5 3 5 5 5 5 5 5 5 5 5 3 5 5 3 5 5 5 5 5 3 5 5 5 5 3 5 5 5 5 3 5 5 5 3 5 3 5 5 3 5 5 5 5 5 5 5 5 5 5 5 5 5 5 3 5 5 3 5 3 5 5 5 3 5 5 3 5 5 5 5 3 5 3 5 5 5 5 5 5 3 5 3 5 5 5 5 5 3 5 5 5 5 3 5 5 5 5 5 5 3 5 5 5 5 5 5 5 5 5 5 5 5 5 5 5 5 5 5 5 5 5 5 5 5 5 5 5 5 5 5 5 5 5 3 3 5 5 5 5 5 5 5 5 5 5 3 5 5 3 3 5 3 5 5 5 5 5 5 5 3 5 5 5 5 5 5 5 5 5 5 5 5 3 5 5 5 5 3 5 5 5 5 5 5 5 5 5 5 5 5 3 5 5 5 5 5 5 5 5 5 5 5 5 5 5 5 5 5 3 5 5 5 5 5 3 5 5 5 3 5 5 5 5 5 5 3 5 3 5 5 5 3 5 5 5 5 5 5 5 5 5 3 5 5 3 5 5 5 5 5 5 5 3 5 5 5 5 5 5 5 5 5 5 5 5 5 3 5 5 3 5 5 5 5 5 5 3 5 5 5 5 5 5 3 5 5 5 5 5 5 5 3 5 5 5 5 5 5 5 5 5 5 5 5 5 5 5 5 5 5 5 5 5 5 3 5 5 5 5 5 5 5 5 5 5 3 5 5 5 5 3 3 5 5 5 5 3 5 5 5 5 5 5 5 5 5 3 5 5 5 5 5 5 5 5 5 5 5 3 5 5 5 3 5 5 5 3 5 5 5 5 5 5 5 5 5 5 5 5 3 5 5 5 5 5 3 5 5 3 5 5 5 5 5 5 5 5 5 5 5 5 5 5 3 5 5 5 5 5 5 5 3 5 5 5 3 5 5 5 5 5 3 5 5 5 5 5 5 5 5 5 3 5 5 5 5 5 5 5 5 3 5 5 5 5 5 3 5 5 5 5 5 5 5 3 5 5 5 5 5 5 5 5 5 5 5 5 5 5 5 5 5 5 5 5 5 5 5 5 5 5 5 5 5 5 5 5 5 5 5 5 5 5 5 5 5 5 5 5 5 5 5 5 3 5 5 5 5 5 5 5 3 5 5 5 5 5 5 5 5 5 5 5 5 5 5 5 5 5 5 5 5 5 5 3 3 5 5 3 3 5 5 5 5 5 5 5 3 5 5 5 5 5 5 5 5 5 5 5 5 5 5 3 5 5 5 5 5 5 5 5 3 5 5 3 5 5 5 3 5 5 5 5 5 5 5 5 5 5 5 5 5 5 5 5 5 5 5 5 5 5 5 5 5 5 5 5 3 5 5 5 5 5 5 5 5 3 5 5 5 5 5 5 3 3 5 5 5 5 3 5 5 3 5 5 3 5 5 5 5 5 5 3 5 5 5 5 5 5 5 5 3 5 5 5 5 5 5 5 5 5 5 5 3 5 5 3 5 5 5 5 5 5 5 3 5 5 5 3 5 3 5 3 5 5 5 5 5 5 5 5 5 5 5 5 5 5 5 5 5 3 5 3 5 5 5 5 5 5 5 5 5 5 3 5 5 5 5 5 5 5 3 5 5 5 3 5 3 3 5 5 3 5 5 5 5 3 5 5 5 3 5 5 5 3 5 3 3 5 5 5 5 5 5 3 5 5 5 5 5 5 5 5 3 3 3 5 3 5 5 3 3 5 5 3 5 5 5 5 5 5 5 5 5 5 5 3 5 5 5 5 5 5 5 5 5 5 5 5 5 3 3 5 5 5 5 3 5 5 5 3 5 5 5 5 5 3 3 5 5 5 3 5 5 5 5 5 5 5 5 5 5 5 5 5 5 5 3 5 5 5 3 5 5 5 3 5 5 5 5 5 5 3 5 5 5 5 5 3 5 5 5 5 5 5 5 5 3 5 5 5 5 5 5 5 5 5 3 5 5 5 5 3 5 3 5 5 3 5 3 5 5 5 5 5 5 3 5 3 3 5 5 5 5 5 5 5 5 3 5 3 5 3 5 3 5 5 5 5 5 5 5 5 5 5 5 3 5 5 5 3 5 5 5 5 5 5 5 5 3 5 5 5 5 5 5 5 5 5 3 5 5 5 5 3 5 5 3 5 5 5 5 5 5 5 5 5 3 5 5 5 3 5 5 5 5 5 5 5 5 5 5 5 5 5 5 5 5 5 5 5 3 5 5 5 5 5 5 5 5 5 5 3 5 5 5 5 5 5 5 5 5 5 5 5 5 5 5 5 5 5 5 5 5 5 5 5 5 5 5 5 5 5 5 5 5 5 5 5 5 5 5 5 5 5 5 5 5 3 3 5 5 5 5 5 5 5 5 5 5 5 5 5 3 3 5 5 5 3 5 5 3 5 5 5 3 5 5 5 3 5 5 5 5 5 5 5 5 3 5 5 3 5 3 3 5 5 5 5 5 5 3 5 3 3 3 5 5 3 5 5 3 3 5 5 5 5 5 5 5 5 5 5 5 5 5 5 5 5 5 5 5 5 5 3 5 5 5 5 5 5 5 5 5 3 5 5 5 5 5 5 5 3 3 5 5 5 5 5 5 5 5 5 5 5 5 5 5 5 5 5 5 5 5 5 5 5 3 5 3 5 5 5 5 5 5 5 3 5 5 5 3 3 5 5 3 5 5 5 5 3 5 5 5 3 5 5 5 3 5 5 5 5 5 5 5 5 5 3 3 5 5 5 5 5 3 5 5 3 3 3 5 5 5 5 5 3 5 5 5 5 5 5 5 5 5 3 5 3 5 5 5 5 5 5 5 5 5 5 5 5 5 5 5 5 5 5 5 5 5 5 5 5 3 5 5 5 5 3 3 5 5 5 3 5 5 5 5 5 5 5 5 5 5 5 5 5 5 5 5 3 5 5 5 3 5 5 3 5 5 5 5 5 5 5 5 5 5 5 5 5 3 5 5 3 5 5 5 3 5 3 5 3 5 3 3 3 5 5 5 5 5 5 5 5 3 5 5 5 5 5 5 5 5 3 5 5 3 5 5 5 5 5 5 5 5 5 5 5 5 5 5 5 5 5 5 5 5 5 3 5 5 5 5 5 5 5 5 5 5 3 5 3 5 5 3 5 3 5 3 5 5 3 5 3 5 5 3 5 5 5 3 5 5 5 5 5 5 5 5 5 5 5 5 5 5 5 5 5 5 5 5 5 5 5 5 5 5 5 5 5 5 5 5 5 5 5 5 5 5 5 5 5 5 5 5 5 5 5 5 5 5 5 5 5 5 5 5 5 5 5 5 5 3 5 5 3 5 5 5 5 5 5 3 3 5 5 5 5 5 5 5 5 5 5 5 5 5 5 5 5 5 5 3 5 5 5 3 5 5 5 5 5 5 5 5 5 5 5 5 5 5 5 5 3 5 5 5 5 5 5 5 3 5 5 5 5 5 5 5 5 3 5 3 5 5 5 5 5 5 5 5 5 5 5 5 5 5 5 5 3 5 5 5 5 5 5 5 3 5 5 5 5 3 5 5 5 5 5 5 5 3 5 5 3 3 5 5 3 5 5 5 5 5 5 3 5 5 5 5 5 5 5 5 5 3 5 5 3 5 5 3 5 5 3 5 5 5 5 5 3 5 5 5 5 5 5 5 5 3 5 5 5 5 5 5 5 3 5 5 5 5 5 5 5 5 5 5 5 5 3 5 5 5 5 5 5 5 3 3 5 3 5 3 5 5 5 5 5 5 5 5 5 5 5 5 5 5 5 3 5 3 5 5 5 5 5 5 5 5 3 5 3 5 3 5 3 5 3 5 5 3 5 5 5 5 5 3 5 5 5 5 5 5 5 5 3 5 5 5 5 5 3 5 5 3 5 3 3 5 5 5 5 5 5 5 5 3 5 5 5 5 5 5 5 5 5 5 5 5 5 3 5 5 5 5 5 5 5 3 5 5 5 3 5 5 5 5 5 5 5 5 5 5 5 5 5 5 5 5 5 3 5 5 5 5 5 5 5 3 5 5 3 5 5 5 5 5 5 5 5 5 5 5 5 5 5 5 3 5 5 5 5 3 5 5 5 5 5 5 5 5 5 5 5 5 5 5 5 5 5 5 5 5 5 5 5 5 5 3 5 5 5 5 5 5 3 5 5 5 5 5 5 5 5 5 3 3 5 5 5 3 5 3 5 5 5 5 5 5 5 5 5 5 5 5 5 5 5 3 5 5 5 5 5 5 5 5 5 5 5 5 3 3 5 5 5 5 5 5 5 5 3 5 5 3 5 5 3 3 5 5 5 5 5 5 5 3 5 5 5 5 5 5 5 5 5 3 5 5 5 3 5 5 5 5 5 3 5 5 5 5 5 5 5 5 5 5 5 5 3 5 5 5 3 5 5 5 3 5 5 5 5 5 5 5 5 5 5 5 5 5 5 5 5 5 5 5 5 5 5 5 5 5 5 5 5 5 5 5 5 3 5 5 5 5 5 5 5 5 5 5 5 5 5 5 5 5 5 5 5 5 5 5 5 5 3 5 3 5 5 3 5 5 5 5 5 5 5 5 5 3 5 5 5 5 5 5 5 5 5 5 5 5 5 5 3 5 5 5 5 3 5 5 5 3 5 5 5 5 5 5 5 5 5 5 5 5 5 5 5 5 5 5 5 5 5 5 5 5 5 5 5 5 5 5 5 5 5 5 5 5 5 5 5 5 5 5 5 5 5 5 5 5 5 5 5 5 5 5 5 5 5 5 5 5 5 5 5 5 5 5 5 5 5 5 5 5 5 5 5 5 5 5 5 5 5 5 5 5 5 5 5 5 5 5 5 5 5 5 5 5 5 5 5 5 5 5 5 5 5 5 5 5 5 5 5 5 5 5 5 5 5 5 5 5 5 5 5 5 5 5 5 5 5 5 5 5 5 5 5 5 5 5 5 5 5 5 5 5 5 5 5 5 5 5 5 5 5 5 5 5 5 5 5 5 5 5 5 5 5 5 5 5 5 5 5 5 5 5 5 5 5 5 5 5 5 5 5 5 5 5 5 5 5 3 5 5 5 5 5 5 5 5 5 5 5 5 5 5 5 5 3 5 5 5 5 5 5 5 5 3 5 5 5 5 3 5 5 5 5 5 5 5 5 5 5 5 5 5 5 5 5 5 5 5 5 5 5 3 5 5 5 5 5 5 5 5 5 5 5 5 5 3 3 5 5 5 5 5 3 5 3 5 5 5 5 5 5 5 5 5 5 5 3 5 5 5 5 5 5 5 3 5 5 5 5 5 5 5 5 5 5 5 5 5 5 5 3 3 5 5 5 5 5 5 5 5 5 5 5 5 3 5 5 5 5 5 5 5 5 5 5 5 5 5 5 5 5 3 5 5 5 5 5 5 5 3 5 5 5 5 5 5 5 5 5 5 3 3 5 5 5 5 5 5 5 5 5 5 5 5 5 5 5 5 5 5 5 5 5 5 5 5 5 5 5 5 5 5 3 5 5 5 5 5 3 5 5 5 5 5 5 5 5 5 5 3 5 5 5 5 3 5 5 5 5 5 5 5 5 5 5 3 5 3 5 5 5 5 5 5 5 5 5 5 5 5 5 5 5 5 5 5 5 5 5 5 5 5 5 5 5 5 5 5 5 3 5 5 5 5 5 3 5 5 5 5 5 5 5 5 5 5 5 5 5 5 5 5 5 5 3 5 5 3 5 5 5 3 5 5 5 5 5 3 5 5 5 5 5 5 5 5 5 5 3 5 5 5 5 5 5 3 5 5 5 5 5 3 3 5 5 3 5 5 3 5 5 5 5 5 5 5 5 5 5 3 5 5 3 5 5 3 5 5 3 5 5 3 5 5 3 5 5 5 5 5 5 3 5 5 5 5 5 5 5 5 5 5 5 3 5 5 5 5 5 5 5 3 5 5 5 5 3 5 5 5 3 5 5 5 5 5 5 5 5 5 5 5 3 5 5 5 5 5 5 5 5 5 5 5 5 5 5 5 5 5 5 5 5 5 5 5 5 3 5 5 5 5 5 3 5 5 5 5 5 5 5 5 5 5 5 5 5 5 3 5 5 3 5 3 5 5 5 5 3 5 3 3 5 3 5 5 5 5 5 5 5 3 5 3 5 5 5 5 5 5 3 5 5 5 5 5 5 3 5 5 5 5 3 5 5 5 5 5 3 5 5 3 5 5 5 5 3 5 5 5 5 3 5 5 5 5 5 5 3 5 5 5 5 5 5 5 5 5 3 5 5 5 5 5 5 3 5 5 5 5 3 5 5 5 5 5 5 5 5 5 5 5 5 5 5 5 5 3 5 5 5 3 5 5 3 5 5 5 5 5 5 5 5 5 5 5 5 5 5 5 5 3 5 3 5 5 5 5 5 5 5 5 5 5 5 5 5 5 5 5 5 5 5 5 5 5 5 5 5 5 3 5 5 3 5 5 5 5 5 5 5 5 5 5 3 5 5 5 5 3 5 5 5 5 3 5 5 5 5 5 5 5 5 5 3 5 5 5 5 5 5 5 5 5 5 5 5 5 5 5 5 5 5 5 5 5 5 5 5 5 5 5 5 
</DataArray>
</Cells>
<PointData Scalars="" Vectors="displacement," Tensors="">
<DataArray type="Float64" Name="displacement" NumberOfComponents="3" format="ascii">
4.1297174201006475e-06 0.084992228259216152 0 0.000414358122333387 0.07946898395987459 0 -8.7394737716055809e-06 0.071644890651329729 0 4.1297174201006475e-06 0.084992228259216152 0 0.00038198263938422791 0.083060103723344381 0 0.000414358122333387 0.07946898395987459 0 4.1297174201006475e-06 0.084992228259216152 0 0.00038198263938422791 0.083060103723344381 0 -1.3797547215913675e-08 0.084997927650043076 0 0.00038198263938422791 0.083060103723344381 0 -1.3797547215913675e-08 0.084997927650043076 0 0.00021244358965060898 0.083063965583352106 0 -1.3797547215913675e-08 0.084997927650043076 0 0.00021244358965060898 0.083063965583352106 0 0.00016678291963932127 0.084430465371653551 0 0.00073187986754522777 0.077865309407166683 0 -1.5545430530402142e-05 0.075656867015487975 0 0.00021244358965060898 0.083063965583352106 0 -0.00094275674904131367 0.082997900766034402 0 -0.0010173053212192426 0.083464656765138007 0 0.00021244358965060898 0.083063965583352106 0 -0.0010173053212192426 0.083464656765138007 0 -0.00049738678293699437 0.083994909560255598 0 0.00038198263938422791 0.083060103723344381 0 0.00021244358965060898 0.083063965583352106 0 0.000414358122333387 0.07946898395987459 0 0.00021244358965060898 0.083063965583352106 0 0.000414358122333387 0.07946898395987459 0 -0.0015138031135538794 0.081064516345228335 0 0.000414358122333387 0.07946898395987459 0 -0.0032172944705212711 0.076803828362425483 0 -0.0015138031135538794 0.081064516345228335 0 0.000414358122333387 0.07946898395987459 0 -8.7394737716055809e-06 0.071644890651329729 0 -0.0032172944705212711 0.076803828362425483 0 -4.8092617451096572e-06 0.071617730093516449 0 -0.00073162952619188653 0.066042995696451515 0 2.0295620866240946e-06 0.06696068629065767 0 -2.944198287411915e-06 0.071622315861373131 0 -0.0012388204475916327 0.0703563555558884 0 2.0295620866240946e-06 0.06696068629065767 0 0.00019293971243622285 0.064330175391948935 0 0.00040711831682994952 0.062612182790428905 0 2.0295620866240946e-06 0.06696068629065767 0 6.1920765497377826e-07 0.062295707187947996 0 0.00040711831682994952 0.062612182790428905 0 -0.00073162952619188653 0.066042995696451515 0 2.0295620866240946e-06 0.06696068629065767 0 0.00019293971243622285 0.064330175391948935 0 -0.00073162952619188653 0.066042995696451515 0 0.00019293971243622285 0.064330175391948935 0 -0.00032075311230418029 0.06370310501866891 0 -0.0012388204475916327 0.0703563555558884 0 -0.0018025945262150132 0.067801812303566161 0 0.00019293971243622285 0.064330175391948935 0 0.00050109410562850355 0.063151108251179422 0 -0.00032075311230418029 0.06370310501866891 0 0.00019293971243622285 0.064330175391948935 0 0.00050109410562850355 0.063151108251179422 0 0.00040711831682994952 0.062612182790428905 0 -0.0012665707235036767 0.061575106622457826 0 -0.0018025945262150132 0.067801812303566161 0 -0.0017819794463147737 0.049537283850201237 0 -0.0011050224188459963 0.050225840382844007 0 -0.0002224629285979173 0.049887690068678374 0 -0.0017819794463147737 0.049537283850201237 0 -0.0011050224188459963 0.050225840382844007 0 -0.0018317768371134528 0.050343552680208153 0 -0.0011050224188459963 0.050225840382844007 0 -0.0002224629285979173 0.049887690068678374 0 -0.00090389835289064009 0.051118562758818209 0 -0.0013400687436662011 0.08317733977440829 0 -0.001180368675754409 0.083383633640719476 0 -0.0012724074584278882 0.083289257934324595 0 -0.0018025945262150132 0.067801812303566161 0 -0.0014904389332214877 0.067117580681203728 0 -0.001180368675754409 0.083383633640719476 0 -0.0012724074584278882 0.083289257934324595 0 -0.0012980883100040042 0.083371502608300674 0 -0.00090389835289064009 0.051118562758818209 0 -0.0018317768371134528 0.050343552680208153 0 -0.0020514098144410026 0.05115032461227062 0 -0.0011050224188459963 0.050225840382844007 0 -0.00090389835289064009 0.051118562758818209 0 -0.0018317768371134528 0.050343552680208153 0 -0.0013400687436662011 0.08317733977440829 0 -0.00094275674904131367 0.082997900766034402 0 -0.0012724074584278882 0.083289257934324595 0 -0.0018025945262150132 0.067801812303566161 0 -1.5545430530402142e-05 0.075656867015487975 0 -0.0032172944705212711 0.076803828362425483 0 -0.0049656139501398121 0.079652571067023864 0 -0.0015138031135538794 0.081064516345228335 0 -0.0012724074584278882 0.083289257934324595 0 -0.0010173053212192426 0.083464656765138007 0 -0.001283568027393377 0.083429249812198777 0 -0.0012724074584278882 0.083289257934324595 0 -0.001283568027393377 0.083429249812198777 0 -0.0012980883100040042 0.083371502608300674 0 -0.00094275674904131367 0.082997900766034402 0 -0.0012724074584278882 0.083289257934324595 0 -0.0010173053212192426 0.083464656765138007 0 -0.0010173053212192426 0.083464656765138007 0 -0.00097273693729721064 0.08382639129368176 0 -0.00049738678293699437 0.083994909560255598 0 -0.00097273693729721064 0.08382639129368176 0 -0.00087671378176581169 0.084235863354709409 0 -0.00049738678293699437 0.083994909560255598 0 -0.00097273693729721064 0.08382639129368176 0 -0.0011554128627579967 0.08377587303447423 0 -0.0011311466422711974 0.083996613677942686 0 -0.00097273693729721064 0.08382639129368176 0 -0.0011988145400879332 0.083585770253363584 0 -0.0011554128627579967 0.08377587303447423 0 -0.0010173053212192426 0.083464656765138007 0 -0.00097273693729721064 0.08382639129368176 0 -0.0011988145400879332 0.083585770253363584 0 -0.0010173053212192426 0.083464656765138007 0 -0.001283568027393377 0.083429249812198777 0 -0.0011988145400879332 0.083585770253363584 0 -0.001283568027393377 0.083429249812198777 0 -0.0011988145400879332 0.083585770253363584 0 -0.0014213814966583136 0.083482138137329465 0 -0.001283568027393377 0.083429249812198777 0 -0.0014213814966583136 0.083482138137329465 0 -0.0012980883100040042 0.083371502608300674 0 -0.0014213814966583136 0.083482138137329465 0 -0.0012980883100040042 0.083371502608300674 0 -0.001318491527308487 0.083204373975641288 0 -0.0029029746831079704 0.081752608277376987 0 -0.0029297038544740255 0.08153859843478925 0 -0.0014213814966583136 0.083482138137329465 0 -0.001323318781277315 0.083700604339510681 0 -0.0015920664299042008 0.084134025605961019 0 -0.0014213814966583136 0.083482138137329465 0 -0.0015539593426397544 0.08307415532766875 0 -0.001318491527308487 0.083204373975641288 0 -0.0029320383868470241 0.081648409344734676 0 -0.0029297038544740255 0.08153859843478925 0 -0.001323318781277315 0.083700604339510681 0 -0.0011311466422711974 0.083996613677942686 0 -0.0014725966908078539 0.084019353068003927 0 -0.0011988145400879332 0.083585770253363584 0 -0.0011554128627579967 0.08377587303447423 0 -0.001323318781277315 0.083700604339510681 0 -0.0011988145400879332 0.083585770253363584 0 -0.0014213814966583136 0.083482138137329465 0 -0.001323318781277315 0.083700604339510681 0 -0.0011554128627579967 0.08377587303447423 0 -0.001323318781277315 0.083700604339510681 0 -0.0011311466422711974 0.083996613677942686 0 -0.0011311466422711974 0.083996613677942686 0 -0.0014725966908078539 0.084019353068003927 0 -0.0011779432213872177 0.084375719918725806 0 -0.0029297038544740255 0.08153859843478925 0 -0.0024125744032015149 0.081068066253078372 0 -0.0014725966908078539 0.084019353068003927 0 -0.0011779432213872177 0.084375719918725806 0 -0.0015274824458510513 0.084756979701647389 0 -0.0011779432213872177 0.084375719918725806 0 -0.00087671378176581169 0.084235863354709409 0 -0.00091136103080582227 0.084812440984792153 0 -0.00087671378176581169 0.084235863354709409 0 -0.00091136103080582227 0.084812440984792153 0 -0.00048457467620527709 0.084412451745923878 0 -0.0011311466422711974 0.083996613677942686 0 -0.0011779432213872177 0.084375719918725806 0 -0.00087671378176581169 0.084235863354709409 0 -0.00097273693729721064 0.08382639129368176 0 -0.0011311466422711974 0.083996613677942686 0 -0.00087671378176581169 0.084235863354709409 0 -0.001180368675754409 0.083383633640719476 0 -0.00065836709013881696 0.083061444857476241 0 -0.0011131221783216615 0.083166025792847861 0 -0.00090389835289064009 0.051118562758818209 0 -0.0015601708582236307 0.052394155986215947 0 -0.0020514098144410026 0.05115032461227062 0 -0.0014904389332214877 0.067117580681203728 0 -0.0015845151467150868 0.066753856231621167 0 -0.00065836709013881696 0.083061444857476241 0 -0.0011131221783216615 0.083166025792847861 0 -0.00091737615869284534 0.08286210193859242 0 -0.001180368675754409 0.083383633640719476 0 -0.0011131221783216615 0.083166025792847861 0 -0.0012980883100040042 0.083371502608300674 0 -0.0011131221783216615 0.083166025792847861 0 -0.0012980883100040042 0.083371502608300674 0 -0.001318491527308487 0.083204373975641288 0 -0.0015539593426397544 0.08307415532766875 0 -0.0012180639179054868 0.082785759947148957 0 -0.0013233506440085694 0.082181556073555137 0 -0.0029297038544740255 0.08153859843478925 0 -0.0030378697972966886 0.079024423124004192 0 -0.0011131221783216615 0.083166025792847861 0 -0.001318491527308487 0.083204373975641288 0 -0.0012180639179054868 0.082785759947148957 0 -0.0015539593426397544 0.08307415532766875 0 -0.001318491527308487 0.083204373975641288 0 -0.0012180639179054868 0.082785759947148957 0 -0.0011131221783216615 0.083166025792847861 0 -0.0012180639179054868 0.082785759947148957 0 -0.00091737615869284534 0.08286210193859242 0 -0.0012180639179054868 0.082785759947148957 0 -0.00091737615869284534 0.08286210193859242 0 -0.00066811276645983495 0.082411234279660739 0 -0.00065836709013881696 0.083061444857476241 0 -0.00066811276645983495 0.082411234279660739 0 -0.0002045181570764296 0.082373056686177934 0 -0.00065836709013881696 0.083061444857476241 0 -0.00091737615869284534 0.08286210193859242 0 -0.00066811276645983495 0.082411234279660739 0 -0.00066811276645983495 0.082411234279660739 0 -0.00080370244659119837 0.081890733687520867 0 -0.0013233506440085694 0.082181556073555137 0 -0.00066811276645983495 0.082411234279660739 0 -0.00080370244659119837 0.081890733687520867 0 -0.00034631425692013324 0.081800963474152721 0 -0.0012180639179054868 0.082785759947148957 0 -0.00066811276645983495 0.082411234279660739 0 -0.0013233506440085694 0.082181556073555137 0 -0.0030378697972966886 0.079024423124004192 0 -0.0026858921342316957 0.073886428731653672 0 -0.0028869614544640996 0.078854587121541475 0 -0.0034481297299729097 0.076814605540000191 0 -0.0017421337990069102 0.076834052021222302 0 -0.0028869614544640996 0.078854587121541475 0 -0.0034481297299729097 0.076814605540000191 0 -0.0037416602200318243 0.078843994603601766 0 -0.0016049808885400133 0.078948903395933426 0 -0.0026858921342316957 0.073886428731653672 0 -0.00086352778295620985 0.081146353949664921 0 -0.00034631425692013324 0.081800963474152721 0 -9.6647882474983711e-05 0.081117783570301916 0 -0.00080370244659119837 0.081890733687520867 0 -0.00086352778295620985 0.081146353949664921 0 -0.00034631425692013324 0.081800963474152721 0 -0.0026858921342316957 0.073886428731653672 0 -0.0017677819207857497 0.069349208341723798 0 -0.00080370244659119837 0.081890733687520867 0 -0.0013233506440085694 0.082181556073555137 0 -0.00086352778295620985 0.081146353949664921 0 -0.0040331704888787482 0.080877095093904131 0 -0.0028869614544640996 0.078854587121541475 0 -0.0037416602200318243 0.078843994603601766 0 -0.0011779432213872177 0.084375719918725806 0 -0.00091136103080582227 0.084812440984792153 0 -0.0015274824458510513 0.084756979701647389 0 -0.0016108327614739681 0.085402073579177812 0 -0.00091136103080582227 0.084812440984792153 0 -0.0015274824458510513 0.084756979701647389 0 -0.0016049808885400133 0.078948903395933426 0 -0.0024125744032015149 0.081068066253078372 0 -0.0016108327614739681 0.085402073579177812 0 -0.00091136103080582227 0.084812440984792153 0 -0.00072523117051079115 0.085412172156236546 0 -0.00091136103080582227 0.084812440984792153 0 -0.00041359983910653562 0.084901158490003292 0 -0.00072523117051079115 0.085412172156236546 0 -0.00041359983910653562 0.084901158490003292 0 0.00010818307187777954 0.085415384522672541 0 -0.00072523117051079115 0.085412172156236546 0 -0.00091136103080582227 0.084812440984792153 0 -0.00041359983910653562 0.084901158490003292 0 -0.00048457467620527709 0.084412451745923878 0 -0.00041359983910653562 0.084901158490003292 0 -0.00011717731248698245 0.08461054335518628 0 -0.00048457467620527709 0.084412451745923878 0 -0.00011142350310786198 0.084680895180245963 0 5.3585759384362022e-05 0.084882146846146186 0 5.6350463070130798e-05 0.084606908138138079 0 -1.1546763798687183e-05 0.084987093305575551 0 -9.2734558948300242e-06 0.084994111423121466 0 -1.8853805400965445e-06 0.084994204002757631 0 -0.00015612455280945777 0.08474539860983106 0 -1.2649137618146019e-05 0.084910559627063925 0 -0.00015612455280945777 0.08474539860983106 0 -0.00015627460892926931 0.084744265610583097 0 -0.00015612455280945777 0.08474539860983106 0 -0.0001662503535495141 0.084647203142271005 0 -0.00041359983910653562 0.084901158490003292 0 -0.00011717731248698245 0.08461054335518628 0 -4.1891798788622564e-06 0.085008469746465726 0 -0.00041359983910653562 0.084901158490003292 0 -4.1891798788622564e-06 0.085008469746465726 0 0.00010818307187777954 0.085415384522672541 0 -0.0001662503535495141 0.084647203142271005 0 -0.00027520997469755899 0.084230384071023248 0 -9.2734558948300242e-06 0.084994111423121466 0 -4.5583854324601252e-06 0.084996271511467381 0 -7.2442359630817329e-06 0.084999372827814279 0 -4.5583854324601252e-06 0.084996271511467381 0 -1.8853805400965445e-06 0.084994204002757631 0 -1.3958694949913313e-06 0.084999181385021536 0 -1.8853805400965445e-06 0.084994204002757631 0 -6.7398709658767666e-07 0.084999432536996031 0 -1.3958694949913313e-06 0.084999181385021536 0 -4.5583854324601252e-06 0.084996271511467381 0 -1.3958694949913313e-06 0.084999181385021536 0 -7.2442359630817329e-06 0.084999372827814279 0 -9.2734558948300242e-06 0.084994111423121466 0 -4.5583854324601252e-06 0.084996271511467381 0 -1.8853805400965445e-06 0.084994204002757631 0 6.2821747419480084e-08 0.084999864600345684 0 -1.2649137618146019e-05 0.084910559627063925 0 3.7159070674128101e-09 0.084999995031300971 0 -1.8853805400965445e-06 0.084994204002757631 0 -6.7398709658767666e-07 0.084999432536996031 0 -1.3743188263001943e-07 0.084999958893135927 0 5.3585759384362022e-05 0.084882146846146186 0 3.4235819713058598e-07 0.084999710193989053 0 5.3585759384362022e-05 0.084882146846146186 0 5.6350463070130798e-05 0.084606908138138079 0 3.4235819713058598e-07 0.084999710193989053 0 5.6350463070130798e-05 0.084606908138138079 0 3.4235819713058598e-07 0.084999710193989053 0 0.00016678291963932127 0.084430465371653551 0 -1.3797547215913675e-08 0.084997927650043076 0 3.4235819713058598e-07 0.084999710193989053 0 0.00016678291963932127 0.084430465371653551 0 5.6350463070130798e-05 0.084606908138138079 0 0.00016678291963932127 0.084430465371653551 0 -8.957225589205492e-07 0.084160847514243728 0 0.00021244358965060898 0.083063965583352106 0 0.00016678291963932127 0.084430465371653551 0 -8.957225589205492e-07 0.084160847514243728 0 0.00021244358965060898 0.083063965583352106 0 -8.957225589205492e-07 0.084160847514243728 0 -0.00049738678293699437 0.083994909560255598 0 -8.957225589205492e-07 0.084160847514243728 0 -0.00049738678293699437 0.083994909560255598 0 -0.00018890897540846144 0.084368112875379042 0 -0.00049738678293699437 0.083994909560255598 0 -0.00048457467620527709 0.084412451745923878 0 -0.00018890897540846144 0.084368112875379042 0 -0.00087671378176581169 0.084235863354709409 0 -0.00049738678293699437 0.083994909560255598 0 -0.00048457467620527709 0.084412451745923878 0 -0.00011298301836386192 0.08471288806789054 0 -0.00048457467620527709 0.084412451745923878 0 -0.00012960978285328582 0.084632540254238206 0 -0.00048457467620527709 0.084412451745923878 0 -0.00012960978285328582 0.084632540254238206 0 -0.00018890897540846144 0.084368112875379042 0 -0.00015612455280945777 0.08474539860983106 0 -0.00022599806445923115 0.084694166427049994 0 5.6350463070130798e-05 0.084606908138138079 0 -0.00012960978285328582 0.084632540254238206 0 -0.00018890897540846144 0.084368112875379042 0 -0.00011142350310786198 0.084680895180245963 0 5.6350463070130798e-05 0.084606908138138079 0 -0.00012960978285328582 0.084632540254238206 0 5.6350463070130798e-05 0.084606908138138079 0 -8.957225589205492e-07 0.084160847514243728 0 -0.00018890897540846144 0.084368112875379042 0 -0.0029488718348861147 0.043792967343241382 0 -0.0041921424989420511 0.041668514209467454 0 -0.0012594363554794842 0.042706083608393328 0 -0.0014777885658561372 0.041542501185898854 0 -0.00093925971397646596 0.04229888740285484 0 0.00028336889952203297 0.04760441486780774 0 -0.00038128046504984277 0.047495100959772087 0 -0.00021628775077755074 0.047822095424984966 0 0.00028336889952203297 0.04760441486780774 0 0.00016066669253190764 0.047694632500921146 0 -0.00021628775077755074 0.047822095424984966 0 0.00028336889952203297 0.04760441486780774 0 0.00017096708087280843 0.047455786610649676 0 0.00016066669253190764 0.047694632500921146 0 0.00028336889952203297 0.04760441486780774 0 0.00025783475136400679 0.046922988669100218 0 0.0004350725409966611 0.047755275996170993 0 0.00028336889952203297 0.04760441486780774 0 0.00025783475136400679 0.046922988669100218 0 -0.00038128046504984277 0.047495100959772087 0 -0.0029488718348861147 0.043792967343241382 0 -0.0025370893252820931 0.044162145163835709 0 0.00025783475136400679 0.046922988669100218 0 -0.00038128046504984277 0.047495100959772087 0 -0.00036807782830767914 0.044938129715766953 0 -0.0012594363554794842 0.042706083608393328 0 -0.00036807782830767914 0.044938129715766953 0 -0.00024319084522832801 0.043267900622242096 0 -0.00036807782830767914 0.044938129715766953 0 9.7825635968526511e-07 0.043637998492794719 0 0.00029072190195432066 0.046787783797294882 0 -0.00036807782830767914 0.044938129715766953 0 9.7825635968526511e-07 0.043637998492794719 0 1.1571894475019042e-05 0.042648957287581571 0 9.7825635968526511e-07 0.043637998492794719 0 0.00029072190195432066 0.046787783797294882 0 8.7472611365984029e-07 0.0483030005702932 0 0.00025783475136400679 0.046922988669100218 0 -0.00036807782830767914 0.044938129715766953 0 0.00029072190195432066 0.046787783797294882 0 0.00025783475136400679 0.046922988669100218 0 0.00029072190195432066 0.046787783797294882 0 0.0004350725409966611 0.047755275996170993 0 0.0004350725409966611 0.047755275996170993 0 0.00018500522362781976 0.049228231222891473 0 5.8572637747437807e-05 0.04894132229944826 0 0.00029072190195432066 0.046787783797294882 0 0.0004350725409966611 0.047755275996170993 0 0.00018500522362781976 0.049228231222891473 0 8.7472611365984029e-07 0.0483030005702932 0 0.00018500522362781976 0.049228231222891473 0 -1.1068652422439066e-06 0.052967096955856802 0 0.00029072190195432066 0.046787783797294882 0 8.7472611365984029e-07 0.0483030005702932 0 0.00018500522362781976 0.049228231222891473 0 0.00018500522362781976 0.049228231222891473 0 -1.1068652422439066e-06 0.052967096955856802 0 -0.00035542100389975104 0.051113595578636664 0 -0.00035542100389975104 0.051113595578636664 0 5.8572637747437807e-05 0.04894132229944826 0 -0.0013182333560616594 0.049517838768253712 0 0.00018500522362781976 0.049228231222891473 0 -0.00035542100389975104 0.051113595578636664 0 5.8572637747437807e-05 0.04894132229944826 0 5.8572637747437807e-05 0.04894132229944826 0 -0.00061494490627721698 0.048392240151634139 0 -0.0013182333560616594 0.049517838768253712 0 -0.00061494490627721698 0.048392240151634139 0 -0.00043598896557901605 0.04761556932415946 0 -0.0011741840900013607 0.047920545335948084 0 -0.00061494490627721698 0.048392240151634139 0 0.00019245995057614435 0.047898412989291074 0 -0.00043598896557901605 0.04761556932415946 0 5.8572637747437807e-05 0.04894132229944826 0 -0.00061494490627721698 0.048392240151634139 0 0.00019245995057614435 0.047898412989291074 0 0.00028336889952203297 0.04760441486780774 0 0.0004350725409966611 0.047755275996170993 0 0.00019245995057614435 0.047898412989291074 0 0.0004350725409966611 0.047755275996170993 0 5.8572637747437807e-05 0.04894132229944826 0 0.00019245995057614435 0.047898412989291074 0 0.00028336889952203297 0.04760441486780774 0 0.00019245995057614435 0.047898412989291074 0 0.00017096708087280843 0.047455786610649676 0 0.00019245995057614435 0.047898412989291074 0 0.00017096708087280843 0.047455786610649676 0 -0.00043598896557901605 0.04761556932415946 0 0.00017096708087280843 0.047455786610649676 0 -0.00043598896557901605 0.04761556932415946 0 -0.00053620650710614311 0.046935515334090169 0 -0.00043598896557901605 0.04761556932415946 0 -0.0014435085437584918 0.047146165019266183 0 -0.00053620650710614311 0.046935515334090169 0 -0.00043598896557901605 0.04761556932415946 0 -0.0011741840900013607 0.047920545335948084 0 -0.0014435085437584918 0.047146165019266183 0 -0.0029669404653643728 0.046848269594997924 0 -0.0029099662990334828 0.047096544453068288 0 -0.001498233792746834 0.046691988418803627 0 -0.003052916355027992 0.046594157498487047 0 -0.0022043734590677954 0.048243033624931805 0 -0.0011741840900013607 0.047920545335948084 0 -0.0014435085437584918 0.047146165019266183 0 -0.0022043734590677954 0.048243033624931805 0 -0.0026837591277774939 0.049473207802334364 0 -0.0026538075266030882 0.049473068965612453 0 -0.0024753939325388133 0.049417298719218558 0 -0.0036375462699606217 0.049207972347462103 0 -0.0034171427883646806 0.049399000469425254 0 -0.0026837591277774939 0.049473207802334364 0 -0.0026538075266030882 0.049473068965612453 0 -0.0026754286987543448 0.0495183035411332 0 -0.0026538075266030882 0.049473068965612453 0 -0.0024753939325388133 0.049417298719218558 0 -0.0025955605231449898 0.049451148300555664 0 -0.0036375462699606217 0.049207972347462103 0 -0.0033287504948904438 0.0491734847327664 0 -0.003052916355027992 0.046594157498487047 0 -0.0024753939325388133 0.049417298719218558 0 -0.0022043734590677954 0.048243033624931805 0 -0.0026538075266030882 0.049473068965612453 0 -0.0026453239309710422 0.049480043638641856 0 -0.0026611012010493104 0.049521397752187245 0 -0.0026538075266030882 0.049473068965612453 0 -0.0026453239309710422 0.049480043638641856 0 -0.0025955605231449898 0.049451148300555664 0 -0.0026453239309710422 0.049480043638641856 0 -0.0026867261214016227 0.049505957270565663 0 -0.0026611012010493104 0.049521397752187245 0 -0.0026453239309710422 0.049480043638641856 0 -0.0026867261214016227 0.049505957270565663 0 -0.0025955605231449898 0.049451148300555664 0 -0.0024753939325388133 0.049417298719218558 0 -0.0015340627313545517 0.048673850451978674 0 -0.0013182333560616594 0.049517838768253712 0 -0.0024753939325388133 0.049417298719218558 0 -0.0022043734590677954 0.048243033624931805 0 -0.0015340627313545517 0.048673850451978674 0 -0.00061494490627721698 0.048392240151634139 0 -0.0011741840900013607 0.047920545335948084 0 -0.0015340627313545517 0.048673850451978674 0 -0.0011741840900013607 0.047920545335948084 0 -0.0022043734590677954 0.048243033624931805 0 -0.0015340627313545517 0.048673850451978674 0 -0.00061494490627721698 0.048392240151634139 0 -0.0015340627313545517 0.048673850451978674 0 -0.0013182333560616594 0.049517838768253712 0 -0.00035542100389975104 0.051113595578636664 0 -0.0013182333560616594 0.049517838768253712 0 -0.0026053377129749305 0.049846695534303959 0 5.7399694002287039e-05 0.055341765857763056 0 -0.00035740371903838933 0.056073886633778873 0 -0.00035542100389975104 0.051113595578636664 0 -0.00025839625129907442 0.054277661316913806 0 -0.00019653580332955911 0.05700007888729617 0 -0.0024753939325388133 0.049417298719218558 0 -0.0013182333560616594 0.049517838768253712 0 -0.0026053377129749305 0.049846695534303959 0 -1.1068652422439066e-06 0.052967096955856802 0 8.7491696938648014e-08 0.0576321462118125 0 -0.00013759323841528703 0.05611188693033875 0 -1.1068652422439066e-06 0.052967096955856802 0 -0.00025839625129907442 0.054277661316913806 0 -0.00013759323841528703 0.05611188693033875 0 -1.1068652422439066e-06 0.052967096955856802 0 -0.00035542100389975104 0.051113595578636664 0 -0.00025839625129907442 0.054277661316913806 0 -0.00025839625129907442 0.054277661316913806 0 -0.00013759323841528703 0.05611188693033875 0 -0.00019653580332955911 0.05700007888729617 0 -0.00013759323841528703 0.05611188693033875 0 -0.00019653580332955911 0.05700007888729617 0 0.00016460406377492523 0.059311821240304471 0 8.7491696938648014e-08 0.0576321462118125 0 -0.00013759323841528703 0.05611188693033875 0 0.00016460406377492523 0.059311821240304471 0 -0.00035740371903838933 0.056073886633778873 0 -0.00084603192975821987 0.058075219153216888 0 -0.00019653580332955911 0.05700007888729617 0 0.00028022943037175072 0.060761930396282936 0 0.00016460406377492523 0.059311821240304471 0 -0.0026867261214016227 0.049505957270565663 0 -0.0026053377129749305 0.049846695534303959 0 -0.00275336647065753 0.049491768956391423 0 -0.0024753939325388133 0.049417298719218558 0 -0.0025955605231449898 0.049451148300555664 0 -0.0026053377129749305 0.049846695534303959 0 -0.0026867261214016227 0.049505957270565663 0 -0.0025955605231449898 0.049451148300555664 0 -0.0026053377129749305 0.049846695534303959 0 0.00028022943037175072 0.060761930396282936 0 0.00016460406377492523 0.059311821240304471 0 0.00040711831682994952 0.062612182790428905 0 8.7491696938648014e-08 0.0576321462118125 0 0.00016460406377492523 0.059311821240304471 0 6.1920765497377826e-07 0.062295707187947996 0 0.00016460406377492523 0.059311821240304471 0 6.1920765497377826e-07 0.062295707187947996 0 0.00040711831682994952 0.062612182790428905 0 0.00050109410562850355 0.063151108251179422 0 0.00028022943037175072 0.060761930396282936 0 0.00040711831682994952 0.062612182790428905 0 -0.0012665707235036767 0.061575106622457826 0 -0.00084603192975821987 0.058075219153216888 0 -0.0017819794463147737 0.049537283850201237 0 -0.0018317768371134528 0.050343552680208153 0 -0.002478075193589546 0.049755274118098651 0 -0.0017819794463147737 0.049537283850201237 0 -0.00275336647065753 0.049491768956391423 0 -0.002478075193589546 0.049755274118098651 0 -0.0018317768371134528 0.050343552680208153 0 -0.002478075193589546 0.049755274118098651 0 -0.0024947771078282356 0.050480731723363412 0 -0.00275336647065753 0.049491768956391423 0 -0.002478075193589546 0.049755274118098651 0 -0.0026643082356034675 0.049583421203320849 0 -0.0026867261214016227 0.049505957270565663 0 -0.00275336647065753 0.049491768956391423 0 -0.0026643082356034675 0.049583421203320849 0 -0.0026867261214016227 0.049505957270565663 0 -0.0026643082356034675 0.049583421203320849 0 -0.0026611012010493104 0.049521397752187245 0 -0.0026643082356034675 0.049583421203320849 0 -0.0026611012010493104 0.049521397752187245 0 -0.0026754286987543448 0.0495183035411332 0 -0.002478075193589546 0.049755274118098651 0 -0.0034734038516340709 0.050544977802843734 0 -0.0024947771078282356 0.050480731723363412 0 -0.002478075193589546 0.049755274118098651 0 -0.0026643082356034675 0.049583421203320849 0 -0.0026754286987543448 0.0495183035411332 0 -0.0032487090091613247 0.049381661488512668 0 -0.0034171427883646806 0.049399000469425254 0 -0.0034734038516340709 0.050544977802843734 0 -0.0028909617238995597 0.050928359684268766 0 -0.0024947771078282356 0.050480731723363412 0 -0.0026538075266030882 0.049473068965612453 0 -0.0026611012010493104 0.049521397752187245 0 -0.0026754286987543448 0.0495183035411332 0 -0.0034734038516340709 0.050544977802843734 0 -0.0035823172160771499 0.050981959932544584 0 -0.0028909617238995597 0.050928359684268766 0 -0.0043325856429068258 0.051282719283764655 0 -0.0034734038516340709 0.050544977802843734 0 -0.0035823172160771499 0.050981959932544584 0 -0.0035823172160771499 0.050981959932544584 0 -0.0031536257542248759 0.051372061865476555 0 -0.0033753360943024153 0.051858330068554406 0 -0.0035823172160771499 0.050981959932544584 0 -0.0031536257542248759 0.051372061865476555 0 -0.0028909617238995597 0.050928359684268766 0 -0.0031536257542248759 0.051372061865476555 0 -0.0028909617238995597 0.050928359684268766 0 -0.002584524229896168 0.051758943477059928 0 -0.0028909617238995597 0.050928359684268766 0 -0.0020514098144410026 0.05115032461227062 0 -0.002584524229896168 0.051758943477059928 0 -0.0018317768371134528 0.050343552680208153 0 -0.0020514098144410026 0.05115032461227062 0 -0.0024947771078282356 0.050480731723363412 0 -0.0028909617238995597 0.050928359684268766 0 -0.0020514098144410026 0.05115032461227062 0 -0.0024947771078282356 0.050480731723363412 0 -0.0015601708582236307 0.052394155986215947 0 -0.0020514098144410026 0.05115032461227062 0 -0.002584524229896168 0.051758943477059928 0 -0.0015601708582236307 0.052394155986215947 0 -0.002584524229896168 0.051758943477059928 0 -0.0024959140104925349 0.052689867039681905 0 -0.002584524229896168 0.051758943477059928 0 -0.0031035730406322902 0.052459446435247449 0 -0.0024959140104925349 0.052689867039681905 0 -0.0035823172160771499 0.050981959932544584 0 -0.0033753360943024153 0.051858330068554406 0 -0.0041551628846676313 0.052302883719960142 0 -0.0031536257542248759 0.051372061865476555 0 -0.002584524229896168 0.051758943477059928 0 -0.0033753360943024153 0.051858330068554406 0 -0.0033753360943024153 0.051858330068554406 0 -0.0036508792256196719 0.052422477322156658 0 -0.0031035730406322902 0.052459446435247449 0 -0.0033753360943024153 0.051858330068554406 0 -0.0036508792256196719 0.052422477322156658 0 -0.0041551628846676313 0.052302883719960142 0 -0.002584524229896168 0.051758943477059928 0 -0.0033753360943024153 0.051858330068554406 0 -0.0031035730406322902 0.052459446435247449 0 -0.0031035730406322902 0.052459446435247449 0 -0.003008934891805818 0.053107270036893771 0 -0.0024959140104925349 0.052689867039681905 0 -0.003008934891805818 0.053107270036893771 0 -0.0022661438296077861 0.053699212119050814 0 -0.0038172304480419772 0.053732189813129126 0 -0.0031035730406322902 0.052459446435247449 0 -0.0035613462786836703 0.052792172507483401 0 -0.003008934891805818 0.053107270036893771 0 -0.0036508792256196719 0.052422477322156658 0 -0.0031035730406322902 0.052459446435247449 0 -0.0035613462786836703 0.052792172507483401 0 -0.0036508792256196719 0.052422477322156658 0 -0.0035613462786836703 0.052792172507483401 0 -0.0040626588461903966 0.052697877181255647 0 -0.0038141276034810967 0.051369488295963439 0 -0.0038403682676464959 0.051332439780317186 0 -0.0035613462786836703 0.052792172507483401 0 -0.003008934891805818 0.053107270036893771 0 -0.0038172304480419772 0.053732189813129126 0 -0.0035613462786836703 0.052792172507483401 0 -0.0038172304480419772 0.053732189813129126 0 -0.0040544666633068969 0.052699386067149058 0 -0.0015601708582236307 0.052394155986215947 0 -0.0024959140104925349 0.052689867039681905 0 -0.0022661438296077861 0.053699212119050814 0 -0.0015845151467150868 0.066753856231621167 0 -0.0014114669254774407 0.065155646968835107 0 -0.003008934891805818 0.053107270036893771 0 -0.0024959140104925349 0.052689867039681905 0 -0.0022661438296077861 0.053699212119050814 0 -0.0012571449013151585 0.066425329591790497 0 -0.0014114669254774407 0.065155646968835107 0 -0.00066811276645983495 0.082411234279660739 0 -1.8885139842977831e-05 0.082379737511037499 0 -0.00034631425692013324 0.081800963474152721 0 -0.0014114669254774407 0.065155646968835107 0 -0.0021601350652154403 0.066267733316958344 0 -1.8885139842977831e-05 0.082379737511037499 0 -0.00034631425692013324 0.081800963474152721 0 0.00033650964267541633 0.081747983094717425 0 -0.00034631425692013324 0.081800963474152721 0 0.00033650964267541633 0.081747983094717425 0 -9.6647882474983711e-05 0.081117783570301916 0 -0.0017677819207857497 0.069349208341723798 0 -0.0017628909521046976 0.063510267570345683 0 0.00033650964267541633 0.081747983094717425 0 -9.6647882474983711e-05 0.081117783570301916 0 0.00069035553636211686 0.081094527280674233 0 -0.0013421675436445159 0.062308774913615209 0 -0.0011122949216718246 0.061974256409985724 0 -0.00096416477291736032 0.062621597903469092 0 -0.0041416998002419729 0.055949048713169643 0 -0.0041151472496689188 0.056067903747372569 0 -0.0040838125764061277 0.055999497850849511 0 -0.0019003846008118427 0.062677316832241231 0 -0.0034933953587705218 0.05650948557274018 0 -0.0012227986671653535 0.060229143627029601 0 -0.0020138841983313237 0.06021572842297495 0 -0.0011772129281708641 0.060423333169563859 0 -0.0019003846008118427 0.062677316832241231 0 -0.0029030702438966362 0.059202454137208572 0 0.00034597057032477387 0.064141461231380439 0 9.3255332198405842e-05 0.064138022128327948 0 0.00027145942119375554 0.063819821839237872 0 -0.0019003846008118427 0.062677316832241231 0 -0.0017628909521046976 0.063510267570345683 0 -0.0013421675436445159 0.062308774913615209 0 -0.0011122949216718246 0.061974256409985724 0 -0.0011512291009513603 0.061974067544436587 0 -0.0021601350652154403 0.066267733316958344 0 -0.0017628909521046976 0.063510267570345683 0 -0.0014114669254774407 0.065155646968835107 0 -0.0034933953587705218 0.05650948557274018 0 -0.0015326851459291407 0.062646398404807957 0 -0.0013421675436445159 0.062308774913615209 0 -0.00096416477291736032 0.062621597903469092 0 -0.0034933953587705218 0.05650948557274018 0 -0.0044955014325020288 0.052318955625098085 0 -0.0040474242447439109 0.05606239053773291 0 -0.0040838125764061277 0.055999497850849511 0 -0.0040105681604532114 0.055974175233865879 0 -0.0041151472496689188 0.056067903747372569 0 -0.0040474242447439109 0.05606239053773291 0 -0.0040838125764061277 0.055999497850849511 0 -0.0029030702438966362 0.059202454137208572 0 -0.0046002527977019236 0.050501104835770701 0 -0.0040838125764061277 0.055999497850849511 0 -0.0041028533521867529 0.05594549299335274 0 -0.0040105681604532114 0.055974175233865879 0 -0.0029030702438966362 0.059202454137208572 0 -0.0047121431631795664 0.051905440257520155 0 -0.0041416998002419729 0.055949048713169643 0 -0.0040838125764061277 0.055999497850849511 0 -0.0041028533521867529 0.05594549299335274 0 -0.0032598552347290343 0.055203101890526657 0 -0.0055614889329816623 0.055153709661045297 0 -0.0052264641274832793 0.054372315051158436 0 -0.0048845347161056299 0.047169326672394492 0 -0.0047280358207666953 0.046805276399396814 0 -0.0056685556786904559 0.046806800387585029 0 -0.0046002527977019236 0.050501104835770701 0 -0.0047121431631795664 0.051905440257520155 0 -0.0046551810625278228 0.049219691091229131 0 -0.0046251495958393278 0.049147658525096352 0 -0.0045453410314234477 0.049207049606743172 0 -0.0044955014325020288 0.052318955625098085 0 -0.0047121431631795664 0.051905440257520155 0 -0.0044955014325020288 0.052318955625098085 0 -0.0046548307193919345 0.046327131726194098 0 -0.0047444915953685158 0.048699087431281846 0 -0.0044737150506369873 0.048926684305799627 0 -0.0040681225419354405 0.048673656494914279 0 -0.0044737150506369873 0.048926684305799627 0 -0.004910778972573528 0.049089525707255457 0 -0.0044279319014430465 0.049175370420634655 0 -0.0040384721001969597 0.050831654116104803 0 -0.0036815037175030188 0.047675044407641247 0 -0.0044737150506369873 0.048926684305799627 0 -0.0044279319014430465 0.049175370420634655 0 -0.004216584087665066 0.048994930614730925 0 -0.0058847634676939221 0.052542818633417733 0 -0.0050298394900628804 0.054455018834982993 0 -0.0054576025447184776 0.05437608717283593 0 -0.0058847634676939221 0.052542818633417733 0 -0.0041891766744659598 0.05249479692344898 0 -0.0050298394900628804 0.054455018834982993 0 -0.0044955014325020288 0.052318955625098085 0 -0.0040384721001969597 0.050831654116104803 0 -0.0047444915953685158 0.048699087431281846 0 -0.0044737150506369873 0.048926684305799627 0 -0.004910778972573528 0.049089525707255457 0 -0.0034933953587705218 0.05650948557274018 0 -0.0038403682676464959 0.051332439780317186 0 -0.0038403682676464959 0.051332439780317186 0 -0.0038931988128779989 0.05079238917802182 0 -0.0040384721001969597 0.050831654116104803 0 -0.0038931988128779989 0.05079238917802182 0 -0.0039069116814341356 0.050411196154056405 0 -0.0047346047687017515 0.050257398376552694 0 -0.0044199290977908704 0.051609679146035106 0 -0.0040384721001969597 0.050831654116104803 0 -0.0038403682676464959 0.051332439780317186 0 -0.0043325856429068258 0.051282719283764655 0 -0.0035823172160771499 0.050981959932544584 0 -0.0041126272293770614 0.052215249361667639 0 -0.0043975353209531479 0.049488126345772682 0 -0.0045021902570618159 0.049038945911733044 0 -0.0038137708012305135 0.048993082662298841 0 -0.0044342991848895412 0.04888077847801011 0 -0.0045021902570618159 0.049038945911733044 0 -0.0038137708012305135 0.048993082662298841 0 -0.0039394108691971977 0.051048964844319367 0 -0.0038931988128779989 0.05079238917802182 0 -0.0036508792256196719 0.052422477322156658 0 -0.0040626588461903966 0.052697877181255647 0 -0.0041551628846676313 0.052302883719960142 0 -0.0036375462699606217 0.049207972347462103 0 -0.0038931988128779989 0.05079238917802182 0 -0.0036375462699606217 0.049207972347462103 0 -0.0036815037175030188 0.047675044407641247 0 -0.0029669404653643728 0.046848269594997924 0 -0.0036173326173478564 0.046995855647090759 0 -0.001498233792746834 0.046691988418803627 0 -0.003052916355027992 0.046594157498487047 0 -0.0012645744974727159 0.045106023377849705 0 -0.001498233792746834 0.046691988418803627 0 -0.0012645744974727159 0.045106023377849705 0 -0.00080503617594720241 0.045192484350558927 0 -0.0036815037175030188 0.047675044407641247 0 -0.0036173326173478564 0.046995855647090759 0 -0.0036173326173478564 0.046995855647090759 0 -0.0036761003280565323 0.045543315046273847 0 -0.0014435085437584918 0.047146165019266183 0 -0.00095313811419609775 0.046225615462559932 0 -0.00053620650710614311 0.046935515334090169 0 -0.003913774720852449 0.046318273447206161 0 -0.0038493855602528019 0.046329130016036689 0 -0.0038987237556101328 0.04628536883883632 0 -0.00095313811419609775 0.046225615462559932 0 -0.00053620650710614311 0.046935515334090169 0 0.00010955470128728985 0.046429951393353416 0 0.00017096708087280843 0.047455786610649676 0 -0.00053620650710614311 0.046935515334090169 0 0.00010955470128728985 0.046429951393353416 0 -0.0036761003280565323 0.045543315046273847 0 -0.0033396530013992077 0.043832160047873485 0 -0.0048580833819088743 0.04167820115601855 0 -0.0051736872175684248 0.04197663013367902 0 -0.0054434076259373895 0.041564303347554628 0 -0.0033383778719567408 0.046082913586973653 0 -0.0036761003280565323 0.045543315046273847 0 0.00017096708087280843 0.047455786610649676 0 0.00019966912641944054 0.047582795497484759 0 0.00016066669253190764 0.047694632500921146 0 -0.0048580833819088743 0.04167820115601855 0 -0.0051736872175684248 0.04197663013367902 0 -0.0048006282227151496 0.042295068889832775 0 -0.0036761003280565323 0.045543315046273847 0 -0.0043828781095226485 0.045630729092468979 0 -0.0051736872175684248 0.04197663013367902 0 -0.0051407208921921757 0.042269764797367146 0 -0.0048006282227151496 0.042295068889832775 0 -0.0046420149758176314 0.045964492938025826 0 -0.0046997578881837962 0.046086109364571609 0 -0.0047413804420004466 0.046046767325166528 0 -0.0038493855602528019 0.046329130016036689 0 -0.0038987237556101328 0.04628536883883632 0 -0.0038572797853525902 0.046249414944179737 0 -0.0040820075080501153 0.046835047455128301 0 -0.0043828781095226485 0.045630729092468979 0 -0.0044737150506369873 0.048926684305799627 0 -0.004216584087665066 0.048994930614730925 0 -0.0040681225419354405 0.048673656494914279 0 -0.0040820075080501153 0.046835047455128301 0 -0.0046548307193919345 0.046327131726194098 0 -0.0036815037175030188 0.047675044407641247 0 -0.0040820075080501153 0.046835047455128301 0 -0.0036173326173478564 0.046995855647090759 0 -0.0040820075080501153 0.046835047455128301 0 -0.0037237339593616005 0.047390042742292214 0 -0.0036435872471294733 0.047404756452287762 0 -0.003580088311941264 0.047267872125738054 0 -0.0046251495958393278 0.049147658525096352 0 -0.0045453410314234477 0.049207049606743172 0 -0.0045321551145952729 0.049177816144723593 0 -0.0046997578881837962 0.046086109364571609 0 -0.0047376889306280628 0.046086956688066769 0 -0.0047413804420004466 0.046046767325166528 0 -0.0046548307193919345 0.046327131726194098 0 -0.0047326304352254857 0.045348690398915037 0 -0.0041046464539967482 0.046216871022924114 0 -0.0038938595019197674 0.045768644979245654 0 -0.0038509409053410887 0.046209809694538591 0 -0.0046548307193919345 0.046327131726194098 0 -0.0048392153346209794 0.045921482578779434 0 -0.0048392153346209794 0.045921482578779434 0 -0.0047326304352254857 0.045348690398915037 0 -0.0046002527977019236 0.050501104835770701 0 -0.0053214441124416877 0.042470513560313755 0 -0.0047121431631795664 0.051905440257520155 0 -0.0048392153346209794 0.045921482578779434 0 -0.0047280358207666953 0.046805276399396814 0 -0.005842564964071777 0.046338340204032283 0 -0.0056685556786904559 0.046806800387585029 0 -0.0048845347161056299 0.047169326672394492 0 -0.0056685556786904559 0.046806800387585029 0 -0.0057647029735950102 0.047147078585579698 0 -0.005842564964071777 0.046338340204032283 0 -0.0056685556786904559 0.046806800387585029 0 -0.0057770619281997844 0.047028272879839031 0 -0.0048392153346209794 0.045921482578779434 0 -0.0053788667876038376 0.042469796290683454 0 -0.0054438056619541325 0.042648419783201948 0 -0.0053788667876038376 0.042469796290683454 0 -0.0056685556786904559 0.046806800387585029 0 -0.0057759428486785823 0.047029089573484763 0 -0.0057647029735950102 0.047147078585579698 0 -0.006781327909323509 0.041126963992656425 0 -0.0067046495355881095 0.041926327809444879 0 -0.0071633370401877313 0.041919543218094692 0 -0.0053788667876038376 0.042469796290683454 0 -0.005338736991814177 0.041834012008032988 0 -0.0053788667876038376 0.042469796290683454 0 -0.0053214441124416877 0.042470513560313755 0 -0.0053214441124416877 0.042470513560313755 0 -0.005338736991814177 0.041834012008032988 0 -0.0059565799459125983 0.039363827810958506 0 -0.0059628232447318371 0.039355942121418887 0 -0.0059664547633171963 0.039351269828900297 0 -0.005338736991814177 0.041834012008032988 0 -0.0062703250666725644 0.034050241855535811 0 -0.0059565799459125983 0.039363827810958506 0 -0.0059664547633171963 0.039351269828900297 0 -0.0059724920432759074 0.039355654918601018 0 -0.0059574535685558106 0.039362628929865126 0 -0.0059565799459125983 0.039363827810958506 0 -0.0059595709965797224 0.039362049807725612 0 -0.0059565799459125983 0.039363827810958506 0 -0.0059595709965797224 0.039362049807725612 0 -0.0059628232447318371 0.039355942121418887 0 -0.0059597359304969797 0.039379181892597058 0 -0.0059574535685558106 0.039362628929865126 0 -0.0059595709965797224 0.039362049807725612 0 -0.0048392153346209794 0.045921482578779434 0 -0.0046117288671867268 0.04502327424017781 0 -0.0059650661677869039 0.039359113492522517 0 -0.0059595709965797224 0.039362049807725612 0 -0.0059647995125132244 0.039354558265783414 0 -0.0059595709965797224 0.039362049807725612 0 -0.0059628232447318371 0.039355942121418887 0 -0.0059647995125132244 0.039354558265783414 0 -0.0059628232447318371 0.039355942121418887 0 -0.0059649584747401485 0.039348669804132985 0 -0.0059647995125132244 0.039354558265783414 0 -0.0059649584747401485 0.039348669804132985 0 -0.0059667044521414282 0.039336667071287849 0 -0.0059664547633171963 0.039351269828900297 0 -0.0059628232447318371 0.039355942121418887 0 -0.0059649584747401485 0.039348669804132985 0 -0.0059664547633171963 0.039351269828900297 0 -0.0059665136912695682 0.039352124352682261 0 -0.0059678324824015546 0.039360702352841191 0 -0.0059630299110609115 0.039361216855718646 0 -0.0059649584747401485 0.039348669804132985 0 -0.0059665136912695682 0.039352124352682261 0 -0.0059667044521414282 0.039336667071287849 0 -0.0047326304352254857 0.045348690398915037 0 -0.0056889063555428197 0.040791687142294523 0 -0.0047883103231147481 0.042428095754267384 0 -0.0049044596469437225 0.042382357512886541 0 -0.0053398575997405584 0.042432994369384233 0 -0.0059649584747401485 0.039348669804132985 0 -0.0059665136912695682 0.039352124352682261 0 -0.0059647995125132244 0.039354558265783414 0 -0.0059665136912695682 0.039352124352682261 0 -0.0059647995125132244 0.039354558265783414 0 -0.0059678324824015546 0.039360702352841191 0 -0.0059650661677869039 0.039359113492522517 0 -0.0059647995125132244 0.039354558265783414 0 -0.0059678324824015546 0.039360702352841191 0 -0.0051407208921921757 0.042269764797367146 0 -0.0049044596469437225 0.042382357512886541 0 -0.0048006282227151496 0.042295068889832775 0 -0.0047883103231147481 0.042428095754267384 0 -0.0049044596469437225 0.042382357512886541 0 -0.0048009812815819264 0.042298422720591006 0 -0.0047326304352254857 0.045348690398915037 0 -0.0043828781095226485 0.045630729092468979 0 -0.0043543239150295931 0.045575695857077825 0 -0.0043828781095226485 0.045630729092468979 0 -0.0051407208921921757 0.042269764797367146 0 -0.0049044596469437225 0.042382357512886541 0 -0.0053398575997405584 0.042432994369384233 0 -0.0059667044521414282 0.039336667071287849 0 -0.0059281089227909527 0.039226174134864893 0 -0.0058727556064149351 0.039362272027622165 0 -0.0059630299110609115 0.039361216855718646 0 -0.0059667044521414282 0.039336667071287849 0 -0.0058727556064149351 0.039362272027622165 0 -0.0056889063555428197 0.040791687142294523 0 -0.0067081900484273014 0.036205276166765887 0 -0.0053398575997405584 0.042432994369384233 0 -0.0058910803013896163 0.042439222073717336 0 -0.0055587260438828097 0.042072902283237075 0 -0.0059665136912695682 0.039352124352682261 0 -0.0059630299110609115 0.039361216855718646 0 -0.0059667044521414282 0.039336667071287849 0 -0.0059667044521414282 0.039336667071287849 0 -0.0059281089227909527 0.039226174134864893 0 -0.005953804773058867 0.039224563372159738 0 -0.0064736109038300536 0.035930202445825551 0 -0.0062703250666725644 0.034050241855535811 0 -0.0059667044521414282 0.039336667071287849 0 -0.0059664547633171963 0.039351269828900297 0 -0.0059724920432759074 0.039355654918601018 0 -0.0062862952537623982 0.032810336050559878 0 -0.0062703250666725644 0.034050241855535811 0 -0.013304321506387025 0.024010420656259333 0 -0.010802977179988054 0.025618571586000206 0 -0.011067169703165949 0.028597909236189593 0 -0.0062862952537623982 0.032810336050559878 0 -0.0062587599057475594 0.028679331546634712 0 -0.0062862952537623982 0.032810336050559878 0 -0.0067081900484273014 0.036205276166765887 0 -0.013304321506387025 0.024010420656259333 0 -0.010802977179988054 0.025618571586000206 0 -0.0082355506725598718 0.024032941921420699 0 -0.010802977179988054 0.025618571586000206 0 -0.0092910461949173417 0.027254330889149934 0 -0.0082355506725598718 0.024032941921420699 0 -0.010802977179988054 0.025618571586000206 0 -0.0092910461949173417 0.027254330889149934 0 -0.011067169703165949 0.028597909236189593 0 -0.013017287796989144 0.028763960646749204 0 -0.011073856751821714 0.029323684675203979 0 -0.0080421160620994699 0.028647824447944233 0 -0.0067081900484273014 0.036205276166765887 0 -0.0068675786267197577 0.03395105809886894 0 -0.0092910461949173417 0.027254330889149934 0 -0.011067169703165949 0.028597909236189593 0 -0.0074445620757910896 0.028553550736564692 0 -0.013017287796989144 0.028763960646749204 0 -0.011073856751821714 0.029323684675203979 0 -0.011303959974726465 0.032287660004083167 0 -0.0067081900484273014 0.036205276166765887 0 -0.0063931632202253296 0.037107148870221658 0 -0.0058910803013896163 0.042439222073717336 0 -0.0060799701996105985 0.042053998058496606 0 -0.0055587260438828097 0.042072902283237075 0 -0.0060799701996105985 0.042053998058496606 0 -0.0055587260438828097 0.042072902283237075 0 -0.0057780158496963897 0.041785909763305193 0 -0.011405740110724609 0.032183776398489551 0 -0.011023641317173698 0.032992940796941247 0 -0.011968943591724486 0.037869377731171522 0 -0.011073856751821714 0.029323684675203979 0 -0.011373919466522747 0.032209041459983011 0 -0.0099199986843003778 0.030837814804605838 0 -0.0065553957093199026 0.035987956477918671 0 -0.0063931632202253296 0.037107148870221658 0 -0.011373919466522747 0.032209041459983011 0 -0.011023641317173698 0.032992940796941247 0 -0.0095931147853311003 0.032845281743001088 0 -0.0063931632202253296 0.037107148870221658 0 -0.0064465673948126776 0.037020693054169683 0 -0.0051736872175684248 0.04197663013367902 0 -0.0055587260438828097 0.042072902283237075 0 -0.0054434076259373895 0.041564303347554628 0 -0.0051407208921921757 0.042269764797367146 0 -0.0053398575997405584 0.042432994369384233 0 -0.0055587260438828097 0.042072902283237075 0 -0.0051736872175684248 0.04197663013367902 0 -0.0051407208921921757 0.042269764797367146 0 -0.0055587260438828097 0.042072902283237075 0 -0.0055587260438828097 0.042072902283237075 0 -0.0054434076259373895 0.041564303347554628 0 -0.0057780158496963897 0.041785909763305193 0 -0.0054434076259373895 0.041564303347554628 0 -0.0057780158496963897 0.041785909763305193 0 -0.0060290729739026312 0.041452381668374061 0 -0.0063931632202253296 0.037107148870221658 0 -0.0041921424989420511 0.041668514209467454 0 -0.0033396530013992077 0.043832160047873485 0 -0.0041921424989420511 0.041668514209467454 0 -0.0060799701996105985 0.042053998058496606 0 -0.0057780158496963897 0.041785909763305193 0 -0.0060290729739026312 0.041452381668374061 0 -0.011023641317173698 0.032992940796941247 0 -0.011968943591724486 0.037869377731171522 0 -0.010314142045571288 0.034796054787890988 0 -0.0054978114744202522 0.020996419997995397 0 -0.006016588025782775 0.021155912818991297 0 -0.0051597379549691933 0.020956845741230287 0 -0.0054978114744202522 0.020996419997995397 0 -0.0054516082538224658 0.020991601697357597 0 -0.0052646903598139536 0.020798600654369743 0 -0.0054978114744202522 0.020996419997995397 0 -0.0052823432362777379 0.020879168719349424 0 -0.0052646903598139536 0.020798600654369743 0 -0.0052823432362777379 0.020879168719349424 0 -0.005189069150386051 0.020818501008028196 0 -0.0052646903598139536 0.020798600654369743 0 -0.0054978114744202522 0.020996419997995397 0 -0.0052823432362777379 0.020879168719349424 0 -0.0051597379549691933 0.020956845741230287 0 -0.0046652088483306701 0.020245672645102769 0 -0.0044910606926837696 0.020519128857861453 0 -0.0046948433314185408 0.020674134963120819 0 -0.0052694493511059055 0.023519071610256202 0 -0.0051396949250118208 0.022040901282889967 0 -0.0059321816138309278 0.022065418381482658 0 -0.0051597379549691933 0.020956845741230287 0 -0.0050745359022769483 0.020759524121511701 0 -0.0046652088483306701 0.020245672645102769 0 -0.0046948433314185408 0.020674134963120819 0 -0.0050745359022769483 0.020759524121511701 0 -0.0058164666200485916 0.022101649455346799 0 -0.0059321816138309278 0.022065418381482658 0 -0.0051597379549691933 0.020956845741230287 0 -0.0033916051922330279 0.032271486317164269 0 -0.0021090764513868113 0.025508705970165323 0 -0.0058164666200485916 0.022101649455346799 0 -0.005457238948056998 0.02266470006726273 0 -0.0051597379549691933 0.020956845741230287 0 -0.0059522538536740466 0.022073572703851917 0 -0.005457238948056998 0.02266470006726273 0 -0.0066167681484678113 0.023292998206248017 0 -0.0033916051922330279 0.032271486317164269 0 -0.004281287270385117 0.033347052288931284 0 -0.0058164666200485916 0.022101649455346799 0 -0.0059522538536740466 0.022073572703851917 0 -0.005457238948056998 0.02266470006726273 0 -0.0034151848584493927 0.032251738336725545 0 -0.0033916051922330279 0.032271486317164269 0 -0.006016588025782775 0.021155912818991297 0 -0.0056641371101056872 0.021088695835636124 0 -0.0056546989892343556 0.021330620893055756 0 -0.0054978114744202522 0.020996419997995397 0 -0.006016588025782775 0.021155912818991297 0 -0.0056641371101056872 0.021088695835636124 0 -0.0054978114744202522 0.020996419997995397 0 -0.0056641371101056872 0.021088695835636124 0 -0.0054516082538224658 0.020991601697357597 0 -0.0056641371101056872 0.021088695835636124 0 -0.0054516082538224658 0.020991601697357597 0 -0.0056546989892343556 0.021330620893055756 0 -0.0054516082538224658 0.020991601697357597 0 -0.0056546989892343556 0.021330620893055756 0 -0.0052229942484358863 0.021229876363627428 0 -0.006016588025782775 0.021155912818991297 0 -0.0056546989892343556 0.021330620893055756 0 -0.0059652355596191507 0.021948468732962603 0 -0.0056546989892343556 0.021330620893055756 0 -0.0055035484454053468 0.02200211398639201 0 -0.0052229942484358863 0.021229876363627428 0 -0.0056546989892343556 0.021330620893055756 0 -0.0059652355596191507 0.021948468732962603 0 -0.0055035484454053468 0.02200211398639201 0 -0.0064462056843486324 0.022930478262466955 0 -0.0059675011519319176 0.022530629602643331 0 -0.0053203789796047859 0.023144864921375768 0 -0.0055035484454053468 0.02200211398639201 0 -0.0059675011519319176 0.022530629602643331 0 -0.0053203789796047859 0.023144864921375768 0 -0.0059652355596191507 0.021948468732962603 0 -0.0055035484454053468 0.02200211398639201 0 -0.0059675011519319176 0.022530629602643331 0 -0.0060507709062388847 0.031684097978275649 0 -0.004281287270385117 0.033347052288931284 0 -0.005719207103467165 0.032223230845065738 0 -0.0039098331953597489 0.032249486923932348 0 -0.0044017582263018726 0.034912129702707913 0 -0.0062703250666725644 0.034050241855535811 0 -0.0060507709062388847 0.031684097978275649 0 -0.0064462056843486324 0.022930478262466955 0 -0.0059675011519319176 0.022530629602643331 0 -0.0065969740906894189 0.022633439957955311 0 -0.0062862952537623982 0.032810336050559878 0 -0.0060507709062388847 0.031684097978275649 0 -0.0059652355596191507 0.021948468732962603 0 -0.0059675011519319176 0.022530629602643331 0 -0.0065969740906894189 0.022633439957955311 0 -0.006016588025782775 0.021155912818991297 0 -0.0059652355596191507 0.021948468732962603 0 -0.0065969740906894189 0.022633439957955311 0 -0.005457238948056998 0.02266470006726273 0 -0.0058446339213229443 0.024923347822217824 0 -0.0066167681484678113 0.023292998206248017 0 -0.0052694493511059055 0.023519071610256202 0 -0.0060507709062388847 0.031684097978275649 0 -0.0046694687226586113 0.037683556932334536 0 -0.0059233519796174361 0.038353569334534085 0 -0.0050207430608827886 0.036963717853418503 0 -0.004281287270385117 0.033347052288931284 0 -0.0041476368074044208 0.033839011692348361 0 -0.0045130965193406255 0.036392929665020828 0 -0.0039917666977793238 0.036249457942476325 0 -0.0042166548725062914 0.035774744718362748 0 -0.005338736991814177 0.041834012008032988 0 -0.004281287270385117 0.033347052288931284 0 -0.0045130965193406255 0.036392929665020828 0 -0.0040188379100715927 0.03638980715975601 0 -0.0039917666977793238 0.036249457942476325 0 -0.0056788655794101925 0.039778439948084186 0 -0.0046694687226586113 0.037683556932334536 0 -0.0059233519796174361 0.038353569334534085 0 -0.0057928941296619798 0.039777159766289719 0 -0.0056788655794101925 0.039778439948084186 0 -0.0059233519796174361 0.038353569334534085 0 -0.0044736146865790305 0.046816746521584629 0 -0.0033305842574361992 0.046825636912694556 0 -0.0037281651012420593 0.046311172749716779 0 -0.0044736146865790305 0.046816746521584629 0 -0.0037281651012420593 0.046311172749716779 0 -0.0040047108482686956 0.045720217639073586 0 -0.0033305842574361992 0.046825636912694556 0 -0.0037281651012420593 0.046311172749716779 0 -0.0034315947348561985 0.045726133722393369 0 -0.0053214441124416877 0.042470513560313755 0 -0.004989617888393221 0.042526783320125723 0 -0.0037281651012420593 0.046311172749716779 0 -0.0040047108482686956 0.045720217639073586 0 -0.0034315947348561985 0.045726133722393369 0 -0.0048378568416981779 0.04844316401863679 0 -0.0047026522948063667 0.043206102900409514 0 -0.002226127684152202 0.056773127700423427 0 -0.0017775428642981454 0.055776891143203965 0 -0.0023394873836020428 0.056089284987651075 0 -0.0059233519796174361 0.038353569334534085 0 -0.0060461706754064686 0.036939032129669015 0 -0.0050207430608827886 0.036963717853418503 0 -0.0040047108482686956 0.045720217639073586 0 -0.0034315947348561985 0.045726133722393369 0 -0.0035308116555032893 0.044620748557861738 0 -0.004989617888393221 0.042526783320125723 0 -0.0047026522948063667 0.043206102900409514 0 -0.0022620539203914219 0.055621861945827814 0 -0.0017775428642981454 0.055776891143203965 0 -0.0023394873836020428 0.056089284987651075 0 -0.0022620539203914219 0.055621861945827814 0 -0.0017775428642981454 0.055776891143203965 0 -0.0018425442929882157 0.055062072815627083 0 -0.0022620539203914219 0.055621861945827814 0 -0.0021736853868544845 0.055002049319371339 0 -0.0018425442929882157 0.055062072815627083 0 -0.0047026522948063667 0.043206102900409514 0 -0.0041695370781611998 0.04235092727806497 0 -0.0059288114572978098 0.040076652784563453 0 -0.0063351520738224483 0.041025335237057127 0 -0.0064312376021220894 0.039983295715370439 0 -0.0045934559482109427 0.038783800445719205 0 -0.0047026522948063667 0.043206102900409514 0 -0.0033916051922330279 0.032271486317164269 0 -0.0045934559482109427 0.038783800445719205 0 -0.0040551019010301925 0.036372275400775006 0 -0.0056679421497312374 0.036074163679840301 0 -0.0050207430608827886 0.036963717853418503 0 -0.0040551019010301925 0.036372275400775006 0 -0.0046795005386770488 0.037656477666868263 0 -0.0050207430608827886 0.036963717853418503 0 -0.0056679421497312374 0.036074163679840301 0 -0.0060461706754064686 0.036939032129669015 0 -0.0050207430608827886 0.036963717853418503 0 -0.0042036457939017653 0.020363925792054382 0 -0.0044910606926837696 0.020519128857861453 0 -0.0043352374422376844 0.020666780913540048 0 -0.0045934559482109427 0.038783800445719205 0 -0.0027131145681150055 0.032721365669945476 0 -0.0046652088483306701 0.020245672645102769 0 -0.0042036457939017653 0.020363925792054382 0 -0.0044910606926837696 0.020519128857861453 0 -0.0044910606926837696 0.020519128857861453 0 -0.0043352374422376844 0.020666780913540048 0 -0.0045131086885024166 0.020747893102923288 0 -0.0044910606926837696 0.020519128857861453 0 -0.0045131086885024166 0.020747893102923288 0 -0.0046948433314185408 0.020674134963120819 0 -0.0012946974906511088 0.055271087524975539 0 -0.0015014591145745752 0.055515458104375505 0 -0.0018549497198976103 0.055013632742733527 0 -0.0042268721493145612 0.041740977044177695 0 -0.0046154811370177819 0.045104403271721862 0 -0.0046154811370177819 0.045104403271721862 0 -0.0041695370781611998 0.04235092727806497 0 -0.0035106579509708393 0.045663503065055067 0 -0.0019812675767838924 0.043881928725975482 0 -0.0037132032882232343 0.04355563674299346 0 -0.0036409179939164205 0.040004737083408605 0 -0.0021691781747711649 0.03656966382894173 0 -0.0052037926871556306 0.038099726424883462 0 -0.0045934559482109427 0.038783800445719205 0 -0.0041695370781611998 0.04235092727806497 0 -0.0036409179939164205 0.040004737083408605 0 -0.0052037926871556306 0.038099726424883462 0 -0.0050477215973110745 0.039741868905391074 0 -0.0042268721493145612 0.041740977044177695 0 -0.0041695370781611998 0.04235092727806497 0 -0.0015014591145745752 0.055515458104375505 0 -0.0018549497198976103 0.055013632742733527 0 -0.0023833413203697166 0.055385510958466264 0 -0.0046154811370177819 0.045104403271721862 0 -0.003085958526486369 0.05617473109306767 0 -0.003085958526486369 0.05617473109306767 0 -0.0017540416061397309 0.06763385351180165 0 -0.0033010069304533099 0.055049798836481256 0 -0.0039806082193149786 0.05615482170775267 0 -0.0043463021729572152 0.054878483508733207 0 -0.0033010069304533099 0.055049798836481256 0 -0.0030819633280121505 0.056179541963773096 0 -0.0039806082193149786 0.05615482170775267 0 -0.0022620539203914219 0.055621861945827814 0 -0.0021736853868544845 0.055002049319371339 0 -0.0030819633280121505 0.056179541963773096 0 -0.0046154811370177819 0.045104403271721862 0 -0.0060192168507007511 0.049794270540169411 0 -0.0022850587074056557 0.055218835838503816 0 -0.0033010069304533099 0.055049798836481256 0 -0.0030819633280121505 0.056179541963773096 0 -0.0022620539203914219 0.055621861945827814 0 -0.0023394873836020428 0.056089284987651075 0 -0.0030819633280121505 0.056179541963773096 0 -0.002226127684152202 0.056773127700423427 0 -0.0023394873836020428 0.056089284987651075 0 -0.0030819633280121505 0.056179541963773096 0 -0.002226127684152202 0.056773127700423427 0 -0.0030819633280121505 0.056179541963773096 0 -0.0033750209401260194 0.056686935778205064 0 -0.0046002527977019236 0.050501104835770701 0 -0.0048378568416981779 0.04844316401863679 0 -0.0026319683034888401 0.057697134897339263 0 -0.002226127684152202 0.056773127700423427 0 -0.0032119584045192935 0.057244844262180336 0 -0.002226127684152202 0.056773127700423427 0 -0.0032119584045192935 0.057244844262180336 0 -0.0033750209401260194 0.056686935778205064 0 -0.0037963462597615789 0.057689399092678013 0 -0.0026319683034888401 0.057697134897339263 0 -0.0032119584045192935 0.057244844262180336 0 -0.0037963462597615789 0.057689399092678013 0 -0.0038499489941066596 0.057335976636063893 0 -0.0032119584045192935 0.057244844262180336 0 -0.0032119584045192935 0.057244844262180336 0 -0.0038758494099503131 0.056959507552755806 0 -0.0033750209401260194 0.056686935778205064 0 -0.0038499489941066596 0.057335976636063893 0 -0.0032119584045192935 0.057244844262180336 0 -0.0038758494099503131 0.056959507552755806 0 -0.0030819633280121505 0.056179541963773096 0 -0.0033750209401260194 0.056686935778205064 0 -0.0039806082193149786 0.05615482170775267 0 -0.0038758494099503131 0.056959507552755806 0 -0.0033750209401260194 0.056686935778205064 0 -0.0039806082193149786 0.05615482170775267 0 -0.0038758494099503131 0.056959507552755806 0 -0.0039806082193149786 0.05615482170775267 0 -0.0042453447759810536 0.056875869194986287 0 -0.0039806082193149786 0.05615482170775267 0 -0.0046266747983591105 0.056666556604879188 0 -0.0049468867905689533 0.05592246839324938 0 -0.0039806082193149786 0.05615482170775267 0 -0.0046266747983591105 0.056666556604879188 0 -0.0042453447759810536 0.056875869194986287 0 -0.0017984697744750546 0.061523010479659003 0 -0.0019617696572675034 0.062322378369559506 0 -0.0038758494099503131 0.056959507552755806 0 -0.0042453447759810536 0.056875869194986287 0 -0.0042608902454063747 0.05740229279943454 0 -0.0019672200606246333 0.067980953496125804 0 -0.002810764358712501 0.067957425985318995 0 -0.0028474224390867145 0.068137087370590738 0 -0.0046266747983591105 0.056666556604879188 0 -0.0042453447759810536 0.056875869194986287 0 -0.0042608902454063747 0.05740229279943454 0 -0.0037963462597615789 0.057689399092678013 0 -0.0038499489941066596 0.057335976636063893 0 -0.0042432495867544238 0.057506125441400872 0 -0.0029030702438966362 0.059202454137208572 0 -0.0019617696572675034 0.062322378369559506 0 -0.0020138841983313237 0.06021572842297495 0 -0.0011772129281708641 0.060423333169563859 0 -0.001140473831987193 0.060579951551947085 0 -0.002810764358712501 0.067957425985318995 0 -0.0028665108986049557 0.068056049769652766 0 -0.0028474224390867145 0.068137087370590738 0 -0.0038499489941066596 0.057335976636063893 0 -0.0038758494099503131 0.056959507552755806 0 -0.0042432495867544238 0.057506125441400872 0 -0.0017628909521046976 0.063510267570345683 0 -0.0018052752170085605 0.06288322342910653 0 -0.0038758494099503131 0.056959507552755806 0 -0.0042608902454063747 0.05740229279943454 0 -0.0042311737619907981 0.057523716842996439 0 -0.0019003846008118427 0.062677316832241231 0 -0.0018052752170085605 0.06288322342910653 0 -0.0018052752170085605 0.06288322342910653 0 -0.0019617696572675034 0.062322378369559506 0 -0.0019759467776602588 0.06227347753793324 0 -0.0019617696572675034 0.062322378369559506 0 -0.0019672200606246333 0.067980953496125804 0 -0.0028474224390867145 0.068137087370590738 0 -0.0015255767078864884 0.068702799595314945 0 -0.0046266747983591105 0.056666556604879188 0 -0.0042608902454063747 0.05740229279943454 0 -0.0055492220248199624 0.056991493368309581 0 -0.0042608902454063747 0.05740229279943454 0 -0.0042332589881518955 0.057519447779044837 0 -0.0055492220248199624 0.056991493368309581 0 -0.0019617696572675034 0.062322378369559506 0 -0.0025071838003353449 0.07010448358646762 0 -0.002480672801248464 0.069612790684810008 0 -0.0025071838003353449 0.07010448358646762 0 -0.0046266747983591105 0.056666556604879188 0 -0.0049468867905689533 0.05592246839324938 0 -0.0055492220248199624 0.056991493368309581 0 -0.002480672801248464 0.069612790684810008 0 -0.0017540416061397309 0.06763385351180165 0 -0.00015038638435070734 0.084500769235332146 0 -0.00019160623091446047 0.084554412600399781 0 -0.00011653907810334107 0.084554201012944225 0 -0.0039806082193149786 0.05615482170775267 0 -0.0049468867905689533 0.05592246839324938 0 -0.0043463021729572152 0.054878483508733207 0 -0.0017540416061397309 0.06763385351180165 0 0.00046470560182933294 0.07514601701605704 0 -0.00019160623091446047 0.084554412600399781 0 -0.00011540868544424741 0.08460505823958131 0 -0.00011653907810334107 0.084554201012944225 0 0.00023859524669054812 0.08466791552432204 0 0.00028374591769246549 0.084618152373898234 0 0.0002109394420957039 0.084628705025454665 0 0.00030425738306700688 0.084651627216092776 0 0.00023859524669054812 0.08466791552432204 0 0.00028374591769246549 0.084618152373898234 0 0.00030425738306700688 0.084651627216092776 0 0.00028374591769246549 0.084618152373898234 0 0.00035708519392849369 0.0845758020107783 0 -0.0017540416061397309 0.06763385351180165 0 -0.0023899731829520533 0.067823208982019115 0 0.00028374591769246549 0.084618152373898234 0 0.00027348768925280201 0.084577240035661014 0 0.00035708519392849369 0.0845758020107783 0 0.00028374591769246549 0.084618152373898234 0 0.00027348768925280201 0.084577240035661014 0 0.0002109394420957039 0.084628705025454665 0 0.00027348768925280201 0.084577240035661014 0 0.00030301748707945618 0.08452657984986009 0 0.00034297400379303328 0.084516031301928821 0 0.00027348768925280201 0.084577240035661014 0 0.00030301748707945618 0.08452657984986009 0 0.00025470234770750243 0.084559565595492089 0 0.00030301748707945618 0.08452657984986009 0 0.00029013648218525069 0.084529962638403996 0 0.00033553129072901576 0.084497761907474253 0 0.00030301748707945618 0.08452657984986009 0 0.00025470234770750243 0.084559565595492089 0 0.00029013648218525069 0.084529962638403996 0 0.00030301748707945618 0.08452657984986009 0 0.00034297400379303328 0.084516031301928821 0 0.00033497200059026867 0.08447080248506765 0 0.00034297400379303328 0.084516031301928821 0 0.00033497200059026867 0.08447080248506765 0 0.00038259900213074335 0.084451995631862412 0 0.00027348768925280201 0.084577240035661014 0 0.00034297400379303328 0.084516031301928821 0 0.00035708519392849369 0.0845758020107783 0 -0.0021037748656234055 0.053177787851271266 0 -0.001890146301630985 0.053476631859903818 0 -0.0026979583035009434 0.054211396230861006 0 0.00034297400379303328 0.084516031301928821 0 0.00040608259808188306 0.084484777721750434 0 0.00035708519392849369 0.0845758020107783 0 -0.0024459153458027596 0.064254212171185848 0 -0.0023899731829520533 0.067823208982019115 0 -0.0024459153458027596 0.064254212171185848 0 -0.00027347541549312224 0.069159204820375936 0 0.00034297400379303328 0.084516031301928821 0 0.00040608259808188306 0.084484777721750434 0 0.00038259900213074335 0.084451995631862412 0 -0.0015685673873055391 0.059709457970130074 0 -0.0023656328885879188 0.058538224157108257 0 -0.0014720232441527332 0.058236167169541206 0 -0.0024459153458027596 0.064254212171185848 0 -0.0003862083858843101 0.045425325964924684 0 -0.0021206470450316284 0.05314502663040295 0 -0.0014236469649216517 0.053210414684890968 0 -0.0014938141034693496 0.052063306877234851 0 -0.0015685673873055391 0.059709457970130074 0 -0.0014720232441527332 0.058236167169541206 0 -0.00073189273467415847 0.058249280780726817 0 -0.0021206470450316284 0.05314502663040295 0 -0.001890146301630985 0.053476631859903818 0 -0.0014236469649216517 0.053210414684890968 0 -0.0024459153458027596 0.064254212171185848 0 -0.0028755013533401262 0.063254124661135405 0 -0.001890146301630985 0.053476631859903818 0 -0.0019534731805964101 0.054242207639264975 0 -0.0013720856265071178 0.054261368163959954 0 -0.001890146301630985 0.053476631859903818 0 -0.0019534731805964101 0.054242207639264975 0 -0.0026979583035009434 0.054211396230861006 0 -0.0018549497198976103 0.055013632742733527 0 -0.0023833413203697166 0.055385510958466264 0 -0.0026979583035009434 0.054211396230861006 0 -0.0023833413203697166 0.055385510958466264 0 -0.0032803966462362838 0.05524596200859852 0 -0.0026979583035009434 0.054211396230861006 0 -0.0018549497198976103 0.055013632742733527 0 -0.0019534731805964101 0.054242207639264975 0 -0.0026979583035009434 0.054211396230861006 0 -0.0018549497198976103 0.055013632742733527 0 -0.0019534731805964101 0.054242207639264975 0 -0.0013720856265071178 0.054261368163959954 0 -0.0042268721493145612 0.041740977044177695 0 -0.0032547341848967082 0.039409034804234327 0 -0.0012946974906511088 0.055271087524975539 0 -0.0018549497198976103 0.055013632742733527 0 -0.0013720856265071178 0.054261368163959954 0 -0.0046385729148832764 0.022816519372383704 0 -0.0046335270732598185 0.022757077796227453 0 -0.0046079794792022915 0.022727347146516828 0 -0.0046335270732598185 0.022757077796227453 0 -0.0046298873859487505 0.022725902150079847 0 -0.0046079794792022915 0.022727347146516828 0 -0.0042268721493145612 0.041740977044177695 0 -0.0017718820237423048 0.030015237827009066 0 -0.0046385729148832764 0.022816519372383704 0 -0.0046335270732598185 0.022757077796227453 0 -0.0046376251194060669 0.022703858254180545 0 -0.0021691781747711649 0.03656966382894173 0 -0.0052037926871556306 0.038099726424883462 0 -0.00069795494596797982 0.033132932480044827 0 -0.0043352374422376844 0.020666780913540048 0 -0.0045131086885024166 0.020747893102923288 0 -0.0044560818675328396 0.021006299787507843 0 -0.0027131145681150055 0.032721365669945476 0 -0.0017718820237423048 0.030015237827009066 0 -0.0045131086885024166 0.020747893102923288 0 -0.0044560818675328396 0.021006299787507843 0 -0.0045939565404001991 0.020884131436858903 0 -0.0046335270732598185 0.022757077796227453 0 -0.0046344157530777445 0.022723670231159242 0 -0.0046298873859487505 0.022725902150079847 0 -0.0046335270732598185 0.022757077796227453 0 -0.0046376251194060669 0.022703858254180545 0 -0.0046344157530777445 0.022723670231159242 0 -0.0046344157530777445 0.022723670231159242 0 -0.0046298873859487505 0.022725902150079847 0 -0.0046384929600143876 0.022714099864794474 0 -0.0046376251194060669 0.022703858254180545 0 -0.0046344157530777445 0.022723670231159242 0 -0.0046384929600143876 0.022714099864794474 0 -0.0046384929600143876 0.022714099864794474 0 -0.0046291277899558206 0.022722050687157904 0 -0.004677110377848263 0.022715089701071112 0 -0.0046298873859487505 0.022725902150079847 0 -0.0046384929600143876 0.022714099864794474 0 -0.0046291277899558206 0.022722050687157904 0 -0.0046376251194060669 0.022703858254180545 0 -0.0046384929600143876 0.022714099864794474 0 -0.004677110377848263 0.022715089701071112 0 -0.0046291277899558206 0.022722050687157904 0 -0.004677110377848263 0.022715089701071112 0 -0.0046127110078032401 0.022755277664565522 0 -0.0046291277899558206 0.022722050687157904 0 -0.0046079794792022915 0.022727347146516828 0 -0.0046127110078032401 0.022755277664565522 0 -0.0046079794792022915 0.022727347146516828 0 -0.0044668584033792516 0.02284014548722332 0 -0.0046127110078032401 0.022755277664565522 0 -0.0032547341848967082 0.039409034804234327 0 -0.0022304178812531379 0.039740087188942876 0 -0.0046298873859487505 0.022725902150079847 0 -0.0046291277899558206 0.022722050687157904 0 -0.0046079794792022915 0.022727347146516828 0 -0.001890146301630985 0.053476631859903818 0 -0.0013720856265071178 0.054261368163959954 0 -0.0014236469649216517 0.053210414684890968 0 -0.0044668584033792516 0.02284014548722332 0 -0.0046007941894853433 0.022903040390548177 0 -0.0046127110078032401 0.022755277664565522 0 -0.0022304178812531379 0.039740087188942876 0 -0.0003862083858843101 0.045425325964924684 0 -0.0044668584033792516 0.02284014548722332 0 -0.0046007941894853433 0.022903040390548177 0 -0.0043295882884835978 0.023154926288099641 0 -0.0046007941894853433 0.022903040390548177 0 -0.0047133220013536843 0.022782355559109336 0 -0.0048177455684478175 0.022916004498714764 0 -0.0046007941894853433 0.022903040390548177 0 -0.0048177455684478175 0.022916004498714764 0 -0.0045432147096023607 0.023144412324667355 0 -0.0046007941894853433 0.022903040390548177 0 -0.0047133220013536843 0.022782355559109336 0 -0.0046127110078032401 0.022755277664565522 0 -0.004677110377848263 0.022715089701071112 0 -0.0047133220013536843 0.022782355559109336 0 -0.0046127110078032401 0.022755277664565522 0 -0.0047133220013536843 0.022782355559109336 0 -0.0048805768177703022 0.022679858155815621 0 -0.0048177455684478175 0.022916004498714764 0 -0.004677110377848263 0.022715089701071112 0 -0.0047133220013536843 0.022782355559109336 0 -0.0048805768177703022 0.022679858155815621 0 -0.0025194386435166334 0.025099648743954872 0 -0.0032055769600908774 0.024363115057893733 0 -0.0048805768177703022 0.022679858155815621 0 -0.0048177455684478175 0.022916004498714764 0 -0.0052870666393981455 0.022653999216500482 0 -0.0047381963044082487 0.021642934287447464 0 -0.0054642807023656216 0.021814018244922562 0 -0.0052870666393981455 0.022653999216500482 0 -0.0047381963044082487 0.021642934287447464 0 -0.0051667736213348164 0.021190869373058235 0 -0.0054642807023656216 0.021814018244922562 0 -0.0047381963044082487 0.021642934287447464 0 -0.0051667736213348164 0.021190869373058235 0 -0.004973048475969204 0.021096838640714835 0 -0.0046376251194060669 0.022703858254180545 0 -0.004677110377848263 0.022715089701071112 0 -0.0048805768177703022 0.022679858155815621 0 -0.0017718820237423048 0.030015237827009066 0 -0.0025194386435166334 0.025099648743954872 0 -0.0047381963044082487 0.021642934287447464 0 -0.004973048475969204 0.021096838640714835 0 -0.0047332662533767986 0.020979768129211335 0 -0.0044560818675328396 0.021006299787507843 0 -0.0047381963044082487 0.021642934287447464 0 -0.0047332662533767986 0.020979768129211335 0 -0.004973048475969204 0.021096838640714835 0 -0.0047332662533767986 0.020979768129211335 0 -0.0049036455563636061 0.020913559297609661 0 -0.0049036455563636061 0.020913559297609661 0 -0.0047221007315998509 0.020863051670205544 0 -0.0048440674976432179 0.020804621016255666 0 -0.0047332662533767986 0.020979768129211335 0 -0.0049036455563636061 0.020913559297609661 0 -0.0047221007315998509 0.020863051670205544 0 -0.0049036455563636061 0.020913559297609661 0 -0.0048440674976432179 0.020804621016255666 0 -0.0050745359022769483 0.020759524121511701 0 -0.0044560818675328396 0.021006299787507843 0 -0.0047332662533767986 0.020979768129211335 0 -0.0045939565404001991 0.020884131436858903 0 -0.0047332662533767986 0.020979768129211335 0 -0.0047221007315998509 0.020863051670205544 0 -0.0045939565404001991 0.020884131436858903 0 -0.0045131086885024166 0.020747893102923288 0 -0.0045939565404001991 0.020884131436858903 0 -0.0046948433314185408 0.020674134963120819 0 -0.0047221007315998509 0.020863051670205544 0 -0.0045939565404001991 0.020884131436858903 0 -0.0046948433314185408 0.020674134963120819 0 -0.0047221007315998509 0.020863051670205544 0 -0.0046948433314185408 0.020674134963120819 0 -0.0048440674976432179 0.020804621016255666 0 -0.0046948433314185408 0.020674134963120819 0 -0.0048440674976432179 0.020804621016255666 0 -0.0050745359022769483 0.020759524121511701 0 -0.0052823432362777379 0.020879168719349424 0 -0.0051597379549691933 0.020956845741230287 0 -0.005189069150386051 0.020818501008028196 0 -0.0051667736213348164 0.021190869373058235 0 -0.004973048475969204 0.021096838640714835 0 -0.005189069150386051 0.020818501008028196 0 -0.0051597379549691933 0.020956845741230287 0 -0.0050745359022769483 0.020759524121511701 0 -0.005189069150386051 0.020818501008028196 0 -0.004973048475969204 0.021096838640714835 0 -0.0049036455563636061 0.020913559297609661 0 -0.0050745359022769483 0.020759524121511701 0 -0.004973048475969204 0.021096838640714835 0 -0.0050745359022769483 0.020759524121511701 0 -0.005189069150386051 0.020818501008028196 0 -0.00021565578367530291 0.084796244262145701 0 -0.00045900216188748906 0.084902152182360746 0 -0.00052479201140838547 0.084479884817022524 0 -0.00021565578367530291 0.084796244262145701 0 -0.00045900216188748906 0.084902152182360746 0 -2.9301049679385825e-05 0.085038285896050725 0 0.00012976900534378413 0.083741981994201076 0 0.00024636691890838941 0.082226148609806843 0 -0.00045900216188748906 0.084902152182360746 0 -0.00052479201140838547 0.084479884817022524 0 -0.00092786767500678373 0.084696881993001502 0 2.8788175836449323e-05 0.084750971678125064 0 1.7309146530083951e-05 0.084769538522204785 0 5.4241797497044847e-05 0.084707670862898404 0 2.8788175836449323e-05 0.084750971678125064 0 1.7309146530083951e-05 0.084769538522204785 0 2.9501931969544978e-05 0.084833463262765738 0 1.7309146530083951e-05 0.084769538522204785 0 2.9501931969544978e-05 0.084833463262765738 0 1.964750487070339e-05 0.084858500852611332 0 0.00012976900534378413 0.083741981994201076 0 6.8286331274601517e-05 0.084518213788585164 0 2.8788175836449323e-05 0.084750971678125064 0 2.9501931969544978e-05 0.084833463262765738 0 4.03427253217239e-05 0.084885421668243477 0 -2.9301049679385825e-05 0.085038285896050725 0 -2.1260849035299148e-07 0.084989582100306077 0 -1.2246949323551096e-05 0.084955575063204364 0 6.8286331274601517e-05 0.084518213788585164 0 2.0247877424172682e-07 0.084999209192306621 0 -2.1260849035299148e-07 0.084989582100306077 0 -9.3549465411138803e-09 0.084999964951545978 0 3.0197024431296997e-08 0.085000028849425632 0 -2.9301049679385825e-05 0.085038285896050725 0 -2.1260849035299148e-07 0.084989582100306077 0 3.0197024431296997e-08 0.085000028849425632 0 -2.1260849035299148e-07 0.084989582100306077 0 -6.2583767584349199e-06 0.084988164044117465 0 -9.3549465411138803e-09 0.084999964951545978 0 -0.00021565578367530291 0.084796244262145701 0 -1.2246949323551096e-05 0.084955575063204364 0 -8.0637909998863339e-05 0.0845138281565712 0 -6.2583767584349199e-06 0.084988164044117465 0 -1.2246949323551096e-05 0.084955575063204364 0 4.8713465309904783e-06 0.08499445618696895 0 -2.1260849035299148e-07 0.084989582100306077 0 -6.2583767584349199e-06 0.084988164044117465 0 -1.2246949323551096e-05 0.084955575063204364 0 -0.00021565578367530291 0.084796244262145701 0 -2.9301049679385825e-05 0.085038285896050725 0 -1.2246949323551096e-05 0.084955575063204364 0 -8.5223642973668591e-05 0.084775141552678346 0 -0.0001291994675029579 0.084642166227029636 0 -6.2583767584349199e-06 0.084988164044117465 0 4.8713465309904783e-06 0.08499445618696895 0 -1.2902354370110574e-06 0.084997825688702386 0 -6.2583767584349199e-06 0.084988164044117465 0 -6.1436073754945651e-09 0.084999996549086243 0 -1.2902354370110574e-06 0.084997825688702386 0 -6.2583767584349199e-06 0.084988164044117465 0 -9.3549465411138803e-09 0.084999964951545978 0 -6.1436073754945651e-09 0.084999996549086243 0 3.7159070674128101e-09 0.084999995031300971 0 -6.1436073754945651e-09 0.084999996549086243 0 -6.7398709658767666e-07 0.084999432536996031 0 -6.1436073754945651e-09 0.084999996549086243 0 -1.2902354370110574e-06 0.084997825688702386 0 -6.7398709658767666e-07 0.084999432536996031 0 4.8713465309904783e-06 0.08499445618696895 0 -1.2902354370110574e-06 0.084997825688702386 0 -1.3958694949913313e-06 0.084999181385021536 0 4.8713465309904783e-06 0.08499445618696895 0 -1.3958694949913313e-06 0.084999181385021536 0 1.9097387069060052e-06 0.084998500490580206 0 -1.2902354370110574e-06 0.084997825688702386 0 -6.7398709658767666e-07 0.084999432536996031 0 -1.3958694949913313e-06 0.084999181385021536 0 -0.00022103473811563073 0.084271982813140439 0 -0.00027520997469755899 0.084230384071023248 0 -8.0637909998863339e-05 0.0845138281565712 0 -0.00019146936709612825 0.084079542834141333 0 -0.00052479201140838547 0.084479884817022524 0 -0.0001291994675029579 0.084642166227029636 0 -0.00027520997469755899 0.084230384071023248 0 -0.00021565578367530291 0.084796244262145701 0 -8.0637909998863339e-05 0.0845138281565712 0 -0.00052479201140838547 0.084479884817022524 0 -0.00019146936709612825 0.084079542834141333 0 -0.00052479201140838547 0.084479884817022524 0 -0.00075907969817911333 0.084059898202173869 0 -0.00027520997469755899 0.084230384071023248 0 -0.00077995496712190894 0.082510173613311658 0 -0.00052479201140838547 0.084479884817022524 0 -0.00075907969817911333 0.084059898202173869 0 -0.0010463291834402037 0.084317459287582663 0 -0.0013270082114787817 0.084036657296007275 0 -0.00075907969817911333 0.084059898202173869 0 -0.0010463291834402037 0.084317459287582663 0 -0.0013270082114787817 0.084036657296007275 0 -0.0010463291834402037 0.084317459287582663 0 -0.00139140000620523 0.084490069356020617 0 -0.0016049808885400133 0.078948903395933426 0 -0.00077995496712190894 0.082510173613311658 0 -0.0010463291834402037 0.084317459287582663 0 -0.00139140000620523 0.084490069356020617 0 -0.00092786767500678373 0.084696881993001502 0 -4.6100038601308318e-06 0.084513406678407732 0 -2.7080585210391005e-06 0.084500010086761709 0 5.8890906894801098e-05 0.084629497930234859 0 3.7670382312747964e-05 0.078877959944288978 0 0.00024636691890838941 0.082226148609806843 0 -0.00052479201140838547 0.084479884817022524 0 -0.0010463291834402037 0.084317459287582663 0 -0.00092786767500678373 0.084696881993001502 0 -0.0017264066453836126 0.074747989199780623 0 -0.0017675326043232957 0.074816085871714469 0 -0.0016431406195486376 0.07487592024212128 0 -0.0011256355735145449 0.068004283133580312 0 -0.0019672200606246333 0.067980953496125804 0 -0.0015255767078864884 0.068702799595314945 0 -0.0026858921342316957 0.073886428731653672 0 -0.0025071838003353449 0.07010448358646762 0 -0.0016284641019298988 0.074756924266508276 0 -0.0017264066453836126 0.074747989199780623 0 -0.0016431406195486376 0.07487592024212128 0 -0.0016049808885400133 0.078948903395933426 0 3.7670382312747964e-05 0.078877959944288978 0 -4.108023958845943e-06 0.084493339360551228 0 -7.5683380448740017e-05 0.084493626454600845 0 -3.8773410167535878e-05 0.084523711827546935 0 -4.6100038601308318e-06 0.084513406678407732 0 -4.108023958845943e-06 0.084493339360551228 0 -3.8773410167535878e-05 0.084523711827546935 0 2.8786638376584428e-05 0.078959226526078036 0 3.7670382312747964e-05 0.078877959944288978 0 -0.00015038638435070734 0.084500769235332146 0 -0.00011026900364616641 0.08440956503294543 0 -7.5683380448740017e-05 0.084493626454600845 0 -0.0025071838003353449 0.07010448358646762 0 3.7670382312747964e-05 0.078877959944288978 0 -0.00011026900364616641 0.08440956503294543 0 -4.108023958845943e-06 0.084493339360551228 0 -7.5683380448740017e-05 0.084493626454600845 0 -0.00015038638435070734 0.084500769235332146 0 -0.00011653907810334107 0.084554201012944225 0 -7.5683380448740017e-05 0.084493626454600845 0 -0.00011653907810334107 0.084554201012944225 0 -7.5683380448740017e-05 0.084493626454600845 0 -5.6792292385830981e-05 0.084573065545929291 0 -7.5683380448740017e-05 0.084493626454600845 0 -5.6792292385830981e-05 0.084573065545929291 0 -3.8773410167535878e-05 0.084523711827546935 0 -4.6100038601308318e-06 0.084513406678407732 0 -1.6012270807682311e-05 0.084571211226955295 0 3.0668270485341927e-05 0.08462659417233824 0 -5.6792292385830981e-05 0.084573065545929291 0 -3.8773410167535878e-05 0.084523711827546935 0 -1.6012270807682311e-05 0.084571211226955295 0 -5.6792292385830981e-05 0.084573065545929291 0 -1.6012270807682311e-05 0.084571211226955295 0 -8.6087938861333354e-06 0.084614010315344934 0 -4.6100038601308318e-06 0.084513406678407732 0 -3.8773410167535878e-05 0.084523711827546935 0 -1.6012270807682311e-05 0.084571211226955295 0 -1.6012270807682311e-05 0.084571211226955295 0 -8.6087938861333354e-06 0.084614010315344934 0 3.0668270485341927e-05 0.08462659417233824 0 -5.6792292385830981e-05 0.084573065545929291 0 -8.6087938861333354e-06 0.084614010315344934 0 -2.3422043106335738e-05 0.08465754791717478 0 -8.6087938861333354e-06 0.084614010315344934 0 7.623870389299135e-05 0.084682361736594589 0 -2.3422043106335738e-05 0.08465754791717478 0 -0.00011540868544424741 0.08460505823958131 0 -5.6792292385830981e-05 0.084573065545929291 0 -2.3422043106335738e-05 0.08465754791717478 0 -0.00011540868544424741 0.08460505823958131 0 -0.00011653907810334107 0.084554201012944225 0 -5.6792292385830981e-05 0.084573065545929291 0 5.8890906894801098e-05 0.084629497930234859 0 3.0668270485341927e-05 0.08462659417233824 0 5.4241797497044847e-05 0.084707670862898404 0 2.8788175836449323e-05 0.084750971678125064 0 5.8890906894801098e-05 0.084629497930234859 0 5.4241797497044847e-05 0.084707670862898404 0 -4.6100038601308318e-06 0.084513406678407732 0 5.8890906894801098e-05 0.084629497930234859 0 3.0668270485341927e-05 0.08462659417233824 0 3.0668270485341927e-05 0.08462659417233824 0 5.4241797497044847e-05 0.084707670862898404 0 7.623870389299135e-05 0.084682361736594589 0 -8.6087938861333354e-06 0.084614010315344934 0 3.0668270485341927e-05 0.08462659417233824 0 7.623870389299135e-05 0.084682361736594589 0 5.4241797497044847e-05 0.084707670862898404 0 7.623870389299135e-05 0.084682361736594589 0 5.022245041675141e-05 0.084663988028885986 0 7.623870389299135e-05 0.084682361736594589 0 0.00010518998132293224 0.084638780366825539 0 0.00014368801458939317 0.084647873429412074 0 7.623870389299135e-05 0.084682361736594589 0 0.00010518998132293224 0.084638780366825539 0 5.022245041675141e-05 0.084663988028885986 0 0.00010518998132293224 0.084638780366825539 0 5.022245041675141e-05 0.084663988028885986 0 9.7627538033769968e-05 0.084625039733491725 0 4.1468963682927853e-05 0.084767399996467666 0 5.7725625765349071e-05 0.084748286879966356 0 -1.3047456052916772e-06 0.084908592468685748 0 5.4645328786827004e-05 0.084878105000882137 0 9.1006955238776319e-06 0.084906603047944298 0 0.00046470560182933294 0.07514601701605704 0 0.00079876899970876981 0.078607874493354338 0 0.00023859524669054812 0.08466791552432204 0 0.00016691689995253524 0.084683109711052904 0 0.0002109394420957039 0.084628705025454665 0 0.00081128185138444706 0.079615230345653987 0 0.00079876899970876981 0.078607874493354338 0 7.623870389299135e-05 0.084682361736594589 0 0.00016691689995253524 0.084683109711052904 0 0.00014368801458939317 0.084647873429412074 0 0.00016691689995253524 0.084683109711052904 0 0.00014368801458939317 0.084647873429412074 0 0.0002109394420957039 0.084628705025454665 0 0.00010518998132293224 0.084638780366825539 0 0.00014368801458939317 0.084647873429412074 0 0.00015661136228661569 0.084625503924477791 0 0.00014368801458939317 0.084647873429412074 0 0.0002109394420957039 0.084628705025454665 0 0.00015661136228661569 0.084625503924477791 0 0.00027348768925280201 0.084577240035661014 0 0.0002109394420957039 0.084628705025454665 0 0.00021322708877839544 0.084593058581243927 0 0.0002109394420957039 0.084628705025454665 0 0.00021322708877839544 0.084593058581243927 0 0.00015661136228661569 0.084625503924477791 0 0.00027348768925280201 0.084577240035661014 0 0.00021322708877839544 0.084593058581243927 0 0.00025470234770750243 0.084559565595492089 0 0.00010518998132293224 0.084638780366825539 0 0.00015661136228661569 0.084625503924477791 0 0.00012537168334743874 0.084622906281436261 0 0.00021322708877839544 0.084593058581243927 0 0.00015661136228661569 0.084625503924477791 0 0.00012537168334743874 0.084622906281436261 0 0.00012537168334743874 0.084622906281436261 0 0.00021335062993361415 0.084573442388644476 0 0.00013272650627299179 0.084606696640502022 0 0.00012537168334743874 0.084622906281436261 0 8.4468548992575512e-05 0.084682583434689401 0 0.00013272650627299179 0.084606696640502022 0 0.00021322708877839544 0.084593058581243927 0 0.00012537168334743874 0.084622906281436261 0 0.00021335062993361415 0.084573442388644476 0 0.00021322708877839544 0.084593058581243927 0 0.00021335062993361415 0.084573442388644476 0 0.00025470234770750243 0.084559565595492089 0 0.00021335062993361415 0.084573442388644476 0 0.00025470234770750243 0.084559565595492089 0 0.00029013648218525069 0.084529962638403996 0 0.00010518998132293224 0.084638780366825539 0 0.00012537168334743874 0.084622906281436261 0 9.7627538033769968e-05 0.084625039733491725 0 5.7725625765349071e-05 0.084748286879966356 0 6.7736348124777137e-05 0.084728665784545826 0 0.00012537168334743874 0.084622906281436261 0 9.7627538033769968e-05 0.084625039733491725 0 8.4468548992575512e-05 0.084682583434689401 0 5.4645328786827004e-05 0.084878105000882137 0 5.7358554415558256e-06 0.084854719728361741 0 8.4468548992575512e-05 0.084682583434689401 0 5.7358554415558256e-06 0.084854719728361741 0 8.565609443199911e-06 0.084928905793103873 0 3.8510928908260347e-06 0.084924183449173393 0 5.7358554415558256e-06 0.084854719728361741 0 8.565609443199911e-06 0.084928905793103873 0 9.1006955238776319e-06 0.084906603047944298 0 5.4645328786827004e-05 0.084878105000882137 0 5.7358554415558256e-06 0.084854719728361741 0 9.1006955238776319e-06 0.084906603047944298 0 -1.3047456052916772e-06 0.084908592468685748 0 9.1006955238776319e-06 0.084906603047944298 0 2.5279542720144494e-05 0.08490218347457372 0 8.565609443199911e-06 0.084928905793103873 0 9.1006955238776319e-06 0.084906603047944298 0 2.5279542720144494e-05 0.08490218347457372 0 2.9501931969544978e-05 0.084833463262765738 0 2.5279542720144494e-05 0.08490218347457372 0 1.964750487070339e-05 0.084858500852611332 0 2.9501931969544978e-05 0.084833463262765738 0 4.03427253217239e-05 0.084885421668243477 0 2.5279542720144494e-05 0.08490218347457372 0 3.6842740133320677e-05 0.084767807651425886 0 4.1468963682927853e-05 0.084767399996467666 0 1.7309146530083951e-05 0.084769538522204785 0 5.4241797497044847e-05 0.084707670862898404 0 5.022245041675141e-05 0.084663988028885986 0 1.7309146530083951e-05 0.084769538522204785 0 -1.3047456052916772e-06 0.084908592468685748 0 1.964750487070339e-05 0.084858500852611332 0 -1.3047456052916772e-06 0.084908592468685748 0 2.5279542720144494e-05 0.08490218347457372 0 1.964750487070339e-05 0.084858500852611332 0 4.03427253217239e-05 0.084885421668243477 0 6.3559205235289152e-08 0.084999848862494815 0 1.8314928280311896e-05 0.084952319608758792 0 4.03427253217239e-05 0.084885421668243477 0 2.5279542720144494e-05 0.08490218347457372 0 1.8314928280311896e-05 0.084952319608758792 0 8.565609443199911e-06 0.084928905793103873 0 2.5279542720144494e-05 0.08490218347457372 0 1.8314928280311896e-05 0.084952319608758792 0 1.8314928280311896e-05 0.084952319608758792 0 -9.8504380683747651e-10 0.084999947583698818 0 4.4136776965465346e-06 0.084963552477794205 0 6.3559205235289152e-08 0.084999848862494815 0 1.8314928280311896e-05 0.084952319608758792 0 -9.8504380683747651e-10 0.084999947583698818 0 -9.8504380683747651e-10 0.084999947583698818 0 4.4136776965465346e-06 0.084963552477794205 0 -4.4327488406616691e-10 0.084999923132597022 0 8.565609443199911e-06 0.084928905793103873 0 1.8314928280311896e-05 0.084952319608758792 0 4.4136776965465346e-06 0.084963552477794205 0 8.565609443199911e-06 0.084928905793103873 0 4.4136776965465346e-06 0.084963552477794205 0 3.8510928908260347e-06 0.084924183449173393 0 4.4136776965465346e-06 0.084963552477794205 0 3.8510928908260347e-06 0.084924183449173393 0 -4.4327488406616691e-10 0.084999923132597022 0 -4.4327488406616691e-10 0.084999923132597022 0 5.241977703906183e-06 0.08493596997358574 0 5.6467614064988844e-09 0.084999911043302512 0 3.8510928908260347e-06 0.084924183449173393 0 -4.4327488406616691e-10 0.084999923132597022 0 5.241977703906183e-06 0.08493596997358574 0 3.8510928908260347e-06 0.084924183449173393 0 5.241977703906183e-06 0.08493596997358574 0 7.4341022907508457e-06 0.084866940150478673 0 5.241977703906183e-06 0.08493596997358574 0 7.4341022907508457e-06 0.084866940150478673 0 1.2049861339820851e-05 0.084928931657655554 0 5.241977703906183e-06 0.08493596997358574 0 5.6467614064988844e-09 0.084999911043302512 0 1.2049861339820851e-05 0.084928931657655554 0 5.7358554415558256e-06 0.084854719728361741 0 7.4341022907508457e-06 0.084866940150478673 0 2.877785264183519e-05 0.084750834210966644 0 5.7358554415558256e-06 0.084854719728361741 0 3.8510928908260347e-06 0.084924183449173393 0 7.4341022907508457e-06 0.084866940150478673 0 7.4341022907508457e-06 0.084866940150478673 0 1.648968607900292e-05 0.084837744126836284 0 1.2049861339820851e-05 0.084928931657655554 0 7.4341022907508457e-06 0.084866940150478673 0 1.648968607900292e-05 0.084837744126836284 0 2.877785264183519e-05 0.084750834210966644 0 1.648968607900292e-05 0.084837744126836284 0 6.3838800359568869e-06 0.084886939795298766 0 1.6384688331658142e-05 0.084765017442624907 0 1.648968607900292e-05 0.084837744126836284 0 6.3838800359568869e-06 0.084886939795298766 0 1.2049861339820851e-05 0.084928931657655554 0 6.3838800359568869e-06 0.084886939795298766 0 1.2049861339820851e-05 0.084928931657655554 0 4.4240161518518104e-06 0.084958083439025098 0 5.6467614064988844e-09 0.084999911043302512 0 1.2049861339820851e-05 0.084928931657655554 0 1.3479110121782754e-08 0.084999936530671283 0 1.2049861339820851e-05 0.084928931657655554 0 6.4107869212406666e-06 0.084979522992221182 0 4.4240161518518104e-06 0.084958083439025098 0 1.2049861339820851e-05 0.084928931657655554 0 1.3479110121782754e-08 0.084999936530671283 0 6.4107869212406666e-06 0.084979522992221182 0 1.3479110121782754e-08 0.084999936530671283 0 6.4107869212406666e-06 0.084979522992221182 0 9.5727464996862067e-09 0.084999962215767402 0 6.4107869212406666e-06 0.084979522992221182 0 9.5727464996862067e-09 0.084999962215767402 0 3.1139905111242239e-06 0.084992482349917242 0 -8.1388292039258393e-07 0.084998626703198216 0 -0.00015598189301187473 0.084685476608417701 0 -2.0502521283426341e-10 0.084999999870399315 0 -1.0589398706270771e-08 0.084999611686275164 0 2.6365620264680991e-10 0.08499999918833874 0 7.9154828538629858e-07 0.085003468770897997 0 -1.640462362854179e-08 0.084999977210878888 0 1.2557467786195294e-06 0.085000654129484807 0 -0.00015598189301187473 0.084685476608417701 0 -1.1026401903591738e-07 0.08499895452213542 0 -0.0019326563042255033 0.083195284537842321 0 -0.0015089465018843678 0.083200296656914488 0 -0.0014605019777225899 0.083514443454544549 0 -0.0019326563042255033 0.083195284537842321 0 -0.0015089465018843678 0.083200296656914488 0 -0.0014936526397646345 0.082883144275069404 0 7.9154828538629858e-07 0.085003468770897997 0 1.2557467786195294e-06 0.085000654129484807 0 1.2160864117589477e-05 0.085002640169750579 0 -0.00015598189301187473 0.084685476608417701 0 -0.00039922744544392691 0.084297572119001241 0 -0.00015598189301187473 0.084685476608417701 0 -0.00057224603863431905 0.084353808918235795 0 6.4107869212406666e-06 0.084979522992221182 0 3.1139905111242239e-06 0.084992482349917242 0 4.4240161518518104e-06 0.084958083439025098 0 -0.00044908630185387438 0.084393725290825075 0 -0.00057224603863431905 0.084353808918235795 0 -0.00098826900214962874 0.083841805828698338 0 -0.0014605019777225899 0.083514443454544549 0 -0.0011469123570722951 0.083208165872850987 0 -0.00098826900214962874 0.083841805828698338 0 -0.0011469123570722951 0.083208165872850987 0 -0.00070757824932167175 0.08342147261438386 0 -0.0011469123570722951 0.083208165872850987 0 -0.0007271246891263635 0.083024062051300154 0 -0.00070757824932167175 0.08342147261438386 0 -0.0015089465018843678 0.083200296656914488 0 -0.0011469123570722951 0.083208165872850987 0 -0.0014936526397646345 0.082883144275069404 0 -0.0015089465018843678 0.083200296656914488 0 -0.0014605019777225899 0.083514443454544549 0 -0.0011469123570722951 0.083208165872850987 0 -0.00031857027651971235 0.084002064836492529 0 -0.00039922744544392691 0.084297572119001241 0 4.1045006774035947e-05 0.08499047753832574 0 1.2240657342588264e-05 0.084988737766377873 0 1.2160864117589477e-05 0.085002640169750579 0 -0.0011469123570722951 0.083208165872850987 0 -0.0010456901476600423 0.082565138714747285 0 -0.0014936526397646345 0.082883144275069404 0 -0.0010456901476600423 0.082565138714747285 0 -0.00064758796118577033 0.082593136423404614 0 -0.0007271246891263635 0.083024062051300154 0 -0.0011469123570722951 0.083208165872850987 0 -0.0010456901476600423 0.082565138714747285 0 -0.0007271246891263635 0.083024062051300154 0 -0.0010456901476600423 0.082565138714747285 0 -0.00064758796118577033 0.082593136423404614 0 -0.00058914526322933949 0.082249344300107927 0 -0.00031857027651971235 0.084002064836492529 0 -0.00010322112341344009 0.083801591820623578 0 4.1045006774035947e-05 0.08499047753832574 0 1.2240657342588264e-05 0.084988737766377873 0 2.4056544451110736e-05 0.084964872642264835 0 1.2240657342588264e-05 0.084988737766377873 0 -5.4831666205919531e-07 0.084989021330139247 0 7.2032242777299692e-07 0.084998524361755132 0 1.2240657342588264e-05 0.084988737766377873 0 -5.4831666205919531e-07 0.084989021330139247 0 2.4056544451110736e-05 0.084964872642264835 0 3.0441073446614838e-08 0.085000053609147475 0 -5.4831666205919531e-07 0.084989021330139247 0 7.2032242777299692e-07 0.084998524361755132 0 -1.640462362854179e-08 0.084999977210878888 0 3.0441073446614838e-08 0.085000053609147475 0 7.2032242777299692e-07 0.084998524361755132 0 -1.640462362854179e-08 0.084999977210878888 0 7.2032242777299692e-07 0.084998524361755132 0 1.2557467786195294e-06 0.085000654129484807 0 7.2032242777299692e-07 0.084998524361755132 0 1.2557467786195294e-06 0.085000654129484807 0 1.2160864117589477e-05 0.085002640169750579 0 1.2240657342588264e-05 0.084988737766377873 0 7.2032242777299692e-07 0.084998524361755132 0 1.2160864117589477e-05 0.085002640169750579 0 -4.7822499794689647e-05 0.082913175630481867 0 0.0003006006416175366 0.082845420653937879 0 9.4932882710388635e-05 0.08261701587048223 0 0.0003006006416175366 0.082845420653937879 0 0.00034434314733417486 0.082554685747493223 0 9.4932882710388635e-05 0.08261701587048223 0 -4.7822499794689647e-05 0.082913175630481867 0 9.4932882710388635e-05 0.08261701587048223 0 -0.00015948775510561954 0.082621915990376202 0 0.0003006006416175366 0.082845420653937879 0 0.00034434314733417486 0.082554685747493223 0 0.00067050547637056729 0.082608330796399912 0 0.0003006006416175366 0.082845420653937879 0 0.00055647091304284737 0.082985490220062241 0 0.00067050547637056729 0.082608330796399912 0 0.00034434314733417486 0.082554685747493223 0 0.00047704640269526034 0.08234208397558139 0 0.00067050547637056729 0.082608330796399912 0 0.00034434314733417486 0.082554685747493223 0 0.00047704640269526034 0.08234208397558139 0 0.00017083629196372276 0.082356279458082007 0 0.00034434314733417486 0.082554685747493223 0 0.00017083629196372276 0.082356279458082007 0 9.4932882710388635e-05 0.08261701587048223 0 9.4932882710388635e-05 0.08261701587048223 0 -2.2168615619512096e-05 0.082402187521001549 0 -0.00015948775510561954 0.082621915990376202 0 0.00017083629196372276 0.082356279458082007 0 9.4932882710388635e-05 0.08261701587048223 0 -2.2168615619512096e-05 0.082402187521001549 0 0.00017083629196372276 0.082356279458082007 0 -2.2168615619512096e-05 0.082402187521001549 0 -9.1454191149640609e-06 0.082239577185461724 0 -2.2168615619512096e-05 0.082402187521001549 0 -0.00023566016743285076 0.082403242247742883 0 -0.00014005915484842027 0.082251417934716617 0 -0.00023566016743285076 0.082403242247742883 0 -0.00030830894422787143 0.08226319636999023 0 -0.00014005915484842027 0.082251417934716617 0 -0.00023566016743285076 0.082403242247742883 0 -0.00037605084554592853 0.082567145602327141 0 -0.00041988389507703649 0.082392117414568172 0 -0.00023566016743285076 0.082403242247742883 0 -0.00041988389507703649 0.082392117414568172 0 -0.00030830894422787143 0.08226319636999023 0 -0.00023566016743285076 0.082403242247742883 0 -0.00037605084554592853 0.082567145602327141 0 -0.00015948775510561954 0.082621915990376202 0 -2.2168615619512096e-05 0.082402187521001549 0 -0.00023566016743285076 0.082403242247742883 0 -0.00015948775510561954 0.082621915990376202 0 -0.00041988389507703649 0.082392117414568172 0 -0.00064758796118577033 0.082593136423404614 0 -0.00058914526322933949 0.082249344300107927 0 -0.00037605084554592853 0.082567145602327141 0 -0.00041988389507703649 0.082392117414568172 0 -0.00064758796118577033 0.082593136423404614 0 -0.00064758796118577033 0.082593136423404614 0 -0.00037326651126416222 0.082830850813046683 0 -0.0007271246891263635 0.083024062051300154 0 -0.00037605084554592853 0.082567145602327141 0 -0.00064758796118577033 0.082593136423404614 0 -0.00037326651126416222 0.082830850813046683 0 -4.7822499794689647e-05 0.082913175630481867 0 -0.00015948775510561954 0.082621915990376202 0 -0.00037326651126416222 0.082830850813046683 0 -0.00037605084554592853 0.082567145602327141 0 -0.00015948775510561954 0.082621915990376202 0 -0.00037326651126416222 0.082830850813046683 0 -4.7822499794689647e-05 0.082913175630481867 0 -0.00037326651126416222 0.082830850813046683 0 -0.00029783952247037143 0.083294344926708661 0 -0.00037326651126416222 0.082830850813046683 0 -0.00029783952247037143 0.083294344926708661 0 -0.0007271246891263635 0.083024062051300154 0 -0.00029783952247037143 0.083294344926708661 0 -0.0007271246891263635 0.083024062051300154 0 -0.00070757824932167175 0.08342147261438386 0 -0.00098826900214962874 0.083841805828698338 0 -0.00070757824932167175 0.08342147261438386 0 -0.00043350166475692755 0.083737266551030254 0 -0.00029783952247037143 0.083294344926708661 0 -0.00070757824932167175 0.08342147261438386 0 -0.00043350166475692755 0.083737266551030254 0 -0.00029783952247037143 0.083294344926708661 0 1.0307303988778495e-05 0.083651446154377307 0 -0.00043350166475692755 0.083737266551030254 0 1.0307303988778495e-05 0.083651446154377307 0 0.00019391937346474505 0.083238255248800033 0 0.00026609814101159757 0.083569496043906497 0 -0.00029783952247037143 0.083294344926708661 0 1.0307303988778495e-05 0.083651446154377307 0 0.00019391937346474505 0.083238255248800033 0 1.0307303988778495e-05 0.083651446154377307 0 0.00026609814101159757 0.083569496043906497 0 0.00021670854814720989 0.083848434707635963 0 -4.7822499794689647e-05 0.082913175630481867 0 -0.00029783952247037143 0.083294344926708661 0 0.00019391937346474505 0.083238255248800033 0 -4.7822499794689647e-05 0.082913175630481867 0 0.0003006006416175366 0.082845420653937879 0 0.00019391937346474505 0.083238255248800033 0 0.00055647091304284737 0.082985490220062241 0 0.00045437546927030157 0.08339634669331597 0 0.00075302783732849568 0.083090748128317238 0 0.00019391937346474505 0.083238255248800033 0 0.00055647091304284737 0.082985490220062241 0 0.00045437546927030157 0.08339634669331597 0 0.0003006006416175366 0.082845420653937879 0 0.00019391937346474505 0.083238255248800033 0 0.00055647091304284737 0.082985490220062241 0 0.00045437546927030157 0.08339634669331597 0 0.00075302783732849568 0.083090748128317238 0 0.00064012549893695714 0.083650328944459423 0 0.00019391937346474505 0.083238255248800033 0 0.00045437546927030157 0.08339634669331597 0 0.00026609814101159757 0.083569496043906497 0 0.00045437546927030157 0.08339634669331597 0 0.00026609814101159757 0.083569496043906497 0 0.00047624534948103187 0.083724721070363342 0 0.00045437546927030157 0.08339634669331597 0 0.00047624534948103187 0.083724721070363342 0 0.00064012549893695714 0.083650328944459423 0 0.002542121349443077 0.079269788564630517 0 0.0022551817950012621 0.078103524865512308 0 0.00047624534948103187 0.083724721070363342 0 0.00068960999425301812 0.083949911083712955 0 0.00064012549893695714 0.083650328944459423 0 0.00047624534948103187 0.083724721070363342 0 0.0003775113685059081 0.083981123823520562 0 0.00051940013328642719 0.084056020064128198 0 0.0003775113685059081 0.083981123823520562 0 0.00036158365313396782 0.084144807582289413 0 0.00051940013328642719 0.084056020064128198 0 0.0003775113685059081 0.083981123823520562 0 0.00021670854814720989 0.083848434707635963 0 0.00020078556732483843 0.084130783595361677 0 0.00047624534948103187 0.083724721070363342 0 0.0003775113685059081 0.083981123823520562 0 0.00021670854814720989 0.083848434707635963 0 0.00026609814101159757 0.083569496043906497 0 0.00047624534948103187 0.083724721070363342 0 0.00021670854814720989 0.083848434707635963 0 1.0307303988778495e-05 0.083651446154377307 0 0.00021670854814720989 0.083848434707635963 0 -9.582054620819601e-05 0.084030561523959352 0 0.00021670854814720989 0.083848434707635963 0 0.00020078556732483843 0.084130783595361677 0 -9.582054620819601e-05 0.084030561523959352 0 0.00020078556732483843 0.084130783595361677 0 0.00027063159796262111 0.084291673966887679 0 3.9197522883981885e-05 0.084541001812653935 0 0.00020078556732483843 0.084130783595361677 0 -9.582054620819601e-05 0.084030561523959352 0 3.9197522883981885e-05 0.084541001812653935 0 0.00027063159796262111 0.084291673966887679 0 0.00036158365313396782 0.084144807582289413 0 0.00041228191649986322 0.084252998585584035 0 0.00027063159796262111 0.084291673966887679 0 0.00029176458319357462 0.084410380182798811 0 0.00041228191649986322 0.084252998585584035 0 0.00036158365313396782 0.084144807582289413 0 0.00051940013328642719 0.084056020064128198 0 0.00041228191649986322 0.084252998585584035 0 0.00020078556732483843 0.084130783595361677 0 0.00027063159796262111 0.084291673966887679 0 0.00036158365313396782 0.084144807582289413 0 0.0003775113685059081 0.083981123823520562 0 0.00020078556732483843 0.084130783595361677 0 0.00036158365313396782 0.084144807582289413 0 -0.00044908630185387438 0.084393725290825075 0 -0.00024244388773852886 0.084492719623123574 0 -0.00098826900214962874 0.083841805828698338 0 -0.00043350166475692755 0.083737266551030254 0 -0.0005099370757481105 0.084185283398050287 0 -0.00043350166475692755 0.083737266551030254 0 -9.582054620819601e-05 0.084030561523959352 0 -0.0005099370757481105 0.084185283398050287 0 1.0307303988778495e-05 0.083651446154377307 0 -0.00043350166475692755 0.083737266551030254 0 -9.582054620819601e-05 0.084030561523959352 0 -9.582054620819601e-05 0.084030561523959352 0 -0.0005099370757481105 0.084185283398050287 0 3.9197522883981885e-05 0.084541001812653935 0 -0.00024244388773852886 0.084492719623123574 0 -0.00011808374309936995 0.084552977904682095 0 1.648968607900292e-05 0.084837744126836284 0 1.6384688331658142e-05 0.084765017442624907 0 2.877785264183519e-05 0.084750834210966644 0 1.6384688331658142e-05 0.084765017442624907 0 2.877785264183519e-05 0.084750834210966644 0 3.9197522883981885e-05 0.084541001812653935 0 2.877785264183519e-05 0.084750834210966644 0 8.4468548992575512e-05 0.084682583434689401 0 3.9197522883981885e-05 0.084541001812653935 0 5.7358554415558256e-06 0.084854719728361741 0 2.877785264183519e-05 0.084750834210966644 0 8.4468548992575512e-05 0.084682583434689401 0 0.00029176458319357462 0.084410380182798811 0 0.00021979205861541725 0.084526242567281154 0 0.00035297080270421861 0.084434560709232873 0 0.00029176458319357462 0.084410380182798811 0 0.00040994625336966478 0.084354671302645734 0 0.00041228191649986322 0.084252998585584035 0 0.00029176458319357462 0.084410380182798811 0 0.00035297080270421861 0.084434560709232873 0 0.00040994625336966478 0.084354671302645734 0 3.9197522883981885e-05 0.084541001812653935 0 0.00013272650627299179 0.084606696640502022 0 0.00021979205861541725 0.084526242567281154 0 0.00027063159796262111 0.084291673966887679 0 0.00029176458319357462 0.084410380182798811 0 3.9197522883981885e-05 0.084541001812653935 0 0.00029176458319357462 0.084410380182798811 0 3.9197522883981885e-05 0.084541001812653935 0 0.00021979205861541725 0.084526242567281154 0 8.4468548992575512e-05 0.084682583434689401 0 3.9197522883981885e-05 0.084541001812653935 0 0.00013272650627299179 0.084606696640502022 0 0.00021335062993361415 0.084573442388644476 0 0.00013272650627299179 0.084606696640502022 0 0.00021979205861541725 0.084526242567281154 0 0.00021335062993361415 0.084573442388644476 0 0.00021979205861541725 0.084526242567281154 0 0.00028048133582024272 0.084518312439499824 0 0.00021979205861541725 0.084526242567281154 0 0.00028048133582024272 0.084518312439499824 0 0.00035297080270421861 0.084434560709232873 0 0.00021335062993361415 0.084573442388644476 0 0.00028048133582024272 0.084518312439499824 0 0.00029013648218525069 0.084529962638403996 0 0.00029013648218525069 0.084529962638403996 0 0.00033553129072901576 0.084497761907474253 0 0.00033976329290856094 0.084488044269139487 0 0.00028048133582024272 0.084518312439499824 0 0.00029013648218525069 0.084529962638403996 0 0.00033976329290856094 0.084488044269139487 0 0.00030301748707945618 0.08452657984986009 0 0.00033553129072901576 0.084497761907474253 0 0.00033497200059026867 0.08447080248506765 0 0.00033553129072901576 0.084497761907474253 0 0.00035617300764343303 0.084483667789270217 0 0.00033497200059026867 0.08447080248506765 0 0.00033553129072901576 0.084497761907474253 0 0.00035617300764343303 0.084483667789270217 0 0.00036110041223955651 0.084482140833223682 0 0.00035617300764343303 0.084483667789270217 0 0.00036110041223955651 0.084482140833223682 0 0.00039632357115536836 0.084475718963202009 0 0.00033553129072901576 0.084497761907474253 0 0.00036110041223955651 0.084482140833223682 0 0.00033976329290856094 0.084488044269139487 0 0.00036110041223955651 0.084482140833223682 0 0.00033976329290856094 0.084488044269139487 0 0.00038930458121094443 0.084450574602269027 0 0.00036110041223955651 0.084482140833223682 0 0.00038930458121094443 0.084450574602269027 0 0.00039632357115536836 0.084475718963202009 0 0.00028048133582024272 0.084518312439499824 0 0.00033976329290856094 0.084488044269139487 0 0.00035297080270421861 0.084434560709232873 0 0.00038930458121094443 0.084450574602269027 0 0.00040994625336966478 0.084354671302645734 0 0.00052016335352919032 0.084267890663343087 0 0.00035297080270421861 0.084434560709232873 0 0.00038930458121094443 0.084450574602269027 0 0.00040994625336966478 0.084354671302645734 0 -0.00032730992824146651 0.075260820847994375 0 0.0013812450023176815 0.075585702519187226 0 0.00033976329290856094 0.084488044269139487 0 0.00035297080270421861 0.084434560709232873 0 0.00038930458121094443 0.084450574602269027 0 0.00038930458121094443 0.084450574602269027 0 0.00039632357115536836 0.084475718963202009 0 0.00052016335352919032 0.084267890663343087 0 0.00059010724262268353 0.070587179875190795 0 0.0012731142010328953 0.070357874390355318 0 -0.00018809145749111827 0.072363244596228254 0 0.00069309100149792121 0.071305318751366267 0 0.0012144172586797581 0.074379684739555002 0 0.00059010724262268353 0.070587179875190795 0 0.00050208129571634283 0.066965689279956137 0 0.00059010724262268353 0.070587179875190795 0 0.0013812450023176815 0.075585702519187226 0 0.00059010724262268353 0.070587179875190795 0 -0.00032730992824146651 0.075260820847994375 0 0.00059010724262268353 0.070587179875190795 0 -0.00027347541549312224 0.069159204820375936 0 0.000356228685199287 0.084361725555704342 0 0.0003226548518627299 0.084408701497488317 0 0.00033497200059026867 0.08447080248506765 0 0.000356228685199287 0.084361725555704342 0 0.00033497200059026867 0.08447080248506765 0 0.00038259900213074335 0.084451995631862412 0 -0.00032730992824146651 0.075260820847994375 0 -0.00015444008044744552 0.076491647536629848 0 0.00035617300764343303 0.084483667789270217 0 0.00039632357115536836 0.084475718963202009 0 0.00033497200059026867 0.08447080248506765 0 -0.0031924711629723272 0.057344449290230644 0 -0.0023656328885879188 0.058538224157108257 0 -0.0021278131959648243 0.057535118515399726 0 -0.0023656328885879188 0.058538224157108257 0 -0.0014720232441527332 0.058236167169541206 0 -0.0021278131959648243 0.057535118515399726 0 -0.0011673882627973896 0.057739085978258699 0 -0.0008309482202330979 0.057224628305881355 0 -0.00073189273467415847 0.058249280780726817 0 -0.0014720232441527332 0.058236167169541206 0 -0.001565641825057057 0.057674885521557473 0 -0.0011673882627973896 0.057739085978258699 0 -0.0014720232441527332 0.058236167169541206 0 -0.001565641825057057 0.057674885521557473 0 -0.0021278131959648243 0.057535118515399726 0 -0.0014720232441527332 0.058236167169541206 0 -0.0011673882627973896 0.057739085978258699 0 -0.00073189273467415847 0.058249280780726817 0 -0.0008309482202330979 0.057224628305881355 0 -0.0012176281899630552 0.056700844260699844 0 -0.00064755545056036545 0.056190905506679649 0 -0.0011673882627973896 0.057739085978258699 0 -0.0008309482202330979 0.057224628305881355 0 -0.0014148050532993997 0.057259116380538946 0 -0.001565641825057057 0.057674885521557473 0 -0.0014148050532993997 0.057259116380538946 0 -0.0021278131959648243 0.057535118515399726 0 -0.001565641825057057 0.057674885521557473 0 -0.0011673882627973896 0.057739085978258699 0 -0.0014148050532993997 0.057259116380538946 0 -0.0014148050532993997 0.057259116380538946 0 -0.0012176281899630552 0.056700844260699844 0 -0.0017797470500217679 0.056882722171659982 0 -0.0008309482202330979 0.057224628305881355 0 -0.0014148050532993997 0.057259116380538946 0 -0.0012176281899630552 0.056700844260699844 0 -0.0031924711629723272 0.057344449290230644 0 -0.0021278131959648243 0.057535118515399726 0 -0.0024371425498925787 0.056766983809255232 0 -0.0010944569057969871 0.068469279889475571 0 4.6239101869101657e-05 0.067622704571438735 0 0.00039192573151248931 0.066678336419898648 0 -0.0014148050532993997 0.057259116380538946 0 -0.0021278131959648243 0.057535118515399726 0 -0.0017797470500217679 0.056882722171659982 0 -0.0021278131959648243 0.057535118515399726 0 -0.0017797470500217679 0.056882722171659982 0 -0.0024371425498925787 0.056766983809255232 0 0.00050208129571634283 0.066965689279956137 0 8.9437443138780558e-05 0.06483350071390756 0 -0.0017797470500217679 0.056882722171659982 0 -0.0024371425498925787 0.056766983809255232 0 -0.0016989485011664248 0.056150411331646895 0 4.6239101869101657e-05 0.067622704571438735 0 0.00039192573151248931 0.066678336419898648 0 0.0011505353696152224 0.066723372690475929 0 0.0012731142010328953 0.070357874390355318 0 8.9437443138780558e-05 0.06483350071390756 0 -0.0035949319997276284 0.054116834572955984 0 -0.0029834075480801806 0.054135404344974589 0 -0.0028150909475130334 0.05345073486157878 0 8.9437443138780558e-05 0.06483350071390756 0 -0.0014032499352050255 0.054706742725007307 0 0.0057957214427384052 0.078076561303583258 0 0.005113471130563812 0.078041252647769649 0 0.0045044966974726978 0.07954646747734663 0 -0.0012176281899630552 0.056700844260699844 0 -0.0016989485011664248 0.056150411331646895 0 -0.00064755545056036545 0.056190905506679649 0 -0.0012176281899630552 0.056700844260699844 0 -0.0017797470500217679 0.056882722171659982 0 -0.0016989485011664248 0.056150411331646895 0 0.0016494337888722018 0.074791650974721902 0 0.0011975633399145195 0.075434159834691025 0 0.0010900554483643707 0.075510273514165616 0 8.9437443138780558e-05 0.06483350071390756 0 -0.001882184006129202 0.063358961071116091 0 0.005113471130563812 0.078041252647769649 0 0.0045044966974726978 0.07954646747734663 0 0.0033605836281097542 0.079559984913867884 0 0.0012731142010328953 0.070357874390355318 0 0.0011973597456855516 0.075388716878124554 0 0.0011651446448621128 0.075597477548101047 0 0.0013756586821809056 0.075796438399332394 0 0.0011385040570625266 0.075867588073953593 0 0.0011975633399145195 0.075434159834691025 0 0.0010900554483643707 0.075510273514165616 0 0.00075982999025500262 0.076036776141739884 0 0.001510221560945569 0.075200743371484136 0 0.0015738208055860103 0.075600491286304874 0 0.001914273636092595 0.075578639381024354 0 0.001510221560945569 0.075200743371484136 0 0.0011651446448621128 0.075597477548101047 0 0.0015738208055860103 0.075600491286304874 0 0.0012731142010328953 0.070357874390355318 0 0.00028997110922871741 0.073183804420987195 0 0.0011651446448621128 0.075597477548101047 0 0.0015738208055860103 0.075600491286304874 0 0.0013756586821809056 0.075796438399332394 0 0.0015738208055860103 0.075600491286304874 0 0.0017841181326105873 0.075948650167923279 0 0.0013756586821809056 0.075796438399332394 0 0.0015738208055860103 0.075600491286304874 0 0.001914273636092595 0.075578639381024354 0 0.0017841181326105873 0.075948650167923279 0 0.0014480410175476699 0.076069751288031395 0 0.0020858657551549786 0.079688307573404865 0 0.001914273636092595 0.075578639381024354 0 0.0022289705948476336 0.075256650367889366 0 0.0023294932469253428 0.075868481524140177 0 0.00068960999425301812 0.083949911083712955 0 0.00076947902051183929 0.083628377975575083 0 0.00064012549893695714 0.083650328944459423 0 0.00068960999425301812 0.083949911083712955 0 0.00084052016682691836 0.084068839827535422 0 0.00076947902051183929 0.083628377975575083 0 0.00068960999425301812 0.083949911083712955 0 0.00084052016682691836 0.084068839827535422 0 0.00077823425774650485 0.084069645105924504 0 0.001399901069760547 0.075565322305902793 0 0.00080423627986471317 0.075571859588010548 0 0.0015882827708616342 0.076704538813393813 0 0.0014480410175476699 0.076069751288031395 0 0.001752633403506538 0.076363815553773431 0 0.00051940013328642719 0.084056020064128198 0 0.00051835308810859284 0.084173286509431983 0 0.00041228191649986322 0.084252998585584035 0 0.0022551817950012621 0.078103524865512308 0 0.001752633403506538 0.076363815553773431 0 0.00051835308810859284 0.084173286509431983 0 0.00041228191649986322 0.084252998585584035 0 0.00052016335352919032 0.084267890663343087 0 0.00040994625336966478 0.084354671302645734 0 0.00041228191649986322 0.084252998585584035 0 0.00052016335352919032 0.084267890663343087 0 0.0014480410175476699 0.076069751288031395 0 0.0013812450023176815 0.075585702519187226 0 0.001752633403506538 0.076363815553773431 0 0.0013812450023176815 0.075585702519187226 0 0.001510221560945569 0.075200743371484136 0 0.001914273636092595 0.075578639381024354 0 0.0022289705948476336 0.075256650367889366 0 0.0012731142010328953 0.070357874390355318 0 0.0014480410175476699 0.076069751288031395 0 0.0010006595817989201 0.072690956754667593 0 2.7312804726951107e-05 0.072637577094032457 0 6.3276964962069473e-05 0.072857344325150009 0 0.00042620843185814264 0.073378823909359445 0 0.0010006595817989201 0.072690956754667593 0 6.3276964962069473e-05 0.072857344325150009 0 -0.0050781282460675842 0.023263671382070424 0 -0.0051867484101276564 0.023768831258820136 0 -0.0057428839217631778 0.023395496969394972 0 -0.0050781282460675842 0.023263671382070424 0 -0.004817508336638133 0.023718918974057059 0 -0.0051867484101276564 0.023768831258820136 0 -0.0048177455684478175 0.022916004498714764 0 -0.0050781282460675842 0.023263671382070424 0 -0.0052870666393981455 0.022653999216500482 0 -0.0048177455684478175 0.022916004498714764 0 -0.0050781282460675842 0.023263671382070424 0 -0.0046921363268022011 0.023353308250668725 0 -0.0050781282460675842 0.023263671382070424 0 -0.0046921363268022011 0.023353308250668725 0 -0.004817508336638133 0.023718918974057059 0 -0.0046921363268022011 0.023353308250668725 0 -0.0045186088441546042 0.023719431948963428 0 -0.004817508336638133 0.023718918974057059 0 -0.0046921363268022011 0.023353308250668725 0 -0.0045432147096023607 0.023144412324667355 0 -0.0044025057874537699 0.023413117777128345 0 -0.0046921363268022011 0.023353308250668725 0 -0.0044025057874537699 0.023413117777128345 0 -0.0045186088441546042 0.023719431948963428 0 -0.0048177455684478175 0.022916004498714764 0 -0.0046921363268022011 0.023353308250668725 0 -0.0045432147096023607 0.023144412324667355 0 -0.0003862083858843101 0.045425325964924684 0 -0.0010505725320236977 0.043528342840715523 0 -0.0045432147096023607 0.023144412324667355 0 -0.0043295882884835978 0.023154926288099641 0 -0.0044025057874537699 0.023413117777128345 0 -0.0046007941894853433 0.022903040390548177 0 -0.0045432147096023607 0.023144412324667355 0 -0.0043295882884835978 0.023154926288099641 0 -0.0008309482202330979 0.057224628305881355 0 -0.00073189273467415847 0.058249280780726817 0 -0.00015581321457628473 0.057247589283025729 0 -0.0010505725320236977 0.043528342840715523 0 -0.0024720821660141274 0.044490030230262614 0 -0.0008309482202330979 0.057224628305881355 0 -0.00015581321457628473 0.057247589283025729 0 -0.00064755545056036545 0.056190905506679649 0 -0.00015581321457628473 0.057247589283025729 0 -0.00064755545056036545 0.056190905506679649 0 0.00041358157394321148 0.056235932038489776 0 -0.0029834075480801806 0.054135404344974589 0 -0.0028150909475130334 0.05345073486157878 0 -0.0023668089747120196 0.054156939833073098 0 -0.0014032499352050255 0.054706742725007307 0 -0.0024720821660141274 0.044490030230262614 0 -0.0028150909475130334 0.05345073486157878 0 -0.0019879264145734811 0.053481765152631124 0 -0.0023668089747120196 0.054156939833073098 0 -0.0042445911967078894 0.024554258704764211 0 -0.0038867601363399922 0.023942441567132898 0 -0.0045195444952870131 0.023860927658568218 0 -0.0026165694223269022 0.041485033980186332 0 -0.0024720821660141274 0.044490030230262614 0 -0.0024720821660141274 0.044490030230262614 0 -0.0043659280652134924 0.038516670963278571 0 -0.0043659280652134924 0.038516670963278571 0 -0.0048856311021476077 0.036697669504308805 0 -0.0042445911967078894 0.024554258704764211 0 -0.0045195444952870131 0.023860927658568218 0 -0.0049966730508617559 0.024431021505358561 0 -0.0042445911967078894 0.024554258704764211 0 -0.0049966730508617559 0.024431021505358561 0 -0.0045949190469697929 0.025203848657110967 0 -0.0049966730508617559 0.024431021505358561 0 -0.0056489140836005767 0.02407160913035165 0 -0.0055199882473497466 0.024680562967963608 0 -0.0049966730508617559 0.024431021505358561 0 -0.0051935394893054569 0.02489963368193418 0 -0.0055199882473497466 0.024680562967963608 0 -0.0049966730508617559 0.024431021505358561 0 -0.0051867484101276564 0.023768831258820136 0 -0.0056489140836005767 0.02407160913035165 0 -0.0045195444952870131 0.023860927658568218 0 -0.0049966730508617559 0.024431021505358561 0 -0.0051867484101276564 0.023768831258820136 0 -0.0049708457264415343 0.025970106501667065 0 -0.0050911334459919711 0.025701224960363939 0 -0.0045949190469697929 0.025203848657110967 0 -0.0053306351508511495 0.025841648759484317 0 -0.0050911334459919711 0.025701224960363939 0 -0.0051609904366469745 0.026077187735408368 0 -0.0053306351508511495 0.025841648759484317 0 -0.0050911334459919711 0.025701224960363939 0 -0.0053653305254814402 0.025532739968174185 0 -0.0053306351508511495 0.025841648759484317 0 -0.0053653305254814402 0.025532739968174185 0 -0.0056063178894414922 0.025797893125909938 0 -0.0049708457264415343 0.025970106501667065 0 -0.0050911334459919711 0.025701224960363939 0 -0.0052077891270315771 0.026176538911494962 0 -0.0081024607761795812 0.041088351542164239 0 -0.0086638054888607888 0.043780585981068737 0 -0.0050911334459919711 0.025701224960363939 0 -0.0050678075965228898 0.025276167881684217 0 -0.0045949190469697929 0.025203848657110967 0 -0.0050911334459919711 0.025701224960363939 0 -0.0053653305254814402 0.025532739968174185 0 -0.0050678075965228898 0.025276167881684217 0 -0.0053653305254814402 0.025532739968174185 0 -0.0054131217470398951 0.025141185769600099 0 -0.0050678075965228898 0.025276167881684217 0 -0.0049966730508617559 0.024431021505358561 0 -0.0051935394893054569 0.02489963368193418 0 -0.0045949190469697929 0.025203848657110967 0 -0.0054131217470398951 0.025141185769600099 0 -0.0051935394893054569 0.02489963368193418 0 -0.0050678075965228898 0.025276167881684217 0 -0.0051935394893054569 0.02489963368193418 0 -0.0050678075965228898 0.025276167881684217 0 -0.0045949190469697929 0.025203848657110967 0 -0.0054131217470398951 0.025141185769600099 0 -0.0051935394893054569 0.02489963368193418 0 -0.0055199882473497466 0.024680562967963608 0 -0.0019879264145734811 0.053481765152631124 0 -0.0016062590486347907 0.052804804505567488 0 -0.0020246786358006389 0.052786033648702164 0 -0.0026165694223269022 0.041485033980186332 0 -0.0039631781839835414 0.041851761404035862 0 -0.0077509340397451483 0.047004754622056513 0 -0.0047190625684284853 0.059147972276149534 0 -0.0077509340397451483 0.047004754622056513 0 -0.0039631781839835414 0.041851761404035862 0 -0.0012257646187726835 0.052122212200746164 0 -0.0016062590486347907 0.052804804505567488 0 -0.0020246786358006389 0.052786033648702164 0 0.0012783956548307201 0.082073210986301146 0 0.0017073318372000019 0.081898174719436903 0 0.001866334786943834 0.081079569478286567 0 0.0017073318372000019 0.081898174719436903 0 0.0024062934205652414 0.081773536527082386 0 0.0017205879670036742 0.082383330068934946 0 0.0016624962571888627 0.082724882951782167 0 0.0015486201708150684 0.082729795503250186 0 0.0016307461778883256 0.082539791823247194 0 0.0024062934205652414 0.081773536527082386 0 0.001866334786943834 0.081079569478286567 0 0.0025870925938264074 0.081090734222703173 0 0.0017073318372000019 0.081898174719436903 0 0.0024062934205652414 0.081773536527082386 0 0.001866334786943834 0.081079569478286567 0 -0.0028150909475130334 0.05345073486157878 0 -0.0019879264145734811 0.053481765152631124 0 -0.0020246786358006389 0.052786033648702164 0 0.0033605836281097542 0.079559984913867884 0 0.001866334786943834 0.081079569478286567 0 0.0025870925938264074 0.081090734222703173 0 -0.001882184006129202 0.063358961071116091 0 -0.0047190625684284853 0.059147972276149534 0 0.0011917766557412426 0.078776213669860165 0 0.00099490300971103091 0.078714299929979803 0 0.0045044966974726978 0.07954646747734663 0 0.0033605836281097542 0.079559984913867884 0 0.0032790886709859672 0.080958224390830474 0 0.0033605836281097542 0.079559984913867884 0 0.0025870925938264074 0.081090734222703173 0 0.0032790886709859672 0.080958224390830474 0 0.0010900554483643707 0.075510273514165616 0 0.00056491293623999242 0.076176349075038341 0 0.00075982999025500262 0.076036776141739884 0 0.0011973597456855516 0.075388716878124554 0 0.00099490300971103091 0.078714299929979803 0 0.00157041810465961 0.082922549124588976 0 0.0015486201708150684 0.082729795503250186 0 0.0014526868155426322 0.082849912683740048 0 0.0016624962571888627 0.082724882951782167 0 0.00157041810465961 0.082922549124588976 0 0.0015486201708150684 0.082729795503250186 0 0.00080875433107564039 0.080160733389096434 0 0.00099490300971103091 0.078714299929979803 0 0.0024062934205652414 0.081773536527082386 0 0.0025870925938264074 0.081090734222703173 0 0.0031533164051621271 0.081005114822101362 0 0.0015696738716291104 0.082574866759862947 0 0.0014554578277476984 0.082703952113631865 0 0.0014873356067346257 0.082560383882505292 0 0.0015486201708150684 0.082729795503250186 0 0.0015696738716291104 0.082574866759862947 0 0.0014554578277476984 0.082703952113631865 0 0.0015486201708150684 0.082729795503250186 0 0.0015696738716291104 0.082574866759862947 0 0.0016307461778883256 0.082539791823247194 0 0.0015696738716291104 0.082574866759862947 0 0.0015689719275808717 0.082551746975416146 0 0.0014873356067346257 0.082560383882505292 0 0.0015689719275808717 0.082551746975416146 0 0.0014873356067346257 0.082560383882505292 0 0.0015039759686994092 0.082564194178576966 0 0.0015689719275808717 0.082551746975416146 0 0.0015906133901731759 0.082474399390134179 0 0.0016008362287782945 0.082606794817677381 0 0.0015696738716291104 0.082574866759862947 0 0.0015689719275808717 0.082551746975416146 0 0.0015906133901731759 0.082474399390134179 0 0.0015906133901731759 0.082474399390134179 0 0.0016307461778883256 0.082539791823247194 0 0.0017205879670036742 0.082383330068934946 0 0.0015696738716291104 0.082574866759862947 0 0.0015906133901731759 0.082474399390134179 0 0.0016307461778883256 0.082539791823247194 0 0.0016624962571888627 0.082724882951782167 0 0.0016307461778883256 0.082539791823247194 0 0.0017205879670036742 0.082383330068934946 0 0.00080875433107564039 0.080160733389096434 0 0.00075622588656550798 0.080590791704419698 0 0.0012783956548307201 0.082073210986301146 0 0.0017073318372000019 0.081898174719436903 0 0.0015283654026123762 0.082262361868678718 0 0.0017073318372000019 0.081898174719436903 0 0.0017205879670036742 0.082383330068934946 0 0.0015283654026123762 0.082262361868678718 0 0.0012783956548307201 0.082073210986301146 0 0.0015283654026123762 0.082262361868678718 0 0.0014498935691101681 0.082264888361349264 0 0.0015283654026123762 0.082262361868678718 0 0.0015265546798807982 0.082332591711935993 0 0.0014498935691101681 0.082264888361349264 0 0.0015283654026123762 0.082262361868678718 0 0.0015894324218637291 0.082389911209090075 0 0.0015265546798807982 0.082332591711935993 0 0.0017205879670036742 0.082383330068934946 0 0.0015283654026123762 0.082262361868678718 0 0.0015894324218637291 0.082389911209090075 0 0.0015906133901731759 0.082474399390134179 0 0.0017205879670036742 0.082383330068934946 0 0.0015894324218637291 0.082389911209090075 0 0.0015906133901731759 0.082474399390134179 0 0.0015894324218637291 0.082389911209090075 0 0.0015267827501528118 0.082301357624749522 0 -0.00048718473904218584 0.080485430599415944 0 -0.00087655538654131827 0.079816956907757003 0 0.0015906133901731759 0.082474399390134179 0 0.0015267827501528118 0.082301357624749522 0 0.0013934181784210334 0.082021221761560029 0 0.0015267827501528118 0.082301357624749522 0 0.0015543456922507571 0.082281829668160611 0 0.0015771724660387848 0.082178013528181063 0 0.0015267827501528118 0.082301357624749522 0 0.0015771724660387848 0.082178013528181063 0 0.0013934181784210334 0.082021221761560029 0 0.0015267827501528118 0.082301357624749522 0 0.0015265546798807982 0.082332591711935993 0 0.0015543456922507571 0.082281829668160611 0 0.0015894324218637291 0.082389911209090075 0 0.0015267827501528118 0.082301357624749522 0 0.0015265546798807982 0.082332591711935993 0 0.0015265546798807982 0.082332591711935993 0 0.0015339248025303303 0.082283374389984315 0 0.0015543456922507571 0.082281829668160611 0 0.0015339248025303303 0.082283374389984315 0 0.0015543456922507571 0.082281829668160611 0 0.001638588198319791 0.082257043142826738 0 0.0015771724660387848 0.082178013528181063 0 0.001638588198319791 0.082257043142826738 0 0.0016913490947298763 0.081993227318109568 0 0.0015543456922507571 0.082281829668160611 0 0.0015771724660387848 0.082178013528181063 0 0.001638588198319791 0.082257043142826738 0 0.001638588198319791 0.082257043142826738 0 0.0017406819539297193 0.082287815673622644 0 0.0016913490947298763 0.081993227318109568 0 -0.0084673257300461394 0.04870767341143295 0 -0.00893133889012185 0.048333253396595111 0 -0.011091493695317462 0.039270696326519812 0 -0.013090032494941518 0.048662402954260005 0 -0.0083479450797942622 0.040339622699449344 0 -0.00893133889012185 0.048333253396595111 0 -0.0098474568891294221 0.047177815347135263 0 -0.00893133889012185 0.048333253396595111 0 -0.01263802978290178 0.043515257660595524 0 -0.0098474568891294221 0.047177815347135263 0 -0.01263802978290178 0.043515257660595524 0 0.0015339248025303303 0.082283374389984315 0 0.0016131524438079002 0.082252190703055478 0 0.0014524253651305198 0.082260705676914403 0 0.0015339248025303303 0.082283374389984315 0 0.001638588198319791 0.082257043142826738 0 0.0016131524438079002 0.082252190703055478 0 -0.012839330946165814 0.042883576227561677 0 -0.013056189691501146 0.043910434523263549 0 -0.010457088519255106 0.04178810011321709 0 0.0015265546798807982 0.082332591711935993 0 0.0015339248025303303 0.082283374389984315 0 0.0014498935691101681 0.082264888361349264 0 0.0015339248025303303 0.082283374389984315 0 0.0014524253651305198 0.082260705676914403 0 0.0014498935691101681 0.082264888361349264 0 -0.0076975693392138276 0.046086552871665638 0 -0.007615708458947908 0.045965113482145062 0 -0.0076379906931087005 0.046044674372919113 0 0.0012783956548307201 0.082073210986301146 0 0.0014524253651305198 0.082260705676914403 0 0.0014498935691101681 0.082264888361349264 0 -0.0077509340397451483 0.047004754622056513 0 -0.0098474568891294221 0.047177815347135263 0 -0.0077509340397451483 0.047004754622056513 0 -0.0086638054888607888 0.043780585981068737 0 -0.0053306351508511495 0.025841648759484317 0 -0.0051609904366469745 0.026077187735408368 0 -0.005560995177305037 0.026093548401082124 0 -0.0098474568891294221 0.047177815347135263 0 -0.0086638054888607888 0.043780585981068737 0 0.00093733297403498248 0.083094485629191459 0 0.0011162395005701084 0.082869705011512432 0 0.00088031093157115901 0.082871548551689808 0 0.00093733297403498248 0.083094485629191459 0 0.0011162395005701084 0.082869705011512432 0 0.0011050245805268536 0.083177353255756467 0 0.00093733297403498248 0.083094485629191459 0 0.00075302783732849568 0.083090748128317238 0 0.00088031093157115901 0.082871548551689808 0 0.00055647091304284737 0.082985490220062241 0 0.00075302783732849568 0.083090748128317238 0 0.00088031093157115901 0.082871548551689808 0 0.00093733297403498248 0.083094485629191459 0 0.00075302783732849568 0.083090748128317238 0 0.00082985431318514968 0.083254698254080786 0 0.0020663538640433858 0.081028449429016769 0 0.0020858657551549786 0.079688307573404865 0 0.00075302783732849568 0.083090748128317238 0 0.00083333267004158113 0.083619924131111092 0 0.00064012549893695714 0.083650328944459423 0 0.0020858657551549786 0.079688307573404865 0 0.0019633563139832069 0.079772718625502129 0 0.0020858657551549786 0.079688307573404865 0 0.0015405330427826916 0.07946157218266614 0 0.001914273636092595 0.075578639381024354 0 0.0023294932469253428 0.075868481524140177 0 0.0017841181326105873 0.075948650167923279 0 0.00093733297403498248 0.083094485629191459 0 0.00082985431318514968 0.083254698254080786 0 0.0011050245805268536 0.083177353255756467 0 0.0011050245805268536 0.083177353255756467 0 0.00136865555701959 0.083038456909623429 0 0.0013159395101695357 0.08287049603469275 0 0.0015405330427826916 0.07946157218266614 0 0.0012381949736978246 0.079166487877534913 0 0.0017841181326105873 0.075948650167923279 0 0.0013756586821809056 0.075796438399332394 0 0.0012316070985269917 0.076044437151573316 0 0.00099490300971103091 0.078714299929979803 0 0.0012381949736978246 0.079166487877534913 0 0.00056491293623999242 0.076176349075038341 0 0.00075982999025500262 0.076036776141739884 0 0.0012316070985269917 0.076044437151573316 0 0.00157041810465961 0.082922549124588976 0 0.00136865555701959 0.083038456909623429 0 0.0014526868155426322 0.082849912683740048 0 0.0011651446448621128 0.075597477548101047 0 0.00075982999025500262 0.076036776141739884 0 0.0011385040570625266 0.075867588073953593 0 0.00075982999025500262 0.076036776141739884 0 0.0011385040570625266 0.075867588073953593 0 0.0012316070985269917 0.076044437151573316 0 0.00028997110922871741 0.073183804420987195 0 4.5995982145967381e-05 0.073971131498349413 0 0.0013756586821809056 0.075796438399332394 0 0.0011385040570625266 0.075867588073953593 0 0.0012316070985269917 0.076044437151573316 0 0.00136865555701959 0.083038456909623429 0 0.0014526868155426322 0.082849912683740048 0 0.0013159395101695357 0.08287049603469275 0 0.0014526868155426322 0.082849912683740048 0 0.0013159395101695357 0.08287049603469275 0 0.0014554578277476984 0.082703952113631865 0 0.0015486201708150684 0.082729795503250186 0 0.0014526868155426322 0.082849912683740048 0 0.0014554578277476984 0.082703952113631865 0 0.0011162395005701084 0.082869705011512432 0 0.0011050245805268536 0.083177353255756467 0 0.0013159395101695357 0.08287049603469275 0 0.0011162395005701084 0.082869705011512432 0 0.0013159395101695357 0.08287049603469275 0 0.0013250906942874543 0.08267935290679615 0 0.0013250906942874543 0.08267935290679615 0 0.0014554578277476984 0.082703952113631865 0 0.0014873356067346257 0.082560383882505292 0 0.0013159395101695357 0.08287049603469275 0 0.0013250906942874543 0.08267935290679615 0 0.0014554578277476984 0.082703952113631865 0 0.0013250906942874543 0.08267935290679615 0 0.0014873356067346257 0.082560383882505292 0 0.001344614857132006 0.082500435553658519 0 0.0013250906942874543 0.08267935290679615 0 0.001344614857132006 0.082500435553658519 0 0.0010705950944052323 0.082638507505049946 0 0.001344614857132006 0.082500435553658519 0 0.0010705950944052323 0.082638507505049946 0 0.00093546287193066067 0.082265647084708293 0 0.0011162395005701084 0.082869705011512432 0 0.0010705950944052323 0.082638507505049946 0 0.00088031093157115901 0.082871548551689808 0 0.0011162395005701084 0.082869705011512432 0 0.0013250906942874543 0.08267935290679615 0 0.0010705950944052323 0.082638507505049946 0 0.0010705950944052323 0.082638507505049946 0 0.00088031093157115901 0.082871548551689808 0 0.00067050547637056729 0.082608330796399912 0 0.00055647091304284737 0.082985490220062241 0 0.00088031093157115901 0.082871548551689808 0 0.00067050547637056729 0.082608330796399912 0 0.00047704640269526034 0.08234208397558139 0 0.00067050547637056729 0.082608330796399912 0 0.00093546287193066067 0.082265647084708293 0 0.0010705950944052323 0.082638507505049946 0 0.00067050547637056729 0.082608330796399912 0 0.00093546287193066067 0.082265647084708293 0 0.00096391161344319372 0.082800232852830516 0 0.00068049678239901238 0.08301892804724606 0 0.0013882038412576243 0.082528861218434307 0 0.0013811199698726478 0.082528372468159347 0 0.0013607692958311518 0.082539090809779794 0 0.00047704640269526034 0.08234208397558139 0 0.00093546287193066067 0.082265647084708293 0 0.00047089808193346699 0.082080763269185994 0 0.0013811199698726478 0.082528372468159347 0 0.0013848697299902936 0.082524371698275673 0 0.0013640912237681791 0.082521348292869598 0 0.00080900623916102478 0.082975721316657564 0 0.00061438989718438539 0.083173304165079356 0 0.00015696700467460328 0.083166716527049267 0 -0.00013473583412596448 0.083244472762489891 0 -9.5109329921818571e-05 0.083065546667207418 0 0.0013848697299902936 0.082524371698275673 0 0.0013870138295924593 0.082532049892380166 0 0.0014280500367458895 0.082540384280375717 0 0.0013811199698726478 0.082528372468159347 0 0.0013848697299902936 0.082524371698275673 0 0.0013870138295924593 0.082532049892380166 0 0.0013882038412576243 0.082528861218434307 0 0.0013811199698726478 0.082528372468159347 0 0.0013870138295924593 0.082532049892380166 0 0.001344614857132006 0.082500435553658519 0 0.0013882038412576243 0.082528861218434307 0 0.0013870138295924593 0.082532049892380166 0 0.0010829279425160555 0.082752002788461357 0 0.00096391161344319372 0.082800232852830516 0 0.001344614857132006 0.082500435553658519 0 0.0013870138295924593 0.082532049892380166 0 0.0014177874938130111 0.082531386544519775 0 0.0014873356067346257 0.082560383882505292 0 0.001344614857132006 0.082500435553658519 0 0.0014177874938130111 0.082531386544519775 0 0.0014873356067346257 0.082560383882505292 0 0.0014177874938130111 0.082531386544519775 0 0.0015039759686994092 0.082564194178576966 0 0.0014177874938130111 0.082531386544519775 0 0.0014452911672821742 0.082555317207449533 0 0.0015039759686994092 0.082564194178576966 0 0.0014177874938130111 0.082531386544519775 0 0.0014452911672821742 0.082555317207449533 0 0.0014280500367458895 0.082540384280375717 0 0.0013870138295924593 0.082532049892380166 0 0.0014177874938130111 0.082531386544519775 0 0.0014280500367458895 0.082540384280375717 0 0.00080900623916102478 0.082975721316657564 0 0.0010121511668683976 0.082854816167815357 0 0.00015696700467460328 0.083166716527049267 0 0.00068178749519381347 0.083000615112367337 0 0.0005366272102828465 0.08263940520318068 0 0.0010121511668683976 0.082854816167815357 0 0.0011423870084894638 0.08279816972642863 0 0.00068178749519381347 0.083000615112367337 0 0.0005366272102828465 0.08263940520318068 0 0.001388290525143399 0.082621225318908628 0 0.0014452911672821742 0.082555317207449533 0 0.0014280500367458895 0.082540384280375717 0 0.001388290525143399 0.082621225318908628 0 0.0005366272102828465 0.08263940520318068 0 0.001388290525143399 0.082621225318908628 0 0.00086226150683983227 0.082295126372561672 0 0.0005366272102828465 0.08263940520318068 0 9.9501125952495268e-05 0.082836616239592792 0 0.00016198491302182554 0.082543865979633438 0 9.9501125952495268e-05 0.082836616239592792 0 0.00016198491302182554 0.082543865979633438 0 -9.7236087404859489e-05 0.082768371441681601 0 9.9501125952495268e-05 0.082836616239592792 0 -9.7236087404859489e-05 0.082768371441681601 0 -9.5109329921818571e-05 0.083065546667207418 0 0.00015696700467460328 0.083166716527049267 0 9.9501125952495268e-05 0.082836616239592792 0 -9.5109329921818571e-05 0.083065546667207418 0 0.00015696700467460328 0.083166716527049267 0 0.0005366272102828465 0.08263940520318068 0 9.9501125952495268e-05 0.082836616239592792 0 -0.0019689625867891233 0.07713320543510048 0 -0.00087655538654131827 0.079816956907757003 0 0.0016630794487972824 0.081312925345483122 0 0.0016913490947298763 0.081993227318109568 0 0.002009368144811491 0.081724135660494898 0 0.0017406819539297193 0.082287815673622644 0 0.0016913490947298763 0.081993227318109568 0 0.002009368144811491 0.081724135660494898 0 0.0016630794487972824 0.081312925345483122 0 0.0016913490947298763 0.081993227318109568 0 0.0013934181784210334 0.082021221761560029 0 -0.00893133889012185 0.048333253396595111 0 -0.0067299031536759363 0.062178824829601229 0 0.0015771724660387848 0.082178013528181063 0 0.0016913490947298763 0.081993227318109568 0 0.0013934181784210334 0.082021221761560029 0 0.0020588868133291529 0.082599568306287285 0 0.0017122421630571848 0.082664860459243664 0 0.0018916734875498067 0.082531881696643272 0 0.0017122421630571848 0.082664860459243664 0 0.001677234626407516 0.082582297613823574 0 0.0018916734875498067 0.082531881696643272 0 0.001677234626407516 0.082582297613823574 0 0.0015241661769111433 0.082586343783087712 0 0.001388290525143399 0.082621225318908628 0 0.001677234626407516 0.082582297613823574 0 0.0016008362287782945 0.082606794817677381 0 0.0015241661769111433 0.082586343783087712 0 0.0015906133901731759 0.082474399390134179 0 0.0017122421630571848 0.082664860459243664 0 0.0016008362287782945 0.082606794817677381 0 0.0017122421630571848 0.082664860459243664 0 0.001677234626407516 0.082582297613823574 0 0.0016008362287782945 0.082606794817677381 0 0.0016008362287782945 0.082606794817677381 0 0.0015039759686994092 0.082564194178576966 0 0.0015241661769111433 0.082586343783087712 0 0.0015689719275808717 0.082551746975416146 0 0.0016008362287782945 0.082606794817677381 0 0.0015039759686994092 0.082564194178576966 0 0.0014452911672821742 0.082555317207449533 0 0.0015241661769111433 0.082586343783087712 0 0.001388290525143399 0.082621225318908628 0 0.0014452911672821742 0.082555317207449533 0 0.0015039759686994092 0.082564194178576966 0 0.0015241661769111433 0.082586343783087712 0 0.001388290525143399 0.082621225318908628 0 0.0013996783563932633 0.082291405766067208 0 0.0016572396474016965 0.082441323415854223 0 0.001388290525143399 0.082621225318908628 0 0.0013996783563932633 0.082291405766067208 0 0.00086226150683983227 0.082295126372561672 0 0.0013996783563932633 0.082291405766067208 0 0.0016572396474016965 0.082441323415854223 0 0.0017085959308593458 0.082057323629764159 0 0.0016572396474016965 0.082441323415854223 0 0.001956156949541505 0.08230153031846961 0 0.0017085959308593458 0.082057323629764159 0 0.001677234626407516 0.082582297613823574 0 0.001388290525143399 0.082621225318908628 0 0.0016572396474016965 0.082441323415854223 0 0.001677234626407516 0.082582297613823574 0 0.0016572396474016965 0.082441323415854223 0 0.0018916734875498067 0.082531881696643272 0 0.0016572396474016965 0.082441323415854223 0 0.0018916734875498067 0.082531881696643272 0 0.001956156949541505 0.08230153031846961 0 0.0018916734875498067 0.082531881696643272 0 0.001956156949541505 0.08230153031846961 0 0.0021251717487620341 0.082394149243457809 0 0.001956156949541505 0.08230153031846961 0 0.0022610059063201422 0.082166095759423519 0 0.0021475366671473723 0.081966155107680197 0 0.001956156949541505 0.08230153031846961 0 0.0022610059063201422 0.082166095759423519 0 0.0021251717487620341 0.082394149243457809 0 0.0022610059063201422 0.082166095759423519 0 0.0021251717487620341 0.082394149243457809 0 0.0024445190863538048 0.082332313754604231 0 0.0022610059063201422 0.082166095759423519 0 0.0025200098444999918 0.081973636367971059 0 0.0024445190863538048 0.082332313754604231 0 0.0020588868133291529 0.082599568306287285 0 0.0021251717487620341 0.082394149243457809 0 0.0024445190863538048 0.082332313754604231 0 0.0020588868133291529 0.082599568306287285 0 0.0018916734875498067 0.082531881696643272 0 0.0021251717487620341 0.082394149243457809 0 -0.0019689625867891233 0.07713320543510048 0 -0.0029838907355143008 0.069189160302047206 0 -0.0013184310124691068 0.068969529494768686 0 -0.0030681288194739798 0.065733488540600321 0 0.0011843844226761314 0.076496243739477096 0 -0.0011025760597627057 0.071963724592486872 0 0.0016937818700880776 0.074214220769590084 0 0.0012572420741636756 0.073670520111389179 0 0.00098132297791156051 0.07249416778598268 0 -0.0019090655406496144 0.068905014105572857 0 -0.0017758546460769531 0.069239999784045492 0 -0.0020208661421032351 0.06871546383245962 0 0.0026479898430622809 0.08135457136436916 0 0.0024471331863099451 0.081753852559081755 0 0.0025200098444999918 0.081973636367971059 0 0.0016937818700880776 0.074214220769590084 0 0.0012572420741636756 0.073670520111389179 0 0.0015317953804203906 0.074830207969473622 0 -0.001083341822732369 0.070760744119479441 0 -0.0013184310124691068 0.068969529494768686 0 0.0026479898430622809 0.08135457136436916 0 0.0024888346855449911 0.08144768736778786 0 0.0024409818065192616 0.080875091234275859 0 0.0024888346855449911 0.08144768736778786 0 0.0024471331863099451 0.081753852559081755 0 0.0022804733905593746 0.081735183593684563 0 0.0026479898430622809 0.08135457136436916 0 0.0024888346855449911 0.08144768736778786 0 0.0024471331863099451 0.081753852559081755 0 0.0023489807428322142 0.081971475954007944 0 0.0024471331863099451 0.081753852559081755 0 0.0025200098444999918 0.081973636367971059 0 -0.001083341822732369 0.070760744119479441 0 -0.0011025760597627057 0.071963724592486872 0 0.0022610059063201422 0.082166095759423519 0 0.0023489807428322142 0.081971475954007944 0 0.0025200098444999918 0.081973636367971059 0 0.0022610059063201422 0.082166095759423519 0 0.0023489807428322142 0.081971475954007944 0 0.0021475366671473723 0.081966155107680197 0 0.0023489807428322142 0.081971475954007944 0 0.0024471331863099451 0.081753852559081755 0 0.0021475366671473723 0.081966155107680197 0 0.0024471331863099451 0.081753852559081755 0 0.0021475366671473723 0.081966155107680197 0 0.0022804733905593746 0.081735183593684563 0 0.0021475366671473723 0.081966155107680197 0 0.0020322603126765003 0.081737400879570848 0 0.0022804733905593746 0.081735183593684563 0 0.0021475366671473723 0.081966155107680197 0 0.0020322603126765003 0.081737400879570848 0 0.0017085959308593458 0.082057323629764159 0 0.001956156949541505 0.08230153031846961 0 0.0021475366671473723 0.081966155107680197 0 0.0017085959308593458 0.082057323629764159 0 0.0019793957804771513 0.081470526585953315 0 0.001503614573589399 0.081441117674521876 0 0.0024888346855449911 0.08144768736778786 0 0.0014188895411815501 0.081288782363974757 0 0.0024409818065192616 0.080875091234275859 0 0.0024888346855449911 0.08144768736778786 0 0.0020322603126765003 0.081737400879570848 0 0.0016395824920992703 0.081516253474466852 0 0.0024888346855449911 0.08144768736778786 0 0.0020322603126765003 0.081737400879570848 0 0.0022804733905593746 0.081735183593684563 0 0.0020322603126765003 0.081737400879570848 0 0.0016395824920992703 0.081516253474466852 0 0.0017085959308593458 0.082057323629764159 0 0.0016395824920992703 0.081516253474466852 0 0.0017085959308593458 0.082057323629764159 0 0.0013094484893627254 0.081950478567909379 0 0.0013996783563932633 0.082291405766067208 0 0.0013094484893627254 0.081950478567909379 0 0.00086226150683983227 0.082295126372561672 0 0.0013996783563932633 0.082291405766067208 0 0.0017085959308593458 0.082057323629764159 0 0.0013094484893627254 0.081950478567909379 0 0.0016395824920992703 0.081516253474466852 0 0.0013094484893627254 0.081950478567909379 0 0.00099300176263413561 0.081548549049473451 0 0.001503614573589399 0.081441117674521876 0 0.00075803615123557887 0.081409909740346037 0 0.0014188895411815501 0.081288782363974757 0 0.0010422072319453087 0.08067313191857664 0 0.00031564504761039894 0.081220856705791711 0 0.0010422072319453087 0.08067313191857664 0 0.00052100761646139688 0.080371705033298185 0 0.00031564504761039894 0.081220856705791711 0 0.0010422072319453087 0.08067313191857664 0 0.00052100761646139688 0.080371705033298185 0 0.0012904745299782857 0.079934092081972066 0 0.00052100761646139688 0.080371705033298185 0 0.0012904745299782857 0.079934092081972066 0 0.00093685492937298502 0.07948041185009401 0 0.0010422072319453087 0.08067313191857664 0 0.0012904745299782857 0.079934092081972066 0 0.0018952694508153935 0.08046963531245202 0 0.0012904745299782857 0.079934092081972066 0 0.0020171107741080207 0.079337029692546981 0 0.0015613515139822477 0.078689331170876231 0 0.0012904745299782857 0.079934092081972066 0 0.0018952694508153935 0.08046963531245202 0 0.0020171107741080207 0.079337029692546981 0 0.0014188895411815501 0.081288782363974757 0 0.0010422072319453087 0.08067313191857664 0 0.0018952694508153935 0.08046963531245202 0 0.0014188895411815501 0.081288782363974757 0 0.0024409818065192616 0.080875091234275859 0 0.0018952694508153935 0.08046963531245202 0 0.0024409818065192616 0.080875091234275859 0 0.0023470440120113077 0.080387789372938154 0 0.0027944121304816689 0.080162855339508843 0 0.0024409818065192616 0.080875091234275859 0 0.0023470440120113077 0.080387789372938154 0 0.0018952694508153935 0.08046963531245202 0 0.0018952694508153935 0.08046963531245202 0 0.0022579202703337932 0.080097492280595706 0 0.0020171107741080207 0.079337029692546981 0 0.0018721682762933016 0.077505169632336099 0 0.0019846861539537007 0.077574886150665989 0 0.0020171107741080207 0.079337029692546981 0 0.0027944121304816689 0.080162855339508843 0 0.0023232971323676709 0.077682680134657484 0 0.0023470440120113077 0.080387789372938154 0 0.0018952694508153935 0.08046963531245202 0 0.0022579202703337932 0.080097492280595706 0 0.0022579202703337932 0.080097492280595706 0 0.0020171107741080207 0.079337029692546981 0 0.0027944121304816689 0.080162855339508843 0 0.0023470440120113077 0.080387789372938154 0 0.0022579202703337932 0.080097492280595706 0 0.0027944121304816689 0.080162855339508843 0 0.0022626421786876793 0.075932726235862752 0 0.0021551934131957841 0.076270687802640777 0 0.0021452967399233614 0.076913002784545451 0 0.0023351306357747965 0.075883241555972702 0 0.0018167374399596767 0.075789371974656225 0 0.0021452967399233614 0.076913002784545451 0 -5.9223773103305812e-05 0.070299251922869857 0 0.00069785435446768863 0.072904364445322292 0 0.0021077896957280599 0.076382309290534828 0 0.0021551934131957841 0.076270687802640777 0 0.0021452967399233614 0.076913002784545451 0 0.0021078474154021748 0.076133080818841514 0 0.0020664029007109496 0.076001169063024093 0 0.0020603827537233202 0.076175280088283712 0 0.0021077896957280599 0.076382309290534828 0 0.0021078474154021748 0.076133080818841514 0 0.0020603827537233202 0.076175280088283712 0 0.0021077896957280599 0.076382309290534828 0 0.0021551934131957841 0.076270687802640777 0 0.0021078474154021748 0.076133080818841514 0 0.0021551934131957841 0.076270687802640777 0 0.0021078474154021748 0.076133080818841514 0 0.0021552603764196823 0.076062874844352257 0 0.0021078474154021748 0.076133080818841514 0 0.0021552603764196823 0.076062874844352257 0 0.0020664029007109496 0.076001169063024093 0 0.0022626421786876793 0.075932726235862752 0 0.0021552603764196823 0.076062874844352257 0 0.0020664029007109496 0.076001169063024093 0 0.0022626421786876793 0.075932726235862752 0 0.0021551934131957841 0.076270687802640777 0 0.0021552603764196823 0.076062874844352257 0 -5.9223773103305812e-05 0.070299251922869857 0 -0.0013184310124691068 0.068969529494768686 0 0.0016937818700880776 0.074214220769590084 0 0.0023351306357747965 0.075883241555972702 0 0.0015317953804203906 0.074830207969473622 0 -0.0057456445718195547 0.063296421803154354 0 -0.0061303742143997957 0.061857193759947235 0 -0.0079118455712465733 0.062074395379144061 0 0.0026479898430622809 0.08135457136436916 0 0.0024409818065192616 0.080875091234275859 0 0.0027944121304816689 0.080162855339508843 0 0.0011843844226761314 0.076496243739477096 0 0.0018721682762933016 0.077505169632336099 0 0.0023351306357747965 0.075883241555972702 0 0.0018167374399596767 0.075789371974656225 0 0.0015317953804203906 0.074830207969473622 0 -2.8990530618010253e-05 0.082245598842490122 0 0.00037380916646371202 0.082166494723577302 0 1.5129873291607076e-05 0.08155686364293302 0 -2.8990530618010253e-05 0.082245598842490122 0 1.5129873291607076e-05 0.08155686364293302 0 -0.00022669215029463312 0.081911196105686757 0 -2.8990530618010253e-05 0.082245598842490122 0 -0.00022669215029463312 0.081911196105686757 0 -0.00018229599021247499 0.082485343644681478 0 -9.7236087404859489e-05 0.082768371441681601 0 -2.8990530618010253e-05 0.082245598842490122 0 -0.00018229599021247499 0.082485343644681478 0 0.00016198491302182554 0.082543865979633438 0 -9.7236087404859489e-05 0.082768371441681601 0 -2.8990530618010253e-05 0.082245598842490122 0 0.00016198491302182554 0.082543865979633438 0 -2.8990530618010253e-05 0.082245598842490122 0 0.00037380916646371202 0.082166494723577302 0 0.0005366272102828465 0.08263940520318068 0 0.00016198491302182554 0.082543865979633438 0 0.00037380916646371202 0.082166494723577302 0 0.0005366272102828465 0.08263940520318068 0 0.00037380916646371202 0.082166494723577302 0 0.00086226150683983227 0.082295126372561672 0 0.00037380916646371202 0.082166494723577302 0 0.00086226150683983227 0.082295126372561672 0 0.00099300176263413561 0.081548549049473451 0 0.0013094484893627254 0.081950478567909379 0 0.00086226150683983227 0.082295126372561672 0 0.00099300176263413561 0.081548549049473451 0 0.00037380916646371202 0.082166494723577302 0 0.00099300176263413561 0.081548549049473451 0 1.5129873291607076e-05 0.08155686364293302 0 0.00075803615123557887 0.081409909740346037 0 0.000368386172234847 0.081406411188738328 0 0.00031564504761039894 0.081220856705791711 0 -0.00015419200100025353 0.080664488871423079 0 1.5129873291607076e-05 0.08155686364293302 0 0.00052100761646139688 0.080371705033298185 0 0.00031564504761039894 0.081220856705791711 0 -0.00015419200100025353 0.080664488871423079 0 0.00052100761646139688 0.080371705033298185 0 -0.00015419200100025353 0.080664488871423079 0 0.0005180870520416855 0.07940940850070087 0 -0.00015419200100025353 0.080664488871423079 0 -0.00038997339422252285 0.081189702470440162 0 1.5129873291607076e-05 0.08155686364293302 0 -0.00038997339422252285 0.081189702470440162 0 1.5129873291607076e-05 0.08155686364293302 0 -0.00022669215029463312 0.081911196105686757 0 -0.00038997339422252285 0.081189702470440162 0 -0.00022669215029463312 0.081911196105686757 0 -0.00027964025427409744 0.081803610648470623 0 -0.00027964025427409744 0.081803610648470623 0 -0.00021027442585406429 0.082410410817597687 0 -0.00024187357817586678 0.082363897843634001 0 -0.00027964025427409744 0.081803610648470623 0 -0.00021027442585406429 0.082410410817597687 0 -0.00020668866982804889 0.081915033014807861 0 -0.00021027442585406429 0.082410410817597687 0 -0.00024187357817586678 0.082363897843634001 0 -0.00019153420710946891 0.082791238265683353 0 -0.00022669215029463312 0.081911196105686757 0 -0.00027964025427409744 0.081803610648470623 0 -0.00024187357817586678 0.082363897843634001 0 -0.00024187357817586678 0.082363897843634001 0 -0.00022007536977607965 0.082800347749819161 0 -0.00018229599021247499 0.082485343644681478 0 -0.00022669215029463312 0.081911196105686757 0 -0.00024187357817586678 0.082363897843634001 0 -0.00018229599021247499 0.082485343644681478 0 -0.00024187357817586678 0.082363897843634001 0 -0.00022007536977607965 0.082800347749819161 0 -0.00019153420710946891 0.082791238265683353 0 -0.00022007536977607965 0.082800347749819161 0 -0.00019502975178487523 0.082946078552972161 0 -0.00022470870094566642 0.083137810194669121 0 -0.00022007536977607965 0.082800347749819161 0 -0.00018229599021247499 0.082485343644681478 0 -0.00019502975178487523 0.082946078552972161 0 -9.7236087404859489e-05 0.082768371441681601 0 -0.00018229599021247499 0.082485343644681478 0 -0.00019502975178487523 0.082946078552972161 0 -0.00017086831802830195 0.083394907102184182 0 -0.00012839593726028052 0.083297676650305769 0 -0.00012940871623940583 0.083712893656952475 0 -0.00017086831802830195 0.083394907102184182 0 -0.00019832818645968952 0.083125986655167572 0 -0.0002116316387207719 0.083363340504665526 0 -0.00017086831802830195 0.083394907102184182 0 -0.00012940871623940583 0.083712893656952475 0 -0.0001904164997553268 0.08368011810291226 0 -0.00019832818645968952 0.083125986655167572 0 -0.00022470870094566642 0.083137810194669121 0 -0.0002116316387207719 0.083363340504665526 0 -0.00022007536977607965 0.082800347749819161 0 -0.00019832818645968952 0.083125986655167572 0 -0.00022470870094566642 0.083137810194669121 0 -0.00022007536977607965 0.082800347749819161 0 -0.00019832818645968952 0.083125986655167572 0 -0.00019153420710946891 0.082791238265683353 0 -0.00019832818645968952 0.083125986655167572 0 -0.00012839593726028052 0.083297676650305769 0 -0.00019153420710946891 0.082791238265683353 0 -0.00017086831802830195 0.083394907102184182 0 -0.00019832818645968952 0.083125986655167572 0 -0.00012839593726028052 0.083297676650305769 0 -0.00012839593726028052 0.083297676650305769 0 -0.00012309082128749395 0.082887531383113305 0 -8.04098038440982e-05 0.083216907380601918 0 -0.00012839593726028052 0.083297676650305769 0 -0.00012309082128749395 0.082887531383113305 0 -0.00019153420710946891 0.082791238265683353 0 -0.00021027442585406429 0.082410410817597687 0 -0.00012309082128749395 0.082887531383113305 0 -0.00019153420710946891 0.082791238265683353 0 -0.00021027442585406429 0.082410410817597687 0 -0.00012309082128749395 0.082887531383113305 0 -0.00013037646820037287 0.082667006899872289 0 -0.00012309082128749395 0.082887531383113305 0 -2.9384969481095286e-05 0.083109472712546248 0 -0.00013037646820037287 0.082667006899872289 0 -2.9384969481095286e-05 0.083109472712546248 0 -3.9264500957186211e-05 0.083197152949060937 0 -3.9505202982142957e-05 0.083480947457469493 0 -3.9264500957186211e-05 0.083197152949060937 0 -3.9505202982142957e-05 0.083480947457469493 0 -0.00013326102894841777 0.083564215469005831 0 -2.9384969481095286e-05 0.083109472712546248 0 -3.9505202982142957e-05 0.083480947457469493 0 -5.7907120552279652e-05 0.083568956287615639 0 -3.9505202982142957e-05 0.083480947457469493 0 -7.252096702122284e-05 0.083851593288112647 0 -0.00010624252394012599 0.083985111359941605 0 -3.9505202982142957e-05 0.083480947457469493 0 -7.252096702122284e-05 0.083851593288112647 0 -5.7907120552279652e-05 0.083568956287615639 0 -0.00012839593726028052 0.083297676650305769 0 -5.7907120552279652e-05 0.083568956287615639 0 -8.04098038440982e-05 0.083216907380601918 0 -0.00012309082128749395 0.082887531383113305 0 -2.9384969481095286e-05 0.083109472712546248 0 -8.04098038440982e-05 0.083216907380601918 0 -2.9384969481095286e-05 0.083109472712546248 0 -5.7907120552279652e-05 0.083568956287615639 0 -8.04098038440982e-05 0.083216907380601918 0 1.0935989865129389e-09 0.085000138626640923 0 -4.301777639999107e-05 0.084995782802896297 0 -1.1946620693270707e-05 0.085004359864335952 0 -0.00051568473737954466 0.083485788210533554 0 -0.0002145220883921182 0.083206253415455525 0 -0.00013326102894841777 0.083564215469005831 0 -0.00051568473737954466 0.083485788210533554 0 -0.00013326102894841777 0.083564215469005831 0 -0.00019618325414624967 0.084057299897331447 0 -3.9264500957186211e-05 0.083197152949060937 0 -0.0002145220883921182 0.083206253415455525 0 -0.00013326102894841777 0.083564215469005831 0 -3.9505202982142957e-05 0.083480947457469493 0 -0.00013326102894841777 0.083564215469005831 0 -0.00010624252394012599 0.083985111359941605 0 -0.00010624252394012599 0.083985111359941605 0 -0.00019618325414624967 0.084057299897331447 0 -0.00014046488345829909 0.084401356869447039 0 -0.00013326102894841777 0.083564215469005831 0 -0.00010624252394012599 0.083985111359941605 0 -0.00019618325414624967 0.084057299897331447 0 1.0935989865129389e-09 0.085000138626640923 0 -4.301777639999107e-05 0.084995782802896297 0 -0.00014889842338876072 0.084798246833630173 0 -0.00051568473737954466 0.083485788210533554 0 -0.00019618325414624967 0.084057299897331447 0 -0.00014889842338876072 0.084798246833630173 0 1.0935989865129389e-09 0.085000138626640923 0 -3.7188981631959156e-07 0.084998771943056065 0 -0.00014889842338876072 0.084798246833630173 0 -0.00014516976395151222 0.084207807350884706 0 -0.00016088676656858704 0.08432024572490586 0 -0.00019618325414624967 0.084057299897331447 0 -0.00014889842338876072 0.084798246833630173 0 -0.00014046488345829909 0.084401356869447039 0 -3.7188981631959156e-07 0.084998771943056065 0 -0.00011503124419501331 0.08466496658025173 0 -6.7646636604179279e-05 0.084737294235252211 0 -3.7188981631959156e-07 0.084998771943056065 0 -0.00014889842338876072 0.084798246833630173 0 -0.00011503124419501331 0.08466496658025173 0 -0.00014889842338876072 0.084798246833630173 0 -0.00011503124419501331 0.08466496658025173 0 -0.00014046488345829909 0.084401356869447039 0 -0.00011503124419501331 0.08466496658025173 0 -0.00011077559717433619 0.084328016067451078 0 -6.7646636604179279e-05 0.084737294235252211 0 -0.00011503124419501331 0.08466496658025173 0 -0.00011077559717433619 0.084328016067451078 0 -0.00014046488345829909 0.084401356869447039 0 -0.00010624252394012599 0.083985111359941605 0 -0.00011077559717433619 0.084328016067451078 0 -0.00014046488345829909 0.084401356869447039 0 -7.252096702122284e-05 0.083851593288112647 0 -0.00010624252394012599 0.083985111359941605 0 -0.00011077559717433619 0.084328016067451078 0 -0.00011077559717433619 0.084328016067451078 0 -8.4817084929744347e-05 0.084304693814262407 0 -8.5719103709111066e-05 0.083967111610758011 0 -0.00011077559717433619 0.084328016067451078 0 -8.4817084929744347e-05 0.084304693814262407 0 -6.7646636604179279e-05 0.084737294235252211 0 -8.4817084929744347e-05 0.084304693814262407 0 -6.7646636604179279e-05 0.084737294235252211 0 -4.9324759475140388e-05 0.08453508909010346 0 -3.7188981631959156e-07 0.084998771943056065 0 -6.7646636604179279e-05 0.084737294235252211 0 -2.0410357335433286e-08 0.084999387937722978 0 -0.00012839593726028052 0.083297676650305769 0 -5.7907120552279652e-05 0.083568956287615639 0 -9.4563493462674689e-05 0.083685373508699576 0 -0.00012839593726028052 0.083297676650305769 0 -9.4563493462674689e-05 0.083685373508699576 0 -0.00012940871623940583 0.083712893656952475 0 -5.7907120552279652e-05 0.083568956287615639 0 -9.4563493462674689e-05 0.083685373508699576 0 -8.5719103709111066e-05 0.083967111610758011 0 -7.252096702122284e-05 0.083851593288112647 0 -5.7907120552279652e-05 0.083568956287615639 0 -8.5719103709111066e-05 0.083967111610758011 0 -7.252096702122284e-05 0.083851593288112647 0 -0.00011077559717433619 0.084328016067451078 0 -8.5719103709111066e-05 0.083967111610758011 0 -9.4563493462674689e-05 0.083685373508699576 0 -8.5719103709111066e-05 0.083967111610758011 0 -9.4775129239430653e-05 0.083982793161011413 0 -8.4817084929744347e-05 0.084304693814262407 0 -9.4775129239430653e-05 0.083982793161011413 0 -8.5047158583191772e-05 0.084093044889623811 0 -8.4817084929744347e-05 0.084304693814262407 0 -8.5719103709111066e-05 0.083967111610758011 0 -9.4775129239430653e-05 0.083982793161011413 0 -9.4775129239430653e-05 0.083982793161011413 0 -0.00012940871623940583 0.083712893656952475 0 -8.5047158583191772e-05 0.084093044889623811 0 -9.4563493462674689e-05 0.083685373508699576 0 -9.4775129239430653e-05 0.083982793161011413 0 -0.00012940871623940583 0.083712893656952475 0 -0.00012940871623940583 0.083712893656952475 0 -8.5047158583191772e-05 0.084093044889623811 0 -0.0001904164997553268 0.08368011810291226 0 -8.5047158583191772e-05 0.084093044889623811 0 -2.3917863903367867e-06 0.084541727314842566 0 -0.00011163694382537442 0.083880926039253817 0 -1.4386715310310315e-05 0.084117933954861182 0 4.5715767163579386e-05 0.084060264909453036 0 -8.5047158583191772e-05 0.084093044889623811 0 -0.00011163694382537442 0.083880926039253817 0 -0.0001904164997553268 0.08368011810291226 0 -0.00011163694382537442 0.083880926039253817 0 -0.00022057492578962724 0.083532620929299653 0 -0.0001904164997553268 0.08368011810291226 0 -6.7646636604179279e-05 0.084737294235252211 0 -2.0410357335433286e-08 0.084999387937722978 0 -4.9324759475140388e-05 0.08453508909010346 0 -8.4817084929744347e-05 0.084304693814262407 0 -8.5047158583191772e-05 0.084093044889623811 0 -4.9324759475140388e-05 0.08453508909010346 0 -8.5047158583191772e-05 0.084093044889623811 0 -4.9324759475140388e-05 0.08453508909010346 0 -2.3917863903367867e-06 0.084541727314842566 0 -2.0410357335433286e-08 0.084999387937722978 0 -4.9324759475140388e-05 0.08453508909010346 0 -2.3917863903367867e-06 0.084541727314842566 0 -2.0410357335433286e-08 0.084999387937722978 0 -2.3917863903367867e-06 0.084541727314842566 0 -1.1864316287810769e-07 0.084999694875353554 0 -2.3917863903367867e-06 0.084541727314842566 0 -1.1864316287810769e-07 0.084999694875353554 0 3.4282475298499073e-05 0.084888236419781882 0 -2.3917863903367867e-06 0.084541727314842566 0 3.4282475298499073e-05 0.084888236419781882 0 0.00017354135145599729 0.084799619321093186 0 -5.4831666205919531e-07 0.084989021330139247 0 3.4282475298499073e-05 0.084888236419781882 0 0.00018783955974930409 0.084982894393512282 0 3.0518621194562391e-05 0.084737977298999317 0 7.9318800540807582e-05 0.084650603483005071 0 -5.4831666205919531e-07 0.084989021330139247 0 -1.1864316287810769e-07 0.084999694875353554 0 3.4282475298499073e-05 0.084888236419781882 0 3.0441073446614838e-08 0.085000053609147475 0 -5.4831666205919531e-07 0.084989021330139247 0 -1.1864316287810769e-07 0.084999694875353554 0 4.5715767163579386e-05 0.084060264909453036 0 0.00016001715992508181 0.083914078167784734 0 0.00035375126335807186 0.084824766850963268 0 0.00050310823269814585 0.084914944915811655 0 0.00057035539814759479 0.084754451117299651 0 0.00035375126335807186 0.084824766850963268 0 0.00032377322776934046 0.084674602628431225 0 0.00057035539814759479 0.084754451117299651 0 -2.3917863903367867e-06 0.084541727314842566 0 0.00032377322776934046 0.084674602628431225 0 0.00017354135145599729 0.084799619321093186 0 0.00035375126335807186 0.084824766850963268 0 0.00032377322776934046 0.084674602628431225 0 0.00017354135145599729 0.084799619321093186 0 3.4282475298499073e-05 0.084888236419781882 0 0.00017354135145599729 0.084799619321093186 0 0.00018783955974930409 0.084982894393512282 0 0.00035375126335807186 0.084824766850963268 0 0.00017354135145599729 0.084799619321093186 0 0.00018783955974930409 0.084982894393512282 0 4.1045006774035947e-05 0.08499047753832574 0 2.4056544451110736e-05 0.084964872642264835 0 7.2592096290646774e-05 0.08494219608469146 0 0.00035375126335807186 0.084824766850963268 0 0.00018783955974930409 0.084982894393512282 0 0.00050310823269814585 0.084914944915811655 0 4.1045006774035947e-05 0.08499047753832574 0 8.5445180578626182e-05 0.084960202829596737 0 7.2592096290646774e-05 0.08494219608469146 0 7.9318800540807582e-05 0.084650603483005071 0 0.00016866208644294059 0.084351934615887456 0 8.5445180578626182e-05 0.084960202829596737 0 7.2592096290646774e-05 0.08494219608469146 0 0.0001376655394161366 0.084918555134092577 0 0.00016866208644294059 0.084351934615887456 0 0.00021436039432777771 0.08369071764702965 0 -0.00041988389507703649 0.082392117414568172 0 -0.00058914526322933949 0.082249344300107927 0 -0.00030830894422787143 0.08226319636999023 0 0.00050310823269814585 0.084914944915811655 0 0.00057035539814759479 0.084754451117299651 0 0.00078915058345968125 0.084842062914322461 0 -0.00022057492578962724 0.083532620929299653 0 -0.00024107353865872053 0.083447727248420422 0 -0.00023799870996084864 0.083426041740651311 0 0.00057035539814759479 0.084754451117299651 0 0.00081700442694795569 0.084822316057160632 0 0.00078915058345968125 0.084842062914322461 0 0.00016001715992508181 0.083914078167784734 0 0.00022281893905193474 0.083640612825723742 0 -0.00024107353865872053 0.083447727248420422 0 -0.00023799870996084864 0.083426041740651311 0 -0.00023050919906149065 0.083368386025545083 0 -0.00013266719473131671 0.081944388878304561 0 -6.8390918708159299e-05 0.081991191747056005 0 -2.4939410414292679e-05 0.081920398708841616 0 0.00021436039432777771 0.08369071764702965 0 0.00026137608607151202 0.083569859688631981 0 0.00022223793995194161 0.083608286686031374 0 0.00027435705725749608 0.083572187353731786 0 0.00017492366516548869 0.083594719094182188 0 0.00022281893905193474 0.083640612825723742 0 0.00021436039432777771 0.08369071764702965 0 -0.00058914526322933949 0.082249344300107927 0 -0.0002192066831736831 0.082115265134248286 0 -0.00030830894422787143 0.08226319636999023 0 -0.00013266719473131671 0.081944388878304561 0 -0.00011688602112121166 0.082033648014015512 0 -0.0002192066831736831 0.082115265134248286 0 -0.00011688602112121166 0.082033648014015512 0 -6.8390918708159299e-05 0.081991191747056005 0 -4.7270244774284032e-05 0.082083852948662869 0 -0.00058914526322933949 0.082249344300107927 0 -0.00013266719473131671 0.081944388878304561 0 -0.0002192066831736831 0.082115265134248286 0 -0.00013266719473131671 0.081944388878304561 0 -0.00011688602112121166 0.082033648014015512 0 -6.8390918708159299e-05 0.081991191747056005 0 -0.00010322112341344009 0.083801591820623578 0 0.00021436039432777771 0.08369071764702965 0 -0.00011688602112121166 0.082033648014015512 0 -0.0002192066831736831 0.082115265134248286 0 -4.7270244774284032e-05 0.082083852948662869 0 -0.00014005915484842027 0.082251417934716617 0 -9.1454191149640609e-06 0.082239577185461724 0 -4.7270244774284032e-05 0.082083852948662869 0 -0.0002192066831736831 0.082115265134248286 0 -0.00014005915484842027 0.082251417934716617 0 -4.7270244774284032e-05 0.082083852948662869 0 -0.0002192066831736831 0.082115265134248286 0 -0.00030830894422787143 0.08226319636999023 0 -0.00014005915484842027 0.082251417934716617 0 0.00017083629196372276 0.082356279458082007 0 -9.1454191149640609e-06 0.082239577185461724 0 9.346734681070482e-05 0.08217952283034631 0 0.00010435715306921775 0.082049303159227399 0 0.00047089808193346699 0.082080763269185994 0 -2.4939410414292679e-05 0.081920398708841616 0 -2.2168615619512096e-05 0.082402187521001549 0 -0.00014005915484842027 0.082251417934716617 0 -9.1454191149640609e-06 0.082239577185461724 0 0.00024744374341933854 0.082166148628381647 0 0.00010435715306921775 0.082049303159227399 0 0.00047089808193346699 0.082080763269185994 0 0.00068049678239901238 0.08301892804724606 0 0.00026137608607151202 0.083569859688631981 0 -9.1454191149640609e-06 0.082239577185461724 0 9.346734681070482e-05 0.08217952283034631 0 -4.7270244774284032e-05 0.082083852948662869 0 0.00017083629196372276 0.082356279458082007 0 9.346734681070482e-05 0.08217952283034631 0 0.00024744374341933854 0.082166148628381647 0 9.346734681070482e-05 0.08217952283034631 0 0.00024744374341933854 0.082166148628381647 0 0.00010435715306921775 0.082049303159227399 0 -6.8390918708159299e-05 0.081991191747056005 0 -9.0769363033342057e-06 0.082011334990196555 0 -2.4939410414292679e-05 0.081920398708841616 0 -6.8390918708159299e-05 0.081991191747056005 0 -9.0769363033342057e-06 0.082011334990196555 0 -4.7270244774284032e-05 0.082083852948662869 0 0.00010435715306921775 0.082049303159227399 0 -9.0769363033342057e-06 0.082011334990196555 0 -4.7270244774284032e-05 0.082083852948662869 0 0.00010435715306921775 0.082049303159227399 0 -9.0769363033342057e-06 0.082011334990196555 0 -2.4939410414292679e-05 0.081920398708841616 0 9.346734681070482e-05 0.08217952283034631 0 0.00010435715306921775 0.082049303159227399 0 -4.7270244774284032e-05 0.082083852948662869 0 0.00047704640269526034 0.08234208397558139 0 0.00024744374341933854 0.082166148628381647 0 0.00047089808193346699 0.082080763269185994 0 0.00047704640269526034 0.08234208397558139 0 0.00017083629196372276 0.082356279458082007 0 0.00024744374341933854 0.082166148628381647 0 0.0013607692958311518 0.082539090809779794 0 0.0013640912237681791 0.082521348292869598 0 0.0013153277758867336 0.082532402312900446 0 -0.00013473583412596448 0.083244472762489891 0 -0.00025311742570422623 0.083184085082127657 0 -9.5109329921818571e-05 0.083065546667207418 0 0.0013811199698726478 0.082528372468159347 0 0.0013607692958311518 0.082539090809779794 0 0.0013640912237681791 0.082521348292869598 0 -0.00013473583412596448 0.083244472762489891 0 -0.00038572732006179623 0.083299355733503305 0 -0.00025311742570422623 0.083184085082127657 0 0.00061438989718438539 0.083173304165079356 0 0.00026137608607151202 0.083569859688631981 0 -0.00040880772994225678 0.083292811825970967 0 -0.00038572732006179623 0.083299355733503305 0 -0.00025311742570422623 0.083184085082127657 0 0.00022281893905193474 0.083640612825723742 0 0.00026137608607151202 0.083569859688631981 0 0.00022281893905193474 0.083640612825723742 0 4.8587649964692006e-05 0.083545975283524296 0 -0.00023799870996084864 0.083426041740651311 0 -0.00017314931101264488 0.083322712836645926 0 -0.00023050919906149065 0.083368386025545083 0 -0.00023050919906149065 0.083368386025545083 0 -0.00020637702722271304 0.08319078120700131 0 -0.00023694403634596676 0.083361656022530262 0 -0.00017314931101264488 0.083322712836645926 0 -0.00023050919906149065 0.083368386025545083 0 -0.00020637702722271304 0.08319078120700131 0 -0.00017314931101264488 0.083322712836645926 0 -0.00020637702722271304 0.08319078120700131 0 -9.5109329921818571e-05 0.083065546667207418 0 -0.00020637702722271304 0.08319078120700131 0 -9.5109329921818571e-05 0.083065546667207418 0 -0.0001515612057212394 0.082992984275762113 0 4.8587649964692006e-05 0.083545975283524296 0 2.7240390461309905e-05 0.083490230523771164 0 -0.00020637702722271304 0.08319078120700131 0 -0.00019502975178487523 0.082946078552972161 0 -0.0001515612057212394 0.082992984275762113 0 -9.7236087404859489e-05 0.082768371441681601 0 -9.5109329921818571e-05 0.083065546667207418 0 -0.0001515612057212394 0.082992984275762113 0 -9.7236087404859489e-05 0.082768371441681601 0 -0.00019502975178487523 0.082946078552972161 0 -0.0001515612057212394 0.082992984275762113 0 -0.00020637702722271304 0.08319078120700131 0 -0.00022470870094566642 0.083137810194669121 0 -0.00023694403634596676 0.083361656022530262 0 -0.00020637702722271304 0.08319078120700131 0 -0.00019502975178487523 0.082946078552972161 0 -0.00022470870094566642 0.083137810194669121 0 -0.0002116316387207719 0.083363340504665526 0 -0.00023317233764976681 0.083514664022802915 0 -0.00023694403634596676 0.083361656022530262 0 -0.00022470870094566642 0.083137810194669121 0 -0.0002116316387207719 0.083363340504665526 0 -0.00023694403634596676 0.083361656022530262 0 -0.0002116316387207719 0.083363340504665526 0 -0.0001904164997553268 0.08368011810291226 0 -0.00023317233764976681 0.083514664022802915 0 -0.00017086831802830195 0.083394907102184182 0 -0.0002116316387207719 0.083363340504665526 0 -0.0001904164997553268 0.08368011810291226 0 -0.00022057492578962724 0.083532620929299653 0 -0.0001904164997553268 0.08368011810291226 0 -0.00023317233764976681 0.083514664022802915 0 -0.00022057492578962724 0.083532620929299653 0 -0.00024107353865872053 0.083447727248420422 0 -0.00023317233764976681 0.083514664022802915 0 -0.00024107353865872053 0.083447727248420422 0 -0.00023317233764976681 0.083514664022802915 0 -0.00023694403634596676 0.083361656022530262 0 -0.00024107353865872053 0.083447727248420422 0 -0.00023050919906149065 0.083368386025545083 0 -0.00023694403634596676 0.083361656022530262 0 -0.025392431755173594 0.011330560945199514 0 -0.027066880246421378 0.015380727929513499 0 -0.022405543998975673 0.015578433487083354 0 -0.025392431755173594 0.011330560945199514 0 -0.030907249826956324 0.01524266055381957 0 -0.027066880246421378 0.015380727929513499 0 -0.018034574191385322 0.013177270869424072 0 -0.015832603890502769 0.011625727330045016 0 -0.025392431755173594 0.011330560945199514 0 -0.020755587070818003 0.010346821442146369 0 -0.022405543998975673 0.015578433487083354 0 -0.020755587070818003 0.010346821442146369 0 -0.022405543998975673 0.015578433487083354 0 -0.017742056283991316 0.010718004574268839 0 -0.025392431755173594 0.011330560945199514 0 -0.022735715377038133 0.0089184395515982673 0 -0.020755587070818003 0.010346821442146369 0 -0.022735715377038133 0.0089184395515982673 0 -0.020755587070818003 0.010346821442146369 0 -0.020865183633352338 0.0072386250028490572 0 -0.020755587070818003 0.010346821442146369 0 -0.020865183633352338 0.0072386250028490572 0 -0.017586610413735101 0.0081850536616790495 0 -0.020755587070818003 0.010346821442146369 0 -0.017742056283991316 0.010718004574268839 0 -0.017586610413735101 0.0081850536616790495 0 -0.020865183633352338 0.0072386250028490572 0 -0.017586610413735101 0.0081850536616790495 0 -0.018787268986663948 0.0053220869426222912 0 -0.022735715377038133 0.0089184395515982673 0 -0.020865183633352338 0.0072386250028490572 0 -0.023886911326701954 0.0062289665839823467 0 -0.020865183633352338 0.0072386250028490572 0 -0.023886911326701954 0.0062289665839823467 0 -0.021477338144550214 0.0044909455779544331 0 -0.025392431755173594 0.011330560945199514 0 -0.023886911326701954 0.0062289665839823467 0 -0.029514419227500744 0.0069710315781106869 0 -0.025392431755173594 0.011330560945199514 0 -0.022735715377038133 0.0089184395515982673 0 -0.023886911326701954 0.0062289665839823467 0 -0.03048291119306782 0.011675400339051059 0 -0.032870120654813276 0.011873320242846215 0 -0.030907249826956324 0.01524266055381957 0 -0.03048291119306782 0.011675400339051059 0 -0.032870120654813276 0.011873320242846215 0 -0.033311817788843699 0.0090466976477580896 0 -0.034087697699449075 0.012956443400460845 0 -0.032870120654813276 0.011873320242846215 0 -0.035100727753509905 0.01039458529446613 0 -0.034087697699449075 0.012956443400460845 0 -0.033713039723556069 0.015191989969275154 0 -0.030907249826956324 0.01524266055381957 0 -0.034087697699449075 0.012956443400460845 0 -0.032870120654813276 0.011873320242846215 0 -0.030907249826956324 0.01524266055381957 0 -0.029681583651151217 0.0080673753978363402 0 -0.030371192008204286 0.011746590558481679 0 -0.025392431755173594 0.011330560945199514 0 -0.029514419227500744 0.0069710315781106869 0 -0.030907249826956324 0.01524266055381957 0 -0.030907249826956324 0.01524266055381957 0 -0.033837277573527329 0.017290001327652776 0 -0.02935343736078486 0.018778604374961587 0 -0.030907249826956324 0.01524266055381957 0 -0.02935343736078486 0.018778604374961587 0 -0.027066880246421378 0.015380727929513499 0 -0.033713039723556069 0.015191989969275154 0 -0.030907249826956324 0.01524266055381957 0 -0.033837277573527329 0.017290001327652776 0 -0.033837277573527329 0.017290001327652776 0 -0.02935343736078486 0.018778604374961587 0 -0.033262995896968989 0.02063355831370731 0 -0.021607472151160146 0.015521143965602674 0 -0.024931763817659193 0.017819278172905361 0 -0.013495831332409799 0.01379568513971916 0 -0.014169458909478612 0.014957130420812438 0 -0.014815028355335689 0.012449480038756691 0 -0.013347855002442514 0.012422211439363987 0 -0.01469978224767402 0.014322975226152808 0 -0.014815028355335689 0.012449480038756691 0 -0.013473376711623564 0.011720734122132212 0 -0.013347855002442514 0.012422211439363987 0 -0.021607472151160146 0.015521143965602674 0 -0.018034574191385322 0.013177270869424072 0 -0.02935343736078486 0.018778604374961587 0 -0.027066880246421378 0.015380727929513499 0 -0.022405543998975673 0.015578433487083354 0 -0.013473376711623564 0.011720734122132212 0 -0.013307445247425383 0.01198321445139768 0 -0.013347855002442514 0.012422211439363987 0 -0.013473376711623564 0.011720734122132212 0 -0.013307445247425383 0.01198321445139768 0 -0.013498281498704525 0.011346930604161256 0 -0.013307445247425383 0.01198321445139768 0 -0.013347855002442514 0.012422211439363987 0 -0.013082463811166274 0.012428199458548957 0 -0.013347855002442514 0.012422211439363987 0 -0.013082463811166274 0.012428199458548957 0 -0.012743554212416774 0.013387681492509709 0 -0.010410382492593618 0.010419249864898826 0 -0.0093890648260471065 0.010390780311766924 0 -0.0092240402659033768 0.0099097471099461511 0 -0.010410382492593618 0.010419249864898826 0 -0.0093890648260471065 0.010390780311766924 0 -0.0091750037588521401 0.011827904490892134 0 -0.0088890482132444153 0.0089620787496880478 0 -0.0087958999680321608 0.0075732874820623646 0 -0.0067557304479912419 0.0072785951968621322 0 -0.009094314555747442 0.0094753807566236373 0 -0.0093890648260471065 0.010390780311766924 0 -0.0091750037588521401 0.011827904490892134 0 -0.009094314555747442 0.0094753807566236373 0 -0.0088890482132444153 0.0089620787496880478 0 -0.0067557304479912419 0.0072785951968621322 0 -0.0084961659925698145 0.0097673120412638034 0 -0.0082819637786142441 0.0096276721036945585 0 -0.0088890482132444153 0.0089620787496880478 0 -0.010200213031633518 0.0080042213251575144 0 -0.0087958999680321608 0.0075732874820623646 0 -0.009094314555747442 0.0094753807566236373 0 -0.0093890648260471065 0.010390780311766924 0 -0.0092240402659033768 0.0099097471099461511 0 -0.009094314555747442 0.0094753807566236373 0 -0.0088890482132444153 0.0089620787496880478 0 -0.0096575467464957779 0.010127321705030256 0 -0.009094314555747442 0.0094753807566236373 0 -0.0092240402659033768 0.0099097471099461511 0 -0.0096575467464957779 0.010127321705030256 0 -0.0092240402659033768 0.0099097471099461511 0 -0.0092606894989551072 0.0098755526650684804 0 -0.0096575467464957779 0.010127321705030256 0 -0.010410382492593618 0.010419249864898826 0 -0.0092240402659033768 0.0099097471099461511 0 -0.0092606894989551072 0.0098755526650684804 0 -0.013307445247425383 0.01198321445139768 0 -0.013082463811166274 0.012428199458548957 0 -0.013138783666909831 0.011872271636950961 0 -0.013082463811166274 0.012428199458548957 0 -0.012684089557637807 0.011926265081159706 0 -0.013138783666909831 0.011872271636950961 0 -0.012684089557637807 0.011926265081159706 0 -0.013138783666909831 0.011872271636950961 0 -0.013070121316584138 0.011439935186510857 0 -0.011761330688472129 0.011747171505811395 0 -0.010996955512774225 0.010934777291323054 0 -0.013307445247425383 0.01198321445139768 0 -0.013138783666909831 0.011872271636950961 0 -0.013498281498704525 0.011346930604161256 0 -0.0081611615861848022 -0.014873093587668258 0 -0.0082778353664392131 -0.015330368847319004 0 -0.012095444012861665 0.0077065076216769274 0 -0.010994625334796051 0.0096502266180388731 0 -0.012801036705275321 0.010826023882533301 0 -0.012095444012861665 0.0077065076216769274 0 -0.012801036705275321 0.010826023882533301 0 -0.014937015276888583 0.0070928464391906689 0 -0.012095444012861665 0.0077065076216769274 0 -0.010994625334796051 0.0096502266180388731 0 -0.010200213031633518 0.0080042213251575144 0 -0.0088890482132444153 0.0089620787496880478 0 -0.010200213031633518 0.0080042213251575144 0 -0.010013618829969645 0.0095749551949558184 0 -0.010994625334796051 0.0096502266180388731 0 -0.010200213031633518 0.0080042213251575144 0 -0.010013618829969645 0.0095749551949558184 0 -0.012254365285229194 0.0044729422497795943 0 -0.011937838930013123 0.0012324942705469943 0 -0.010994625334796051 0.0096502266180388731 0 -0.010004676522567714 0.011582919053954503 0 -0.012801036705275321 0.010826023882533301 0 -0.0088890482132444153 0.0089620787496880478 0 -0.010013618829969645 0.0095749551949558184 0 -0.010004676522567714 0.011582919053954503 0 -0.010994625334796051 0.0096502266180388731 0 -0.010013618829969645 0.0095749551949558184 0 -0.010004676522567714 0.011582919053954503 0 -0.0027337558153371824 -0.040189075174755721 0 -0.0024178081128678991 -0.041900826521592563 0 -0.00393023647870372 -0.042630371529715126 0 -0.0081611615861848022 -0.014873093587668258 0 -0.0087646585257661926 -0.015448207499092405 0 -0.0027337558153371824 -0.040189075174755721 0 -0.0024178081128678991 -0.041900826521592563 0 -0.0011792155357686434 -0.041369097868978855 0 -0.0024178081128678991 -0.041900826521592563 0 -0.0025987967966185754 -0.043124178921114156 0 -0.0017289587534352324 -0.042639017157956059 0 -0.0024178081128678991 -0.041900826521592563 0 -0.00393023647870372 -0.042630371529715126 0 -0.0025987967966185754 -0.043124178921114156 0 -0.011937838930013123 0.0012324942705469943 0 -0.0087646585257661926 -0.015448207499092405 0 -0.0096575467464957779 0.010127321705030256 0 -0.0099367096948351202 0.010266428317941088 0 -0.010174689610728049 0.010181808918937192 0 -0.010004676522567714 0.011582919053954503 0 -0.012801036705275321 0.010826023882533301 0 -0.010932099198813697 0.014156491766243961 0 -0.0057386121660210768 -0.036989952149562681 0 -0.0085316582602262565 -0.042554928087223727 0 -0.0040361950510959853 -0.041883049339860236 0 -0.0087646585257661926 -0.015448207499092405 0 -0.011624928940295277 -0.014651914458915418 0 -0.010174689610728049 0.010181808918937192 0 -0.011309529950411021 0.0098750178539716189 0 -0.011281041231684205 0.0072160759497566325 0 -0.0099367096948351202 0.010266428317941088 0 -0.010174689610728049 0.010181808918937192 0 -0.011281041231684205 0.0072160759497566325 0 -0.0087646585257661926 -0.015448207499092405 0 -0.0035740278740732851 -0.035017003838079978 0 -0.00393023647870372 -0.042630371529715126 0 -0.0025987967966185754 -0.043124178921114156 0 -0.0032322972481089343 -0.044668234805790477 0 -0.0025987967966185754 -0.043124178921114156 0 -0.0032322972481089343 -0.044668234805790477 0 -0.0015211862716057714 -0.043688323507258049 0 -0.0025987967966185754 -0.043124178921114156 0 -0.0017289587534352324 -0.042639017157956059 0 -0.0015211862716057714 -0.043688323507258049 0 -0.013473376711623564 0.011720734122132212 0 -0.013498281498704525 0.011346930604161256 0 -0.01389515117642273 0.010423531086673581 0 -0.022405543998975673 0.015578433487083354 0 -0.017742056283991316 0.010718004574268839 0 -0.01389515117642273 0.010423531086673581 0 -0.013539378428093225 0.010982354776670939 0 -0.013498281498704525 0.011346930604161256 0 -0.01389515117642273 0.010423531086673581 0 -0.013539378428093225 0.010982354776670939 0 -0.01343842564993278 0.010678409702334989 0 -0.012966843510613406 0.010796507231912018 0 -0.01343842564993278 0.010678409702334989 0 -0.013362634653799997 0.01044738686476078 0 -0.012966843510613406 0.010796507231912018 0 -0.01343842564993278 0.010678409702334989 0 -0.013362634653799997 0.01044738686476078 0 -0.01389515117642273 0.010423531086673581 0 -0.013539378428093225 0.010982354776670939 0 -0.01343842564993278 0.010678409702334989 0 -0.01389515117642273 0.010423531086673581 0 -0.013539378428093225 0.010982354776670939 0 -0.013070121316584138 0.011439935186510857 0 -0.012966843510613406 0.010796507231912018 0 -0.013539378428093225 0.010982354776670939 0 -0.013498281498704525 0.011346930604161256 0 -0.013070121316584138 0.011439935186510857 0 -0.013138783666909831 0.011872271636950961 0 -0.013498281498704525 0.011346930604161256 0 -0.013070121316584138 0.011439935186510857 0 -0.012684089557637807 0.011926265081159706 0 -0.012677236671330559 0.01124505481239501 0 -0.011887241972002621 0.010750358431509371 0 -0.0092606894989551072 0.0098755526650684804 0 -0.0096575467464957779 0.010127321705030256 0 -0.010174689610728049 0.010181808918937192 0 -0.012684089557637807 0.011926265081159706 0 -0.010174689610728049 0.010181808918937192 0 -0.011887241972002621 0.010750358431509371 0 -0.010996955512774225 0.010934777291323054 0 -0.010545643412505598 0.010475367506434647 0 -0.013070121316584138 0.011439935186510857 0 -0.012677236671330559 0.01124505481239501 0 -0.012966843510613406 0.010796507231912018 0 -0.012684089557637807 0.011926265081159706 0 -0.013070121316584138 0.011439935186510857 0 -0.012677236671330559 0.01124505481239501 0 -0.010174689610728049 0.010181808918937192 0 -0.011887241972002621 0.010750358431509371 0 -0.011309529950411021 0.0098750178539716189 0 -0.011887241972002621 0.010750358431509371 0 -0.012966843510613406 0.010796507231912018 0 -0.01228867580407675 0.0098446768700196259 0 -0.012677236671330559 0.01124505481239501 0 -0.011887241972002621 0.010750358431509371 0 -0.012966843510613406 0.010796507231912018 0 -0.012966843510613406 0.010796507231912018 0 -0.013001842942589891 0.010272615414134044 0 -0.01228867580407675 0.0098446768700196259 0 -0.013362634653799997 0.01044738686476078 0 -0.012966843510613406 0.010796507231912018 0 -0.013001842942589891 0.010272615414134044 0 -0.016342131848144023 -0.0034491267064175671 0 -0.011624928940295277 -0.014651914458915418 0 -0.013001842942589891 0.010272615414134044 0 -0.01228867580407675 0.0098446768700196259 0 -0.013443857092744387 0.0099362203302832634 0 -0.01228867580407675 0.0098446768700196259 0 -0.011309529950411021 0.0098750178539716189 0 -0.011281041231684205 0.0072160759497566325 0 -0.013443857092744387 0.0099362203302832634 0 -0.013072364583261555 0.0055171579116851778 0 -0.0091624077041917232 0.0035719228403283234 0 -0.01228867580407675 0.0098446768700196259 0 -0.013443857092744387 0.0099362203302832634 0 -0.011281041231684205 0.0072160759497566325 0 -0.011887241972002621 0.010750358431509371 0 -0.01228867580407675 0.0098446768700196259 0 -0.011309529950411021 0.0098750178539716189 0 -0.014773690769903137 0.0068207418290953115 0 -0.013443857092744387 0.0099362203302832634 0 -0.013072364583261555 0.0055171579116851778 0 -0.014773690769903137 0.0068207418290953115 0 -0.014628047785882477 0.008983385913387253 0 -0.01568349880337358 0.0080678266759012449 0 -0.014773690769903137 0.0068207418290953115 0 -0.014628047785882477 0.008983385913387253 0 -0.013443857092744387 0.0099362203302832634 0 -0.014628047785882477 0.008983385913387253 0 -0.015867151667449626 0.0092547370119416689 0 -0.01568349880337358 0.0080678266759012449 0 -0.014628047785882477 0.008983385913387253 0 -0.01389515117642273 0.010423531086673581 0 -0.015867151667449626 0.0092547370119416689 0 -0.013362634653799997 0.01044738686476078 0 -0.01389515117642273 0.010423531086673581 0 -0.013443857092744387 0.0099362203302832634 0 -0.014628047785882477 0.008983385913387253 0 -0.01389515117642273 0.010423531086673581 0 -0.013443857092744387 0.0099362203302832634 0 -0.013362634653799997 0.01044738686476078 0 -0.013001842942589891 0.010272615414134044 0 -0.013443857092744387 0.0099362203302832634 0 -0.017742056283991316 0.010718004574268839 0 -0.015867151667449626 0.0092547370119416689 0 -0.017586610413735101 0.0081850536616790495 0 -0.017742056283991316 0.010718004574268839 0 -0.01389515117642273 0.010423531086673581 0 -0.015867151667449626 0.0092547370119416689 0 -0.015867151667449626 0.0092547370119416689 0 -0.017586610413735101 0.0081850536616790495 0 -0.01568349880337358 0.0080678266759012449 0 -0.017586610413735101 0.0081850536616790495 0 -0.016539573003810773 0.0064019389270806261 0 -0.018787268986663948 0.0053220869426222912 0 -0.017586610413735101 0.0081850536616790495 0 -0.01568349880337358 0.0080678266759012449 0 -0.016539573003810773 0.0064019389270806261 0 -0.014773690769903137 0.0068207418290953115 0 -0.01568349880337358 0.0080678266759012449 0 -0.016539573003810773 0.0064019389270806261 0 -0.016539573003810773 0.0064019389270806261 0 -0.016219332746139237 0.0038635766142610076 0 -0.018787268986663948 0.0053220869426222912 0 -0.014773690769903137 0.0068207418290953115 0 -0.016539573003810773 0.0064019389270806261 0 -0.016219332746139237 0.0038635766142610076 0 -0.016219332746139237 0.0038635766142610076 0 -0.01685082297663076 -0.00054236457059399039 0 -0.019791396278761818 0.0019372503959597654 0 -0.016219332746139237 0.0038635766142610076 0 -0.013874426850323343 0.0019895673956884367 0 -0.01685082297663076 -0.00054236457059399039 0 -0.016219332746139237 0.0038635766142610076 0 -0.013874426850323343 0.0019895673956884367 0 -0.013072364583261555 0.0055171579116851778 0 -0.014773690769903137 0.0068207418290953115 0 -0.016219332746139237 0.0038635766142610076 0 -0.013072364583261555 0.0055171579116851778 0 -0.013874426850323343 0.0019895673956884367 0 -0.013072364583261555 0.0055171579116851778 0 -0.0091624077041917232 0.0035719228403283234 0 -0.013874426850323343 0.0019895673956884367 0 -0.0091624077041917232 0.0035719228403283234 0 -0.012831555098721205 -0.0032373403598616583 0 -0.011624928940295277 -0.014651914458915418 0 -0.013758271695891259 -0.011162056678658328 0 -0.01477733545603558 -0.0093705650960518427 0 -0.016884262992048645 -0.01341259554738684 0 -0.014416100445249965 -0.013613880280765942 0 -0.013874426850323343 0.0019895673956884367 0 -0.012831555098721205 -0.0032373403598616583 0 -0.01685082297663076 -0.00054236457059399039 0 -0.012831555098721205 -0.0032373403598616583 0 -0.01685082297663076 -0.00054236457059399039 0 -0.0176263016683566 -0.0048695025978252289 0 -0.0032322972481089343 -0.044668234805790477 0 -0.0011179978997248429 -0.04475210161106042 0 -0.0012628494834831584 -0.046098171812104197 0 -0.0035740278740732851 -0.035017003838079978 0 -0.0023730336804331214 -0.039886005423789561 0 -0.0032322972481089343 -0.044668234805790477 0 -0.0015211862716057714 -0.043688323507258049 0 -0.0011179978997248429 -0.04475210161106042 0 -0.0085316582602262565 -0.042554928087223727 0 -0.0040361950510959853 -0.041883049339860236 0 -0.0050743631682677861 -0.046957846179148305 0 -0.01477733545603558 -0.0093705650960518427 0 -0.012214794730755154 -0.012721034224622554 0 -0.014416100445249965 -0.013613880280765942 0 -0.011624928940295277 -0.014651914458915418 0 -0.0069638668992771666 -0.02562382624929006 0 -0.0040361950510959853 -0.041883049339860236 0 -0.0050743631682677861 -0.046957846179148305 0 -0.0026582564019756545 -0.046658963158163994 0 -0.0032322972481089343 -0.044668234805790477 0 -0.0026582564019756545 -0.046658963158163994 0 -0.0012628494834831584 -0.046098171812104197 0 -0.0050743631682677861 -0.046957846179148305 0 -0.0026582564019756545 -0.046658963158163994 0 -0.0028324496622335088 -0.047998013530603352 0 -0.0026582564019756545 -0.046658963158163994 0 -0.0019282484411912799 -0.047940343512167041 0 -0.0028324496622335088 -0.047998013530603352 0 -0.0026582564019756545 -0.046658963158163994 0 -0.0019282484411912799 -0.047940343512167041 0 -0.0016567784822243748 -0.047038952621242802 0 -0.0026582564019756545 -0.046658963158163994 0 -0.0016567784822243748 -0.047038952621242802 0 -0.0012628494834831584 -0.046098171812104197 0 -0.012214794730755154 -0.012721034224622554 0 -0.0095597770257473281 -0.016047784179231778 0 -0.0098445830792193885 -0.015899703169007601 0 -0.0050743631682677861 -0.046957846179148305 0 -0.0024483577983745045 -0.049715252533241279 0 -0.0028324496622335088 -0.047998013530603352 0 -0.012214794730755154 -0.012721034224622554 0 -0.0098445830792193885 -0.015899703169007601 0 -0.012667478138804098 -0.015678279828488757 0 -0.0069638668992771666 -0.02562382624929006 0 -0.0041340433164586748 -0.031081620613746749 0 -0.009541899740543985 -0.016037109421344602 0 -0.0098445830792193885 -0.015899703169007601 0 -0.0097568603810233214 -0.016737184003500084 0 -0.0041340433164586748 -0.031081620613746749 0 -0.0041806365887086683 -0.031041275371353542 0 -0.0024483577983745045 -0.049715252533241279 0 -0.0022244230199349089 -0.048667719556731902 0 -0.0014560363924192941 -0.049147716974938194 0 -0.0022244230199349089 -0.048667719556731902 0 -0.0019282484411912799 -0.047940343512167041 0 -0.0014560363924192941 -0.049147716974938194 0 -0.0024483577983745045 -0.049715252533241279 0 -0.0022244230199349089 -0.048667719556731902 0 -0.0028324496622335088 -0.047998013530603352 0 -0.0022244230199349089 -0.048667719556731902 0 -0.0019282484411912799 -0.047940343512167041 0 -0.0028324496622335088 -0.047998013530603352 0 -0.0098445830792193885 -0.015899703169007601 0 -0.012667478138804098 -0.015678279828488757 0 -0.010662221709253817 -0.017217128811906096 0 -0.012214794730755154 -0.012721034224622554 0 -0.012667478138804098 -0.015678279828488757 0 -0.014416100445249965 -0.013613880280765942 0 -0.012667478138804098 -0.015678279828488757 0 -0.014416100445249965 -0.013613880280765942 0 -0.015375735294657453 -0.016338557894294649 0 -0.012937870676937923 -0.01785305007398074 0 -0.011200433302240877 -0.019078856301738299 0 -0.014857426597181603 -0.019523450859012907 0 -0.012937870676937923 -0.01785305007398074 0 -0.015375735294657453 -0.016338557894294649 0 -0.014857426597181603 -0.019523450859012907 0 -0.012667478138804098 -0.015678279828488757 0 -0.012937870676937923 -0.01785305007398074 0 -0.015375735294657453 -0.016338557894294649 0 -0.012667478138804098 -0.015678279828488757 0 -0.012937870676937923 -0.01785305007398074 0 -0.010662221709253817 -0.017217128811906096 0 -0.010662221709253817 -0.017217128811906096 0 -0.011200433302240877 -0.019078856301738299 0 -0.0093193629058809253 -0.017901095670867537 0 -0.012937870676937923 -0.01785305007398074 0 -0.010662221709253817 -0.017217128811906096 0 -0.011200433302240877 -0.019078856301738299 0 -0.011200433302240877 -0.019078856301738299 0 -0.0093193629058809253 -0.017901095670867537 0 -0.0087237190781643287 -0.019543734869089762 0 -0.0093193629058809253 -0.017901095670867537 0 -0.0097568603810233214 -0.016737184003500084 0 -0.008951708739262999 -0.016676652313861107 0 -0.010662221709253817 -0.017217128811906096 0 -0.0093193629058809253 -0.017901095670867537 0 -0.0097568603810233214 -0.016737184003500084 0 -0.0098445830792193885 -0.015899703169007601 0 -0.010662221709253817 -0.017217128811906096 0 -0.0097568603810233214 -0.016737184003500084 0 -0.009541899740543985 -0.016037109421344602 0 -0.0097568603810233214 -0.016737184003500084 0 -0.008951708739262999 -0.016676652313861107 0 -0.0041340433164586748 -0.031081620613746749 0 -0.0044051230943111773 -0.030653310212410523 0 -0.013758271695891259 -0.011162056678658328 0 -0.01772549036250019 -0.014079682177143102 0 -0.012831555098721205 -0.0032373403598616583 0 -0.0176263016683566 -0.0048695025978252289 0 -0.016510449619991423 -0.010204533124417567 0 -0.016884262992048645 -0.01341259554738684 0 -0.014416100445249965 -0.013613880280765942 0 -0.015375735294657453 -0.016338557894294649 0 -0.016884262992048645 -0.01341259554738684 0 -0.015375735294657453 -0.016338557894294649 0 -0.019007340438881248 -0.017492895633168564 0 -0.01772549036250019 -0.014079682177143102 0 -0.01480272404533769 -0.017307011511068952 0 -0.015375735294657453 -0.016338557894294649 0 -0.019007340438881248 -0.017492895633168564 0 -0.014857426597181603 -0.019523450859012907 0 -0.020057224990260625 -0.01684834584514857 0 -0.015632651876496262 -0.019011354317628185 0 -0.019114548126018857 -0.019973541442252281 0 -0.01772549036250019 -0.014079682177143102 0 -0.01919899491164569 -0.016416422481703143 0 -0.016575239307229175 -0.0096222322642584169 0 -0.02172100477581361 -0.011358593079868811 0 -0.019133887625925654 -0.014864013183727237 0 -0.02172100477581361 -0.011358593079868811 0 -0.026919560059038238 -0.0093472115499223987 0 -0.021524339966271022 -0.007399796060330777 0 -0.01772549036250019 -0.014079682177143102 0 -0.020622605613861884 -0.011600387384288416 0 -0.016575239307229175 -0.0096222322642584169 0 -0.02172100477581361 -0.011358593079868811 0 -0.021524339966271022 -0.007399796060330777 0 -0.026919560059038238 -0.0093472115499223987 0 -0.031669891388421238 -0.012253791005215571 0 -0.025060230270339101 -0.014396692527392453 0 -0.02172100477581361 -0.011358593079868811 0 -0.026919560059038238 -0.0093472115499223987 0 -0.025060230270339101 -0.014396692527392453 0 -0.027477658324068489 -0.0039089107043412605 0 -0.02832147391214947 0.00087179306245247781 0 -0.026919560059038238 -0.0093472115499223987 0 -0.025671730780341351 -0.0055739476726978767 0 -0.021524339966271022 -0.007399796060330777 0 -0.026919560059038238 -0.0093472115499223987 0 -0.025671730780341351 -0.0055739476726978767 0 -0.027860252749075297 -0.0015846793227004107 0 -0.022038386074347046 -0.010582173448922112 0 -0.020622605613861884 -0.011600387384288416 0 -0.025671730780341351 -0.0055739476726978767 0 -0.020991018920626964 -0.0080371931858106201 0 -0.020984640004633133 -0.0023762091549196004 0 -0.0176263016683566 -0.0048695025978252289 0 -0.020991018920626964 -0.0080371931858106201 0 -0.020984640004633133 -0.0023762091549196004 0 -0.0176263016683566 -0.0048695025978252289 0 -0.016510449619991423 -0.010204533124417567 0 -0.020991018920626964 -0.0080371931858106201 0 -0.01685082297663076 -0.00054236457059399039 0 -0.0176263016683566 -0.0048695025978252289 0 -0.020984640004633133 -0.0023762091549196004 0 -0.01685082297663076 -0.00054236457059399039 0 -0.020984640004633133 -0.0023762091549196004 0 -0.019791396278761818 0.0019372503959597654 0 -0.020984640004633133 -0.0023762091549196004 0 -0.02402684986184174 0.0017526113601863268 0 -0.019791396278761818 0.0019372503959597654 0 -0.025671730780341351 -0.0055739476726978767 0 -0.020984640004633133 -0.0023762091549196004 0 -0.024663862701321319 -0.0019613242534843069 0 -0.025671730780341351 -0.0055739476726978767 0 -0.024663862701321319 -0.0019613242534843069 0 -0.027860252749075297 -0.0015846793227004107 0 -0.024663862701321319 -0.0019613242534843069 0 -0.02402684986184174 0.0017526113601863268 0 -0.027860252749075297 -0.0015846793227004107 0 -0.020984640004633133 -0.0023762091549196004 0 -0.024663862701321319 -0.0019613242534843069 0 -0.02402684986184174 0.0017526113601863268 0 -0.023886911326701954 0.0062289665839823467 0 -0.029514419227500744 0.0069710315781106869 0 -0.02402684986184174 0.0017526113601863268 0 -0.029514419227500744 0.0069710315781106869 0 -0.02402684986184174 0.0017526113601863268 0 -0.027860252749075297 -0.0015846793227004107 0 -0.023886911326701954 0.0062289665839823467 0 -0.02402684986184174 0.0017526113601863268 0 -0.021477338144550214 0.0044909455779544331 0 -0.016219332746139237 0.0038635766142610076 0 -0.018787268986663948 0.0053220869426222912 0 -0.019791396278761818 0.0019372503959597654 0 -0.021477338144550214 0.0044909455779544331 0 -0.018787268986663948 0.0053220869426222912 0 -0.019791396278761818 0.0019372503959597654 0 -0.020865183633352338 0.0072386250028490572 0 -0.021477338144550214 0.0044909455779544331 0 -0.018787268986663948 0.0053220869426222912 0 -0.02402684986184174 0.0017526113601863268 0 -0.021477338144550214 0.0044909455779544331 0 -0.019791396278761818 0.0019372503959597654 0 -0.032870120654813276 0.011873320242846215 0 -0.033311817788843699 0.0090466976477580896 0 -0.035100727753509905 0.01039458529446613 0 -0.033311817788843699 0.0090466976477580896 0 -0.035100727753509905 0.01039458529446613 0 -0.035078430620996734 0.0078576893610523557 0 -0.03048291119306782 0.011675400339051059 0 -0.033311817788843699 0.0090466976477580896 0 -0.028170572403235793 0.0027588151763595493 0 -0.029681583651151217 0.0080673753978363402 0 -0.02832147391214947 0.00087179306245247781 0 -0.033311817788843699 0.0090466976477580896 0 -0.028170572403235793 0.0027588151763595493 0 -0.034512008758095028 0.0017495318719735358 0 -0.036342010167148359 0.006760359923204012 0 -0.038455294866354746 0.0046448876746050952 0 -0.033311817788843699 0.0090466976477580896 0 -0.034512008758095028 0.0017495318719735358 0 -0.041859421128523019 0.00054464713704154455 0 -0.034976184510462652 -0.0055049591510079052 0 -0.041326994110293301 -0.00708514707681042 0 -0.041859421128523019 0.00054464713704154455 0 -0.034512008758095028 0.0017495318719735358 0 -0.034976184510462652 -0.0055049591510079052 0 -0.041859421128523019 0.00054464713704154455 0 -0.026919560059038238 -0.0093472115499223987 0 -0.028170572403235793 0.0027588151763595493 0 -0.034976184510462652 -0.0055049591510079052 0 -0.028170572403235793 0.0027588151763595493 0 -0.034512008758095028 0.0017495318719735358 0 -0.034976184510462652 -0.0055049591510079052 0 -0.034976184510462652 -0.0055049591510079052 0 -0.031669891388421238 -0.012253791005215571 0 -0.036753627748774748 -0.013921426024618714 0 -0.026919560059038238 -0.0093472115499223987 0 -0.034976184510462652 -0.0055049591510079052 0 -0.031669891388421238 -0.012253791005215571 0 -0.034976184510462652 -0.0055049591510079052 0 -0.041326994110293301 -0.00708514707681042 0 -0.036753627748774748 -0.013921426024618714 0 -0.041326994110293301 -0.00708514707681042 0 -0.042784314879126026 -0.012675004501550022 0 -0.036753627748774748 -0.013921426024618714 0 -0.037065290281430179 0.0057619009062412629 0 -0.038739618207710304 0.0080910198729614025 0 -0.035078430620996734 0.0078576893610523557 0 -0.041326994110293301 -0.00708514707681042 0 -0.048679495704557818 -0.0074874077273328231 0 -0.042784314879126026 -0.012675004501550022 0 -0.039914332441064328 0.0037201139010236747 0 -0.038455294866354746 0.0046448876746050952 0 -0.041326994110293301 -0.00708514707681042 0 -0.048679495704557818 -0.0074874077273328231 0 -0.041859421128523019 0.00054464713704154455 0 -0.039914332441064328 0.0037201139010236747 0 -0.025733914186026489 0.021512160764019239 0 -0.037065290281430179 0.0057619009062412629 0 -0.040118603586640829 0.0055116575158058127 0 -0.038986987840321063 0.0036191415522903703 0 0.0028479015566233883 0.075549717483334777 0 0.0024146855038545936 0.075416196333669291 0 0.002425133307288252 0.075839355371909237 0 0.0028479015566233883 0.075549717483334777 0 0.0024146855038545936 0.075416196333669291 0 0.0030338474665363097 0.075136924245246497 0 -0.024965879392387449 0.03297327774536455 0 -0.024179207015711347 0.037151012917862568 0 -0.040118603586640829 0.0055116575158058127 0 -0.038739618207710304 0.0080910198729614025 0 -0.041321224376301861 0.007486254485079529 0 -0.037065290281430179 0.0057619009062412629 0 -0.040118603586640829 0.0055116575158058127 0 -0.038739618207710304 0.0080910198729614025 0 -0.038739618207710304 0.0080910198729614025 0 -0.040579279254620557 0.0090494030784581767 0 -0.041321224376301861 0.007486254485079529 0 -0.038739618207710304 0.0080910198729614025 0 -0.040579279254620557 0.0090494030784581767 0 -0.03973676618730148 0.011105880026598493 0 -0.040579279254620557 0.0090494030784581767 0 -0.03973676618730148 0.011105880026598493 0 -0.042475512550772046 0.0095193126631927787 0 -0.039699053664288858 0.02376342943639034 0 -0.024086781404304966 0.037571147128950218 0 -0.038739618207710304 0.0080910198729614025 0 -0.03973676618730148 0.011105880026598493 0 -0.037118960909954257 0.0099068415761485729 0 -0.03973676618730148 0.011105880026598493 0 -0.037118960909954257 0.0099068415761485729 0 -0.037172505071651249 0.012421834118189029 0 -0.037118960909954257 0.0099068415761485729 0 -0.035100727753509905 0.01039458529446613 0 -0.037172505071651249 0.012421834118189029 0 -0.038739618207710304 0.0080910198729614025 0 -0.037118960909954257 0.0099068415761485729 0 -0.035078430620996734 0.0078576893610523557 0 -0.037118960909954257 0.0099068415761485729 0 -0.035100727753509905 0.01039458529446613 0 -0.035078430620996734 0.0078576893610523557 0 -0.0061303742143997957 0.061857193759947235 0 -0.0079118455712465733 0.062074395379144061 0 -0.0073999962360087376 0.060752052369973525 0 -5.9223773103305812e-05 0.070299251922869857 0 -0.0023439623965474518 0.065206422991191171 0 0.0022626421786876793 0.075932726235862752 0 0.0019405310913982075 0.075819622066958151 0 0.0020664029007109496 0.076001169063024093 0 0.0019405310913982075 0.075819622066958151 0 0.0020001266003879612 0.075964534642234238 0 0.0019789054383942736 0.075824002518857472 0 0.0019405310913982075 0.075819622066958151 0 0.0020664029007109496 0.076001169063024093 0 0.0020001266003879612 0.075964534642234238 0 0.0020664029007109496 0.076001169063024093 0 0.0020603827537233202 0.076175280088283712 0 0.0020001266003879612 0.075964534642234238 0 0.0020603827537233202 0.076175280088283712 0 0.0020001266003879612 0.075964534642234238 0 0.0020510193796658164 0.076126392964785045 0 0.0020001266003879612 0.075964534642234238 0 0.0020510193796658164 0.076126392964785045 0 0.002022991346002844 0.075893628259476403 0 0.0020001266003879612 0.075964534642234238 0 0.0019789054383942736 0.075824002518857472 0 0.002022991346002844 0.075893628259476403 0 0.0019789054383942736 0.075824002518857472 0 0.0020319981410481724 0.075623154136514589 0 0.002021357047789738 0.075783990309948729 0 0.0019789054383942736 0.075824002518857472 0 0.0020319981410481724 0.075623154136514589 0 0.002022991346002844 0.075893628259476403 0 0.0019405310913982075 0.075819622066958151 0 0.0019789054383942736 0.075824002518857472 0 0.002021357047789738 0.075783990309948729 0 0.0019405310913982075 0.075819622066958151 0 0.002021357047789738 0.075783990309948729 0 0.0020226753158294601 0.075884359804065216 0 -0.0023439623965474518 0.065206422991191171 0 -0.0064895389471864651 0.057262580699669101 0 0.002021357047789738 0.075783990309948729 0 0.0021710035786614069 0.07583140571213895 0 0.0020226753158294601 0.075884359804065216 0 0.002021357047789738 0.075783990309948729 0 0.0021710035786614069 0.07583140571213895 0 0.0021687259177075244 0.075630894376061547 0 0.0020319981410481724 0.075623154136514589 0 0.002021357047789738 0.075783990309948729 0 0.0021687259177075244 0.075630894376061547 0 0.0020319981410481724 0.075623154136514589 0 0.0021687259177075244 0.075630894376061547 0 0.0021154624059776931 0.075199617829588034 0 0.0021687259177075244 0.075630894376061547 0 0.0024146855038545936 0.075416196333669291 0 0.0021154624059776931 0.075199617829588034 0 0.0021687259177075244 0.075630894376061547 0 0.0024146855038545936 0.075416196333669291 0 0.002425133307288252 0.075839355371909237 0 0.0021710035786614069 0.07583140571213895 0 0.0021687259177075244 0.075630894376061547 0 0.002425133307288252 0.075839355371909237 0 -0.040579279254620557 0.0090494030784581767 0 -0.041321224376301861 0.007486254485079529 0 -0.042475512550772046 0.0095193126631927787 0 -0.024179207015711347 0.037151012917862568 0 -0.024086781404304966 0.037571147128950218 0 0.0021710035786614069 0.07583140571213895 0 0.002425133307288252 0.075839355371909237 0 0.0022043756500070375 0.075981726826343562 0 -0.042849913165586499 0.0095650734660168817 0 -0.044395446149277894 0.012183485867963317 0 -0.04239030496668119 0.011549463426830322 0 -0.03973676618730148 0.011105880026598493 0 -0.042849913165586499 0.0095650734660168817 0 -0.04239030496668119 0.011549463426830322 0 -0.024086781404304966 0.037571147128950218 0 -0.024598685110268418 0.036797346193742315 0 -0.012063924493716035 0.059668694849045953 0 -0.0098388332878147685 0.058801648743830662 0 -0.010758860587234955 0.057463553492337775 0 -0.012063924493716035 0.059668694849045953 0 -0.010006940038632029 0.06085621424551093 0 -0.0098388332878147685 0.058801648743830662 0 -0.024086781404304966 0.037571147128950218 0 -0.0064895389471864651 0.057262580699669101 0 0.0021710035786614069 0.07583140571213895 0 0.0022043756500070375 0.075981726826343562 0 0.0020226753158294601 0.075884359804065216 0 -0.010006940038632029 0.06085621424551093 0 -0.0085646344127515289 0.059894188191284864 0 -0.0098388332878147685 0.058801648743830662 0 -0.0079118455712465733 0.062074395379144061 0 -0.010006940038632029 0.06085621424551093 0 -0.0085646344127515289 0.059894188191284864 0 -0.0085646344127515289 0.059894188191284864 0 -0.0098388332878147685 0.058801648743830662 0 -0.0085456326456337748 0.058132840613272077 0 -0.0085456326456337748 0.058132840613272077 0 -0.0068721258533202814 0.059279606875436798 0 -0.0074865897580550234 0.057077439702948235 0 -0.0030681288194739798 0.065733488540600321 0 -0.0029768445534103945 0.067420371956614517 0 -0.0020405180293657202 0.068569353771831085 0 -0.0020208661421032351 0.06871546383245962 0 -0.0022319398030724376 0.068251960772736028 0 -0.0085646344127515289 0.059894188191284864 0 -0.0085456326456337748 0.058132840613272077 0 -0.0068721258533202814 0.059279606875436798 0 -0.0019090655406496144 0.068905014105572857 0 -0.0020405180293657202 0.068569353771831085 0 -0.0020208661421032351 0.06871546383245962 0 -0.0085646344127515289 0.059894188191284864 0 -0.0068721258533202814 0.059279606875436798 0 -0.0073999962360087376 0.060752052369973525 0 -0.0079118455712465733 0.062074395379144061 0 -0.0085646344127515289 0.059894188191284864 0 -0.0073999962360087376 0.060752052369973525 0 -0.0061303742143997957 0.061857193759947235 0 -0.0068721258533202814 0.059279606875436798 0 -0.0073999962360087376 0.060752052369973525 0 0.0016630794487972824 0.081312925345483122 0 0.0022525596376547648 0.080882410972420299 0 0.0021710254667109017 0.080489991735175251 0 -0.0075789766060948083 0.055601842978427102 0 -0.0080369147178905951 0.055538935104322097 0 -0.0079237095183273924 0.0542676847827466 0 -0.0080369147178905951 0.055538935104322097 0 -0.0076742845694154488 0.056832638390187311 0 -0.0091077364455956055 0.056882296127359212 0 -0.0040322928988793857 0.064320614326881256 0 -0.0031229912191939658 0.067255879036085306 0 -0.0080369147178905951 0.055538935104322097 0 -0.0073229572991473126 0.056799739219649169 0 -0.0076236338726640498 0.057233334664919845 0 -0.0075789766060948083 0.055601842978427102 0 -0.0080369147178905951 0.055538935104322097 0 -0.0073229572991473126 0.056799739219649169 0 -0.0048942952331598013 0.066144944287725091 0 -0.0029838907355143008 0.069189160302047206 0 -0.0012960370048427639 0.071290393983639566 0 -0.0021561074124767212 0.067116991493476802 0 -0.0024727219427109217 0.068380426771963376 0 -0.0011025760597627057 0.071963724592486872 0 -0.0029838907355143008 0.069189160302047206 0 -0.0021561074124767212 0.067116991493476802 0 -0.0024727219427109217 0.068380426771963376 0 -0.0026297456569411254 0.06779563206901397 0 -0.0029838907355143008 0.069189160302047206 0 -0.0031229912191939658 0.067255879036085306 0 -0.0029768445534103945 0.067420371956614517 0 -0.0031229912191939658 0.067255879036085306 0 -0.0011025760597627057 0.071963724592486872 0 -0.0029768445534103945 0.067420371956614517 0 -0.0085456326456337748 0.058132840613272077 0 -0.0074865897580550234 0.057077439702948235 0 -0.0075647262710770184 0.0567764753559232 0 -0.0029825493421420943 0.065403470205987704 0 -0.0031229912191939658 0.067255879036085306 0 -0.0091077364455956055 0.056882296127359212 0 -0.0095148608058455396 0.055329189092557206 0 -0.010758860587234955 0.057463553492337775 0 -0.0098388332878147685 0.058801648743830662 0 -0.0085456326456337748 0.058132840613272077 0 -0.0091077364455956055 0.056882296127359212 0 -0.0098388332878147685 0.058801648743830662 0 -0.0091077364455956055 0.056882296127359212 0 -0.010758860587234955 0.057463553492337775 0 -0.0085456326456337748 0.058132840613272077 0 -0.0076742845694154488 0.056832638390187311 0 -0.0091077364455956055 0.056882296127359212 0 -0.0080369147178905951 0.055538935104322097 0 -0.0091077364455956055 0.056882296127359212 0 -0.0095148608058455396 0.055329189092557206 0 -0.0080369147178905951 0.055538935104322097 0 -0.0095148608058455396 0.055329189092557206 0 -0.0079237095183273924 0.0542676847827466 0 -0.023671464583234717 0.037547516289978829 0 -0.024598685110268418 0.036797346193742315 0 -0.046045334929710198 0.014984782073415411 0 -0.043942515726445877 0.014227732074411727 0 -0.043080988067320504 0.016147271366245754 0 -0.046045334929710198 0.014984782073415411 0 -0.043942515726445877 0.014227732074411727 0 -0.044395446149277894 0.012183485867963317 0 -0.043942515726445877 0.014227732074411727 0 -0.044395446149277894 0.012183485867963317 0 -0.042299196220669973 0.013642413004220189 0 -0.044395446149277894 0.012183485867963317 0 -0.04239030496668119 0.011549463426830322 0 -0.042299196220669973 0.013642413004220189 0 -0.042299196220669973 0.013642413004220189 0 -0.043080988067320504 0.016147271366245754 0 -0.039990355244810878 0.014797402179546674 0 -0.043942515726445877 0.014227732074411727 0 -0.042299196220669973 0.013642413004220189 0 -0.043080988067320504 0.016147271366245754 0 -0.040470359518938084 0.016748328253590097 0 -0.038938727585408409 0.017628375936284819 0 -0.043514589699240075 0.019384921529033268 0 -0.04003176067128475 0.018554261458819492 0 -0.041012848385461279 0.021461205769660954 0 -0.043080988067320504 0.016147271366245754 0 -0.043514589699240075 0.019384921529033268 0 -0.04003176067128475 0.018554261458819492 0 -0.043514589699240075 0.019384921529033268 0 -0.045292897838455248 0.017433917318399474 0 -0.045763695453789145 0.019236790295460254 0 -0.043514589699240075 0.019384921529033268 0 -0.045763695453789145 0.019236790295460254 0 -0.04518417534108092 0.020828736085848773 0 -0.046045334929710198 0.014984782073415411 0 -0.043080988067320504 0.016147271366245754 0 -0.045292897838455248 0.017433917318399474 0 -0.043080988067320504 0.016147271366245754 0 -0.043514589699240075 0.019384921529033268 0 -0.045292897838455248 0.017433917318399474 0 -0.0095148608058455396 0.055329189092557206 0 -0.0083170881516235768 0.053144912500279161 0 -0.0079237095183273924 0.0542676847827466 0 -0.023671464583234717 0.037547516289978829 0 -0.020444968237711879 0.039660824535972306 0 -0.046045334929710198 0.014984782073415411 0 -0.045292897838455248 0.017433917318399474 0 -0.047809964459861222 0.018091213773078336 0 -0.045763695453789145 0.019236790295460254 0 -0.047809964459861222 0.018091213773078336 0 -0.04692367591824631 0.020397042605688642 0 -0.045292897838455248 0.017433917318399474 0 -0.045763695453789145 0.019236790295460254 0 -0.047809964459861222 0.018091213773078336 0 -0.0067183795825650552 0.051113604661702547 0 -0.0073224538895087475 0.052136881799644264 0 -0.0071457758539841074 0.053328361121026881 0 -0.020444968237711879 0.039660824535972306 0 -0.01263802978290178 0.043515257660595524 0 -0.0083170881516235768 0.053144912500279161 0 -0.0073224538895087475 0.052136881799644264 0 -0.0071105602755072552 0.050958388151485144 0 -0.047809964459861222 0.018091213773078336 0 -0.049522488729122981 0.02127863095897457 0 -0.04692367591824631 0.020397042605688642 0 -0.0083170881516235768 0.053144912500279161 0 -0.0073224538895087475 0.052136881799644264 0 -0.0071457758539841074 0.053328361121026881 0 0.0016630794487972824 0.081312925345483122 0 0.0022525596376547648 0.080882410972420299 0 0.002009368144811491 0.081724135660494898 0 -0.0076368605345381252 0.055608830798763359 0 -0.0071457758539841074 0.053328361121026881 0 -0.0079237095183273924 0.0542676847827466 0 -0.0048942952331598013 0.066144944287725091 0 -0.0067299031536759363 0.062178824829601229 0 -0.0083170881516235768 0.053144912500279161 0 -0.0071457758539841074 0.053328361121026881 0 -0.0079237095183273924 0.0542676847827466 0 -0.0048942952331598013 0.066144944287725091 0 -0.0054926200209350134 0.063389914166774364 0 -0.037172505071651249 0.012421834118189029 0 -0.039990355244810878 0.014797402179546674 0 -0.036297210900575826 0.015603969012406647 0 -0.034087697699449075 0.012956443400460845 0 -0.033713039723556069 0.015191989969275154 0 -0.036297210900575826 0.015603969012406647 0 -0.034087697699449075 0.012956443400460845 0 -0.037172505071651249 0.012421834118189029 0 -0.036297210900575826 0.015603969012406647 0 -0.034087697699449075 0.012956443400460845 0 -0.035100727753509905 0.01039458529446613 0 -0.037172505071651249 0.012421834118189029 0 -0.03973676618730148 0.011105880026598493 0 -0.037172505071651249 0.012421834118189029 0 -0.039990355244810878 0.014797402179546674 0 -0.03973676618730148 0.011105880026598493 0 -0.042299196220669973 0.013642413004220189 0 -0.039990355244810878 0.014797402179546674 0 -0.03973676618730148 0.011105880026598493 0 -0.04239030496668119 0.011549463426830322 0 -0.042299196220669973 0.013642413004220189 0 -0.039990355244810878 0.014797402179546674 0 -0.038537573175083481 0.017576324013171604 0 -0.036297210900575826 0.015603969012406647 0 -0.043080988067320504 0.016147271366245754 0 -0.039990355244810878 0.014797402179546674 0 -0.041104558246903081 0.018114617325655041 0 -0.039990355244810878 0.014797402179546674 0 -0.041104558246903081 0.018114617325655041 0 -0.038537573175083481 0.017576324013171604 0 -0.038938727585408409 0.017628375936284819 0 -0.035372216950711778 0.019112310046784833 0 -0.041104558246903081 0.018114617325655041 0 -0.038537573175083481 0.017576324013171604 0 -0.038868655727389068 0.020432170037515737 0 -0.038537573175083481 0.017576324013171604 0 -0.036263555060373702 0.019043144631226618 0 -0.038868655727389068 0.020432170037515737 0 -0.038537573175083481 0.017576324013171604 0 -0.036263555060373702 0.019043144631226618 0 -0.036297210900575826 0.015603969012406647 0 -0.033837277573527329 0.017290001327652776 0 -0.036263555060373702 0.019043144631226618 0 -0.036297210900575826 0.015603969012406647 0 -0.033713039723556069 0.015191989969275154 0 -0.033837277573527329 0.017290001327652776 0 -0.036297210900575826 0.015603969012406647 0 -0.033837277573527329 0.017290001327652776 0 -0.036263555060373702 0.019043144631226618 0 -0.033262995896968989 0.02063355831370731 0 -0.036263555060373702 0.019043144631226618 0 -0.036415391411998732 0.022750562785278445 0 -0.033262995896968989 0.02063355831370731 0 -0.028851612757888778 0.02106032314052414 0 -0.024931763817659193 0.017819278172905361 0 -0.019370311431255064 0.016009916449597171 0 -0.019599706165675947 0.0158130514816518 0 -0.017132103015986909 0.013997100888046888 0 -0.018010259511372213 0.016386048143525109 0 -0.019370311431255064 0.016009916449597171 0 -0.017132103015986909 0.013997100888046888 0 -0.018010259511372213 0.016386048143525109 0 -0.019370311431255064 0.016009916449597171 0 -0.019085772173480831 0.016640293900017551 0 -0.01968175712212334 0.016421846879376603 0 -0.019604630291875483 0.015808657366236004 0 -0.020357888792113012 0.016904145102324693 0 -0.019440425993376961 0.016511266990877082 0 -0.019370311431255064 0.016009916449597171 0 -0.019085772173480831 0.016640293900017551 0 -0.01968175712212334 0.016421846879376603 0 -0.019440425993376961 0.016511266990877082 0 -0.019370311431255064 0.016009916449597171 0 -0.01968175712212334 0.016421846879376603 0 -0.019370311431255064 0.016009916449597171 0 -0.019604630291875483 0.015808657366236004 0 -0.028791814395258825 0.021067604544151818 0 -0.028851612757888778 0.02106032314052414 0 -0.036263555060373702 0.019043144631226618 0 -0.036415391411998732 0.022750562785278445 0 -0.038868655727389068 0.020432170037515737 0 -0.028851612757888778 0.02106032314052414 0 -0.035372216950711778 0.019112310046784833 0 -0.037124766059396297 0.020998807027951878 0 -0.039073892135303212 0.023343900139979574 0 -0.041012848385461279 0.021461205769660954 0 -0.04003176067128475 0.018554261458819492 0 -0.037124766059396297 0.020998807027951878 0 -0.041012848385461279 0.021461205769660954 0 -0.039073892135303212 0.023343900139979574 0 -0.037639774281654957 0.026069121818788461 0 -0.041766776310276241 0.024437611384765547 0 -0.039073892135303212 0.023343900139979574 0 -0.041012848385461279 0.021461205769660954 0 -0.041766776310276241 0.024437611384765547 0 -0.039073892135303212 0.023343900139979574 0 -0.0371072769038093 0.023502802516478617 0 -0.037639774281654957 0.026069121818788461 0 -0.034238171758015253 0.023477539674991856 0 -0.037124766059396297 0.020998807027951878 0 -0.0371072769038093 0.023502802516478617 0 -0.034238171758015253 0.023477539674991856 0 -0.0371072769038093 0.023502802516478617 0 -0.037639774281654957 0.026069121818788461 0 -0.037124766059396297 0.020998807027951878 0 -0.039073892135303212 0.023343900139979574 0 -0.0371072769038093 0.023502802516478617 0 -0.022350637424017415 0.022174287133554679 0 -0.017754492134455135 0.022195854832686848 0 -0.021955584136297598 0.017598894774476504 0 -0.020357888792113012 0.016904145102324693 0 -0.020314168021414853 0.018233875240825068 0 -0.0091325152956937827 0.025476203484867288 0 -0.008451567277479444 0.024969249089842809 0 -0.0078494012919806382 0.025333423406321814 0 -0.0091325152956937827 0.025476203484867288 0 -0.0077816091246056584 0.026000786417912609 0 -0.0078494012919806382 0.025333423406321814 0 -0.022350637424017415 0.022174287133554679 0 -0.024261319300250963 0.025973370832130197 0 -0.022350637424017415 0.022174287133554679 0 -0.0192453272905082 0.021167786648746505 0 -0.008451567277479444 0.024969249089842809 0 -0.0091133890736206265 0.024593367543873378 0 -0.0082291818927847302 0.024280083439481473 0 -0.0090266680085273471 0.025360194422418117 0 -0.008451567277479444 0.024969249089842809 0 -0.0091133890736206265 0.024593367543873378 0 -0.0090266680085273471 0.025360194422418117 0 -0.0091133890736206265 0.024593367543873378 0 -0.0097197499502000382 0.025070334227708598 0 -0.0091133890736206265 0.024593367543873378 0 -0.0097197499502000382 0.025070334227708598 0 -0.0099276261329476687 0.024170166398441249 0 -0.010496871443704056 0.024759706946433729 0 -0.0097197499502000382 0.025070334227708598 0 -0.0099276261329476687 0.024170166398441249 0 -0.015600756835206637 0.021641496989168667 0 -0.017754492134455135 0.022195854832686848 0 -0.015600756835206637 0.021641496989168667 0 -0.014821995019560675 0.02160801145866572 0 -0.010449338106571308 0.024612015712232305 0 -0.010584887086240039 0.023666391914500085 0 -0.011477113570489549 0.024039194754421241 0 -0.015600756835206637 0.021641496989168667 0 -0.014394872081242883 0.022275316975391687 0 -0.018010259511372213 0.016386048143525109 0 -0.018975028121750035 0.017421411027377987 0 -0.016629294803506521 0.016573208097174205 0 -0.018677262506098812 0.018865484000908816 0 -0.018975028121750035 0.017421411027377987 0 -0.016629294803506521 0.016573208097174205 0 -0.015600756835206637 0.021641496989168667 0 -0.015459582358248052 0.017839054945161678 0 -0.018010259511372213 0.016386048143525109 0 -0.018975028121750035 0.017421411027377987 0 -0.019085772173480831 0.016640293900017551 0 -0.018975028121750035 0.017421411027377987 0 -0.019085772173480831 0.016640293900017551 0 -0.019623618457078551 0.016973812547710021 0 -0.028851612757888778 0.02106032314052414 0 -0.022350637424017415 0.022174287133554679 0 -0.019604630291875483 0.015808657366236004 0 -0.021955584136297598 0.017598894774476504 0 -0.020357888792113012 0.016904145102324693 0 -0.019440425993376961 0.016511266990877082 0 -0.019085772173480831 0.016640293900017551 0 -0.019623618457078551 0.016973812547710021 0 -0.01968175712212334 0.016421846879376603 0 -0.019440425993376961 0.016511266990877082 0 -0.019623618457078551 0.016973812547710021 0 -0.01968175712212334 0.016421846879376603 0 -0.019623618457078551 0.016973812547710021 0 -0.020357888792113012 0.016904145102324693 0 -0.019623618457078551 0.016973812547710021 0 -0.020357888792113012 0.016904145102324693 0 -0.020314168021414853 0.018233875240825068 0 -0.018677262506098812 0.018865484000908816 0 -0.018975028121750035 0.017421411027377987 0 -0.020314168021414853 0.018233875240825068 0 -0.018975028121750035 0.017421411027377987 0 -0.019623618457078551 0.016973812547710021 0 -0.020314168021414853 0.018233875240825068 0 -0.0051609904366469745 0.026077187735408368 0 -0.005560995177305037 0.026093548401082124 0 -0.0059063554301780567 0.026696236745736655 0 -0.0086638054888607888 0.043780585981068737 0 -0.015115964931662196 0.039277404696045931 0 -0.0058572004743743184 0.026064049364223466 0 -0.0059063554301780567 0.026696236745736655 0 -0.0062995144361720013 0.026024694326336799 0 -0.005560995177305037 0.026093548401082124 0 -0.0058572004743743184 0.026064049364223466 0 -0.0056063178894414922 0.025797893125909938 0 -0.005560995177305037 0.026093548401082124 0 -0.0058572004743743184 0.026064049364223466 0 -0.0059063554301780567 0.026696236745736655 0 -0.012839330946165814 0.042883576227561677 0 -0.011898849117296299 0.04122807170865507 0 -0.010457088519255106 0.04178810011321709 0 -0.049522488729122981 0.02127863095897457 0 -0.048050591678889989 0.021848341804649323 0 -0.04692367591824631 0.020397042605688642 0 -0.01263802978290178 0.043515257660595524 0 -0.015115964931662196 0.039277404696045931 0 -0.0067183795825650552 0.051113604661702547 0 -0.0073224538895087475 0.052136881799644264 0 -0.0071105602755072552 0.050958388151485144 0 -0.04692367591824631 0.020397042605688642 0 -0.045746057418907991 0.022794049791845728 0 -0.04518417534108092 0.020828736085848773 0 -0.048050591678889989 0.021848341804649323 0 -0.04692367591824631 0.020397042605688642 0 -0.045746057418907991 0.022794049791845728 0 -0.045763695453789145 0.019236790295460254 0 -0.04692367591824631 0.020397042605688642 0 -0.04518417534108092 0.020828736085848773 0 -0.015115964931662196 0.039277404696045931 0 -0.022838523833035133 0.0315047697428123 0 -0.0065749633900146313 0.026442292578685522 0 -0.0062995144361720013 0.026024694326336799 0 -0.0068309289402237478 0.025598618590553634 0 -0.0059063554301780567 0.026696236745736655 0 -0.0065749633900146313 0.026442292578685522 0 -0.0062995144361720013 0.026024694326336799 0 -0.022838523833035133 0.0315047697428123 0 -0.024261319300250963 0.025973370832130197 0 -0.045746057418907991 0.022794049791845728 0 -0.043466178321618254 0.021792125244543315 0 -0.041766776310276241 0.024437611384765547 0 -0.0065749633900146313 0.026442292578685522 0 -0.0077816091246056584 0.026000786417912609 0 -0.0068309289402237478 0.025598618590553634 0 -0.045746057418907991 0.022794049791845728 0 -0.043466178321618254 0.021792125244543315 0 -0.04518417534108092 0.020828736085848773 0 -0.043514589699240075 0.019384921529033268 0 -0.043466178321618254 0.021792125244543315 0 -0.04518417534108092 0.020828736085848773 0 -0.043514589699240075 0.019384921529033268 0 -0.043466178321618254 0.021792125244543315 0 -0.041012848385461279 0.021461205769660954 0 -0.043466178321618254 0.021792125244543315 0 -0.041012848385461279 0.021461205769660954 0 -0.041766776310276241 0.024437611384765547 0 -0.0078494012919806382 0.025333423406321814 0 -0.0074295938562602372 0.024858365525556023 0 -0.0068309289402237478 0.025598618590553634 0 -0.0077816091246056584 0.026000786417912609 0 -0.0078494012919806382 0.025333423406321814 0 -0.0068309289402237478 0.025598618590553634 0 -0.008451567277479444 0.024969249089842809 0 -0.0078494012919806382 0.025333423406321814 0 -0.0074295938562602372 0.024858365525556023 0 -0.008451567277479444 0.024969249089842809 0 -0.0074295938562602372 0.024858365525556023 0 -0.0082291818927847302 0.024280083439481473 0 -0.0074295938562602372 0.024858365525556023 0 -0.0067098325289934348 0.024981827713149704 0 -0.0068309289402237478 0.025598618590553634 0 -0.0074295938562602372 0.024858365525556023 0 -0.0070697090954930783 0.024478755419573183 0 -0.0075386398060707446 0.024254871556317444 0 -0.0074295938562602372 0.024858365525556023 0 -0.0067098325289934348 0.024981827713149704 0 -0.0070697090954930783 0.024478755419573183 0 -0.0067098325289934348 0.024981827713149704 0 -0.0065082181458276309 0.024433644496210341 0 -0.0070697090954930783 0.024478755419573183 0 -0.0062995144361720013 0.026024694326336799 0 -0.0068309289402237478 0.025598618590553634 0 -0.0063756519144420164 0.025412037122369991 0 -0.0062995144361720013 0.026024694326336799 0 -0.0063756519144420164 0.025412037122369991 0 -0.0059785378559164635 0.025658773768836306 0 -0.0058572004743743184 0.026064049364223466 0 -0.0062995144361720013 0.026024694326336799 0 -0.0059785378559164635 0.025658773768836306 0 -0.0063756519144420164 0.025412037122369991 0 -0.0061375755448287075 0.025045432453755137 0 -0.0059785378559164635 0.025658773768836306 0 -0.0067098325289934348 0.024981827713149704 0 -0.0068309289402237478 0.025598618590553634 0 -0.0063756519144420164 0.025412037122369991 0 -0.0067098325289934348 0.024981827713149704 0 -0.0063756519144420164 0.025412037122369991 0 -0.0061375755448287075 0.025045432453755137 0 -0.0067098325289934348 0.024981827713149704 0 -0.0061375755448287075 0.025045432453755137 0 -0.0065082181458276309 0.024433644496210341 0 -0.0061375755448287075 0.025045432453755137 0 -0.0057509702079887731 0.024971362523797374 0 -0.0060231838686325197 0.024430871796859665 0 -0.0061375755448287075 0.025045432453755137 0 -0.0057509702079887731 0.024971362523797374 0 -0.0056921007990372845 0.025414010940982414 0 -0.0054131217470398951 0.025141185769600099 0 -0.0057509702079887731 0.024971362523797374 0 -0.0055199882473497466 0.024680562967963608 0 -0.0054131217470398951 0.025141185769600099 0 -0.0057509702079887731 0.024971362523797374 0 -0.0056921007990372845 0.025414010940982414 0 -0.0053653305254814402 0.025532739968174185 0 -0.0054131217470398951 0.025141185769600099 0 -0.0056921007990372845 0.025414010940982414 0 -0.0053653305254814402 0.025532739968174185 0 -0.0056921007990372845 0.025414010940982414 0 -0.0056063178894414922 0.025797893125909938 0 -0.0061375755448287075 0.025045432453755137 0 -0.0056921007990372845 0.025414010940982414 0 -0.0059785378559164635 0.025658773768836306 0 -0.0056921007990372845 0.025414010940982414 0 -0.0059785378559164635 0.025658773768836306 0 -0.0056063178894414922 0.025797893125909938 0 -0.0058572004743743184 0.026064049364223466 0 -0.0059785378559164635 0.025658773768836306 0 -0.0056063178894414922 0.025797893125909938 0 -0.0053306351508511495 0.025841648759484317 0 -0.005560995177305037 0.026093548401082124 0 -0.0056063178894414922 0.025797893125909938 0 -0.0056489140836005767 0.02407160913035165 0 -0.0060231838686325197 0.024430871796859665 0 -0.0060912688954223044 0.023877350615529574 0 -0.0051867484101276564 0.023768831258820136 0 -0.0056489140836005767 0.02407160913035165 0 -0.0057428839217631778 0.023395496969394972 0 -0.0056489140836005767 0.02407160913035165 0 -0.0060912688954223044 0.023877350615529574 0 -0.0057428839217631778 0.023395496969394972 0 -0.0056489140836005767 0.02407160913035165 0 -0.0055199882473497466 0.024680562967963608 0 -0.0060231838686325197 0.024430871796859665 0 -0.0057509702079887731 0.024971362523797374 0 -0.0055199882473497466 0.024680562967963608 0 -0.0060231838686325197 0.024430871796859665 0 -0.0061375755448287075 0.025045432453755137 0 -0.0060231838686325197 0.024430871796859665 0 -0.0065082181458276309 0.024433644496210341 0 -0.0060231838686325197 0.024430871796859665 0 -0.0065082181458276309 0.024433644496210341 0 -0.0064212556050295229 0.024097393396388438 0 -0.0060912688954223044 0.023877350615529574 0 -0.0064212556050295229 0.024097393396388438 0 -0.0065792314573400335 0.023455640622491322 0 -0.0060231838686325197 0.024430871796859665 0 -0.0060912688954223044 0.023877350615529574 0 -0.0064212556050295229 0.024097393396388438 0 -0.0061229832874247977 0.024516926167951175 0 -0.0069367885669643211 0.02385944381403262 0 -0.0058948920690626658 0.023327131857603524 0 -0.0067070555925255937 0.023732754714423088 0 -0.0064001932370191545 0.023270990446566345 0 -0.0064212556050295229 0.024097393396388438 0 -0.0067675873805996892 0.024175516039014067 0 -0.0065792314573400335 0.023455640622491322 0 -0.0065082181458276309 0.024433644496210341 0 -0.0064212556050295229 0.024097393396388438 0 -0.0067675873805996892 0.024175516039014067 0 -0.0066417312689162561 0.023832500710395846 0 -0.0067070555925255937 0.023732754714423088 0 -0.0065082181458276309 0.024433644496210341 0 -0.0070697090954930783 0.024478755419573183 0 -0.0071335588176994471 0.023813272008531037 0 -0.0070697090954930783 0.024478755419573183 0 -0.0071335588176994471 0.023813272008531037 0 -0.0075386398060707446 0.024254871556317444 0 -0.0074295938562602372 0.024858365525556023 0 -0.0075386398060707446 0.024254871556317444 0 -0.0082291818927847302 0.024280083439481473 0 -0.0071335588176994471 0.023813272008531037 0 -0.0075386398060707446 0.024254871556317444 0 -0.0077471006030922548 0.023786852246157911 0 -0.0075386398060707446 0.024254871556317444 0 -0.0077471006030922548 0.023786852246157911 0 -0.0082291818927847302 0.024280083439481473 0 -0.0067070555925255937 0.023732754714423088 0 -0.0073744813859366581 0.023375675013024306 0 -0.0077471006030922548 0.023786852246157911 0 -0.0079868103173575782 0.023148678745657451 0 -0.0083454914617464241 0.023665026485619928 0 -0.0071335588176994471 0.023813272008531037 0 -0.0077471006030922548 0.023786852246157911 0 -0.0079868103173575782 0.023148678745657451 0 -0.0069367885669643211 0.02385944381403262 0 -0.0066373681175592465 0.022900612010913392 0 -0.0058948920690626658 0.023327131857603524 0 -0.0066373681175592465 0.022900612010913392 0 -0.0057236619437790875 0.022169975306980869 0 -0.0069651001501308549 0.022005498844710182 0 -0.0064001932370191545 0.023270990446566345 0 -0.0061290185154734261 0.022470941398516221 0 -0.0066373681175592465 0.022900612010913392 0 -0.0058948920690626658 0.023327131857603524 0 -0.0057236619437790875 0.022169975306980869 0 -0.0060912688954223044 0.023877350615529574 0 -0.0065792314573400335 0.023455640622491322 0 -0.0057428839217631778 0.023395496969394972 0 -0.0065792314573400335 0.023455640622491322 0 -0.0057428839217631778 0.023395496969394972 0 -0.0063658073259410686 0.022678370267250468 0 -0.0057428839217631778 0.023395496969394972 0 -0.0052870666393981455 0.022653999216500482 0 -0.0063658073259410686 0.022678370267250468 0 -0.0050781282460675842 0.023263671382070424 0 -0.0057428839217631778 0.023395496969394972 0 -0.0052870666393981455 0.022653999216500482 0 -0.0096304293658330247 0.023431716531411077 0 -0.009437670807585256 0.022743243479106778 0 -0.010360412277963875 0.022881986350116495 0 -0.0096304293658330247 0.023431716531411077 0 -0.010584887086240039 0.023666391914500085 0 -0.010360412277963875 0.022881986350116495 0 -0.010584887086240039 0.023666391914500085 0 -0.010360412277963875 0.022881986350116495 0 -0.011713504880796571 0.022982189553960634 0 -0.010449338106571308 0.024612015712232305 0 -0.010584887086240039 0.023666391914500085 0 -0.0099276261329476687 0.024170166398441249 0 -0.0096304293658330247 0.023431716531411077 0 -0.0099276261329476687 0.024170166398441249 0 -0.0093698328182257144 0.024045454835662439 0 -0.0096304293658330247 0.023431716531411077 0 -0.010584887086240039 0.023666391914500085 0 -0.0099276261329476687 0.024170166398441249 0 -0.0096304293658330247 0.023431716531411077 0 -0.0093698328182257144 0.024045454835662439 0 -0.0088640293275376539 0.023853745285645319 0 -0.0091133890736206265 0.024593367543873378 0 -0.0099276261329476687 0.024170166398441249 0 -0.0093698328182257144 0.024045454835662439 0 -0.0091133890736206265 0.024593367543873378 0 -0.0093698328182257144 0.024045454835662439 0 -0.0088640293275376539 0.023853745285645319 0 -0.0091133890736206265 0.024593367543873378 0 -0.0088640293275376539 0.023853745285645319 0 -0.0082291818927847302 0.024280083439481473 0 -0.0088640293275376539 0.023853745285645319 0 -0.0082291818927847302 0.024280083439481473 0 -0.0083454914617464241 0.023665026485619928 0 -0.0077471006030922548 0.023786852246157911 0 -0.0082291818927847302 0.024280083439481473 0 -0.0083454914617464241 0.023665026485619928 0 -0.0079868103173575782 0.023148678745657451 0 -0.0083454914617464241 0.023665026485619928 0 -0.0088538170725968104 0.023225035830169286 0 -0.0088640293275376539 0.023853745285645319 0 -0.0083454914617464241 0.023665026485619928 0 -0.0088538170725968104 0.023225035830169286 0 -0.0096304293658330247 0.023431716531411077 0 -0.0088538170725968104 0.023225035830169286 0 -0.009437670807585256 0.022743243479106778 0 -0.0096304293658330247 0.023431716531411077 0 -0.0088640293275376539 0.023853745285645319 0 -0.0088538170725968104 0.023225035830169286 0 -0.0087106770588233177 0.022639236742058876 0 -0.0090311703211602683 0.022317987006784622 0 -0.009437670807585256 0.022743243479106778 0 -0.0088538170725968104 0.023225035830169286 0 -0.0087106770588233177 0.022639236742058876 0 -0.009437670807585256 0.022743243479106778 0 -0.0079868103173575782 0.023148678745657451 0 -0.0088538170725968104 0.023225035830169286 0 -0.0087106770588233177 0.022639236742058876 0 -0.0073744813859366581 0.023375675013024306 0 -0.0080514236037724802 0.022923508909495335 0 -0.0069367885669643211 0.02385944381403262 0 -0.0066373681175592465 0.022900612010913392 0 -0.0078070046804492995 0.023210432095515529 0 -0.0066373681175592465 0.022900612010913392 0 -0.0078070046804492995 0.023210432095515529 0 -0.0069651001501308549 0.022005498844710182 0 -0.0078070046804492995 0.023210432095515529 0 -0.0069651001501308549 0.022005498844710182 0 -0.0080246718080380468 0.021801539138142305 0 -0.0080514236037724802 0.022923508909495335 0 -0.0084065099486008814 0.022665919062753694 0 -0.0078070046804492995 0.023210432095515529 0 -0.0090311703211602683 0.022317987006784622 0 -0.0080246718080380468 0.021801539138142305 0 -0.0090311703211602683 0.022317987006784622 0 -0.009437670807585256 0.022743243479106778 0 -0.010126245037172237 0.022121761162049204 0 -0.009437670807585256 0.022743243479106778 0 -0.010360412277963875 0.022881986350116495 0 -0.010126245037172237 0.022121761162049204 0 -0.010360412277963875 0.022881986350116495 0 -0.010126245037172237 0.022121761162049204 0 -0.010963490810167262 0.022456530361126662 0 -0.010126245037172237 0.022121761162049204 0 -0.011223705522448958 0.021738859281764833 0 -0.010963490810167262 0.022456530361126662 0 -0.011223705522448958 0.021738859281764833 0 -0.011623849227659007 0.022419074035829493 0 -0.010963490810167262 0.022456530361126662 0 -0.011968312919437323 0.021871325715615446 0 -0.012323634612848312 0.021393134100553483 0 -0.011223705522448958 0.021738859281764833 0 -0.011623849227659007 0.022419074035829493 0 -0.012123533554989881 0.021599515467325869 0 -0.011623849227659007 0.022419074035829493 0 -0.011713504880796571 0.022982189553960634 0 -0.012030246665704432 0.022917628447932568 0 -0.011623849227659007 0.022419074035829493 0 -0.012195475321720323 0.022823755897144048 0 -0.012030246665704432 0.022917628447932568 0 -0.011623849227659007 0.022419074035829493 0 -0.010963490810167262 0.022456530361126662 0 -0.011713504880796571 0.022982189553960634 0 -0.010360412277963875 0.022881986350116495 0 -0.010963490810167262 0.022456530361126662 0 -0.011713504880796571 0.022982189553960634 0 -0.012598118947638648 0.022223841262304977 0 -0.013516269427956168 0.021690275247842956 0 -0.013052328416390991 0.021104730430137681 0 -0.012598118947638648 0.022223841262304977 0 -0.013052328416390991 0.021104730430137681 0 -0.01231988288532586 0.021352324295708828 0 -0.011623849227659007 0.022419074035829493 0 -0.012598118947638648 0.022223841262304977 0 -0.01231988288532586 0.021352324295708828 0 -0.011623849227659007 0.022419074035829493 0 -0.012195475321720323 0.022823755897144048 0 -0.012598118947638648 0.022223841262304977 0 -0.012195475321720323 0.022823755897144048 0 -0.012598118947638648 0.022223841262304977 0 -0.012664914850785582 0.022831183267050591 0 -0.012598118947638648 0.022223841262304977 0 -0.013230818737343102 0.022980596827902686 0 -0.013516269427956168 0.021690275247842956 0 -0.0083817527151877919 0.002473930132647456 0 -0.010145007875778237 0.005027006013584843 0 -0.012598118947638648 0.022223841262304977 0 -0.012664914850785582 0.022831183267050591 0 -0.013230818737343102 0.022980596827902686 0 -0.0089079149301227126 0.0038121227134984147 0 -0.0097910634391667403 0.0038728895758918008 0 -0.0083817527151877919 0.002473930132647456 0 -0.0097910634391667403 0.0038728895758918008 0 -0.0083756740957674127 0.0029180365089667808 0 -0.0082519980046661025 0.0034862801555328995 0 -0.0092990483245170303 0.0032445007730760311 0 -0.012664914850785582 0.022831183267050591 0 -0.013230818737343102 0.022980596827902686 0 -0.01218426590980424 0.023243408327327048 0 -0.0089079149301227126 0.0038121227134984147 0 -0.0083817527151877919 0.002473930132647456 0 -0.002521958737256828 -0.0065166201672772952 0 -0.0028962927304739335 -0.0083522009550467159 0 -0.004240898317952828 -0.0069429783287021053 0 -0.010484048550174929 0.023213937722632007 0 -0.01218426590980424 0.023243408327327048 0 -0.011978492149236852 0.022830798293287626 0 -0.012195475321720323 0.022823755897144048 0 -0.012664914850785582 0.022831183267050591 0 -0.01218426590980424 0.023243408327327048 0 -0.012195475321720323 0.022823755897144048 0 -0.01218426590980424 0.023243408327327048 0 -0.012030246665704432 0.022917628447932568 0 -0.01218426590980424 0.023243408327327048 0 -0.011978492149236852 0.022830798293287626 0 -0.01233847520506124 0.023056324059494329 0 -0.01218426590980424 0.023243408327327048 0 -0.012030246665704432 0.022917628447932568 0 -0.01233847520506124 0.023056324059494329 0 -0.011978492149236852 0.022830798293287626 0 -0.01231197506868879 0.020830539506269834 0 -0.010482879406743698 0.021172489266037268 0 -0.011978492149236852 0.022830798293287626 0 -0.012915217869075249 0.022885424745478222 0 -0.01231197506868879 0.020830539506269834 0 -0.011978492149236852 0.022830798293287626 0 -0.01233847520506124 0.023056324059494329 0 -0.012915217869075249 0.022885424745478222 0 -0.010484048550174929 0.023213937722632007 0 -0.011978492149236852 0.022830798293287626 0 -0.010482879406743698 0.021172489266037268 0 -0.0033434016052290637 -0.0053189811192019135 0 -0.0026152251674535208 -0.0020688699511071697 0 -0.0050027042194228542 -0.0026604524725852337 0 -0.0089079149301227126 0.0038121227134984147 0 -0.008278119074484459 0.0081676931179542681 0 -0.011713504880796571 0.022982189553960634 0 -0.012030246665704432 0.022917628447932568 0 -0.01233847520506124 0.023056324059494329 0 -0.011713504880796571 0.022982189553960634 0 -0.01233847520506124 0.023056324059494329 0 -0.012915217869075249 0.022885424745478222 0 -0.01383233435878042 0.022520168774910143 0 -0.014394872081242883 0.022275316975391687 0 -0.011713504880796571 0.022982189553960634 0 -0.012915217869075249 0.022885424745478222 0 -0.011477113570489549 0.024039194754421241 0 -0.010584887086240039 0.023666391914500085 0 -0.011713504880796571 0.022982189553960634 0 -0.011477113570489549 0.024039194754421241 0 -0.017017151140393247 0.021472086501796106 0 -0.014521095221517441 0.019500118876517879 0 -0.016951057530637369 0.016405219338662545 0 -0.020368602530882119 0.020159841419928291 0 -0.017017151140393247 0.021472086501796106 0 -0.016951057530637369 0.016405219338662545 0 -0.014611035666957163 0.017188375754243278 0 -0.014521095221517441 0.019500118876517879 0 -0.016951057530637369 0.016405219338662545 0 -0.014611035666957163 0.017188375754243278 0 -0.013139198684606753 0.018388742284109034 0 -0.013202965659225904 0.016559204812577766 0 -0.014611035666957163 0.017188375754243278 0 -0.014521095221517441 0.019500118876517879 0 -0.013139198684606753 0.018388742284109034 0 -0.014521095221517441 0.019500118876517879 0 -0.01231197506868879 0.020830539506269834 0 -0.013139198684606753 0.018388742284109034 0 -0.012915217869075249 0.022885424745478222 0 -0.017017151140393247 0.021472086501796106 0 -0.014521095221517441 0.019500118876517879 0 -0.012915217869075249 0.022885424745478222 0 -0.014521095221517441 0.019500118876517879 0 -0.01231197506868879 0.020830539506269834 0 -0.01231197506868879 0.020830539506269834 0 -0.010482879406743698 0.021172489266037268 0 -0.011571253521995077 0.018802489947835229 0 -0.01231197506868879 0.020830539506269834 0 -0.013139198684606753 0.018388742284109034 0 -0.011571253521995077 0.018802489947835229 0 -0.0026152251674535208 -0.0020688699511071697 0 -0.003382127254017164 0.0001773171619474124 0 -0.0018731019865481182 0.0012243015426047325 0 -0.010482879406743698 0.021172489266037268 0 -0.010880668727885298 0.017973292083086755 0 -0.011571253521995077 0.018802489947835229 0 -0.0026152251674535208 -0.0020688699511071697 0 -0.0049754504667238186 -0.00010667374292893553 0 -0.0050027042194228542 -0.0026604524725852337 0 -0.008278119074484459 0.0081676931179542681 0 -0.0087200531056131035 0.0099695162269539134 0 -0.0026152251674535208 -0.0020688699511071697 0 -0.003382127254017164 0.0001773171619474124 0 -0.0049754504667238186 -0.00010667374292893553 0 -0.0018731019865481182 0.0012243015426047325 0 -0.0040692348513837375 0.0016711163766907921 0 -0.0042126788945622646 0.0041711640440625928 0 -0.003382127254017164 0.0001773171619474124 0 -0.0040692348513837375 0.0016711163766907921 0 -0.0049754504667238186 -0.00010667374292893553 0 -0.003382127254017164 0.0001773171619474124 0 -0.0018731019865481182 0.0012243015426047325 0 -0.0040692348513837375 0.0016711163766907921 0 -0.010934069472137917 0.017733843111877239 0 -0.01224309352989391 0.017244871378138231 0 -0.012447735089434812 0.014993574243183096 0 -0.013139198684606753 0.018388742284109034 0 -0.011571253521995077 0.018802489947835229 0 -0.01224309352989391 0.017244871378138231 0 -0.010934069472137917 0.017733843111877239 0 -0.011571253521995077 0.018802489947835229 0 -0.01224309352989391 0.017244871378138231 0 -0.0087200531056131035 0.0099695162269539134 0 -0.009057965120517035 0.010483360668066955 0 -0.013139198684606753 0.018388742284109034 0 -0.01224309352989391 0.017244871378138231 0 -0.013202965659225904 0.016559204812577766 0 -0.0087200531056131035 0.0099695162269539134 0 -0.0087941314489176168 0.011740337692773203 0 -0.012447735089434812 0.014993574243183096 0 -0.012743554212416774 0.013387681492509709 0 -0.013769337048442619 0.015243050178355489 0 -0.013202965659225904 0.016559204812577766 0 -0.012447735089434812 0.014993574243183096 0 -0.013769337048442619 0.015243050178355489 0 -0.01224309352989391 0.017244871378138231 0 -0.013202965659225904 0.016559204812577766 0 -0.012447735089434812 0.014993574243183096 0 -0.01210567556435428 0.016518009023409774 0 -0.012447735089434812 0.014993574243183096 0 -0.010683862503455568 0.014626951404806368 0 -0.0087200531056131035 0.0099695162269539134 0 -0.0081120684721268585 0.0094737552832802416 0 -0.012447735089434812 0.014993574243183096 0 -0.012743554212416774 0.013387681492509709 0 -0.010683862503455568 0.014626951404806368 0 -0.011761330688472129 0.011747171505811395 0 -0.012293653368499311 0.012379492380419334 0 -0.010410382492593618 0.010419249864898826 0 -0.012743554212416774 0.013387681492509709 0 -0.010719293739953473 0.012558503157343573 0 -0.012743554212416774 0.013387681492509709 0 -0.010719293739953473 0.012558503157343573 0 -0.010683862503455568 0.014626951404806368 0 -0.013347855002442514 0.012422211439363987 0 -0.012743554212416774 0.013387681492509709 0 -0.014000502978907425 0.013449791413259089 0 -0.012743554212416774 0.013387681492509709 0 -0.014000502978907425 0.013449791413259089 0 -0.013769337048442619 0.015243050178355489 0 -0.014815028355335689 0.012449480038756691 0 -0.01469978224767402 0.014322975226152808 0 -0.017132103015986909 0.013997100888046888 0 -0.01469978224767402 0.014322975226152808 0 -0.017132103015986909 0.013997100888046888 0 -0.016629294803506521 0.016573208097174205 0 -0.018010259511372213 0.016386048143525109 0 -0.017132103015986909 0.013997100888046888 0 -0.016629294803506521 0.016573208097174205 0 -0.014000502978907425 0.013449791413259089 0 -0.016951057530637369 0.016405219338662545 0 -0.013769337048442619 0.015243050178355489 0 -0.014611035666957163 0.017188375754243278 0 -0.016951057530637369 0.016405219338662545 0 -0.013769337048442619 0.015243050178355489 0 -0.014169458909478612 0.014957130420812438 0 -0.015459582358248052 0.017839054945161678 0 -0.014611035666957163 0.017188375754243278 0 -0.013202965659225904 0.016559204812577766 0 -0.013769337048442619 0.015243050178355489 0 -0.010932788632405868 0.0042564726477972983 0 -0.0092843705669022787 0.0032239964067632383 0 -0.010410022217976682 0.0015744806444203281 0 -0.010932788632405868 0.0042564726477972983 0 -0.0093418128402602135 0.0060336357306211008 0 -0.0092843705669022787 0.0032239964067632383 0 -0.010932788632405868 0.0042564726477972983 0 -0.012088960351798685 0.0028886109978801507 0 -0.010410022217976682 0.0015744806444203281 0 -0.013026090892934472 0.0048563274005609417 0 -0.013761138877002485 0.0021272993084774055 0 -0.014849581711849046 0.0037226343057743484 0 -0.012088960351798685 0.0028886109978801507 0 -0.013026090892934472 0.0048563274005609417 0 -0.013761138877002485 0.0021272993084774055 0 -0.010932788632405868 0.0042564726477972983 0 -0.012088960351798685 0.0028886109978801507 0 -0.013026090892934472 0.0048563274005609417 0 -0.012095444012861665 0.0077065076216769274 0 -0.013026090892934472 0.0048563274005609417 0 -0.014937015276888583 0.0070928464391906689 0 -0.013026090892934472 0.0048563274005609417 0 -0.014937015276888583 0.0070928464391906689 0 -0.014849581711849046 0.0037226343057743484 0 -0.012095444012861665 0.0077065076216769274 0 -0.013026090892934472 0.0048563274005609417 0 -0.011055688893642411 0.0060383216213665651 0 -0.012095444012861665 0.0077065076216769274 0 -0.010200213031633518 0.0080042213251575144 0 -0.011055688893642411 0.0060383216213665651 0 -0.010932788632405868 0.0042564726477972983 0 -0.013026090892934472 0.0048563274005609417 0 -0.011055688893642411 0.0060383216213665651 0 -0.010932788632405868 0.0042564726477972983 0 -0.011055688893642411 0.0060383216213665651 0 -0.0093418128402602135 0.0060336357306211008 0 -0.010200213031633518 0.0080042213251575144 0 -0.0087958999680321608 0.0075732874820623646 0 -0.0093418128402602135 0.0060336357306211008 0 -0.010200213031633518 0.0080042213251575144 0 -0.011055688893642411 0.0060383216213665651 0 -0.0093418128402602135 0.0060336357306211008 0 -0.0087958999680321608 0.0075732874820623646 0 -0.0093418128402602135 0.0060336357306211008 0 -0.0067557304479912419 0.0072785951968621322 0 -0.0093418128402602135 0.0060336357306211008 0 -0.0067557304479912419 0.0072785951968621322 0 -0.0074932227482871743 0.0041133227766382693 0 -0.0082819637786142441 0.0096276721036945585 0 -0.0081120684721268585 0.0094737552832802416 0 -0.0067557304479912419 0.0072785951968621322 0 -0.0042126788945622646 0.0041711640440625928 0 -0.0074932227482871743 0.0041133227766382693 0 -0.010719293739953473 0.012558503157343573 0 -0.0091750037588521401 0.011827904490892134 0 -0.010683862503455568 0.014626951404806368 0 -0.010410382492593618 0.010419249864898826 0 -0.010719293739953473 0.012558503157343573 0 -0.0091750037588521401 0.011827904490892134 0 -0.0042126788945622646 0.0041711640440625928 0 -0.0074932227482871743 0.0041133227766382693 0 -0.0058464613106774151 0.0023320156162548863 0 -0.0040692348513837375 0.0016711163766907921 0 -0.0042126788945622646 0.0041711640440625928 0 -0.0058464613106774151 0.0023320156162548863 0 -0.0092843705669022787 0.0032239964067632383 0 -0.0074932227482871743 0.0041133227766382693 0 -0.0077131864896583559 0.0011520476633654832 0 -0.0093418128402602135 0.0060336357306211008 0 -0.0092843705669022787 0.0032239964067632383 0 -0.0074932227482871743 0.0041133227766382693 0 -0.0074932227482871743 0.0041133227766382693 0 -0.0077131864896583559 0.0011520476633654832 0 -0.0058464613106774151 0.0023320156162548863 0 -0.0092843705669022787 0.0032239964067632383 0 -0.0077131864896583559 0.0011520476633654832 0 -0.010410022217976682 0.0015744806444203281 0 -0.0077131864896583559 0.0011520476633654832 0 -0.0094093844051944195 -0.00053090902051890481 0 -0.010410022217976682 0.0015744806444203281 0 -0.0077131864896583559 0.0011520476633654832 0 -0.0058464613106774151 0.0023320156162548863 0 -0.0049754504667238186 -0.00010667374292893553 0 -0.0040692348513837375 0.0016711163766907921 0 -0.0058464613106774151 0.0023320156162548863 0 -0.0049754504667238186 -0.00010667374292893553 0 -0.0077131864896583559 0.0011520476633654832 0 -0.0049754504667238186 -0.00010667374292893553 0 -0.0072853288209734053 -0.0016652830372828789 0 -0.0049754504667238186 -0.00010667374292893553 0 -0.0072853288209734053 -0.0016652830372828789 0 -0.0050027042194228542 -0.0026604524725852337 0 -0.0072853288209734053 -0.0016652830372828789 0 -0.0094093844051944195 -0.00053090902051890481 0 -0.010222954287224797 -0.002964807720754328 0 -0.0077131864896583559 0.0011520476633654832 0 -0.0072853288209734053 -0.0016652830372828789 0 -0.0094093844051944195 -0.00053090902051890481 0 -0.0094093844051944195 -0.00053090902051890481 0 -0.011865006158791724 -0.00084638679813646282 0 -0.010222954287224797 -0.002964807720754328 0 -0.010410022217976682 0.0015744806444203281 0 -0.01226144941748891 0.0011799212715437406 0 -0.011865006158791724 -0.00084638679813646282 0 -0.0094093844051944195 -0.00053090902051890481 0 -0.010410022217976682 0.0015744806444203281 0 -0.011865006158791724 -0.00084638679813646282 0 -0.012088960351798685 0.0028886109978801507 0 -0.010410022217976682 0.0015744806444203281 0 -0.01226144941748891 0.0011799212715437406 0 -0.013761138877002485 0.0021272993084774055 0 -0.01381937545182042 0.00055316246626661782 0 -0.015440182680267396 0.0014104519525737168 0 -0.013761138877002485 0.0021272993084774055 0 -0.01226144941748891 0.0011799212715437406 0 -0.01381937545182042 0.00055316246626661782 0 -0.012088960351798685 0.0028886109978801507 0 -0.013761138877002485 0.0021272993084774055 0 -0.01226144941748891 0.0011799212715437406 0 -0.01226144941748891 0.0011799212715437406 0 -0.01381937545182042 0.00055316246626661782 0 -0.011865006158791724 -0.00084638679813646282 0 -0.011865006158791724 -0.00084638679813646282 0 -0.013717933585884846 -0.0020163338628288968 0 -0.010222954287224797 -0.002964807720754328 0 -0.010681845539506374 -0.001038830847140028 0 -0.0091260562391143312 -0.0011309636504025092 0 -0.01316943333370371 -0.0099538896531832788 0 -0.013403484663126655 -0.011841549495874806 0 -0.011865006158791724 -0.00084638679813646282 0 -0.013717933585884846 -0.0020163338628288968 0 -0.015643479593185572 -0.0010625885550954793 0 -0.01381937545182042 0.00055316246626661782 0 -0.011865006158791724 -0.00084638679813646282 0 -0.01552762534721361 -0.00090638681044650593 0 -0.013717933585884846 -0.0020163338628288968 0 -0.01355109312827036 -0.0038795732584131922 0 -0.009419852712162502 -0.0037541179044537284 0 -0.013717933585884846 -0.0020163338628288968 0 -0.01355109312827036 -0.0038795732584131922 0 -0.015528262295707959 -0.003195308409990957 0 -0.01355109312827036 -0.0038795732584131922 0 -0.012760686226540538 -0.0055065168060295802 0 -0.009419852712162502 -0.0037541179044537284 0 -0.01355109312827036 -0.0038795732584131922 0 -0.012760686226540538 -0.0055065168060295802 0 -0.01620525421097916 -0.0050219987382133678 0 -0.012760686226540538 -0.0055065168060295802 0 -0.010565263233792505 -0.0059006107593663776 0 -0.011967977745085904 -0.0070324733599526667 0 -0.009419852712162502 -0.0037541179044537284 0 -0.010565263233792505 -0.0059006107593663776 0 -0.008765484086660719 -0.007649346863439147 0 -0.012760686226540538 -0.0055065168060295802 0 -0.009419852712162502 -0.0037541179044537284 0 -0.010565263233792505 -0.0059006107593663776 0 -0.010565263233792505 -0.0059006107593663776 0 -0.008765484086660719 -0.007649346863439147 0 -0.011967977745085904 -0.0070324733599526667 0 -0.008765484086660719 -0.007649346863439147 0 -0.010796380889142674 -0.0090509125571205298 0 -0.0096893664997568189 -0.0088728623113677827 0 -0.010363310344623899 -0.0092553887379229743 0 -0.011677543052961677 -0.0099066560537063759 0 -0.008765484086660719 -0.007649346863439147 0 -0.0074968314090792746 -0.0093663557849247448 0 -0.0096893664997568189 -0.0088728623113677827 0 -0.008765484086660719 -0.007649346863439147 0 -0.013445341803123749 -0.0090083183934940875 0 -0.011967977745085904 -0.0070324733599526667 0 -0.012760686226540538 -0.0055065168060295802 0 -0.011967977745085904 -0.0070324733599526667 0 -0.014309111042977031 -0.0070884934771272149 0 -0.013445341803123749 -0.0090083183934940875 0 -0.011967977745085904 -0.0070324733599526667 0 -0.014309111042977031 -0.0070884934771272149 0 -0.0089079149301227126 0.0038121227134984147 0 -0.0070400417240638292 -0.00028897335511926693 0 -0.0033434016052290637 -0.0053189811192019135 0 -0.0050027042194228542 -0.0026604524725852337 0 -0.0067893015803377164 -0.0041202075736180739 0 -0.002521958737256828 -0.0065166201672772952 0 -0.0058358869637653975 -0.0052939220126522494 0 -0.004240898317952828 -0.0069429783287021053 0 -0.0072853288209734053 -0.0016652830372828789 0 -0.0050027042194228542 -0.0026604524725852337 0 -0.0067893015803377164 -0.0041202075736180739 0 -0.0072853288209734053 -0.0016652830372828789 0 -0.010222954287224797 -0.002964807720754328 0 -0.0067893015803377164 -0.0041202075736180739 0 -0.0091260562391143312 -0.0011309636504025092 0 -0.0070400417240638292 -0.00028897335511926693 0 -0.009419852712162502 -0.0037541179044537284 0 -0.008765484086660719 -0.007649346863439147 0 -0.0058358869637653975 -0.0052939220126522494 0 -0.008765484086660719 -0.007649346863439147 0 -0.0057069946659369991 -0.0076324359231119887 0 -0.0074968314090792746 -0.0093663557849247448 0 -0.008765484086660719 -0.007649346863439147 0 -0.0058358869637653975 -0.0052939220126522494 0 -0.0057069946659369991 -0.0076324359231119887 0 -0.0028962927304739335 -0.0083522009550467159 0 -0.0057069946659369991 -0.0076324359231119887 0 -0.0074968314090792746 -0.0093663557849247448 0 -0.0028962927304739335 -0.0083522009550467159 0 -0.0057069946659369991 -0.0076324359231119887 0 -0.004240898317952828 -0.0069429783287021053 0 -0.0058358869637653975 -0.0052939220126522494 0 -0.0057069946659369991 -0.0076324359231119887 0 -0.004240898317952828 -0.0069429783287021053 0 -0.010370282316262733 -0.0096179941659035473 0 -0.010457475095119658 -0.0097218709293507618 0 -0.010430500946914124 -0.009819039469811601 0 -0.010370282316262733 -0.0096179941659035473 0 -0.010457475095119658 -0.0097218709293507618 0 -0.010561647783089602 -0.0097161279202265093 0 -0.0083817527151877919 0.002473930132647456 0 -0.0098052745642559763 -0.0039286398966012076 0 -0.010457475095119658 -0.0097218709293507618 0 -0.010561647783089602 -0.0097161279202265093 0 -0.01052697838425321 -0.0098041223579363908 0 -0.010561647783089602 -0.0097161279202265093 0 -0.01052697838425321 -0.0098041223579363908 0 -0.0106112986632805 -0.0098435871803946896 0 -0.01052697838425321 -0.0098041223579363908 0 -0.0106112986632805 -0.0098435871803946896 0 -0.010560488958439656 -0.0099060740779008793 0 -0.01052697838425321 -0.0098041223579363908 0 -0.010430500946914124 -0.009819039469811601 0 -0.010560488958439656 -0.0099060740779008793 0 -0.010457475095119658 -0.0097218709293507618 0 -0.01052697838425321 -0.0098041223579363908 0 -0.010430500946914124 -0.009819039469811601 0 -0.010631850732544648 -0.0098092632540905094 0 -0.010947676791317822 -0.0097678231426396225 0 -0.010854885241189079 -0.0099750105103042774 0 -0.010796380889142674 -0.0090509125571205298 0 -0.010631850732544648 -0.0098092632540905094 0 -0.010947676791317822 -0.0097678231426396225 0 -0.010796380889142674 -0.0090509125571205298 0 -0.010631850732544648 -0.0098092632540905094 0 -0.0096893664997568189 -0.0088728623113677827 0 -0.0074968314090792746 -0.0093663557849247448 0 -0.010631850732544648 -0.0098092632540905094 0 -0.0096893664997568189 -0.0088728623113677827 0 -0.0098052745642559763 -0.0039286398966012076 0 -0.010522096410873438 -0.0056941491085673677 0 -0.010561647783089602 -0.0097161279202265093 0 -0.010631850732544648 -0.0098092632540905094 0 -0.0106112986632805 -0.0098435871803946896 0 -0.010631850732544648 -0.0098092632540905094 0 -0.0106112986632805 -0.0098435871803946896 0 -0.010694075310584162 -0.0099067310230922818 0 -0.0106112986632805 -0.0098435871803946896 0 -0.010694075310584162 -0.0099067310230922818 0 -0.010678233042143903 -0.0099447094425070999 0 -0.010631850732544648 -0.0098092632540905094 0 -0.010694075310584162 -0.0099067310230922818 0 -0.010854885241189079 -0.0099750105103042774 0 -0.010694075310584162 -0.0099067310230922818 0 -0.010783935661963992 -0.0099551718487286885 0 -0.010854885241189079 -0.0099750105103042774 0 -0.010783935661963992 -0.0099551718487286885 0 -0.010678233042143903 -0.0099447094425070999 0 -0.010772572996295042 -0.0099684318782813433 0 -0.010694075310584162 -0.0099067310230922818 0 -0.010783935661963992 -0.0099551718487286885 0 -0.010678233042143903 -0.0099447094425070999 0 -0.010678233042143903 -0.0099447094425070999 0 -0.010635485436496913 -0.0099878597989434374 0 -0.010560488958439656 -0.0099060740779008793 0 -0.0106112986632805 -0.0098435871803946896 0 -0.010678233042143903 -0.0099447094425070999 0 -0.010560488958439656 -0.0099060740779008793 0 -0.010678233042143903 -0.0099447094425070999 0 -0.010635485436496913 -0.0099878597989434374 0 -0.010690275357564945 -0.010014191496152153 0 -0.010635485436496913 -0.0099878597989434374 0 -0.010690275357564945 -0.010014191496152153 0 -0.010613493795266242 -0.010035128349449978 0 -0.010690275357564945 -0.010014191496152153 0 -0.010772572996295042 -0.0099684318782813433 0 -0.010758983568582904 -0.010084850837264561 0 -0.010678233042143903 -0.0099447094425070999 0 -0.010690275357564945 -0.010014191496152153 0 -0.010772572996295042 -0.0099684318782813433 0 -0.010690275357564945 -0.010014191496152153 0 -0.010758983568582904 -0.010084850837264561 0 -0.010668108945624227 -0.010084810126759285 0 -0.010690275357564945 -0.010014191496152153 0 -0.010668108945624227 -0.010084810126759285 0 -0.010613493795266242 -0.010035128349449978 0 -0.010668108945624227 -0.010084810126759285 0 -0.010612300371163324 -0.010111386112436834 0 -0.010613493795266242 -0.010035128349449978 0 -0.010668108945624227 -0.010084810126759285 0 -0.010665272276703252 -0.010181809417868861 0 -0.010612300371163324 -0.010111386112436834 0 -0.010665272276703252 -0.010181809417868861 0 -0.010602913025833981 -0.010167076926353704 0 -0.010612300371163324 -0.010111386112436834 0 -0.010912866911815098 -0.045531878431251581 0 -0.013389424408000143 -0.043147468888174133 0 -0.010224823142010318 -0.043201051800258343 0 -0.010758983568582904 -0.010084850837264561 0 -0.010668108945624227 -0.010084810126759285 0 -0.010665272276703252 -0.010181809417868861 0 -0.009230300778852887 -0.025502822590197802 0 -0.0090976755513408145 -0.021031054699783856 0 -0.01383115774129641 0.019147852097565549 0 -0.014137721010195673 0.019215636830311085 0 -0.013875423223396993 0.019431457936674289 0 -0.013335280275218696 0.01937254212443967 0 -0.013590949378817939 0.018958737857198427 0 -0.0131450245373193 0.018942662412700182 0 -0.01383115774129641 0.019147852097565549 0 -0.013335280275218696 0.01937254212443967 0 -0.013590949378817939 0.018958737857198427 0 -0.01383115774129641 0.019147852097565549 0 -0.013875423223396993 0.019431457936674289 0 -0.013335280275218696 0.01937254212443967 0 -0.013590949378817939 0.018958737857198427 0 -0.0131450245373193 0.018942662412700182 0 -0.013616396477804913 0.018509281992034946 0 -0.01383115774129641 0.019147852097565549 0 -0.014137721010195673 0.019215636830311085 0 -0.013997396670056334 0.018729162768293728 0 -0.013590949378817939 0.018958737857198427 0 -0.013997396670056334 0.018729162768293728 0 -0.013616396477804913 0.018509281992034946 0 -0.01383115774129641 0.019147852097565549 0 -0.013590949378817939 0.018958737857198427 0 -0.013997396670056334 0.018729162768293728 0 -0.010542652898867168 -0.010113442794836613 0 -0.010602913025833981 -0.010167076926353704 0 -0.010612300371163324 -0.010111386112436834 0 -0.010542652898867168 -0.010113442794836613 0 -0.010612300371163324 -0.010111386112436834 0 -0.010577066980134537 -0.010068238718279058 0 -0.010612300371163324 -0.010111386112436834 0 -0.010577066980134537 -0.010068238718279058 0 -0.010613493795266242 -0.010035128349449978 0 -0.010542652898867168 -0.010113442794836613 0 -0.010577066980134537 -0.010068238718279058 0 -0.010553463656367853 -0.010026810343390476 0 -0.010577066980134537 -0.010068238718279058 0 -0.010613493795266242 -0.010035128349449978 0 -0.010553463656367853 -0.010026810343390476 0 -0.010542652898867168 -0.010113442794836613 0 -0.010553463656367853 -0.010026810343390476 0 -0.010491760708651843 -0.0099662493719803874 0 -0.011088560178269022 0.0025708948907824233 0 -0.010948552707974096 0.0046625622719480529 0 -0.013875423223396993 0.019431457936674289 0 -0.013788756120002035 0.020417865639075883 0 -0.013095637890220474 0.020344036543086867 0 -0.013375951636069984 0.020029088590792422 0 -0.012961845963709268 0.020559906394785887 0 -0.014137721010195673 0.019215636830311085 0 -0.013875423223396993 0.019431457936674289 0 -0.013788756120002035 0.020417865639075883 0 -0.013875423223396993 0.019431457936674289 0 -0.013335280275218696 0.01937254212443967 0 -0.012876898927030266 0.020660087018461282 0 -0.010635485436496913 -0.0099878597989434374 0 -0.010568394072701581 -0.0099816168041875208 0 -0.010560488958439656 -0.0099060740779008793 0 -0.010491760708651843 -0.0099662493719803874 0 -0.010568394072701581 -0.0099816168041875208 0 -0.010560488958439656 -0.0099060740779008793 0 -0.010613493795266242 -0.010035128349449978 0 -0.010553463656367853 -0.010026810343390476 0 -0.010568394072701581 -0.0099816168041875208 0 -0.010635485436496913 -0.0099878597989434374 0 -0.010613493795266242 -0.010035128349449978 0 -0.010568394072701581 -0.0099816168041875208 0 -0.010553463656367853 -0.010026810343390476 0 -0.010491760708651843 -0.0099662493719803874 0 -0.010568394072701581 -0.0099816168041875208 0 -0.013516269427956168 0.021690275247842956 0 -0.013788756120002035 0.020417865639075883 0 -0.013052328416390991 0.021104730430137681 0 -0.010145007875778237 0.005027006013584843 0 -0.010948552707974096 0.0046625622719480529 0 -0.010430500946914124 -0.009819039469811601 0 -0.010491760708651843 -0.0099662493719803874 0 -0.010560488958439656 -0.0099060740779008793 0 -0.013052328416390991 0.021104730430137681 0 -0.01231988288532586 0.021352324295708828 0 -0.013095637890220474 0.020344036543086867 0 -0.012323634612848312 0.021393134100553483 0 -0.012961845963709268 0.020559906394785887 0 -0.012123533554989881 0.021599515467325869 0 -0.012142561050866812 0.020713066634077959 0 -0.011507515071746219 0.020923425500972835 0 -0.012142561050866812 0.020713066634077959 0 -0.011507515071746219 0.020923425500972835 0 -0.011859205755299409 0.020175431047049039 0 -0.012123533554989881 0.021599515467325869 0 -0.012142561050866812 0.020713066634077959 0 -0.012876898927030266 0.020660087018461282 0 -0.013788756120002035 0.020417865639075883 0 -0.013052328416390991 0.021104730430137681 0 -0.013095637890220474 0.020344036543086867 0 -0.012142561050866812 0.020713066634077959 0 -0.012876898927030266 0.020660087018461282 0 -0.012381187413418728 0.020140193120117517 0 -0.010126245037172237 0.022121761162049204 0 -0.011223705522448958 0.021738859281764833 0 -0.010532977974916969 0.021161425054400631 0 -0.011223705522448958 0.021738859281764833 0 -0.010532977974916969 0.021161425054400631 0 -0.011507515071746219 0.020923425500972835 0 -0.011223705522448958 0.021738859281764833 0 -0.012123533554989881 0.021599515467325869 0 -0.011507515071746219 0.020923425500972835 0 -0.011507515071746219 0.020923425500972835 0 -0.011002816812985943 0.020049686425876873 0 -0.011859205755299409 0.020175431047049039 0 -0.010532977974916969 0.021161425054400631 0 -0.011002816812985943 0.020049686425876873 0 -0.010063563353708543 0.020249009935116576 0 -0.010532977974916969 0.021161425054400631 0 -0.011507515071746219 0.020923425500972835 0 -0.011002816812985943 0.020049686425876873 0 -0.011002816812985943 0.020049686425876873 0 -0.010063563353708543 0.020249009935116576 0 -0.010257613351271252 0.019111783809551839 0 -0.011002816812985943 0.020049686425876873 0 -0.011633028660211011 0.019569379988931188 0 -0.011859205755299409 0.020175431047049039 0 -0.011271995050882767 0.019175909610612316 0 -0.011633028660211011 0.019569379988931188 0 -0.011829134922246388 0.019052827750384766 0 -0.011271995050882767 0.019175909610612316 0 -0.011829134922246388 0.019052827750384766 0 -0.011554664447186223 0.018801526653313361 0 -0.011002816812985943 0.020049686425876873 0 -0.011271995050882767 0.019175909610612316 0 -0.011633028660211011 0.019569379988931188 0 -0.011002816812985943 0.020049686425876873 0 -0.011271995050882767 0.019175909610612316 0 -0.010257613351271252 0.019111783809551839 0 -0.013335280275218696 0.01937254212443967 0 -0.012876898927030266 0.020660087018461282 0 -0.01277002893554864 0.019605326919050016 0 -0.012876898927030266 0.020660087018461282 0 -0.01277002893554864 0.019605326919050016 0 -0.012381187413418728 0.020140193120117517 0 -0.01277002893554864 0.019605326919050016 0 -0.012381187413418728 0.020140193120117517 0 -0.01219148512592255 0.019505511580769522 0 -0.012142561050866812 0.020713066634077959 0 -0.012381187413418728 0.020140193120117517 0 -0.011859205755299409 0.020175431047049039 0 -0.011633028660211011 0.019569379988931188 0 -0.011859205755299409 0.020175431047049039 0 -0.01219148512592255 0.019505511580769522 0 -0.012381187413418728 0.020140193120117517 0 -0.011859205755299409 0.020175431047049039 0 -0.01219148512592255 0.019505511580769522 0 -0.01219148512592255 0.019505511580769522 0 -0.011829134922246388 0.019052827750384766 0 -0.012585739039912494 0.019027003628745206 0 -0.011633028660211011 0.019569379988931188 0 -0.01219148512592255 0.019505511580769522 0 -0.011829134922246388 0.019052827750384766 0 -0.011829134922246388 0.019052827750384766 0 -0.012585739039912494 0.019027003628745206 0 -0.012442133691577083 0.01843463564369963 0 -0.012585739039912494 0.019027003628745206 0 -0.012882265469555183 0.018545844651754122 0 -0.012442133691577083 0.01843463564369963 0 -0.01277002893554864 0.019605326919050016 0 -0.01219148512592255 0.019505511580769522 0 -0.012585739039912494 0.019027003628745206 0 -0.01277002893554864 0.019605326919050016 0 -0.012585739039912494 0.019027003628745206 0 -0.0131450245373193 0.018942662412700182 0 -0.013335280275218696 0.01937254212443967 0 -0.01277002893554864 0.019605326919050016 0 -0.0131450245373193 0.018942662412700182 0 -0.012585739039912494 0.019027003628745206 0 -0.0131450245373193 0.018942662412700182 0 -0.012882265469555183 0.018545844651754122 0 -0.0131450245373193 0.018942662412700182 0 -0.013260625002590978 0.018386517322546054 0 -0.012882265469555183 0.018545844651754122 0 -0.013260625002590978 0.018386517322546054 0 -0.012882265469555183 0.018545844651754122 0 -0.01297385318982526 0.017909815913517455 0 -0.013260625002590978 0.018386517322546054 0 -0.01297385318982526 0.017909815913517455 0 -0.013558886358495302 0.017830084237079404 0 -0.01297385318982526 0.017909815913517455 0 -0.012520279497747632 0.017783582064270966 0 -0.012442133691577083 0.01843463564369963 0 -0.012882265469555183 0.018545844651754122 0 -0.01297385318982526 0.017909815913517455 0 -0.012442133691577083 0.01843463564369963 0 -0.0090531881488704301 0.015611824553244009 0 -0.0088757610178385096 0.013855495339546161 0 -0.011829134922246388 0.019052827750384766 0 -0.011554664447186223 0.018801526653313361 0 -0.01171252791662016 0.018635469145767383 0 -0.011829134922246388 0.019052827750384766 0 -0.012442133691577083 0.01843463564369963 0 -0.01192042108977124 0.017776883578579386 0 -0.0088823850342793324 0.014116797168378787 0 -0.0088757610178385096 0.013855495339546161 0 -0.012520279497747632 0.017783582064270966 0 -0.012442133691577083 0.01843463564369963 0 -0.01192042108977124 0.017776883578579386 0 -0.011554664447186223 0.018801526653313361 0 -0.011530584476545246 0.018786535284662221 0 -0.011443494947661828 0.018623761032469884 0 -0.011530584476545246 0.018786535284662221 0 -0.011443494947661828 0.018623761032469884 0 -0.011618100253642613 0.018413768747128662 0 -0.0087592390810364278 0.010588518956854517 0 -0.009363538145494503 0.010050648817819257 0 -0.0089115934570269881 0.0095936440689149624 0 -0.0088757610178385096 0.013855495339546161 0 -0.0089537500587992015 0.013121715173360202 0 -0.012738596025620599 0.017025588437613936 0 -0.013542213393568663 0.016280586893232689 0 -0.01352866931298208 0.017079734386233749 0 -0.009735281014502533 0.0099785243943698466 0 -0.011174999555232676 0.0044139230300426048 0 -0.01297385318982526 0.017909815913517455 0 -0.012738596025620599 0.017025588437613936 0 -0.01352866931298208 0.017079734386233749 0 -0.012520279497747632 0.017783582064270966 0 -0.01192042108977124 0.017776883578579386 0 -0.012738596025620599 0.017025588437613936 0 -0.0088757610178385096 0.013855495339546161 0 -0.009735281014502533 0.0099785243943698466 0 -0.01297385318982526 0.017909815913517455 0 -0.012520279497747632 0.017783582064270966 0 -0.012738596025620599 0.017025588437613936 0 -0.010375114971256941 0.019243416323014396 0 -0.0095191950510327313 0.01978110241219572 0 -0.011271995050882767 0.019175909610612316 0 -0.011177422918043809 0.018663641221304924 0 -0.010257613351271252 0.019111783809551839 0 -0.0099980741109839139 0.01977802648740469 0 -0.0094024519512868818 0.019168068135557714 0 -0.0087329610115539722 0.020468546148436718 0 -0.011271995050882767 0.019175909610612316 0 -0.011554664447186223 0.018801526653313361 0 -0.011177422918043809 0.018663641221304924 0 -0.011443494947661828 0.018623761032469884 0 -0.0099980741109839139 0.01977802648740469 0 -0.010268580560550732 0.018644691018553438 0 -0.011554664447186223 0.018801526653313361 0 -0.011443494947661828 0.018623761032469884 0 -0.011177422918043809 0.018663641221304924 0 -0.010820752462457247 0.01894932014021021 0 -0.010375114971256941 0.019243416323014396 0 -0.0099980741109839139 0.01977802648740469 0 -0.010268580560550732 0.018644691018553438 0 -0.0094024519512868818 0.019168068135557714 0 -0.0094024519512868818 0.019168068135557714 0 -0.0092434304074186426 0.01804520292779296 0 -0.0085431564687192228 0.019195272387535864 0 -0.010268580560550732 0.018644691018553438 0 -0.0092434304074186426 0.01804520292779296 0 -0.010278794210271006 0.01769368656901342 0 -0.010268580560550732 0.018644691018553438 0 -0.0094024519512868818 0.019168068135557714 0 -0.0092434304074186426 0.01804520292779296 0 -0.010268580560550732 0.018644691018553438 0 -0.010278794210271006 0.01769368656901342 0 -0.01097572082853005 0.018166036905293569 0 -0.011443494947661828 0.018623761032469884 0 -0.010268580560550732 0.018644691018553438 0 -0.01097572082853005 0.018166036905293569 0 -0.010278794210271006 0.01769368656901342 0 -0.01097572082853005 0.018166036905293569 0 -0.011063848145620355 0.017578328712151321 0 -0.010278794210271006 0.01769368656901342 0 -0.010459121539852054 0.016844000755151117 0 -0.0094592609707833415 0.016941593260774348 0 -0.010278794210271006 0.01769368656901342 0 -0.010459121539852054 0.016844000755151117 0 -0.011063848145620355 0.017578328712151321 0 -0.0092434304074186426 0.01804520292779296 0 -0.0094592609707833415 0.016941593260774348 0 -0.0086768696183936473 0.01705947123786249 0 -0.0092434304074186426 0.01804520292779296 0 -0.010278794210271006 0.01769368656901342 0 -0.0094592609707833415 0.016941593260774348 0 -0.0093236686618800718 0.0094426794602532321 0 -0.0089115934570269881 0.0095936440689149624 0 -0.0090604309224953713 0.0086158056521509884 0 -0.0086428494083979086 0.011131609352863543 0 -0.011174999555232676 0.0044139230300426048 0 -0.0093236686618800718 0.0094426794602532321 0 -0.0090604309224953713 0.0086158056521509884 0 -0.0099596166372830971 0.0095159693877840072 0 -0.009363538145494503 0.010050648817819257 0 -0.0093236686618800718 0.0094426794602532321 0 -0.0099596166372830971 0.0095159693877840072 0 -0.009363538145494503 0.010050648817819257 0 -0.0093236686618800718 0.0094426794602532321 0 -0.0089115934570269881 0.0095936440689149624 0 -0.0089537500587992015 0.013121715173360202 0 -0.0086428494083979086 0.011131609352863543 0 -0.011618100253642613 0.018413768747128662 0 -0.011063848145620355 0.017578328712151321 0 -0.011850310738940731 0.017128854853456971 0 -0.011443494947661828 0.018623761032469884 0 -0.011618100253642613 0.018413768747128662 0 -0.01097572082853005 0.018166036905293569 0 -0.011618100253642613 0.018413768747128662 0 -0.01097572082853005 0.018166036905293569 0 -0.011063848145620355 0.017578328712151321 0 -0.010459121539852054 0.016844000755151117 0 -0.011063848145620355 0.017578328712151321 0 -0.011850310738940731 0.017128854853456971 0 -0.0070430901493334181 0.0063796462445095308 0 -0.0080516364978049614 0.0063864758913219459 0 -0.0080111521716568559 0.0073594030087568056 0 -0.0070430901493334181 0.0063796462445095308 0 -0.0080516364978049614 0.0063864758913219459 0 -0.0075680175017654224 0.0058552769584864902 0 -0.0080516364978049614 0.0063864758913219459 0 -0.0080111521716568559 0.0073594030087568056 0 -0.0086740778376501477 0.0067839749793811993 0 -0.0080516364978049614 0.0063864758913219459 0 -0.0086679487556467726 0.0061370256381592502 0 -0.0082881318638324819 0.0057368529658889987 0 -0.0080516364978049614 0.0063864758913219459 0 -0.0086740778376501477 0.0067839749793811993 0 -0.0086679487556467726 0.0061370256381592502 0 -0.011174999555232676 0.0044139230300426048 0 -0.010491222615893666 0.0024719605525014938 0 -0.011991375010244902 -0.00040102418680533215 0 -0.011740551497778555 -0.00048750188035308464 0 -0.011721440468930094 -0.0001639298088124274 0 -0.010749684768390342 -0.0082870323958879905 0 -0.0090690122597074201 -0.0079847030188313472 0 -0.01130895632543936 -0.010887992608833335 0 -0.011740551497778555 -0.00048750188035308464 0 -0.011535616347820474 -0.00032409744231041027 0 -0.011617901486949073 -0.00073069078412224466 0 -0.011740551497778555 -0.00048750188035308464 0 -0.011535616347820474 -0.00032409744231041027 0 -0.011721440468930094 -0.0001639298088124274 0 -0.010491222615893666 0.0024719605525014938 0 -0.010424013948700826 -0.00016564611221523765 0 -0.01127055965565618 -0.0042543079770170121 0 -0.010424013948700826 -0.00016564611221523765 0 -0.011535616347820474 -0.00032409744231041027 0 -0.011721440468930094 -0.0001639298088124274 0 -0.01145357731913447 7.7814937349253132e-05 0 -0.0086740778376501477 0.0067839749793811993 0 -0.0086679487556467726 0.0061370256381592502 0 -0.0093708914925400635 0.0061954922057989338 0 -0.010205307957891836 -0.0056675828293538504 0 -0.0091615447640268459 -0.0054527529708511503 0 -0.0086479678956974913 -0.0063102763911532947 0 -0.010205307957891836 -0.0056675828293538504 0 -0.0086479678956974913 -0.0063102763911532947 0 -0.0090690122597074201 -0.0079847030188313472 0 -0.0086479678956974913 -0.0063102763911532947 0 -0.0073422787162448757 -0.0075949758939186079 0 -0.0082323162312317646 -0.0041933172042883009 0 -0.010749684768390342 -0.0082870323958879905 0 -0.010205307957891836 -0.0056675828293538504 0 -0.0090690122597074201 -0.0079847030188313472 0 -0.0091615447640268459 -0.0054527529708511503 0 -0.0086479678956974913 -0.0063102763911532947 0 -0.0082323162312317646 -0.0041933172042883009 0 -0.0086479678956974913 -0.0063102763911532947 0 -0.0073422787162448757 -0.0075949758939186079 0 -0.0090690122597074201 -0.0079847030188313472 0 -0.0078354434791017957 -0.0054507166158423992 0 -0.0082793386899976205 -0.0037714142800224586 0 -0.0069722840944174275 -0.0058231479550751889 0 -0.0073422787162448757 -0.0075949758939186079 0 -0.0080932403805996905 -0.0045591247623176364 0 -0.0062761811359999852 -0.0055865165919590006 0 -0.0069722840944174275 -0.0058231479550751889 0 -0.0060858709866260675 -0.0070266036153904558 0 -0.0069722840944174275 -0.0058231479550751889 0 -0.0060858709866260675 -0.0070266036153904558 0 -0.0073422787162448757 -0.0075949758939186079 0 -0.0060858709866260675 -0.0070266036153904558 0 -0.0077599767385834054 -0.0090652842951126824 0 -0.0044293938175720754 -0.0073357117092028292 0 -0.0060858709866260675 -0.0070266036153904558 0 -0.0073422787162448757 -0.0075949758939186079 0 -0.0077599767385834054 -0.0090652842951126824 0 -0.011715541059404404 -0.017945691719522889 0 -0.0071415729908478522 -0.020080847504740484 0 -0.0077599767385834054 -0.0090652842951126824 0 -0.0090690122597074201 -0.0079847030188313472 0 -0.01130895632543936 -0.010887992608833335 0 -0.0073422787162448757 -0.0075949758939186079 0 -0.0077599767385834054 -0.0090652842951126824 0 -0.0090690122597074201 -0.0079847030188313472 0 -0.012520876084451141 -0.038807541157472342 0 -0.013761688702839366 -0.040829229107670319 0 -0.015697743640507255 -0.040375596138505485 0 -0.011715541059404404 -0.017945691719522889 0 -0.012153891685384943 -0.0083032792524501339 0 -0.012520876084451141 -0.038807541157472342 0 -0.011444353550261219 -0.041134667066476421 0 -0.010142713005593889 -0.039642433566784367 0 -0.012520876084451141 -0.038807541157472342 0 -0.013761688702839366 -0.040829229107670319 0 -0.011444353550261219 -0.041134667066476421 0 -0.013389424408000143 -0.043147468888174133 0 -0.011444353550261219 -0.041134667066476421 0 -0.010224823142010318 -0.043201051800258343 0 -0.0090976755513408145 -0.021031054699783856 0 -0.011719120957473822 -0.0078887121116823222 0 -0.013389424408000143 -0.043147468888174133 0 -0.013761688702839366 -0.040829229107670319 0 -0.011444353550261219 -0.041134667066476421 0 -0.013389424408000143 -0.043147468888174133 0 -0.013761688702839366 -0.040829229107670319 0 -0.015766786559639128 -0.040682453123605647 0 -0.010542652898867168 -0.010113442794836613 0 -0.010602913025833981 -0.010167076926353704 0 -0.010590676969098357 -0.010259671730840454 0 -0.014137721010195673 0.019215636830311085 0 -0.013997396670056334 0.018729162768293728 0 -0.014648353672356189 0.017391684835155925 0 -0.011088560178269022 0.0025708948907824233 0 -0.011719120957473822 -0.0078887121116823222 0 -0.010665272276703252 -0.010181809417868861 0 -0.010602913025833981 -0.010167076926353704 0 -0.010590676969098357 -0.010259671730840454 0 -0.013997396670056334 0.018729162768293728 0 -0.014015324903358021 0.018262866867995924 0 -0.014648353672356189 0.017391684835155925 0 -0.013997396670056334 0.018729162768293728 0 -0.014015324903358021 0.018262866867995924 0 -0.013616396477804913 0.018509281992034946 0 -0.014015324903358021 0.018262866867995924 0 -0.013616396477804913 0.018509281992034946 0 -0.013750779788064039 0.018169893732321783 0 -0.013260625002590978 0.018386517322546054 0 -0.013750779788064039 0.018169893732321783 0 -0.013558886358495302 0.017830084237079404 0 -0.0131450245373193 0.018942662412700182 0 -0.013260625002590978 0.018386517322546054 0 -0.013616396477804913 0.018509281992034946 0 -0.013260625002590978 0.018386517322546054 0 -0.013616396477804913 0.018509281992034946 0 -0.013750779788064039 0.018169893732321783 0 -0.014015324903358021 0.018262866867995924 0 -0.01400805532531005 0.017834180756651368 0 -0.014648353672356189 0.017391684835155925 0 -0.013750779788064039 0.018169893732321783 0 -0.013558886358495302 0.017830084237079404 0 -0.01400805532531005 0.017834180756651368 0 -0.014015324903358021 0.018262866867995924 0 -0.013750779788064039 0.018169893732321783 0 -0.01400805532531005 0.017834180756651368 0 -0.013558886358495302 0.017830084237079404 0 -0.013857411305982524 0.017633516417145619 0 -0.01400805532531005 0.017834180756651368 0 -0.013857411305982524 0.017633516417145619 0 -0.01400805532531005 0.017834180756651368 0 -0.014179974541488389 0.017491131057753028 0 -0.011991375010244902 -0.00040102418680533215 0 -0.011740551497778555 -0.00048750188035308464 0 -0.011659635656964108 -0.00075185700500612516 0 -0.014179974541488389 0.017491131057753028 0 -0.01352866931298208 0.017079734386233749 0 -0.014542722782962376 0.017292362749158418 0 -0.011174999555232676 0.0044139230300426048 0 -0.01174650487793566 -0.007149862196091668 0 -0.013857411305982524 0.017633516417145619 0 -0.014179974541488389 0.017491131057753028 0 -0.01352866931298208 0.017079734386233749 0 -0.013542213393568663 0.016280586893232689 0 -0.01352866931298208 0.017079734386233749 0 -0.014542722782962376 0.017292362749158418 0 -0.01297385318982526 0.017909815913517455 0 -0.013558886358495302 0.017830084237079404 0 -0.01352866931298208 0.017079734386233749 0 -0.013558886358495302 0.017830084237079404 0 -0.013857411305982524 0.017633516417145619 0 -0.01352866931298208 0.017079734386233749 0 -0.011740551497778555 -0.00048750188035308464 0 -0.011617901486949073 -0.00073069078412224466 0 -0.011659635656964108 -0.00075185700500612516 0 -0.013761688702839366 -0.040829229107670319 0 -0.015766786559639128 -0.040682453123605647 0 -0.015697743640507255 -0.040375596138505485 0 -0.01127055965565618 -0.0042543079770170121 0 -0.012153891685384943 -0.0083032792524501339 0 -0.01400805532531005 0.017834180756651368 0 -0.014179974541488389 0.017491131057753028 0 -0.014648353672356189 0.017391684835155925 0 -0.011719120957473822 -0.0078887121116823222 0 -0.01174650487793566 -0.007149862196091668 0 -0.011410590535379045 -0.0065481001705321451 0 -0.01174650487793566 -0.007149862196091668 0 -0.014179974541488389 0.017491131057753028 0 -0.014648353672356189 0.017391684835155925 0 -0.014552004851894533 0.017290549082130641 0 -0.011719120957473822 -0.0078887121116823222 0 -0.012153891685384943 -0.0083032792524501339 0 -0.010604430713586941 -0.0068369446685698056 0 -0.010056712761667632 -0.0043050295562557152 0 -0.01208527333950157 -0.0053401262183295729 0 -0.012153891685384943 -0.0083032792524501339 0 -0.01174650487793566 -0.007149862196091668 0 -0.0051667736213348164 0.021190869373058235 0 -0.005189069150386051 0.020818501008028196 0 -0.0052594739644623448 0.020795008635169143 0 -0.0052594739644623448 0.020795008635169143 0 -0.0055093200341493993 0.020823150947584659 0 -0.0051638479366043445 0.020638793584959847 0 -0.0051667736213348164 0.021190869373058235 0 -0.0052594739644623448 0.020795008635169143 0 -0.0055093200341493993 0.020823150947584659 0 -0.005189069150386051 0.020818501008028196 0 -0.0052594739644623448 0.020795008635169143 0 -0.0052646903598139536 0.020798600654369743 0 -0.0058067799565005062 0.021364864917227982 0 -0.0059133649895141069 0.021728201552109742 0 -0.0055093200341493993 0.020823150947584659 0 -0.0054642807023656216 0.021814018244922562 0 -0.0060775391345477599 0.021734778171561171 0 -0.0055093200341493993 0.020823150947584659 0 -0.0055924284920473777 0.02129023307284985 0 -0.0058880683623418126 0.020856358321697376 0 -0.0051667736213348164 0.021190869373058235 0 -0.0055093200341493993 0.020823150947584659 0 -0.0054642807023656216 0.021814018244922562 0 -0.0054642807023656216 0.021814018244922562 0 -0.0052870666393981455 0.022653999216500482 0 -0.0063658073259410686 0.022678370267250468 0 -0.0059133649895141069 0.021728201552109742 0 -0.0061290185154734261 0.022470941398516221 0 -0.0054642807023656216 0.021814018244922562 0 -0.0060775391345477599 0.021734778171561171 0 -0.0063658073259410686 0.022678370267250468 0 -0.0055924284920473777 0.02129023307284985 0 -0.0057236619437790875 0.022169975306980869 0 -0.0064227027122359583 0.021205309713832683 0 -0.0057236619437790875 0.022169975306980869 0 -0.0069651001501308549 0.022005498844710182 0 -0.0064227027122359583 0.021205309713832683 0 -0.0064227027122359583 0.021205309713832683 0 -0.0058880683623418126 0.020856358321697376 0 -0.006501163003450698 0.02063944059947638 0 -0.0058880683623418126 0.020856358321697376 0 -0.006501163003450698 0.02063944059947638 0 -0.0051057767548036998 0.020284678471416892 0 -0.0055093200341493993 0.020823150947584659 0 -0.0058880683623418126 0.020856358321697376 0 -0.0051057767548036998 0.020284678471416892 0 -0.0055924284920473777 0.02129023307284985 0 -0.0064227027122359583 0.021205309713832683 0 -0.0058880683623418126 0.020856358321697376 0 -0.006501163003450698 0.02063944059947638 0 -0.0072903857843093865 0.020481568065271731 0 -0.0064873776670527836 0.020110560251999844 0 -0.0072903857843093865 0.020481568065271731 0 -0.0078459918728840377 0.020855326213420896 0 -0.0078479021978180522 0.019968378994878491 0 -0.0081999842549583656 0.020632217049761203 0 -0.0086643401633938223 0.02032116072571984 0 -0.0072903857843093865 0.020481568065271731 0 -0.0075710242936781608 0.020978106987479962 0 -0.0078459918728840377 0.020855326213420896 0 -0.0064227027122359583 0.021205309713832683 0 -0.006501163003450698 0.02063944059947638 0 -0.0075710242936781608 0.020978106987479962 0 -0.006501163003450698 0.02063944059947638 0 -0.0072903857843093865 0.020481568065271731 0 -0.0075710242936781608 0.020978106987479962 0 -0.0069651001501308549 0.022005498844710182 0 -0.0064227027122359583 0.021205309713832683 0 -0.0075710242936781608 0.020978106987479962 0 -0.0069651001501308549 0.022005498844710182 0 -0.0080246718080380468 0.021801539138142305 0 -0.0075710242936781608 0.020978106987479962 0 -0.0090311703211602683 0.022317987006784622 0 -0.0080246718080380468 0.021801539138142305 0 -0.0092348245726995119 0.021238910279919393 0 -0.0075710242936781608 0.020978106987479962 0 -0.0092348245726995119 0.021238910279919393 0 -0.0091114545827056664 0.019793704211762457 0 -0.0080246718080380468 0.021801539138142305 0 -0.0075710242936781608 0.020978106987479962 0 -0.0092348245726995119 0.021238910279919393 0 -0.0090311703211602683 0.022317987006784622 0 -0.010126245037172237 0.022121761162049204 0 -0.0092348245726995119 0.021238910279919393 0 -0.010126245037172237 0.022121761162049204 0 -0.010532977974916969 0.021161425054400631 0 -0.0092348245726995119 0.021238910279919393 0 -0.010532977974916969 0.021161425054400631 0 -0.0092348245726995119 0.021238910279919393 0 -0.010063563353708543 0.020249009935116576 0 -0.010063563353708543 0.020249009935116576 0 -0.0091114545827056664 0.019793704211762457 0 -0.010257613351271252 0.019111783809551839 0 -0.0092348245726995119 0.021238910279919393 0 -0.010063563353708543 0.020249009935116576 0 -0.0091114545827056664 0.019793704211762457 0 -0.0078459918728840377 0.020855326213420896 0 -0.0087329610115539722 0.020468546148436718 0 -0.0078479021978180522 0.019968378994878491 0 -0.0086643401633938223 0.02032116072571984 0 -0.0095191950510327313 0.01978110241219572 0 -0.0094024519512868818 0.019168068135557714 0 -0.0087329610115539722 0.020468546148436718 0 -0.0085431564687192228 0.019195272387535864 0 -0.0087329610115539722 0.020468546148436718 0 -0.0078479021978180522 0.019968378994878491 0 -0.0085431564687192228 0.019195272387535864 0 -0.0078479021978180522 0.019968378994878491 0 -0.0085431564687192228 0.019195272387535864 0 -0.0077458722176434623 0.019066478926684963 0 -0.0053594965877785377 0.019652870102464162 0 -0.0046766627870933938 0.019919019789467717 0 -0.0092434304074186426 0.01804520292779296 0 -0.0085431564687192228 0.019195272387535864 0 -0.0081890301181472176 0.017729975055089286 0 -0.0092434304074186426 0.01804520292779296 0 -0.0081890301181472176 0.017729975055089286 0 -0.0086768696183936473 0.01705947123786249 0 -0.0081890301181472176 0.017729975055089286 0 -0.0086768696183936473 0.01705947123786249 0 -0.0078253481053245592 0.016451854217348929 0 -0.0046766627870933938 0.019919019789467717 0 -0.0028558622340818657 0.022121817837604071 0 -0.0082927964916622975 0.018504740882606206 0 -0.007607788505666865 0.018289101994592761 0 -0.008047071652072026 0.017743739224875116 0 -0.0046379292150358943 0.020189450276619524 0 -0.0028558622340818657 0.022121817837604071 0 -0.007607788505666865 0.018289101994592761 0 -0.0074697491476080468 0.017800976135527977 0 -0.0080405906899662597 0.017728976120398671 0 -0.0085431564687192228 0.019195272387535864 0 -0.0082927964916622975 0.018504740882606206 0 -0.0077458722176434623 0.019066478926684963 0 -0.0082927964916622975 0.018504740882606206 0 -0.0077458722176434623 0.019066478926684963 0 -0.007607788505666865 0.018289101994592761 0 -0.0077458722176434623 0.019066478926684963 0 -0.0072308863684352066 0.018758383535831574 0 -0.007607788505666865 0.018289101994592761 0 -0.007607788505666865 0.018289101994592761 0 -0.0069321518306637471 0.017972341889299141 0 -0.0074697491476080468 0.017800976135527977 0 -0.0072308863684352066 0.018758383535831574 0 -0.007607788505666865 0.018289101994592761 0 -0.0069321518306637471 0.017972341889299141 0 -0.0069321518306637471 0.017972341889299141 0 -0.0065215961494310233 0.018818711572472127 0 -0.0061773222727497671 0.018150961834926108 0 -0.0072308863684352066 0.018758383535831574 0 -0.0069321518306637471 0.017972341889299141 0 -0.0065215961494310233 0.018818711572472127 0 -0.0072308863684352066 0.018758383535831574 0 -0.0065215961494310233 0.018818711572472127 0 -0.0070754563865762232 0.019543927598212905 0 -0.0065215961494310233 0.018818711572472127 0 -0.0070754563865762232 0.019543927598212905 0 -0.0061742853062131953 0.019530232940259542 0 -0.0070754563865762232 0.019543927598212905 0 -0.0064873776670527836 0.020110560251999844 0 -0.0061742853062131953 0.019530232940259542 0 -0.0078479021978180522 0.019968378994878491 0 -0.0077458722176434623 0.019066478926684963 0 -0.0070754563865762232 0.019543927598212905 0 -0.0077458722176434623 0.019066478926684963 0 -0.0072308863684352066 0.018758383535831574 0 -0.0070754563865762232 0.019543927598212905 0 -0.0072903857843093865 0.020481568065271731 0 -0.0078479021978180522 0.019968378994878491 0 -0.0070754563865762232 0.019543927598212905 0 -0.0072903857843093865 0.020481568065271731 0 -0.0070754563865762232 0.019543927598212905 0 -0.0064873776670527836 0.020110560251999844 0 -0.006501163003450698 0.02063944059947638 0 -0.0064873776670527836 0.020110560251999844 0 -0.0051057767548036998 0.020284678471416892 0 -0.0043011027240324384 0.020757269758398176 0 -0.0041602822923222172 0.020917839937348214 0 -0.0051057767548036998 0.020284678471416892 0 -0.0061742853062131953 0.019530232940259542 0 -0.0053692220924689994 0.018903360422187196 0 -0.0051057767548036998 0.020284678471416892 0 -0.0034592066227027681 0.021285695625745484 0 -0.0048413077761898481 0.020803470387462539 0 -0.0064873776670527836 0.020110560251999844 0 -0.0051057767548036998 0.020284678471416892 0 -0.0061742853062131953 0.019530232940259542 0 -0.0065215961494310233 0.018818711572472127 0 -0.0061773222727497671 0.018150961834926108 0 -0.0053692220924689994 0.018903360422187196 0 -0.0065215961494310233 0.018818711572472127 0 -0.0061742853062131953 0.019530232940259542 0 -0.0053692220924689994 0.018903360422187196 0 -0.0061773222727497671 0.018150961834926108 0 -0.005557237677494711 0.017967881776656605 0 -0.0053692220924689994 0.018903360422187196 0 -0.0038760899044250423 0.021759049801898692 0 -0.0041602822923222172 0.020917839937348214 0 -0.00166535904247742 0.023239657432103242 0 -0.0034592066227027681 0.021285695625745484 0 -0.00344527398361217 0.022514154564942161 0 -0.00166535904247742 0.023239657432103242 0 -0.00344527398361217 0.022514154564942161 0 -0.0032457068054149367 0.023913405170029253 0 -0.0034592066227027681 0.021285695625745484 0 -0.0045543392694490726 0.021923989830444267 0 -0.0048413077761898481 0.020803470387462539 0 -0.0034592066227027681 0.021285695625745484 0 -0.0045543392694490726 0.021923989830444267 0 -0.00344527398361217 0.022514154564942161 0 -0.0045543392694490726 0.021923989830444267 0 -0.00344527398361217 0.022514154564942161 0 -0.004178863877396171 0.022858104769399742 0 -0.00344527398361217 0.022514154564942161 0 -0.004178863877396171 0.022858104769399742 0 -0.0032457068054149367 0.023913405170029253 0 -0.0045543392694490726 0.021923989830444267 0 -0.004178863877396171 0.022858104769399742 0 -0.0053203789796047859 0.023144864921375768 0 -0.0055035484454053468 0.02200211398639201 0 -0.0045543392694490726 0.021923989830444267 0 -0.0053203789796047859 0.023144864921375768 0 -0.0045543392694490726 0.021923989830444267 0 -0.0052229942484358863 0.021229876363627428 0 -0.0048413077761898481 0.020803470387462539 0 -0.0055035484454053468 0.02200211398639201 0 -0.0045543392694490726 0.021923989830444267 0 -0.0052229942484358863 0.021229876363627428 0 -0.0054516082538224658 0.020991601697357597 0 -0.0052229942484358863 0.021229876363627428 0 -0.0051807970884120251 0.020839969144943356 0 -0.0054516082538224658 0.020991601697357597 0 -0.0051807970884120251 0.020839969144943356 0 -0.0052646903598139536 0.020798600654369743 0 -0.0052229942484358863 0.021229876363627428 0 -0.0051807970884120251 0.020839969144943356 0 -0.0048413077761898481 0.020803470387462539 0 -0.0051057767548036998 0.020284678471416892 0 -0.0048413077761898481 0.020803470387462539 0 -0.0051638479366043445 0.020638793584959847 0 -0.0051807970884120251 0.020839969144943356 0 -0.0048413077761898481 0.020803470387462539 0 -0.0051638479366043445 0.020638793584959847 0 -0.0055093200341493993 0.020823150947584659 0 -0.0051057767548036998 0.020284678471416892 0 -0.0051638479366043445 0.020638793584959847 0 -0.0052594739644623448 0.020795008635169143 0 -0.0051638479366043445 0.020638793584959847 0 -0.0052646903598139536 0.020798600654369743 0 -0.0051807970884120251 0.020839969144943356 0 -0.0051638479366043445 0.020638793584959847 0 -0.0052646903598139536 0.020798600654369743 0 -0.0041921424989420511 0.041668514209467454 0 -0.003345970933892307 0.041284950969186787 0 -0.011968943591724486 0.037869377731171522 0 -0.0086750248594601124 0.035481611966539914 0 -0.0066904928985255796 0.039037878828634458 0 -0.0086750248594601124 0.035481611966539914 0 -0.0060056511450902071 0.035270856052434477 0 -0.0075166745550907512 0.033003207932497627 0 -0.011968943591724486 0.037869377731171522 0 -0.0086750248594601124 0.035481611966539914 0 -0.010314142045571288 0.034796054787890988 0 -0.0086750248594601124 0.035481611966539914 0 -0.0060056511450902071 0.035270856052434477 0 -0.0066904928985255796 0.039037878828634458 0 -0.0040362620822780738 0.036810238003582359 0 -0.0060056511450902071 0.035270856052434477 0 -0.0066904928985255796 0.039037878828634458 0 -0.0040362620822780738 0.036810238003582359 0 0.0001525554025263271 0.040397988877414158 0 -0.0066904928985255796 0.039037878828634458 0 -0.0040362620822780738 0.036810238003582359 0 -0.0015499326101241911 0.036931152011795206 0 0.0001525554025263271 0.040397988877414158 0 -0.0015499326101241911 0.036931152011795206 0 -0.0035757336627885539 0.034625887381577874 0 -0.0019035300608405861 0.034635571901750269 0 -0.0040362620822780738 0.036810238003582359 0 -0.0015499326101241911 0.036931152011795206 0 -0.0035757336627885539 0.034625887381577874 0 -0.0040362620822780738 0.036810238003582359 0 -0.0035757336627885539 0.034625887381577874 0 -0.0060056511450902071 0.035270856052434477 0 -0.0035757336627885539 0.034625887381577874 0 -0.0060056511450902071 0.035270856052434477 0 -0.005437294623337907 0.033061405306403384 0 -0.0035757336627885539 0.034625887381577874 0 -0.005437294623337907 0.033061405306403384 0 -0.0038448162103482107 0.031707130580742322 0 -0.005437294623337907 0.033061405306403384 0 -0.0059614003495436635 0.030640589025739719 0 -0.0075166745550907512 0.033003207932497627 0 -0.0035757336627885539 0.034625887381577874 0 -0.0038448162103482107 0.031707130580742322 0 -0.0018500194382450625 0.032924976420372398 0 -0.0035757336627885539 0.034625887381577874 0 -0.0018500194382450625 0.032924976420372398 0 -0.0019035300608405861 0.034635571901750269 0 -0.0038448162103482107 0.031707130580742322 0 -0.0059614003495436635 0.030640589025739719 0 -0.0034426202378157458 0.028568734612844562 0 -0.0038448162103482107 0.031707130580742322 0 -0.0017618916673936217 0.030665923726216297 0 -0.0018500194382450625 0.032924976420372398 0 -0.0038448162103482107 0.031707130580742322 0 -0.0034426202378157458 0.028568734612844562 0 -0.0017618916673936217 0.030665923726216297 0 -0.005437294623337907 0.033061405306403384 0 -0.0038448162103482107 0.031707130580742322 0 -0.0059614003495436635 0.030640589025739719 0 -0.0059614003495436635 0.030640589025739719 0 -0.0081652448776388716 0.031128399006510057 0 -0.0075166745550907512 0.033003207932497627 0 -0.0060056511450902071 0.035270856052434477 0 -0.005437294623337907 0.033061405306403384 0 -0.0075166745550907512 0.033003207932497627 0 -0.0081652448776388716 0.031128399006510057 0 -0.0075166745550907512 0.033003207932497627 0 -0.0095931147853311003 0.032845281743001088 0 -0.0086750248594601124 0.035481611966539914 0 -0.010314142045571288 0.034796054787890988 0 -0.0095931147853311003 0.032845281743001088 0 -0.0086750248594601124 0.035481611966539914 0 -0.0075166745550907512 0.033003207932497627 0 -0.0095931147853311003 0.032845281743001088 0 -0.011023641317173698 0.032992940796941247 0 -0.010314142045571288 0.034796054787890988 0 -0.0095931147853311003 0.032845281743001088 0 -0.011373919466522747 0.032209041459983011 0 -0.0095931147853311003 0.032845281743001088 0 -0.0099199986843003778 0.030837814804605838 0 -0.0081652448776388716 0.031128399006510057 0 -0.0095931147853311003 0.032845281743001088 0 -0.0099199986843003778 0.030837814804605838 0 -0.011073856751821714 0.029323684675203979 0 -0.0099199986843003778 0.030837814804605838 0 -0.0080421160620994699 0.028647824447944233 0 -0.0081652448776388716 0.031128399006510057 0 -0.0099199986843003778 0.030837814804605838 0 -0.0080421160620994699 0.028647824447944233 0 -0.0059614003495436635 0.030640589025739719 0 -0.0081652448776388716 0.031128399006510057 0 -0.0080421160620994699 0.028647824447944233 0 -0.0074445620757910896 0.028553550736564692 0 -0.0074851930148217803 0.026551476021107173 0 -0.0055715694028452174 0.025967276722852484 0 -0.0092910461949173417 0.027254330889149934 0 -0.0074445620757910896 0.028553550736564692 0 -0.0074851930148217803 0.026551476021107173 0 -0.0092910461949173417 0.027254330889149934 0 -0.0074851930148217803 0.026551476021107173 0 -0.0082355506725598718 0.024032941921420699 0 -0.0074851930148217803 0.026551476021107173 0 -0.0082355506725598718 0.024032941921420699 0 -0.0055715694028452174 0.025967276722852484 0 -0.0062587599057475594 0.028679331546634712 0 -0.0049918355033946871 0.027573295265982827 0 -0.0082355506725598718 0.024032941921420699 0 -0.0032457068054149367 0.023913405170029253 0 -0.0055715694028452174 0.025967276722852484 0 -0.004178863877396171 0.022858104769399742 0 -0.0053203789796047859 0.023144864921375768 0 -0.0032457068054149367 0.023913405170029253 0 -0.0032457068054149367 0.023913405170029253 0 -0.0055715694028452174 0.025967276722852484 0 -0.0025325198611610188 0.025970328401441971 0 -0.0059614003495436635 0.030640589025739719 0 -0.0080421160620994699 0.028647824447944233 0 -0.0034426202378157458 0.028568734612844562 0 -0.0068675786267197577 0.03395105809886894 0 -0.0060041727272056528 0.03324628253173275 0 -0.0055715694028452174 0.025967276722852484 0 -0.0034426202378157458 0.028568734612844562 0 -0.0025325198611610188 0.025970328401441971 0 -0.0074445620757910896 0.028553550736564692 0 -0.0055715694028452174 0.025967276722852484 0 -0.0034426202378157458 0.028568734612844562 0 -0.0034426202378157458 0.028568734612844562 0 0.0002467433285423872 0.027987376492886053 0 -0.0017618916673936217 0.030665923726216297 0 -0.0034426202378157458 0.028568734612844562 0 0.0002467433285423872 0.027987376492886053 0 -0.0025325198611610188 0.025970328401441971 0 0.0002467433285423872 0.027987376492886053 0 -0.00041795240788092183 0.031928484845489956 0 -0.0017618916673936217 0.030665923726216297 0 -0.005557237677494711 0.017967881776656605 0 -0.0056904294365733264 0.017099219769584235 0 -0.0060019428026045762 0.017593780977892614 0 -0.00166535904247742 0.023239657432103242 0 0.0002467433285423872 0.027987376492886053 0 -0.0025325198611610188 0.025970328401441971 0 -0.0038760899044250423 0.021759049801898692 0 -0.0036617578359810919 0.023767083789605029 0 -0.00166535904247742 0.023239657432103242 0 -0.0032457068054149367 0.023913405170029253 0 -0.0025325198611610188 0.025970328401441971 0 -0.0061773222727497671 0.018150961834926108 0 -0.0060019428026045762 0.017593780977892614 0 -0.0063860635949614108 0.01761519313214847 0 -0.0061773222727497671 0.018150961834926108 0 -0.005557237677494711 0.017967881776656605 0 -0.0060019428026045762 0.017593780977892614 0 -0.0060019428026045762 0.017593780977892614 0 -0.0062062377744771663 0.017161170187003905 0 -0.0063860635949614108 0.01761519313214847 0 -0.0056904294365733264 0.017099219769584235 0 -0.0060019428026045762 0.017593780977892614 0 -0.0062062377744771663 0.017161170187003905 0 -0.0056904294365733264 0.017099219769584235 0 -0.0062062377744771663 0.017161170187003905 0 -0.0060422321977969973 0.016806987785225335 0 -0.0062062377744771663 0.017161170187003905 0 -0.0060422321977969973 0.016806987785225335 0 -0.006498966645822505 0.016725439783116143 0 -0.0056904294365733264 0.017099219769584235 0 -0.0060422321977969973 0.016806987785225335 0 -0.0057722599478576241 0.016271128584736744 0 0.0050031439148474624 0.033506002482315299 0 0.003846546686418378 0.033721696214792922 0 0.0047278105855367352 0.033899114820316642 0 -0.0037520685137670058 0.027698152234181869 0 -0.0023639311482546231 0.025646769363761594 0 -0.0060422321977969973 0.016806987785225335 0 -0.0057722599478576241 0.016271128584736744 0 -0.006498966645822505 0.016725439783116143 0 0.0002467433285423872 0.027987376492886053 0 -0.00041795240788092183 0.031928484845489956 0 0.0014868999241773606 0.033824451149218705 0 -0.0036617578359810919 0.023767083789605029 0 -0.0037520685137670058 0.027698152234181869 0 -0.00041795240788092183 0.031928484845489956 0 -0.0017618916673936217 0.030665923726216297 0 -0.0018500194382450625 0.032924976420372398 0 -0.00041795240788092183 0.031928484845489956 0 -0.0018500194382450625 0.032924976420372398 0 -0.00066687482872777892 0.034119407112770853 0 -0.0018500194382450625 0.032924976420372398 0 -0.00066687482872777892 0.034119407112770853 0 -0.0019035300608405861 0.034635571901750269 0 -0.00041795240788092183 0.031928484845489956 0 -0.00066687482872777892 0.034119407112770853 0 0.0014868999241773606 0.033824451149218705 0 0.0033248636414125788 0.034983903268329106 0 0.001668711631565616 0.03775753729190881 0 0.0032773196574789566 0.040000170966128554 0 -0.0037520685137670058 0.027698152234181869 0 -0.0036792805185567748 0.027947671759665883 0 -0.0015499326101241911 0.036931152011795206 0 0.0032018681642790856 0.033626052316926461 0 0.0033248636414125788 0.034983903268329106 0 -0.0015499326101241911 0.036931152011795206 0 0.0033248636414125788 0.034983903268329106 0 0.001668711631565616 0.03775753729190881 0 -0.0015499326101241911 0.036931152011795206 0 -0.00066687482872777892 0.034119407112770853 0 -0.0019035300608405861 0.034635571901750269 0 -0.0037902795823103888 0.02908742165193396 0 -0.0037520685137670058 0.027698152234181869 0 -0.0015499326101241911 0.036931152011795206 0 -0.00066687482872777892 0.034119407112770853 0 0.0014868999241773606 0.033824451149218705 0 -0.0015499326101241911 0.036931152011795206 0 0.001668711631565616 0.03775753729190881 0 0.0001525554025263271 0.040397988877414158 0 0.0036341817167377852 0.033844146553754589 0 0.003141896924782059 0.034128343987280756 0 0.0050031439148474624 0.033506002482315299 0 0.0041827693850139125 0.031363265169842711 0 0.0053644224235336506 0.030155375794705539 0 0.0050031439148474624 0.033506002482315299 0 0.0033248636414125788 0.034983903268329106 0 0.0032773196574789566 0.040000170966128554 0 0.0050031439148474624 0.033506002482315299 0 0.0053644224235336506 0.030155375794705539 0 0.0073260084007089176 0.029556082766538264 0 0.0050031439148474624 0.033506002482315299 0 0.003846546686418378 0.033721696214792922 0 0.0033248636414125788 0.034983903268329106 0 0.0029656242157841059 0.031952164386176436 0 0.0041827693850139125 0.031363265169842711 0 0.0041505113440027065 0.033069335038414777 0 0.0050031439148474624 0.033506002482315299 0 0.0041827693850139125 0.031363265169842711 0 0.0041505113440027065 0.033069335038414777 0 0.0041827693850139125 0.031363265169842711 0 0.0031312570505198944 0.030548311878191556 0 0.0042809235201013386 0.029035337538023929 0 0.0029656242157841059 0.031952164386176436 0 0.0041827693850139125 0.031363265169842711 0 0.0031312570505198944 0.030548311878191556 0 0.0029656242157841059 0.031952164386176436 0 0.0031312570505198944 0.030548311878191556 0 0.0020495695968760076 0.030996521990709389 0 0.0031312570505198944 0.030548311878191556 0 0.0020495695968760076 0.030996521990709389 0 0.0021804460000426776 0.029200116926389248 0 0.0020495695968760076 0.030996521990709389 0 0.00030144048262132841 0.030979622982822325 0 0.0021804460000426776 0.029200116926389248 0 0.0020495695968760076 0.030996521990709389 0 0.0014420621271974874 0.03238904299981251 0 0.00030144048262132841 0.030979622982822325 0 0.0029656242157841059 0.031952164386176436 0 0.0020495695968760076 0.030996521990709389 0 0.0014420621271974874 0.03238904299981251 0 0.0029656242157841059 0.031952164386176436 0 0.0014420621271974874 0.03238904299981251 0 0.0022260316732955025 0.033705602628257759 0 0.0014420621271974874 0.03238904299981251 0 0.0022260316732955025 0.033705602628257759 0 -0.00018674255203342011 0.034332818407321143 0 0.0022260316732955025 0.033705602628257759 0 0.0041505113440027065 0.033069335038414777 0 0.0047278105855367352 0.033899114820316642 0 0.0029656242157841059 0.031952164386176436 0 0.0022260316732955025 0.033705602628257759 0 0.0041505113440027065 0.033069335038414777 0 0.0050031439148474624 0.033506002482315299 0 0.0041505113440027065 0.033069335038414777 0 0.0047278105855367352 0.033899114820316642 0 -0.0062062377744771663 0.017161170187003905 0 -0.006498966645822505 0.016725439783116143 0 -0.0066999218955063073 0.017261672544355677 0 -0.006498966645822505 0.016725439783116143 0 -0.0066999218955063073 0.017261672544355677 0 -0.007282286433234063 0.017215195221493149 0 -0.0023639311482546231 0.025646769363761594 0 -0.0031230346044580594 0.024757653856782105 0 -0.0069321518306637471 0.017972341889299141 0 -0.0061773222727497671 0.018150961834926108 0 -0.0063860635949614108 0.01761519313214847 0 -0.0069321518306637471 0.017972341889299141 0 -0.0066999218955063073 0.017261672544355677 0 -0.0063860635949614108 0.01761519313214847 0 -0.0069321518306637471 0.017972341889299141 0 -0.0066999218955063073 0.017261672544355677 0 -0.007282286433234063 0.017215195221493149 0 -0.0062062377744771663 0.017161170187003905 0 -0.0066999218955063073 0.017261672544355677 0 -0.0063860635949614108 0.01761519313214847 0 -0.0069321518306637471 0.017972341889299141 0 -0.0074697491476080468 0.017800976135527977 0 -0.007282286433234063 0.017215195221493149 0 -0.0074697491476080468 0.017800976135527977 0 -0.007282286433234063 0.017215195221493149 0 -0.0080405906899662597 0.017728976120398671 0 0.0022260316732955025 0.033705602628257759 0 0.0018435432192283629 0.036052966370054958 0 -0.00018674255203342011 0.034332818407321143 0 0.0022260316732955025 0.033705602628257759 0 0.0047278105855367352 0.033899114820316642 0 0.0018435432192283629 0.036052966370054958 0 0.0018435432192283629 0.036052966370054958 0 -0.00079296270149025979 0.037795561394983412 0 -0.00018674255203342011 0.034332818407321143 0 0.00099964699168068449 0.02465025866567604 0 0.0013677668137657476 0.025111766207414128 0 0.00088220661907322797 0.025413223184273755 0 -0.0028558622340818657 0.022121817837604071 0 -0.0015166072865455936 0.02797084212852894 0 -0.0031230346044580594 0.024757653856782105 0 -0.0028558622340818657 0.022121817837604071 0 -0.0078253481053245592 0.016451854217348929 0 -0.00876403139966179 0.016307299994974253 0 -0.0086119123327862181 0.015489168433980795 0 -0.0028558622340818657 0.022121817837604071 0 -0.0035624049638605351 0.020108141571821385 0 -0.0094592609707833415 0.016941593260774348 0 -0.0086768696183936473 0.01705947123786249 0 -0.00876403139966179 0.016307299994974253 0 -0.0086768696183936473 0.01705947123786249 0 -0.0078253481053245592 0.016451854217348929 0 -0.00876403139966179 0.016307299994974253 0 -0.00876403139966179 0.016307299994974253 0 -0.0086119123327862181 0.015489168433980795 0 -0.0094791306184439181 0.015846358291163896 0 0.0013677668137657476 0.025111766207414128 0 0.0013897110824514871 0.02544181800516061 0 0.00088220661907322797 0.025413223184273755 0 0.0013677668137657476 0.025111766207414128 0 0.0013897110824514871 0.02544181800516061 0 0.0016863154078615562 0.025516812477516897 0 -0.0035624049638605351 0.020108141571821385 0 -0.0042386725024150963 0.018147257169982188 0 0.0013897110824514871 0.02544181800516061 0 0.0014704716091544149 0.025741920590483778 0 0.0016863154078615562 0.025516812477516897 0 0.0014704716091544149 0.025741920590483778 0 0.0011645262288390167 0.02564291591608309 0 0.0010450701242241823 0.025975463672746796 0 0.0013897110824514871 0.02544181800516061 0 0.0011645262288390167 0.02564291591608309 0 0.00088220661907322797 0.025413223184273755 0 0.0013897110824514871 0.02544181800516061 0 0.0014704716091544149 0.025741920590483778 0 0.0011645262288390167 0.02564291591608309 0 -0.0015166072865455936 0.02797084212852894 0 -0.00048931442919651288 0.027905061331731033 0 0.0014420621271974874 0.03238904299981251 0 -0.00018674255203342011 0.034332818407321143 0 0.00030144048262132841 0.030979622982822325 0 0.0011645262288390167 0.02564291591608309 0 0.00088220661907322797 0.025413223184273755 0 0.0010450701242241823 0.025975463672746796 0 0.00088220661907322797 0.025413223184273755 0 0.0010450701242241823 0.025975463672746796 0 0.00081300223835525346 0.026102196166334527 0 0.00081300223835525346 0.026102196166334527 0 0.0010469478961029587 0.026158028117480615 0 0.00098059893248115702 0.026277631718071827 0 0.0010450701242241823 0.025975463672746796 0 0.00081300223835525346 0.026102196166334527 0 0.0010469478961029587 0.026158028117480615 0 -0.0032378485043702871 0.01910112015511703 0 -0.0029163888729647194 0.020794118653482623 0 0.0013951754689809706 0.025763919382725032 0 0.0010450701242241823 0.025975463672746796 0 0.0010469478961029587 0.026158028117480615 0 -0.0032378485043702871 0.01910112015511703 0 -0.0024887144773365209 0.019809372273602532 0 0.0011811906827283911 0.025936420883829029 0 0.0010469478961029587 0.026158028117480615 0 0.0011342483180578704 0.026131512355106263 0 0.0011811906827283911 0.025936420883829029 0 0.0011342483180578704 0.026131512355106263 0 0.0012906256085242127 0.025864956273386659 0 -0.0027733641014805856 0.022665014341712319 0 -0.003699086867772585 0.017556586224253563 0 -0.00029593238224503521 0.027462645529015901 0 -0.0014083050819631306 0.027623450951140941 0 -0.0010392223018611557 0.026974054792261559 0 -0.00029593238224503521 0.027462645529015901 0 -0.00035005223568842267 0.02645033424556471 0 0.00095567703705447976 0.026312480426122487 0 -0.00035005223568842267 0.02645033424556471 0 -0.00089248902965380502 0.025659730159472843 0 -0.0013596234392409016 0.026306694715710795 0 -0.00035005223568842267 0.02645033424556471 0 -0.0013596234392409016 0.026306694715710795 0 -0.0010392223018611557 0.026974054792261559 0 -0.00029593238224503521 0.027462645529015901 0 -0.00035005223568842267 0.02645033424556471 0 -0.0010392223018611557 0.026974054792261559 0 0.0010469478961029587 0.026158028117480615 0 0.0011342483180578704 0.026131512355106263 0 0.00095567703705447976 0.026312480426122487 0 0.0010469478961029587 0.026158028117480615 0 0.00098059893248115702 0.026277631718071827 0 0.00095567703705447976 0.026312480426122487 0 -0.00035005223568842267 0.02645033424556471 0 0.00095567703705447976 0.026312480426122487 0 0.00022284024941263773 0.025913461577107673 0 -0.0027733641014805856 0.022665014341712319 0 -0.0020775426586593774 0.023623403266697887 0 0.00098059893248115702 0.026277631718071827 0 0.00095567703705447976 0.026312480426122487 0 0.0012359947048771692 0.026485673868506712 0 0.00095567703705447976 0.026312480426122487 0 0.00022284024941263773 0.025913461577107673 0 0.00080200233828438511 0.02515178801781839 0 0.00095567703705447976 0.026312480426122487 0 0.00080200233828438511 0.02515178801781839 0 0.0012359947048771692 0.026485673868506712 0 0.00022284024941263773 0.025913461577107673 0 0.00080200233828438511 0.02515178801781839 0 0.00026148526160454287 0.024577925679297907 0 0.00022284024941263773 0.025913461577107673 0 0.00026148526160454287 0.024577925679297907 0 -0.00043404742556524387 0.023493660292661121 0 0.00022284024941263773 0.025913461577107673 0 -0.00089248902965380502 0.025659730159472843 0 -0.0011885372078816428 0.024214999377645371 0 0.0012096887352026143 0.023527529977483908 0 0.00087324363144595466 0.021997457057232501 0 -0.00035005223568842267 0.02645033424556471 0 0.00022284024941263773 0.025913461577107673 0 -0.00089248902965380502 0.025659730159472843 0 0.00026148526160454287 0.024577925679297907 0 0.00039762979301739821 0.024033870384347907 0 -0.00043404742556524387 0.023493660292661121 0 7.1303322576434847e-07 0.021501628216079059 0 0.00039762979301739821 0.024033870384347907 0 1.9097912140773561e-06 0.025576164084169274 0 7.1303322576434847e-07 0.021501628216079059 0 0.00039762979301739821 0.024033870384347907 0 -0.00043404742556524387 0.023493660292661121 0 0.00039762979301739821 0.024033870384347907 0 1.9097912140773561e-06 0.025576164084169274 0 0.00050319600700937076 0.026090906080861665 0 0.00080200233828438511 0.02515178801781839 0 0.00026148526160454287 0.024577925679297907 0 0.00039762979301739821 0.024033870384347907 0 0.00078094535006945553 0.027177089573007997 0 0.00094677140840665149 0.02767043442831384 0 0.00080200233828438511 0.02515178801781839 0 0.00039762979301739821 0.024033870384347907 0 0.0014156253255956748 0.024248198858159844 0 0.0014156253255956748 0.024248198858159844 0 0.0024285408293873486 0.025562355533909994 0 0.0014464323011215358 0.025312195463276586 0 0.00080200233828438511 0.02515178801781839 0 0.0014156253255956748 0.024248198858159844 0 0.0014464323011215358 0.025312195463276586 0 0.0014156253255956748 0.024248198858159844 0 0.0034047960027762145 0.024596488842379215 0 0.0024285408293873486 0.025562355533909994 0 0.00094677140840665149 0.02767043442831384 0 0.0016351277738003778 0.029205141953923864 0 1.9097912140773561e-06 0.025576164084169274 0 0.00050319600700937076 0.026090906080861665 0 -2.9588262193990769e-06 0.029637852925890943 0 0.00050319600700937076 0.026090906080861665 0 -2.9588262193990769e-06 0.029637852925890943 0 -0.0015246082437753651 0.025586950393924925 0 2.7344659715016973e-06 0.029644974325153443 0 0.0016351277738003778 0.029205141953923864 0 -3.6993633982199657e-06 0.029651608054622317 0 -0.00079974032657508128 0.034133659294734504 0 0.00033288018360559717 0.033297082568185497 0 0.0016351277738003778 0.029205141953923864 0 0.0018781438621893129 0.031888955369179836 0 0.0035598818679159661 0.024511545339895021 0 0.0039173995743453875 0.02678249765970989 0 0.0061367613106522645 0.025343900562363329 0 0.003950799164284609 0.026411816004455815 0 0.0024285408293873486 0.025562355533909994 0 0.0027221860352562048 0.027391240016268519 0 0.0016351277738003778 0.029205141953923864 0 0.0020593027572019468 0.028207372711946215 0 0.0034047960027762145 0.024596488842379215 0 0.003950799164284609 0.026411816004455815 0 0.0024285408293873486 0.025562355533909994 0 0.0024285408293873486 0.025562355533909994 0 0.0014464323011215358 0.025312195463276586 0 0.0012359947048771692 0.026485673868506712 0 0.00080200233828438511 0.02515178801781839 0 0.0014464323011215358 0.025312195463276586 0 0.0012359947048771692 0.026485673868506712 0 0.0024285408293873486 0.025562355533909994 0 0.0012359947048771692 0.026485673868506712 0 0.0027221860352562048 0.027391240016268519 0 0.0012359947048771692 0.026485673868506712 0 0.0027221860352562048 0.027391240016268519 0 0.0021804460000426776 0.029200116926389248 0 0.00030144048262132841 0.030979622982822325 0 0.0012359947048771692 0.026485673868506712 0 0.0021804460000426776 0.029200116926389248 0 -0.00048931442919651288 0.027905061331731033 0 -4.2740366742954304e-05 0.027251554092455114 0 0.00081300223835525346 0.026102196166334527 0 0.00098059893248115702 0.026277631718071827 0 0.0012359947048771692 0.026485673868506712 0 0.0031312570505198944 0.030548311878191556 0 0.0021804460000426776 0.029200116926389248 0 0.0042809235201013386 0.029035337538023929 0 0.0041827693850139125 0.031363265169842711 0 0.0042809235201013386 0.029035337538023929 0 0.0053644224235336506 0.030155375794705539 0 0.0039173995743453875 0.02678249765970989 0 0.0042809235201013386 0.029035337538023929 0 0.0059738185776875459 0.027627554781267293 0 0.0020593027572019468 0.028207372711946215 0 0.002250685368196921 0.028267649409112864 0 0.003950799164284609 0.026411816004455815 0 0.0027221860352562048 0.027391240016268519 0 0.0042809235201013386 0.029035337538023929 0 0.0027221860352562048 0.027391240016268519 0 0.0021804460000426776 0.029200116926389248 0 0.0042809235201013386 0.029035337538023929 0 0.0042809235201013386 0.029035337538023929 0 0.0053644224235336506 0.030155375794705539 0 0.0059738185776875459 0.027627554781267293 0 0.0053644224235336506 0.030155375794705539 0 0.0073260084007089176 0.029556082766538264 0 0.0059738185776875459 0.027627554781267293 0 0.0073260084007089176 0.029556082766538264 0 0.0087674789122153922 0.026187350385393292 0 0.0059738185776875459 0.027627554781267293 0 0.0032773196574789566 0.040000170966128554 0 0.0010006663797226601 0.043572467949763147 0 7.1057216561912169e-05 0.042157682982987416 0 0.001668711631565616 0.03775753729190881 0 0.0032773196574789566 0.040000170966128554 0 0.0001525554025263271 0.040397988877414158 0 0.0032773196574789566 0.040000170966128554 0 0.0001525554025263271 0.040397988877414158 0 7.1057216561912169e-05 0.042157682982987416 0 0.003141896924782059 0.034128343987280756 0 0.001315385618920065 0.034965868929777717 0 0.001315385618920065 0.034965868929777717 0 0.0018781438621893129 0.031888955369179836 0 0.0087674789122153922 0.026187350385393292 0 0.0059738185776875459 0.027627554781267293 0 0.0061367613106522645 0.025343900562363329 0 0.0039173995743453875 0.02678249765970989 0 0.0059738185776875459 0.027627554781267293 0 0.0061367613106522645 0.025343900562363329 0 -0.00079974032657508128 0.034133659294734504 0 0.00031872010783533716 0.034342829994693264 0 0.00033288018360559717 0.033297082568185497 0 0.00031872010783533716 0.034342829994693264 0 0.00033288018360559717 0.033297082568185497 0 0.00030565694896731723 0.034254170399392048 0 3.6117872959290673e-06 0.034310077511559435 0 0.00033288018360559717 0.033297082568185497 0 0.00030565694896731723 0.034254170399392048 0 -3.6993633982199657e-06 0.029651608054622317 0 3.6117872959290673e-06 0.034310077511559435 0 0.00033288018360559717 0.033297082568185497 0 3.6117872959290673e-06 0.034310077511559435 0 7.7534369173059154e-05 0.035097677941673344 0 -3.509057735599738e-06 0.038810442535433025 0 3.6117872959290673e-06 0.034310077511559435 0 0.00030565694896731723 0.034254170399392048 0 7.7534369173059154e-05 0.035097677941673344 0 0.001315385618920065 0.034965868929777717 0 0.00028493536278489462 0.037247848060106399 0 0.00025353883321515793 0.034305578795402268 0 0.00030565694896731723 0.034254170399392048 0 7.7534369173059154e-05 0.035097677941673344 0 0.00025353883321515793 0.034305578795402268 0 0.00031872010783533716 0.034342829994693264 0 0.00030565694896731723 0.034254170399392048 0 -0.0010399205422524439 0.043066438517786042 0 -0.0013542856791636173 0.042506020249475619 0 -0.0008279641010272129 0.042974386248344251 0 -0.0013542856791636173 0.042506020249475619 0 -0.00020263113944492053 0.041561954523570109 0 -0.00024319084522832801 0.043267900622242096 0 -0.0013542856791636173 0.042506020249475619 0 -0.00024319084522832801 0.043267900622242096 0 -0.0008279641010272129 0.042974386248344251 0 -0.0013542856791636173 0.042506020249475619 0 -0.00020263113944492053 0.041561954523570109 0 -3.3891885301019969e-06 0.038825666527593089 0 0.00028493536278489462 0.037247848060106399 0 0.00011765518719228167 0.037680987920040085 0 -0.00020263113944492053 0.041561954523570109 0 -3.3891885301019969e-06 0.038825666527593089 0 1.1571894475019042e-05 0.042648957287581571 0 9.7825635968526511e-07 0.043637998492794719 0 -3.3891885301019969e-06 0.038825666527593089 0 1.1571894475019042e-05 0.042648957287581571 0 -0.00020263113944492053 0.041561954523570109 0 1.1571894475019042e-05 0.042648957287581571 0 -0.00024319084522832801 0.043267900622242096 0 -0.00036807782830767914 0.044938129715766953 0 1.1571894475019042e-05 0.042648957287581571 0 -0.00024319084522832801 0.043267900622242096 0 -0.0012594363554794842 0.042706083608393328 0 -0.00024319084522832801 0.043267900622242096 0 -0.00093925971397646596 0.04229888740285484 0 -0.00024319084522832801 0.043267900622242096 0 -0.00063757138874566746 0.042690128025395888 0 -0.00093925971397646596 0.04229888740285484 0 -0.0010399205422524439 0.043066438517786042 0 -0.0008279641010272129 0.042974386248344251 0 -0.00063757138874566746 0.042690128025395888 0 0.001315385618920065 0.034965868929777717 0 0.0012843926587433213 0.036103839155647244 0 -0.00024319084522832801 0.043267900622242096 0 -0.0008279641010272129 0.042974386248344251 0 -0.00063757138874566746 0.042690128025395888 0 0.0010006663797226601 0.043572467949763147 0 7.1057216561912169e-05 0.042157682982987416 0 -0.00063757138874566746 0.042690128025395888 0 7.1057216561912169e-05 0.042157682982987416 0 -0.00063757138874566746 0.042690128025395888 0 -0.00081589240434593979 0.041412646997401277 0 -0.0022812374014049269 0.041292628592910358 0 -0.003345970933892307 0.041284950969186787 0 0.0001525554025263271 0.040397988877414158 0 7.1057216561912169e-05 0.042157682982987416 0 -0.00081589240434593979 0.041412646997401277 0 -0.00063757138874566746 0.042690128025395888 0 -0.00093925971397646596 0.04229888740285484 0 -0.00081589240434593979 0.041412646997401277 0 -0.0014777885658561372 0.041542501185898854 0 -0.00093925971397646596 0.04229888740285484 0 -0.00081589240434593979 0.041412646997401277 0 -0.0090323841809673948 0.0039839102405076227 0 -0.0080931406431400659 0.0041751509199582388 0 -0.0086815921039778109 0.0033607764556992225 0 -0.0090323841809673948 0.0039839102405076227 0 -0.0080931406431400659 0.0041751509199582388 0 -0.0085948542294597141 0.0047781707914829469 0 -0.0090323841809673948 0.0039839102405076227 0 -0.0098213230639039167 0.0043026811728774815 0 -0.0092620862560907485 0.0046936855728039375 0 -0.0080931406431400659 0.0041751509199582388 0 -0.0078840103155623127 0.0033721383308765313 0 -0.0073985135093327008 0.0039648371836118346 0 -0.0080931406431400659 0.0041751509199582388 0 -0.0078840103155623127 0.0033721383308765313 0 -0.0086815921039778109 0.0033607764556992225 0 -0.0078840103155623127 0.0033721383308765313 0 -0.0086815921039778109 0.0033607764556992225 0 -0.0086336838831917936 0.0024577363684043551 0 -0.0078840103155623127 0.0033721383308765313 0 -0.0086336838831917936 0.0024577363684043551 0 -0.0080909518230574823 0.0021765337380921859 0 -0.0090323841809673948 0.0039839102405076227 0 -0.0086815921039778109 0.0033607764556992225 0 -0.0094819357935040077 0.003033777895402546 0 -0.0086815921039778109 0.0033607764556992225 0 -0.0094819357935040077 0.003033777895402546 0 -0.0086336838831917936 0.0024577363684043551 0 -0.010189460752955765 -0.0085107387192810881 0 -0.011310814268593683 -0.0050819532586136229 0 -0.012132376151924192 -0.012048773446850465 0 -0.012606372512397384 -0.01496254487536431 0 -0.015238743426630548 -0.0093353730392765396 0 -0.0090629274728115591 0.00037905150989460911 0 -0.0084151182077376718 -0.00076225733658298123 0 -0.0086523063833175307 0.0010533578117169371 0 -0.0074923265865449243 -0.0010916234585074546 0 -0.0084151182077376718 -0.00076225733658298123 0 -0.0086523063833175307 0.0010533578117169371 0 -0.012723189565209068 -0.0097255582791332239 0 -0.012132376151924192 -0.012048773446850465 0 -0.015238743426630548 -0.0093353730392765396 0 -0.0052680396530873719 -0.0057881517236369699 0 -0.0057574849259642968 -0.01018538017729227 0 -0.0071413615163994091 -0.00097795063560047481 0 -0.0068843528062166523 -0.00036394075329397195 0 -0.0056414800407158603 -0.0020867811996194367 0 -0.012723189565209068 -0.0097255582791332239 0 -0.012132376151924192 -0.012048773446850465 0 -0.0092797758748466713 -0.012225626530854222 0 -0.0093037030371141884 -0.0066225496716282696 0 -0.0057574849259642968 -0.01018538017729227 0 -0.012132376151924192 -0.012048773446850465 0 -0.010802279899164928 -0.013997912067862051 0 -0.0092797758748466713 -0.012225626530854222 0 -0.012132376151924192 -0.012048773446850465 0 -0.010802279899164928 -0.013997912067862051 0 -0.012606372512397384 -0.01496254487536431 0 -0.010802279899164928 -0.013997912067862051 0 -0.012606372512397384 -0.01496254487536431 0 -0.010727249537848085 -0.016119563594269949 0 -0.010802279899164928 -0.013997912067862051 0 -0.010727249537848085 -0.016119563594269949 0 -0.0092341855981290209 -0.015402074443349057 0 -0.0093668482213471304 0.001122007719786151 0 -0.0092435066679750402 -0.00011211837905632658 0 -0.0090323841809673948 0.0039839102405076227 0 -0.0094819357935040077 0.003033777895402546 0 -0.0098213230639039167 0.0043026811728774815 0 -0.0090629274728115591 0.00037905150989460911 0 -0.0084151182077376718 -0.00076225733658298123 0 -0.0086057749154512184 -0.0015594079303874722 0 -0.0074923265865449243 -0.0010916234585074546 0 -0.0084151182077376718 -0.00076225733658298123 0 -0.0087397539118325429 -0.0017059749199453335 0 -0.0092347940303419782 -0.00022491303212789798 0 -0.0092435066679750402 -0.00011211837905632658 0 -0.0092435066679750402 -0.00011211837905632658 0 -0.0097468310251386091 0.00030189229878772243 0 -0.0091859727353895033 -0.00075509606638314325 0 -0.0097141944078539214 -0.003217519594549603 0 -0.0082323162312317646 -0.0041933172042883009 0 -0.0098213230639039167 0.0043026811728774815 0 -0.0095943991090447212 0.0052673310713272766 0 -0.0092620862560907485 0.0046936855728039375 0 -0.0087397539118325429 -0.0017059749199453335 0 -0.0074985039959745807 -0.0030769288440262751 0 -0.0080932403805996905 -0.0045591247623176364 0 -0.0092435066679750402 -0.00011211837905632658 0 -0.0082793386899976205 -0.0037714142800224586 0 -0.0074923265865449243 -0.0010916234585074546 0 -0.0087397539118325429 -0.0017059749199453335 0 -0.0074985039959745807 -0.0030769288440262751 0 -0.012606372512397384 -0.01496254487536431 0 -0.010727249537848085 -0.016119563594269949 0 -0.0099448523421390086 -0.020643802117906816 0 -0.0074923265865449243 -0.0010916234585074546 0 -0.0074985039959745807 -0.0030769288440262751 0 -0.0059996652290444565 -0.0041085497702678803 0 -0.010189460752955765 -0.0085107387192810881 0 -0.0087338060133744181 -0.01322443432603243 0 -0.010727249537848085 -0.016119563594269949 0 -0.0099448523421390086 -0.020643802117906816 0 -0.0096539175977774731 -0.017301922168030882 0 -0.0074985039959745807 -0.0030769288440262751 0 -0.0070191509778863431 -0.0043277061325386283 0 -0.0059996652290444565 -0.0041085497702678803 0 -0.0074985039959745807 -0.0030769288440262751 0 -0.0070191509778863431 -0.0043277061325386283 0 -0.0080932403805996905 -0.0045591247623176364 0 -0.0070191509778863431 -0.0043277061325386283 0 -0.0070935719995691348 -0.0049253085638255112 0 -0.0080932403805996905 -0.0045591247623176364 0 -0.0069722840944174275 -0.0058231479550751889 0 -0.0070935719995691348 -0.0049253085638255112 0 -0.0080932403805996905 -0.0045591247623176364 0 -0.0062761811359999852 -0.0055865165919590006 0 -0.0070191509778863431 -0.0043277061325386283 0 -0.0059996652290444565 -0.0041085497702678803 0 -0.0062761811359999852 -0.0055865165919590006 0 -0.0070191509778863431 -0.0043277061325386283 0 -0.0070935719995691348 -0.0049253085638255112 0 -0.0062761811359999852 -0.0055865165919590006 0 -0.0069722840944174275 -0.0058231479550751889 0 -0.0070935719995691348 -0.0049253085638255112 0 -0.010235195723345506 -0.0056597007806622537 0 -0.0097141944078539214 -0.003217519594549603 0 -0.0090474663152852811 -0.0046170163422245168 0 -0.010424013948700826 -0.00016564611221523765 0 -0.0097468310251386091 0.00030189229878772243 0 -0.0097141944078539214 -0.003217519594549603 0 -0.0082323162312317646 -0.0041933172042883009 0 -0.0090474663152852811 -0.0046170163422245168 0 -0.0091615447640268459 -0.0054527529708511503 0 -0.0082323162312317646 -0.0041933172042883009 0 -0.0090474663152852811 -0.0046170163422245168 0 -0.010205307957891836 -0.0056675828293538504 0 -0.0091615447640268459 -0.0054527529708511503 0 -0.0090474663152852811 -0.0046170163422245168 0 -0.010424013948700826 -0.00016564611221523765 0 -0.010614437575638479 -0.00061849714703289744 0 -0.0089797047660005545 0.0055593318180313404 0 -0.0085948542294597141 0.0047781707914829469 0 -0.0082881318638324819 0.0057368529658889987 0 -0.0086679487556467726 0.0061370256381592502 0 -0.0093708914925400635 0.0061954922057989338 0 -0.0089797047660005545 0.0055593318180313404 0 -0.0093708914925400635 0.0061954922057989338 0 -0.0095943991090447212 0.0052673310713272766 0 -0.0089797047660005545 0.0055593318180313404 0 -0.0086679487556467726 0.0061370256381592502 0 -0.0089797047660005545 0.0055593318180313404 0 -0.0082881318638324819 0.0057368529658889987 0 -0.0089797047660005545 0.0055593318180313404 0 -0.0085948542294597141 0.0047781707914829469 0 -0.0092620862560907485 0.0046936855728039375 0 -0.0095943991090447212 0.0052673310713272766 0 -0.0089797047660005545 0.0055593318180313404 0 -0.0092620862560907485 0.0046936855728039375 0 -0.0090323841809673948 0.0039839102405076227 0 -0.0085948542294597141 0.0047781707914829469 0 -0.0092620862560907485 0.0046936855728039375 0 -0.0085948542294597141 0.0047781707914829469 0 -0.0078044819273585513 0.0049317481962439617 0 -0.0082881318638324819 0.0057368529658889987 0 -0.0080931406431400659 0.0041751509199582388 0 -0.0078044819273585513 0.0049317481962439617 0 -0.0074883674604235041 0.0044480573121489691 0 -0.0080931406431400659 0.0041751509199582388 0 -0.0085948542294597141 0.0047781707914829469 0 -0.0078044819273585513 0.0049317481962439617 0 -0.0080516364978049614 0.0063864758913219459 0 -0.0082881318638324819 0.0057368529658889987 0 -0.0075680175017654224 0.0058552769584864902 0 -0.0082881318638324819 0.0057368529658889987 0 -0.0075680175017654224 0.0058552769584864902 0 -0.0072178953144262622 0.0052273948444787367 0 -0.0086428494083979086 0.011131609352863543 0 -0.0075356797821786543 0.010154023799664737 0 -0.0078044819273585513 0.0049317481962439617 0 -0.0082881318638324819 0.0057368529658889987 0 -0.0070527204935907951 0.0051392126168398186 0 -0.0070236539217797518 0.0088916723169162465 0 -0.0075356797821786543 0.010154023799664737 0 -0.0070430901493334181 0.0063796462445095308 0 -0.0075680175017654224 0.0058552769584864902 0 -0.0072178953144262622 0.0052273948444787367 0 -0.0052989493573994909 0.01377514412910987 0 -0.0052286453213013506 0.014230309157773081 0 -0.0056886750624987161 0.014188924699961646 0 -0.0086428494083979086 0.011131609352863543 0 -0.00739019360448296 0.015216666156225833 0 -0.010459121539852054 0.016844000755151117 0 -0.011850310738940731 0.017128854853456971 0 -0.010598199788099952 0.015867391828492637 0 -0.0052286453213013506 0.014230309157773081 0 -0.0056886750624987161 0.014188924699961646 0 -0.0056864036909613095 0.014293259730062409 0 -0.0075356797821786543 0.010154023799664737 0 -0.0051871091163761445 0.012412159574708361 0 -0.0052286453213013506 0.014230309157773081 0 -0.0056864036909613095 0.014293259730062409 0 -0.0056099934583911208 0.014430381855912116 0 -0.0065930981122334538 0.0045273804576258922 0 -0.0070533670041467069 0.0051290651939127387 0 -0.0059955286236498088 0.0045427897087987864 0 -0.0065930981122334538 0.0045273804576258922 0 -0.0071035065534868803 0.0048011450549577906 0 -0.0070573139875176726 0.0043560612735726346 0 -0.0071035065534868803 0.0048011450549577906 0 -0.0074883674604235041 0.0044480573121489691 0 -0.0070573139875176726 0.0043560612735726346 0 -0.0078044819273585513 0.0049317481962439617 0 -0.0071035065534868803 0.0048011450549577906 0 -0.0074883674604235041 0.0044480573121489691 0 -0.0078044819273585513 0.0049317481962439617 0 -0.0071035065534868803 0.0048011450549577906 0 -0.0070527204935907951 0.0051392126168398186 0 -0.0065930981122334538 0.0045273804576258922 0 -0.0071035065534868803 0.0048011450549577906 0 -0.0070533670041467069 0.0051290651939127387 0 -0.0075610740736290968 0.0098576929881377794 0 -0.0075356797821786543 0.010154023799664737 0 -0.0094592609707833415 0.016941593260774348 0 -0.00876403139966179 0.016307299994974253 0 -0.0094791306184439181 0.015846358291163896 0 -0.010459121539852054 0.016844000755151117 0 -0.0094592609707833415 0.016941593260774348 0 -0.0094791306184439181 0.015846358291163896 0 -0.010459121539852054 0.016844000755151117 0 -0.0094791306184439181 0.015846358291163896 0 -0.010598199788099952 0.015867391828492637 0 -0.0056864036909613095 0.014293259730062409 0 -0.0056099934583911208 0.014430381855912116 0 -0.0059582838655540208 0.014613600355019685 0 -0.0056886750624987161 0.014188924699961646 0 -0.0056864036909613095 0.014293259730062409 0 -0.0061163332066280513 0.014647553906221376 0 -0.0040543119403079727 0.016058670432260756 0 -0.0036586605270931788 0.016513201940513214 0 -0.0086119123327862181 0.015489168433980795 0 -0.0094791306184439181 0.015846358291163896 0 -0.0093247781134106651 0.014606086768582664 0 -0.00739019360448296 0.015216666156225833 0 -0.0042386725024150963 0.018147257169982188 0 -0.0094791306184439181 0.015846358291163896 0 -0.010598199788099952 0.015867391828492637 0 -0.0093247781134106651 0.014606086768582664 0 -0.0056864036909613095 0.014293259730062409 0 -0.0061163332066280513 0.014647553906221376 0 -0.0060149674634715081 0.014681607574046917 0 -0.0038173892823410269 0.018245058090142267 0 -0.0036636595516307256 0.018088428192430939 0 -0.003605896109409196 0.01815977951088182 0 -0.0032378485043702871 0.01910112015511703 0 -0.0042386725024150963 0.018147257169982188 0 -0.0032378485043702871 0.01910112015511703 0 -0.003699086867772585 0.017556586224253563 0 -0.0061163332066280513 0.014647553906221376 0 -0.0060149674634715081 0.014681607574046917 0 -0.0060537195933038522 0.014725241667837577 0 -0.0042386725024150963 0.018147257169982188 0 -0.003699086867772585 0.017556586224253563 0 -0.0036586605270931788 0.016513201940513214 0 -0.003699086867772585 0.017556586224253563 0 -0.00548568418969909 0.0041492481451436579 0 -0.0054916846164984974 0.0041279598184588749 0 -0.0056683284258718502 0.0041231074641960548 0 -0.0051871091163761445 0.012412159574708361 0 -0.0036586605270931788 0.016513201940513214 0 -0.0054916846164984974 0.0041279598184588749 0 -0.0056683284258718502 0.0041231074641960548 0 -0.0056612856925157906 0.004254289143253898 0 -0.0059955286236498088 0.0045427897087987864 0 -0.00548568418969909 0.0041492481451436579 0 -0.0056683284258718502 0.0041231074641960548 0 -0.0056683284258718502 0.0041231074641960548 0 -0.0062254198849402125 0.0040674309893110839 0 -0.0063886859270582295 0.0031731135411746836 0 -0.0059955286236498088 0.0045427897087987864 0 -0.0056683284258718502 0.0041231074641960548 0 -0.0062254198849402125 0.0040674309893110839 0 -0.0056612856925157906 0.004254289143253898 0 -0.0054128493871414517 0.0042703465595405098 0 -0.0054899439952585272 0.0045958879994164245 0 -0.0056683284258718502 0.0041231074641960548 0 -0.0056612856925157906 0.004254289143253898 0 -0.0054128493871414517 0.0042703465595405098 0 -0.0058087429487355038 0.0042830660218562515 0 -0.0056820714454894738 0.0044810481912301104 0 -0.0015419463774304664 0.028802117951367865 0 -0.0024650799348135714 0.02769367409848247 0 -0.0014083050819631306 0.027623450951140941 0 -0.003699086867772585 0.017556586224253563 0 -0.0038986821812140677 0.016083135482917062 0 -0.00029593238224503521 0.027462645529015901 0 -0.0015419463774304664 0.028802117951367865 0 -0.0014083050819631306 0.027623450951140941 0 -0.0024650799348135714 0.02769367409848247 0 -0.0014083050819631306 0.027623450951140941 0 -0.0018087890142443387 0.027017731285624527 0 -0.0014083050819631306 0.027623450951140941 0 -0.0010392223018611557 0.026974054792261559 0 -0.0018087890142443387 0.027017731285624527 0 -0.0073985135093327008 0.0039648371836118346 0 -0.0067687178833472431 0.0039341232618519423 0 -0.0071147775766913805 0.0033579975204212939 0 -0.0078840103155623127 0.0033721383308765313 0 -0.0073985135093327008 0.0039648371836118346 0 -0.0071147775766913805 0.0033579975204212939 0 -0.0080931406431400659 0.0041751509199582388 0 -0.0074883674604235041 0.0044480573121489691 0 -0.0073985135093327008 0.0039648371836118346 0 -0.0074883674604235041 0.0044480573121489691 0 -0.0073985135093327008 0.0039648371836118346 0 -0.0070573139875176726 0.0043560612735726346 0 -0.0073985135093327008 0.0039648371836118346 0 -0.0070573139875176726 0.0043560612735726346 0 -0.0067687178833472431 0.0039341232618519423 0 -0.0062254198849402125 0.0040674309893110839 0 -0.0067687178833472431 0.0039341232618519423 0 -0.0063886859270582295 0.0031731135411746836 0 -0.0065930981122334538 0.0045273804576258922 0 -0.0062254198849402125 0.0040674309893110839 0 -0.0067687178833472431 0.0039341232618519423 0 -0.0065930981122334538 0.0045273804576258922 0 -0.0070573139875176726 0.0043560612735726346 0 -0.0067687178833472431 0.0039341232618519423 0 -0.0065930981122334538 0.0045273804576258922 0 -0.0059955286236498088 0.0045427897087987864 0 -0.0062254198849402125 0.0040674309893110839 0 -0.0067687178833472431 0.0039341232618519423 0 -0.0063886859270582295 0.0031731135411746836 0 -0.0071147775766913805 0.0033579975204212939 0 -0.0049507775974627468 0.0049921248215503995 0 -0.004484044646265865 0.0059143125903883308 0 -0.0063886859270582295 0.0031731135411746836 0 -0.0071147775766913805 0.0033579975204212939 0 -0.0072677182775192891 0.0023265525092236185 0 -0.0078840103155623127 0.0033721383308765313 0 -0.0071147775766913805 0.0033579975204212939 0 -0.0072677182775192891 0.0023265525092236185 0 -0.004484044646265865 0.0059143125903883308 0 -0.0047468137904429462 0.0050707457404368245 0 -0.005051472140587503 0.0045986390895743877 0 -0.0054899439952585272 0.0045958879994164245 0 -0.005230452428039256 0.0049502249113509327 0 -0.0056820714454894738 0.0044810481912301104 0 -0.004484044646265865 0.0059143125903883308 0 -0.0054128493871414517 0.0042703465595405098 0 -0.005051472140587503 0.0045986390895743877 0 -0.0054899439952585272 0.0045958879994164245 0 -0.0034270120879419446 0.026542662164099392 0 -0.0034565019234251387 0.025036190183797789 0 -0.0043887842462776421 0.025353414319637824 0 -0.0039572112100636075 0.014757766138547915 0 -0.0041218315233982859 0.012813918948801345 0 -0.0034565019234251387 0.025036190183797789 0 -0.0043887842462776421 0.025353414319637824 0 -0.0037811471037894518 0.024220690707669492 0 -0.0031960696309340413 0.0093136751903902318 0 -0.0027144264673441224 0.0084211450288982689 0 -0.0039863588302932046 0.0085816817102923222 0 -0.0027144264673441224 0.0084211450288982689 0 -0.0033051136022614106 0.0076889480971270895 0 -0.0039863588302932046 0.0085816817102923222 0 -0.0041218315233982859 0.012813918948801345 0 -0.0039575819182654124 0.011317639732064417 0 -0.004484044646265865 0.0059143125903883308 0 -0.0041218315233982859 0.012813918948801345 0 -0.0013596234392409016 0.026306694715710795 0 -0.0010392223018611557 0.026974054792261559 0 -0.0018087890142443387 0.027017731285624527 0 -0.0013596234392409016 0.026306694715710795 0 -0.0018087890142443387 0.027017731285624527 0 -0.0024481927303778633 0.026333270532125131 0 -0.0038986821812140677 0.016083135482917062 0 -0.0039572112100636075 0.014757766138547915 0 -0.0024650799348135714 0.02769367409848247 0 -0.0034270120879419446 0.026542662164099392 0 -0.0024481927303778633 0.026333270532125131 0 -0.0024650799348135714 0.02769367409848247 0 -0.0018087890142443387 0.027017731285624527 0 -0.0024481927303778633 0.026333270532125131 0 -0.0034270120879419446 0.026542662164099392 0 -0.0024481927303778633 0.026333270532125131 0 -0.0026651257617220109 0.02541155861398111 0 -0.0034270120879419446 0.026542662164099392 0 -0.0034565019234251387 0.025036190183797789 0 -0.0026651257617220109 0.02541155861398111 0 -0.0034565019234251387 0.025036190183797789 0 -0.0026651257617220109 0.02541155861398111 0 -0.0029305361224644198 0.024683823965181449 0 -0.0026651257617220109 0.02541155861398111 0 -0.0017901099267189535 0.025382781361558086 0 -0.0023430245572336355 0.024445981154211757 0 -0.0024481927303778633 0.026333270532125131 0 -0.0026651257617220109 0.02541155861398111 0 -0.0017901099267189535 0.025382781361558086 0 -0.00089248902965380502 0.025659730159472843 0 -0.0017901099267189535 0.025382781361558086 0 -0.0011885372078816428 0.024214999377645371 0 -0.0013596234392409016 0.026306694715710795 0 -0.0024481927303778633 0.026333270532125131 0 -0.0017901099267189535 0.025382781361558086 0 -0.00089248902965380502 0.025659730159472843 0 -0.0013596234392409016 0.026306694715710795 0 -0.0017901099267189535 0.025382781361558086 0 -0.0011885372078816428 0.024214999377645371 0 -0.0023430245572336355 0.024445981154211757 0 -0.0027373492997933924 0.023488567597858397 0 -0.0017901099267189535 0.025382781361558086 0 -0.0011885372078816428 0.024214999377645371 0 -0.0023430245572336355 0.024445981154211757 0 -0.0023430245572336355 0.024445981154211757 0 -0.0028345845656960644 0.024198463070920117 0 -0.0027373492997933924 0.023488567597858397 0 -0.0026651257617220109 0.02541155861398111 0 -0.0023430245572336355 0.024445981154211757 0 -0.0029305361224644198 0.024683823965181449 0 -0.0034565019234251387 0.025036190183797789 0 -0.0029305361224644198 0.024683823965181449 0 -0.0033273350046896868 0.024172913806591922 0 -0.0023430245572336355 0.024445981154211757 0 -0.0029305361224644198 0.024683823965181449 0 -0.0028345845656960644 0.024198463070920117 0 -0.0029305361224644198 0.024683823965181449 0 -0.0028345845656960644 0.024198463070920117 0 -0.0033273350046896868 0.024172913806591922 0 -0.0028345845656960644 0.024198463070920117 0 -0.0027373492997933924 0.023488567597858397 0 -0.0033273350046896868 0.024172913806591922 0 -0.0027373492997933924 0.023488567597858397 0 -0.0033273350046896868 0.024172913806591922 0 -0.0037876725637432237 0.024220792374280074 0 -0.0011885372078816428 0.024214999377645371 0 -0.0027373492997933924 0.023488567597858397 0 -0.0026548690527939968 0.022576332820301463 0 -0.0027373492997933924 0.023488567597858397 0 -0.0029183750004293033 0.022591180531565839 0 -0.0037876725637432237 0.024220792374280074 0 -0.0027373492997933924 0.023488567597858397 0 -0.0029183750004293033 0.022591180531565839 0 -0.0026548690527939968 0.022576332820301463 0 -3.3325738326888742e-07 0.016912585481965139 0 -5.9753756738819735e-05 0.017023098547511998 0 3.3295076465984978e-07 0.017352435757325608 0 -0.0003920484723528634 0.016632881289008271 0 -0.00034089584968521896 0.017079207017835555 0 -1.1024866585328068e-05 0.016905070885988079 0 -0.0003920484723528634 0.016632881289008271 0 7.1303322576434847e-07 0.021501628216079059 0 -0.00043404742556524387 0.023493660292661121 0 -2.666457210543028e-06 0.017360201429132589 0 0.00087324363144595466 0.021997457057232501 0 -0.00034089584968521896 0.017079207017835555 0 -0.0024460892547371036 0.011029003822377538 0 -0.0024958387529485913 0.011042771113816128 0 -0.002464528011044736 0.011059636480587165 0 -0.0039575819182654124 0.011317639732064417 0 -0.003120142803459759 0.014273432130557137 0 -0.0024361010535226967 0.011037879880590677 0 -0.002464528011044736 0.011059636480587165 0 -0.0024322747290075287 0.01106258517423833 0 -0.0024361010535226967 0.011037879880590677 0 -0.0024460892547371036 0.011029003822377538 0 -0.002464528011044736 0.011059636480587165 0 -0.0039152809028514101 0.011337913066354443 0 -0.0039575819182654124 0.011317639732064417 0 -0.0041218315233982859 0.012813918948801345 0 -0.003120142803459759 0.014273432130557137 0 -0.0033566810125795136 0.012778779632294915 0 -0.0032649690320532324 0.012891903351094603 0 -0.0034277108277174688 0.0129132889352693 0 -0.0034565019234251387 0.025036190183797789 0 -0.0033273350046896868 0.024172913806591922 0 -0.0037811471037894518 0.024220690707669492 0 -0.0031877870508126953 0.01442665787175814 0 -0.003120142803459759 0.014273432130557137 0 -0.0025238806901325289 0.011111298031727321 0 -0.0024623062432976867 0.011095613763333859 0 -0.002464528011044736 0.011059636480587165 0 -2.178822300610444e-07 0.016911280241020368 0 -3.2172510638362931e-06 0.016700239911405977 0 2.1681423119434881e-07 0.013264405373371441 0 -0.0003920484723528634 0.016632881289008271 0 -0.00038698784170980118 0.013000682739308354 0 -3.2172510638362931e-06 0.016700239911405977 0 2.1681423119434881e-07 0.013264405373371441 0 9.5049547904723549e-06 0.012810348149142796 0 -0.0025238806901325289 0.011111298031727321 0 -0.0024958387529485913 0.011042771113816128 0 -0.002464528011044736 0.011059636480587165 0 -0.0003920484723528634 0.016632881289008271 0 -0.003120142803459759 0.014273432130557137 0 2.1681423119434881e-07 0.013264405373371441 0 9.5049547904723549e-06 0.012810348149142796 0 -2.1868049547340514e-07 0.009620576383116565 0 -0.00038698784170980118 0.013000682739308354 0 -0.00089070237129620141 0.0098810464446119142 0 -0.0024623062432976867 0.011095613763333859 0 -0.0024322747290075287 0.01106258517423833 0 -0.0023991271645497272 0.011080894086519929 0 -0.0024623062432976867 0.011095613763333859 0 -0.002464528011044736 0.011059636480587165 0 -0.0024322747290075287 0.01106258517423833 0 9.5049547904723549e-06 0.012810348149142796 0 -2.1868049547340514e-07 0.009620576383116565 0 -1.9297968962339091e-05 0.0092308912025287678 0 -0.0023991271645497272 0.011080894086519929 0 -0.0023529647881558452 0.011015444890726457 0 -0.0023962529200871356 0.011038253269331997 0 -5.4886835755381487e-06 0.0096180221977062944 0 -0.00089070237129620141 0.0098810464446119142 0 6.855467767766106e-08 0.0096162623758465123 0 -8.099203843612049e-08 0.0091072737215985005 0 7.6057288475360965e-06 0.0090292099423523193 0 -0.0024322747290075287 0.01106258517423833 0 -0.0023991271645497272 0.011080894086519929 0 -0.0023962529200871356 0.011038253269331997 0 -8.099203843612049e-08 0.0091072737215985005 0 7.6057288475360965e-06 0.0090292099423523193 0 0.00042623787784641252 0.0088413411682780763 0 7.6057288475360965e-06 0.0090292099423523193 0 0.00027233139356845214 0.0087008697613380325 0 0.00042623787784641252 0.0088413411682780763 0 -1.0743210399221243e-06 0.0090980178008653306 0 -0.0013506697042280161 0.0050487371893860513 0 -1.0395652828108812e-06 0.0091024100901889483 0 -0.00047022893444713431 0.0026011676827545358 0 -1.1889098063647836e-06 0.0042753569350703095 0 -0.00089070237129620141 0.0098810464446119142 0 -0.0029317881958001936 0.0049055302107079857 0 -0.0029317881958001936 0.0049055302107079857 0 -0.0013506697042280161 0.0050487371893860513 0 -0.0023529647881558452 0.011015444890726457 0 -0.0023711596087179518 0.011000466431662742 0 -0.0023962529200871356 0.011038253269331997 0 -0.0029317881958001936 0.0049055302107079857 0 -0.0038767155533754455 0.0049016569316768831 0 -0.0037846915629108028 0.0023591978199704101 0 -0.0027692384759571737 0.0033015143805598802 0 -0.004837155519512578 0.0035342719158330642 0 -0.008838499541326636 0.0012919498541442069 0 -0.0089059826767318283 0.0014014037113546133 0 -0.0086435217972438624 0.0015664567338222321 0 -0.0038767155533754455 0.0049016569316768831 0 -0.0038881414368177451 0.0021078093941398045 0 -0.0029317881958001936 0.0049055302107079857 0 -0.0038881414368177451 0.0021078093941398045 0 -0.002502307089523292 0.0019567126775156571 0 -0.0022049496714412597 0.0016208226398343657 0 -0.0021306672924412667 0.0019536376389687289 0 -0.0024361010535226967 0.011037879880590677 0 -0.0024486595306523837 0.011023446900051859 0 -0.0023711596087179518 0.011000466431662742 0 -0.0024361010535226967 0.011037879880590677 0 -0.0023711596087179518 0.011000466431662742 0 -0.0023962529200871356 0.011038253269331997 0 -0.0039575819182654124 0.011317639732064417 0 -0.0038767155533754455 0.0049016569316768831 0 -0.0024361010535226967 0.011037879880590677 0 -0.0024322747290075287 0.01106258517423833 0 -0.0023962529200871356 0.011038253269331997 0 -0.0033051136022614106 0.0076889480971270895 0 -0.004774186033965705 0.0078473956970697249 0 -0.0039863588302932046 0.0085816817102923222 0 -0.0081498429215377585 0.0015045315187355132 0 -0.0086337351675815927 0.0015733018587061488 0 -0.0080909518230574823 0.0021765337380921859 0 -0.008838499541326636 0.0012919498541442069 0 -0.0081498429215377585 0.0015045315187355132 0 -0.0086337351675815927 0.0015733018587061488 0 -0.0038767155533754455 0.0049016569316768831 0 -0.0047468137904429462 0.0050707457404368245 0 -0.011548121311752453 -0.0028044888270571389 0 -0.011426178975748099 -0.0044209627763690746 0 -0.0089059826767318283 0.0014014037113546133 0 -0.0090016636963474971 0.0017013127401757967 0 -0.0088245950293596286 0.0015805251508366146 0 -0.0089059826767318283 0.0014014037113546133 0 -0.0085230133145341204 7.6616216815853316e-05 0 -0.0085126112521725968 0.0011041361518255612 0 -0.008838499541326636 0.0012919498541442069 0 -0.0089059826767318283 0.0014014037113546133 0 -0.0086337351675815927 0.0015733018587061488 0 -0.0089059826767318283 0.0014014037113546133 0 -0.0085126112521725968 0.0011041361518255612 0 -0.0086435217972438624 0.0015664567338222321 0 -0.0089059826767318283 0.0014014037113546133 0 -0.0086337351675815927 0.0015733018587061488 0 -0.0090016636963474971 0.0017013127401757967 0 -0.0093668482213471304 0.001122007719786151 0 -0.0093497179711687101 0.001355885798494153 0 -0.0086337351675815927 0.0015733018587061488 0 -0.0090016636963474971 0.0017013127401757967 0 -0.0086336838831917936 0.0024577363684043551 0 -0.0094819357935040077 0.003033777895402546 0 -0.0090016636963474971 0.0017013127401757967 0 -0.0086336838831917936 0.0024577363684043551 0 -0.0086337351675815927 0.0015733018587061488 0 -0.0086336838831917936 0.0024577363684043551 0 -0.0080909518230574823 0.0021765337380921859 0 -0.0078840103155623127 0.0033721383308765313 0 -0.0073055281250584154 0.0021560787153270208 0 -0.0080909518230574823 0.0021765337380921859 0 -0.0073055281250584154 0.0021560787153270208 0 -0.0081498429215377585 0.0015045315187355132 0 -0.0080909518230574823 0.0021765337380921859 0 -0.0051149453826976141 -0.011903008472861623 0 -0.0038404975633849806 -0.010480321264554837 0 -0.0029375615218238051 -0.011528771759547515 0 -0.0051149453826976141 -0.011903008472861623 0 -0.0061000896953563493 -0.010314543229426284 0 -0.0050401170427977499 -0.010412209385475017 0 -0.0051149453826976141 -0.011903008472861623 0 -0.0050401170427977499 -0.010412209385475017 0 -0.0038404975633849806 -0.010480321264554837 0 -0.0071413615163994091 -0.00097795063560047481 0 -0.0068843528062166523 -0.00036394075329397195 0 -0.0085230133145341204 7.6616216815853316e-05 0 -0.0090629274728115591 0.00037905150989460911 0 -0.0090016636963474971 0.0017013127401757967 0 -0.0086523063833175307 0.0010533578117169371 0 -0.0068843528062166523 -0.00036394075329397195 0 -0.0085230133145341204 7.6616216815853316e-05 0 -0.0080318637760369588 0.0011634631641331812 0 -0.0093037030371141884 -0.0066225496716282696 0 -0.011426178975748099 -0.0044209627763690746 0 -0.012723189565209068 -0.0097255582791332239 0 -0.015238743426630548 -0.0093353730392765396 0 -0.016214689743065502 -0.0072590956891744928 0 -0.011310814268593683 -0.0050819532586136229 0 -0.011426178975748099 -0.0044209627763690746 0 -0.0090016636963474971 0.0017013127401757967 0 -0.0086523063833175307 0.0010533578117169371 0 -0.0088245950293596286 0.0015805251508366146 0 -0.0052680396530873719 -0.0057881517236369699 0 -0.0043492594894787261 -0.001388017500559148 0 -0.0067062018517254811 -0.0096318660986180887 0 -0.0051049296236811339 -0.0089568708483615291 0 -0.0075660102481108502 -0.0086446735287693498 0 -0.0051149453826976141 -0.011903008472861623 0 -0.0061000896953563493 -0.010314543229426284 0 -0.0067075100581117028 -0.0096251274164389812 0 -0.0041768909811028395 -0.0018188080378329502 0 -0.0043492594894787261 -0.001388017500559148 0 -0.0085230133145341204 7.6616216815853316e-05 0 -0.0085126112521725968 0.0011041361518255612 0 -0.0080318637760369588 0.0011634631641331812 0 -0.0043492594894787261 -0.001388017500559148 0 -0.0038881414368177451 0.0021078093941398045 0 -0.0085126112521725968 0.0011041361518255612 0 -0.0080318637760369588 0.0011634631641331812 0 -0.0086435217972438624 0.0015664567338222321 0 -0.0061000896953563493 -0.010314543229426284 0 -0.0067062018517254811 -0.0096318660986180887 0 -0.0051049296236811339 -0.0089568708483615291 0 -0.0061000896953563493 -0.010314543229426284 0 -0.0051049296236811339 -0.0089568708483615291 0 -0.0050401170427977499 -0.010412209385475017 0 -0.0051049296236811339 -0.0089568708483615291 0 -0.0050401170427977499 -0.010412209385475017 0 -0.0038404975633849806 -0.010480321264554837 0 -0.0012232569068010477 0.0014999550312157887 0 -0.0011505083731201333 0.0018767952936778194 0 -0.00022766352962684251 0.0013782999015807429 0 -0.0012232569068010477 0.0014999550312157887 0 -0.0011505083731201333 0.0018767952936778194 0 -0.0017534099923028014 0.0018712526737214733 0 -0.00052714117067937847 -0.0020068938530427021 0 -0.00020603476540181838 0.00033461057524322127 0 -0.00020741943441948669 -0.0025751213588858096 0 -0.0011505083731201333 0.0018767952936778194 0 -0.0017534099923028014 0.0018712526737214733 0 -0.002060884116286456 0.002365936551068861 0 -0.00013253050297020857 0.0011300048351319193 0 -0.0013506697042280161 0.0050487371893860513 0 -0.0012232569068010477 0.0014999550312157887 0 -0.0022049496714412597 0.0016208226398343657 0 -0.0017534099923028014 0.0018712526737214733 0 -0.00052714117067937847 -0.0020068938530427021 0 -0.00093367376159504971 0.0019468932901264998 0 -0.00047669551573580461 0.0023579356206418108 0 -0.0023853319577295082 -0.00030450659861559878 0 -0.0038881414368177451 0.0021078093941398045 0 -0.0022049496714412597 0.0016208226398343657 0 -0.0017534099923028014 0.0018712526737214733 0 -0.0021306672924412667 0.0019536376389687289 0 -0.0017534099923028014 0.0018712526737214733 0 -0.0021306672924412667 0.0019536376389687289 0 -0.002060884116286456 0.002365936551068861 0 -0.002502307089523292 0.0019567126775156571 0 -0.0021306672924412667 0.0019536376389687289 0 -0.002060884116286456 0.002365936551068861 0 -0.00047022893444713431 0.0026011676827545358 0 -0.00047669551573580461 0.0023579356206418108 0 -1.1889098063647836e-06 0.0042753569350703095 0 -0.0013506697042280161 0.0050487371893860513 0 -0.0013633544200547425 0.0050034514718108134 0 -0.00047669551573580461 0.0023579356206418108 0 -1.1889098063647836e-06 0.0042753569350703095 0 -0.00020603476540181838 0.00033461057524322127 0 -0.00020603476540181838 0.00033461057524322127 0 2.8098061189315997e-08 -0.00055184480185161192 0 -0.00020741943441948669 -0.0025751213588858096 0 -1.1889098063647836e-06 0.0042753569350703095 0 -0.00020603476540181838 0.00033461057524322127 0 2.8098061189315997e-08 -0.00055184480185161192 0 -0.00052714117067937847 -0.0020068938530427021 0 -0.00047669551573580461 0.0023579356206418108 0 -0.00020603476540181838 0.00033461057524322127 0 2.8098061189315997e-08 -0.00055184480185161192 0 7.4129403222872526e-05 -0.0037248559310838966 0 -0.00020741943441948669 -0.0025751213588858096 0 7.4129403222872526e-05 -0.0037248559310838966 0 0.00019626531602585283 -0.0059208008347565767 0 6.9058576684261401e-07 -0.0053787675702745286 0 2.8098061189315997e-08 -0.00055184480185161192 0 7.4129403222872526e-05 -0.0037248559310838966 0 6.9058576684261401e-07 -0.0053787675702745286 0 7.4129403222872526e-05 -0.0037248559310838966 0 0.00019626531602585283 -0.0059208008347565767 0 -0.00015877027635091771 -0.0048245506533958057 0 0.00019626531602585283 -0.0059208008347565767 0 -0.00014864474154572651 -0.0058602717781323825 0 -0.00015877027635091771 -0.0048245506533958057 0 -0.00052714117067937847 -0.0020068938530427021 0 -0.00020741943441948669 -0.0025751213588858096 0 -0.0004534844195445028 -0.0055357489020293246 0 -0.00015877027635091771 -0.0048245506533958057 0 -0.00020741943441948669 -0.0025751213588858096 0 -0.0004534844195445028 -0.0055357489020293246 0 -0.00014864474154572651 -0.0058602717781323825 0 -0.00015877027635091771 -0.0048245506533958057 0 -0.0004534844195445028 -0.0055357489020293246 0 -0.00013253050297020857 0.0011300048351319193 0 -7.1484498075924345e-05 -0.0015741859420420879 0 7.4129403222872526e-05 -0.0037248559310838966 0 -0.00015877027635091771 -0.0048245506533958057 0 -0.00020741943441948669 -0.0025751213588858096 0 2.4693606117518239e-06 -0.010204927005246662 0 0.00077371207927723991 -0.0077994193898925672 0 0.00085793231762259711 -0.0097363858511549488 0 0.00019626531602585283 -0.0059208008347565767 0 6.9058576684261401e-07 -0.0053787675702745286 0 0.00077371207927723991 -0.0077994193898925672 0 2.4693606117518239e-06 -0.010204927005246662 0 6.9058576684261401e-07 -0.0053787675702745286 0 0.00077371207927723991 -0.0077994193898925672 0 0.00019626531602585283 -0.0059208008347565767 0 0.00077371207927723991 -0.0077994193898925672 0 0.0005685351595084839 -0.0081000010458065538 0 0.00077371207927723991 -0.0077994193898925672 0 0.0013060024569329326 -0.009073061704279746 0 0.00085793231762259711 -0.0097363858511549488 0 0.0013060024569329326 -0.009073061704279746 0 0.0015043013090799498 -0.00904071846367944 0 0.00085793231762259711 -0.0097363858511549488 0 0.0013060024569329326 -0.009073061704279746 0 0.0015531656051034984 -0.012734364024972862 0 0.0015043013090799498 -0.00904071846367944 0 0.00077371207927723991 -0.0077994193898925672 0 0.0013060024569329326 -0.009073061704279746 0 0.0005685351595084839 -0.0081000010458065538 0 0.0013060024569329326 -0.009073061704279746 0 0.0005685351595084839 -0.0081000010458065538 0 0.0005483821878932779 -0.010788828090539932 0 0.0005685351595084839 -0.0081000010458065538 0 0.0005483821878932779 -0.010788828090539932 0 -0.00027131719902862001 -0.0079442222934093254 0 0.0017714179397246429 -0.0050987157875633611 0 0.0012387747696542136 -0.0041739744360695377 0 0.0013060024569329326 -0.009073061704279746 0 0.0005483821878932779 -0.010788828090539932 0 0.0015531656051034984 -0.012734364024972862 0 0.0005483821878932779 -0.010788828090539932 0 0.00025088090920682239 -0.012636252979632398 0 -0.001134424219880512 -0.011728928064260423 0 0.0005483821878932779 -0.010788828090539932 0 0.00025088090920682239 -0.012636252979632398 0 0.0015531656051034984 -0.012734364024972862 0 0.00025088090920682239 -0.012636252979632398 0 0.0015531656051034984 -0.012734364024972862 0 0.001116820229244438 -0.013778645995570157 0 0.0015531656051034984 -0.012734364024972862 0 0.0016807207724551575 -0.014526101661059181 0 0.0020040358711545998 -0.016413855775071692 0 0.0015531656051034984 -0.012734364024972862 0 0.0016807207724551575 -0.014526101661059181 0 0.0015727945802960579 -0.014288032364119229 0 0.00089845511588124215 -0.013864762048121251 0 0.00102175769627524 -0.013881192913173379 0 -0.0051049296236811339 -0.0089568708483615291 0 -0.0038404975633849806 -0.010480321264554837 0 -0.0026624569859265501 -0.0092802551919012339 0 -0.0023853319577295082 -0.00030450659861559878 0 -7.1484498075924345e-05 -0.0015741859420420879 0 -0.0022113696141802907 -0.010474616850046926 0 -0.0038404975633849806 -0.010480321264554837 0 -0.0026624569859265501 -0.0092802551919012339 0 -0.00014864474154572651 -0.0058602717781323825 0 -0.0004534844195445028 -0.0055357489020293246 0 -0.00027131719902862001 -0.0079442222934093254 0 -7.1484498075924345e-05 -0.0015741859420420879 0 0.0012387747696542136 -0.0041739744360695377 0 0.00019626531602585283 -0.0059208008347565767 0 -0.00014864474154572651 -0.0058602717781323825 0 -0.00027131719902862001 -0.0079442222934093254 0 0.00019626531602585283 -0.0059208008347565767 0 0.0005685351595084839 -0.0081000010458065538 0 -0.00027131719902862001 -0.0079442222934093254 0 -0.0022113696141802907 -0.010474616850046926 0 -0.0026624569859265501 -0.0092802551919012339 0 -0.0010042991268625838 -0.010194458566161132 0 -0.0022113696141802907 -0.010474616850046926 0 -0.0010042991268625838 -0.010194458566161132 0 -0.001134424219880512 -0.011728928064260423 0 0.0005483821878932779 -0.010788828090539932 0 -0.0010042991268625838 -0.010194458566161132 0 -0.001134424219880512 -0.011728928064260423 0 0.00025088090920682239 -0.012636252979632398 0 -0.001134424219880512 -0.011728928064260423 0 -0.0007461919379346953 -0.013058889747629577 0 -0.001134424219880512 -0.011728928064260423 0 -0.0026052886557452865 -0.012931626980679017 0 -0.0007461919379346953 -0.013058889747629577 0 -0.0051149453826976141 -0.011903008472861623 0 -0.0029375615218238051 -0.011528771759547515 0 -0.0026052886557452865 -0.012931626980679017 0 -0.001134424219880512 -0.011728928064260423 0 -0.0029375615218238051 -0.011528771759547515 0 -0.0026052886557452865 -0.012931626980679017 0 -0.0022113696141802907 -0.010474616850046926 0 -0.001134424219880512 -0.011728928064260423 0 -0.0029375615218238051 -0.011528771759547515 0 -0.0022113696141802907 -0.010474616850046926 0 -0.0038404975633849806 -0.010480321264554837 0 -0.0029375615218238051 -0.011528771759547515 0 -0.0051149453826976141 -0.011903008472861623 0 -0.0026052886557452865 -0.012931626980679017 0 -0.0034807216292869507 -0.014210919444474873 0 -0.0034807216292869507 -0.014210919444474873 0 -0.0017595339180493631 -0.015438200747076325 0 -0.0013976005823089263 -0.013845637686793141 0 -0.0026052886557452865 -0.012931626980679017 0 -0.0034807216292869507 -0.014210919444474873 0 -0.0013976005823089263 -0.013845637686793141 0 -0.010802279899164928 -0.013997912067862051 0 -0.0092797758748466713 -0.012225626530854222 0 -0.0092341855981290209 -0.015402074443349057 0 -0.0090879622461298177 -0.012458053840874329 0 -0.0065439281308915668 -0.016050810273629468 0 -0.0063640921576690393 -0.01444902018928438 0 -0.0092797758748466713 -0.012225626530854222 0 -0.0066209113735306519 -0.015950932061536815 0 -0.0092341855981290209 -0.015402074443349057 0 -0.0057574849259642968 -0.01018538017729227 0 -0.0049230429603637086 -0.013809702490040788 0 -0.0057574849259642968 -0.01018538017729227 0 -0.0039260085072363761 -0.013395631802692971 0 -0.0066209113735306519 -0.015950932061536815 0 -0.0092341855981290209 -0.015402074443349057 0 -0.0080537713081344376 -0.017228032947591232 0 -0.010727249537848085 -0.016119563594269949 0 -0.0092341855981290209 -0.015402074443349057 0 -0.0096539175977774731 -0.017301922168030882 0 -8.7231058330947893e-05 -0.016651784544207397 0 -0.0017595339180493631 -0.015438200747076325 0 -0.0013976005823089263 -0.013845637686793141 0 -0.0025570227235268239 -0.015908517751063032 0 -0.0023605665956830443 -0.01533611698125683 0 0.00011795930777951527 -0.015208563034181714 0 -8.2082083958465781e-05 -0.014427047658738873 0 -0.0013976005823089263 -0.013845637686793141 0 -0.0065439281308915668 -0.016050810273629468 0 -0.0036033002592215542 -0.01644484726072613 0 -0.0063640921576690393 -0.01444902018928438 0 -0.0025570227235268239 -0.015908517751063032 0 -0.0039260085072363761 -0.013395631802692971 0 -8.2082083958465781e-05 -0.014427047658738873 0 -0.00030578483989054771 -0.01381947240205518 0 -0.0013976005823089263 -0.013845637686793141 0 -0.0026052886557452865 -0.012931626980679017 0 -0.0013976005823089263 -0.013845637686793141 0 -0.0007461919379346953 -0.013058889747629577 0 -0.00030578483989054771 -0.01381947240205518 0 -0.0013976005823089263 -0.013845637686793141 0 -0.0007461919379346953 -0.013058889747629577 0 -0.00030578483989054771 -0.01381947240205518 0 -0.0007461919379346953 -0.013058889747629577 0 0.00011416852433060271 -0.013481735268971467 0 0.00025088090920682239 -0.012636252979632398 0 0.00011416852433060271 -0.013481735268971467 0 0.001116820229244438 -0.013778645995570157 0 0.00011416852433060271 -0.013481735268971467 0 0.001116820229244438 -0.013778645995570157 0 0.00044822525332391541 -0.01414621740212982 0 0.00025088090920682239 -0.012636252979632398 0 -0.0007461919379346953 -0.013058889747629577 0 0.00011416852433060271 -0.013481735268971467 0 0.001116820229244438 -0.013778645995570157 0 0.00044822525332391541 -0.01414621740212982 0 0.0010054840586520358 -0.014513603293977237 0 -0.00030578483989054771 -0.01381947240205518 0 0.00011416852433060271 -0.013481735268971467 0 0.00044822525332391541 -0.01414621740212982 0 -8.2082083958465781e-05 -0.014427047658738873 0 -0.00030578483989054771 -0.01381947240205518 0 0.00044822525332391541 -0.01414621740212982 0 0.001116820229244438 -0.013778645995570157 0 0.0015727945802960579 -0.014288032364119229 0 0.0013036865545874383 -0.014327914034921169 0 0.0015531656051034984 -0.012734364024972862 0 0.001116820229244438 -0.013778645995570157 0 0.0015727945802960579 -0.014288032364119229 0 0.001116820229244438 -0.013778645995570157 0 0.0013036865545874383 -0.014327914034921169 0 0.0010054840586520358 -0.014513603293977237 0 0.0015727945802960579 -0.014288032364119229 0 0.0013654459746382183 -0.014635220409260657 0 0.0014711211482263849 -0.014747687187428664 0 0.0015727945802960579 -0.014288032364119229 0 0.0013036865545874383 -0.014327914034921169 0 0.0013654459746382183 -0.014635220409260657 0 0.0013654459746382183 -0.014635220409260657 0 0.00097287452584773361 -0.014921353926957599 0 0.0011617690305102079 -0.015000860762076542 0 0.0013036865545874383 -0.014327914034921169 0 0.0013654459746382183 -0.014635220409260657 0 0.0010054840586520358 -0.014513603293977237 0 0.0013654459746382183 -0.014635220409260657 0 0.00097287452584773361 -0.014921353926957599 0 0.0010054840586520358 -0.014513603293977237 0 -8.2082083958465781e-05 -0.014427047658738873 0 0.00044822525332391541 -0.01414621740212982 0 0.00054168867379451174 -0.014866659609315772 0 0.00044822525332391541 -0.01414621740212982 0 0.0010054840586520358 -0.014513603293977237 0 0.00054168867379451174 -0.014866659609315772 0 0.00097287452584773361 -0.014921353926957599 0 0.00054168867379451174 -0.014866659609315772 0 0.00071457257593870874 -0.015034615939237356 0 0.00097287452584773361 -0.014921353926957599 0 0.0010054840586520358 -0.014513603293977237 0 0.00054168867379451174 -0.014866659609315772 0 0.00054168867379451174 -0.014866659609315772 0 0.00051159138042789929 -0.015183009798867747 0 0.00071457257593870874 -0.015034615939237356 0 0.00011795930777951527 -0.015208563034181714 0 0.00054168867379451174 -0.014866659609315772 0 0.00051159138042789929 -0.015183009798867747 0 0.00011795930777951527 -0.015208563034181714 0 -8.2082083958465781e-05 -0.014427047658738873 0 0.00054168867379451174 -0.014866659609315772 0 -0.0025570227235268239 -0.015908517751063032 0 -0.0024353396503751694 -0.015946487172207421 0 -0.0025570227235268239 -0.015908517751063032 0 -0.0026565904772378793 -0.020905308151727003 0 -0.0036033002592215542 -0.01644484726072613 0 -0.0017775876606584372 -0.020285119405762168 0 -0.0039664282613296404 -0.019699814216788025 0 0.00040651587269172155 -0.015163968719195597 0 0.00051159138042789929 -0.015183009798867747 0 0.00071490337414443269 -0.015263093896577509 0 0.00051159138042789929 -0.015183009798867747 0 0.00071457257593870874 -0.015034615939237356 0 0.0008234489209664825 -0.015148941804243539 0 0.00097287452584773361 -0.014921353926957599 0 0.00071457257593870874 -0.015034615939237356 0 0.0008234489209664825 -0.015148941804243539 0 0.00051159138042789929 -0.015183009798867747 0 0.0008234489209664825 -0.015148941804243539 0 0.00071490337414443269 -0.015263093896577509 0 0.00097287452584773361 -0.014921353926957599 0 0.0008234489209664825 -0.015148941804243539 0 0.0011617690305102079 -0.015000860762076542 0 0.0008234489209664825 -0.015148941804243539 0 0.0011617690305102079 -0.015000860762076542 0 0.00095499798612359854 -0.015252211477459384 0 0.0011617690305102079 -0.015000860762076542 0 0.00095499798612359854 -0.015252211477459384 0 0.0011333823739401998 -0.015164919378268242 0 0.00095499798612359854 -0.015252211477459384 0 0.00087396541480002483 -0.015440109378018133 0 0.0010190346325740797 -0.015416426947002994 0 0.00095499798612359854 -0.015252211477459384 0 0.0011333823739401998 -0.015164919378268242 0 0.0010190346325740797 -0.015416426947002994 0 -0.0017775876606584372 -0.020285119405762168 0 -0.0019020290801048053 -0.022415672033164438 0 7.8771609045654372e-05 -0.024204820814616633 0 -0.0026565904772378793 -0.020905308151727003 0 -0.0023811546569010725 -0.029266312841467024 0 0.00095499798612359854 -0.015252211477459384 0 0.00071490337414443269 -0.015263093896577509 0 0.00087396541480002483 -0.015440109378018133 0 -0.0017775876606584372 -0.020285119405762168 0 -0.002687785499712951 -0.021453186557037911 0 -0.0039664282613296404 -0.019699814216788025 0 -0.0017775876606584372 -0.020285119405762168 0 -0.002687785499712951 -0.021453186557037911 0 -0.0019020290801048053 -0.022415672033164438 0 0.0008234489209664825 -0.015148941804243539 0 0.00095499798612359854 -0.015252211477459384 0 0.00071490337414443269 -0.015263093896577509 0 -0.0019020290801048053 -0.022415672033164438 0 -0.0030809013671849843 -0.022898580655083812 0 7.8771609045654372e-05 -0.024204820814616633 0 -0.002687785499712951 -0.021453186557037911 0 -0.0030809013671849843 -0.022898580655083812 0 -0.0038903758753510175 -0.021797369435621675 0 -0.002687785499712951 -0.021453186557037911 0 -0.0019020290801048053 -0.022415672033164438 0 -0.0030809013671849843 -0.022898580655083812 0 -0.0030809013671849843 -0.022898580655083812 0 -0.0038903758753510175 -0.021797369435621675 0 -0.0051943910570023608 -0.022219113098816849 0 -0.0051943910570023608 -0.022219113098816849 0 -0.0087375137430384369 -0.02212145694577659 0 -0.0041476132269167342 -0.024036926248866282 0 -0.0030809013671849843 -0.022898580655083812 0 -0.0051943910570023608 -0.022219113098816849 0 -0.0041476132269167342 -0.024036926248866282 0 -0.0038903758753510175 -0.021797369435621675 0 -0.0050999224183996715 -0.020979001306667956 0 -0.0051943910570023608 -0.022219113098816849 0 -0.0038903758753510175 -0.021797369435621675 0 -0.0050999224183996715 -0.020979001306667956 0 -0.0039664282613296404 -0.019699814216788025 0 -0.002687785499712951 -0.021453186557037911 0 -0.0038903758753510175 -0.021797369435621675 0 -0.0039664282613296404 -0.019699814216788025 0 -0.0060899520880670658 -0.019850697614826975 0 -0.0050999224183996715 -0.020979001306667956 0 -0.0039664282613296404 -0.019699814216788025 0 -0.0050999224183996715 -0.020979001306667956 0 -0.0063603121273631304 -0.021326799444929892 0 -0.0051943910570023608 -0.022219113098816849 0 -0.0060899520880670658 -0.019850697614826975 0 -0.0050999224183996715 -0.020979001306667956 0 -0.0063603121273631304 -0.021326799444929892 0 -0.0063603121273631304 -0.021326799444929892 0 -0.0051943910570023608 -0.022219113098816849 0 -0.0087375137430384369 -0.02212145694577659 0 -0.0087375137430384369 -0.02212145694577659 0 -0.0099448523421390086 -0.020643802117906816 0 -0.0073055701993209547 -0.026279846063075395 0 -0.0087375137430384369 -0.02212145694577659 0 -0.0099448523421390086 -0.020643802117906816 0 -0.0086227327876480971 -0.020175326607939293 0 -0.0099448523421390086 -0.020643802117906816 0 -0.0086227327876480971 -0.020175326607939293 0 -0.008774592106791974 -0.018875017270393916 0 -0.0087375137430384369 -0.02212145694577659 0 -0.0086227327876480971 -0.020175326607939293 0 -0.0074268171160360164 -0.020515790249954445 0 -0.0063603121273631304 -0.021326799444929892 0 -0.0087375137430384369 -0.02212145694577659 0 -0.0074268171160360164 -0.020515790249954445 0 -0.0086227327876480971 -0.020175326607939293 0 -0.0074268171160360164 -0.020515790249954445 0 -0.0075489885172904236 -0.019048616166151656 0 -0.0060899520880670658 -0.019850697614826975 0 -0.0063603121273631304 -0.021326799444929892 0 -0.0074268171160360164 -0.020515790249954445 0 -0.0060899520880670658 -0.019850697614826975 0 -0.0075489885172904236 -0.019048616166151656 0 -0.0064565491711331595 -0.01835574300755452 0 -0.0060899520880670658 -0.019850697614826975 0 -0.0074268171160360164 -0.020515790249954445 0 -0.0075489885172904236 -0.019048616166151656 0 -0.0075489885172904236 -0.019048616166151656 0 -0.008774592106791974 -0.018875017270393916 0 -0.0080537713081344376 -0.017228032947591232 0 -0.0075489885172904236 -0.019048616166151656 0 -0.0080537713081344376 -0.017228032947591232 0 -0.0064565491711331595 -0.01835574300755452 0 -0.0099448523421390086 -0.020643802117906816 0 -0.008774592106791974 -0.018875017270393916 0 -0.0096539175977774731 -0.017301922168030882 0 -0.0086227327876480971 -0.020175326607939293 0 -0.0075489885172904236 -0.019048616166151656 0 -0.008774592106791974 -0.018875017270393916 0 -0.0092341855981290209 -0.015402074443349057 0 -0.0096539175977774731 -0.017301922168030882 0 -0.0080537713081344376 -0.017228032947591232 0 -0.008774592106791974 -0.018875017270393916 0 -0.0096539175977774731 -0.017301922168030882 0 -0.0080537713081344376 -0.017228032947591232 0 -0.0066209113735306519 -0.015950932061536815 0 -0.0080537713081344376 -0.017228032947591232 0 -0.0064565491711331595 -0.01835574300755452 0 -0.0049230429603637086 -0.013809702490040788 0 -0.0041812863284987145 -0.015575467766489539 0 -0.0065439281308915668 -0.016050810273629468 0 -0.0036033002592215542 -0.01644484726072613 0 -0.0039664282613296404 -0.019699814216788025 0 -0.0066209113735306519 -0.015950932061536815 0 -0.0039664282613296404 -0.019699814216788025 0 -0.0064565491711331595 -0.01835574300755452 0 -0.0060899520880670658 -0.019850697614826975 0 -0.0039664282613296404 -0.019699814216788025 0 -0.0064565491711331595 -0.01835574300755452 0 -0.003317798210535058 -0.044128358891207808 0 -0.0041319746982083428 -0.044001955850268663 0 -0.0033853754806830168 -0.043523214439099407 0 -0.003317798210535058 -0.044128358891207808 0 -0.0038230324748991674 -0.044738692786826517 0 -0.0041319746982083428 -0.044001955850268663 0 -0.0035859086367195417 -0.040293284510870137 0 -0.0035580155808450035 -0.04168391520567629 0 -0.0036139518559705247 -0.045323537701901929 0 -0.0025935296715668098 -0.045143294818754072 0 -0.0028631531015428403 -0.045723648531359691 0 -0.0032512656085213485 -0.044537064865567924 0 -0.0038822659817197699 -0.045384378405883469 0 -0.0025935296715668098 -0.045143294818754072 0 -0.0040129777534905608 -0.04274725080964404 0 -0.0035859086367195417 -0.040293284510870137 0 -0.0038230324748991674 -0.044738692786826517 0 -0.0041319746982083428 -0.044001955850268663 0 -0.0044049380750688771 -0.044829129201588318 0 0.0012259593463247148 -0.014964844287016088 0 0.0011669457636456501 -0.01479138116345559 0 0.0013132798080056954 -0.015256064387060567 0 -0.0035859086367195417 -0.040293284510870137 0 -0.0010187798665386792 -0.035010279114640337 0 -0.0010636940908778829 -0.030541790470266738 0 -0.0010187798665386792 -0.035010279114640337 0 0.0011333823739401998 -0.015164919378268242 0 0.0010190346325740797 -0.015416426947002994 0 0.0013132798080056954 -0.015256064387060567 0 0.0011333823739401998 -0.015164919378268242 0 0.0012259593463247148 -0.014964844287016088 0 0.0013132798080056954 -0.015256064387060567 0 0.0011617690305102079 -0.015000860762076542 0 0.0012259593463247148 -0.014964844287016088 0 0.0013252176266733608 -0.014809414055056059 0 0.0011617690305102079 -0.015000860762076542 0 0.0011333823739401998 -0.015164919378268242 0 0.0012259593463247148 -0.014964844287016088 0 0.0012259593463247148 -0.014964844287016088 0 0.0011669457636456501 -0.01479138116345559 0 0.0013252176266733608 -0.014809414055056059 0 0.0011669457636456501 -0.01479138116345559 0 0.0013252176266733608 -0.014809414055056059 0 0.0010904295667255762 -0.015088101728431677 0 0.0013654459746382183 -0.014635220409260657 0 0.0013252176266733608 -0.014809414055056059 0 0.0014711211482263849 -0.014747687187428664 0 0.0013654459746382183 -0.014635220409260657 0 0.0011617690305102079 -0.015000860762076542 0 0.0013252176266733608 -0.014809414055056059 0 0.0014711211482263849 -0.014747687187428664 0 0.0010904295667255762 -0.015088101728431677 0 0.0013963373420389955 -0.015469510840410343 0 0.0013252176266733608 -0.014809414055056059 0 0.0014711211482263849 -0.014747687187428664 0 0.0010904295667255762 -0.015088101728431677 0 0.0016807207724551575 -0.014526101661059181 0 0.0015727945802960579 -0.014288032364119229 0 0.0014711211482263849 -0.014747687187428664 0 0.0010904295667255762 -0.015088101728431677 0 0.00041737609156228321 -0.015126549128517292 0 0.00054878430814276128 -0.016230894486290545 0 -0.0041319746982083428 -0.044001955850268663 0 -0.0038903789733490735 -0.042958893410969028 0 -0.0033853754806830168 -0.043523214439099407 0 -0.0010636940908778829 -0.030541790470266738 0 -0.001766646233515038 -0.029487653666278098 0 0.0011669457636456501 -0.01479138116345559 0 0.0010904295667255762 -0.015088101728431677 0 0.00041737609156228321 -0.015126549128517292 0 -0.003317798210535058 -0.044128358891207808 0 -0.0033853754806830168 -0.043523214439099407 0 -0.0026352220195932094 -0.043515645651015296 0 -0.0040129777534905608 -0.04274725080964404 0 -0.0037813592832227905 -0.04297118523430124 0 -0.0033853754806830168 -0.043523214439099407 0 -0.0030953121787588335 -0.043023696984391319 0 -0.0026352220195932094 -0.043515645651015296 0 -0.0038903789733490735 -0.042958893410969028 0 -0.0033853754806830168 -0.043523214439099407 0 -0.0030953121787588335 -0.043023696984391319 0 -0.0038903789733490735 -0.042958893410969028 0 -0.0030953121787588335 -0.043023696984391319 0 -0.0031338106022408153 -0.042381769981820777 0 -0.0030953121787588335 -0.043023696984391319 0 -0.0031338106022408153 -0.042381769981820777 0 -0.0025235248138249697 -0.042666465339700449 0 -0.0031338106022408153 -0.042381769981820777 0 -0.0035137298460426424 -0.041541705603000641 0 -0.0026275200017614637 -0.041780817453146997 0 -0.0038903789733490735 -0.042958893410969028 0 -0.0031338106022408153 -0.042381769981820777 0 -0.0035137298460426424 -0.041541705603000641 0 -0.0027442804158268673 -0.029496788558470721 0 -0.0028427851793984254 -0.029586036057301288 0 0.00041737609156228321 -0.015126549128517292 0 -0.00017889632224274524 -0.017261906081504044 0 0.00054878430814276128 -0.016230894486290545 0 0.00041737609156228321 -0.015126549128517292 0 -0.00017889632224274524 -0.017261906081504044 0 -0.00042185624226023511 -0.017377933411907159 0 -0.001766646233515038 -0.029487653666278098 0 -0.0028427851793984254 -0.029586036057301288 0 0.00054878430814276128 -0.016230894486290545 0 0.0005442847006020741 -0.01676903596157699 0 0.00025455925514509116 -0.017197912066349172 0 0.00054878430814276128 -0.016230894486290545 0 0.0005442847006020741 -0.01676903596157699 0 0.00085811417106216128 -0.016181417433912111 0 -0.00017889632224274524 -0.017261906081504044 0 0.00054878430814276128 -0.016230894486290545 0 0.00025455925514509116 -0.017197912066349172 0 -0.00017889632224274524 -0.017261906081504044 0 0.00025455925514509116 -0.017197912066349172 0 -3.6693759415094959e-05 -0.017878961784418914 0 0.00025455925514509116 -0.017197912066349172 0 0.00018544884025175335 -0.018024335859606375 0 -3.6693759415094959e-05 -0.017878961784418914 0 0.00025455925514509116 -0.017197912066349172 0 0.00018544884025175335 -0.018024335859606375 0 0.00038235377890691476 -0.017511372146747174 0 0.00018544884025175335 -0.018024335859606375 0 3.1310316471708428e-05 -0.018597763514777446 0 -3.6693759415094959e-05 -0.017878961784418914 0 0.00038235377890691476 -0.017511372146747174 0 0.00033502173801622058 -0.018169518468777766 0 0.00065776514100584734 -0.017024209504348246 0 0.0005442847006020741 -0.01676903596157699 0 0.00038235377890691476 -0.017511372146747174 0 0.00065776514100584734 -0.017024209504348246 0 0.0005442847006020741 -0.01676903596157699 0 0.00025455925514509116 -0.017197912066349172 0 0.00038235377890691476 -0.017511372146747174 0 0.00018544884025175335 -0.018024335859606375 0 0.00038235377890691476 -0.017511372146747174 0 0.00033502173801622058 -0.018169518468777766 0 0.00018544884025175335 -0.018024335859606375 0 0.00033502173801622058 -0.018169518468777766 0 0.00017064868196333975 -0.018562248957433827 0 0.00018544884025175335 -0.018024335859606375 0 0.00017064868196333975 -0.018562248957433827 0 3.1310316471708428e-05 -0.018597763514777446 0 -0.0028427851793984254 -0.029586036057301288 0 -0.0010230687929982515 -0.031300514343019406 0 3.1310316471708428e-05 -0.018597763514777446 0 -0.00012326399582960435 -0.018198555174507601 0 8.325786332868425e-05 -0.01943599309185574 0 0.00017064868196333975 -0.018562248957433827 0 3.1310316471708428e-05 -0.018597763514777446 0 0.00013460068712409847 -0.01909767751367299 0 3.1310316471708428e-05 -0.018597763514777446 0 8.325786332868425e-05 -0.01943599309185574 0 0.00013460068712409847 -0.01909767751367299 0 -0.00012326399582960435 -0.018198555174507601 0 -0.00014040800895379624 -0.017970813274841475 0 -0.00020371659822402159 -0.019977782909032443 0 -0.00012326399582960435 -0.018198555174507601 0 8.325786332868425e-05 -0.01943599309185574 0 -0.00020371659822402159 -0.019977782909032443 0 -0.00017889632224274524 -0.017261906081504044 0 -3.6693759415094959e-05 -0.017878961784418914 0 -0.00026898761266519499 -0.017642729786428075 0 -0.00012326399582960435 -0.018198555174507601 0 -3.6693759415094959e-05 -0.017878961784418914 0 -0.00026898761266519499 -0.017642729786428075 0 -0.0027776503625754445 -0.029394609049501343 0 -0.0028427851793984254 -0.029586036057301288 0 3.1310316471708428e-05 -0.018597763514777446 0 -0.00012326399582960435 -0.018198555174507601 0 -3.6693759415094959e-05 -0.017878961784418914 0 0.0016807207724551575 -0.014526101661059181 0 0.0013963373420389955 -0.015469510840410343 0 0.0020040358711545998 -0.016413855775071692 0 0.0016807207724551575 -0.014526101661059181 0 0.0014711211482263849 -0.014747687187428664 0 0.0013963373420389955 -0.015469510840410343 0 0.0010904295667255762 -0.015088101728431677 0 0.00054878430814276128 -0.016230894486290545 0 0.00085811417106216128 -0.016181417433912111 0 0.0010904295667255762 -0.015088101728431677 0 0.0013963373420389955 -0.015469510840410343 0 0.00085811417106216128 -0.016181417433912111 0 0.0013963373420389955 -0.015469510840410343 0 0.00085811417106216128 -0.016181417433912111 0 0.0009341580959626272 -0.017022950292174245 0 0.0005442847006020741 -0.01676903596157699 0 0.00085811417106216128 -0.016181417433912111 0 0.00065776514100584734 -0.017024209504348246 0 0.00085811417106216128 -0.016181417433912111 0 0.00065776514100584734 -0.017024209504348246 0 0.0009341580959626272 -0.017022950292174245 0 0.00033502173801622058 -0.018169518468777766 0 0.00065776514100584734 -0.017024209504348246 0 0.0009341580959626272 -0.017022950292174245 0 0.0009341580959626272 -0.017022950292174245 0 0.0020040358711545998 -0.016413855775071692 0 0.00063505730731286251 -0.018600928938359879 0 0.0013963373420389955 -0.015469510840410343 0 0.0009341580959626272 -0.017022950292174245 0 0.0020040358711545998 -0.016413855775071692 0 0.0015043013090799498 -0.00904071846367944 0 0.00085793231762259711 -0.0097363858511549488 0 -0.0002156585687779531 -0.011061156551282363 0 0.00102175769627524 -0.013881192913173379 0 0.00086659338202587917 -0.014395064378260193 0 0.00033502173801622058 -0.018169518468777766 0 0.0009341580959626272 -0.017022950292174245 0 0.00063505730731286251 -0.018600928938359879 0 0.00085793231762259711 -0.0097363858511549488 0 -0.0002156585687779531 -0.011061156551282363 0 -1.1263889289811752e-06 -0.015032417290067625 0 0.00086659338202587917 -0.014395064378260193 0 0.00070815119289639088 -0.014859496114680456 0 -0.0002156585687779531 -0.011061156551282363 0 -1.1263889289811752e-06 -0.015032417290067625 0 -9.7593058493094929e-05 -0.017425748992302568 0 2.4693606117518239e-06 -0.010204927005246662 0 0.00085793231762259711 -0.0097363858511549488 0 -1.1263889289811752e-06 -0.015032417290067625 0 0.00023472876426382117 -0.019647155597061199 0 0.00023630508783153658 -0.019252520584401731 0 0.00024395760943751575 -0.021214245803494999 0 0.00023472876426382117 -0.019647155597061199 0 0.00021112280914053764 -0.018983322257962155 0 0.00023630508783153658 -0.019252520584401731 0 0.00023472876426382117 -0.019647155597061199 0 8.325786332868425e-05 -0.01943599309185574 0 0.00024395760943751575 -0.021214245803494999 0 0.00023472876426382117 -0.019647155597061199 0 0.00013460068712409847 -0.01909767751367299 0 0.00021112280914053764 -0.018983322257962155 0 0.00017064868196333975 -0.018562248957433827 0 0.00013460068712409847 -0.01909767751367299 0 0.00021112280914053764 -0.018983322257962155 0 0.00023472876426382117 -0.019647155597061199 0 8.325786332868425e-05 -0.01943599309185574 0 0.00013460068712409847 -0.01909767751367299 0 0.00033502173801622058 -0.018169518468777766 0 0.00021112280914053764 -0.018983322257962155 0 0.00025861865101841258 -0.018725845408088349 0 0.00033502173801622058 -0.018169518468777766 0 0.00063505730731286251 -0.018600928938359879 0 0.00025861865101841258 -0.018725845408088349 0 0.00033502173801622058 -0.018169518468777766 0 0.00017064868196333975 -0.018562248957433827 0 0.00021112280914053764 -0.018983322257962155 0 0.00021112280914053764 -0.018983322257962155 0 0.00025861865101841258 -0.018725845408088349 0 0.00023630508783153658 -0.019252520584401731 0 0.00025861865101841258 -0.018725845408088349 0 -9.7593058493094929e-05 -0.017425748992302568 0 0.00023630508783153658 -0.019252520584401731 0 0.00063505730731286251 -0.018600928938359879 0 0.00025861865101841258 -0.018725845408088349 0 -9.7593058493094929e-05 -0.017425748992302568 0 -1.1263889289811752e-06 -0.015032417290067625 0 -9.7593058493094929e-05 -0.017425748992302568 0 5.9371248545856903e-07 -0.01986149181999108 0 -9.7593058493094929e-05 -0.017425748992302568 0 5.9371248545856903e-07 -0.01986149181999108 0 0.00023630508783153658 -0.019252520584401731 0 5.9371248545856903e-07 -0.01986149181999108 0 0.00023630508783153658 -0.019252520584401731 0 0.00024395760943751575 -0.021214245803494999 0 5.9371248545856903e-07 -0.01986149181999108 0 0.00024395760943751575 -0.021214245803494999 0 1.2437954432976867e-06 -0.024689256267631531 0 8.325786332868425e-05 -0.01943599309185574 0 0.00024395760943751575 -0.021214245803494999 0 -0.00020371659822402159 -0.019977782909032443 0 0.00024395760943751575 -0.021214245803494999 0 -0.00089651348929343328 -0.022586484845921167 0 -0.00020371659822402159 -0.019977782909032443 0 -0.00064072405894163224 -0.034196285446937501 0 -0.0010230687929982515 -0.031300514343019406 0 0.00024395760943751575 -0.021214245803494999 0 1.2437954432976867e-06 -0.024689256267631531 0 -0.00089651348929343328 -0.022586484845921167 0 1.2437954432976867e-06 -0.024689256267631531 0 -4.490075198048848e-06 -0.029508643291016309 0 -0.00089651348929343328 -0.022586484845921167 0 1.5055158561514437e-06 -0.029518898932399742 0 -0.00064072405894163224 -0.034196285446937501 0 -1.20848687301767e-06 -0.029520761777131928 0 1.234587911712298e-05 -0.031128465590147515 0 -0.003447131092116789 -0.034630877676896772 0 -0.0013622870676816186 -0.036759302010396976 0 -0.00065930892373946724 -0.036202887191149627 0 0.00018053778021084963 -0.031463075758035648 0 -1.20848687301767e-06 -0.029520761777131928 0 1.2081351787832389e-06 -0.032772694196576323 0 0.00018053778021084963 -0.031463075758035648 0 0.00014536917460938886 -0.03120265373136143 0 -1.8821835811005636e-06 -0.03220750455627229 0 0.00018053778021084963 -0.031463075758035648 0 -1.20848687301767e-06 -0.029520761777131928 0 1.234587911712298e-05 -0.031128465590147515 0 -0.0014117961693530419 -0.036187137682740296 0 -0.0013622870676816186 -0.036759302010396976 0 0.00018053778021084963 -0.031463075758035648 0 1.234587911712298e-05 -0.031128465590147515 0 0.00014536917460938886 -0.03120265373136143 0 -0.0060346440627097346 -0.040076858455869099 0 -0.004875225711470161 -0.043699703309353445 0 -0.0037311581134808636 -0.041578101533650089 0 -0.0013622870676816186 -0.036759302010396976 0 -0.0012896073798563106 -0.041578753277573002 0 1.234587911712298e-05 -0.031128465590147515 0 0.00040967963557612269 -0.032895844193442957 0 -0.003447131092116789 -0.034630877676896772 0 -0.0013622870676816186 -0.036759302010396976 0 -0.00064072405894163224 -0.034196285446937501 0 1.1065896551493524e-05 -0.039708322288305169 0 -0.001061531245172371 -0.040214424951873599 0 -0.00071286225392798495 -0.041245769461339177 0 1.1065896551493524e-05 -0.039708322288305169 0 -0.00071286225392798495 -0.041245769461339177 0 0.00037874510392211488 -0.041323153809655899 0 0.00037874510392211488 -0.041323153809655899 0 -0.00011851989730251032 -0.042253034115447854 0 0.00074165426237260889 -0.04292199155990091 0 -0.0012896073798563106 -0.041578753277573002 0 -0.0010028847473340012 -0.043647607407541297 0 -0.00071286225392798495 -0.041245769461339177 0 0.00037874510392211488 -0.041323153809655899 0 -0.00011851989730251032 -0.042253034115447854 0 -0.00071286225392798495 -0.041245769461339177 0 -0.00011851989730251032 -0.042253034115447854 0 -0.00097747435998198117 -0.042310593426148541 0 -0.00097747435998198117 -0.042310593426148541 0 -0.0017847996960959542 -0.042369825797474142 0 -0.0018167109138647567 -0.041449908428949578 0 -0.00071286225392798495 -0.041245769461339177 0 -0.00097747435998198117 -0.042310593426148541 0 -0.0018167109138647567 -0.041449908428949578 0 -0.0024387699605497239 -0.039397970871866549 0 -0.0028697151700498077 -0.040745538097028244 0 -0.0031338106022408153 -0.042381769981820777 0 -0.0026275200017614637 -0.041780817453146997 0 -0.0025235248138249697 -0.042666465339700449 0 -0.0017847996960959542 -0.042369825797474142 0 -0.0018167109138647567 -0.041449908428949578 0 -0.0025235248138249697 -0.042666465339700449 0 -0.0026275200017614637 -0.041780817453146997 0 -0.0017265192627278895 -0.041498890878174717 0 -0.0025235248138249697 -0.042666465339700449 0 -0.0035137298460426424 -0.041541705603000641 0 -0.0026275200017614637 -0.041780817453146997 0 -0.0022842930402077167 -0.040888496442220604 0 -0.0026275200017614637 -0.041780817453146997 0 -0.0022842930402077167 -0.040888496442220604 0 -0.0017265192627278895 -0.041498890878174717 0 -0.001061531245172371 -0.040214424951873599 0 -0.00071286225392798495 -0.041245769461339177 0 -0.0018167109138647567 -0.041449908428949578 0 -0.00094009334438181508 -0.040220470402395909 0 -0.0022842930402077167 -0.040888496442220604 0 -0.0017265192627278895 -0.041498890878174717 0 -0.00064072405894163224 -0.034196285446937501 0 -0.0024387699605497239 -0.039397970871866549 0 0.00095971372708762606 -0.042138540571689094 0 0.0013106073199839507 -0.043271193124551188 0 0.0014478370066459045 -0.044021451607445396 0 0.00093163270504141181 -0.042764830497976969 0 0.0013106073199839507 -0.043271193124551188 0 0.0014265537825726799 -0.043684968550025044 0 0.00093163270504141181 -0.042764830497976969 0 0.00095971372708762606 -0.042138540571689094 0 0.0013106073199839507 -0.043271193124551188 0 0.00032119838367991214 -0.04410448664328373 0 0.00054340907422778593 -0.045066571710530426 0 2.7382366196559714e-06 -0.040477079340900647 0 0.00032567144812129211 -0.039894219141011017 0 2.414688526938219e-05 -0.043492440591946922 0 0.00095971372708762606 -0.042138540571689094 0 0.00032567144812129211 -0.039894219141011017 0 0.0014478370066459045 -0.044021451607445396 0 2.7382366196559714e-06 -0.040477079340900647 0 0.00032567144812129211 -0.039894219141011017 0 -4.9618243433345462e-06 -0.036038732229113295 0 0.00032567144812129211 -0.039894219141011017 0 7.1373895005420575e-05 -0.041342859328515204 0 -0.00062912561478448918 -0.039531319626175114 0 0.00095971372708762606 -0.042138540571689094 0 0.00032567144812129211 -0.039894219141011017 0 7.1373895005420575e-05 -0.041342859328515204 0 0.00093163270504141181 -0.042764830497976969 0 0.00095971372708762606 -0.042138540571689094 0 7.1373895005420575e-05 -0.041342859328515204 0 0.00093163270504141181 -0.042764830497976969 0 7.1373895005420575e-05 -0.041342859328515204 0 0.00010628852220843173 -0.04271362221612103 0 7.1373895005420575e-05 -0.041342859328515204 0 -0.0013963194757179757 -0.041682032147412951 0 0.00010628852220843173 -0.04271362221612103 0 -0.0013963194757179757 -0.041682032147412951 0 -0.00062912561478448918 -0.039531319626175114 0 -0.0037825700961679593 -0.038735739377813758 0 7.1373895005420575e-05 -0.041342859328515204 0 -0.0013963194757179757 -0.041682032147412951 0 -0.00062912561478448918 -0.039531319626175114 0 0.00032567144812129211 -0.039894219141011017 0 -4.9618243433345462e-06 -0.036038732229113295 0 -0.00062912561478448918 -0.039531319626175114 0 -4.9618243433345462e-06 -0.036038732229113295 0 -0.00062912561478448918 -0.039531319626175114 0 -0.0037825700961679593 -0.038735739377813758 0 -1.8413875127209168e-07 -0.036030527419763217 0 -0.00065930892373946724 -0.036202887191149627 0 -1.2042124560026257e-06 -0.036029326847532309 0 1.2081351787832389e-06 -0.032772694196576323 0 -1.8821835811005636e-06 -0.03220750455627229 0 0.00018053778021084963 -0.031463075758035648 0 1.2081351787832389e-06 -0.032772694196576323 0 -1.8821835811005636e-06 -0.03220750455627229 0 -0.0060346440627097346 -0.040076858455869099 0 -0.0037825700961679593 -0.038735739377813758 0 -0.0037311581134808636 -0.041578101533650089 0 -0.0013963194757179757 -0.041682032147412951 0 -0.0037825700961679593 -0.038735739377813758 0 -0.0037311581134808636 -0.041578101533650089 0 -0.0013963194757179757 -0.041682032147412951 0 -0.0037311581134808636 -0.041578101533650089 0 -0.0022455466955858777 -0.043429562924216257 0 -0.004875225711470161 -0.043699703309353445 0 -0.0037311581134808636 -0.041578101533650089 0 -0.0022455466955858777 -0.043429562924216257 0 -0.004875225711470161 -0.043699703309353445 0 -0.0019156837048065509 -0.045987315292213483 0 -0.0039935088060867267 -0.046833104973177747 0 -0.004875225711470161 -0.043699703309353445 0 -0.0022455466955858777 -0.043429562924216257 0 -0.0019156837048065509 -0.045987315292213483 0 -0.0010351645809281496 -0.044293319987589536 0 -0.0011998630141216988 -0.04421847197518973 0 -0.00085823580162230223 -0.044225761966125265 0 -7.499836754804456e-05 -0.044819650378422358 0 -0.0019156837048065509 -0.045987315292213483 0 -0.00085823580162230223 -0.044225761966125265 0 -0.0022455466955858777 -0.043429562924216257 0 -0.0019156837048065509 -0.045987315292213483 0 -0.00085823580162230223 -0.044225761966125265 0 -0.00079983242704696333 -0.043191808008798238 0 0.00014165654584870428 -0.043730287189473749 0 -0.00085823580162230223 -0.044225761966125265 0 -0.0022455466955858777 -0.043429562924216257 0 -0.00079983242704696333 -0.043191808008798238 0 -0.0013963194757179757 -0.041682032147412951 0 -0.0022455466955858777 -0.043429562924216257 0 -0.00079983242704696333 -0.043191808008798238 0 -0.0013963194757179757 -0.041682032147412951 0 -0.00079983242704696333 -0.043191808008798238 0 0.00010628852220843173 -0.04271362221612103 0 0.00093163270504141181 -0.042764830497976969 0 0.00010628852220843173 -0.04271362221612103 0 0.0010808515540796395 -0.043552371076915855 0 0.00010628852220843173 -0.04271362221612103 0 0.00014165654584870428 -0.043730287189473749 0 0.0010808515540796395 -0.043552371076915855 0 -0.00079983242704696333 -0.043191808008798238 0 0.00010628852220843173 -0.04271362221612103 0 0.00014165654584870428 -0.043730287189473749 0 -0.00085823580162230223 -0.044225761966125265 0 0.00014165654584870428 -0.043730287189473749 0 -7.499836754804456e-05 -0.044819650378422358 0 -7.499836754804456e-05 -0.044819650378422358 0 0.00044038133246196524 -0.044801055291601541 0 0.00013468373199947552 -0.044939253459699895 0 0.00024921734150585011 -0.044040729363905455 0 0.00048091571185488499 -0.044299451423536168 0 0.00014165654584870428 -0.043730287189473749 0 -7.499836754804456e-05 -0.044819650378422358 0 0.00044038133246196524 -0.044801055291601541 0 0.001091912915517941 -0.043906369421330263 0 0.0011926999637643934 -0.043718518400636772 0 0.0011847673223081116 -0.043697404213837242 0 0.001091912915517941 -0.043906369421330263 0 0.0011926999637643934 -0.043718518400636772 0 0.0010808515540796395 -0.043552371076915855 0 0.00014165654584870428 -0.043730287189473749 0 0.001091912915517941 -0.043906369421330263 0 0.0010808515540796395 -0.043552371076915855 0 0.0011926999637643934 -0.043718518400636772 0 0.0010808515540796395 -0.043552371076915855 0 0.0013150892128718395 -0.043658082018325585 0 0.0010808515540796395 -0.043552371076915855 0 0.0014265537825726799 -0.043684968550025044 0 0.0013150892128718395 -0.043658082018325585 0 0.00093163270504141181 -0.042764830497976969 0 0.0010808515540796395 -0.043552371076915855 0 0.0014265537825726799 -0.043684968550025044 0 0.00025422593059225632 -0.045057078702196024 0 0.00022258501221912615 -0.045271803843892379 0 0.00044984523202237889 -0.045220164392294683 0 0.00025422593059225632 -0.045057078702196024 0 2.2632548005094424e-05 -0.045191802797949009 0 0.00022258501221912615 -0.045271803843892379 0 0.00044038133246196524 -0.044801055291601541 0 0.00025422593059225632 -0.045057078702196024 0 0.0004979518118843815 -0.044981110936605395 0 0.00044038133246196524 -0.044801055291601541 0 0.00025422593059225632 -0.045057078702196024 0 0.00013468373199947552 -0.044939253459699895 0 0.00025422593059225632 -0.045057078702196024 0 0.00013468373199947552 -0.044939253459699895 0 -3.8867812499155391e-05 -0.045006263641495119 0 -7.499836754804456e-05 -0.044819650378422358 0 0.00013468373199947552 -0.044939253459699895 0 -3.8867812499155391e-05 -0.045006263641495119 0 0.00025422593059225632 -0.045057078702196024 0 -3.8867812499155391e-05 -0.045006263641495119 0 2.2632548005094424e-05 -0.045191802797949009 0 -3.8867812499155391e-05 -0.045006263641495119 0 -0.0001754913627293686 -0.045140285968867634 0 2.2632548005094424e-05 -0.045191802797949009 0 -3.8867812499155391e-05 -0.045006263641495119 0 -0.0001754913627293686 -0.045140285968867634 0 -0.00022398030776931219 -0.0450218085903843 0 -7.499836754804456e-05 -0.044819650378422358 0 -3.8867812499155391e-05 -0.045006263641495119 0 -0.00019131534244103539 -0.044891098317491981 0 -3.8867812499155391e-05 -0.045006263641495119 0 -0.00019131534244103539 -0.044891098317491981 0 -0.00022398030776931219 -0.0450218085903843 0 -0.00019131534244103539 -0.044891098317491981 0 -0.00033685523981875871 -0.044956807901637696 0 -0.00022398030776931219 -0.0450218085903843 0 -0.0011998630141216988 -0.04421847197518973 0 -0.0010028847473340012 -0.043647607407541297 0 -0.0010028847473340012 -0.043647607407541297 0 -0.00069454093022311382 -0.044444040721845476 0 -0.00033685523981875871 -0.044956807901637696 0 -0.00022398030776931219 -0.0450218085903843 0 -0.00028936719083183857 -0.045115102076362941 0 -0.0001754913627293686 -0.045140285968867634 0 -0.00022398030776931219 -0.0450218085903843 0 -0.00028936719083183857 -0.045115102076362941 0 -0.0001754913627293686 -0.045140285968867634 0 -0.00028936719083183857 -0.045115102076362941 0 -0.00030647602020551952 -0.04517526672293759 0 -0.00069454093022311382 -0.044444040721845476 0 -0.00059932210829287316 -0.044709258022658502 0 -0.00038491917446173125 -0.04437652544798721 0 -0.00030647602020551952 -0.04517526672293759 0 -0.00090072025982151287 -0.044835029490736041 0 -0.00012761053615673444 -0.045279614124827471 0 3.0657038415323638e-05 -0.045451094714584035 0 -0.00019234247032579922 -0.04570442874281018 0 -0.00030647602020551952 -0.04517526672293759 0 -0.00012761053615673444 -0.045279614124827471 0 -0.00019234247032579922 -0.04570442874281018 0 -0.0001754913627293686 -0.045140285968867634 0 -0.00012761053615673444 -0.045279614124827471 0 2.2632548005094424e-05 -0.045191802797949009 0 -0.0001754913627293686 -0.045140285968867634 0 -0.00030647602020551952 -0.04517526672293759 0 -0.00012761053615673444 -0.045279614124827471 0 2.2632548005094424e-05 -0.045191802797949009 0 3.0657038415323638e-05 -0.045451094714584035 0 0.00022258501221912615 -0.045271803843892379 0 -0.00012761053615673444 -0.045279614124827471 0 2.2632548005094424e-05 -0.045191802797949009 0 3.0657038415323638e-05 -0.045451094714584035 0 0.00015788253288508423 -0.045593102185419114 0 0.00032034252640115855 -0.045455479961447262 0 0.00034454418809479138 -0.045854710728463303 0 3.0657038415323638e-05 -0.045451094714584035 0 0.00015788253288508423 -0.045593102185419114 0 0.00032034252640115855 -0.045455479961447262 0 3.0657038415323638e-05 -0.045451094714584035 0 0.00032034252640115855 -0.045455479961447262 0 0.00022258501221912615 -0.045271803843892379 0 0.00032034252640115855 -0.045455479961447262 0 0.00022258501221912615 -0.045271803843892379 0 0.00044984523202237889 -0.045220164392294683 0 -0.0021177454496861293 -0.044066682040553522 0 -0.0018003032500287436 -0.04304548473857419 0 -0.00065713272760077872 -0.043478598672203002 0 -0.0015452763536900962 -0.043883907609403146 0 -0.001126527850642216 -0.043721149155194379 0 -0.0021177454496861293 -0.044066682040553522 0 -0.0013332259727431559 -0.043980104777103124 0 -0.0015391967683258104 -0.044556088340652944 0 -0.0021177454496861293 -0.044066682040553522 0 -0.0026352220195932094 -0.043515645651015296 0 -0.0025081890591539787 -0.044449970706346015 0 -0.0021177454496861293 -0.044066682040553522 0 -0.0026352220195932094 -0.043515645651015296 0 -0.0018003032500287436 -0.04304548473857419 0 -0.0026352220195932094 -0.043515645651015296 0 -0.0025235248138249697 -0.042666465339700449 0 -0.0018003032500287436 -0.04304548473857419 0 -0.0030953121787588335 -0.043023696984391319 0 -0.0026352220195932094 -0.043515645651015296 0 -0.0025235248138249697 -0.042666465339700449 0 -0.0017847996960959542 -0.042369825797474142 0 -0.0025235248138249697 -0.042666465339700449 0 -0.0018003032500287436 -0.04304548473857419 0 -0.00097747435998198117 -0.042310593426148541 0 -0.0017847996960959542 -0.042369825797474142 0 -0.0018003032500287436 -0.04304548473857419 0 -0.00097747435998198117 -0.042310593426148541 0 -0.0018003032500287436 -0.04304548473857419 0 -0.00065713272760077872 -0.043478598672203002 0 -0.00011851989730251032 -0.042253034115447854 0 -0.00097747435998198117 -0.042310593426148541 0 -0.00065713272760077872 -0.043478598672203002 0 -0.0010028847473340012 -0.043647607407541297 0 -0.001126527850642216 -0.043721149155194379 0 -0.00011851989730251032 -0.042253034115447854 0 0.00074165426237260889 -0.04292199155990091 0 -0.00065713272760077872 -0.043478598672203002 0 -0.00038491917446173125 -0.04437652544798721 0 -0.0013332259727431559 -0.043980104777103124 0 -0.00090072025982151287 -0.044835029490736041 0 -0.00052763694506561404 -0.043701817263955507 0 -0.00038491917446173125 -0.04437652544798721 0 -0.0013332259727431559 -0.043980104777103124 0 -0.0015391967683258104 -0.044556088340652944 0 -0.00090072025982151287 -0.044835029490736041 0 -0.0014125133661675906 -0.045118494465025694 0 -0.0013332259727431559 -0.043980104777103124 0 -0.0015391967683258104 -0.044556088340652944 0 -0.00090072025982151287 -0.044835029490736041 0 -0.00090072025982151287 -0.044835029490736041 0 -0.0014125133661675906 -0.045118494465025694 0 -0.00082752839345592258 -0.045755933261401996 0 -0.00030647602020551952 -0.04517526672293759 0 -0.00090072025982151287 -0.044835029490736041 0 -0.00082752839345592258 -0.045755933261401996 0 -0.0020174790668809942 -0.044791717057432796 0 -0.0025935296715668098 -0.045143294818754072 0 -0.0017963417892065314 -0.045768565430665133 0 -0.0014125133661675906 -0.045118494465025694 0 -0.0020174790668809942 -0.044791717057432796 0 -0.0017963417892065314 -0.045768565430665133 0 -0.0015391967683258104 -0.044556088340652944 0 -0.0014125133661675906 -0.045118494465025694 0 -0.0020174790668809942 -0.044791717057432796 0 -0.0021177454496861293 -0.044066682040553522 0 -0.0015391967683258104 -0.044556088340652944 0 -0.0020174790668809942 -0.044791717057432796 0 -0.0020174790668809942 -0.044791717057432796 0 -0.0025081890591539787 -0.044449970706346015 0 -0.0025935296715668098 -0.045143294818754072 0 -0.0032512656085213485 -0.044537064865567924 0 -0.0026352220195932094 -0.043515645651015296 0 -0.0025081890591539787 -0.044449970706346015 0 -0.0032512656085213485 -0.044537064865567924 0 -0.0025081890591539787 -0.044449970706346015 0 -0.0025935296715668098 -0.045143294818754072 0 -0.0021177454496861293 -0.044066682040553522 0 -0.0020174790668809942 -0.044791717057432796 0 -0.0025081890591539787 -0.044449970706346015 0 -0.0025935296715668098 -0.045143294818754072 0 -0.0017963417892065314 -0.045768565430665133 0 -0.0028631531015428403 -0.045723648531359691 0 -0.0025774950890155106 -0.04449881274853415 0 -0.0034111853948756233 -0.043283533288099467 0 -0.0045043647898666836 -0.045369485391836044 0 -0.0034473289915514368 -0.045024776121162402 0 -0.0046276318367121155 -0.044973901112846555 0 -0.0039967702711697917 -0.045747076364915137 0 -0.0036367099427290031 -0.046092131630857222 0 -0.0045043647898666836 -0.045369485391836044 0 -0.0037814249040208562 -0.045639722343665513 0 -0.0037078693263199853 -0.046454334280991938 0 -0.0045043647898666836 -0.045369485391836044 0 -0.0041107409557045354 -0.045588745577481916 0 -0.0045648969143137555 -0.045539623493506473 0 -0.0045043647898666836 -0.045369485391836044 0 -0.0037814249040208562 -0.045639722343665513 0 -0.0034473289915514368 -0.045024776121162402 0 -0.0037814249040208562 -0.045639722343665513 0 -0.0034473289915514368 -0.045024776121162402 0 -0.0027327019288294657 -0.046112063434923994 0 -0.0014125133661675906 -0.045118494465025694 0 -0.0017963417892065314 -0.045768565430665133 0 -0.00082752839345592258 -0.045755933261401996 0 -0.0025774950890155106 -0.04449881274853415 0 -0.0015985897782059841 -0.045072260192484656 0 -0.0021504976299569671 -0.045201433708599595 0 -0.0027327019288294657 -0.046112063434923994 0 -0.0014658374626578387 -0.046055040807591797 0 -0.0034473289915514368 -0.045024776121162402 0 -0.0021504976299569671 -0.045201433708599595 0 -0.0027327019288294657 -0.046112063434923994 0 -0.0027327019288294657 -0.046112063434923994 0 -0.0028918031496468328 -0.047370000903432199 0 -0.0037078693263199853 -0.046454334280991938 0 -0.0027327019288294657 -0.046112063434923994 0 -0.0014658374626578387 -0.046055040807591797 0 -0.0017819214016563062 -0.046966771110974748 0 -0.0028486911224405906 -0.046776100947886132 0 -0.0019555062939951083 -0.046686186810794589 0 -0.0027327019288294657 -0.046112063434923994 0 -0.0028918031496468328 -0.047370000903432199 0 -0.0017819214016563062 -0.046966771110974748 0 -0.0023724909763913138 -0.04713692026790358 0 -0.0028671384110702208 -0.047072055130830473 0 -0.0019966228692980467 -0.046747061407964197 0 -0.0023724909763913138 -0.04713692026790358 0 -0.0019966228692980467 -0.046747061407964197 0 -0.0021535761088444317 -0.047214016418174388 0 -0.0028486911224405906 -0.046776100947886132 0 -0.0028595042028145431 -0.046775662935486295 0 -0.0044699324455057506 -0.046247184691139864 0 -0.0041107409557045354 -0.045588745577481916 0 -0.0039774828936945108 -0.046391533050154532 0 -0.0034508382326636855 -0.046367551279260372 0 -0.0041107409557045354 -0.045588745577481916 0 -0.0039774828936945108 -0.046391533050154532 0 -0.0032921096156539086 -0.046308949348396473 0 -0.0034508382326636855 -0.046367551279260372 0 -0.0041107409557045354 -0.045588745577481916 0 -0.0028486911224405906 -0.046776100947886132 0 -0.0036367099427290031 -0.046092131630857222 0 -0.0044699324455057506 -0.046247184691139864 0 -0.0045923890786253143 -0.045770664521785971 0 -0.0041107409557045354 -0.045588745577481916 0 -0.0044699324455057506 -0.046247184691139864 0 -0.0045923890786253143 -0.045770664521785971 0 -0.0047900162807572675 -0.0458939049238756 0 -0.0045923890786253143 -0.045770664521785971 0 -0.0041107409557045354 -0.045588745577481916 0 -0.0045648969143137555 -0.045539623493506473 0 -0.0037814249040208562 -0.045639722343665513 0 -0.0027327019288294657 -0.046112063434923994 0 -0.0037078693263199853 -0.046454334280991938 0 2.9153429806709104e-05 -0.045750128133099768 0 -1.3635837631005682e-05 -0.046261582272404116 0 0.00034454418809479138 -0.045854710728463303 0 -1.3635837631005682e-05 -0.046261582272404116 0 0.00034454418809479138 -0.045854710728463303 0 0.0005094267176056702 -0.046413385457259856 0 0.00015788253288508423 -0.045593102185419114 0 2.9153429806709104e-05 -0.045750128133099768 0 0.00034454418809479138 -0.045854710728463303 0 3.0657038415323638e-05 -0.045451094714584035 0 0.00015788253288508423 -0.045593102185419114 0 2.9153429806709104e-05 -0.045750128133099768 0 3.0657038415323638e-05 -0.045451094714584035 0 2.9153429806709104e-05 -0.045750128133099768 0 -0.00019234247032579922 -0.04570442874281018 0 -0.00039586735111530035 -0.045448123353588062 0 -0.00078085995381538579 -0.045349906800484598 0 2.9153429806709104e-05 -0.045750128133099768 0 -0.00048778265123551183 -0.046002311079121547 0 -1.3635837631005682e-05 -0.046261582272404116 0 2.9153429806709104e-05 -0.045750128133099768 0 -0.00048778265123551183 -0.046002311079121547 0 -0.00098492232368963288 -0.045429140565446641 0 -0.00048778265123551183 -0.046002311079121547 0 -0.00098492232368963288 -0.045429140565446641 0 -0.0014658374626578387 -0.046055040807591797 0 -0.0015985897782059841 -0.045072260192484656 0 -0.00078085995381538579 -0.045349906800484598 0 -0.00030647602020551952 -0.04517526672293759 0 -0.00082752839345592258 -0.045755933261401996 0 -0.00019234247032579922 -0.04570442874281018 0 -0.0021504976299569671 -0.045201433708599595 0 -0.00098492232368963288 -0.045429140565446641 0 -0.0014658374626578387 -0.046055040807591797 0 -0.0019555062939951083 -0.046686186810794589 0 -0.0010869586155783731 -0.046479050680983451 0 -0.0014658374626578387 -0.046055040807591797 0 -0.0017819214016563062 -0.046966771110974748 0 -0.00077179591640731151 -0.046582202408377543 0 -0.0019966228692980467 -0.046747061407964197 0 -0.0010211427313192309 -0.046451666591460002 0 -0.0014727906793394767 -0.047231087152513736 0 -0.0019966228692980467 -0.046747061407964197 0 -0.0014727906793394767 -0.047231087152513736 0 -0.0021535761088444317 -0.047214016418174388 0 -0.0010211427313192309 -0.046451666591460002 0 -0.00051820210479484733 -0.046983731439885282 0 -0.0014727906793394767 -0.047231087152513736 0 -0.00048778265123551183 -0.046002311079121547 0 -0.0014658374626578387 -0.046055040807591797 0 -0.00077179591640731151 -0.046582202408377543 0 -0.00048778265123551183 -0.046002311079121547 0 -0.00077179591640731151 -0.046582202408377543 0 -1.3635837631005682e-05 -0.046261582272404116 0 -0.0010869586155783731 -0.046479050680983451 0 -0.00063018115971256712 -0.046349145605045855 0 -0.0010211427313192309 -0.046451666591460002 0 -0.00051820210479484733 -0.046983731439885282 0 -1.3635837631005682e-05 -0.046261582272404116 0 -0.00051820210479484733 -0.046983731439885282 0 0.00023556790997697656 -0.046867292935374671 0 -1.3635837631005682e-05 -0.046261582272404116 0 -0.00051820210479484733 -0.046983731439885282 0 0.00023556790997697656 -0.046867292935374671 0 -0.00015727555186080945 -0.04740798819977441 0 0.00023556790997697656 -0.046867292935374671 0 -1.3635837631005682e-05 -0.046261582272404116 0 0.0005094267176056702 -0.046413385457259856 0 -5.5789739330399349e-05 -0.047967443199336643 0 -0.00015727555186080945 -0.04740798819977441 0 0.00054041844368244644 -0.047412786773388622 0 0.00023556790997697656 -0.046867292935374671 0 -0.00015727555186080945 -0.04740798819977441 0 0.00054041844368244644 -0.047412786773388622 0 -5.5789739330399349e-05 -0.047967443199336643 0 -0.00015727555186080945 -0.04740798819977441 0 -0.0010238551139494588 -0.047823512278340835 0 -0.00051820210479484733 -0.046983731439885282 0 -0.00015727555186080945 -0.04740798819977441 0 -0.0010238551139494588 -0.047823512278340835 0 -0.00013910710214906928 -0.047929221978154912 0 -0.0010037665939108399 -0.047791738334729862 0 -7.251971874374997e-05 -0.047926386059166659 0 -0.0011883560796113459 -0.047723478815567516 0 -0.00086903814427155828 -0.048670105051052293 0 -0.0011883560796113459 -0.047723478815567516 0 -0.0017228711948483976 -0.047931591172480748 0 -0.0016412739070196761 -0.048493156359526196 0 -0.00051820210479484733 -0.046983731439885282 0 -0.0010238551139494588 -0.047823512278340835 0 -0.0014727906793394767 -0.047231087152513736 0 -0.0010037665939108399 -0.047791738334729862 0 -0.0015044971494287825 -0.047711450938532095 0 -0.0010238551139494588 -0.047823512278340835 0 -0.0014727906793394767 -0.047231087152513736 0 -0.0020996028975513339 -0.047590183359432721 0 -0.0014727906793394767 -0.047231087152513736 0 -0.0021535761088444317 -0.047214016418174388 0 -0.0020996028975513339 -0.047590183359432721 0 -0.0017228711948483976 -0.047931591172480748 0 -0.0020996028975513339 -0.047590183359432721 0 -0.0021611509802577995 -0.047822117123679883 0 -0.0011883560796113459 -0.047723478815567516 0 -0.0017228711948483976 -0.047931591172480748 0 -0.0020996028975513339 -0.047590183359432721 0 -0.0017228711948483976 -0.047931591172480748 0 -0.002071404305903776 -0.048255087601529689 0 -0.0021611509802577995 -0.047822117123679883 0 -0.002071404305903776 -0.048255087601529689 0 -0.0016412739070196761 -0.048493156359526196 0 -0.0023827099050933373 -0.048870631703972989 0 -0.0017228711948483976 -0.047931591172480748 0 -0.002071404305903776 -0.048255087601529689 0 -0.0016412739070196761 -0.048493156359526196 0 -0.0016412739070196761 -0.048493156359526196 0 -0.0015200257747928615 -0.049404392039022971 0 -0.0023827099050933373 -0.048870631703972989 0 -0.0015200257747928615 -0.049404392039022971 0 -0.0023827099050933373 -0.048870631703972989 0 -0.0024646427688549137 -0.050172144616462543 0 -0.0016412739070196761 -0.048493156359526196 0 -0.0015200257747928615 -0.049404392039022971 0 -0.00086903814427155828 -0.048670105051052293 0 -0.0011883560796113459 -0.047723478815567516 0 -0.0016412739070196761 -0.048493156359526196 0 -0.00086903814427155828 -0.048670105051052293 0 -7.251971874374997e-05 -0.047926386059166659 0 -0.00086903814427155828 -0.048670105051052293 0 -0.00017091775944652572 -0.048903792495186983 0 -0.00086903814427155828 -0.048670105051052293 0 -0.00054298401682301915 -0.049580606590035214 0 -0.00017091775944652572 -0.048903792495186983 0 -0.0015200257747928615 -0.049404392039022971 0 -0.00086903814427155828 -0.048670105051052293 0 -0.00054298401682301915 -0.049580606590035214 0 -0.00054298401682301915 -0.049580606590035214 0 0.00015820216277175422 -0.049478811821156626 0 -0.00017091775944652572 -0.048903792495186983 0 0.00015820216277175422 -0.049478811821156626 0 -0.00017091775944652572 -0.048903792495186983 0 0.00047877191062785834 -0.048909546531732968 0 -7.251971874374997e-05 -0.047926386059166659 0 -0.00017091775944652572 -0.048903792495186983 0 0.00047877191062785834 -0.048909546531732968 0 -0.0034516746358724268 -0.047373867500242993 0 -0.0031010900820931061 -0.047897886545376363 0 -0.003990670182079787 -0.047963199367742994 0 -0.003914949919390039 -0.046925872203960224 0 -0.0034516746358724268 -0.047373867500242993 0 -0.003990670182079787 -0.047963199367742994 0 -0.0046786617068452054 -0.047113233339738374 0 -0.003914949919390039 -0.046925872203960224 0 -0.003990670182079787 -0.047963199367742994 0 -0.0046786617068452054 -0.047113233339738374 0 -0.003990670182079787 -0.047963199367742994 0 -0.0052768019684002968 -0.047765656907980167 0 -0.0044699324455057506 -0.046247184691139864 0 -0.0046786617068452054 -0.047113233339738374 0 -0.003914949919390039 -0.046925872203960224 0 -0.0044699324455057506 -0.046247184691139864 0 -0.0039774828936945108 -0.046391533050154532 0 -0.003914949919390039 -0.046925872203960224 0 -0.0034508382326636855 -0.046367551279260372 0 -0.0039774828936945108 -0.046391533050154532 0 -0.003914949919390039 -0.046925872203960224 0 -0.0032409623997798043 -0.046292706821103098 0 -0.0034508382326636855 -0.046367551279260372 0 -0.0031676593280923729 -0.046829571389935529 0 -0.003914949919390039 -0.046925872203960224 0 -0.0031676593280923729 -0.046829571389935529 0 -0.0034516746358724268 -0.047373867500242993 0 -0.0034508382326636855 -0.046367551279260372 0 -0.003914949919390039 -0.046925872203960224 0 -0.0031676593280923729 -0.046829571389935529 0 -0.0028486911224405906 -0.046776100947886132 0 -0.0026386686972349246 -0.047061208487021812 0 -0.0023724909763913138 -0.04713692026790358 0 -0.0028671384110702208 -0.047072055130830473 0 -0.002468337618758136 -0.047498010219472211 0 -0.0032409623997798043 -0.046292706821103098 0 -0.0031676593280923729 -0.046829571389935529 0 -0.0026644822509918299 -0.046992340872126177 0 -0.0031676593280923729 -0.046829571389935529 0 -0.0026644822509918299 -0.046992340872126177 0 -0.003018171724799608 -0.04731235947349953 0 -0.0031676593280923729 -0.046829571389935529 0 -0.0034516746358724268 -0.047373867500242993 0 -0.003018171724799608 -0.04731235947349953 0 -0.0023724909763913138 -0.04713692026790358 0 -0.0021535761088444317 -0.047214016418174388 0 -0.002468337618758136 -0.047498010219472211 0 -0.002468337618758136 -0.047498010219472211 0 -0.0020996028975513339 -0.047590183359432721 0 -0.0021611509802577995 -0.047822117123679883 0 -0.0021535761088444317 -0.047214016418174388 0 -0.002468337618758136 -0.047498010219472211 0 -0.0020996028975513339 -0.047590183359432721 0 -0.0026386686972349246 -0.047061208487021812 0 -0.0025117342863099894 -0.047223803751098622 0 -0.0026644822509918299 -0.046992340872126177 0 -0.0021611509802577995 -0.047822117123679883 0 -0.0026932297057452766 -0.047666214117535369 0 -0.0021611509802577995 -0.047822117123679883 0 -0.0026932297057452766 -0.047666214117535369 0 -0.0025432795895170483 -0.0482185549252293 0 -0.0026932297057452766 -0.047666214117535369 0 -0.0031010900820931061 -0.047897886545376363 0 -0.0025432795895170483 -0.0482185549252293 0 -0.002071404305903776 -0.048255087601529689 0 -0.0021611509802577995 -0.047822117123679883 0 -0.0025432795895170483 -0.0482185549252293 0 -0.0034516746358724268 -0.047373867500242993 0 -0.003018171724799608 -0.04731235947349953 0 -0.0031010900820931061 -0.047897886545376363 0 -0.0026644822509918299 -0.046992340872126177 0 -0.0026932297057452766 -0.047666214117535369 0 -0.003018171724799608 -0.04731235947349953 0 -0.0026932297057452766 -0.047666214117535369 0 -0.003018171724799608 -0.04731235947349953 0 -0.0031010900820931061 -0.047897886545376363 0 -0.0031010900820931061 -0.047897886545376363 0 -0.0032141799478607341 -0.048614293752212039 0 -0.0025432795895170483 -0.0482185549252293 0 -0.0031010900820931061 -0.047897886545376363 0 -0.0032141799478607341 -0.048614293752212039 0 -0.003990670182079787 -0.047963199367742994 0 -0.0032141799478607341 -0.048614293752212039 0 -0.0025432795895170483 -0.0482185549252293 0 -0.0023827099050933373 -0.048870631703972989 0 -0.002071404305903776 -0.048255087601529689 0 -0.0025432795895170483 -0.0482185549252293 0 -0.0023827099050933373 -0.048870631703972989 0 -0.0032141799478607341 -0.048614293752212039 0 -0.0023827099050933373 -0.048870631703972989 0 -0.0033306752023871703 -0.049555404674575462 0 -0.0032141799478607341 -0.048614293752212039 0 -0.0039258558378304637 -0.049010252579048515 0 -0.0033306752023871703 -0.049555404674575462 0 -0.0032141799478607341 -0.048614293752212039 0 -0.0039258558378304637 -0.049010252579048515 0 -0.003990670182079787 -0.047963199367742994 0 -0.0039258558378304637 -0.049010252579048515 0 -0.003990670182079787 -0.047963199367742994 0 -0.0048965566360078747 -0.048918861290622173 0 -0.003990670182079787 -0.047963199367742994 0 -0.0048965566360078747 -0.048918861290622173 0 -0.0052768019684002968 -0.047765656907980167 0 -0.0039258558378304637 -0.049010252579048515 0 -0.0048965566360078747 -0.048918861290622173 0 -0.0042303106992199946 -0.049997122329395419 0 -0.0048965566360078747 -0.048918861290622173 0 -0.0056523849180695552 -0.049259291055535913 0 -0.0060747137951019953 -0.048479682225000362 0 -0.0056523849180695552 -0.049259291055535913 0 -0.0060747137951019953 -0.048479682225000362 0 -0.0063197818842214201 -0.049603568370590198 0 -0.0060747137951019953 -0.048479682225000362 0 -0.006208838040598564 -0.047489339631770468 0 -0.007027641437209394 -0.047969248791015322 0 -0.0060747137951019953 -0.048479682225000362 0 -0.0052768019684002968 -0.047765656907980167 0 -0.006208838040598564 -0.047489339631770468 0 -0.0048965566360078747 -0.048918861290622173 0 -0.0060747137951019953 -0.048479682225000362 0 -0.0052768019684002968 -0.047765656907980167 0 -0.0046786617068452054 -0.047113233339738374 0 -0.0052768019684002968 -0.047765656907980167 0 -0.0057984518934576807 -0.04664761876994334 0 -0.0052768019684002968 -0.047765656907980167 0 -0.006208838040598564 -0.047489339631770468 0 -0.0057984518934576807 -0.04664761876994334 0 -0.006208838040598564 -0.047489339631770468 0 -0.0057984518934576807 -0.04664761876994334 0 -0.0070505785959449358 -0.046966465319479324 0 -0.0053899499743465347 -0.046308131289460319 0 -0.0061284882290359418 -0.046460513475293466 0 -0.0044699324455057506 -0.046247184691139864 0 -0.0046786617068452054 -0.047113233339738374 0 -0.0057984518934576807 -0.04664761876994334 0 -0.00494726067200928 -0.046212767861033496 0 -0.0053899499743465347 -0.046308131289460319 0 -0.0054431397277102138 -0.045892110406885005 0 -0.0053953317811888842 -0.045808224544851617 0 -0.0055810229555302094 -0.04565853152646443 0 -0.0054431397277102138 -0.045892110406885005 0 -0.0053953317811888842 -0.045808224544851617 0 -0.0053142706634521667 -0.045954063592242002 0 -0.0049382798357016046 -0.046042260780665686 0 -0.0053142706634521667 -0.045954063592242002 0 -0.0052747378849210538 -0.045808621213925337 0 -0.0053953317811888842 -0.045808224544851617 0 -0.0053142706634521667 -0.045954063592242002 0 -0.0052747378849210538 -0.045808621213925337 0 -0.006208838040598564 -0.047489339631770468 0 -0.0070505785959449358 -0.046966465319479324 0 -0.007027641437209394 -0.047969248791015322 0 -0.0070505785959449358 -0.046966465319479324 0 -0.0079260174413641523 -0.047234639432437983 0 -0.0080498549321058738 -0.047161893034659112 0 -0.0061284882290359418 -0.046460513475293466 0 -0.0068231597897100609 -0.046602015949602268 0 -0.0054431397277102138 -0.045892110406885005 0 -0.0053142706634521667 -0.045954063592242002 0 -0.0054740698565559189 -0.046000368799699924 0 -0.0070505785959449358 -0.046966465319479324 0 -0.007027641437209394 -0.047969248791015322 0 -0.0079260174413641523 -0.047234639432437983 0 -0.007027641437209394 -0.047969248791015322 0 -0.0077958280610818161 -0.04862228850128817 0 -0.0079260174413641523 -0.047234639432437983 0 -0.0067567621125678712 -0.047008947064358347 0 -0.0070025169222380969 -0.047162402021788674 0 -0.0060747137951019953 -0.048479682225000362 0 -0.0070829133135119479 -0.049143902316153884 0 -0.0063197818842214201 -0.049603568370590198 0 -0.0060747137951019953 -0.048479682225000362 0 -0.007027641437209394 -0.047969248791015322 0 -0.0070829133135119479 -0.049143902316153884 0 -0.0067567621125678712 -0.047008947064358347 0 -0.0061016947777742412 -0.045217244049691532 0 -0.0070829133135119479 -0.049143902316153884 0 -0.0077958280610818161 -0.04862228850128817 0 -0.0075549771781836493 -0.049880080658404845 0 -0.007027641437209394 -0.047969248791015322 0 -0.0070829133135119479 -0.049143902316153884 0 -0.0077958280610818161 -0.04862228850128817 0 -0.0078130350542927555 -0.046888598635279007 0 -0.0079314024636557012 -0.046989176179809675 0 -0.0080286612005247161 -0.046751187549714718 0 -0.0081037912014113572 -0.046899784749142866 0 -0.0079314024636557012 -0.046989176179809675 0 -0.0080286612005247161 -0.046751187549714718 0 -0.0078130350542927555 -0.046888598635279007 0 -0.0078832745571358505 -0.046915628970021273 0 -0.0079314024636557012 -0.046989176179809675 0 -0.0078832745571358505 -0.046915628970021273 0 -0.0079314024636557012 -0.046989176179809675 0 -0.0078164095191268039 -0.046630695794187695 0 -0.0079314024636557012 -0.046989176179809675 0 -0.0078164095191268039 -0.046630695794187695 0 -0.0080498549321058738 -0.047161893034659112 0 -0.0081037912014113572 -0.046899784749142866 0 -0.0079314024636557012 -0.046989176179809675 0 -0.0079260174413641523 -0.047234639432437983 0 -0.010783935661963992 -0.0099551718487286885 0 -0.010772572996295042 -0.0099684318782813433 0 -0.010865882787571078 -0.0099626039350355737 0 -0.010772572996295042 -0.0099684318782813433 0 -0.010865882787571078 -0.0099626039350355737 0 -0.010801277781198108 -0.0099128027806754202 0 -0.010425611212672674 -0.0097956528135742897 0 -0.010865882787571078 -0.0099626039350355737 0 -0.010801277781198108 -0.0099128027806754202 0 -0.0078130350542927555 -0.046888598635279007 0 -0.0078832745571358505 -0.046915628970021273 0 -0.0084956628154144054 -0.047114967027339388 0 -0.0089987298616935711 -0.028670240983716205 0 -0.0091867028324300274 -0.027506990595115959 0 -0.0084956628154144054 -0.047114967027339388 0 -0.0088282172084514932 -0.045840516191257535 0 -0.0078164095191268039 -0.046630695794187695 0 -0.0078832745571358505 -0.046915628970021273 0 -0.0084956628154144054 -0.047114967027339388 0 -0.0078164095191268039 -0.046630695794187695 0 -0.010772572996295042 -0.0099684318782813433 0 -0.010758983568582904 -0.010084850837264561 0 -0.010801277781198108 -0.0099128027806754202 0 -0.010912866911815098 -0.045531878431251581 0 -0.0084956628154144054 -0.047114967027339388 0 -0.0088282172084514932 -0.045840516191257535 0 -0.010912866911815098 -0.045531878431251581 0 -0.0088282172084514932 -0.045840516191257535 0 -0.0091475640566286483 -0.044618482184759868 0 -0.009230300778852887 -0.025502822590197802 0 -0.0091867028324300274 -0.027506990595115959 0 -0.0088282172084514932 -0.045840516191257535 0 -0.0079989482760642917 -0.045051645198449036 0 -0.0091475640566286483 -0.044618482184759868 0 -0.0088282172084514932 -0.045840516191257535 0 -0.0078164095191268039 -0.046630695794187695 0 -0.0079989482760642917 -0.045051645198449036 0 -0.0078164095191268039 -0.046630695794187695 0 -0.0079989482760642917 -0.045051645198449036 0 -0.0071925679787169699 -0.045446505935847641 0 -0.0079989482760642917 -0.045051645198449036 0 -0.0082718409383669127 -0.043492093640576726 0 -0.0067299581278618256 -0.0441194924368584 0 -0.0082718409383669127 -0.043492093640576726 0 -0.0067299581278618256 -0.0441194924368584 0 -0.0073852994604799455 -0.042570819180899028 0 -0.0079989482760642917 -0.045051645198449036 0 -0.0082718409383669127 -0.043492093640576726 0 -0.0091475640566286483 -0.044618482184759868 0 -0.0082718409383669127 -0.043492093640576726 0 -0.010224823142010318 -0.043201051800258343 0 -0.0091475640566286483 -0.044618482184759868 0 -0.010912866911815098 -0.045531878431251581 0 -0.010224823142010318 -0.043201051800258343 0 -0.0091475640566286483 -0.044618482184759868 0 -0.0079314024636557012 -0.046989176179809675 0 -0.0079260174413641523 -0.047234639432437983 0 -0.0080498549321058738 -0.047161893034659112 0 -0.0054740698565559189 -0.046000368799699924 0 -0.0061909202741149728 -0.045893728431083594 0 -0.0058318224542054011 -0.04578149887061863 0 -0.0054740698565559189 -0.046000368799699924 0 -0.0058318224542054011 -0.04578149887061863 0 -0.0055978321497651227 -0.04584020477391703 0 -0.0054431397277102138 -0.045892110406885005 0 -0.0054740698565559189 -0.046000368799699924 0 -0.0055978321497651227 -0.04584020477391703 0 -0.0078164095191268039 -0.046630695794187695 0 -0.0054740698565559189 -0.046000368799699924 0 -0.0061909202741149728 -0.045893728431083594 0 -0.0072813910836563647 -0.046696461492271413 0 -0.0068231597897100609 -0.046602015949602268 0 -0.0078164095191268039 -0.046630695794187695 0 -0.0071925679787169699 -0.045446505935847641 0 -0.0061909202741149728 -0.045893728431083594 0 -0.0071925679787169699 -0.045446505935847641 0 -0.0061909202741149728 -0.045893728431083594 0 -0.0067299581278618256 -0.0441194924368584 0 -0.0061909202741149728 -0.045893728431083594 0 -0.0059227670001524941 -0.045709683301624351 0 -0.0058318224542054011 -0.04578149887061863 0 -0.0048054653621684767 -0.043303431067617477 0 -0.0048921813322311434 -0.042518729223365977 0 -0.0079989482760642917 -0.045051645198449036 0 -0.0071925679787169699 -0.045446505935847641 0 -0.0067299581278618256 -0.0441194924368584 0 -0.0059227670001524941 -0.045709683301624351 0 -0.005705580429914061 -0.04574232275066259 0 -0.005806630694956582 -0.04560898900095979 0 -0.0054431397277102138 -0.045892110406885005 0 -0.005705580429914061 -0.04574232275066259 0 -0.0055810229555302094 -0.04565853152646443 0 -0.0059227670001524941 -0.045709683301624351 0 -0.005705580429914061 -0.04574232275066259 0 -0.0058318224542054011 -0.04578149887061863 0 -0.005705580429914061 -0.04574232275066259 0 -0.0058318224542054011 -0.04578149887061863 0 -0.0055978321497651227 -0.04584020477391703 0 -0.0054431397277102138 -0.045892110406885005 0 -0.005705580429914061 -0.04574232275066259 0 -0.0055978321497651227 -0.04584020477391703 0 -0.0057081218352751806 -0.045538805357970932 0 -0.005806630694956582 -0.04560898900095979 0 -0.0058054801479319774 -0.045432382521534899 0 -0.0055810229555302094 -0.04565853152646443 0 -0.0057081218352751806 -0.045538805357970932 0 -0.005806630694956582 -0.04560898900095979 0 -0.005705580429914061 -0.04574232275066259 0 -0.0055810229555302094 -0.04565853152646443 0 -0.005806630694956582 -0.04560898900095979 0 -0.0055810229555302094 -0.04565853152646443 0 -0.0056008977340955036 -0.045527302008008551 0 -0.0057081218352751806 -0.045538805357970932 0 -0.005806630694956582 -0.04560898900095979 0 -0.0059524636357865942 -0.045573617942153317 0 -0.0058054801479319774 -0.045432382521534899 0 -0.0059227670001524941 -0.045709683301624351 0 -0.005806630694956582 -0.04560898900095979 0 -0.0059524636357865942 -0.045573617942153317 0 -0.0048921813322311434 -0.042518729223365977 0 -0.005178671237522514 -0.040055470214248608 0 -0.005178671237522514 -0.040055470214248608 0 -0.0038457989904591692 -0.037753719051957096 0 -0.00060603291446965652 -0.031818320960604697 0 -0.0052738392814280352 -0.030501571045814403 0 -0.0021381378265838838 -0.028679857076764761 0 -0.0032889733783597408 -0.034712317940156646 0 -0.00060603291446965652 -0.031818320960604697 0 -0.0052738392814280352 -0.030501571045814403 0 -0.00060603291446965652 -0.031818320960604697 0 -0.00013820563850156349 -0.029121705355680937 0 -0.0021381378265838838 -0.028679857076764761 0 -0.00060603291446965652 -0.031818320960604697 0 0.0020644472643709406 -0.028935515690092711 0 -0.00013820563850156349 -0.029121705355680937 0 -0.0038457989904591692 -0.037753719051957096 0 -0.0025512549998717516 -0.035025909326104748 0 -0.0058054801479319774 -0.045432382521534899 0 -0.0056702202475440644 -0.04542966729252404 0 -0.0056389040558492221 -0.045241335933648527 0 -0.0055958261129973909 -0.04534721726553366 0 -0.0056702202475440644 -0.04542966729252404 0 -0.0055559985601811397 -0.045454133131027953 0 -0.0055958261129973909 -0.04534721726553366 0 -0.0056702202475440644 -0.04542966729252404 0 -0.0056389040558492221 -0.045241335933648527 0 -0.0056008977340955036 -0.045527302008008551 0 -0.0056702202475440644 -0.04542966729252404 0 -0.0055559985601811397 -0.045454133131027953 0 -0.0056008977340955036 -0.045527302008008551 0 -0.0057081218352751806 -0.045538805357970932 0 -0.0056702202475440644 -0.04542966729252404 0 -0.0057081218352751806 -0.045538805357970932 0 -0.0058054801479319774 -0.045432382521534899 0 -0.0056702202475440644 -0.04542966729252404 0 -0.0082718409383669127 -0.043492093640576726 0 -0.010224823142010318 -0.043201051800258343 0 -0.0092016202881417975 -0.041454230409310212 0 -0.011444353550261219 -0.041134667066476421 0 -0.010224823142010318 -0.043201051800258343 0 -0.0092016202881417975 -0.041454230409310212 0 -0.0082718409383669127 -0.043492093640576726 0 -0.0070347717855569558 -0.042191434099511455 0 -0.0092016202881417975 -0.041454230409310212 0 -0.0058704195279655419 -0.040807913753323252 0 -0.005178671237522514 -0.040055470214248608 0 -0.005178671237522514 -0.040055470214248608 0 -0.0056309696127400935 -0.032274626426923671 0 -0.0070347717855569558 -0.042191434099511455 0 -0.0092016202881417975 -0.041454230409310212 0 -0.0081810167798502947 -0.039653770052639814 0 -0.0092016202881417975 -0.041454230409310212 0 -0.0081810167798502947 -0.039653770052639814 0 -0.010142713005593889 -0.039642433566784367 0 -0.011444353550261219 -0.041134667066476421 0 -0.0092016202881417975 -0.041454230409310212 0 -0.010142713005593889 -0.039642433566784367 0 -0.0081810167798502947 -0.039653770052639814 0 -0.010142713005593889 -0.039642433566784367 0 -0.0093392942121348771 -0.037165240858042493 0 -0.012520876084451141 -0.038807541157472342 0 -0.010142713005593889 -0.039642433566784367 0 -0.0093392942121348771 -0.037165240858042493 0 -0.0056309696127400935 -0.032274626426923671 0 -0.0071415729908478522 -0.020080847504740484 0 -0.0052738392814280352 -0.030501571045814403 0 -0.0042162433382831538 -0.027048297398238785 0 -0.0021381378265838838 -0.028679857076764761 0 -0.0052738392814280352 -0.030501571045814403 0 -0.0042162433382831538 -0.027048297398238785 0 -0.0072786837037211241 -0.026271102795421622 0 -0.0042162433382831538 -0.027048297398238785 0 -0.0036621910586768489 -0.026077632364113611 0 -0.0024967864768309098 -0.026549161408088631 0 -0.0087375137430384369 -0.02212145694577659 0 -0.0035476523449259577 -0.024868296723209126 0 -0.0041476132269167342 -0.024036926248866282 0 -0.0087375137430384369 -0.02212145694577659 0 -0.0036121875681117874 -0.024869798183051586 0 -0.0056813691541885781 -0.025453519180933103 0 -0.0070218258904223485 -0.026137759868686657 0 -0.0049277876321252821 -0.028253202854442369 0 -0.0043243856728211695 -0.025842671849731248 0 -0.0036121875681117874 -0.024869798183051586 0 -0.0056813691541885781 -0.025453519180933103 0 -0.0042162433382831538 -0.027048297398238785 0 -0.0036621910586768489 -0.026077632364113611 0 -0.0043243856728211695 -0.025842671849731248 0 -0.0042162433382831538 -0.027048297398238785 0 -0.0043243856728211695 -0.025842671849731248 0 -0.0056813691541885781 -0.025453519180933103 0 -0.0036621910586768489 -0.026077632364113611 0 -0.0043243856728211695 -0.025842671849731248 0 -0.0036121875681117874 -0.024869798183051586 0 -0.0042162433382831538 -0.027048297398238785 0 -0.0056813691541885781 -0.025453519180933103 0 -0.0072786837037211241 -0.026271102795421622 0 -0.0072393497659330036 -0.020307275085152753 0 -0.0071415729908478522 -0.020080847504740484 0 -0.0087375137430384369 -0.02212145694577659 0 -0.0056813691541885781 -0.025453519180933103 0 -0.0073055701993209547 -0.026279846063075395 0 -0.0087338060133744181 -0.01322443432603243 0 -0.0071415729908478522 -0.020080847504740484 0 -0.0062761811359999852 -0.0055865165919590006 0 -0.0059996652290444565 -0.0041085497702678803 0 -0.0044293938175720754 -0.0073357117092028292 0 -0.0062761811359999852 -0.0055865165919590006 0 -0.0060858709866260675 -0.0070266036153904558 0 -0.0044293938175720754 -0.0073357117092028292 0 0.0014053977450721616 -0.027538708688385941 0 -0.00013820563850156349 -0.029121705355680937 0 -0.0009571918409161384 -0.027284083958546125 0 -0.0014406451258756349 -0.032615334181931098 0 -0.0017463991147552294 -0.03245772948223203 0 -0.0017265079309796718 -0.032972268885387401 0 -0.0025632218114583537 -0.033210616907187178 0 -0.0025588036821468487 -0.034906037965724938 0 -0.0010013454679100504 -0.034909183401653249 0 -0.0017996423206452388 -0.033224211777135838 0 -0.0025960331933062688 -0.0340802830742949 0 -0.0025632218114583537 -0.033210616907187178 0 -0.0025512549998717516 -0.035025909326104748 0 -0.005671049076618891 -0.04519519218782355 0 -0.0056085053872540688 -0.045126361020503186 0 -0.0055424372181159167 -0.04526997684487119 0 -0.0025512549998717516 -0.035025909326104748 0 -0.0025588036821468487 -0.034906037965724938 0 -0.0023834634578584479 -0.035812591621146153 0 -0.0025512549998717516 -0.035025909326104748 0 -0.0055958261129973909 -0.04534721726553366 0 -0.005671049076618891 -0.04519519218782355 0 -0.0055424372181159167 -0.04526997684487119 0 0.0014053977450721616 -0.027538708688385941 0 0.0020644472643709406 -0.028935515690092711 0 -0.00013820563850156349 -0.029121705355680937 0 -0.00013820563850156349 -0.029121705355680937 0 -0.0021381378265838838 -0.028679857076764761 0 -0.0009571918409161384 -0.027284083958546125 0 -0.0036121875681117874 -0.024869798183051586 0 0.0014053977450721616 -0.027538708688385941 0 -0.0009571918409161384 -0.027284083958546125 0 -0.0042162433382831538 -0.027048297398238785 0 -0.0021381378265838838 -0.028679857076764761 0 -0.0024967864768309098 -0.026549161408088631 0 -0.0021381378265838838 -0.028679857076764761 0 -0.0009571918409161384 -0.027284083958546125 0 -0.0024967864768309098 -0.026549161408088631 0 -0.0035476523449259577 -0.024868296723209126 0 0.0015278114728977097 -0.027561014820014672 0 -0.0011570630435022706 -0.025016527126655495 0 -0.0026118175318149777 -0.028538990071215499 0 -0.0023811546569010725 -0.029266312841467024 0 -0.0049277876321252821 -0.028253202854442369 0 -0.0025632218114583537 -0.033210616907187178 0 -0.0041476132269167342 -0.024036926248866282 0 -0.0011570630435022706 -0.025016527126655495 0 -2.5187281053230434e-05 -0.024251957641585366 0 -0.0030809013671849843 -0.022898580655083812 0 -0.0041476132269167342 -0.024036926248866282 0 7.8771609045654372e-05 -0.024204820814616633 0 -0.0036621910586768489 -0.026077632364113611 0 -0.0036121875681117874 -0.024869798183051586 0 -0.0024967864768309098 -0.026549161408088631 0 -0.0036121875681117874 -0.024869798183051586 0 -0.0009571918409161384 -0.027284083958546125 0 -0.0024967864768309098 -0.026549161408088631 0 -0.0035476523449259577 -0.024868296723209126 0 -0.0041476132269167342 -0.024036926248866282 0 -0.0011570630435022706 -0.025016527126655495 0 -0.0011570630435022706 -0.025016527126655495 0 -2.5187281053230434e-05 -0.024251957641585366 0 0.00021572919365850466 -0.024763732695571382 0 -0.002045071816294586 -0.030155384273928918 0 -0.0021929635799698508 -0.030272134497853924 0 -0.0023811546569010725 -0.029266312841467024 0 -0.0016372032614955666 -0.031397013537661632 0 -0.0021929635799698508 -0.030272134497853924 0 -0.0016372032614955666 -0.031397013537661632 0 -0.00057947576104077833 -0.030603756013006089 0 -0.00078659892017621485 -0.030166575879440508 0 -0.00265283985836154 -0.030525788118041679 0 -0.0023811546569010725 -0.029266312841467024 0 -0.0021929635799698508 -0.030272134497853924 0 -0.0025632218114583537 -0.033210616907187178 0 -0.0021929635799698508 -0.030272134497853924 0 -0.0014406451258756349 -0.032615334181931098 0 -0.0011400287463517375 -0.033247163679106254 0 -0.0017265079309796718 -0.032972268885387401 0 0.0015278114728977097 -0.027561014820014672 0 -0.0011570630435022706 -0.025016527126655495 0 0.0002151968817863789 -0.024761725697622843 0 -0.0011400287463517375 -0.033247163679106254 0 -0.0017265079309796718 -0.032972268885387401 0 -0.0016394037526795448 -0.033344750332998802 0 -0.0025588036821468487 -0.034906037965724938 0 -0.002299035257405691 -0.035623697525659949 0 -0.0017265079309796718 -0.032972268885387401 0 -0.0016394037526795448 -0.033344750332998802 0 -0.0025397797394677681 -0.033313668415313476 0 -0.00094383102434577139 -0.033757227020572073 0 -0.0027155509604971468 -0.033692818574419442 0 -0.0028495381810134603 -0.033837159498588044 0 -0.0026260674381185685 -0.036453050957332415 0 -0.0023736532075918021 -0.03527919490557848 0 -0.002813174617808467 -0.036445940153990511 0 -0.00094383102434577139 -0.033757227020572073 0 -0.0028495381810134603 -0.033837159498588044 0 -0.003270886242811273 -0.034207404969942637 0 -0.0017463991147552294 -0.03245772948223203 0 -0.0017265079309796718 -0.032972268885387401 0 -0.0025397797394677681 -0.033313668415313476 0 -0.0016372032614955666 -0.031397013537661632 0 -0.0010187798665386792 -0.035010279114640337 0 -0.0016372032614955666 -0.031397013537661632 0 -0.002299035257405691 -0.035623697525659949 0 -0.002299035257405691 -0.035623697525659949 0 -0.0022963806278035914 -0.035616715648783201 0 -0.0055508015437141537 -0.045371240684089813 0 -0.005299248438846293 -0.045298692459150719 0 -0.0052226272427219724 -0.044382119426759861 0 -0.0019072764092223299 -0.038067053989171054 0 -0.0021888316833693568 -0.036722428684540565 0 -0.0018078661304902963 -0.035572438676441276 0 -0.0026260674381185685 -0.036453050957332415 0 -0.0023736532075918021 -0.03527919490557848 0 -0.0054290446311198812 -0.045394221106491821 0 -0.005299248438846293 -0.045298692459150719 0 -0.0053079442527340518 -0.045416638409684726 0 -0.0054290446311198812 -0.045394221106491821 0 -0.0055508015437141537 -0.045371240684089813 0 -0.005299248438846293 -0.045298692459150719 0 -0.0019195391625882847 -0.038095928436213455 0 -0.0019072764092223299 -0.038067053989171054 0 -0.0056085053872540688 -0.045126361020503186 0 -0.0053813319658170822 -0.045252575525434865 0 -0.0055424372181159167 -0.04526997684487119 0 -0.0025588036821468487 -0.034906037965724938 0 -0.0019072764092223299 -0.038067053989171054 0 -0.0049072055277395912 -0.043141649973643253 0 -0.0033988074399287599 -0.040610106734605488 0 -0.005299248438846293 -0.045298692459150719 0 -0.0051172375879163625 -0.045048389409528093 0 -0.0051123978066452431 -0.045282267557310456 0 -0.0052105809461939082 -0.045377082660588444 0 -0.005299248438846293 -0.045298692459150719 0 -0.0051123978066452431 -0.045282267557310456 0 -0.0052105809461939082 -0.045377082660588444 0 -0.0051123978066452431 -0.045282267557310456 0 -0.0051151753476737158 -0.045404211711362115 0 -0.0052105809461939082 -0.045377082660588444 0 -0.005299248438846293 -0.045298692459150719 0 -0.0053079442527340518 -0.045416638409684726 0 -0.0037610443697489561 -0.038390731837897422 0 -0.0013840077281183256 -0.037936911196132753 0 -0.0028530666919531784 -0.037160230139302031 0 -0.005299248438846293 -0.045298692459150719 0 -0.0052226272427219724 -0.044382119426759861 0 -0.0046384637313500255 -0.044397757066193796 0 -0.0027151019179308036 -0.033693056276881246 0 -0.0028495381810134603 -0.033837159498588044 0 -0.0030735496539924735 -0.033678881844931709 0 -0.002299035257405691 -0.035623697525659949 0 -0.0021888316833693568 -0.036722428684540565 0 -0.0021888316833693568 -0.036722428684540565 0 -0.0010187798665386792 -0.035010279114640337 0 -0.0028495381810134603 -0.033837159498588044 0 -0.0030735496539924735 -0.033678881844931709 0 -0.003270886242811273 -0.034207404969942637 0 -0.0011165337622842479 -0.037227176104243039 0 -0.0013840077281183256 -0.037936911196132753 0 -0.0028530666919531784 -0.037160230139302031 0 -0.0021888316833693568 -0.036722428684540565 0 -0.0033988074399287599 -0.040610106734605488 0 -0.0033988074399287599 -0.040610106734605488 0 -0.0034111853948756233 -0.043283533288099467 0 -0.0035859086367195417 -0.040293284510870137 0 -0.0033988074399287599 -0.040610106734605488 0 -0.0051172375879163625 -0.045048389409528093 0 -0.0048877934665364428 -0.045173612901112298 0 -0.0051123978066452431 -0.045282267557310456 0 -0.0051172375879163625 -0.045048389409528093 0 -0.0048877934665364428 -0.045173612901112298 0 -0.0046276318367121155 -0.044973901112846555 0 -0.0036139518559705247 -0.045323537701901929 0 -0.0038662828835931461 -0.045661417809929467 0 -0.0028631531015428403 -0.045723648531359691 0 -0.0048877934665364428 -0.045173612901112298 0 -0.0046276318367121155 -0.044973901112846555 0 -0.0047018620739044097 -0.04522794684223836 0 -0.0045043647898666836 -0.045369485391836044 0 -0.0046276318367121155 -0.044973901112846555 0 -0.0047018620739044097 -0.04522794684223836 0 -0.0045043647898666836 -0.045369485391836044 0 -0.0047018620739044097 -0.04522794684223836 0 -0.0047497620905919838 -0.045370542992802479 0 -0.0048877934665364428 -0.045173612901112298 0 -0.0047018620739044097 -0.04522794684223836 0 -0.0047497620905919838 -0.045370542992802479 0 -0.0047497620905919838 -0.045370542992802479 0 -0.004957469400981125 -0.045418769976758359 0 -0.0048298149733276476 -0.04560823143031778 0 -0.0045043647898666836 -0.045369485391836044 0 -0.0047497620905919838 -0.045370542992802479 0 -0.0045648969143137555 -0.045539623493506473 0 -0.0048877934665364428 -0.045173612901112298 0 -0.0051123978066452431 -0.045282267557310456 0 -0.004957469400981125 -0.045418769976758359 0 -0.0048877934665364428 -0.045173612901112298 0 -0.0047497620905919838 -0.045370542992802479 0 -0.004957469400981125 -0.045418769976758359 0 -0.0051123978066452431 -0.045282267557310456 0 -0.004957469400981125 -0.045418769976758359 0 -0.0051151753476737158 -0.045404211711362115 0 -0.004957469400981125 -0.045418769976758359 0 -0.0051151753476737158 -0.045404211711362115 0 -0.0050689741334307903 -0.045560052585637265 0 -0.004957469400981125 -0.045418769976758359 0 -0.0050689741334307903 -0.045560052585637265 0 -0.0048298149733276476 -0.04560823143031778 0 -0.0050689741334307903 -0.045560052585637265 0 -0.0048298149733276476 -0.04560823143031778 0 -0.0049645464117226657 -0.045770754535991186 0 -0.0047497620905919838 -0.045370542992802479 0 -0.0045648969143137555 -0.045539623493506473 0 -0.0048298149733276476 -0.04560823143031778 0 -0.0045923890786253143 -0.045770664521785971 0 -0.0048298149733276476 -0.04560823143031778 0 -0.0047900162807572675 -0.0458939049238756 0 -0.0045923890786253143 -0.045770664521785971 0 -0.0045648969143137555 -0.045539623493506473 0 -0.0048298149733276476 -0.04560823143031778 0 -0.0044699324455057506 -0.046247184691139864 0 -0.0049382798357016046 -0.046042260780665686 0 -0.0047900162807572675 -0.0458939049238756 0 -0.0049382798357016046 -0.046042260780665686 0 -0.0047900162807572675 -0.0458939049238756 0 -0.0049645464117226657 -0.045770754535991186 0 -0.0048298149733276476 -0.04560823143031778 0 -0.0047900162807572675 -0.0458939049238756 0 -0.0049645464117226657 -0.045770754535991186 0 -0.0049382798357016046 -0.046042260780665686 0 -0.0049645464117226657 -0.045770754535991186 0 -0.0051763257927322252 -0.045695540882917482 0 -0.0049382798357016046 -0.046042260780665686 0 -0.0051763257927322252 -0.045695540882917482 0 -0.0052747378849210538 -0.045808621213925337 0 -0.0050689741334307903 -0.045560052585637265 0 -0.0049645464117226657 -0.045770754535991186 0 -0.0051763257927322252 -0.045695540882917482 0 -0.0051763257927322252 -0.045695540882917482 0 -0.005318674830435373 -0.045609861199672204 0 -0.0052747378849210538 -0.045808621213925337 0 -0.005318674830435373 -0.045609861199672204 0 -0.0052747378849210538 -0.045808621213925337 0 -0.0054102791197866828 -0.0456775882432248 0 -0.0053953317811888842 -0.045808224544851617 0 -0.0052747378849210538 -0.045808621213925337 0 -0.0054102791197866828 -0.0456775882432248 0 -0.0053953317811888842 -0.045808224544851617 0 -0.0055810229555302094 -0.04565853152646443 0 -0.0054102791197866828 -0.0456775882432248 0 -0.0055810229555302094 -0.04565853152646443 0 -0.0054102791197866828 -0.0456775882432248 0 -0.0054682931616185787 -0.045547791786256578 0 -0.0055810229555302094 -0.04565853152646443 0 -0.0056008977340955036 -0.045527302008008551 0 -0.0054682931616185787 -0.045547791786256578 0 -0.005318674830435373 -0.045609861199672204 0 -0.0054102791197866828 -0.0456775882432248 0 -0.0054682931616185787 -0.045547791786256578 0 -0.0054682931616185787 -0.045547791786256578 0 -0.0054593224550381876 -0.045425856527524691 0 -0.0053712929944797309 -0.045476703735216589 0 -0.005318674830435373 -0.045609861199672204 0 -0.0054682931616185787 -0.045547791786256578 0 -0.0053712929944797309 -0.045476703735216589 0 -0.0055559985601811397 -0.045454133131027953 0 -0.0054682931616185787 -0.045547791786256578 0 -0.0054593224550381876 -0.045425856527524691 0 -0.0056008977340955036 -0.045527302008008551 0 -0.0055559985601811397 -0.045454133131027953 0 -0.0054682931616185787 -0.045547791786256578 0 -0.0055958261129973909 -0.04534721726553366 0 -0.0055559985601811397 -0.045454133131027953 0 -0.0054593224550381876 -0.045425856527524691 0 -0.0055958261129973909 -0.04534721726553366 0 -0.0055424372181159167 -0.04526997684487119 0 -0.0054593224550381876 -0.045425856527524691 0 -0.0053813319658170822 -0.045252575525434865 0 -0.0055424372181159167 -0.04526997684487119 0 -0.0054593224550381876 -0.045425856527524691 0 -0.0054290446311198812 -0.045394221106491821 0 -0.0054593224550381876 -0.045425856527524691 0 -0.0053712929944797309 -0.045476703735216589 0 -0.0054290446311198812 -0.045394221106491821 0 -0.0054424112771687076 -0.045384596955221367 0 -0.0054593224550381876 -0.045425856527524691 0 -0.0019072764092223299 -0.038067053989171054 0 -0.0022213085610275087 -0.038845230905912659 0 -0.0054290446311198812 -0.045394221106491821 0 -0.0053712929944797309 -0.045476703735216589 0 -0.0053079442527340518 -0.045416638409684726 0 -0.0053712929944797309 -0.045476703735216589 0 -0.0053079442527340518 -0.045416638409684726 0 -0.0052317144704506127 -0.045495100423940824 0 -0.0052105809461939082 -0.045377082660588444 0 -0.0053079442527340518 -0.045416638409684726 0 -0.0052317144704506127 -0.045495100423940824 0 -0.0052105809461939082 -0.045377082660588444 0 -0.0051151753476737158 -0.045404211711362115 0 -0.0052317144704506127 -0.045495100423940824 0 -0.0051151753476737158 -0.045404211711362115 0 -0.0050689741334307903 -0.045560052585637265 0 -0.0052317144704506127 -0.045495100423940824 0 -0.0050689741334307903 -0.045560052585637265 0 -0.0051763257927322252 -0.045695540882917482 0 -0.0052317144704506127 -0.045495100423940824 0 -0.0051763257927322252 -0.045695540882917482 0 -0.005318674830435373 -0.045609861199672204 0 -0.0052317144704506127 -0.045495100423940824 0 -0.005318674830435373 -0.045609861199672204 0 -0.0053712929944797309 -0.045476703735216589 0 -0.0052317144704506127 -0.045495100423940824 0 -7.0647274940497699e-05 -0.084928579059137255 0 -2.9652182725220556e-07 -0.085000272681368866 0 -2.0320145628314213e-08 -0.084999767438837873 0 -7.0647274940497699e-05 -0.084928579059137255 0 -4.7898453146765203e-05 -0.084733143664678282 0 -3.8411550927883706e-05 -0.084895176343606105 0 0.00021812321529173051 -0.083477420094783636 0 0.00019814011635518102 -0.084023480457612709 0 -7.0647274940497699e-05 -0.084928579059137255 0 -0.00016474572637744473 -0.084909161292837168 0 -4.7898453146765203e-05 -0.084733143664678282 0 -0.00057341093479971658 -0.084050419800338366 0 0.00012974326677911121 -0.083123108779926805 0 -4.7898453146765203e-05 -0.084733143664678282 0 -0.00057341093479971658 -0.084050419800338366 0 0.00012974326677911121 -0.083123108779926805 0 -0.0011580305853218949 -0.082563482879101702 0 -7.0647274940497699e-05 -0.084928579059137255 0 -0.00016474572637744473 -0.084909161292837168 0 -0.00012128127744899895 -0.084819328951188974 0 -0.00016474572637744473 -0.084909161292837168 0 -0.00042156271798061745 -0.084683269349351442 0 -0.00012128127744899895 -0.084819328951188974 0 1.233378355114596e-05 -0.081262865167149145 0 -0.0010735063495249698 -0.081092592624691831 0 -0.0011580305853218949 -0.082563482879101702 0 0.00021812321529173051 -0.083477420094783636 0 0.00028761377608116086 -0.081735024982078561 0 0.00012974326677911121 -0.083123108779926805 0 1.233378355114596e-05 -0.081262865167149145 0 -0.0011580305853218949 -0.082563482879101702 0 -0.00042156271798061745 -0.084683269349351442 0 -0.00028985504441171183 -0.084422313639518839 0 -0.00063260773788112543 -0.084066914690209091 0 0.00028761377608116086 -0.081735024982078561 0 0.00028052678748862337 -0.076272750637355002 0 1.233378355114596e-05 -0.081262865167149145 0 -0.0006925906162427493 -0.08031561553231352 0 -0.00023220888204297319 -0.079405488066954674 0 1.233378355114596e-05 -0.081262865167149145 0 -0.0006925906162427493 -0.08031561553231352 0 -0.0010735063495249698 -0.081092592624691831 0 -0.00042156271798061745 -0.084683269349351442 0 -0.00028985504441171183 -0.084422313639518839 0 -0.00012128127744899895 -0.084819328951188974 0 -0.00012128127744899895 -0.084819328951188974 0 -2.9652182725220556e-07 -0.085000272681368866 0 -5.4705455670811094e-05 -0.084374633760147186 0 -0.00028985504441171183 -0.084422313639518839 0 -0.00012128127744899895 -0.084819328951188974 0 -5.4705455670811094e-05 -0.084374633760147186 0 -7.0647274940497699e-05 -0.084928579059137255 0 -0.00012128127744899895 -0.084819328951188974 0 -2.9652182725220556e-07 -0.085000272681368866 0 -2.9652182725220556e-07 -0.085000272681368866 0 -5.4705455670811094e-05 -0.084374633760147186 0 0.00047695729933332079 -0.08321324056287055 0 -2.9652182725220556e-07 -0.085000272681368866 0 3.469885732273033e-06 -0.08499127256138761 0 0.00047695729933332079 -0.08321324056287055 0 -5.4705455670811094e-05 -0.084374633760147186 0 0.00047695729933332079 -0.08321324056287055 0 -0.00029383739491216777 -0.084023283077096708 0 3.469885732273033e-06 -0.08499127256138761 0 0.00047695729933332079 -0.08321324056287055 0 -6.2359131916901539e-06 -0.074947929263549304 0 0.00047695729933332079 -0.08321324056287055 0 -0.0014704677970679512 -0.081469810041079796 0 -0.00072113291235314614 -0.083020526523079854 0 0.00047695729933332079 -0.08321324056287055 0 -6.2359131916901539e-06 -0.074947929263549304 0 -0.0014704677970679512 -0.081469810041079796 0 -2.5319582885612245e-06 -0.0749243148388022 0 -0.00083164048742234817 -0.071673958196515231 0 0.00033076507121053861 -0.07202511599175887 0 -3.8507360609366813e-07 -0.074932931469045491 0 -5.3375787755699718e-05 -0.076230760353467139 0 -0.0014704677970679512 -0.081469810041079796 0 -0.00072113291235314614 -0.083020526523079854 0 -0.0014231401486861377 -0.084243439722129915 0 -5.3375787755699718e-05 -0.076230760353467139 0 0.00028052678748862337 -0.076272750637355002 0 -0.00083164048742234817 -0.071673958196515231 0 -0.00086202976122168296 -0.070511352792089713 0 -0.00032647780910866634 -0.071185292398553202 0 -0.00086202976122168296 -0.070511352792089713 0 -0.00030447016050662643 -0.070498860430557586 0 -0.00032647780910866634 -0.071185292398553202 0 0.00047695729933332079 -0.08321324056287055 0 -0.00072113291235314614 -0.083020526523079854 0 -0.00029383739491216777 -0.084023283077096708 0 -0.00072113291235314614 -0.083020526523079854 0 -0.00029383739491216777 -0.084023283077096708 0 -0.0014231401486861377 -0.084243439722129915 0 3.253212560590915e-05 -0.076904699496066958 0 0.00028052678748862337 -0.076272750637355002 0 -0.00028985504441171183 -0.084422313639518839 0 -0.00029383739491216777 -0.084023283077096708 0 -0.00063260773788112543 -0.084066914690209091 0 -0.00028985504441171183 -0.084422313639518839 0 -5.4705455670811094e-05 -0.084374633760147186 0 -0.00029383739491216777 -0.084023283077096708 0 -0.00023220888204297319 -0.079405488066954674 0 -0.00088070578667720728 -0.079679127985517087 0 -0.001096463212674482 -0.079403167032088592 0 0.00028052678748862337 -0.076272750637355002 0 -0.00024596968282959095 -0.072980800170001248 0 -0.0006925906162427493 -0.08031561553231352 0 -0.00023220888204297319 -0.079405488066954674 0 -0.00088070578667720728 -0.079679127985517087 0 -0.0015839200162038932 -0.079609177922572591 0 -0.0011575698410288416 -0.079448599287765875 0 -0.0018556544978948109 -0.079531422754018685 0 -0.00024596968282959095 -0.072980800170001248 0 -0.0015594752165100547 -0.071303244951759479 0 -0.0012529817338967266 -0.080140906965940659 0 -0.0015839200162038932 -0.079609177922572591 0 -0.0011575698410288416 -0.079448599287765875 0 -0.0006925906162427493 -0.08031561553231352 0 -0.00088070578667720728 -0.079679127985517087 0 -0.0012529817338967266 -0.080140906965940659 0 -0.00088070578667720728 -0.079679127985517087 0 -0.0012529817338967266 -0.080140906965940659 0 -0.0011575698410288416 -0.079448599287765875 0 -0.00017396311282171699 -0.07313843948529121 0 -0.00024596968282959095 -0.072980800170001248 0 -0.0015839200162038932 -0.079609177922572591 0 -0.0018556544978948109 -0.079531422754018685 0 -0.0017731911262152465 -0.079690603272794619 0 -0.0027302670767435765 -0.060582097396991906 0 -0.0035325004311257402 -0.06218828852269602 0 -0.0014622028125410203 -0.061952152135499289 0 -0.00024596968282959095 -0.072980800170001248 0 -0.0014719206552861468 -0.068859694887588169 0 -0.0047625342467189202 -0.060607166303278767 0 -0.0027302670767435765 -0.060582097396991906 0 -0.0035325004311257402 -0.06218828852269602 0 -0.00030447016050662643 -0.070498860430557586 0 0.0003324964597135256 -0.071462615441112542 0 -0.00032647780910866634 -0.071185292398553202 0 -0.00083164048742234817 -0.071673958196515231 0 -0.00032647780910866634 -0.071185292398553202 0 0.00033076507121053861 -0.07202511599175887 0 0.0003324964597135256 -0.071462615441112542 0 -0.00032647780910866634 -0.071185292398553202 0 0.00033076507121053861 -0.07202511599175887 0 -0.0035325004311257402 -0.06218828852269602 0 -0.0023763171858726491 -0.063938733849972937 0 -0.0014622028125410203 -0.061952152135499289 0 -0.0014719206552861468 -0.068859694887588169 0 -0.00080924194714193046 -0.067878105990272539 0 0.0003324964597135256 -0.071462615441112542 0 0.00033076507121053861 -0.07202511599175887 0 3.4357628985296488e-05 -0.07122896727899404 0 3.4357628985296488e-05 -0.07122896727899404 0 2.55781397209621e-06 -0.071044158503848667 0 -2.5838738192337844e-06 -0.06715945267089389 0 0.00033076507121053861 -0.07202511599175887 0 3.4357628985296488e-05 -0.07122896727899404 0 2.55781397209621e-06 -0.071044158503848667 0 -2.5319582885612245e-06 -0.0749243148388022 0 0.00033076507121053861 -0.07202511599175887 0 2.55781397209621e-06 -0.071044158503848667 0 0.00042289692279068487 -0.063419190548760052 0 -3.9885755611141826e-06 -0.067147187655619625 0 0.00010818310944787613 -0.063016638931614591 0 0.00042289692279068487 -0.063419190548760052 0 -3.9885755611141826e-06 -0.067147187655619625 0 3.4699409458413314e-06 -0.06271029141265913 0 -0.0023763171858726491 -0.063938733849972937 0 -3.9885755611141826e-06 -0.067147187655619625 0 0.00010818310944787613 -0.063016638931614591 0 -0.00080924194714193046 -0.067878105990272539 0 -1.5895893337724364e-06 -0.067156962341930526 0 -0.0023763171858726491 -0.063938733849972937 0 0.00010818310944787613 -0.063016638931614591 0 -0.0014622028125410203 -0.061952152135499289 0 0.00042289692279068487 -0.063419190548760052 0 0.00010818310944787613 -0.063016638931614591 0 0.0008551582573913648 -0.062155646962082457 0 0.00010818310944787613 -0.063016638931614591 0 8.5321139800185065e-05 -0.061668489849775611 0 -0.0014622028125410203 -0.061952152135499289 0 0.00010818310944787613 -0.063016638931614591 0 8.5321139800185065e-05 -0.061668489849775611 0 0.00093313356922680463 -0.061993192739157113 0 -0.0027302670767435765 -0.060582097396991906 0 -0.0014622028125410203 -0.061952152135499289 0 -0.00072857867747397938 -0.060678961040187489 0 8.5321139800185065e-05 -0.061668489849775611 0 -0.0014622028125410203 -0.061952152135499289 0 -0.00072857867747397938 -0.060678961040187489 0 -0.0018556544978948109 -0.079531422754018685 0 -0.001913607282093745 -0.079531873390438337 0 -0.0018757360392354838 -0.079573810297584299 0 -0.0015594752165100547 -0.071303244951759479 0 -0.0015559154562519088 -0.070110761580286757 0 -0.001913607282093745 -0.079531873390438337 0 -0.0018834896250453225 -0.079539771835215059 0 -0.0018757360392354838 -0.079573810297584299 0 -0.001913607282093745 -0.079531873390438337 0 -0.0018834896250453225 -0.079539771835215059 0 -0.001734684204017637 -0.079453975057580783 0 -0.0015559154562519088 -0.070110761580286757 0 -0.0018892109796292578 -0.068919459912760009 0 -0.001913607282093745 -0.079531873390438337 0 -0.001734684204017637 -0.079453975057580783 0 -0.0016543844986302116 -0.079459668535427075 0 -0.0018834896250453225 -0.079539771835215059 0 -0.001734684204017637 -0.079453975057580783 0 -0.0019312119049511218 -0.079617629155304806 0 8.5321139800185065e-05 -0.061668489849775611 0 -0.00072857867747397938 -0.060678961040187489 0 0.00084882810246776435 -0.060867370470481109 0 -0.001734684204017637 -0.079453975057580783 0 -0.0016932648517438348 -0.078379798200707299 0 -0.0024153100711078335 -0.078352895833981293 0 -0.0020284555571684943 -0.079459689817990412 0 -0.0021286044003891716 -0.079448834781583003 0 -0.0016932648517438348 -0.078379798200707299 0 -0.0021173357418321635 -0.077858591026273613 0 -0.0019848078773130541 -0.077310618691267347 0 -0.0013025632821878391 -0.075220751498025637 0 -0.0012863434947924298 -0.07634045086367397 0 -0.0016932648517438348 -0.078379798200707299 0 -0.0021173357418321635 -0.077858591026273613 0 -0.0024153100711078335 -0.078352895833981293 0 -0.0020538380184323317 -0.076268759880735185 0 -0.0019848078773130541 -0.077310618691267347 0 -0.0020938945915059516 -0.077318412239800891 0 -0.0021173357418321635 -0.077858591026273613 0 -0.0023967480811443302 -0.077642114327661285 0 -0.0022047481238825855 -0.077531286414479636 0 -0.0021173357418321635 -0.077858591026273613 0 -0.0019848078773130541 -0.077310618691267347 0 -0.0022047481238825855 -0.077531286414479636 0 -0.0023967480811443302 -0.077642114327661285 0 -0.0024153100711078335 -0.078352895833981293 0 -0.0028940790445689769 -0.077433984119474386 0 -0.0021286044003891716 -0.079448834781583003 0 -0.0016079603179445312 -0.080612843239690021 0 -0.0021173357418321635 -0.077858591026273613 0 -0.0023967480811443302 -0.077642114327661285 0 -0.0024153100711078335 -0.078352895833981293 0 -0.0019312119049511218 -0.079617629155304806 0 -0.0018757360392354838 -0.079573810297584299 0 -0.0017731911262152465 -0.079690603272794619 0 -0.0018834896250453225 -0.079539771835215059 0 -0.0019312119049511218 -0.079617629155304806 0 -0.0018757360392354838 -0.079573810297584299 0 -0.0018556544978948109 -0.079531422754018685 0 -0.0018757360392354838 -0.079573810297584299 0 -0.0017731911262152465 -0.079690603272794619 0 -0.0016519483246496261 -0.080163692934037467 0 -0.0017158197820118563 -0.080444634254578415 0 -0.0012529817338967266 -0.080140906965940659 0 -0.0015839200162038932 -0.079609177922572591 0 -0.002281330756347363 -0.081174037681224456 0 -0.0012529817338967266 -0.080140906965940659 0 -0.002281330756347363 -0.081174037681224456 0 -0.0010735063495249698 -0.081092592624691831 0 -0.0006925906162427493 -0.08031561553231352 0 -0.0012529817338967266 -0.080140906965940659 0 -0.0010735063495249698 -0.081092592624691831 0 -0.002281330756347363 -0.081174037681224456 0 -0.0010735063495249698 -0.081092592624691831 0 -0.0011580305853218949 -0.082563482879101702 0 -0.0019312119049511218 -0.079617629155304806 0 -0.0017731911262152465 -0.079690603272794619 0 -0.0018244364913418258 -0.079817249387286029 0 -0.002281330756347363 -0.081174037681224456 0 -0.0027792491755546126 -0.082678582860001917 0 -0.0011580305853218949 -0.082563482879101702 0 -0.0017158197820118563 -0.080444634254578415 0 -0.0016079603179445312 -0.080612843239690021 0 -0.0016079603179445312 -0.080612843239690021 0 -0.00074521753681709333 -0.083262552423119363 0 -0.0027792491755546126 -0.082678582860001917 0 -0.0011580305853218949 -0.082563482879101702 0 -0.001525087842619286 -0.084228493510583077 0 -0.00057341093479971658 -0.084050419800338366 0 -0.0011580305853218949 -0.082563482879101702 0 -0.001525087842619286 -0.084228493510583077 0 -0.00066771590790062159 -0.08393432734495837 0 -0.00067111539533044244 -0.083944607350188383 0 -0.00065811812360750158 -0.083940184141379021 0 -0.0025254384652167506 -0.076775714208890775 0 -0.0023497551160596591 -0.077078268945088138 0 -0.0020568982078394927 -0.076780518733867487 0 -0.0028940790445689769 -0.077433984119474386 0 -0.0025254384652167506 -0.076775714208890775 0 -0.0023497551160596591 -0.077078268945088138 0 -0.0016079603179445312 -0.080612843239690021 0 -0.0012661231426572314 -0.079953481296069814 0 -0.0020568982078394927 -0.076780518733867487 0 -0.002124505198512434 -0.077169586710081089 0 -0.0020938945915059516 -0.077318412239800891 0 -0.0023497551160596591 -0.077078268945088138 0 -0.0020568982078394927 -0.076780518733867487 0 -0.002124505198512434 -0.077169586710081089 0 -0.00041721047689153592 -0.072148558361044279 0 -0.00069107439319711958 -0.06952404518638744 0 0.0039048256862961178 -0.06488094975523212 0 0.002512155162285673 -0.061010654859142123 0 0.001935221653763684 -0.062703854848550011 0 -0.002124505198512434 -0.077169586710081089 0 -0.0019848078773130541 -0.077310618691267347 0 -0.002299054811624407 -0.077339980160915756 0 -0.0023497551160596591 -0.077078268945088138 0 -0.002124505198512434 -0.077169586710081089 0 -0.002299054811624407 -0.077339980160915756 0 -0.002124505198512434 -0.077169586710081089 0 -0.0019848078773130541 -0.077310618691267347 0 -0.0020938945915059516 -0.077318412239800891 0 -0.0019848078773130541 -0.077310618691267347 0 -0.0022047481238825855 -0.077531286414479636 0 -0.002299054811624407 -0.077339980160915756 0 -0.0023967480811443302 -0.077642114327661285 0 -0.0022047481238825855 -0.077531286414479636 0 -0.002299054811624407 -0.077339980160915756 0 -0.0028940790445689769 -0.077433984119474386 0 -0.0023497551160596591 -0.077078268945088138 0 -0.002299054811624407 -0.077339980160915756 0 -0.0023967480811443302 -0.077642114327661285 0 -0.0028940790445689769 -0.077433984119474386 0 -0.002299054811624407 -0.077339980160915756 0 -0.00054490193461784197 -0.062292709619455308 0 -0.0018485857652203916 -0.060946015897295536 0 -0.0029392639740194876 -0.060160843476222414 0 -0.00024779820120511152 -0.062488753222652835 0 -0.00199645810949904 -0.062275661444348103 0 -0.0026818304743721311 -0.060467415007684072 0 0.0015003993124290524 -0.058294157491788672 0 0.00012980150126226095 -0.054220030061509487 0 -0.00054490193461784197 -0.062292709619455308 0 -0.00020170463722451632 -0.061186355807324719 0 0.00089064919798184921 -0.062193115614216248 0 -0.00054490193461784197 -0.062292709619455308 0 -0.0018485857652203916 -0.060946015897295536 0 -0.00020170463722451632 -0.061186355807324719 0 -0.00024779820120511152 -0.062488753222652835 0 -0.00199645810949904 -0.062275661444348103 0 -0.0013091627457538601 -0.063585734677498562 0 -0.0018485857652203916 -0.060946015897295536 0 -0.00069912967455133649 -0.060327086435755781 0 -0.0014189669452107155 -0.059774258695601233 0 -0.0018485857652203916 -0.060946015897295536 0 -0.0022567042700097806 -0.059894487877039819 0 -0.0014189669452107155 -0.059774258695601233 0 -0.0018485857652203916 -0.060946015897295536 0 -0.00069912967455133649 -0.060327086435755781 0 -0.00020170463722451632 -0.061186355807324719 0 -0.00069912967455133649 -0.060327086435755781 0 -0.00020170463722451632 -0.061186355807324719 0 0.00021853431940102786 -0.060290509766210226 0 0.00021853431940102786 -0.060290509766210226 0 0.0011181044418154325 -0.060314135909733738 0 0.00086739246549281674 -0.061114007935823569 0 0.0011181044418154325 -0.060314135909733738 0 0.00086739246549281674 -0.061114007935823569 0 0.0015289714482089991 -0.061510190801961545 0 -0.00020170463722451632 -0.061186355807324719 0 0.00021853431940102786 -0.060290509766210226 0 0.00086739246549281674 -0.061114007935823569 0 0.0011181044418154325 -0.060314135909733738 0 0.002512155162285673 -0.061010654859142123 0 0.0015289714482089991 -0.061510190801961545 0 0.002512155162285673 -0.061010654859142123 0 0.0015289714482089991 -0.061510190801961545 0 0.001935221653763684 -0.062703854848550011 0 0.0015289714482089991 -0.061510190801961545 0 0.00089064919798184921 -0.062193115614216248 0 0.001935221653763684 -0.062703854848550011 0 -0.00020170463722451632 -0.061186355807324719 0 0.00086739246549281674 -0.061114007935823569 0 0.00089064919798184921 -0.062193115614216248 0 0.00086739246549281674 -0.061114007935823569 0 0.0015289714482089991 -0.061510190801961545 0 0.00089064919798184921 -0.062193115614216248 0 -0.00054490193461784197 -0.062292709619455308 0 0.00089064919798184921 -0.062193115614216248 0 0.0021291195578124885 -0.064464961444190921 0 0.0021291195578124885 -0.064464961444190921 0 -0.00024292668849853618 -0.064667666632108781 0 0.0012487083680656275 -0.06589301261416218 0 -0.00024779820120511152 -0.062488753222652835 0 0.0021291195578124885 -0.064464961444190921 0 -0.00024292668849853618 -0.064667666632108781 0 0.0015003993124290524 -0.058294157491788672 0 0.0022789207714888739 -0.059810092221664418 0 0.00089064919798184921 -0.062193115614216248 0 0.001935221653763684 -0.062703854848550011 0 0.0021291195578124885 -0.064464961444190921 0 0.0039048256862961178 -0.06488094975523212 0 0.001935221653763684 -0.062703854848550011 0 0.0021291195578124885 -0.064464961444190921 0 -0.00024292668849853618 -0.064667666632108781 0 -0.0013091627457538601 -0.063585734677498562 0 -0.0027156842383155473 -0.064597930974510206 0 -0.00024779820120511152 -0.062488753222652835 0 -0.00024292668849853618 -0.064667666632108781 0 -0.0013091627457538601 -0.063585734677498562 0 0.0015296415142844568 -0.04677258254348738 0 0.0016291848571267176 -0.04678382566832167 0 0.0016576227738136476 -0.046935706887305507 0 -0.00199645810949904 -0.062275661444348103 0 -0.0013091627457538601 -0.063585734677498562 0 -0.0027156842383155473 -0.064597930974510206 0 0.0012180666000478338 -0.048931949600102907 0 0.0014908892319469708 -0.048145101076926752 0 0.0016291848571267176 -0.04678382566832167 0 0.0016576227738136476 -0.046935706887305507 0 0.0016607347339236841 -0.046774638902147121 0 0.0016202262528166595 -0.046918245604634444 0 0.0015045917520767277 -0.046980603875711464 0 0.0016607347339236841 -0.046774638902147121 0 0.0016202262528166595 -0.046918245604634444 0 0.0016607347339236841 -0.046774638902147121 0 0.0016732458513284644 -0.046803653763277664 0 0.0015045917520767277 -0.046980603875711464 0 0.001545698772737251 -0.047067407747182329 0 0.0014591093569669097 -0.047106199511068467 0 0.0016202262528166595 -0.046918245604634444 0 0.0016030479199281558 -0.047031107382271807 0 0.0015045917520767277 -0.046980603875711464 0 0.0016030479199281558 -0.047031107382271807 0 0.0015045917520767277 -0.046980603875711464 0 0.001545698772737251 -0.047067407747182329 0 0.0016030479199281558 -0.047031107382271807 0 0.001545698772737251 -0.047067407747182329 0 0.001581377210774068 -0.04709313571904325 0 -0.00025029737073442923 -0.055768347157751398 0 -0.0001147528042157345 -0.053203033210320431 0 0.0012180666000478338 -0.048931949600102907 0 -3.5621717003504099e-05 -0.052384894037713806 0 0.0016576227738136476 -0.046935706887305507 0 0.0015153438898886395 -0.047173059947620305 0 0.0015412569228598699 -0.047195655043423421 0 0.0015296415142844568 -0.04677258254348738 0 0.0016576227738136476 -0.046935706887305507 0 0.0015153438898886395 -0.047173059947620305 0 -0.00199645810949904 -0.062275661444348103 0 -0.0027156842383155473 -0.064597930974510206 0 -0.0030351598770477712 -0.060177327782365765 0 -0.00199645810949904 -0.062275661444348103 0 -0.0026818304743721311 -0.060467415007684072 0 -0.0030351598770477712 -0.060177327782365765 0 0.00017033147696529196 -0.054487899688105322 0 0.00012980150126226095 -0.054220030061509487 0 -0.0018485857652203916 -0.060946015897295536 0 -0.0028965442486269411 -0.060211884312500671 0 -0.0022567042700097806 -0.059894487877039819 0 -0.0022567042700097806 -0.059894487877039819 0 -0.0025886018009992355 -0.059418280005017872 0 -0.0028534555177680433 -0.059756904360155773 0 -0.0028965442486269411 -0.060211884312500671 0 -0.0022567042700097806 -0.059894487877039819 0 -0.0028534555177680433 -0.059756904360155773 0 -0.0022567042700097806 -0.059894487877039819 0 -0.0025886018009992355 -0.059418280005017872 0 -0.0019403229921157242 -0.059064562946744247 0 -0.0025886018009992355 -0.059418280005017872 0 -0.0032847940906001179 -0.059187715259170208 0 -0.0025484983849157839 -0.058966671212362452 0 -0.0025886018009992355 -0.059418280005017872 0 -0.0025484983849157839 -0.058966671212362452 0 -0.0019403229921157242 -0.059064562946744247 0 -0.0025886018009992355 -0.059418280005017872 0 -0.0032847940906001179 -0.059187715259170208 0 -0.0028534555177680433 -0.059756904360155773 0 -0.00023721973422870959 -0.052946693086090804 0 -0.0001147528042157345 -0.053203033210320431 0 -0.0032847940906001179 -0.059187715259170208 0 -0.0028534555177680433 -0.059756904360155773 0 -0.0032368801941791755 -0.059930823726723606 0 -0.0011204776393252348 -0.052551807240420849 0 -0.0011683051076278336 -0.051853838476384827 0 -0.0009130515641074462 -0.05206291889492435 0 -0.0001147528042157345 -0.053203033210320431 0 -3.5621717003504099e-05 -0.052384894037713806 0 -0.0028965442486269411 -0.060211884312500671 0 -0.0028534555177680433 -0.059756904360155773 0 -0.0032368801941791755 -0.059930823726723606 0 0.00012980150126226095 -0.054220030061509487 0 -0.0001147528042157345 -0.053203033210320431 0 -0.00023721973422870959 -0.052946693086090804 0 -3.5621717003504099e-05 -0.052384894037713806 0 -3.5621717003504099e-05 -0.052384894037713806 0 7.0400818779359217e-05 -0.050676704622737614 0 -0.00070160009171495641 -0.048018529414643907 0 -0.00049178922091965048 -0.048653766202244819 0 4.9241307328946985e-05 -0.048627265856470231 0 -0.00078184444997553401 -0.048210829990954197 0 -0.00070160009171495641 -0.048018529414643907 0 -0.00049178922091965048 -0.048653766202244819 0 -0.0032847940906001179 -0.059187715259170208 0 -0.0022852019775515858 -0.058163032127090064 0 -0.0025484983849157839 -0.058966671212362452 0 -0.0022852019775515858 -0.058163032127090064 0 -0.0025484983849157839 -0.058966671212362452 0 -0.0019403229921157242 -0.059064562946744247 0 0.0014591093569669097 -0.047106199511068467 0 0.0015593017829669388 -0.047144171491960034 0 0.001569968950265571 -0.047156028359923552 0 0.0014591093569669097 -0.047106199511068467 0 0.0015491411307896202 -0.047108346728042629 0 0.0015593017829669388 -0.047144171491960034 0 -3.5621717003504099e-05 -0.052384894037713806 0 0.00059083662823979891 -0.049718189934675805 0 0.00065563885411791978 -0.051104829513254749 0 0.00020134431840063914 -0.05072161336681285 0 -4.4145483463663516e-06 -0.050679128650244404 0 0.0015491411307896202 -0.047108346728042629 0 0.001581377210774068 -0.04709313571904325 0 0.0015767474858632594 -0.047131763070458368 0 0.001545698772737251 -0.047067407747182329 0 0.0015491411307896202 -0.047108346728042629 0 0.001581377210774068 -0.04709313571904325 0 0.001545698772737251 -0.047067407747182329 0 0.0014591093569669097 -0.047106199511068467 0 0.0015491411307896202 -0.047108346728042629 0 0.0015491411307896202 -0.047108346728042629 0 0.0015593017829669388 -0.047144171491960034 0 0.0015767474858632594 -0.047131763070458368 0 0.00058440390492703266 -0.049694703190276975 0 0.00059083662823979891 -0.049718189934675805 0 0.0015593017829669388 -0.047144171491960034 0 0.0015672208097345464 -0.047147919697935067 0 0.0015767474858632594 -0.047131763070458368 0 4.9241307328946985e-05 -0.048627265856470231 0 0.00011677930669545654 -0.049615030011902733 0 0.00082935111961335121 -0.049284088195721144 0 4.9241307328946985e-05 -0.048627265856470231 0 -0.00026303716590401978 -0.049136127436787233 0 0.00011677930669545654 -0.049615030011902733 0 0.00020134431840063914 -0.05072161336681285 0 -4.4145483463663516e-06 -0.050679128650244404 0 -0.00025313745310974603 -0.050339719620488318 0 7.0400818779359217e-05 -0.050676704622737614 0 0.00057363697053739826 -0.049555454996962345 0 -0.00049178922091965048 -0.048653766202244819 0 4.9241307328946985e-05 -0.048627265856470231 0 -0.00026303716590401978 -0.049136127436787233 0 -0.00026303716590401978 -0.049136127436787233 0 -0.00072511153867123768 -0.049550011992214871 0 0.00011677930669545654 -0.049615030011902733 0 0.00011677930669545654 -0.049615030011902733 0 0.00057351590009356557 -0.049778336049343765 0 0.00082935111961335121 -0.049284088195721144 0 -0.00023721973422870959 -0.052946693086090804 0 -0.00042813810295632445 -0.052253591738842683 0 -0.00049178922091965048 -0.048653766202244819 0 -0.00026303716590401978 -0.049136127436787233 0 -0.00072511153867123768 -0.049550011992214871 0 -0.0032847940906001179 -0.059187715259170208 0 -0.0022852019775515858 -0.058163032127090064 0 -0.0018387025630946488 -0.056185203280657313 0 -0.00078184444997553401 -0.048210829990954197 0 -0.00049178922091965048 -0.048653766202244819 0 -0.00072511153867123768 -0.049550011992214871 0 -0.00023721973422870959 -0.052946693086090804 0 -0.00095722443758114158 -0.054540299507326695 0 -0.0006289214635271681 -0.053652228525049736 0 -0.00061685593971764943 -0.053954041651644129 0 -0.00074318307429350691 -0.05391383508399307 0 -0.0018387025630946488 -0.056185203280657313 0 -0.000947263625636286 -0.056727539945610549 0 -0.001415163822407128 -0.057334086236528678 0 -0.0018387025630946488 -0.056185203280657313 0 -0.00040808574986400285 -0.056139370379519958 0 -0.00046939594022219047 -0.05547978154489925 0 -0.00040808574986400285 -0.056139370379519958 0 -0.000947263625636286 -0.056727539945610549 0 -0.0001751609850512525 -0.057093360831751816 0 -0.0018387025630946488 -0.056185203280657313 0 -0.00040808574986400285 -0.056139370379519958 0 -0.000947263625636286 -0.056727539945610549 0 -0.000947263625636286 -0.056727539945610549 0 -0.00065553687075527753 -0.057463644891657471 0 -0.001415163822407128 -0.057334086236528678 0 -0.000947263625636286 -0.056727539945610549 0 -0.0001751609850512525 -0.057093360831751816 0 -0.00065553687075527753 -0.057463644891657471 0 -0.0001751609850512525 -0.057093360831751816 0 -0.00065553687075527753 -0.057463644891657471 0 0.0001267728360219789 -0.057853630014826497 0 -0.0022852019775515858 -0.058163032127090064 0 -0.0018387025630946488 -0.056185203280657313 0 -0.001415163822407128 -0.057334086236528678 0 -0.00065553687075527753 -0.057463644891657471 0 -0.001415163822407128 -0.057334086236528678 0 -0.0013801327249031918 -0.058169719362813802 0 -0.0022852019775515858 -0.058163032127090064 0 -0.001415163822407128 -0.057334086236528678 0 -0.0013801327249031918 -0.058169719362813802 0 -0.0022852019775515858 -0.058163032127090064 0 -0.0013801327249031918 -0.058169719362813802 0 -0.0019403229921157242 -0.059064562946744247 0 -0.0013801327249031918 -0.058169719362813802 0 -0.0019403229921157242 -0.059064562946744247 0 -0.0012218686448288783 -0.05901031784396002 0 -0.00065553687075527753 -0.057463644891657471 0 -0.0013801327249031918 -0.058169719362813802 0 -0.00035666169769108576 -0.058493023114917948 0 -0.00065553687075527753 -0.057463644891657471 0 -0.00035666169769108576 -0.058493023114917948 0 0.0001267728360219789 -0.057853630014826497 0 -0.0013801327249031918 -0.058169719362813802 0 -0.00035666169769108576 -0.058493023114917948 0 -0.0012218686448288783 -0.05901031784396002 0 -0.00035666169769108576 -0.058493023114917948 0 -0.0005429277322503797 -0.059424645616742565 0 -0.0012218686448288783 -0.05901031784396002 0 -0.0005429277322503797 -0.059424645616742565 0 -0.0014189669452107155 -0.059774258695601233 0 -0.0012218686448288783 -0.05901031784396002 0 -0.00035666169769108576 -0.058493023114917948 0 -0.0005429277322503797 -0.059424645616742565 0 0.00039626515127947856 -0.059404355162839428 0 0.00021853431940102786 -0.060290509766210226 0 -0.0005429277322503797 -0.059424645616742565 0 0.00039626515127947856 -0.059404355162839428 0 -0.00069912967455133649 -0.060327086435755781 0 0.00021853431940102786 -0.060290509766210226 0 -0.0005429277322503797 -0.059424645616742565 0 -0.00069912967455133649 -0.060327086435755781 0 -0.0005429277322503797 -0.059424645616742565 0 -0.0014189669452107155 -0.059774258695601233 0 -0.0022567042700097806 -0.059894487877039819 0 -0.0014189669452107155 -0.059774258695601233 0 -0.0019403229921157242 -0.059064562946744247 0 -0.0014189669452107155 -0.059774258695601233 0 -0.0019403229921157242 -0.059064562946744247 0 -0.0012218686448288783 -0.05901031784396002 0 -0.0020538380184323317 -0.076268759880735185 0 -0.0020938945915059516 -0.077318412239800891 0 -0.0025322735696218868 -0.076266305012144139 0 -0.00069107439319711958 -0.06952404518638744 0 -0.0013180632062756597 -0.06754131598387933 0 0.002512155162285673 -0.061010654859142123 0 0.00078407761450127722 -0.059056301495812168 0 0.00099016941740481877 -0.057407402286014091 0 0.0011181044418154325 -0.060314135909733738 0 0.002512155162285673 -0.061010654859142123 0 0.00078407761450127722 -0.059056301495812168 0 0.0011181044418154325 -0.060314135909733738 0 0.00039626515127947856 -0.059404355162839428 0 0.00078407761450127722 -0.059056301495812168 0 0.00021853431940102786 -0.060290509766210226 0 0.0011181044418154325 -0.060314135909733738 0 0.00039626515127947856 -0.059404355162839428 0 -0.00035666169769108576 -0.058493023114917948 0 0.00078407761450127722 -0.059056301495812168 0 0.0001267728360219789 -0.057853630014826497 0 0.00078407761450127722 -0.059056301495812168 0 0.00099016941740481877 -0.057407402286014091 0 0.0001267728360219789 -0.057853630014826497 0 -0.00035666169769108576 -0.058493023114917948 0 0.00039626515127947856 -0.059404355162839428 0 0.00078407761450127722 -0.059056301495812168 0 -0.0013025632821878391 -0.075220751498025637 0 -0.0018892109796292578 -0.068919459912760009 0 -0.0020538380184323317 -0.076268759880735185 0 -0.0025322735696218868 -0.076266305012144139 0 -0.0022993585534862491 -0.074950683005731281 0 -0.0013180632062756597 -0.06754131598387933 0 -0.0019749835164957238 -0.066780435618509423 0 -0.00040808574986400285 -0.056139370379519958 0 0.00099016941740481877 -0.057407402286014091 0 -0.00046939594022219047 -0.05547978154489925 0 -0.00040808574986400285 -0.056139370379519958 0 -0.0001751609850512525 -0.057093360831751816 0 0.00099016941740481877 -0.057407402286014091 0 -0.0001751609850512525 -0.057093360831751816 0 0.00099016941740481877 -0.057407402286014091 0 0.0001267728360219789 -0.057853630014826497 0 -0.0025322735696218868 -0.076266305012144139 0 -0.0022993585534862491 -0.074950683005731281 0 -0.0029812778491546559 -0.074940045299875344 0 -0.001734684204017637 -0.079453975057580783 0 -0.0016932648517438348 -0.078379798200707299 0 -0.0016543844986302116 -0.079459668535427075 0 0.00099016941740481877 -0.057407402286014091 0 -0.00046939594022219047 -0.05547978154489925 0 -0.00041716665411103493 -0.054588417165868944 0 -0.0018892109796292578 -0.068919459912760009 0 -0.0019749835164957238 -0.066780435618509423 0 0.0017318037926428078 -0.066337097886795843 0 0.00021112875922049299 -0.066332714607489338 0 0.00097543364636645737 -0.065418857065038319 0 -0.00074318307429350691 -0.05391383508399307 0 -0.00078767047805465475 -0.054279787853389258 0 -0.00069525376395754323 -0.054095790670363943 0 -0.00095722443758114158 -0.054540299507326695 0 -0.00096345154181173202 -0.05455509661689352 0 -0.0018387025630946488 -0.056185203280657313 0 -0.00066400844529276219 -0.05462524948514675 0 -0.00078767047805465475 -0.054279787853389258 0 -0.0018387025630946488 -0.056185203280657313 0 -0.00046939594022219047 -0.05547978154489925 0 -0.00066400844529276219 -0.05462524948514675 0 -0.00046939594022219047 -0.05547978154489925 0 -0.00066400844529276219 -0.05462524948514675 0 -0.00041716665411103493 -0.054588417165868944 0 -0.0019694424177481044 -0.06675946495250823 0 -0.0019749835164957238 -0.066780435618509423 0 -0.00066400844529276219 -0.05462524948514675 0 -0.00058956054336885245 -0.054407101083680548 0 -0.00078767047805465475 -0.054279787853389258 0 -0.00058956054336885245 -0.054407101083680548 0 -0.00078767047805465475 -0.054279787853389258 0 -0.0011437743628726666 -0.054295888251666299 0 -0.0019749835164957238 -0.066780435618509423 0 -0.0021080037970404391 -0.061433657337413475 0 0.00021112875922049299 -0.066332714607489338 0 0.00097543364636645737 -0.065418857065038319 0 -0.00071534700105975739 -0.063515249701661308 0 -0.00080141949735482035 -0.054194744235800972 0 -0.00078767047805465475 -0.054279787853389258 0 -0.0011437743628726666 -0.054295888251666299 0 -0.00080141949735482035 -0.054194744235800972 0 -0.00078767047805465475 -0.054279787853389258 0 -0.00069525376395754323 -0.054095790670363943 0 0.0012983637620094927 -0.064267873791283806 0 0.00097543364636645737 -0.065418857065038319 0 -0.00071534700105975739 -0.063515249701661308 0 8.5321139800185065e-05 -0.061668489849775611 0 0.00084882810246776435 -0.060867370470481109 0 0.00093313356922680463 -0.061993192739157113 0 -0.0018892109796292578 -0.068919459912760009 0 -0.0014876880545948645 -0.0655828707192702 0 0.0017318037926428078 -0.066337097886795843 0 0.0012983637620094927 -0.064267873791283806 0 0.00097543364636645737 -0.065418857065038319 0 0.00010818310944787613 -0.063016638931614591 0 0.00093313356922680463 -0.061993192739157113 0 0.0008551582573913648 -0.062155646962082457 0 0.0012983637620094927 -0.064267873791283806 0 0.0008551582573913648 -0.062155646962082457 0 -0.00071534700105975739 -0.063515249701661308 0 -0.0014876880545948645 -0.0655828707192702 0 -0.0013561516580314853 -0.064605789880380238 0 -0.0021080037970404391 -0.061433657337413475 0 -0.0019741603436363442 -0.060276121033017827 0 -0.00071534700105975739 -0.063515249701661308 0 -3.6345563323079188e-05 -0.061003931647600068 0 -0.00041968179505525886 -0.058044742788012152 0 0.0008551582573913648 -0.062155646962082457 0 -0.00071534700105975739 -0.063515249701661308 0 -3.6345563323079188e-05 -0.061003931647600068 0 0.0008551582573913648 -0.062155646962082457 0 5.65205952569969e-05 -0.060352971882746194 0 -3.6345563323079188e-05 -0.061003931647600068 0 5.65205952569969e-05 -0.060352971882746194 0 3.4699409458413314e-06 -0.06271029141265913 0 -3.4492487508235752e-06 -0.05826102924210988 0 5.65205952569969e-05 -0.060352971882746194 0 -3.6345563323079188e-05 -0.061003931647600068 0 -0.00041968179505525886 -0.058044742788012152 0 5.65205952569969e-05 -0.060352971882746194 0 -0.00041968179505525886 -0.058044742788012152 0 -3.4492487508235752e-06 -0.05826102924210988 0 0.00042289692279068487 -0.063419190548760052 0 0.0008551582573913648 -0.062155646962082457 0 3.4699409458413314e-06 -0.06271029141265913 0 0.0008551582573913648 -0.062155646962082457 0 5.65205952569969e-05 -0.060352971882746194 0 3.4699409458413314e-06 -0.06271029141265913 0 0.00027691333118969155 -0.053261098025316672 0 2.1132924466134273e-06 -0.053815596793624083 0 -2.5735724676369185e-05 -0.054880316624765356 0 0.00027691333118969155 -0.053261098025316672 0 2.1132924466134273e-06 -0.053815596793624083 0 0.00062780344781606084 -0.05197997185898761 0 2.1132924466134273e-06 -0.053815596793624083 0 -3.4492487508235752e-06 -0.05826102924210988 0 -2.5735724676369185e-05 -0.054880316624765356 0 -0.00041968179505525886 -0.058044742788012152 0 -3.4492487508235752e-06 -0.05826102924210988 0 -2.5735724676369185e-05 -0.054880316624765356 0 -0.00035294964013685495 -0.053557173542563431 0 -0.00042363431779139762 -0.052851668004502403 0 -0.0011437743628726666 -0.054295888251666299 0 -0.00041968179505525886 -0.058044742788012152 0 -2.5735724676369185e-05 -0.054880316624765356 0 -0.0011437743628726666 -0.054295888251666299 0 -2.5735724676369185e-05 -0.054880316624765356 0 -0.00049344054868545183 -0.054147646449457673 0 -2.5735724676369185e-05 -0.054880316624765356 0 0.00052588200862922036 -0.052093146908527579 0 -0.00079193025945141081 -0.050912591984981444 0 0.00027691333118969155 -0.053261098025316672 0 -2.5735724676369185e-05 -0.054880316624765356 0 0.00052588200862922036 -0.052093146908527579 0 0.00027691333118969155 -0.053261098025316672 0 0.00052588200862922036 -0.052093146908527579 0 0.00062780344781606084 -0.05197997185898761 0 0.00052588200862922036 -0.052093146908527579 0 0.00073501403049871486 -0.0510072078030308 0 -0.00079193025945141081 -0.050912591984981444 0 0.00073501403049871486 -0.0510072078030308 0 -0.00079193025945141081 -0.050912591984981444 0 0.00047553429006690301 -0.050337377816037789 0 -0.00080141949735482035 -0.054194744235800972 0 -0.0011437743628726666 -0.054295888251666299 0 -0.00049344054868545183 -0.054147646449457673 0 -0.00080141949735482035 -0.054194744235800972 0 -0.00049344054868545183 -0.054147646449457673 0 -0.00069525376395754323 -0.054095790670363943 0 -0.00042813810295632445 -0.052253591738842683 0 -0.00042363431779139762 -0.052851668004502403 0 -0.00061685593971764943 -0.053954041651644129 0 -0.00049344054868545183 -0.054147646449457673 0 -0.00069525376395754323 -0.054095790670363943 0 -0.00072511153867123768 -0.049550011992214871 0 -0.00079193025945141081 -0.050912591984981444 0 0.00011677930669545654 -0.049615030011902733 0 -0.00061685593971764943 -0.053954041651644129 0 -0.00074318307429350691 -0.05391383508399307 0 -0.00069525376395754323 -0.054095790670363943 0 -0.00079193025945141081 -0.050912591984981444 0 0.00047553429006690301 -0.050337377816037789 0 0.00011677930669545654 -0.049615030011902733 0 0.00047553429006690301 -0.050337377816037789 0 0.00011677930669545654 -0.049615030011902733 0 0.00057351590009356557 -0.049778336049343765 0 0.00067500091913104475 -0.049136988309733939 0 0.00057363697053739826 -0.049555454996962345 0 0.00090627106333703272 -0.049040072745585903 0 0.00057363697053739826 -0.049555454996962345 0 0.00088190347809133352 -0.049999871353690259 0 0.001280396823402316 -0.050346431894715639 0 0.00082935111961335121 -0.049284088195721144 0 0.00057351590009356557 -0.049778336049343765 0 0.00088190347809133352 -0.049999871353690259 0 0.00082935111961335121 -0.049284088195721144 0 0.0017335233501920423 -0.047286444262247949 0 0.0018074978755964783 -0.047214731163251547 0 0.0020603050834745629 -0.047576265706345468 0 0.00047553429006690301 -0.050337377816037789 0 0.00057351590009356557 -0.049778336049343765 0 0.00088190347809133352 -0.049999871353690259 0 0.00088190347809133352 -0.049999871353690259 0 0.0010927875806943067 -0.050314402913718755 0 0.001020639636369815 -0.050512369964335939 0 0.00088190347809133352 -0.049999871353690259 0 0.0010927875806943067 -0.050314402913718755 0 0.001280396823402316 -0.050346431894715639 0 0.0011518750183183643 -0.050392448240723468 0 0.0010927875806943067 -0.050314402913718755 0 0.001280396823402316 -0.050346431894715639 0 0.0011518750183183643 -0.050392448240723468 0 0.0010927875806943067 -0.050314402913718755 0 0.001020639636369815 -0.050512369964335939 0 0.00047553429006690301 -0.050337377816037789 0 0.00088190347809133352 -0.049999871353690259 0 0.001020639636369815 -0.050512369964335939 0 0.00095303504293950034 -0.048376148504263083 0 0.00090416796574270834 -0.048696302156127531 0 0.0017335233501920423 -0.047286444262247949 0 0.0014234267723117003 -0.047189833402216087 0 0.0018142517256708264 -0.047516643266586285 0 0.0014234267723117003 -0.047189833402216087 0 0.0015320526560763845 -0.047189222674757857 0 0.0015829122893435135 -0.047168048404175961 0 0.0018074978755964783 -0.047214731163251547 0 0.001671449086762689 -0.047179598858130584 0 0.0016012667509596795 -0.047083908809038115 0 0.0017335233501920423 -0.047286444262247949 0 0.0018074978755964783 -0.047214731163251547 0 0.001671449086762689 -0.047179598858130584 0 0.0017335233501920423 -0.047286444262247949 0 0.001671449086762689 -0.047179598858130584 0 0.0014234267723117003 -0.047189833402216087 0 0.001671449086762689 -0.047179598858130584 0 0.0016012667509596795 -0.047083908809038115 0 0.0014234267723117003 -0.047189833402216087 0 0.0018074978755964783 -0.047214731163251547 0 0.0016012667509596795 -0.047083908809038115 0 0.0015587262987707472 -0.046807047139549494 0 0.001280396823402316 -0.050346431894715639 0 0.0011736980210872289 -0.050384370858179116 0 0.00091043042198428144 -0.050203068991602935 0 0.00090627106333703272 -0.049040072745585903 0 0.001068591295171576 -0.048722961512542011 0 0.0011518750183183643 -0.050392448240723468 0 0.001280396823402316 -0.050346431894715639 0 0.0011736980210872289 -0.050384370858179116 0 0.0011736980210872289 -0.050384370858179116 0 0.0011847414968557308 -0.050311701589372392 0 0.00091043042198428144 -0.050203068991602935 0 0.00073501403049871486 -0.0510072078030308 0 0.00047553429006690301 -0.050337377816037789 0 0.001020639636369815 -0.050512369964335939 0 0.0011518750183183643 -0.050392448240723468 0 0.0011736980210872289 -0.050384370858179116 0 0.001020639636369815 -0.050512369964335939 0 0.0011736980210872289 -0.050384370858179116 0 0.001020639636369815 -0.050512369964335939 0 0.0010448134827378303 -0.050762049269163369 0 0.0011736980210872289 -0.050384370858179116 0 0.0011847414968557308 -0.050311701589372392 0 0.0010448134827378303 -0.050762049269163369 0 0.00052588200862922036 -0.052093146908527579 0 0.00073501403049871486 -0.0510072078030308 0 0.0010448134827378303 -0.050762049269163369 0 0.00073501403049871486 -0.0510072078030308 0 0.001020639636369815 -0.050512369964335939 0 0.0010448134827378303 -0.050762049269163369 0 0.00097712400961999404 -0.050918965486374264 0 0.0011585508854708164 -0.049711261503402167 0 0.00062780344781606084 -0.05197997185898761 0 0.00052588200862922036 -0.052093146908527579 0 0.0010448134827378303 -0.050762049269163369 0 0.00097712400961999404 -0.050918965486374264 0 0.00052588200862922036 -0.052093146908527579 0 0.00097712400961999404 -0.050918965486374264 0 0.00062780344781606084 -0.05197997185898761 0 0.0011847414968557308 -0.050311701589372392 0 0.0010448134827378303 -0.050762049269163369 0 0.00097712400961999404 -0.050918965486374264 0 0.0011847414968557308 -0.050311701589372392 0 0.00091043042198428144 -0.050203068991602935 0 0.0011585508854708164 -0.049711261503402167 0 0.0011585508854708164 -0.049711261503402167 0 0.001026500160955283 -0.048132006462235845 0 0.00062780344781606084 -0.05197997185898761 0 0.0011847414968557308 -0.050311701589372392 0 0.00097712400961999404 -0.050918965486374264 0 0.0011585508854708164 -0.049711261503402167 0 0.00091043042198428144 -0.050203068991602935 0 0.0010352826814486191 -0.048528254405991574 0 0.0011585508854708164 -0.049711261503402167 0 0.0010352826814486191 -0.048528254405991574 0 0.0011585508854708164 -0.049711261503402167 0 0.001026500160955283 -0.048132006462235845 0 4.9038214664877687e-07 -0.049369675327937956 0 -1.0383804099383719e-05 -0.048121868956699967 0 0.00062780344781606084 -0.05197997185898761 0 0.00066275094995126699 -0.046817625703022094 0 0.00070805671267052924 -0.047769077147937967 0 2.1132924466134273e-06 -0.053815596793624083 0 4.9038214664877687e-07 -0.049369675327937956 0 0.00062780344781606084 -0.05197997185898761 0 2.7382366196559714e-06 -0.040477079340900647 0 -7.6573517154291618e-07 -0.044924019669717985 0 2.414688526938219e-05 -0.043492440591946922 0 0.001026500160955283 -0.048132006462235845 0 0.0014478370066459045 -0.044021451607445396 0 0.0010836763755333358 -0.045904576894104238 0 -1.0383804099383719e-05 -0.048121868956699967 0 -7.6573517154291618e-07 -0.044924019669717985 0 2.414688526938219e-05 -0.043492440591946922 0 0.00066275094995126699 -0.046817625703022094 0 0.00054340907422778593 -0.045066571710530426 0 4.9038214664877687e-07 -0.049369675327937956 0 -1.0383804099383719e-05 -0.048121868956699967 0 -7.6573517154291618e-07 -0.044924019669717985 0 0.001068591295171576 -0.048722961512542011 0 0.0010483479031394825 -0.048445102571929667 0 0.00091043042198428144 -0.050203068991602935 0 0.0010352826814486191 -0.048528254405991574 0 0.0010016761609554529 -0.046489592871809059 0 0.0011851198229777043 -0.045642035788768666 0 0.0011966547721138571 -0.045491183622777022 0 0.001026500160955283 -0.048132006462235845 0 0.0010836763755333358 -0.045904576894104238 0 0.0010016761609554529 -0.046489592871809059 0 0.0010836763755333358 -0.045904576894104238 0 0.0010016761609554529 -0.046489592871809059 0 0.001234076735883818 -0.046586886828139364 0 0.0015587262987707472 -0.046807047139549494 0 0.0010016761609554529 -0.046489592871809059 0 0.001234076735883818 -0.046586886828139364 0 0.0010836763755333358 -0.045904576894104238 0 0.0014129763631358617 -0.044070929697458724 0 0.00097351097260805304 -0.043494227428603434 0 0.0010836763755333358 -0.045904576894104238 0 0.001234076735883818 -0.046586886828139364 0 0.0011996020772814175 -0.047117660777068686 0 0.0010352826814486191 -0.048528254405991574 0 0.001026500160955283 -0.048132006462235845 0 0.0010016761609554529 -0.046489592871809059 0 0.0014478370066459045 -0.044021451607445396 0 0.0010836763755333358 -0.045904576894104238 0 0.0014661490869995043 -0.044222469484167221 0 0.0010836763755333358 -0.045904576894104238 0 0.0014129763631358617 -0.044070929697458724 0 0.0014661490869995043 -0.044222469484167221 0 0.0013106073199839507 -0.043271193124551188 0 0.0014478370066459045 -0.044021451607445396 0 0.0014661490869995043 -0.044222469484167221 0 0.0013106073199839507 -0.043271193124551188 0 0.0014661490869995043 -0.044222469484167221 0 0.0014265537825726799 -0.043684968550025044 0 0.0014129763631358617 -0.044070929697458724 0 0.0014661490869995043 -0.044222469484167221 0 0.0014265537825726799 -0.043684968550025044 0 0.0014129763631358617 -0.044070929697458724 0 0.0014265537825726799 -0.043684968550025044 0 0.0013150892128718395 -0.043658082018325585 0 0.0014129763631358617 -0.044070929697458724 0 0.0013150892128718395 -0.043658082018325585 0 0.00097351097260805304 -0.043494227428603434 0 0.0013150892128718395 -0.043658082018325585 0 0.00097351097260805304 -0.043494227428603434 0 0.0011847673223081116 -0.043697404213837242 0 0.0016012667509596795 -0.047083908809038115 0 0.0015587262987707472 -0.046807047139549494 0 0.0011996020772814175 -0.047117660777068686 0 0.0016012667509596795 -0.047083908809038115 0 0.0011996020772814175 -0.047117660777068686 0 0.0014234267723117003 -0.047189833402216087 0 0.0015587262987707472 -0.046807047139549494 0 0.001234076735883818 -0.046586886828139364 0 0.0011996020772814175 -0.047117660777068686 0 0.0011966547721138571 -0.045491183622777022 0 0.001252127798639142 -0.04546543989965976 0 0.00097351097260805304 -0.043494227428603434 0 0.0011847673223081116 -0.043697404213837242 0 0.0012572593957548566 -0.043761314307055023 0 0.0011996020772814175 -0.047117660777068686 0 0.0014234267723117003 -0.047189833402216087 0 0.0015152204613829939 -0.04721481256147405 0 0.0014234267723117003 -0.047189833402216087 0 0.0015152204613829939 -0.04721481256147405 0 0.0015320526560763845 -0.047189222674757857 0 0.0011926999637643934 -0.043718518400636772 0 0.0013150892128718395 -0.043658082018325585 0 0.0011847673223081116 -0.043697404213837242 0 0.001091912915517941 -0.043906369421330263 0 0.0011847673223081116 -0.043697404213837242 0 0.001175626956361094 -0.043833524813526072 0 0.00048091571185488499 -0.044299451423536168 0 0.00077220889026486544 -0.044712606901259513 0 0.0011847673223081116 -0.043697404213837242 0 0.001175626956361094 -0.043833524813526072 0 0.0012572593957548566 -0.043761314307055023 0 0.0004979518118843815 -0.044981110936605395 0 0.00072759273161783749 -0.045171777682050884 0 0.00044984523202237889 -0.045220164392294683 0 0.00025422593059225632 -0.045057078702196024 0 0.0004979518118843815 -0.044981110936605395 0 0.00044984523202237889 -0.045220164392294683 0 0.001259840542717874 -0.045472544364492933 0 0.001252127798639142 -0.04546543989965976 0 0.00077220889026486544 -0.044712606901259513 0 0.001259840542717874 -0.045472544364492933 0 0.001175626956361094 -0.043833524813526072 0 0.0012862125774052344 -0.04394016823533007 0 0.0012572593957548566 -0.043761314307055023 0 0.0016205038352170842 -0.047124801598123482 0 0.0015152204613829939 -0.04721481256147405 0 0.0015686585933353161 -0.047166379941616342 0 0.0015152204613829939 -0.04721481256147405 0 0.0015320526560763845 -0.047189222674757857 0 0.0015686585933353161 -0.047166379941616342 0 0.0015320526560763845 -0.047189222674757857 0 0.0015829122893435135 -0.047168048404175961 0 0.001577730553946208 -0.047165487483926877 0 0.0015320526560763845 -0.047189222674757857 0 0.001577730553946208 -0.047165487483926877 0 0.0015686585933353161 -0.047166379941616342 0 0.00059083662823979891 -0.049718189934675805 0 0.00090416796574270834 -0.048696302156127531 0 0.0015672208097345464 -0.047147919697935067 0 0.0015829122893435135 -0.047168048404175961 0 0.001583420820898939 -0.04715068519652172 0 0.0017335233501920423 -0.047286444262247949 0 0.0018142517256708264 -0.047516643266586285 0 0.0020713777795768611 -0.047589115368874925 0 0.0022257328114934556 -0.04780868328298566 0 0.0018142517256708264 -0.047516643266586285 0 0.0020713777795768611 -0.047589115368874925 0 0.0015829122893435135 -0.047168048404175961 0 0.001577730553946208 -0.047165487483926877 0 0.001583420820898939 -0.04715068519652172 0 0.00059083662823979891 -0.049718189934675805 0 0.00057363697053739826 -0.049555454996962345 0 0.001583420820898939 -0.04715068519652172 0 0.0015767474858632594 -0.047131763070458368 0 0.0016053109485269642 -0.047096745875821903 0 0.0015672208097345464 -0.047147919697935067 0 0.001583420820898939 -0.04715068519652172 0 0.0015767474858632594 -0.047131763070458368 0 0.001583420820898939 -0.04715068519652172 0 0.0016053109485269642 -0.047096745875821903 0 0.0016041262939321596 -0.047124596267389622 0 0.001581377210774068 -0.04709313571904325 0 0.0015767474858632594 -0.047131763070458368 0 0.0016053109485269642 -0.047096745875821903 0 0.0016205038352170842 -0.047124801598123482 0 0.0015686585933353161 -0.047166379941616342 0 0.0016041262939321596 -0.047124596267389622 0 0.001577730553946208 -0.047165487483926877 0 0.0015686585933353161 -0.047166379941616342 0 0.0016041262939321596 -0.047124596267389622 0 0.001577730553946208 -0.047165487483926877 0 0.001583420820898939 -0.04715068519652172 0 0.0016041262939321596 -0.047124596267389622 0 0.00074376993473285798 -0.045121223429203827 0 0.001107439001470799 -0.04548136718976508 0 0.00077855045427929835 -0.045428988359589438 0 0.001259840542717874 -0.045472544364492933 0 0.0014571683988241313 -0.045981091669161409 0 0.0016053109485269642 -0.047096745875821903 0 0.0016041262939321596 -0.047124596267389622 0 0.0016600677118355093 -0.047021293641998189 0 0.0016205038352170842 -0.047124801598123482 0 0.0016041262939321596 -0.047124596267389622 0 0.0016600677118355093 -0.047021293641998189 0 0.0016202262528166595 -0.046918245604634444 0 0.0016030479199281558 -0.047031107382271807 0 0.0016600677118355093 -0.047021293641998189 0 0.0016030479199281558 -0.047031107382271807 0 0.0016053109485269642 -0.047096745875821903 0 0.0016600677118355093 -0.047021293641998189 0 0.0016030479199281558 -0.047031107382271807 0 0.001581377210774068 -0.04709313571904325 0 0.0016053109485269642 -0.047096745875821903 0 0.001107439001470799 -0.04548136718976508 0 0.0011864092143004086 -0.045787088336152512 0 0.0014667910962301385 -0.045911703060916645 0 0.0016202262528166595 -0.046918245604634444 0 0.0016600677118355093 -0.047021293641998189 0 0.0016732458513284644 -0.046803653763277664 0 0.0014571683988241313 -0.045981091669161409 0 0.0015510540510111919 -0.04619385112284155 0 0.001107439001470799 -0.04548136718976508 0 0.0011864092143004086 -0.045787088336152512 0 0.00086502816305044597 -0.045721595226364702 0 0.001107439001470799 -0.04548136718976508 0 0.00086502816305044597 -0.045721595226364702 0 0.00077855045427929835 -0.045428988359589438 0 0.00086502816305044597 -0.045721595226364702 0 0.00059584949509452069 -0.045699440115421097 0 0.00077855045427929835 -0.045428988359589438 0 0.00059584949509452069 -0.045699440115421097 0 0.00054834590318085215 -0.04540682879422353 0 0.00077855045427929835 -0.045428988359589438 0 0.00032034252640115855 -0.045455479961447262 0 0.00059584949509452069 -0.045699440115421097 0 0.00054834590318085215 -0.04540682879422353 0 0.00032034252640115855 -0.045455479961447262 0 0.00059584949509452069 -0.045699440115421097 0 0.00034454418809479138 -0.045854710728463303 0 0.00072759273161783749 -0.045171777682050884 0 0.00044984523202237889 -0.045220164392294683 0 0.00054834590318085215 -0.04540682879422353 0 0.00032034252640115855 -0.045455479961447262 0 0.00044984523202237889 -0.045220164392294683 0 0.00054834590318085215 -0.04540682879422353 0 0.00072759273161783749 -0.045171777682050884 0 0.00054834590318085215 -0.04540682879422353 0 0.00077855045427929835 -0.045428988359589438 0 0.001259840542717874 -0.045472544364492933 0 0.0012072070915249218 -0.045418166990369546 0 0.00078623700636177565 -0.046142544652674568 0 0.00034454418809479138 -0.045854710728463303 0 0.0005094267176056702 -0.046413385457259856 0 0.00059584949509452069 -0.045699440115421097 0 0.00078623700636177565 -0.046142544652674568 0 0.00034454418809479138 -0.045854710728463303 0 0.00086502816305044597 -0.045721595226364702 0 0.00059584949509452069 -0.045699440115421097 0 0.00078623700636177565 -0.046142544652674568 0 0.0011864092143004086 -0.045787088336152512 0 0.00086502816305044597 -0.045721595226364702 0 0.0010675806484414165 -0.045989261432511475 0 0.00086502816305044597 -0.045721595226364702 0 0.00078623700636177565 -0.046142544652674568 0 0.0010675806484414165 -0.045989261432511475 0 0.0011864092143004086 -0.045787088336152512 0 0.0012790448941409507 -0.046009451920350948 0 0.0014667910962301385 -0.045911703060916645 0 0.0012790448941409507 -0.046009451920350948 0 0.0014545541360756861 -0.046202877407072476 0 0.0014667910962301385 -0.045911703060916645 0 0.0011864092143004086 -0.045787088336152512 0 0.0010675806484414165 -0.045989261432511475 0 0.0012790448941409507 -0.046009451920350948 0 0.0010675806484414165 -0.045989261432511475 0 0.0012790448941409507 -0.046009451920350948 0 0.0012714232473006013 -0.046223426381068841 0 0.0010675806484414165 -0.045989261432511475 0 0.0012714232473006013 -0.046223426381068841 0 0.0010986781602787617 -0.046302638123515802 0 0.0012790448941409507 -0.046009451920350948 0 0.0012714232473006013 -0.046223426381068841 0 0.0014545541360756861 -0.046202877407072476 0 0.0012714232473006013 -0.046223426381068841 0 0.0010986781602787617 -0.046302638123515802 0 0.0012810849062764268 -0.04654187558815686 0 0.0012714232473006013 -0.046223426381068841 0 0.0012810849062764268 -0.04654187558815686 0 0.0014912479654690706 -0.046384268451954286 0 0.0012714232473006013 -0.046223426381068841 0 0.0014912479654690706 -0.046384268451954286 0 0.0014545541360756861 -0.046202877407072476 0 0.00078623700636177565 -0.046142544652674568 0 0.0010675806484414165 -0.045989261432511475 0 0.0010986781602787617 -0.046302638123515802 0 0.00078623700636177565 -0.046142544652674568 0 0.0010986781602787617 -0.046302638123515802 0 0.0010552187653225637 -0.046581241396088255 0 0.0010986781602787617 -0.046302638123515802 0 0.0010552187653225637 -0.046581241396088255 0 0.0012810849062764268 -0.04654187558815686 0 0.0010552187653225637 -0.046581241396088255 0 0.00097274274618703205 -0.046840819074013551 0 0.0008159704481436324 -0.046593891860707518 0 0.0011206530970371365 -0.047352003063571561 0 0.0010829956001747504 -0.048401158972687749 0 0.0012810849062764268 -0.04654187558815686 0 0.0011381991637524833 -0.047272173609775522 0 0.0015465738675995856 -0.046796283374853198 0 0.0010552187653225637 -0.046581241396088255 0 0.0012810849062764268 -0.04654187558815686 0 0.0013128601784266206 -0.046887040997026182 0 0.0010552187653225637 -0.046581241396088255 0 0.0013128601784266206 -0.046887040997026182 0 0.00097274274618703205 -0.046840819074013551 0 0.0013128601784266206 -0.046887040997026182 0 0.00097274274618703205 -0.046840819074013551 0 0.0010240374238437312 -0.047060380515756443 0 0.00097274274618703205 -0.046840819074013551 0 0.00076884545284436573 -0.04690064823725669 0 0.0008159704481436324 -0.046593891860707518 0 0.00097274274618703205 -0.046840819074013551 0 0.00076884545284436573 -0.04690064823725669 0 0.0010240374238437312 -0.047060380515756443 0 0.00078623700636177565 -0.046142544652674568 0 0.0010552187653225637 -0.046581241396088255 0 0.0008159704481436324 -0.046593891860707518 0 0.00078623700636177565 -0.046142544652674568 0 0.0008159704481436324 -0.046593891860707518 0 0.0005094267176056702 -0.046413385457259856 0 0.00076884545284436573 -0.04690064823725669 0 0.0008159704481436324 -0.046593891860707518 0 0.0005094267176056702 -0.046413385457259856 0 0.00023556790997697656 -0.046867292935374671 0 0.00076884545284436573 -0.04690064823725669 0 0.0005094267176056702 -0.046413385457259856 0 0.00023556790997697656 -0.046867292935374671 0 0.00076884545284436573 -0.04690064823725669 0 0.00054041844368244644 -0.047412786773388622 0 0.00076884545284436573 -0.04690064823725669 0 0.00054041844368244644 -0.047412786773388622 0 0.0011737431026673701 -0.047709535312894069 0 0.00076884545284436573 -0.04690064823725669 0 0.0011737431026673701 -0.047709535312894069 0 0.001873458679900869 -0.04752657116873818 0 -4.0094033353046866e-05 -0.049384014287299209 0 0.00014774811835902008 -0.050370967332728625 0 0.0011737431026673701 -0.047709535312894069 0 0.0015618628724870295 -0.048113493067717721 0 0.001873458679900869 -0.04752657116873818 0 0.0011737431026673701 -0.047709535312894069 0 0.0015618628724870295 -0.048113493067717721 0 0.0011469775577435323 -0.048685169617060729 0 0.00054041844368244644 -0.047412786773388622 0 0.0011737431026673701 -0.047709535312894069 0 0.0011469775577435323 -0.048685169617060729 0 0.00054041844368244644 -0.047412786773388622 0 0.0012709660032607605 -0.048353648259277578 0 0.0010540309186255535 -0.048137046152199971 0 0.0012709660032607605 -0.048353648259277578 0 0.0010540309186255535 -0.048137046152199971 0 0.00077617936229301687 -0.048480648804666258 0 0.0015618628724870295 -0.048113493067717721 0 0.0011469775577435323 -0.048685169617060729 0 0.00167337240271323 -0.048570531128684015 0 0.00095740929753336361 -0.048067723394570036 0 0.0012984036718263043 -0.048641151443660123 0 -5.5789739330399349e-05 -0.047967443199336643 0 0.00054041844368244644 -0.047412786773388622 0 0.0010540309186255535 -0.048137046152199971 0 -7.251971874374997e-05 -0.047926386059166659 0 0.0010540309186255535 -0.048137046152199971 0 0.00077617936229301687 -0.048480648804666258 0 -0.00013910710214906928 -0.047929221978154912 0 0.000404151910987872 -0.048014678299742805 0 -7.251971874374997e-05 -0.047926386059166659 0 0.00047877191062785834 -0.048909546531732968 0 0.00077617936229301687 -0.048480648804666258 0 0.00047877191062785834 -0.048909546531732968 0 0.00077617936229301687 -0.048480648804666258 0 0.0011987186675270578 -0.049122450799209919 0 0.0012984036718263043 -0.048641151443660123 0 0.0018799004384671227 -0.049615494075998155 0 0.0012709660032607605 -0.048353648259277578 0 0.0011987186675270578 -0.049122450799209919 0 0.002012540121388589 -0.049540996701328902 0 0.0012709660032607605 -0.048353648259277578 0 0.00077617936229301687 -0.048480648804666258 0 0.0011987186675270578 -0.049122450799209919 0 0.0011469775577435323 -0.048685169617060729 0 0.0019036214239726388 -0.049034388270298386 0 0.00167337240271323 -0.048570531128684015 0 0.0011987186675270578 -0.049122450799209919 0 0.0008320388351359412 -0.049693400375381919 0 0.002012540121388589 -0.049540996701328902 0 0.00047877191062785834 -0.048909546531732968 0 0.0011987186675270578 -0.049122450799209919 0 0.0008320388351359412 -0.049693400375381919 0 0.00015820216277175422 -0.049478811821156626 0 0.00047877191062785834 -0.048909546531732968 0 0.0008320388351359412 -0.049693400375381919 0 0.0027078449801016774 -0.049975958587335008 0 0.0023498243753172403 -0.049446426552427168 0 0.0029071891271016614 -0.049439989623233031 0 0.0027078449801016774 -0.049975958587335008 0 0.0029071891271016614 -0.049439989623233031 0 0.0031357253341559414 -0.049800486636911494 0 0.0029071891271016614 -0.049439989623233031 0 0.0031357253341559414 -0.049800486636911494 0 0.0031752936557465335 -0.049529595939631972 0 0.0027078449801016774 -0.049975958587335008 0 0.0031357253341559414 -0.049800486636911494 0 0.0032735009805376076 -0.050261864389997336 0 0.0027078449801016774 -0.049975958587335008 0 0.0019328926915134223 -0.049912332657808908 0 0.0023498243753172403 -0.049446426552427168 0 0.0023498243753172403 -0.049446426552427168 0 0.002265512413835422 -0.048997135551314783 0 0.0025492364325047736 -0.049128274906577403 0 0.0011469775577435323 -0.048685169617060729 0 0.0019328926915134223 -0.049912332657808908 0 0.0019036214239726388 -0.049034388270298386 0 0.0023498243753172403 -0.049446426552427168 0 0.0019036214239726388 -0.049034388270298386 0 0.002265512413835422 -0.048997135551314783 0 0.0019328926915134223 -0.049912332657808908 0 0.0023498243753172403 -0.049446426552427168 0 0.0019036214239726388 -0.049034388270298386 0 0.0019036214239726388 -0.049034388270298386 0 0.00167337240271323 -0.048570531128684015 0 0.0020799041809034776 -0.048623473111841196 0 0.0019036214239726388 -0.049034388270298386 0 0.002265512413835422 -0.048997135551314783 0 0.0020799041809034776 -0.048623473111841196 0 0.002265512413835422 -0.048997135551314783 0 0.0024445525894553556 -0.048744841219535741 0 0.0020799041809034776 -0.048623473111841196 0 0.0024445525894553556 -0.048744841219535741 0 0.0027002624657259991 -0.048917185180054369 0 0.0026778272497611365 -0.048654326511367092 0 0.0027002624657259991 -0.048917185180054369 0 0.0029255715105477908 -0.049039885755608428 0 0.0026778272497611365 -0.048654326511367092 0 0.0027002624657259991 -0.048917185180054369 0 0.0025492364325047736 -0.049128274906577403 0 0.0028576907990588755 -0.049124700500966505 0 0.0024445525894553556 -0.048744841219535741 0 0.0027002624657259991 -0.048917185180054369 0 0.0025492364325047736 -0.049128274906577403 0 0.002265512413835422 -0.048997135551314783 0 0.0024445525894553556 -0.048744841219535741 0 0.0025492364325047736 -0.049128274906577403 0 0.0023498243753172403 -0.049446426552427168 0 0.0025492364325047736 -0.049128274906577403 0 0.0029071891271016614 -0.049439989623233031 0 0.0029071891271016614 -0.049439989623233031 0 0.0029190650385843074 -0.049157559028766069 0 0.003220150659301888 -0.049299299081150182 0 0.0029071891271016614 -0.049439989623233031 0 0.0028576907990588755 -0.049124700500966505 0 0.0029242081365177456 -0.049042220588021497 0 0.0024714102188535961 -0.054500571587074026 0 0.0024631390498229956 -0.055040196607926757 0 0.0025492364325047736 -0.049128274906577403 0 0.0029071891271016614 -0.049439989623233031 0 0.0028576907990588755 -0.049124700500966505 0 0.0024631390498229956 -0.055040196607926757 0 0.00195904252470694 -0.059000412930893344 0 0.0027002624657259991 -0.048917185180054369 0 0.0028576907990588755 -0.049124700500966505 0 0.0029255715105477908 -0.049039885755608428 0 0.0024796751011769169 -0.055009040699836087 0 0.0024631390498229956 -0.055040196607926757 0 0.0024631390498229956 -0.055040196607926757 0 0.00098022982488537788 -0.054016917115185595 0 0.002891778760266439 -0.056668777759221745 0 0.0028993334761351079 -0.058616029742890895 0 0.0019205690883245142 -0.057939775045666747 0 0.0023870651693828492 -0.048304026313346765 0 0.0029290837517107408 -0.048262363414647673 0 0.001873458679900869 -0.04752657116873818 0 0.0029255715105477908 -0.049039885755608428 0 0.0026778272497611365 -0.048654326511367092 0 0.0029290837517107408 -0.048262363414647673 0 0.00098022982488537788 -0.054016917115185595 0 0.00195904252470694 -0.059000412930893344 0 0.0026778272497611365 -0.048654326511367092 0 0.0023870651693828492 -0.048304026313346765 0 0.0029290837517107408 -0.048262363414647673 0 0.0024445525894553556 -0.048744841219535741 0 0.0026778272497611365 -0.048654326511367092 0 0.0023870651693828492 -0.048304026313346765 0 0.00167337240271323 -0.048570531128684015 0 0.0020799041809034776 -0.048623473111841196 0 0.001915060624870661 -0.048227351173015902 0 0.0024445525894553556 -0.048744841219535741 0 0.0023870651693828492 -0.048304026313346765 0 0.0020799041809034776 -0.048623473111841196 0 0.0023870651693828492 -0.048304026313346765 0 0.0020799041809034776 -0.048623473111841196 0 0.001915060624870661 -0.048227351173015902 0 0.0023870651693828492 -0.048304026313346765 0 0.001915060624870661 -0.048227351173015902 0 0.001873458679900869 -0.04752657116873818 0 0.0015618628724870295 -0.048113493067717721 0 0.001915060624870661 -0.048227351173015902 0 0.001873458679900869 -0.04752657116873818 0 0.0015618628724870295 -0.048113493067717721 0 0.00167337240271323 -0.048570531128684015 0 0.001915060624870661 -0.048227351173015902 0 0.0011381991637524833 -0.047272173609775522 0 0.0010994322247386986 -0.048115684868154929 0 0.0014165449012981182 -0.047627922353949442 0 0.0010829956001747504 -0.048401158972687749 0 0.00098022982488537788 -0.054016917115185595 0 0.00098022982488537788 -0.054016917115185595 0 0.00014774811835902008 -0.050370967332728625 0 0.0013128601784266206 -0.046887040997026182 0 0.0013199582811861707 -0.047286876837445146 0 0.0010240374238437312 -0.047060380515756443 0 0.00072987950961962526 -0.063014597948802709 0 0.0011931943597472488 -0.061274518181115567 0 0.0014165449012981182 -0.047627922353949442 0 0.0017830995609348346 -0.047627261532109347 0 0.0016087575175151077 -0.047249266517845438 0 0.0014165449012981182 -0.047627922353949442 0 0.0017830995609348346 -0.047627261532109347 0 0.001375961682077308 -0.048013124689668958 0 -0.0018848535089878295 -0.076571313775201461 0 -0.00066873255286774682 -0.076906192410212473 0 -0.0007859749927584302 -0.075070153438654655 0 -0.0018848535089878295 -0.076571313775201461 0 -0.0013767686387563902 -0.077879852415048884 0 -0.00066873255286774682 -0.076906192410212473 0 -0.0018848535089878295 -0.076571313775201461 0 -0.0013767686387563902 -0.077879852415048884 0 -0.002074727986385604 -0.078057756799237238 0 -0.0013767686387563902 -0.077879852415048884 0 -0.00071863710137173788 -0.078663501293235141 0 -0.00066873255286774682 -0.076906192410212473 0 -0.002074727986385604 -0.078057756799237238 0 -0.0014867528968147826 -0.078672859885761851 0 -0.0024073754218362992 -0.07888040108355121 0 -0.0013767686387563902 -0.077879852415048884 0 -0.002074727986385604 -0.078057756799237238 0 -0.0014867528968147826 -0.078672859885761851 0 -0.0013767686387563902 -0.077879852415048884 0 -0.0014867528968147826 -0.078672859885761851 0 -0.00071863710137173788 -0.078663501293235141 0 -0.0018848535089878295 -0.076571313775201461 0 -0.002074727986385604 -0.078057756799237238 0 -0.0029052223370543899 -0.077970542817678373 0 0.0017830995609348346 -0.047627261532109347 0 0.0014503358426066716 -0.048155251349935868 0 0.001375961682077308 -0.048013124689668958 0 0.0014618022259292012 -0.048166028284308791 0 0.001375961682077308 -0.048013124689668958 0 0.0013540422812010229 -0.048308249844446649 0 0.0010994322247386986 -0.048115684868154929 0 0.0014165449012981182 -0.047627922353949442 0 0.001375961682077308 -0.048013124689668958 0 0.0010994322247386986 -0.048115684868154929 0 0.001375961682077308 -0.048013124689668958 0 0.0013540422812010229 -0.048308249844446649 0 0.0011931943597472488 -0.061274518181115567 0 0.0010385864776908662 -0.060857626640269398 0 -0.002074727986385604 -0.078057756799237238 0 -0.0029052223370543899 -0.077970542817678373 0 -0.0024073754218362992 -0.07888040108355121 0 0.0011931943597472488 -0.061274518181115567 0 0.0017743252220370086 -0.062706044599921851 0 0.00195904252470694 -0.059000412930893344 0 0.0017743252220370086 -0.062706044599921851 0 0.00019672613903015608 -0.058437210915116437 0 -0.0007956446386105417 -0.0597393405349015 0 0.0019347514707235486 -0.061628969300273645 0 0.0011931943597472488 -0.061274518181115567 0 0.00195904252470694 -0.059000412930893344 0 0.0029190650385843074 -0.049157559028766069 0 0.0032068303889633671 -0.048801635740530334 0 0.0032431534739007797 -0.049092944242632865 0 0.0032068303889633671 -0.048801635740530334 0 0.0032431534739007797 -0.049092944242632865 0 0.0035352741507461071 -0.049025427723458401 0 0.0029190650385843074 -0.049157559028766069 0 0.0032431534739007797 -0.049092944242632865 0 0.003220150659301888 -0.049299299081150182 0 0.0034879308758672049 -0.049340485370801511 0 0.0035352741507461071 -0.049025427723458401 0 0.0040272158020270747 -0.049687989245827326 0 0.0029071891271016614 -0.049439989623233031 0 0.003220150659301888 -0.049299299081150182 0 0.0031752936557465335 -0.049529595939631972 0 0.0032431534739007797 -0.049092944242632865 0 0.003220150659301888 -0.049299299081150182 0 0.0034879308758672049 -0.049340485370801511 0 0.003220150659301888 -0.049299299081150182 0 0.0031752936557465335 -0.049529595939631972 0 0.0034334954251621632 -0.049588319218476028 0 0.003220150659301888 -0.049299299081150182 0 0.0034879308758672049 -0.049340485370801511 0 0.0034334954251621632 -0.049588319218476028 0 0.0032431534739007797 -0.049092944242632865 0 0.0034879308758672049 -0.049340485370801511 0 0.0035352741507461071 -0.049025427723458401 0 0.0017743252220370086 -0.062706044599921851 0 0.0018254039075531114 -0.064491709870077019 0 0.0017743252220370086 -0.062706044599921851 0 0.0030403367857645821 -0.066067807907778414 0 -0.0014867528968147826 -0.078672859885761851 0 -0.0024073754218362992 -0.07888040108355121 0 -0.00084143698956249476 -0.079755614413408296 0 -0.00127974769364896 -0.079399735055251441 0 -0.00084143698956249476 -0.079755614413408296 0 -0.00081868845507831209 -0.080038781954499441 0 -0.0014867528968147826 -0.078672859885761851 0 -0.00084143698956249476 -0.079755614413408296 0 -0.00071863710137173788 -0.078663501293235141 0 -0.00081868845507831209 -0.080038781954499441 0 -0.000318404148250705 -0.080093325008924604 0 -0.00021868423705121375 -0.079991905774056821 0 -0.00081868845507831209 -0.080038781954499441 0 -0.000318404148250705 -0.080093325008924604 0 -0.0005045382323854039 -0.08000924059529689 0 -0.00084143698956249476 -0.079755614413408296 0 -0.00081868845507831209 -0.080038781954499441 0 -0.0005045382323854039 -0.08000924059529689 0 0.0040272158020270747 -0.049687989245827326 0 0.0036022684448798145 -0.049998688984694013 0 0.0042107536118164927 -0.05048298636631416 0 0.0036022684448798145 -0.049998688984694013 0 0.0031357253341559414 -0.049800486636911494 0 0.0032735009805376076 -0.050261864389997336 0 0.0036022684448798145 -0.049998688984694013 0 0.0031357253341559414 -0.049800486636911494 0 0.0034334954251621632 -0.049588319218476028 0 0.0031357253341559414 -0.049800486636911494 0 0.0031752936557465335 -0.049529595939631972 0 0.0034334954251621632 -0.049588319218476028 0 0.0034879308758672049 -0.049340485370801511 0 0.0040272158020270747 -0.049687989245827326 0 0.0034334954251621632 -0.049588319218476028 0 0.0040272158020270747 -0.049687989245827326 0 0.0036022684448798145 -0.049998688984694013 0 0.0034334954251621632 -0.049588319218476028 0 -0.00043463872482271909 -0.080394925691526578 0 -0.00021028563144972492 -0.080103073499647751 0 0.00010103653980657458 -0.08016691707852848 0 -0.00043463872482271909 -0.080394925691526578 0 -0.00054197478586207862 -0.080092682657594866 0 -0.00021028563144972492 -0.080103073499647751 0 -0.00054197478586207862 -0.080092682657594866 0 -0.00021028563144972492 -0.080103073499647751 0 -0.0002942819829577816 -0.07995695743386462 0 -0.00021028563144972492 -0.080103073499647751 0 -0.000318404148250705 -0.080093325008924604 0 -0.0002942819829577816 -0.07995695743386462 0 -0.000318404148250705 -0.080093325008924604 0 -0.0005045382323854039 -0.08000924059529689 0 0.00010103653980657458 -0.08016691707852848 0 -0.00021028563144972492 -0.080103073499647751 0 -0.000318404148250705 -0.080093325008924604 0 0.00010103653980657458 -0.08016691707852848 0 0.00010103653980657458 -0.08016691707852848 0 -0.00027741057193455512 -0.079236371798535474 0 0.0014430267425345701 -0.077968072132929139 0 -0.0005045382323854039 -0.08000924059529689 0 0.00010103653980657458 -0.08016691707852848 0 -0.00027741057193455512 -0.079236371798535474 0 -0.00084143698956249476 -0.079755614413408296 0 -0.0005045382323854039 -0.08000924059529689 0 -0.00027741057193455512 -0.079236371798535474 0 -0.00084143698956249476 -0.079755614413408296 0 -0.00027741057193455512 -0.079236371798535474 0 -0.00071863710137173788 -0.078663501293235141 0 0.00038396882456935268 -0.079767685625150714 0 0.00050009551853713921 -0.079438560883716341 0 0.00010103653980657458 -0.08016691707852848 0 -2.4005813340170575e-05 -0.081766556815270786 0 -0.00057044048780611437 -0.081058560029612578 0 -0.00043463872482271909 -0.080394925691526578 0 0.00010103653980657458 -0.08016691707852848 0 -0.00057044048780611437 -0.081058560029612578 0 -2.4005813340170575e-05 -0.081766556815270786 0 -0.00051976121853338376 -0.081657096442934021 0 -0.00057044048780611437 -0.081058560029612578 0 0.0014430267425345701 -0.077968072132929139 0 -6.7752007268304784e-05 -0.077799975097147339 0 0.00073630237669871344 -0.076066420776144852 0 -2.4005813340170575e-05 -0.081766556815270786 0 -0.00049722022501440906 -0.082397299713140457 0 -0.00051976121853338376 -0.081657096442934021 0 0.00016451717810523828 -0.074962753373350122 0 0.00020699559663565881 -0.072839315878215391 0 -0.00071863710137173788 -0.078663501293235141 0 -6.7752007268304784e-05 -0.077799975097147339 0 -0.0013169411104157018 -0.07623562411040069 0 -0.00027741057193455512 -0.079236371798535474 0 -0.00071863710137173788 -0.078663501293235141 0 -6.7752007268304784e-05 -0.077799975097147339 0 -0.00027741057193455512 -0.079236371798535474 0 0.0014430267425345701 -0.077968072132929139 0 -6.7752007268304784e-05 -0.077799975097147339 0 -0.0013169411104157018 -0.07623562411040069 0 -0.00017051347416462324 -0.074814173721872976 0 0.00073630237669871344 -0.076066420776144852 0 -6.7752007268304784e-05 -0.077799975097147339 0 -0.0013169411104157018 -0.07623562411040069 0 0.00073630237669871344 -0.076066420776144852 0 0.00020699559663565881 -0.072839315878215391 0 0.00034070225938214149 -0.065319278344475984 0 -0.0013169411104157018 -0.07623562411040069 0 -0.00017051347416462324 -0.074814173721872976 0 -0.0016919590008508349 -0.073470660339798488 0 -0.00017051347416462324 -0.074814173721872976 0 0.00073630237669871344 -0.076066420776144852 0 0.0012155829910468004 -0.074603510135635459 0 0.0014430267425345701 -0.077968072132929139 0 0.00073630237669871344 -0.076066420776144852 0 0.0026853359591596715 -0.075121839565801762 0 0.00050009551853713921 -0.079438560883716341 0 0.00067746756462484803 -0.078584666852934054 0 -2.4005813340170575e-05 -0.081766556815270786 0 -0.00047632724821100386 -0.082871096178572995 0 -0.00049722022501440906 -0.082397299713140457 0 0.00073630237669871344 -0.076066420776144852 0 0.0026853359591596715 -0.075121839565801762 0 0.0012155829910468004 -0.074603510135635459 0 0.0026853359591596715 -0.075121839565801762 0 0.0012155829910468004 -0.074603510135635459 0 0.0020467247790838562 -0.073409134809622412 0 0.0012155829910468004 -0.074603510135635459 0 0.00060027561819393511 -0.073301015154535423 0 0.0020467247790838562 -0.073409134809622412 0 0.00060027561819393511 -0.073301015154535423 0 0.0020467247790838562 -0.073409134809622412 0 0.0018614633395065295 -0.071985776618042202 0 0.0020467247790838562 -0.073409134809622412 0 0.0018614633395065295 -0.071985776618042202 0 0.0039290124163676608 -0.071990102075581666 0 0.00060027561819393511 -0.073301015154535423 0 0.0018614633395065295 -0.071985776618042202 0 0.00018434992101902173 -0.0707231492168683 0 0.0018614633395065295 -0.071985776618042202 0 0.002395915145814389 -0.070194328321483701 0 0.0039290124163676608 -0.071990102075581666 0 0.0018614633395065295 -0.071985776618042202 0 0.002395915145814389 -0.070194328321483701 0 0.00018434992101902173 -0.0707231492168683 0 -0.00044014937175909419 -0.068294287165893308 0 0.00034070225938214149 -0.065319278344475984 0 1.6957433098747912e-05 -0.070380879587493506 0 -0.0020098431667972903 -0.073024617295108493 0 -0.0023468723826968749 -0.06890695508774497 0 0.00060027561819393511 -0.073301015154535423 0 0.00018434992101902173 -0.0707231492168683 0 -0.0016919590008508349 -0.073470660339798488 0 -0.00017051347416462324 -0.074814173721872976 0 0.00060027561819393511 -0.073301015154535423 0 -0.0016919590008508349 -0.073470660339798488 0 -0.00017051347416462324 -0.074814173721872976 0 0.0012155829910468004 -0.074603510135635459 0 0.00060027561819393511 -0.073301015154535423 0 0.00072987950961962526 -0.063014597948802709 0 0.00034070225938214149 -0.065319278344475984 0 0.0017830995609348346 -0.047627261532109347 0 0.0020315096672610874 -0.047153412819161779 0 0.0016087575175151077 -0.047249266517845438 0 0.0020315096672610874 -0.047153412819161779 0 0.0016087575175151077 -0.047249266517845438 0 0.0015465738675995856 -0.046796283374853198 0 0.0011381991637524833 -0.047272173609775522 0 0.0014165449012981182 -0.047627922353949442 0 0.0016087575175151077 -0.047249266517845438 0 0.0011381991637524833 -0.047272173609775522 0 0.0016087575175151077 -0.047249266517845438 0 0.0015465738675995856 -0.046796283374853198 0 0.0020315096672610874 -0.047153412819161779 0 0.0017027343059641776 -0.046628548906441018 0 0.0017879887094663007 -0.046505482907545068 0 0.0020315096672610874 -0.047153412819161779 0 0.0015465738675995856 -0.046796283374853198 0 0.0017027343059641776 -0.046628548906441018 0 0.00034070225938214149 -0.065319278344475984 0 -0.00012667000000575373 -0.058615459014704899 0 0.0017879887094663007 -0.046505482907545068 0 0.0017318865382425505 -0.04650342584528934 0 0.0016524452926409757 -0.046655362069291079 0 0.0017027343059641776 -0.046628548906441018 0 0.0017879887094663007 -0.046505482907545068 0 0.0017318865382425505 -0.04650342584528934 0 0.0015465738675995856 -0.046796283374853198 0 0.0017027343059641776 -0.046628548906441018 0 0.0014912479654690706 -0.046384268451954286 0 0.0012810849062764268 -0.04654187558815686 0 0.0015465738675995856 -0.046796283374853198 0 0.0014912479654690706 -0.046384268451954286 0 0.0017318865382425505 -0.04650342584528934 0 0.0014912479654690706 -0.046384268451954286 0 0.0014545541360756861 -0.046202877407072476 0 0.0017027343059641776 -0.046628548906441018 0 0.0017318865382425505 -0.04650342584528934 0 0.0014912479654690706 -0.046384268451954286 0 0.0017318865382425505 -0.04650342584528934 0 0.0014545541360756861 -0.046202877407072476 0 0.0014667910962301385 -0.045911703060916645 0 0.0016022913051707685 -0.046274138600688741 0 0.0015510540510111919 -0.04619385112284155 0 0.0017318865382425505 -0.04650342584528934 0 0.0016607347339236841 -0.046774638902147121 0 0.0016732458513284644 -0.046803653763277664 0 0.0016291848571267176 -0.04678382566832167 0 0.0016607347339236841 -0.046774638902147121 0 0.0016524452926409757 -0.046655362069291079 0 0.0015296415142844568 -0.04677258254348738 0 0.0017879887094663007 -0.046505482907545068 0 0.0016524452926409757 -0.046655362069291079 0 0.0017318865382425505 -0.04650342584528934 0 0.0016607347339236841 -0.046774638902147121 0 0.0016524452926409757 -0.046655362069291079 0 -0.00025029737073442923 -0.055768347157751398 0 -0.00012667000000575373 -0.058615459014704899 0 0.0015296415142844568 -0.04677258254348738 0 0.0016291848571267176 -0.04678382566832167 0 0.0016524452926409757 -0.046655362069291079 0 -0.0027156842383155473 -0.064597930974510206 0 -0.0023468723826968749 -0.06890695508774497 0 -0.00050930490995164401 -0.066674701175049797 0 -0.00024292668849853618 -0.064667666632108781 0 -0.0027156842383155473 -0.064597930974510206 0 -0.00050930490995164401 -0.066674701175049797 0 -0.00024292668849853618 -0.064667666632108781 0 -0.00050930490995164401 -0.066674701175049797 0 0.0012487083680656275 -0.06589301261416218 0 -0.00050930490995164401 -0.066674701175049797 0 0.0012487083680656275 -0.06589301261416218 0 0.0021764147989125596 -0.067746031958057687 0 0.0021291195578124885 -0.064464961444190921 0 0.0012487083680656275 -0.06589301261416218 0 0.0029245429916874531 -0.066329645017142488 0 0.0012487083680656275 -0.06589301261416218 0 0.0021764147989125596 -0.067746031958057687 0 0.0029245429916874531 -0.066329645017142488 0 -0.00050930490995164401 -0.066674701175049797 0 0.0021764147989125596 -0.067746031958057687 0 -0.00017297157871077931 -0.068432685611593255 0 0.002395915145814389 -0.070194328321483701 0 0.00018434992101902173 -0.0707231492168683 0 0.0021764147989125596 -0.067746031958057687 0 1.6957433098747912e-05 -0.070380879587493506 0 0.0021764147989125596 -0.067746031958057687 0 -0.00017297157871077931 -0.068432685611593255 0 -0.00044014937175909419 -0.068294287165893308 0 0.00014415345835593144 -0.068081381515379999 0 1.6957433098747912e-05 -0.070380879587493506 0 -0.0023468723826968749 -0.06890695508774497 0 -0.00017297157871077931 -0.068432685611593255 0 -0.0023468723826968749 -0.06890695508774497 0 -0.00050930490995164401 -0.066674701175049797 0 -0.00017297157871077931 -0.068432685611593255 0 -0.00062835226791519263 -0.083944936598830844 0 -0.00065310332195309411 -0.083944382924456815 0 -0.00062955671159889036 -0.083950745744304667 0 0.002395915145814389 -0.070194328321483701 0 0.0021764147989125596 -0.067746031958057687 0 0.0051739881159083585 -0.06866138883129945 0 -0.00041721047689153592 -0.072148558361044279 0 -0.00018433743185436604 -0.07761956677606964 0 0.0039048256862961178 -0.06488094975523212 0 0.0051739881159083585 -0.06866138883129945 0 0.0029245429916874531 -0.066329645017142488 0 0.0021764147989125596 -0.067746031958057687 0 0.0051739881159083585 -0.06866138883129945 0 0.0029245429916874531 -0.066329645017142488 0 0.0039048256862961178 -0.06488094975523212 0 0.0021291195578124885 -0.064464961444190921 0 0.0029245429916874531 -0.066329645017142488 0 -0.0012661231426572314 -0.079953481296069814 0 -0.00018433743185436604 -0.07761956677606964 0 -0.0025254384652167506 -0.076775714208890775 0 -0.0020568982078394927 -0.076780518733867487 0 -0.0022563283745026478 -0.076125186325860808 0 -0.00065811812360750158 -0.083940184141379021 0 -0.00062835226791519263 -0.083944936598830844 0 -0.00065310332195309411 -0.083944382924456815 0 -0.00067111539533044244 -0.083944607350188383 0 -0.00065811812360750158 -0.083940184141379021 0 -0.00065310332195309411 -0.083944382924456815 0 -0.00067111539533044244 -0.083944607350188383 0 -0.00065310332195309411 -0.083944382924456815 0 -0.00067725387616207123 -0.083930263149994258 0 -0.00067111539533044244 -0.083944607350188383 0 -0.00067725387616207123 -0.083930263149994258 0 -0.0006879924496796542 -0.083899570305298113 0 -0.00074521753681709333 -0.083262552423119363 0 -0.00045656230722038952 -0.084128163082865304 0 -0.00068834977078160856 -0.083946461739027409 0 -0.00074691019469512779 -0.083964047306555961 0 -0.0006879924496796542 -0.083899570305298113 0 -0.00067725387616207123 -0.083930263149994258 0 -0.00068834977078160856 -0.083946461739027409 0 -0.0006879924496796542 -0.083899570305298113 0 -0.00065310332195309411 -0.083944382924456815 0 -0.00068834977078160856 -0.083946461739027409 0 -0.00062955671159889036 -0.083950745744304667 0 -0.00065310332195309411 -0.083944382924456815 0 -0.00067725387616207123 -0.083930263149994258 0 -0.00068834977078160856 -0.083946461739027409 0 -0.00062955671159889036 -0.083950745744304667 0 -0.00069362599811209603 -0.083924815421104942 0 -0.00051725533842784087 -0.083921488214290532 0 -0.00068834977078160856 -0.083946461739027409 0 -0.00062955671159889036 -0.083950745744304667 0 -0.00069362599811209603 -0.083924815421104942 0 -0.00068834977078160856 -0.083946461739027409 0 -0.00069362599811209603 -0.083924815421104942 0 -0.00074691019469512779 -0.083964047306555961 0 -0.00069362599811209603 -0.083924815421104942 0 -0.00074691019469512779 -0.083964047306555961 0 -0.00087883815325852019 -0.08391634690180956 0 -0.00069362599811209603 -0.083924815421104942 0 -0.00065158914757674276 -0.083751166894679471 0 -0.00051725533842784087 -0.083921488214290532 0 -0.00069362599811209603 -0.083924815421104942 0 -0.00065158914757674276 -0.083751166894679471 0 -0.00087883815325852019 -0.08391634690180956 0 -0.00044630649002528808 -0.082740728594793742 0 -0.00054252800092034249 -0.082866506111400784 0 -0.00051988889001830193 -0.082982626494190345 0 -0.00044630649002528808 -0.082740728594793742 0 -0.00053983183787864163 -0.082826622943307129 0 -0.00054252800092034249 -0.082866506111400784 0 -0.00051619356347695658 -0.082536170369620701 0 -0.00044630649002528808 -0.082740728594793742 0 -0.00057398801714447507 -0.082719819195299513 0 -0.00062835226791519263 -0.083944936598830844 0 -0.00062955671159889036 -0.083950745744304667 0 -0.00051725533842784087 -0.083921488214290532 0 -0.00018433743185436604 -0.07761956677606964 0 0.00020095229656551025 -0.08219044918511216 0 -0.00018433743185436604 -0.07761956677606964 0 0.00067162585656548339 -0.077538639940619367 0 0.002395915145814389 -0.070194328321483701 0 0.0051739881159083585 -0.06866138883129945 0 0.0039290124163676608 -0.071990102075581666 0 0.0026853359591596715 -0.075121839565801762 0 0.0020467247790838562 -0.073409134809622412 0 0.0039290124163676608 -0.071990102075581666 0 0.00067746756462484803 -0.078584666852934054 0 0.00067162585656548339 -0.077538639940619367 0 -0.00044630649002528808 -0.082740728594793742 0 -0.00057398801714447507 -0.082719819195299513 0 -0.00053983183787864163 -0.082826622943307129 0 -0.00047632724821100386 -0.082871096178572995 0 -0.00057398801714447507 -0.082719819195299513 0 -0.00053983183787864163 -0.082826622943307129 0 -0.00047632724821100386 -0.082871096178572995 0 -0.00053983183787864163 -0.082826622943307129 0 -0.00056131976566419688 -0.082797317154828715 0 -0.00047632724821100386 -0.082871096178572995 0 -0.00056131976566419688 -0.082797317154828715 0 -0.00049722022501440906 -0.082397299713140457 0 -0.00056131976566419688 -0.082797317154828715 0 -0.00049722022501440906 -0.082397299713140457 0 -0.00047450597515929409 -0.083171362007628966 0 -0.00053983183787864163 -0.082826622943307129 0 -0.00056131976566419688 -0.082797317154828715 0 -0.00054252800092034249 -0.082866506111400784 0 -0.00044630649002528808 -0.082740728594793742 0 -0.00051988889001830193 -0.082982626494190345 0 -0.00049569088900927095 -0.083260641547732384 0 0.00020095229656551025 -0.08219044918511216 0 9.9501010613448334e-05 -0.082773768587503113 0 -0.00056131976566419688 -0.082797317154828715 0 -0.00051988889001830193 -0.082982626494190345 0 -0.00047450597515929409 -0.083171362007628966 0 -0.00056131976566419688 -0.082797317154828715 0 -0.00054252800092034249 -0.082866506111400784 0 -0.00051988889001830193 -0.082982626494190345 0 -0.00051988889001830193 -0.082982626494190345 0 -0.00047450597515929409 -0.083171362007628966 0 -0.00049569088900927095 -0.083260641547732384 0 -0.0017123126452343942 -0.081658281150906425 0 -0.0011810888129318391 -0.081628072020327389 0 -0.0014848512764737945 -0.081172632690804145 0 -0.0009616184072436981 -0.081420828575402865 0 -0.0011810888129318391 -0.081628072020327389 0 -0.0014848512764737945 -0.081172632690804145 0 -0.0017123126452343942 -0.081658281150906425 0 -0.0014848512764737945 -0.081172632690804145 0 -0.0019762337081108802 -0.081185015516739692 0 -0.00065133475184112445 -0.082573400861366317 0 -0.0010330228591959817 -0.082530750258518457 0 -0.00049722022501440906 -0.082397299713140457 0 -0.0017123126452343942 -0.081658281150906425 0 -0.0011810888129318391 -0.081628072020327389 0 -0.00049722022501440906 -0.082397299713140457 0 -0.0009616184072436981 -0.081420828575402865 0 -0.00051976121853338376 -0.081657096442934021 0 -0.00049722022501440906 -0.082397299713140457 0 -0.0009616184072436981 -0.081420828575402865 0 -0.0011810888129318391 -0.081628072020327389 0 -0.0009616184072436981 -0.081420828575402865 0 -0.00051976121853338376 -0.081657096442934021 0 -0.00057044048780611437 -0.081058560029612578 0 -0.0009616184072436981 -0.081420828575402865 0 -0.00057044048780611437 -0.081058560029612578 0 -0.00094248575193722078 -0.080651184085516359 0 -0.0009616184072436981 -0.081420828575402865 0 -0.00094248575193722078 -0.080651184085516359 0 -0.0014848512764737945 -0.081172632690804145 0 -0.00043463872482271909 -0.080394925691526578 0 -0.00057044048780611437 -0.081058560029612578 0 -0.00094248575193722078 -0.080651184085516359 0 -0.0014848512764737945 -0.081172632690804145 0 -0.0014112847966147751 -0.080550523116148978 0 -0.0018389548437836272 -0.080753665911998562 0 -0.00094248575193722078 -0.080651184085516359 0 -0.0014848512764737945 -0.081172632690804145 0 -0.0014112847966147751 -0.080550523116148978 0 -0.0014112847966147751 -0.080550523116148978 0 -0.0010843331735423166 -0.08014809250346859 0 -0.0017113177817551827 -0.080111088399800232 0 -0.0014112847966147751 -0.080550523116148978 0 -0.0018389548437836272 -0.080753665911998562 0 -0.0017113177817551827 -0.080111088399800232 0 -0.00054197478586207862 -0.080092682657594866 0 -0.00094248575193722078 -0.080651184085516359 0 -0.0010843331735423166 -0.08014809250346859 0 -0.00094248575193722078 -0.080651184085516359 0 -0.0014112847966147751 -0.080550523116148978 0 -0.0010843331735423166 -0.08014809250346859 0 -0.00043463872482271909 -0.080394925691526578 0 -0.00054197478586207862 -0.080092682657594866 0 -0.00094248575193722078 -0.080651184085516359 0 -0.0022371044111712288 -0.080406429674062585 0 -0.0028311652050672848 -0.080614406686840112 0 -0.0025925908385008986 -0.079869063160283471 0 -0.0022371044111712288 -0.080406429674062585 0 -0.0022760189103326477 -0.080898111281180504 0 -0.0028311652050672848 -0.080614406686840112 0 -0.0022371044111712288 -0.080406429674062585 0 -0.0018389548437836272 -0.080753665911998562 0 -0.0017113177817551827 -0.080111088399800232 0 -0.0022371044111712288 -0.080406429674062585 0 -0.0018389548437836272 -0.080753665911998562 0 -0.0022760189103326477 -0.080898111281180504 0 -0.0019762337081108802 -0.081185015516739692 0 -0.0022760189103326477 -0.080898111281180504 0 -0.002547080487095961 -0.081302583277679655 0 -0.0018389548437836272 -0.080753665911998562 0 -0.0019762337081108802 -0.081185015516739692 0 -0.0022760189103326477 -0.080898111281180504 0 -0.0014848512764737945 -0.081172632690804145 0 -0.0018389548437836272 -0.080753665911998562 0 -0.0019762337081108802 -0.081185015516739692 0 -0.0022760189103326477 -0.080898111281180504 0 -0.002547080487095961 -0.081302583277679655 0 -0.0028311652050672848 -0.080614406686840112 0 -0.0008740098703021161 -0.083163783494420496 0 -0.00078448874030824793 -0.083494840232613027 0 -0.0012020888533580188 -0.083294091390891653 0 -0.0010330228591959817 -0.082530750258518457 0 -0.0016639547907140531 -0.082519177716747244 0 -0.0017123126452343942 -0.081658281150906425 0 -0.0019762337081108802 -0.081185015516739692 0 -0.002547080487095961 -0.081302583277679655 0 -0.0008740098703021161 -0.083163783494420496 0 -0.00049569088900927095 -0.083260641547732384 0 -0.00078448874030824793 -0.083494840232613027 0 -0.00047450597515929409 -0.083171362007628966 0 -0.0008740098703021161 -0.083163783494420496 0 -0.00049569088900927095 -0.083260641547732384 0 -0.00065158914757674276 -0.083751166894679471 0 -0.00051725533842784087 -0.083921488214290532 0 -0.00049569088900927095 -0.083260641547732384 0 -0.00065158914757674276 -0.083751166894679471 0 -0.00049569088900927095 -0.083260641547732384 0 -0.00078448874030824793 -0.083494840232613027 0 -0.00065158914757674276 -0.083751166894679471 0 -0.00078448874030824793 -0.083494840232613027 0 -0.00087883815325852019 -0.08391634690180956 0 -0.00078448874030824793 -0.083494840232613027 0 -0.00087883815325852019 -0.08391634690180956 0 -0.0012020888533580188 -0.083294091390891653 0 -0.00087883815325852019 -0.08391634690180956 0 -0.00057687613120064945 -0.08464556751726085 0 -0.00063897025853347814 -0.084199095345209307 0 -0.00085669050578674117 -0.084176614938592478 0 -0.00088044227513199363 -0.084201274471123078 0 -0.00087883815325852019 -0.08391634690180956 0 -0.0014297025671370517 -0.083596300472949983 0 -0.0012020888533580188 -0.083294091390891653 0 -0.00057687613120064945 -0.08464556751726085 0 -0.00013929446022008344 -0.084997500236096785 0 -6.0623885856748903e-05 -0.084853555208870793 0 -0.00057687613120064945 -0.08464556751726085 0 -6.0623885856748903e-05 -0.084853555208870793 0 -0.00063897025853347814 -0.084199095345209307 0 -0.0015415132950182273 -0.083195738521590665 0 -0.0017286298362294528 -0.083124737238274321 0 -0.0018945002731681438 -0.08332739987393005 0 -0.00088044227513199363 -0.084201274471123078 0 -0.00081912306784563422 -0.084293672505986642 0 -0.0014297025671370517 -0.083596300472949983 0 -0.0015415132950182273 -0.083195738521590665 0 -0.0018945002731681438 -0.08332739987393005 0 -0.0015415132950182273 -0.083195738521590665 0 -0.0017286298362294528 -0.083124737238274321 0 -0.0015642310249309962 -0.083015573238462939 0 -0.0008740098703021161 -0.083163783494420496 0 -0.0012020888533580188 -0.083294091390891653 0 -0.0015602420229890736 -0.082984748085982329 0 -0.0014297025671370517 -0.083596300472949983 0 -0.0015415132950182273 -0.083195738521590665 0 -0.0012020888533580188 -0.083294091390891653 0 -0.0015415132950182273 -0.083195738521590665 0 -0.0012020888533580188 -0.083294091390891653 0 -0.0015602420229890736 -0.082984748085982329 0 -0.0016639547907140531 -0.082519177716747244 0 -0.0018128511636911677 -0.082833528317730429 0 -0.002547080487095961 -0.081302583277679655 0 -0.0034208569418647471 -0.081056565212069248 0 -0.0028311652050672848 -0.080614406686840112 0 -0.0018030254258182973 -0.082867225273358547 0 -0.0018128511636911677 -0.082833528317730429 0 -0.0017286298362294528 -0.083124737238274321 0 -0.0015642310249309962 -0.083015573238462939 0 -0.0019017506896321919 -0.083052687103856743 0 -0.0018128511636911677 -0.082833528317730429 0 -0.001676437352461246 -0.082602431480512301 0 -4.7747040558642913e-05 -0.084927007863570061 0 -3.1482646900355672e-05 -0.08497846770519174 0 -1.765890346494439e-05 -0.084953813440901499 0 -3.1482646900355672e-05 -0.08497846770519174 0 -8.3557998002323011e-06 -0.084985077159861838 0 -1.765890346494439e-05 -0.084953813440901499 0 -0.0034874462293524159 -0.080289797225081588 0 -0.0028311652050672848 -0.080614406686840112 0 -0.0031260004976057165 -0.079885643866257558 0 -0.0034208569418647471 -0.081056565212069248 0 -0.0034874462293524159 -0.080289797225081588 0 -0.0028311652050672848 -0.080614406686840112 0 -2.1310711095321043e-06 -0.084996818863780327 0 -2.2343114330228338e-09 -0.084999986914549977 0 -1.4170815649101623e-06 -0.084998207408658447 0 -2.1310711095321043e-06 -0.084996818863780327 0 -3.3572551696641496e-06 -0.084993238208072586 0 -2.0256447467495314e-06 -0.084996177856094576 0 -2.1310711095321043e-06 -0.084996818863780327 0 -2.2343114330228338e-09 -0.084999986914549977 0 -3.3572551696641496e-06 -0.084993238208072586 0 -0.00044820668071485106 -0.084567123583900117 0 -0.00047626295131868493 -0.084486329901334214 0 -8.3557998002323011e-06 -0.084985077159861838 0 1.3334004069892442e-05 -0.084951629045443566 0 -1.765890346494439e-05 -0.084953813440901499 0 -3.3572551696641496e-06 -0.084993238208072586 0 -8.3557998002323011e-06 -0.084985077159861838 0 -2.0256447467495314e-06 -0.084996177856094576 0 -4.7747040558642913e-05 -0.084927007863570061 0 -1.765890346494439e-05 -0.084953813440901499 0 1.7156766506686264e-05 -0.084945922658222095 0 -0.0018128511636911677 -0.082833528317730429 0 -0.00048758219926330304 -0.084451806773416543 0 -0.0015642310249309962 -0.083015573238462939 0 -0.0019017506896321919 -0.083052687103856743 0 -0.0021671490058641604 -0.082865959402275743 0 1.3334004069892442e-05 -0.084951629045443566 0 -1.765890346494439e-05 -0.084953813440901499 0 1.7156766506686264e-05 -0.084945922658222095 0 -0.0017286298362294528 -0.083124737238274321 0 -0.0019017506896321919 -0.083052687103856743 0 -0.0019195199533329473 -0.083153428392713294 0 -0.0019017506896321919 -0.083052687103856743 0 -0.0020995813955621634 -0.083088159615911331 0 -0.0019195199533329473 -0.083153428392713294 0 -0.0019017506896321919 -0.083052687103856743 0 -0.0020995813955621634 -0.083088159615911331 0 -0.0021671490058641604 -0.082865959402275743 0 -0.00048758219926330304 -0.084451806773416543 0 -0.00024629946500237483 -0.084660472525578248 0 -1.7131574584002142e-06 -0.084997084492998268 0 -1.4170815649101623e-06 -0.084998207408658447 0 -1.0308200232795268e-06 -0.084999092184951164 0 -0.0020995813955621634 -0.083088159615911331 0 -0.0021671490058641604 -0.082865959402275743 0 -0.0023240266350408427 -0.083104079728606145 0 -2.2343114330228338e-09 -0.084999986914549977 0 -1.4170815649101623e-06 -0.084998207408658447 0 -3.5319750988755258e-09 -0.08499999704917649 0 -2.0256447467495314e-06 -0.084996177856094576 0 -1.7131574584002142e-06 -0.084997084492998268 0 -1.4170815649101623e-06 -0.084998207408658447 0 -2.1310711095321043e-06 -0.084996818863780327 0 -2.0256447467495314e-06 -0.084996177856094576 0 -1.4170815649101623e-06 -0.084998207408658447 0 -0.00047626295131868493 -0.084486329901334214 0 -0.00048758219926330304 -0.084451806773416543 0 -1.4170815649101623e-06 -0.084998207408658447 0 -1.0308200232795268e-06 -0.084999092184951164 0 -3.5319750988755258e-09 -0.08499999704917649 0 -0.00024629946500237483 -0.084660472525578248 0 -5.2772756264046562e-07 -0.084998252092106485 0 -1.1588268902285708e-07 -0.084999671373097746 0 2.1991633172898495e-10 -0.084999998755698455 0 -3.7060746607879784e-10 -0.085000000062490047 0 -3.3329190232923671e-05 -0.085048204059626681 0 -3.9900591054684956e-08 -0.084999608075028862 0 -0.00013929446022008344 -0.084997500236096785 0 -0.00024629946500237483 -0.084660472525578248 0 -1.2281289212577345e-06 -0.084998828261362291 0 -3.9900591054684956e-08 -0.084999608075028862 0 -0.00013929446022008344 -0.084997500236096785 0 -6.0623885856748903e-05 -0.084853555208870793 0 -0.00024629946500237483 -0.084660472525578248 0 -0.00081912306784563422 -0.084293672505986642 0 -0.0020995813955621634 -0.083088159615911331 0 -0.0023240266350408427 -0.083104079728606145 0 -0.0018945002731681438 -0.08332739987393005 0 -0.0017286298362294528 -0.083124737238274321 0 -0.0019195199533329473 -0.083153428392713294 0 -0.0018945002731681438 -0.08332739987393005 0 -0.0020995813955621634 -0.083088159615911331 0 -0.0019195199533329473 -0.083153428392713294 0 -0.0018945002731681438 -0.08332739987393005 0 -3.9900591054684956e-08 -0.084999608075028862 0 -6.0623885856748903e-05 -0.084853555208870793 0 -2.0320145628314213e-08 -0.084999767438837873 0 -6.0623885856748903e-05 -0.084853555208870793 0 -4.6894035396804962e-05 -0.084981864532552395 0 -2.0320145628314213e-08 -0.084999767438837873 0 -0.00018225327150391373 -0.08460970628313301 0 -0.00028688286832796505 -0.08444705768706276 0 -6.0623885856748903e-05 -0.084853555208870793 0 -0.00063897025853347814 -0.084199095345209307 0 -0.0004836601014707764 -0.083969690888041987 0 -0.00074691019469512779 -0.083964047306555961 0 -0.00087883815325852019 -0.08391634690180956 0 -0.00063897025853347814 -0.084199095345209307 0 -0.00074691019469512779 -0.083964047306555961 0 -0.00063897025853347814 -0.084199095345209307 0 -0.0004836601014707764 -0.083969690888041987 0 -0.00028688286832796505 -0.08444705768706276 0 -0.00045656230722038952 -0.084128163082865304 0 -0.00074691019469512779 -0.083964047306555961 0 -0.0004836601014707764 -0.083969690888041987 0 -0.0006879924496796542 -0.083899570305298113 0 -4.6894035396804962e-05 -0.084981864532552395 0 -5.1851322455580848e-05 -0.084975630923167358 0 -0.00040548436719562586 -0.085117478054723153 0 -0.00057341093479971658 -0.084050419800338366 0 -0.00040548436719562586 -0.085117478054723153 0 -4.7898453146765203e-05 -0.084733143664678282 0 -0.00057341093479971658 -0.084050419800338366 0 -0.001525087842619286 -0.084228493510583077 0 -0.00040548436719562586 -0.085117478054723153 0 -5.1851322455580848e-05 -0.084975630923167358 0 -0.00040548436719562586 -0.085117478054723153 0 -4.7898453146765203e-05 -0.084733143664678282 0 -5.1851322455580848e-05 -0.084975630923167358 0 -4.7898453146765203e-05 -0.084733143664678282 0 -3.8411550927883706e-05 -0.084895176343606105 0 -4.6894035396804962e-05 -0.084981864532552395 0 -5.1851322455580848e-05 -0.084975630923167358 0 -2.0320145628314213e-08 -0.084999767438837873 0 -7.0647274940497699e-05 -0.084928579059137255 0 -3.8411550927883706e-05 -0.084895176343606105 0 -2.0320145628314213e-08 -0.084999767438837873 0 -5.1851322455580848e-05 -0.084975630923167358 0 -3.8411550927883706e-05 -0.084895176343606105 0 -2.0320145628314213e-08 -0.084999767438837873 0 5.3177820082887553e-05 -0.084959410764379337 0 3.5543829776608347e-05 -0.084986905917605354 0 4.2887058036104207e-05 -0.085003224658456708 0 -0.00015321399358044014 -0.084546913834101359 0 -0.00019378348963235845 -0.084329601909601412 0 3.0794562986043889e-05 -0.084974854198928348 0 1.9522580377052482e-05 -0.084987061415865484 0 1.7981703718839321e-05 -0.084962864274118283 0 1.9522580377052482e-05 -0.084987061415865484 0 1.5968221309258804e-06 -0.084982505629411287 0 1.7981703718839321e-05 -0.084962864274118283 0 3.0794562986043889e-05 -0.084974854198928348 0 5.3177820082887553e-05 -0.084959410764379337 0 3.5543829776608347e-05 -0.084986905917605354 0 3.0794562986043889e-05 -0.084974854198928348 0 5.3177820082887553e-05 -0.084959410764379337 0 1.7981703718839321e-05 -0.084962864274118283 0 3.5543829776608347e-05 -0.084986905917605354 0 2.7969633195776762e-05 -0.085000547646621002 0 4.2887058036104207e-05 -0.085003224658456708 0 3.5543829776608347e-05 -0.084986905917605354 0 1.9522580377052482e-05 -0.084987061415865484 0 2.7969633195776762e-05 -0.085000547646621002 0 3.0794562986043889e-05 -0.084974854198928348 0 3.5543829776608347e-05 -0.084986905917605354 0 1.9522580377052482e-05 -0.084987061415865484 0 1.9522580377052482e-05 -0.084987061415865484 0 1.6662071980910084e-05 -0.084998770245572758 0 2.7969633195776762e-05 -0.085000547646621002 0 1.9522580377052482e-05 -0.084987061415865484 0 1.6662071980910084e-05 -0.084998770245572758 0 8.8691625448503103e-06 -0.084991746128271553 0 1.6662071980910084e-05 -0.084998770245572758 0 8.8691625448503103e-06 -0.084991746128271553 0 1.2571340226965168e-06 -0.084998154251132343 0 1.9522580377052482e-05 -0.084987061415865484 0 8.8691625448503103e-06 -0.084991746128271553 0 1.5968221309258804e-06 -0.084982505629411287 0 8.8691625448503103e-06 -0.084991746128271553 0 1.2571340226965168e-06 -0.084998154251132343 0 1.5968221309258804e-06 -0.084982505629411287 0 5.4072591230307765e-10 -0.08500000946162875 0 1.5968221309258804e-06 -0.084982505629411287 0 -1.3116871607784686e-08 -0.084999854565197291 0 5.4072591230307765e-10 -0.08500000946162875 0 1.2571340226965168e-06 -0.084998154251132343 0 1.5968221309258804e-06 -0.084982505629411287 0 1.5968221309258804e-06 -0.084982505629411287 0 -1.3116871607784686e-08 -0.084999854565197291 0 5.5376285793717066e-06 -0.084955230844293628 0 1.5968221309258804e-06 -0.084982505629411287 0 5.5376285793717066e-06 -0.084955230844293628 0 1.7981703718839321e-05 -0.084962864274118283 0 5.5376285793717066e-06 -0.084955230844293628 0 2.4357548773339797e-05 -0.084916623734802521 0 6.8850045410529256e-06 -0.084901789946631598 0 2.4357548773339797e-05 -0.084916623734802521 0 6.0483542882675687e-05 -0.084964064923760949 0 5.8255161567675773e-05 -0.084799102959525322 0 5.5376285793717066e-06 -0.084955230844293628 0 1.7981703718839321e-05 -0.084962864274118283 0 2.4357548773339797e-05 -0.084916623734802521 0 5.3177820082887553e-05 -0.084959410764379337 0 1.7981703718839321e-05 -0.084962864274118283 0 2.4357548773339797e-05 -0.084916623734802521 0 5.3177820082887553e-05 -0.084959410764379337 0 2.4357548773339797e-05 -0.084916623734802521 0 6.0483542882675687e-05 -0.084964064923760949 0 5.8667175008183563e-06 -0.084669247885948595 0 0.00010238496058608844 -0.084464943954508709 0 5.8255161567675773e-05 -0.084799102959525322 0 -0.00028872254181078059 -0.084492416326778036 0 -0.00022184015049343103 -0.084620334391675642 0 5.8667175008183563e-06 -0.084669247885948595 0 1.6853167852462303e-05 -0.084523640055880422 0 -3.077825433220882e-05 -0.084529336273351172 0 1.6853167852462303e-05 -0.084523640055880422 0 -3.077825433220882e-05 -0.084529336273351172 0 -1.0063343946381733e-06 -0.084440580594965828 0 1.6853167852462303e-05 -0.084523640055880422 0 0.00010238496058608844 -0.084464943954508709 0 -1.0063343946381733e-06 -0.084440580594965828 0 5.8667175008183563e-06 -0.084669247885948595 0 1.6853167852462303e-05 -0.084523640055880422 0 0.00010238496058608844 -0.084464943954508709 0 5.8667175008183563e-06 -0.084669247885948595 0 -3.077825433220882e-05 -0.084529336273351172 0 -8.1606200066252781e-05 -0.084583088566496226 0 -3.077825433220882e-05 -0.084529336273351172 0 -9.8915310943098185e-05 -0.084442972605305575 0 -4.946256452859328e-05 -0.084447050211207769 0 -3.077825433220882e-05 -0.084529336273351172 0 -4.946256452859328e-05 -0.084447050211207769 0 -1.0063343946381733e-06 -0.084440580594965828 0 -9.8915310943098185e-05 -0.084442972605305575 0 -0.00015533956104403547 -0.084445102409554648 0 -8.1606200066252781e-05 -0.084583088566496226 0 -3.077825433220882e-05 -0.084529336273351172 0 -9.8915310943098185e-05 -0.084442972605305575 0 -8.1606200066252781e-05 -0.084583088566496226 0 -9.8915310943098185e-05 -0.084442972605305575 0 -5.9680874572685612e-05 -0.084379775262293608 0 -0.00011471506637613463 -0.08435762877049896 0 -5.9680874572685612e-05 -0.084379775262293608 0 -1.0063343946381733e-06 -0.084440580594965828 0 -1.1475854660765473e-06 -0.084352989298178901 0 -9.8915310943098185e-05 -0.084442972605305575 0 -4.946256452859328e-05 -0.084447050211207769 0 -5.9680874572685612e-05 -0.084379775262293608 0 -4.946256452859328e-05 -0.084447050211207769 0 -5.9680874572685612e-05 -0.084379775262293608 0 -1.0063343946381733e-06 -0.084440580594965828 0 -5.9680874572685612e-05 -0.084379775262293608 0 -1.1475854660765473e-06 -0.084352989298178901 0 -6.6421585349269482e-05 -0.084304471303563194 0 -0.00011471506637613463 -0.08435762877049896 0 -6.6421585349269482e-05 -0.084304471303563194 0 -0.00014268203340530748 -0.084286853544706802 0 -5.9680874572685612e-05 -0.084379775262293608 0 -0.00011471506637613463 -0.08435762877049896 0 -6.6421585349269482e-05 -0.084304471303563194 0 6.0483542882675687e-05 -0.084964064923760949 0 1.6097160534665014e-05 -0.0848625583567785 0 6.3756229071293324e-05 -0.08488495780675813 0 5.3177820082887553e-05 -0.084959410764379337 0 6.0483542882675687e-05 -0.084964064923760949 0 6.3756229071293324e-05 -0.08488495780675813 0 -0.00028872254181078059 -0.084492416326778036 0 -0.00053394982749301566 -0.0839596234979922 0 0.00010238496058608844 -0.084464943954508709 0 -1.1475854660765473e-06 -0.084352989298178901 0 5.0524041786339999e-05 -0.084278036646403445 0 0.00010238496058608844 -0.084464943954508709 0 -1.0063343946381733e-06 -0.084440580594965828 0 -1.1475854660765473e-06 -0.084352989298178901 0 5.0524041786339999e-05 -0.084278036646403445 0 -5.7104022235017376e-05 -0.084224104037458905 0 1.4144147452962589e-05 -0.084141507971668555 0 -0.00053394982749301566 -0.0839596234979922 0 -0.0011268133590363633 -0.082265674984889681 0 1.6097160534665014e-05 -0.0848625583567785 0 5.7878479892314869e-05 -0.084755725256683664 0 6.3756229071293324e-05 -0.08488495780675813 0 -1.1475854660765473e-06 -0.084352989298178901 0 5.0524041786339999e-05 -0.084278036646403445 0 -1.9252942206684474e-05 -0.084288441613853599 0 5.0524041786339999e-05 -0.084278036646403445 0 -1.9252942206684474e-05 -0.084288441613853599 0 -5.7104022235017376e-05 -0.084224104037458905 0 -6.6421585349269482e-05 -0.084304471303563194 0 -5.7104022235017376e-05 -0.084224104037458905 0 -0.00014268203340530748 -0.084286853544706802 0 -1.1475854660765473e-06 -0.084352989298178901 0 -1.9252942206684474e-05 -0.084288441613853599 0 -6.6421585349269482e-05 -0.084304471303563194 0 -1.9252942206684474e-05 -0.084288441613853599 0 -6.6421585349269482e-05 -0.084304471303563194 0 -5.7104022235017376e-05 -0.084224104037458905 0 -0.0013220082933624118 -0.081928804135916633 0 -0.0012555860157442654 -0.081127295056967655 0 -0.0033710390041783345 -0.077964449880286252 0 -0.0028477627134759812 -0.078359745392707417 0 -0.0025584454956534301 -0.07793021420486633 0 -5.7104022235017376e-05 -0.084224104037458905 0 2.9870828424298091e-07 -0.084132106576075463 0 -0.00016377772287333255 -0.084151402374664216 0 1.6097160534665014e-05 -0.0848625583567785 0 5.7878479892314869e-05 -0.084755725256683664 0 -1.6093990220449399e-05 -0.084697545037462865 0 -0.000341573837944041 -0.083457525116575684 0 -0.0011268133590363633 -0.082265674984889681 0 -0.000341573837944041 -0.083457525116575684 0 -0.00053164390891114821 -0.08288303584063883 0 -5.7104022235017376e-05 -0.084224104037458905 0 1.4144147452962589e-05 -0.084141507971668555 0 2.9870828424298091e-07 -0.084132106576075463 0 -0.0011268133590363633 -0.082265674984889681 0 -0.0013220082933624118 -0.081928804135916633 0 -0.0022609521917384291 -0.080561177397875938 0 -0.001980131452587003 -0.082402059907364822 0 9.4023144365787951e-05 -0.082369026913261409 0 -0.0011268133590363633 -0.082265674984889681 0 -0.0012152068123577858 -0.082022928420320051 0 -0.0012152068123577858 -0.082022928420320051 0 -0.0013220082933624118 -0.081928804135916633 0 -0.00096964670309072681 -0.081893277308959844 0 0.00027947944315576421 -0.082851740015297659 0 -0.00085552446233792118 -0.083085421538380805 0 -0.0012152068123577858 -0.082022928420320051 0 -0.00053164390891114821 -0.08288303584063883 0 0.00027947944315576421 -0.082851740015297659 0 0.0003121245377059884 -0.083066244936735478 0 -0.00085552446233792118 -0.083085421538380805 0 -6.2105166272470638e-06 -0.084994703947204889 0 -4.2462812816929497e-06 -0.084998140824596072 0 -5.6567292643511526e-06 -0.084996648872237499 0 -0.00053164390891114821 -0.08288303584063883 0 -0.00018154754373628891 -0.084045705835222473 0 -1.8911923830577405e-06 -0.084992453225470596 0 -3.1896421592109108e-07 -0.084996047573822106 0 -6.2585352273506734e-07 -0.084995716532263912 0 -1.7534953646251475e-06 -0.084993952207742821 0 -1.8911923830577405e-06 -0.084992453225470596 0 -6.2585352273506734e-07 -0.084995716532263912 0 -0.000341573837944041 -0.083457525116575684 0 -0.00019378348963235845 -0.084329601909601412 0 -0.000341573837944041 -0.083457525116575684 0 4.8593721757462797e-05 -0.084048076816194167 0 4.2783394254324629e-05 -0.085025847975045768 0 2.2823558310524418e-05 -0.085013690420870328 0 4.2887058036104207e-05 -0.085003224658456708 0 -1.7534953646251475e-06 -0.084993952207742821 0 -6.2585352273506734e-07 -0.084995716532263912 0 -2.1631869486492821e-07 -0.084997016479482559 0 -6.2585352273506734e-07 -0.084995716532263912 0 -2.1631869486492821e-07 -0.084997016479482559 0 2.9794358341245788e-07 -0.084998763012941556 0 1.6662071980910084e-05 -0.084998770245572758 0 2.2823558310524418e-05 -0.085013690420870328 0 2.7969633195776762e-05 -0.085000547646621002 0 2.2823558310524418e-05 -0.085013690420870328 0 2.7969633195776762e-05 -0.085000547646621002 0 4.2887058036104207e-05 -0.085003224658456708 0 5.4072591230307765e-10 -0.08500000946162875 0 2.9794358341245788e-07 -0.084998763012941556 0 7.1602282736265463e-10 -0.084999986692517612 0 5.4072591230307765e-10 -0.08500000946162875 0 1.2571340226965168e-06 -0.084998154251132343 0 2.9794358341245788e-07 -0.084998763012941556 0 1.2571340226965168e-06 -0.084998154251132343 0 -2.1631869486492821e-07 -0.084997016479482559 0 2.9794358341245788e-07 -0.084998763012941556 0 0.00013920332415312439 -0.084208536404570627 0 4.8593721757462797e-05 -0.084048076816194167 0 1.6662071980910084e-05 -0.084998770245572758 0 1.2571340226965168e-06 -0.084998154251132343 0 2.2823558310524418e-05 -0.085013690420870328 0 -0.00018154754373628891 -0.084045705835222473 0 -2.6152175173955625e-07 -0.084997205594185832 0 -3.1896421592109108e-07 -0.084996047573822106 0 2.9794358341245788e-07 -0.084998763012941556 0 7.1602282736265463e-10 -0.084999986692517612 0 -3.1896421592109108e-07 -0.084996047573822106 0 -6.2585352273506734e-07 -0.084995716532263912 0 2.9794358341245788e-07 -0.084998763012941556 0 -4.2462812816929497e-06 -0.084998140824596072 0 -2.8329552674750712e-09 -0.08499999999962235 0 -3.3552928037967405e-06 -0.084998280162011136 0 -2.8329552674750712e-09 -0.08499999999962235 0 -3.3552928037967405e-06 -0.084998280162011136 0 -3.3268426362634521e-09 -0.084999996586223051 0 -6.2105166272470638e-06 -0.084994703947204889 0 -5.6567292643511526e-06 -0.084996648872237499 0 -7.9698982436678222e-06 -0.084994850445318376 0 -4.2462812816929497e-06 -0.084998140824596072 0 -3.3552928037967405e-06 -0.084998280162011136 0 -5.6567292643511526e-06 -0.084996648872237499 0 -3.3552928037967405e-06 -0.084998280162011136 0 -5.6567292643511526e-06 -0.084996648872237499 0 -6.1490098249866731e-06 -0.084997005718037616 0 -5.6567292643511526e-06 -0.084996648872237499 0 -6.1490098249866731e-06 -0.084997005718037616 0 -7.9698982436678222e-06 -0.084994850445318376 0 -3.3552928037967405e-06 -0.084998280162011136 0 -6.1490098249866731e-06 -0.084997005718037616 0 -3.5565644691680447e-06 -0.084998286527455016 0 -6.1490098249866731e-06 -0.084997005718037616 0 -8.7403344352992742e-06 -0.084996629195271553 0 -7.9698982436678222e-06 -0.084994850445318376 0 -6.1490098249866731e-06 -0.084997005718037616 0 -8.7403344352992742e-06 -0.084996629195271553 0 -3.5565644691680447e-06 -0.084998286527455016 0 -3.3268426362634521e-09 -0.084999996586223051 0 -3.5565644691680447e-06 -0.084998286527455016 0 -2.1398427820281744e-09 -0.084999995728742991 0 -3.3552928037967405e-06 -0.084998280162011136 0 -3.3268426362634521e-09 -0.084999996586223051 0 -3.5565644691680447e-06 -0.084998286527455016 0 -3.5565644691680447e-06 -0.084998286527455016 0 -2.1398427820281744e-09 -0.084999995728742991 0 -4.0326725040589481e-06 -0.084995179775264065 0 -8.7403344352992742e-06 -0.084996629195271553 0 -4.0326725040589481e-06 -0.084995179775264065 0 -1.606109490305891e-05 -0.08499457307134238 0 -8.7403344352992742e-06 -0.084996629195271553 0 -3.5565644691680447e-06 -0.084998286527455016 0 -4.0326725040589481e-06 -0.084995179775264065 0 -3.3572551696641496e-06 -0.084993238208072586 0 -8.3557998002323011e-06 -0.084985077159861838 0 -4.0326725040589481e-06 -0.084995179775264065 0 -8.3557998002323011e-06 -0.084985077159861838 0 -4.0326725040589481e-06 -0.084995179775264065 0 -1.606109490305891e-05 -0.08499457307134238 0 -2.2343114330228338e-09 -0.084999986914549977 0 -2.1398427820281744e-09 -0.084999995728742991 0 -4.0326725040589481e-06 -0.084995179775264065 0 -2.2343114330228338e-09 -0.084999986914549977 0 -3.3572551696641496e-06 -0.084993238208072586 0 -4.0326725040589481e-06 -0.084995179775264065 0 -0.0028311652050672848 -0.080614406686840112 0 -0.0031260004976057165 -0.079885643866257558 0 -0.0025925908385008986 -0.079869063160283471 0 -0.0031260004976057165 -0.079885643866257558 0 -0.0028921367482437304 -0.079330685930247336 0 -0.0025925908385008986 -0.079869063160283471 0 -0.001676437352461246 -0.082602431480512301 0 -0.001505288849716419 -0.082313165080507761 0 -0.0034874462293524159 -0.080289797225081588 0 -0.0031260004976057165 -0.079885643866257558 0 -0.0035340281968094401 -0.079517364486677705 0 -3.1482646900355672e-05 -0.08497846770519174 0 -8.3557998002323011e-06 -0.084985077159861838 0 -1.606109490305891e-05 -0.08499457307134238 0 -0.0031260004976057165 -0.079885643866257558 0 -0.0035340281968094401 -0.079517364486677705 0 -0.0028921367482437304 -0.079330685930247336 0 -0.0035340281968094401 -0.079517364486677705 0 -0.0028921367482437304 -0.079330685930247336 0 -0.0032432840453428106 -0.079029772940702292 0 -0.0028921367482437304 -0.079330685930247336 0 -0.0029196746112871981 -0.078846466779325178 0 -0.0032432840453428106 -0.079029772940702292 0 -0.0029196746112871981 -0.078846466779325178 0 -0.0032432840453428106 -0.079029772940702292 0 -0.0032929712606491138 -0.078723703931797298 0 -0.0035340281968094401 -0.079517364486677705 0 -0.0032432840453428106 -0.079029772940702292 0 -0.0035506596329986395 -0.07879328572869243 0 -8.7403344352992742e-06 -0.084996629195271553 0 -1.606109490305891e-05 -0.08499457307134238 0 -7.9698982436678222e-06 -0.084994850445318376 0 -0.001505288849716419 -0.082313165080507761 0 -0.0011919988052992805 -0.082192907020770103 0 -0.0032432840453428106 -0.079029772940702292 0 -0.0032929712606491138 -0.078723703931797298 0 -0.0035506596329986395 -0.07879328572869243 0 -0.003384315406283955 -0.07807746241371491 0 -0.0033313347649471239 -0.078076135954081596 0 -0.0032929712606491138 -0.078723703931797298 0 -0.0012152068123577858 -0.082022928420320051 0 -0.0017467275740937099 -0.08022551779370371 0 -0.0035813156457618392 -0.078210952941276446 0 -0.0032929712606491138 -0.078723703931797298 0 -0.0035506596329986395 -0.07879328572869243 0 -0.0033727886166180299 -0.078208861366025659 0 -0.0035813156457618392 -0.078210952941276446 0 -0.0032929712606491138 -0.078723703931797298 0 -0.00053164390891114821 -0.08288303584063883 0 -0.0011919988052992805 -0.082192907020770103 0 -0.0013220082933624118 -0.081928804135916633 0 -0.0027140370066774462 -0.080052661053798074 0 -0.0033313347649471239 -0.078076135954081596 0 -0.0032929712606491138 -0.078723703931797298 0 -0.002830763780474756 -0.078447756295640894 0 -0.0029196746112871981 -0.078846466779325178 0 -0.0032929712606491138 -0.078723703931797298 0 -0.002830763780474756 -0.078447756295640894 0 -0.0027140370066774462 -0.080052661053798074 0 -0.0028389066192697648 -0.079715545018774855 0 -0.0028477627134759812 -0.078359745392707417 0 -0.002225480781612825 -0.078305780861212718 0 -0.0025584454956534301 -0.07793021420486633 0 -0.0028477627134759812 -0.078359745392707417 0 -0.002225480781612825 -0.078305780861212718 0 -0.0023067769771431719 -0.078792661231839325 0 -0.002225480781612825 -0.078305780861212718 0 -0.0023067769771431719 -0.078792661231839325 0 -0.0016856711869598848 -0.078567158090621869 0 -0.002225480781612825 -0.078305780861212718 0 -0.0016856711869598848 -0.078567158090621869 0 -0.0017111314700759878 -0.077879484419859854 0 -0.0023067769771431719 -0.078792661231839325 0 -0.001704329013946517 -0.07930781876474205 0 -0.0016856711869598848 -0.078567158090621869 0 -0.0029196746112871981 -0.078846466779325178 0 -0.002830763780474756 -0.078447756295640894 0 -0.0023067769771431719 -0.078792661231839325 0 -0.0028921367482437304 -0.079330685930247336 0 -0.0029196746112871981 -0.078846466779325178 0 -0.0023067769771431719 -0.078792661231839325 0 -0.0028921367482437304 -0.079330685930247336 0 -0.0023067769771431719 -0.078792661231839325 0 -0.002335593904639905 -0.079377763565697798 0 -0.0028921367482437304 -0.079330685930247336 0 -0.002335593904639905 -0.079377763565697798 0 -0.0025925908385008986 -0.079869063160283471 0 -0.0023067769771431719 -0.078792661231839325 0 -0.002335593904639905 -0.079377763565697798 0 -0.001704329013946517 -0.07930781876474205 0 -0.002335593904639905 -0.079377763565697798 0 -0.001704329013946517 -0.07930781876474205 0 -0.0020905612130730951 -0.079772351605496727 0 -0.0022371044111712288 -0.080406429674062585 0 -0.0020905612130730951 -0.079772351605496727 0 -0.0017113177817551827 -0.080111088399800232 0 -0.001704329013946517 -0.07930781876474205 0 -0.0020905612130730951 -0.079772351605496727 0 -0.0017113177817551827 -0.080111088399800232 0 -0.0022371044111712288 -0.080406429674062585 0 -0.0020905612130730951 -0.079772351605496727 0 -0.0025925908385008986 -0.079869063160283471 0 -0.002335593904639905 -0.079377763565697798 0 -0.0020905612130730951 -0.079772351605496727 0 -0.0025925908385008986 -0.079869063160283471 0 -0.00071174994734344785 -0.07983009019747897 0 -0.0012652795496621513 -0.079754728583930595 0 -0.0009956201504762363 -0.079378193931079685 0 -0.0010843331735423166 -0.08014809250346859 0 -0.00071174994734344785 -0.07983009019747897 0 -0.0012652795496621513 -0.079754728583930595 0 -0.00054197478586207862 -0.080092682657594866 0 -0.0010843331735423166 -0.08014809250346859 0 -0.00071174994734344785 -0.07983009019747897 0 -0.0010843331735423166 -0.08014809250346859 0 -0.0017113177817551827 -0.080111088399800232 0 -0.0012652795496621513 -0.079754728583930595 0 -0.001704329013946517 -0.07930781876474205 0 -0.0017113177817551827 -0.080111088399800232 0 -0.0012652795496621513 -0.079754728583930595 0 -0.001704329013946517 -0.07930781876474205 0 -0.0009956201504762363 -0.079378193931079685 0 -0.0010994156813765347 -0.078830385257071395 0 -0.001704329013946517 -0.07930781876474205 0 -0.0012652795496621513 -0.079754728583930595 0 -0.0009956201504762363 -0.079378193931079685 0 -0.0009956201504762363 -0.079378193931079685 0 -0.00067926650811187277 -0.079104074683480255 0 -0.00043009199319188714 -0.079635493897070378 0 -0.00071174994734344785 -0.07983009019747897 0 -0.0009956201504762363 -0.079378193931079685 0 -0.00043009199319188714 -0.079635493897070378 0 -0.0009956201504762363 -0.079378193931079685 0 -0.00067926650811187277 -0.079104074683480255 0 -0.0010994156813765347 -0.078830385257071395 0 -0.00067926650811187277 -0.079104074683480255 0 -0.0010994156813765347 -0.078830385257071395 0 -0.00045084347265172465 -0.078753760492336469 0 -0.0010994156813765347 -0.078830385257071395 0 -0.00055918398915122901 -0.078296160667439968 0 -0.00045084347265172465 -0.078753760492336469 0 -0.001704329013946517 -0.07930781876474205 0 -0.0010994156813765347 -0.078830385257071395 0 -0.0016856711869598848 -0.078567158090621869 0 -0.0016856711869598848 -0.078567158090621869 0 -0.0011832271110715641 -0.078275479861948341 0 -0.0017111314700759878 -0.077879484419859854 0 -0.0010994156813765347 -0.078830385257071395 0 -0.0016856711869598848 -0.078567158090621869 0 -0.0011832271110715641 -0.078275479861948341 0 -0.0010994156813765347 -0.078830385257071395 0 -0.0011832271110715641 -0.078275479861948341 0 -0.00055918398915122901 -0.078296160667439968 0 -0.0011832271110715641 -0.078275479861948341 0 -0.00083543579416524804 -0.077808390585258971 0 -0.00055918398915122901 -0.078296160667439968 0 -0.00028812426306045879 -0.084224186501752021 0 -0.00029208840470601357 -0.084235495453110765 0 -0.00027365392491357228 -0.084225924455186271 0 -0.00029208840470601357 -0.084235495453110765 0 -0.00027888532731887392 -0.084233691564587404 0 -0.00029616031386339947 -0.084251823985019375 0 -0.00029208840470601357 -0.084235495453110765 0 -0.00027888532731887392 -0.084233691564587404 0 -0.00027365392491357228 -0.084225924455186271 0 -0.00029208840470601357 -0.084235495453110765 0 -0.00026416704753323136 -0.084236193493607309 0 -0.00028536271190336086 -0.084261620789558844 0 -0.00029208840470601357 -0.084235495453110765 0 -0.0002740617154278465 -0.084191480021315893 0 -0.00026416704753323136 -0.084236193493607309 0 -0.00029208840470601357 -0.084235495453110765 0 -0.00029616031386339947 -0.084251823985019375 0 -0.00028536271190336086 -0.084261620789558844 0 -0.00028812426306045879 -0.084224186501752021 0 -0.00029208840470601357 -0.084235495453110765 0 -0.0002740617154278465 -0.084191480021315893 0 -0.00049149050372341728 -0.079242872807519654 0 -0.00093234826258445662 -0.080370655878666361 0 -0.0011832271110715641 -0.078275479861948341 0 -0.00083543579416524804 -0.077808390585258971 0 -0.0017111314700759878 -0.077879484419859854 0 -0.00093234826258445662 -0.080370655878666361 0 -0.0012555860157442654 -0.081127295056967655 0 -0.0002740617154278465 -0.084191480021315893 0 -0.00020000025345505982 -0.084223758574544061 0 -0.00026416704753323136 -0.084236193493607309 0 -0.002225480781612825 -0.078305780861212718 0 -0.0017111314700759878 -0.077879484419859854 0 -0.0025584454956534301 -0.07793021420486633 0 -0.0002740617154278465 -0.084191480021315893 0 -0.00016377772287333255 -0.084151402374664216 0 -0.00020000025345505982 -0.084223758574544061 0 -5.7104022235017376e-05 -0.084224104037458905 0 -0.00016377772287333255 -0.084151402374664216 0 -0.00020000025345505982 -0.084223758574544061 0 -5.7104022235017376e-05 -0.084224104037458905 0 -0.00020000025345505982 -0.084223758574544061 0 -0.00014268203340530748 -0.084286853544706802 0 -0.00020000025345505982 -0.084223758574544061 0 -0.00014268203340530748 -0.084286853544706802 0 -0.00023307165763957757 -0.084281648971113149 0 -0.00020000025345505982 -0.084223758574544061 0 -0.00026416704753323136 -0.084236193493607309 0 -0.00023307165763957757 -0.084281648971113149 0 -0.00026416704753323136 -0.084236193493607309 0 -0.00023307165763957757 -0.084281648971113149 0 -0.00028536271190336086 -0.084261620789558844 0 -0.00023307165763957757 -0.084281648971113149 0 -0.00026966223006459145 -0.084295531302293294 0 -0.00028536271190336086 -0.084261620789558844 0 -0.00023307165763957757 -0.084281648971113149 0 -0.00023451433801824627 -0.084327240932941347 0 -0.00017551598766369541 -0.084359800728687262 0 -0.00023307165763957757 -0.084281648971113149 0 -0.00023451433801824627 -0.084327240932941347 0 -0.00026966223006459145 -0.084295531302293294 0 -0.00023451433801824627 -0.084327240932941347 0 -0.00026966223006459145 -0.084295531302293294 0 -0.00027037795772488028 -0.084330504422603064 0 -0.00014268203340530748 -0.084286853544706802 0 -0.00023307165763957757 -0.084281648971113149 0 -0.00017551598766369541 -0.084359800728687262 0 -0.00011471506637613463 -0.08435762877049896 0 -0.00014268203340530748 -0.084286853544706802 0 -0.00017551598766369541 -0.084359800728687262 0 -0.00023451433801824627 -0.084327240932941347 0 -0.00017551598766369541 -0.084359800728687262 0 -0.00021332252734700412 -0.084395422975796705 0 -9.8915310943098185e-05 -0.084442972605305575 0 -0.00011471506637613463 -0.08435762877049896 0 -0.00017551598766369541 -0.084359800728687262 0 -0.00015533956104403547 -0.084445102409554648 0 -0.00017326267709198378 -0.084504750226633077 0 -8.1606200066252781e-05 -0.084583088566496226 0 -9.8915310943098185e-05 -0.084442972605305575 0 -0.00017551598766369541 -0.084359800728687262 0 -0.00015533956104403547 -0.084445102409554648 0 -0.00017551598766369541 -0.084359800728687262 0 -0.00015533956104403547 -0.084445102409554648 0 -0.00021332252734700412 -0.084395422975796705 0 -0.00015533956104403547 -0.084445102409554648 0 -0.00021332252734700412 -0.084395422975796705 0 -0.00017326267709198378 -0.084504750226633077 0 -0.00027037795772488028 -0.084330504422603064 0 -0.00021332252734700412 -0.084395422975796705 0 -0.00026269069500912398 -0.084412501099600079 0 -0.00023451433801824627 -0.084327240932941347 0 -0.00027037795772488028 -0.084330504422603064 0 -0.00021332252734700412 -0.084395422975796705 0 -0.00021332252734700412 -0.084395422975796705 0 -0.00026269069500912398 -0.084412501099600079 0 -0.00017326267709198378 -0.084504750226633077 0 -0.00027037795772488028 -0.084330504422603064 0 -0.00026269069500912398 -0.084412501099600079 0 -0.00030403709850921153 -0.084303579710843804 0 -0.0003454249260237922 -0.084227196065089785 0 -0.00028967671980187831 -0.084238450783198152 0 -0.00031148359505591983 -0.084273781471621317 0 -0.00026269069500912398 -0.084412501099600079 0 -0.00030403709850921153 -0.084303579710843804 0 -0.0003454249260237922 -0.084227196065089785 0 -0.00030403709850921153 -0.084303579710843804 0 -0.0003454249260237922 -0.084227196065089785 0 -0.00031148359505591983 -0.084273781471621317 0 -0.00027037795772488028 -0.084330504422603064 0 -0.00030403709850921153 -0.084303579710843804 0 -0.00031148359505591983 -0.084273781471621317 0 -0.0003454249260237922 -0.084227196065089785 0 -0.00028967671980187831 -0.084238450783198152 0 -0.00024489146086143475 -0.084182973176253131 0 -0.0003454249260237922 -0.084227196065089785 0 -0.00024489146086143475 -0.084182973176253131 0 -0.00033257719783460988 -0.084100564510959888 0 -0.00028967671980187831 -0.084238450783198152 0 -0.00029616031386339947 -0.084251823985019375 0 -0.00031148359505591983 -0.084273781471621317 0 -0.00028967671980187831 -0.084238450783198152 0 -0.00027888532731887392 -0.084233691564587404 0 -0.00029616031386339947 -0.084251823985019375 0 -0.00029616031386339947 -0.084251823985019375 0 -0.00028536271190336086 -0.084261620789558844 0 -0.00031148359505591983 -0.084273781471621317 0 -0.00026966223006459145 -0.084295531302293294 0 -0.00028536271190336086 -0.084261620789558844 0 -0.00031148359505591983 -0.084273781471621317 0 -0.00026966223006459145 -0.084295531302293294 0 -0.00027037795772488028 -0.084330504422603064 0 -0.00031148359505591983 -0.084273781471621317 0 -0.00023256057806563058 -0.084200607595322899 0 -0.00024622574057086351 -0.084212993801705216 0 -0.00024920836568232248 -0.084209664916137586 0 -0.00023256057806563058 -0.084200607595322899 0 -0.00024622574057086351 -0.084212993801705216 0 -0.00023036013689145394 -0.084205470784474254 0 -0.00028967671980187831 -0.084238450783198152 0 -0.00027888532731887392 -0.084233691564587404 0 -0.00024920836568232248 -0.084209664916137586 0 -0.00027888532731887392 -0.084233691564587404 0 -0.00024622574057086351 -0.084212993801705216 0 -0.00024920836568232248 -0.084209664916137586 0 -0.00024920836568232248 -0.084209664916137586 0 -0.00024489146086143475 -0.084182973176253131 0 -0.00023442501322891237 -0.084190767215594917 0 -0.00023948743794754968 -0.083509207294095431 0 -7.7144960774582158e-05 -0.083209245736641457 0 -0.00028967671980187831 -0.084238450783198152 0 -0.00024920836568232248 -0.084209664916137586 0 -0.00024489146086143475 -0.084182973176253131 0 -0.00023256057806563058 -0.084200607595322899 0 -0.00024920836568232248 -0.084209664916137586 0 -0.00023442501322891237 -0.084190767215594917 0 -7.7144960774582158e-05 -0.083209245736641457 0 0.00034513538051931451 -0.082629822529395089 0 -0.00023256057806563058 -0.084200607595322899 0 -0.00023442501322891237 -0.084190767215594917 0 -0.00021626721938317715 -0.084188444451184813 0 -0.00030074144789711809 -0.083625626880029752 0 1.127456987639258e-06 -0.083479336172752938 0 -0.00026124168611911432 -0.083473662996937481 0 7.3207600249411274e-06 -0.082770080007950095 0 0.00034233018894939439 -0.082491793099908867 0 -3.3359171340983384e-05 -0.082238306893298252 0 7.3207600249411274e-06 -0.082770080007950095 0 -3.3359171340983384e-05 -0.082238306893298252 0 -0.00028030308712656055 -0.082903287996569208 0 7.3207600249411274e-06 -0.082770080007950095 0 0.00034233018894939439 -0.082491793099908867 0 7.7279219075530045e-05 -0.083200639308198335 0 0.00034513538051931451 -0.082629822529395089 0 0.00032609524745196288 -0.082711102292381128 0 0.0012780354723619695 -0.082465134755281888 0 -3.3359171340983384e-05 -0.082238306893298252 0 0.00073550500649053956 -0.081458386334924665 0 0.00034513538051931451 -0.082629822529395089 0 0.00029238431949498681 -0.082600843321544395 0 0.00073550500649053956 -0.081458386334924665 0 0.00091222232666075083 -0.080288016118683858 0 -0.00087213823815627601 -0.081668114035189712 0 0.0012780354723619695 -0.082465134755281888 0 0.00073550500649053956 -0.081458386334924665 0 0.0014597389790824593 -0.079860949605237708 0 0.00034513538051931451 -0.082629822529395089 0 0.00072754570617988802 -0.080222893015047966 0 0.00073550500649053956 -0.081458386334924665 0 0.00091222232666075083 -0.080288016118683858 0 0.0014597389790824593 -0.079860949605237708 0 0.00091222232666075083 -0.080288016118683858 0 0.00061582826627962846 -0.079660740054803017 0 0.00031968431363655584 -0.079744096061844738 0 -0.00023256057806563058 -0.084200607595322899 0 -0.00021626721938317715 -0.084188444451184813 0 -0.00022431936265374615 -0.084198954381993749 0 -0.00021626721938317715 -0.084188444451184813 0 -0.00022431936265374615 -0.084198954381993749 0 -0.0002183328367319083 -0.084201814253076226 0 -0.00022431936265374615 -0.084198954381993749 0 -0.00023036013689145394 -0.084205470784474254 0 -0.0002183328367319083 -0.084201814253076226 0 -0.00023256057806563058 -0.084200607595322899 0 -0.00022431936265374615 -0.084198954381993749 0 -0.00023036013689145394 -0.084205470784474254 0 0.00072754570617988802 -0.080222893015047966 0 0.0015794570004306263 -0.072847131402150378 0 -0.00023036013689145394 -0.084205470784474254 0 -0.0002183328367319083 -0.084201814253076226 0 -0.00023267091098541423 -0.084210761841340034 0 -0.0002183328367319083 -0.084201814253076226 0 -0.00023267091098541423 -0.084210761841340034 0 -0.00021783409694979815 -0.084207400790184822 0 0.0014597389790824593 -0.079860949605237708 0 0.0010218185656339796 -0.079036192432473396 0 0.0015266187387324198 -0.078373545592317295 0 0.00061582826627962846 -0.079660740054803017 0 0.00068691212477991462 -0.07934785127423577 0 0.00035700999977558956 -0.079359249844067212 0 0.00091222232666075083 -0.080288016118683858 0 0.00061582826627962846 -0.079660740054803017 0 0.00093019278556828624 -0.079649717837856057 0 0.00061582826627962846 -0.079660740054803017 0 0.00093019278556828624 -0.079649717837856057 0 0.00068691212477991462 -0.07934785127423577 0 0.0014597389790824593 -0.079860949605237708 0 0.00093019278556828624 -0.079649717837856057 0 0.0010218185656339796 -0.079036192432473396 0 0.00091222232666075083 -0.080288016118683858 0 0.0014597389790824593 -0.079860949605237708 0 0.00093019278556828624 -0.079649717837856057 0 0.00068691212477991462 -0.07934785127423577 0 0.00038242553165852855 -0.078938443715522236 0 0.00035700999977558956 -0.079359249844067212 0 0.0010218185656339796 -0.079036192432473396 0 0.00068691212477991462 -0.07934785127423577 0 0.00038242553165852855 -0.078938443715522236 0 0.00093019278556828624 -0.079649717837856057 0 0.0010218185656339796 -0.079036192432473396 0 0.00068691212477991462 -0.07934785127423577 0 0.0018505121209498071 -0.069683286568147679 0 0.0011210764715154306 -0.070791665377830701 0 0.0010218185656339796 -0.079036192432473396 0 0.00082053971641859753 -0.078420806999191128 0 0.00038242553165852855 -0.078938443715522236 0 0.0010218185656339796 -0.079036192432473396 0 0.00082053971641859753 -0.078420806999191128 0 0.0015266187387324198 -0.078373545592317295 0 0.0018505121209498071 -0.069683286568147679 0 0.002621055624571472 -0.064455959562673457 0 0.0018505121209498071 -0.069683286568147679 0 0.0015794570004306263 -0.072847131402150378 0 0.0015751415782105452 -0.068211754213236678 0 -0.00052371841699422068 -0.068241683584868471 0 -0.00071159940056778114 -0.070500473521190252 0 0.0015794570004306263 -0.072847131402150378 0 0.00014802991683078405 -0.077124834399226919 0 0.0011007501820987345 -0.077666640823898209 0 0.00010310599768064202 -0.077725800784104279 0 0.00087455363550361948 -0.078126243980412804 0 -0.00023267091098541423 -0.084210761841340034 0 -0.00021783409694979815 -0.084207400790184822 0 -0.0002519601871651044 -0.084224880242894845 0 0.0015794570004306263 -0.072847131402150378 0 0.002621055624571472 -0.064455959562673457 0 -0.00024622574057086351 -0.084212993801705216 0 -0.00023267091098541423 -0.084210761841340034 0 -0.0002519601871651044 -0.084224880242894845 0 -0.00024622574057086351 -0.084212993801705216 0 -0.00023036013689145394 -0.084205470784474254 0 -0.00023267091098541423 -0.084210761841340034 0 -0.00027888532731887392 -0.084233691564587404 0 -0.00024622574057086351 -0.084212993801705216 0 -0.00027365392491357228 -0.084225924455186271 0 -0.00024622574057086351 -0.084212993801705216 0 -0.0002519601871651044 -0.084224880242894845 0 -0.00027365392491357228 -0.084225924455186271 0 -0.00049149050372341728 -0.079242872807519654 0 0.00014802991683078405 -0.077124834399226919 0 -0.00083543579416524804 -0.077808390585258971 0 0.00010310599768064202 -0.077725800784104279 0 -0.00055918398915122901 -0.078296160667439968 0 -0.00028812426306045879 -0.084224186501752021 0 -0.0002519601871651044 -0.084224880242894845 0 -0.00027365392491357228 -0.084225924455186271 0 0.00010310599768064202 -0.077725800784104279 0 -0.00055918398915122901 -0.078296160667439968 0 3.940605928738143e-06 -0.078436065683783474 0 -0.00055918398915122901 -0.078296160667439968 0 3.940605928738143e-06 -0.078436065683783474 0 -0.00045084347265172465 -0.078753760492336469 0 0.00010310599768064202 -0.077725800784104279 0 0.0003818641540901046 -0.078240800845859076 0 0.00087455363550361948 -0.078126243980412804 0 0.00010310599768064202 -0.077725800784104279 0 0.0003818641540901046 -0.078240800845859076 0 3.940605928738143e-06 -0.078436065683783474 0 0.0003818641540901046 -0.078240800845859076 0 3.940605928738143e-06 -0.078436065683783474 0 0.00054807947383067612 -0.07867448728381192 0 0.00054807947383067612 -0.07867448728381192 0 -8.5542180715126012e-05 -0.078881761967584826 0 6.5054594096633966e-05 -0.079143017064859891 0 3.940605928738143e-06 -0.078436065683783474 0 0.00054807947383067612 -0.07867448728381192 0 -8.5542180715126012e-05 -0.078881761967584826 0 0.0017886898436539943 -0.068070581543528241 0 0.0014869009581610908 -0.067128861331888834 0 0.0048361962719726294 -0.055045244932959661 0 0.0062317096535123521 -0.053583199005082523 0 0.0049413763259992961 -0.053300471507973089 0 0.0020617864485301799 -0.065993373311774323 0 0.0014869009581610908 -0.067128861331888834 0 3.940605928738143e-06 -0.078436065683783474 0 -0.00045084347265172465 -0.078753760492336469 0 -8.5542180715126012e-05 -0.078881761967584826 0 -8.5542180715126012e-05 -0.078881761967584826 0 -0.00034106681328635401 -0.079201165833640536 0 7.4240139818954179e-05 -0.079162227677545688 0 -0.00045084347265172465 -0.078753760492336469 0 -8.5542180715126012e-05 -0.078881761967584826 0 -0.00034106681328635401 -0.079201165833640536 0 -0.00067926650811187277 -0.079104074683480255 0 -0.00045084347265172465 -0.078753760492336469 0 -0.00034106681328635401 -0.079201165833640536 0 -0.00067926650811187277 -0.079104074683480255 0 -0.00043009199319188714 -0.079635493897070378 0 -0.00034106681328635401 -0.079201165833640536 0 -0.00043009199319188714 -0.079635493897070378 0 -0.00024232559281987302 -0.079518138392754747 0 -0.00028617942710635876 -0.079779241791278141 0 -0.00043009199319188714 -0.079635493897070378 0 -0.00034106681328635401 -0.079201165833640536 0 7.4240139818954179e-05 -0.079162227677545688 0 -0.00028436044783049106 -0.069923468249064424 0 0.0014869009581610908 -0.067128861331888834 0 0.0062317096535123521 -0.053583199005082523 0 0.0049413763259992961 -0.053300471507973089 0 0.0049653942261118208 -0.051344035750401258 0 0.0014869009581610908 -0.067128861331888834 0 0.0017943235273521394 -0.065810107296786935 0 -0.00024232559281987302 -0.079518138392754747 0 -0.00028617942710635876 -0.079779241791278141 0 -0.00021868423705121375 -0.079991905774056821 0 -0.00028617942710635876 -0.079779241791278141 0 -0.00021868423705121375 -0.079991905774056821 0 -0.0002942819829577816 -0.07995695743386462 0 -0.000318404148250705 -0.080093325008924604 0 -0.00021868423705121375 -0.079991905774056821 0 -0.0002942819829577816 -0.07995695743386462 0 -0.00054197478586207862 -0.080092682657594866 0 -0.00071174994734344785 -0.07983009019747897 0 -0.0002942819829577816 -0.07995695743386462 0 -0.00071174994734344785 -0.07983009019747897 0 -0.00043009199319188714 -0.079635493897070378 0 -0.0002942819829577816 -0.07995695743386462 0 -0.00043009199319188714 -0.079635493897070378 0 -0.00028617942710635876 -0.079779241791278141 0 -0.0002942819829577816 -0.07995695743386462 0 0.0037038693143624556 -0.050850767463757149 0 0.0032735009805376076 -0.050261864389997336 0 0.0026363351063862163 -0.050879469707102602 0 0.0037038693143624556 -0.050850767463757149 0 0.0032735009805376076 -0.050261864389997336 0 0.0037173943896530691 -0.050440044844685165 0 0.0036022684448798145 -0.049998688984694013 0 0.0032735009805376076 -0.050261864389997336 0 0.0037173943896530691 -0.050440044844685165 0 0.0039413383731398263 -0.052201536620587512 0 0.0037087405521924089 -0.054351410179534453 0 0.0036022684448798145 -0.049998688984694013 0 0.0037173943896530691 -0.050440044844685165 0 0.0042107536118164927 -0.05048298636631416 0 0.0018254039075531114 -0.064491709870077019 0 0.0017943235273521394 -0.065810107296786935 0 0.0037038693143624556 -0.050850767463757149 0 0.0037173943896530691 -0.050440044844685165 0 0.0042107536118164927 -0.05048298636631416 0 0.0040272158020270747 -0.049687989245827326 0 0.0049653942261118208 -0.051344035750401258 0 0.0042107536118164927 -0.05048298636631416 0 0.0037038693143624556 -0.050850767463757149 0 0.0042107536118164927 -0.05048298636631416 0 0.0039875774251432877 -0.05137862433751867 0 0.0049653942261118208 -0.051344035750401258 0 0.0042107536118164927 -0.05048298636631416 0 0.0037262905158551339 -0.053300647071566988 0 0.0049413763259992961 -0.053300471507973089 0 0.0049653942261118208 -0.051344035750401258 0 0.0037262905158551339 -0.053300647071566988 0 0.0037038693143624556 -0.050850767463757149 0 0.0033510362375842599 -0.051437463817120395 0 0.0026363351063862163 -0.050879469707102602 0 0.0037038693143624556 -0.050850767463757149 0 0.0039875774251432877 -0.05137862433751867 0 0.0033510362375842599 -0.051437463817120395 0 0.0033510362375842599 -0.051437463817120395 0 0.0035227285043404007 -0.052039278751970515 0 0.0029104812439774233 -0.052215686931410384 0 0.0039875774251432877 -0.05137862433751867 0 0.0033510362375842599 -0.051437463817120395 0 0.0035227285043404007 -0.052039278751970515 0 0.0039875774251432877 -0.05137862433751867 0 0.0035227285043404007 -0.052039278751970515 0 0.0038831922024727388 -0.052496804589827445 0 0.0037087405521924089 -0.054351410179534453 0 0.002621055624571472 -0.064455959562673457 0 0.0048361962719726294 -0.055045244932959661 0 0.0037262905158551339 -0.053300647071566988 0 0.0033259876168080654 -0.056591835220438876 0 0.0048361962719726294 -0.055045244932959661 0 0.0049413763259992961 -0.053300471507973089 0 0.0037262905158551339 -0.053300647071566988 0 0.00054807947383067612 -0.07867448728381192 0 0.0010548007472013857 -0.078170636561371729 0 0.00087455363550361948 -0.078126243980412804 0 0.0020617864485301799 -0.065993373311774323 0 0.002621055624571472 -0.064455959562673457 0 0.0003818641540901046 -0.078240800845859076 0 0.00054807947383067612 -0.07867448728381192 0 0.00087455363550361948 -0.078126243980412804 0 0.0011007501820987345 -0.077666640823898209 0 0.0010603728467909409 -0.078172689032967493 0 0.00087455363550361948 -0.078126243980412804 0 0.002621055624571472 -0.064455959562673457 0 0.0026580911351564537 -0.064593377528335022 0 0.0036901297742575334 -0.05338489569454255 0 0.0043003713230509106 -0.052776063199183126 0 0.0031700504508500537 -0.052414000421385429 0 0.0035227285043404007 -0.052039278751970515 0 0.0038831922024727388 -0.052496804589827445 0 0.0029104812439774233 -0.052215686931410384 0 0.002621055624571472 -0.064455959562673457 0 0.0017974106489086665 -0.058143449332148628 0 0.0029104812439774233 -0.052215686931410384 0 0.0018817969424121978 -0.051904234395639466 0 0.0026363351063862163 -0.050879469707102602 0 0.0033510362375842599 -0.051437463817120395 0 0.0029104812439774233 -0.052215686931410384 0 0.0026363351063862163 -0.050879469707102602 0 0.0031700504508500537 -0.052414000421385429 0 0.0020087301125770165 -0.052020596453298269 0 0.0024110905172774872 -0.053381888709064504 0 0.0020087301125770165 -0.052020596453298269 0 0.001484009034635496 -0.052684604034617243 0 0.0024110905172774872 -0.053381888709064504 0 0.0017974106489086665 -0.058143449332148628 0 0.0012285192646415727 -0.055287071689107549 0 0.0018817969424121978 -0.051904234395639466 0 0.0026363351063862163 -0.050879469707102602 0 0.0015018701341819986 -0.051134963440751822 0 0.0026363351063862163 -0.050879469707102602 0 0.0018858480834585522 -0.050501320816197029 0 0.0015018701341819986 -0.051134963440751822 0 0.002012540121388589 -0.049540996701328902 0 0.0026363351063862163 -0.050879469707102602 0 0.0018858480834585522 -0.050501320816197029 0 0.0018799004384671227 -0.049615494075998155 0 0.0022261124058547714 -0.050203389282080756 0 0.0027078449801016774 -0.049975958587335008 0 0.0019328926915134223 -0.049912332657808908 0 0.0026363351063862163 -0.050879469707102602 0 0.0027078449801016774 -0.049975958587335008 0 0.0032735009805376076 -0.050261864389997336 0 0.0026363351063862163 -0.050879469707102602 0 0.0008320388351359412 -0.049693400375381919 0 0.0011753949738112393 -0.050395782093364462 0 0.00022164566251368272 -0.050285391307172064 0 0.0011753949738112393 -0.050395782093364462 0 0.00072346844785840716 -0.050884085004453579 0 0.00022164566251368272 -0.050285391307172064 0 0.00015820216277175422 -0.049478811821156626 0 0.0008320388351359412 -0.049693400375381919 0 0.00022164566251368272 -0.050285391307172064 0 0.002012540121388589 -0.049540996701328902 0 0.0018858480834585522 -0.050501320816197029 0 0.0011753949738112393 -0.050395782093364462 0 0.0008320388351359412 -0.049693400375381919 0 0.002012540121388589 -0.049540996701328902 0 0.0011753949738112393 -0.050395782093364462 0 0.0011753949738112393 -0.050395782093364462 0 0.0015018701341819986 -0.051134963440751822 0 0.00072346844785840716 -0.050884085004453579 0 0.0018858480834585522 -0.050501320816197029 0 0.0011753949738112393 -0.050395782093364462 0 0.0015018701341819986 -0.051134963440751822 0 0.00072346844785840716 -0.050884085004453579 0 0.00015757881509536006 -0.051068831977612916 0 0.00022164566251368272 -0.050285391307172064 0 0.0015018701341819986 -0.051134963440751822 0 0.00072346844785840716 -0.050884085004453579 0 0.00078934104441544966 -0.051585063299741489 0 0.00072346844785840716 -0.050884085004453579 0 0.00078934104441544966 -0.051585063299741489 0 0.00015757881509536006 -0.051068831977612916 0 0.00078934104441544966 -0.051585063299741489 0 0.0007054468371791231 -0.052367803700612531 0 -5.819097102710399e-05 -0.051949466542280311 0 0.00078934104441544966 -0.051585063299741489 0 0.0011325639116693596 -0.052262967125666408 0 0.0007054468371791231 -0.052367803700612531 0 0.0012285192646415727 -0.055287071689107549 0 0.00082825916162402485 -0.054409542689148167 0 0.0018817969424121978 -0.051904234395639466 0 0.0015018701341819986 -0.051134963440751822 0 0.00078934104441544966 -0.051585063299741489 0 0.0020087301125770165 -0.052020596453298269 0 0.00078934104441544966 -0.051585063299741489 0 0.0011325639116693596 -0.052262967125666408 0 0.0020087301125770165 -0.052020596453298269 0 0.0011325639116693596 -0.052262967125666408 0 0.001484009034635496 -0.052684604034617243 0 0.0011325639116693596 -0.052262967125666408 0 0.001484009034635496 -0.052684604034617243 0 0.0010444139092268879 -0.052783033365719871 0 0.001484009034635496 -0.052684604034617243 0 0.0010444139092268879 -0.052783033365719871 0 0.0010687486340281967 -0.053389082098628006 0 0.0007054468371791231 -0.052367803700612531 0 0.00085082100062631354 -0.053252362000485824 0 -5.819097102710399e-05 -0.051949466542280311 0 9.1702298582595372e-05 -0.058591249940938242 0 -0.00069047725943434889 -0.055151516400469044 0 0.0007054468371791231 -0.052367803700612531 0 0.0010444139092268879 -0.052783033365719871 0 0.00085082100062631354 -0.053252362000485824 0 9.1702298582595372e-05 -0.058591249940938242 0 -0.0009981860985217091 -0.05319176555670236 0 0.0011325639116693596 -0.052262967125666408 0 0.0007054468371791231 -0.052367803700612531 0 0.0010444139092268879 -0.052783033365719871 0 0.00085630722241708697 -0.061085913397221407 0 -0.00023414744929948662 -0.063203347686772063 0 -0.0007319740678731995 -0.07877554963483667 0 -0.00078203240423582081 -0.078912807545003072 0 -0.0010484808730709576 -0.078707405490989452 0 0.0015662832517758653 -0.052746982247304404 0 0.0017724707831927209 -0.052886301515737699 0 0.00050979221132881568 -0.052873204442209658 0 0.0010444139092268879 -0.052783033365719871 0 0.00085082100062631354 -0.053252362000485824 0 0.0010687486340281967 -0.053389082098628006 0 9.1702298582595372e-05 -0.058591249940938242 0 0.00085630722241708697 -0.061085913397221407 0 -0.0007319740678731995 -0.07877554963483667 0 -0.00078203240423582081 -0.078912807545003072 0 -0.00068054039838460502 -0.078816692408481076 0 -0.00078203240423582081 -0.078912807545003072 0 -0.00065576319563672033 -0.079084923871833607 0 -0.00086871502238307938 -0.079137770249552652 0 -0.00078203240423582081 -0.078912807545003072 0 -0.00086871502238307938 -0.079137770249552652 0 -0.0010484808730709576 -0.078707405490989452 0 -0.00065576319563672033 -0.079084923871833607 0 -0.00042648241095062981 -0.079184217341001076 0 -0.0005779895616493556 -0.079293526639751047 0 -0.00078203240423582081 -0.078912807545003072 0 -0.00065576319563672033 -0.079084923871833607 0 -0.00067158523435009623 -0.078950128329128802 0 -0.00065576319563672033 -0.079084923871833607 0 -0.00067158523435009623 -0.078950128329128802 0 -0.00056020703223532168 -0.079001605196833469 0 -0.00065576319563672033 -0.079084923871833607 0 -0.00056020703223532168 -0.079001605196833469 0 -0.00042648241095062981 -0.079184217341001076 0 -0.00056020703223532168 -0.079001605196833469 0 -0.00038592195720109026 -0.078978175251199087 0 -0.00042648241095062981 -0.079184217341001076 0 0.00085630722241708697 -0.061085913397221407 0 0.0012015580012193587 -0.065549482133892834 0 -0.00076882455210301661 -0.07875669669880532 0 -0.00068054039838460502 -0.078816692408481076 0 -0.00021671276459105232 -0.078733579789503447 0 -0.00056020703223532168 -0.079001605196833469 0 -0.00068054039838460502 -0.078816692408481076 0 -0.00038592195720109026 -0.078978175251199087 0 0.001484009034635496 -0.052684604034617243 0 0.0010687486340281967 -0.053389082098628006 0 0.0024110905172774872 -0.053381888709064504 0 -0.00078203240423582081 -0.078912807545003072 0 -0.00067158523435009623 -0.078950128329128802 0 -0.00068054039838460502 -0.078816692408481076 0 -0.00067158523435009623 -0.078950128329128802 0 -0.00056020703223532168 -0.079001605196833469 0 -0.00068054039838460502 -0.078816692408481076 0 0.00085630722241708697 -0.061085913397221407 0 0.0010501068249842425 -0.061404209646071552 0 -0.00068054039838460502 -0.078816692408481076 0 -0.00021671276459105232 -0.078733579789503447 0 -0.00038592195720109026 -0.078978175251199087 0 -0.00021671276459105232 -0.078733579789503447 0 -5.8634524229417317e-05 -0.079212121966971208 0 -0.00038592195720109026 -0.078978175251199087 0 0.0018505121209498071 -0.069683286568147679 0 0.0012015580012193587 -0.065549482133892834 0 0.00063241562476528757 -0.078671688774860901 0 -0.00021671276459105232 -0.078733579789503447 0 0.00038242553165852855 -0.078938443715522236 0 -0.00021671276459105232 -0.078733579789503447 0 0.00038242553165852855 -0.078938443715522236 0 -5.8634524229417317e-05 -0.079212121966971208 0 0.0036901297742575334 -0.05338489569454255 0 0.0031700504508500537 -0.052414000421385429 0 0.0024110905172774872 -0.053381888709064504 0 -5.8634524229417317e-05 -0.079212121966971208 0 -0.00028779077360516724 -0.079449949947474952 0 0.00031968431363655584 -0.079744096061844738 0 0.00038242553165852855 -0.078938443715522236 0 -5.8634524229417317e-05 -0.079212121966971208 0 0.00035700999977558956 -0.079359249844067212 0 -5.8634524229417317e-05 -0.079212121966971208 0 0.00035700999977558956 -0.079359249844067212 0 0.00031968431363655584 -0.079744096061844738 0 0.00061582826627962846 -0.079660740054803017 0 0.00035700999977558956 -0.079359249844067212 0 0.00031968431363655584 -0.079744096061844738 0 -5.8634524229417317e-05 -0.079212121966971208 0 -0.00038592195720109026 -0.078978175251199087 0 -0.00042648241095062981 -0.079184217341001076 0 -5.8634524229417317e-05 -0.079212121966971208 0 -0.00042648241095062981 -0.079184217341001076 0 -0.00028779077360516724 -0.079449949947474952 0 -0.00035420436305995449 -0.079591036033198476 0 -0.0012201180273051784 -0.079012647277181228 0 -0.00042648241095062981 -0.079184217341001076 0 -0.00028779077360516724 -0.079449949947474952 0 -0.0005779895616493556 -0.079293526639751047 0 -0.00028779077360516724 -0.079449949947474952 0 -7.8606951035215653e-05 -0.07970714667680813 0 -0.00059531041503484616 -0.079466843415241475 0 -0.00028779077360516724 -0.079449949947474952 0 -7.8606951035215653e-05 -0.07970714667680813 0 0.00031968431363655584 -0.079744096061844738 0 0.00026966882611255882 -0.079646440266390839 0 -0.00035420436305995449 -0.079591036033198476 0 -3.3359171340983384e-05 -0.082238306893298252 0 0.00073550500649053956 -0.081458386334924665 0 -0.00087213823815627601 -0.081668114035189712 0 0.00091222232666075083 -0.080288016118683858 0 -7.8606951035215653e-05 -0.07970714667680813 0 0.00031968431363655584 -0.079744096061844738 0 -3.3359171340983384e-05 -0.082238306893298252 0 -0.00083543728183696139 -0.082598471768498979 0 -0.00028030308712656055 -0.082903287996569208 0 -3.3359171340983384e-05 -0.082238306893298252 0 -0.00087213823815627601 -0.081668114035189712 0 -0.00083543728183696139 -0.082598471768498979 0 -0.00087213823815627601 -0.081668114035189712 0 -0.00083543728183696139 -0.082598471768498979 0 -0.0014423422248437631 -0.08218297755360876 0 -0.00083543728183696139 -0.082598471768498979 0 -0.0014423422248437631 -0.08218297755360876 0 -0.0012490698669645108 -0.082780533528880873 0 -0.0012201180273051784 -0.079012647277181228 0 -0.0019297685707282679 -0.077350443282282147 0 -0.0014423422248437631 -0.08218297755360876 0 -0.0017547308925771161 -0.082791543275594626 0 -0.00192621509064182 -0.0824322718205871 0 -0.00059531041503484616 -0.079466843415241475 0 -0.00086871502238307938 -0.079137770249552652 0 -0.0009245797890870711 -0.079344521385678921 0 -0.00065576319563672033 -0.079084923871833607 0 -0.00086871502238307938 -0.079137770249552652 0 -0.0005779895616493556 -0.079293526639751047 0 -0.00059531041503484616 -0.079466843415241475 0 -0.00086871502238307938 -0.079137770249552652 0 -0.0005779895616493556 -0.079293526639751047 0 -0.00028779077360516724 -0.079449949947474952 0 -0.00059531041503484616 -0.079466843415241475 0 -0.0005779895616493556 -0.079293526639751047 0 -0.0014853559981356911 -0.083069013420277463 0 -0.0011428859324830447 -0.083270299527607575 0 -0.0012490698669645108 -0.082780533528880873 0 -0.0014853559981356911 -0.083069013420277463 0 -0.0011428859324830447 -0.083270299527607575 0 -0.0014579584229017146 -0.08340928278996336 0 -0.0014853559981356911 -0.083069013420277463 0 -0.001750491180037109 -0.083176955579422659 0 -0.0017547308925771161 -0.082791543275594626 0 -0.0014853559981356911 -0.083069013420277463 0 -0.001750491180037109 -0.083176955579422659 0 -0.0014579584229017146 -0.08340928278996336 0 -0.001750491180037109 -0.083176955579422659 0 -0.0017547308925771161 -0.082791543275594626 0 -0.0020085884551716573 -0.083035201412190965 0 -0.0014423422248437631 -0.08218297755360876 0 -0.0017547308925771161 -0.082791543275594626 0 -0.0012490698669645108 -0.082780533528880873 0 -0.0014853559981356911 -0.083069013420277463 0 -0.0017547308925771161 -0.082791543275594626 0 -0.0012490698669645108 -0.082780533528880873 0 -0.00083543728183696139 -0.082598471768498979 0 -0.00053099093525930084 -0.083072865731259479 0 -0.00084804440981128273 -0.083098665265891505 0 -0.00083543728183696139 -0.082598471768498979 0 -0.0012490698669645108 -0.082780533528880873 0 -0.00084804440981128273 -0.083098665265891505 0 -0.00083543728183696139 -0.082598471768498979 0 -0.00028030308712656055 -0.082903287996569208 0 -0.00053099093525930084 -0.083072865731259479 0 -0.00028030308712656055 -0.082903287996569208 0 -0.00053099093525930084 -0.083072865731259479 0 -0.00022718980917226395 -0.083295286119552128 0 -0.00053099093525930084 -0.083072865731259479 0 -0.00022718980917226395 -0.083295286119552128 0 -0.00051974163211961977 -0.083365890483831404 0 -0.00053099093525930084 -0.083072865731259479 0 -0.00051974163211961977 -0.083365890483831404 0 -0.00084804440981128273 -0.083098665265891505 0 -0.00051974163211961977 -0.083365890483831404 0 -0.00078007695990399027 -0.083465823739929348 0 -0.00050553378972260064 -0.083623705006045379 0 -0.00022718980917226395 -0.083295286119552128 0 -0.00051974163211961977 -0.083365890483831404 0 -0.00028153151443129304 -0.083587446214136316 0 -0.0011428859324830447 -0.083270299527607575 0 -0.0012490698669645108 -0.082780533528880873 0 -0.00084804440981128273 -0.083098665265891505 0 -0.00051974163211961977 -0.083365890483831404 0 -0.00084804440981128273 -0.083098665265891505 0 -0.00078007695990399027 -0.083465823739929348 0 -0.0011428859324830447 -0.083270299527607575 0 -0.00084804440981128273 -0.083098665265891505 0 -0.00078007695990399027 -0.083465823739929348 0 -0.0011428859324830447 -0.083270299527607575 0 -0.00078007695990399027 -0.083465823739929348 0 -0.0010519786736285217 -0.083637851451108899 0 -0.00078007695990399027 -0.083465823739929348 0 -0.0010519786736285217 -0.083637851451108899 0 -0.00063193655943743609 -0.083803362326168501 0 -0.00078007695990399027 -0.083465823739929348 0 -0.00063193655943743609 -0.083803362326168501 0 -0.00050553378972260064 -0.083623705006045379 0 -0.0010519786736285217 -0.083637851451108899 0 -0.00063193655943743609 -0.083803362326168501 0 -0.0007152993099909695 -0.084117327156998378 0 -0.00028153151443129304 -0.083587446214136316 0 -0.00035007417682307633 -0.083894287258896874 0 -0.00017641932893357811 -0.08401917533467898 0 -0.00028153151443129304 -0.083587446214136316 0 -0.00050553378972260064 -0.083623705006045379 0 -0.00035007417682307633 -0.083894287258896874 0 -0.00051974163211961977 -0.083365890483831404 0 -0.00028153151443129304 -0.083587446214136316 0 -0.00050553378972260064 -0.083623705006045379 0 -0.00063193655943743609 -0.083803362326168501 0 -0.00050553378972260064 -0.083623705006045379 0 -0.00035007417682307633 -0.083894287258896874 0 -0.00021533701040257029 -0.083752042186361259 0 -0.00028793056244642861 -0.083834298716235336 0 -0.00035007417682307633 -0.083894287258896874 0 -0.000332353790483127 -0.084178049510207562 0 -0.00017641932893357811 -0.08401917533467898 0 -0.000332353790483127 -0.084178049510207562 0 -0.00033485750221720021 -0.084049034186387275 0 -0.00017641932893357811 -0.08401917533467898 0 -0.00063193655943743609 -0.083803362326168501 0 -0.00035007417682307633 -0.083894287258896874 0 -0.000332353790483127 -0.084178049510207562 0 9.0895940984686969e-06 -0.084435396278631419 0 0.00081969736000176102 -0.084500606855691329 0 0.00029781527809147654 -0.083938234173299889 0 -0.00063193655943743609 -0.083803362326168501 0 -0.000332353790483127 -0.084178049510207562 0 -0.0007152993099909695 -0.084117327156998378 0 0.0007944289881083186 -0.075907337555630672 0 0.00072893128247347619 -0.075616309633469506 0 -0.000332353790483127 -0.084178049510207562 0 9.0895940984686969e-06 -0.084435396278631419 0 -4.2557319317869576e-05 -0.08410549195268914 0 -0.0010519786736285217 -0.083637851451108899 0 -0.0007152993099909695 -0.084117327156998378 0 -0.0014761380162087734 -0.083826635158850193 0 0.00072893128247347619 -0.075616309633469506 0 0.0012087444001332495 -0.074995553349913383 0 0.00072893128247347619 -0.075616309633469506 0 0.00076949953493629013 -0.074783262404647152 0 0.00058037444562758977 -0.071304122651491511 0 0.0015125134887835675 -0.071139727729493077 0 0.0016656111825431332 -0.071557175636335485 0 -0.0010519786736285217 -0.083637851451108899 0 -0.0014761380162087734 -0.083826635158850193 0 -0.0014579584229017146 -0.08340928278996336 0 -0.0011428859324830447 -0.083270299527607575 0 -0.0010519786736285217 -0.083637851451108899 0 -0.0014579584229017146 -0.08340928278996336 0 -0.0014761380162087734 -0.083826635158850193 0 -0.0017901554520762535 -0.083506630760933523 0 -0.0021350836305263376 -0.083527736536246316 0 0.00076949953493629013 -0.074783262404647152 0 0.00094831028445249222 -0.072140802104199694 0 -0.001750491180037109 -0.083176955579422659 0 -0.0017901554520762535 -0.083506630760933523 0 -0.0019670358526378386 -0.083259322999826191 0 -0.001750491180037109 -0.083176955579422659 0 -0.0014579584229017146 -0.08340928278996336 0 -0.0017901554520762535 -0.083506630760933523 0 -0.0014761380162087734 -0.083826635158850193 0 -0.0014579584229017146 -0.08340928278996336 0 -0.0017901554520762535 -0.083506630760933523 0 0.0016656111825431332 -0.071557175636335485 0 0.002450480861643501 -0.070975212326401707 0 0.0027572130195509729 -0.071811899034468024 0 0.0015125134887835675 -0.071139727729493077 0 0.0016656111825431332 -0.071557175636335485 0 0.002450480861643501 -0.070975212326401707 0 0.0012087444001332495 -0.074995553349913383 0 0.0023758428502066941 -0.073105383135312646 0 0.00081969736000176102 -0.084500606855691329 0 0.00097920380996593774 -0.083780560340069851 0 0.0016730105694625879 -0.08450604825179979 0 0.00097920380996593774 -0.083780560340069851 0 0.0016730105694625879 -0.08450604825179979 0 0.0018659747103908528 -0.08387840421057291 0 0.00081969736000176102 -0.084500606855691329 0 0.00097920380996593774 -0.083780560340069851 0 0.00029781527809147654 -0.083938234173299889 0 0.00097920380996593774 -0.083780560340069851 0 0.00010486013277446862 -0.083313915559516644 0 0.00029781527809147654 -0.083938234173299889 0 0.00097920380996593774 -0.083780560340069851 0 0.00080994945280323568 -0.082962949915664191 0 0.00010486013277446862 -0.083313915559516644 0 0.00097920380996593774 -0.083780560340069851 0 0.0014945387652652931 -0.083257179412883159 0 0.00080994945280323568 -0.082962949915664191 0 0.00097920380996593774 -0.083780560340069851 0 0.0014945387652652931 -0.083257179412883159 0 0.0018659747103908528 -0.08387840421057291 0 0.0014945387652652931 -0.083257179412883159 0 0.00080994945280323568 -0.082962949915664191 0 0.0014234439680306332 -0.082530903558002383 0 0.00080994945280323568 -0.082962949915664191 0 0.00014375605120269216 -0.082725750028155923 0 0.00079196003844453236 -0.082224842502161125 0 0.00080994945280323568 -0.082962949915664191 0 0.0014234439680306332 -0.082530903558002383 0 0.00079196003844453236 -0.082224842502161125 0 0.0014234439680306332 -0.082530903558002383 0 0.0013973817148729875 -0.081982172461155481 0 0.00079196003844453236 -0.082224842502161125 0 -0.00039091833935806381 -0.08253622086542764 0 0.00014375605120269216 -0.082725750028155923 0 0.0001101239688350545 -0.081975894357767934 0 0.00014375605120269216 -0.082725750028155923 0 0.0001101239688350545 -0.081975894357767934 0 0.00079196003844453236 -0.082224842502161125 0 0.00080994945280323568 -0.082962949915664191 0 0.00014375605120269216 -0.082725750028155923 0 0.00010486013277446862 -0.083313915559516644 0 -0.00039091833935806381 -0.08253622086542764 0 0.00014375605120269216 -0.082725750028155923 0 -0.00041341535634094887 -0.083312289050652702 0 0.00014375605120269216 -0.082725750028155923 0 0.00010486013277446862 -0.083313915559516644 0 -0.00041341535634094887 -0.083312289050652702 0 -0.00011534720814472954 -0.083600310160376168 0 -0.00021533701040257029 -0.083752042186361259 0 0.00010486013277446862 -0.083313915559516644 0 -0.00023017253691539054 -0.083749111559019651 0 -0.00041341535634094887 -0.083312289050652702 0 0.00010486013277446862 -0.083313915559516644 0 0.00029781527809147654 -0.083938234173299889 0 -0.00033485750221720021 -0.084049034186387275 0 0.00029781527809147654 -0.083938234173299889 0 -4.2557319317869576e-05 -0.08410549195268914 0 -0.00033485750221720021 -0.084049034186387275 0 9.0895940984686969e-06 -0.084435396278631419 0 0.00029781527809147654 -0.083938234173299889 0 -4.2557319317869576e-05 -0.08410549195268914 0 -0.000332353790483127 -0.084178049510207562 0 -4.2557319317869576e-05 -0.08410549195268914 0 -0.00033485750221720021 -0.084049034186387275 0 -0.00053077896385317542 -0.083818114199771115 0 -0.00079949579979504139 -0.08357571568538541 0 -0.00053509975745115186 -0.084027252410860537 0 -0.00023017253691539054 -0.083749111559019651 0 -0.00053077896385317542 -0.083818114199771115 0 -0.00041341535634094887 -0.083312289050652702 0 -0.00030745715104415187 -0.084061730045269664 0 -0.00045983880502605256 -0.084076783997554527 0 -0.00053509975745115186 -0.084027252410860537 0 -0.00050590873966655577 -0.08357096089564657 0 -0.00051599080302959987 -0.083752257596775001 0 -0.00050590873966655577 -0.08357096089564657 0 -0.00046875752154554274 -0.0830681845750115 0 -0.00079949579979504139 -0.08357571568538541 0 -0.00041341535634094887 -0.083312289050652702 0 -0.00093293275868992277 -0.082839025518424425 0 -0.00053077896385317542 -0.083818114199771115 0 -0.00079949579979504139 -0.08357571568538541 0 -0.00041341535634094887 -0.083312289050652702 0 -0.00039091833935806381 -0.08253622086542764 0 -0.00041341535634094887 -0.083312289050652702 0 -0.00093293275868992277 -0.082839025518424425 0 -7.4545138341776496e-05 -0.083570239875720209 0 -0.00041925458906475881 -0.083118041986717739 0 -0.00050717484931333526 -0.083852670115870484 0 -0.00030745715104415187 -0.084061730045269664 0 -7.4545138341776496e-05 -0.083570239875720209 0 -0.00050717484931333526 -0.083852670115870484 0 -7.4545138341776496e-05 -0.083570239875720209 0 -0.00041925458906475881 -0.083118041986717739 0 -0.00020641897147552639 -0.08272154358209427 0 -0.00046875752154554274 -0.0830681845750115 0 -0.00039938368622906024 -0.082393478652816252 0 -7.4545138341776496e-05 -0.083570239875720209 0 -0.00020641897147552639 -0.08272154358209427 0 -6.1906731496504984e-05 -0.082645070444239827 0 -0.00093293275868992277 -0.082839025518424425 0 -0.00070004186277840546 -0.082366823371348138 0 -0.00097930918831838805 -0.081999716561826225 0 -0.00039091833935806381 -0.08253622086542764 0 -0.00093293275868992277 -0.082839025518424425 0 -0.00070004186277840546 -0.082366823371348138 0 -0.00039091833935806381 -0.08253622086542764 0 -0.00070004186277840546 -0.082366823371348138 0 -0.00049347839737046107 -0.08208344513377655 0 -0.00076724237555908406 -0.083803006560108834 0 -0.0007104629332071663 -0.0839987633550765 0 -0.00069085523262731637 -0.083132151001064067 0 -0.000826488138379394 -0.083983014612086446 0 -0.001442436943017895 -0.083200836743265547 0 -0.00069085523262731637 -0.083132151001064067 0 -0.0010966599002763598 -0.082826238248355916 0 -0.00092783156854494848 -0.082651982389293804 0 -0.00069085523262731637 -0.083132151001064067 0 -0.00041925458906475881 -0.083118041986717739 0 -0.0006195395720941687 -0.082742013932517774 0 -0.00069085523262731637 -0.083132151001064067 0 -0.00041925458906475881 -0.083118041986717739 0 -0.00050717484931333526 -0.083852670115870484 0 -0.00050717484931333526 -0.083852670115870484 0 -0.000826488138379394 -0.083983014612086446 0 -0.00063568795182825869 -0.084086754930290677 0 -0.00069085523262731637 -0.083132151001064067 0 -0.00050717484931333526 -0.083852670115870484 0 -0.000826488138379394 -0.083983014612086446 0 -0.00050717484931333526 -0.083852670115870484 0 -0.00063568795182825869 -0.084086754930290677 0 -0.00050586703152323087 -0.084092529576953109 0 -0.00030745715104415187 -0.084061730045269664 0 -0.00050717484931333526 -0.083852670115870484 0 -0.00050586703152323087 -0.084092529576953109 0 -0.00030745715104415187 -0.084061730045269664 0 -0.00050586703152323087 -0.084092529576953109 0 -0.00045983880502605256 -0.084076783997554527 0 -0.00063568795182825869 -0.084086754930290677 0 -0.00050586703152323087 -0.084092529576953109 0 -0.00052677920127840443 -0.084120939949811957 0 -0.00050586703152323087 -0.084092529576953109 0 -0.00045610354807181576 -0.084078087535345389 0 -0.00052677920127840443 -0.084120939949811957 0 -0.00045610354807181576 -0.084078087535345389 0 -0.00039687393502146575 -0.084015087863638593 0 -0.00044973186942286766 -0.084096902044500127 0 -0.00045610354807181576 -0.084078087535345389 0 -0.00044973186942286766 -0.084096902044500127 0 -0.00052677920127840443 -0.084120939949811957 0 -0.00045610354807181576 -0.084078087535345389 0 -0.00039687393502146575 -0.084015087863638593 0 -0.00040552238877441957 -0.083984540558367293 0 -0.00039687393502146575 -0.084015087863638593 0 -0.00040552238877441957 -0.083984540558367293 0 -0.00034220466052889057 -0.083866238997400991 0 -0.00040552238877441957 -0.083984540558367293 0 -0.00045983880502605256 -0.084076783997554527 0 -0.00046460651972126142 -0.083961762617268815 0 -0.00040552238877441957 -0.083984540558367293 0 -0.00046460651972126142 -0.083961762617268815 0 -0.00034808448214770059 -0.083808196022179773 0 -0.00045610354807181576 -0.084078087535345389 0 -0.00040552238877441957 -0.083984540558367293 0 -0.00045983880502605256 -0.084076783997554527 0 -0.00050586703152323087 -0.084092529576953109 0 -0.00045610354807181576 -0.084078087535345389 0 -0.00045983880502605256 -0.084076783997554527 0 -0.00045983880502605256 -0.084076783997554527 0 -0.00053509975745115186 -0.084027252410860537 0 -0.00046460651972126142 -0.083961762617268815 0 -0.00053077896385317542 -0.083818114199771115 0 -0.00053509975745115186 -0.084027252410860537 0 -0.00050156321460830087 -0.084018586447702354 0 -0.00023017253691539054 -0.083749111559019651 0 -0.00053077896385317542 -0.083818114199771115 0 -0.00050156321460830087 -0.084018586447702354 0 -0.00053509975745115186 -0.084027252410860537 0 -0.00050156321460830087 -0.084018586447702354 0 -0.00056551593004331682 -0.083896504852245229 0 -0.00028153151443129304 -0.083587446214136316 0 -0.00017641932893357811 -0.08401917533467898 0 4.2732366944661976e-05 -0.083416149360952457 0 -0.00028793056244642861 -0.083834298716235336 0 -0.00027202247717066167 -0.083742103018770858 0 -0.00053509975745115186 -0.084027252410860537 0 -0.00046460651972126142 -0.083961762617268815 0 -0.00056551593004331682 -0.083896504852245229 0 -0.00046460651972126142 -0.083961762617268815 0 -0.00056551593004331682 -0.083896504852245229 0 -0.00034808448214770059 -0.083808196022179773 0 -0.00027202247717066167 -0.083742103018770858 0 -0.00025625039093369364 -0.083678942294329067 0 4.2732366944661976e-05 -0.083416149360952457 0 -1.8416612815817756e-05 -0.083303440523928976 0 -0.00026124168611911432 -0.083473662996937481 0 -0.00056551593004331682 -0.083896504852245229 0 -0.00026124168611911432 -0.083473662996937481 0 -0.00034808448214770059 -0.083808196022179773 0 -0.00022718980917226395 -0.083295286119552128 0 -0.00028153151443129304 -0.083587446214136316 0 4.2732366944661976e-05 -0.083416149360952457 0 -0.00022718980917226395 -0.083295286119552128 0 4.2732366944661976e-05 -0.083416149360952457 0 -1.8416612815817756e-05 -0.083303440523928976 0 -0.00022718980917226395 -0.083295286119552128 0 -9.1798407097977281e-05 -0.083167490446046197 0 -1.8416612815817756e-05 -0.083303440523928976 0 -0.00028030308712656055 -0.082903287996569208 0 -0.00022718980917226395 -0.083295286119552128 0 -9.1798407097977281e-05 -0.083167490446046197 0 -9.1798407097977281e-05 -0.083167490446046197 0 -1.8416612815817756e-05 -0.083303440523928976 0 7.7279219075530045e-05 -0.083200639308198335 0 7.3207600249411274e-06 -0.082770080007950095 0 -9.1798407097977281e-05 -0.083167490446046197 0 7.7279219075530045e-05 -0.083200639308198335 0 7.3207600249411274e-06 -0.082770080007950095 0 -0.00028030308712656055 -0.082903287996569208 0 -9.1798407097977281e-05 -0.083167490446046197 0 -1.8416612815817756e-05 -0.083303440523928976 0 7.7279219075530045e-05 -0.083200639308198335 0 -0.00026124168611911432 -0.083473662996937481 0 1.127456987639258e-06 -0.083479336172752938 0 7.7279219075530045e-05 -0.083200639308198335 0 -0.00026124168611911432 -0.083473662996937481 0 -0.00031754863740541471 -0.083826180408177631 0 -0.00030074144789711809 -0.083625626880029752 0 -0.00031109502396165655 -0.083690040666890661 0 -0.00026124168611911432 -0.083473662996937481 0 -0.00031109502396165655 -0.083690040666890661 0 -0.00034808448214770059 -0.083808196022179773 0 -0.00030074144789711809 -0.083625626880029752 0 -0.00026124168611911432 -0.083473662996937481 0 -0.00031109502396165655 -0.083690040666890661 0 -0.00031754863740541471 -0.083826180408177631 0 -0.00031109502396165655 -0.083690040666890661 0 -0.00032114896192423823 -0.083849984294543364 0 -0.00031754863740541471 -0.083826180408177631 0 -0.00032114896192423823 -0.083849984294543364 0 -0.00032204248859666262 -0.083953092605744434 0 -0.00032114896192423823 -0.083849984294543364 0 -0.00034220466052889057 -0.083866238997400991 0 -0.00035119815462170671 -0.083958262208326334 0 -0.00031109502396165655 -0.083690040666890661 0 -0.00032114896192423823 -0.083849984294543364 0 -0.00034220466052889057 -0.083866238997400991 0 -0.00039687393502146575 -0.084015087863638593 0 -0.00034220466052889057 -0.083866238997400991 0 -0.00035119815462170671 -0.083958262208326334 0 -0.00040552238877441957 -0.083984540558367293 0 -0.00034220466052889057 -0.083866238997400991 0 -0.00034808448214770059 -0.083808196022179773 0 -0.00031109502396165655 -0.083690040666890661 0 -0.00034220466052889057 -0.083866238997400991 0 -0.00034808448214770059 -0.083808196022179773 0 -0.00036097452493092676 -0.084011796797857877 0 -0.00036972066071192281 -0.084015756260350308 0 -0.00035714807812114118 -0.084093219697960825 0 -0.00036097452493092676 -0.084011796797857877 0 -0.00035119815462170671 -0.083958262208326334 0 -0.00032204248859666262 -0.083953092605744434 0 -0.00036097452493092676 -0.084011796797857877 0 -0.00035119815462170671 -0.083958262208326334 0 -0.00040025884034113784 -0.084077733479655234 0 -0.00032114896192423823 -0.083849984294543364 0 -0.00035119815462170671 -0.083958262208326334 0 -0.00032204248859666262 -0.083953092605744434 0 -0.00031754863740541471 -0.083826180408177631 0 -0.00032204248859666262 -0.083953092605744434 0 -0.00033257719783460988 -0.084100564510959888 0 -0.00036097452493092676 -0.084011796797857877 0 -0.00032204248859666262 -0.083953092605744434 0 -0.00033257719783460988 -0.084100564510959888 0 -0.00023948743794754968 -0.083509207294095431 0 -0.00029217231186120076 -0.083604164457785554 0 -0.00036097452493092676 -0.084011796797857877 0 -0.00033257719783460988 -0.084100564510959888 0 -0.00036972066071192281 -0.084015756260350308 0 -0.00027528219106942126 -0.084331834151690474 0 -0.00025228845073842595 -0.084360289911735581 0 -0.0003454249260237922 -0.084227196065089785 0 -0.00033257719783460988 -0.084100564510959888 0 -0.00036972066071192281 -0.084015756260350308 0 -0.00026269069500912398 -0.084412501099600079 0 -0.00025286122403495308 -0.084618599295381236 0 -0.00017326267709198378 -0.084504750226633077 0 -0.00026269069500912398 -0.084412501099600079 0 -0.0003454249260237922 -0.084227196065089785 0 -0.00025286122403495308 -0.084618599295381236 0 -0.00025286122403495308 -0.084618599295381236 0 -0.00010724857819846894 -0.084653881134569259 0 -0.00017326267709198378 -0.084504750226633077 0 -0.00010724857819846894 -0.084653881134569259 0 -0.00017326267709198378 -0.084504750226633077 0 -8.1606200066252781e-05 -0.084583088566496226 0 -0.00025228845073842595 -0.084360289911735581 0 -0.00018383118718966158 -0.084434319319004705 0 -0.00025286122403495308 -0.084618599295381236 0 -0.00010724857819846894 -0.084653881134569259 0 -6.0401344648072641e-05 -0.084744809265397472 0 -0.00036972066071192281 -0.084015756260350308 0 -0.00035714807812114118 -0.084093219697960825 0 -0.00020684179202922658 -0.084168359469829285 0 -0.00035714807812114118 -0.084093219697960825 0 -0.00020684179202922658 -0.084168359469829285 0 -0.00034826298565856617 -0.084233009845262233 0 -0.00020684179202922658 -0.084168359469829285 0 -0.00022881435718199842 -0.084416468571530914 0 -0.00034826298565856617 -0.084233009845262233 0 -0.00022881435718199842 -0.084416468571530914 0 -0.00034826298565856617 -0.084233009845262233 0 -0.00035622008994641677 -0.084346499121279589 0 -0.00034826298565856617 -0.084233009845262233 0 -0.00044299332012309972 -0.084182736365368854 0 -0.00040025884034113784 -0.084077733479655234 0 -0.00035714807812114118 -0.084093219697960825 0 -0.00034826298565856617 -0.084233009845262233 0 -0.00040025884034113784 -0.084077733479655234 0 -0.00036097452493092676 -0.084011796797857877 0 -0.00035714807812114118 -0.084093219697960825 0 -0.00040025884034113784 -0.084077733479655234 0 -0.00039687393502146575 -0.084015087863638593 0 -0.00035119815462170671 -0.083958262208326334 0 -0.00040025884034113784 -0.084077733479655234 0 -0.00039687393502146575 -0.084015087863638593 0 -0.00040025884034113784 -0.084077733479655234 0 -0.00044973186942286766 -0.084096902044500127 0 -0.00044299332012309972 -0.084182736365368854 0 -0.00040025884034113784 -0.084077733479655234 0 -0.00044973186942286766 -0.084096902044500127 0 -0.00044299332012309972 -0.084182736365368854 0 -0.00044973186942286766 -0.084096902044500127 0 -0.00052677920127840443 -0.084120939949811957 0 -0.00063568795182825869 -0.084086754930290677 0 -0.00052677920127840443 -0.084120939949811957 0 -0.00055085468170154302 -0.084178079423906912 0 -0.00044299332012309972 -0.084182736365368854 0 -0.00052677920127840443 -0.084120939949811957 0 -0.00055085468170154302 -0.084178079423906912 0 -0.00044299332012309972 -0.084182736365368854 0 -0.00055085468170154302 -0.084178079423906912 0 -0.00035622008994641677 -0.084346499121279589 0 -0.00055085468170154302 -0.084178079423906912 0 -0.00046224133258793653 -0.08435052539235012 0 -0.00035622008994641677 -0.084346499121279589 0 -0.000826488138379394 -0.083983014612086446 0 -0.00063568795182825869 -0.084086754930290677 0 -0.00055085468170154302 -0.084178079423906912 0 -0.000826488138379394 -0.083983014612086446 0 -0.00055085468170154302 -0.084178079423906912 0 -0.00046224133258793653 -0.08435052539235012 0 -0.000826488138379394 -0.083983014612086446 0 -0.00046224133258793653 -0.08435052539235012 0 -0.00063271335410105764 -0.084540345800417846 0 -0.00046224133258793653 -0.08435052539235012 0 -0.00063271335410105764 -0.084540345800417846 0 -0.00034945070844521895 -0.084642623282608784 0 -0.0007104629332071663 -0.0839987633550765 0 -0.00034713658542278539 -0.084425538508647299 0 -0.00077066397064834056 -0.083955124788888655 0 -0.0007104629332071663 -0.0839987633550765 0 -0.00018428524967677404 -0.084762620843056635 0 -0.00034945070844521895 -0.084642623282608784 0 -0.00023512258803951716 -0.08457276188266126 0 -0.00017702544050260762 -0.084651364456439115 0 -0.00034713658542278539 -0.084425538508647299 0 -0.00046224133258793653 -0.08435052539235012 0 -0.00034945070844521895 -0.084642623282608784 0 -0.00023512258803951716 -0.08457276188266126 0 -0.00023512258803951716 -0.08457276188266126 0 -0.00035622008994641677 -0.084346499121279589 0 -0.00018911336597386135 -0.084529648855705103 0 -0.00046224133258793653 -0.08435052539235012 0 -0.00023512258803951716 -0.08457276188266126 0 -0.00035622008994641677 -0.084346499121279589 0 -0.00034826298565856617 -0.084233009845262233 0 -0.00044299332012309972 -0.084182736365368854 0 -0.00035622008994641677 -0.084346499121279589 0 -0.00022881435718199842 -0.084416468571530914 0 -0.00035622008994641677 -0.084346499121279589 0 -0.00018911336597386135 -0.084529648855705103 0 -0.00022881435718199842 -0.084416468571530914 0 -0.00018911336597386135 -0.084529648855705103 0 -4.9105751055431875e-05 -0.084637058021392667 0 -0.00010276132548951319 -0.084679414780196791 0 -2.8366666876172901e-05 -0.084819247841079012 0 -4.9105751055431875e-05 -0.084637058021392667 0 -0.00018911336597386135 -0.084529648855705103 0 -0.00010276132548951319 -0.084679414780196791 0 -4.9105751055431875e-05 -0.084637058021392667 0 -0.00010276132548951319 -0.084679414780196791 0 -3.6276002992011447e-05 -0.084840415738656902 0 -2.8366666876172901e-05 -0.084819247841079012 0 -0.00023512258803951716 -0.08457276188266126 0 -0.00018911336597386135 -0.084529648855705103 0 -0.00010276132548951319 -0.084679414780196791 0 -0.00018428524967677404 -0.084762620843056635 0 -0.00023512258803951716 -0.08457276188266126 0 -9.8703026110799226e-05 -0.084765005106905961 0 -0.00023512258803951716 -0.08457276188266126 0 -0.00010276132548951319 -0.084679414780196791 0 -9.8703026110799226e-05 -0.084765005106905961 0 -0.00010276132548951319 -0.084679414780196791 0 -9.8703026110799226e-05 -0.084765005106905961 0 -3.6276002992011447e-05 -0.084840415738656902 0 -9.8703026110799226e-05 -0.084765005106905961 0 -4.1537440442419887e-05 -0.084874638381284145 0 -3.6276002992011447e-05 -0.084840415738656902 0 -9.8703026110799226e-05 -0.084765005106905961 0 -6.9235377043083208e-05 -0.084869435218050918 0 -4.1537440442419887e-05 -0.084874638381284145 0 -0.00018428524967677404 -0.084762620843056635 0 -9.8703026110799226e-05 -0.084765005106905961 0 -6.9235377043083208e-05 -0.084869435218050918 0 -0.00017702544050260762 -0.084651364456439115 0 -7.7297788503459007e-05 -0.084768654056879431 0 -5.2638873945155604e-10 -0.084999900316783214 0 -6.5504927623111872e-06 -0.084971072758233818 0 -9.920177809180782e-06 -0.084936329512654535 0 -6.5504927623111872e-06 -0.084971072758233818 0 -4.1537440442419887e-05 -0.084874638381284145 0 -9.920177809180782e-06 -0.084936329512654535 0 -6.9235377043083208e-05 -0.084869435218050918 0 -6.5504927623111872e-06 -0.084971072758233818 0 -4.1537440442419887e-05 -0.084874638381284145 0 -7.7297788503459007e-05 -0.084768654056879431 0 -3.5611767822503625e-05 -0.084808357782145835 0 -8.4763119069133623e-05 -0.084944538756721491 0 -6.5504927623111872e-06 -0.084971072758233818 0 -4.3391182788479446e-05 -0.084973307893267833 0 -4.1537440442419887e-05 -0.084874638381284145 0 -3.6276002992011447e-05 -0.084840415738656902 0 -9.920177809180782e-06 -0.084936329512654535 0 -3.6276002992011447e-05 -0.084840415738656902 0 -9.920177809180782e-06 -0.084936329512654535 0 2.271254406231308e-09 -0.084999814008172969 0 -5.2638873945155604e-10 -0.084999900316783214 0 -9.920177809180782e-06 -0.084936329512654535 0 2.271254406231308e-09 -0.084999814008172969 0 -3.6276002992011447e-05 -0.084840415738656902 0 2.271254406231308e-09 -0.084999814008172969 0 -2.8366666876172901e-05 -0.084819247841079012 0 2.271254406231308e-09 -0.084999814008172969 0 -2.8366666876172901e-05 -0.084819247841079012 0 -2.103050598963536e-08 -0.08499978199335792 0 -2.8366666876172901e-05 -0.084819247841079012 0 -2.103050598963536e-08 -0.08499978199335792 0 -2.0897143644340892e-05 -0.084851278297295302 0 -2.103050598963536e-08 -0.08499978199335792 0 -2.0897143644340892e-05 -0.084851278297295302 0 -3.5411783609874234e-09 -0.084999812521093149 0 -2.0897143644340892e-05 -0.084851278297295302 0 -3.5411783609874234e-09 -0.084999812521093149 0 -1.4441949963883286e-05 -0.084835487490875508 0 -2.8366666876172901e-05 -0.084819247841079012 0 -2.0897143644340892e-05 -0.084851278297295302 0 -4.9105751055431875e-05 -0.084637058021392667 0 -4.9105751055431875e-05 -0.084637058021392667 0 -1.7154361592488457e-05 -0.084774624468153301 0 -1.4441949963883286e-05 -0.084835487490875508 0 -6.0401344648072641e-05 -0.084744809265397472 0 -4.9105751055431875e-05 -0.084637058021392667 0 -1.7154361592488457e-05 -0.084774624468153301 0 -0.00020684179202922658 -0.084168359469829285 0 -0.00022881435718199842 -0.084416468571530914 0 -4.9105751055431875e-05 -0.084637058021392667 0 -0.00018383118718966158 -0.084434319319004705 0 -0.00013683423157788963 -0.084490725764269844 0 -2.0897143644340892e-05 -0.084851278297295302 0 -4.9105751055431875e-05 -0.084637058021392667 0 -1.4441949963883286e-05 -0.084835487490875508 0 -1.7154361592488457e-05 -0.084774624468153301 0 5.8255161567675773e-05 -0.084799102959525322 0 -1.4441949963883286e-05 -0.084835487490875508 0 -0.00010724857819846894 -0.084653881134569259 0 -6.0401344648072641e-05 -0.084744809265397472 0 -1.7154361592488457e-05 -0.084774624468153301 0 5.8667175008183563e-06 -0.084669247885948595 0 -1.7154361592488457e-05 -0.084774624468153301 0 -8.1606200066252781e-05 -0.084583088566496226 0 -0.00010724857819846894 -0.084653881134569259 0 -1.7154361592488457e-05 -0.084774624468153301 0 -8.1606200066252781e-05 -0.084583088566496226 0 5.8667175008183563e-06 -0.084669247885948595 0 -1.7154361592488457e-05 -0.084774624468153301 0 5.8255161567675773e-05 -0.084799102959525322 0 2.4357548773339797e-05 -0.084916623734802521 0 5.8255161567675773e-05 -0.084799102959525322 0 6.8850045410529256e-06 -0.084901789946631598 0 5.8255161567675773e-05 -0.084799102959525322 0 6.8850045410529256e-06 -0.084901789946631598 0 -1.4441949963883286e-05 -0.084835487490875508 0 -1.3116871607784686e-08 -0.084999854565197291 0 6.8850045410529256e-06 -0.084901789946631598 0 -3.5411783609874234e-09 -0.084999812521093149 0 -1.3116871607784686e-08 -0.084999854565197291 0 5.5376285793717066e-06 -0.084955230844293628 0 6.8850045410529256e-06 -0.084901789946631598 0 6.8850045410529256e-06 -0.084901789946631598 0 -3.5411783609874234e-09 -0.084999812521093149 0 -1.4441949963883286e-05 -0.084835487490875508 0 0.0043528181385002994 -0.039340010869278158 0 0.0047711110445282628 -0.03931903486719214 0 0.0043559472229328083 -0.039669447947968492 0 0.0047711110445282628 -0.03931903486719214 0 0.0043559472229328083 -0.039669447947968492 0 0.0050103587171919338 -0.039667148370885488 0 0.0043559472229328083 -0.039669447947968492 0 0.0050103587171919338 -0.039667148370885488 0 0.0045592203855099808 -0.040304188018196116 0 0.0043559472229328083 -0.039669447947968492 0 0.0040173725513492865 -0.039471857729745652 0 0.0039256614166012036 -0.039948844835229161 0 0.0040173725513492865 -0.039471857729745652 0 0.0039256614166012036 -0.039948844835229161 0 0.0036305591751876528 -0.03955072726013513 0 0.0040173725513492865 -0.039471857729745652 0 0.0037201347701041501 -0.039170633193439053 0 0.0036305591751876528 -0.03955072726013513 0 0.004133732467462836 -0.03924888384608409 0 0.0040173725513492865 -0.039471857729745652 0 0.0037201347701041501 -0.039170633193439053 0 0.0043528181385002994 -0.039340010869278158 0 0.004133732467462836 -0.03924888384608409 0 0.0040173725513492865 -0.039471857729745652 0 0.0043528181385002994 -0.039340010869278158 0 0.0043559472229328083 -0.039669447947968492 0 0.0040173725513492865 -0.039471857729745652 0 0.0037201347701041501 -0.039170633193439053 0 0.0044435574767793772 -0.039012945372094779 0 0.0032701491023561678 -0.039047793939212636 0 -0.0058425307457904609 -0.026836589535982128 0 -0.00098908265687748975 -0.028291727222043043 0 -0.010667029163663546 -0.028640035259950205 0 0.00056776785065792621 -0.036950594717185918 0 -0.0032113828282456223 -0.027760706214161875 0 0.004133732467462836 -0.03924888384608409 0 0.0037201347701041501 -0.039170633193439053 0 0.0044435574767793772 -0.039012945372094779 0 -0.0058425307457904609 -0.026836589535982128 0 -0.0086432393576668116 -0.025683146310171504 0 -0.0067032373783211269 -0.024469964080967119 0 -0.0058425307457904609 -0.026836589535982128 0 -0.0041315438824442519 -0.023972978709567723 0 -0.0067032373783211269 -0.024469964080967119 0 -0.0058425307457904609 -0.026836589535982128 0 -0.0032089606238441936 -0.026984301254059734 0 -0.00098908265687748975 -0.028291727222043043 0 -0.0058425307457904609 -0.026836589535982128 0 -0.0032089606238441936 -0.026984301254059734 0 -0.0041315438824442519 -0.023972978709567723 0 -0.0032089606238441936 -0.026984301254059734 0 -0.0023838062049164358 -0.02529968260649534 0 -0.0041315438824442519 -0.023972978709567723 0 -0.0032089606238441936 -0.026984301254059734 0 -0.0023838062049164358 -0.02529968260649534 0 -0.0018341828524805293 -0.026901375406731553 0 -0.00079456513105908265 -0.026855222646498107 0 -0.00098908265687748975 -0.028291727222043043 0 0.0058603820276936659 -0.02815243624402575 0 -0.0023838062049164358 -0.02529968260649534 0 -0.00079456513105908265 -0.026855222646498107 0 -0.0018341828524805293 -0.026901375406731553 0 -0.0032089606238441936 -0.026984301254059734 0 -0.0018341828524805293 -0.026901375406731553 0 -0.00098908265687748975 -0.028291727222043043 0 -0.00079456513105908265 -0.026855222646498107 0 -0.0018341828524805293 -0.026901375406731553 0 -0.00098908265687748975 -0.028291727222043043 0 0.0043528181385002994 -0.039340010869278158 0 0.0047711110445282628 -0.03931903486719214 0 0.0044435574767793772 -0.039012945372094779 0 0.0043528181385002994 -0.039340010869278158 0 0.004133732467462836 -0.03924888384608409 0 0.0044435574767793772 -0.039012945372094779 0 0.00056776785065792621 -0.036950594717185918 0 -0.00057444543245046328 -0.048757946158760598 0 0.0047711110445282628 -0.03931903486719214 0 0.0044435574767793772 -0.039012945372094779 0 0.0057593912231258442 -0.038850324876284995 0 -0.00057444543245046328 -0.048757946158760598 0 -0.0036103015654774273 -0.040573443218189023 0 -0.00079456513105908265 -0.026855222646498107 0 0.0058603820276936659 -0.02815243624402575 0 0.0017314170581329555 -0.024026709835550719 0 -0.0056075604665089184 -0.052802458156914943 0 -0.004989506161785273 -0.052147101600122384 0 -0.0043993655219159745 -0.052808807178599197 0 -0.00057444543245046328 -0.048757946158760598 0 -0.0027941833265688566 -0.057496093765690183 0 -0.00057444543245046328 -0.048757946158760598 0 0.0028256266924866608 -0.055641211796462517 0 0.0057593912231258442 -0.038850324876284995 0 0.0056634120339914898 -0.040172062298292427 0 0.0066959302345334544 -0.039540817685955916 0 0.0057593912231258442 -0.038850324876284995 0 0.0050103587171919338 -0.039667148370885488 0 0.0056634120339914898 -0.040172062298292427 0 0.0047711110445282628 -0.03931903486719214 0 0.0057593912231258442 -0.038850324876284995 0 0.0050103587171919338 -0.039667148370885488 0 0.0050103587171919338 -0.039667148370885488 0 0.0056634120339914898 -0.040172062298292427 0 0.0045592203855099808 -0.040304188018196116 0 0.0056634120339914898 -0.040172062298292427 0 0.0050476561088488477 -0.040934024782834907 0 0.0045592203855099808 -0.040304188018196116 0 0.0056634120339914898 -0.040172062298292427 0 0.0056489273259397715 -0.041302066086977403 0 0.0066011068139850086 -0.040636641325343788 0 0.0056634120339914898 -0.040172062298292427 0 0.0066959302345334544 -0.039540817685955916 0 0.0066011068139850086 -0.040636641325343788 0 0.0056489273259397715 -0.041302066086977403 0 0.0066011068139850086 -0.040636641325343788 0 0.0071882108387370178 -0.042027885534536187 0 0.0056489273259397715 -0.041302066086977403 0 0.0050476561088488477 -0.040934024782834907 0 0.0049781051545371036 -0.041424431461447482 0 0.0056634120339914898 -0.040172062298292427 0 0.0056489273259397715 -0.041302066086977403 0 0.0050476561088488477 -0.040934024782834907 0 0.0050476561088488477 -0.040934024782834907 0 0.0043499346685473049 -0.04115095757036985 0 0.0049781051545371036 -0.041424431461447482 0 0.0050476561088488477 -0.040934024782834907 0 0.0043499346685473049 -0.04115095757036985 0 0.0045592203855099808 -0.040304188018196116 0 0.0043559472229328083 -0.039669447947968492 0 0.0045592203855099808 -0.040304188018196116 0 0.0039256614166012036 -0.039948844835229161 0 0.0045592203855099808 -0.040304188018196116 0 0.0039256614166012036 -0.039948844835229161 0 0.0037967059179862652 -0.040552394337160194 0 0.0043499346685473049 -0.04115095757036985 0 0.0045592203855099808 -0.040304188018196116 0 0.0037967059179862652 -0.040552394337160194 0 0.0043499346685473049 -0.04115095757036985 0 0.0037967059179862652 -0.040552394337160194 0 0.0036871538801987662 -0.041104270548648812 0 0.0037967059179862652 -0.040552394337160194 0 0.0030152946335044242 -0.040679237749818312 0 0.0036871538801987662 -0.041104270548648812 0 0.0026401447542697357 -0.036616939791444328 0 0.00042865884899835751 -0.036845385108692841 0 0.0013299196371003932 -0.038646135151293122 0 0.0026401447542697357 -0.036616939791444328 0 0.00042865884899835751 -0.036845385108692841 0 0.0020554706041911457 -0.034078012090261976 0 0.0030152946335044242 -0.040679237749818312 0 0.0033852530731597981 -0.040001146409438318 0 0.0027404142755714216 -0.039742159985802508 0 0.00039931310116114114 -0.037500337414183772 0 -0.0030113680811477955 -0.031096512749155467 0 0.0037967059179862652 -0.040552394337160194 0 0.0030152946335044242 -0.040679237749818312 0 0.0033852530731597981 -0.040001146409438318 0 0.0039256614166012036 -0.039948844835229161 0 0.0037967059179862652 -0.040552394337160194 0 0.0033852530731597981 -0.040001146409438318 0 -0.0082778353664392131 -0.015330368847319004 0 -0.0085740416497097592 -0.016153565014467578 0 -0.0015825358726921908 -0.037596284978126851 0 0.00042865884899835751 -0.036845385108692841 0 -0.00028426271217093791 -0.034655200227006557 0 -0.0015825358726921908 -0.037596284978126851 0 0.00042865884899835751 -0.036845385108692841 0 -0.00014961105919658027 -0.038588217681126864 0 0.00042865884899835751 -0.036845385108692841 0 -0.00028426271217093791 -0.034655200227006557 0 0.0022763144366144909 -0.033652401446938839 0 -0.0023124458876141213 -0.033255431334912162 0 -0.0030113680811477955 -0.031096512749155467 0 -0.014937015276888583 0.0070928464391906689 0 -0.017078887229591222 0.0030789174227648314 0 -0.014849581711849046 0.0037226343057743484 0 -0.017078887229591222 0.0030789174227648314 0 -0.014849581711849046 0.0037226343057743484 0 -0.015440182680267396 0.0014104519525737168 0 -0.013761138877002485 0.0021272993084774055 0 -0.014849581711849046 0.0037226343057743484 0 -0.015440182680267396 0.0014104519525737168 0 -0.017078887229591222 0.0030789174227648314 0 -0.015440182680267396 0.0014104519525737168 0 -0.016958619903460419 0.00044910742360384229 0 -0.01381937545182042 0.00055316246626661782 0 -0.015440182680267396 0.0014104519525737168 0 -0.01552762534721361 -0.00090638681044650593 0 -0.015440182680267396 0.0014104519525737168 0 -0.016958619903460419 0.00044910742360384229 0 -0.01552762534721361 -0.00090638681044650593 0 -0.0085740416497097592 -0.016153565014467578 0 -0.0093120509938258104 -0.018193636065021536 0 -0.00028426271217093791 -0.034655200227006557 0 0.0012174387256510149 -0.031575268862482769 0 0.0022763144366144909 -0.033652401446938839 0 -0.017078887229591222 0.0030789174227648314 0 -0.016958619903460419 0.00044910742360384229 0 -0.019154018108697508 -0.0010014626557737596 0 -0.019883023036459592 -0.0011515478760062573 0 -0.017229099228515413 -0.0028536430584623126 0 -0.015643479593185572 -0.0010625885550954793 0 -0.0093120509938258104 -0.018193636065021536 0 -0.013403484663126655 -0.011841549495874806 0 -0.016958619903460419 0.00044910742360384229 0 -0.019154018108697508 -0.0010014626557737596 0 -0.01552762534721361 -0.00090638681044650593 0 -0.019883023036459592 -0.0011515478760062573 0 -0.021814283502164019 -0.0049038179468705312 0 -0.018912689655297733 -0.0038459627621547487 0 -0.019883023036459592 -0.0011515478760062573 0 -0.017229099228515413 -0.0028536430584623126 0 -0.018912689655297733 -0.0038459627621547487 0 -0.017229099228515413 -0.0028536430584623126 0 -0.015528262295707959 -0.003195308409990957 0 -0.015643479593185572 -0.0010625885550954793 0 -0.013717933585884846 -0.0020163338628288968 0 -0.015528262295707959 -0.003195308409990957 0 -0.015643479593185572 -0.0010625885550954793 0 0.0033852530731597981 -0.040001146409438318 0 0.0032273504135287697 -0.039496273375169366 0 0.0027404142755714216 -0.039742159985802508 0 0.0032273504135287697 -0.039496273375169366 0 0.0036305591751876528 -0.03955072726013513 0 0.0033126913050881075 -0.039073505590555148 0 0.0037201347701041501 -0.039170633193439053 0 0.0036305591751876528 -0.03955072726013513 0 0.0032701491023561678 -0.039047793939212636 0 -0.0011323177375499123 -0.030896957036120765 0 -0.0032113828282456223 -0.027760706214161875 0 0.0033852530731597981 -0.040001146409438318 0 0.0032273504135287697 -0.039496273375169366 0 0.0036305591751876528 -0.03955072726013513 0 0.0039256614166012036 -0.039948844835229161 0 0.0033852530731597981 -0.040001146409438318 0 0.0036305591751876528 -0.03955072726013513 0 -0.0030113680811477955 -0.031096512749155467 0 -0.0063763534352514022 -0.021531714502154669 0 0.0032273504135287697 -0.039496273375169366 0 0.0027404142755714216 -0.039742159985802508 0 0.0031130279482874555 -0.039074844998046213 0 0.0012174387256510149 -0.031575268862482769 0 0.0022763144366144909 -0.033652401446938839 0 0.0017959846164873458 -0.031565345105991099 0 -0.0030113680811477955 -0.031096512749155467 0 -0.0042735491007379906 -0.026291105850763139 0 -0.0019733386791345926 -0.024549063355348805 0 -0.0013234368856513223 -0.027448336612671657 0 -0.0037253408458498244 -0.027487915646498259 0 -0.0093120509938258104 -0.018193636065021536 0 -0.00980106217600594 -0.016331766359596926 0 -0.009390413684503704 -0.020226985346207857 0 -0.011009991693792475 -0.020095366331279303 0 -0.010582201370057841 -0.019375009308421731 0 -0.0073154915401605928 -0.019315476808971756 0 -0.00814410436225705 -0.019329946458253665 0 -0.0091175611275167399 -0.022800440464007133 0 -0.00814410436225705 -0.019329946458253665 0 -0.009390413684503704 -0.020226985346207857 0 -0.0091175611275167399 -0.022800440464007133 0 -0.00814410436225705 -0.019329946458253665 0 -0.009390413684503704 -0.020226985346207857 0 -0.010582201370057841 -0.019375009308421731 0 -0.0063763534352514022 -0.021531714502154669 0 -0.0042735491007379906 -0.026291105850763139 0 -0.0093120509938258104 -0.018193636065021536 0 -0.0063763534352514022 -0.021531714502154669 0 -0.009390413684503704 -0.020226985346207857 0 -0.011009991693792475 -0.020095366331279303 0 -0.0091175611275167399 -0.022800440464007133 0 -0.011611426841960147 -0.027312741874865064 0 -0.010667029163663546 -0.028640035259950205 0 -0.0086432393576668116 -0.025683146310171504 0 -0.004564833199556485 -0.025263153660775268 0 -0.0042735491007379906 -0.026291105850763139 0 -0.0042735491007379906 -0.026291105850763139 0 -0.0032113828282456223 -0.027760706214161875 0 0.0032273504135287697 -0.039496273375169366 0 0.0031130279482874555 -0.039074844998046213 0 0.0033126913050881075 -0.039073505590555148 0 -0.0055460317857786252 -0.031747998386215746 0 -0.0018644147286952862 -0.025538329805449404 0 -0.0098012857607697196 -0.025665119721808457 0 -0.004564833199556485 -0.025263153660775268 0 -0.0032113828282456223 -0.027760706214161875 0 -0.0058425307457904609 -0.026836589535982128 0 -0.010667029163663546 -0.028640035259950205 0 -0.0086432393576668116 -0.025683146310171504 0 -0.0086432393576668116 -0.025683146310171504 0 -0.0082106041126684213 -0.021352754296648086 0 -0.0067032373783211269 -0.024469964080967119 0 -0.0097561558885496981 -0.023816791460228706 0 -0.0072514715836752503 -0.019587650963352243 0 -0.0097277918722716676 -0.019636976689883082 0 -0.011611426841960147 -0.027312741874865064 0 -0.0086432393576668116 -0.025683146310171504 0 -0.0082106041126684213 -0.021352754296648086 0 -0.004564833199556485 -0.025263153660775268 0 -0.0048508150251017866 -0.02240253649947288 0 -0.0072514715836752503 -0.019587650963352243 0 -0.0097277918722716676 -0.019636976689883082 0 -0.0085708049520660193 -0.017497520972874308 0 -0.0097561558885496981 -0.023816791460228706 0 -0.0097277918722716676 -0.019636976689883082 0 -0.012351266043264333 -0.020130845670709732 0 -0.004564833199556485 -0.025263153660775268 0 -0.00980106217600594 -0.016331766359596926 0 -0.00980106217600594 -0.016331766359596926 0 -0.01280087096700097 -0.012604678443364305 0 -0.0097277918722716676 -0.019636976689883082 0 -0.012351266043264333 -0.020130845670709732 0 -0.010915986456209602 -0.017285918359121206 0 -0.00980106217600594 -0.016331766359596926 0 -0.010088007352101892 -0.016810063623225277 0 -0.010915986456209602 -0.017285918359121206 0 -0.01251701344807339 -0.014864569158328863 0 -0.014840216347242528 -0.016653885385460605 0 -0.012391660244119819 -0.020143348814626722 0 -0.010915986456209602 -0.017285918359121206 0 -0.014840216347242528 -0.016653885385460605 0 -0.01251701344807339 -0.014864569158328863 0 -0.014840216347242528 -0.016653885385460605 0 -0.013424838214697069 -0.012019065070065355 0 -0.010915986456209602 -0.017285918359121206 0 -0.01251701344807339 -0.014864569158328863 0 -0.010885782620771995 -0.013491183987217067 0 -0.010915986456209602 -0.017285918359121206 0 -0.0083584567079543395 -0.014717394504310616 0 -0.010885782620771995 -0.013491183987217067 0 -0.0083584567079543395 -0.014717394504310616 0 -0.0071789628811336596 -0.01683060662772258 0 -0.0085708049520660193 -0.017497520972874308 0 -0.0083584567079543395 -0.014717394504310616 0 -0.0071789628811336596 -0.01683060662772258 0 -0.0045613625462231772 -0.01544474942266023 0 -0.0072514715836752503 -0.019587650963352243 0 -0.0071789628811336596 -0.01683060662772258 0 -0.0085708049520660193 -0.017497520972874308 0 -0.0097277918722716676 -0.019636976689883082 0 -0.010915986456209602 -0.017285918359121206 0 -0.0085708049520660193 -0.017497520972874308 0 -0.010915986456209602 -0.017285918359121206 0 -0.0083584567079543395 -0.014717394504310616 0 -0.0085708049520660193 -0.017497520972874308 0 -0.012760686226540538 -0.0055065168060295802 0 -0.01620525421097916 -0.0050219987382133678 0 -0.014309111042977031 -0.0070884934771272149 0 -0.01355109312827036 -0.0038795732584131922 0 -0.015528262295707959 -0.003195308409990957 0 -0.01620525421097916 -0.0050219987382133678 0 -0.017229099228515413 -0.0028536430584623126 0 -0.015528262295707959 -0.003195308409990957 0 -0.01620525421097916 -0.0050219987382133678 0 -0.01620525421097916 -0.0050219987382133678 0 -0.018572811030274188 -0.0059268288190471655 0 -0.016490961117770347 -0.0077878580986380794 0 -0.021814283502164019 -0.0049038179468705312 0 -0.018572811030274188 -0.0059268288190471655 0 -0.019937250403675607 -0.0076023951623894253 0 -0.021814283502164019 -0.0049038179468705312 0 -0.018572811030274188 -0.0059268288190471655 0 -0.018912689655297733 -0.0038459627621547487 0 -0.01620525421097916 -0.0050219987382133678 0 -0.018572811030274188 -0.0059268288190471655 0 -0.018912689655297733 -0.0038459627621547487 0 -0.017229099228515413 -0.0028536430584623126 0 -0.01620525421097916 -0.0050219987382133678 0 -0.018912689655297733 -0.0038459627621547487 0 -0.019937250403675607 -0.0076023951623894253 0 -0.016490961117770347 -0.0077878580986380794 0 -0.018050786263004968 -0.010312104955058066 0 -0.018572811030274188 -0.0059268288190471655 0 -0.019937250403675607 -0.0076023951623894253 0 -0.016490961117770347 -0.0077878580986380794 0 -0.01280087096700097 -0.012604678443364305 0 -0.013151969742350335 -0.011165709778148538 0 -0.013445341803123749 -0.0090083183934940875 0 -0.016490961117770347 -0.0077878580986380794 0 -0.014309111042977031 -0.0070884934771272149 0 -0.013445341803123749 -0.0090083183934940875 0 -0.016490961117770347 -0.0077878580986380794 0 -0.018050786263004968 -0.010312104955058066 0 -0.01620525421097916 -0.0050219987382133678 0 -0.016490961117770347 -0.0077878580986380794 0 -0.014309111042977031 -0.0070884934771272149 0 -0.010947676791317822 -0.0097678231426396225 0 -0.011428876602374845 -0.0096921567930789657 0 -0.011062173198075077 -0.010087168069556505 0 -0.011677543052961677 -0.0099066560537063759 0 -0.013151969742350335 -0.011165709778148538 0 -0.010796380889142674 -0.0090509125571205298 0 -0.010947676791317822 -0.0097678231426396225 0 -0.011428876602374845 -0.0096921567930789657 0 -0.010864693612820905 -0.010690565497858122 0 -0.010696706749421485 -0.010161193720878099 0 -0.011062173198075077 -0.010087168069556505 0 -0.014840216347242528 -0.016653885385460605 0 -0.017294030636637703 -0.01313799516216136 0 -0.013424838214697069 -0.012019065070065355 0 -0.010864693612820905 -0.010690565497858122 0 -0.010696706749421485 -0.010161193720878099 0 -0.010284571025328136 -0.010819007519261797 0 -0.013151969742350335 -0.011165709778148538 0 -0.01298409960245687 -0.011152627543028771 0 -0.013151969742350335 -0.011165709778148538 0 -0.0121507969281647 -0.011044609377981478 0 -0.010425611212672674 -0.0097956528135742897 0 -0.010865882787571078 -0.0099626039350355737 0 -0.010696706749421485 -0.010161193720878099 0 -0.010865882787571078 -0.0099626039350355737 0 -0.010696706749421485 -0.010161193720878099 0 -0.011062173198075077 -0.010087168069556505 0 -0.010783935661963992 -0.0099551718487286885 0 -0.010865882787571078 -0.0099626039350355737 0 -0.010854885241189079 -0.0099750105103042774 0 -0.010865882787571078 -0.0099626039350355737 0 -0.011062173198075077 -0.010087168069556505 0 -0.010854885241189079 -0.0099750105103042774 0 -0.010947676791317822 -0.0097678231426396225 0 -0.011062173198075077 -0.010087168069556505 0 -0.010854885241189079 -0.0099750105103042774 0 -0.0083584567079543395 -0.014717394504310616 0 -0.0085346849217776671 -0.010911861094883448 0 -0.0045613625462231772 -0.01544474942266023 0 -0.0093054495982695246 -0.010950023194751862 0 -0.0092528927369492728 -0.012462258098755216 0 -0.010885782620771995 -0.013491183987217067 0 -0.0093054495982695246 -0.010950023194751862 0 -0.0085346849217776671 -0.010911861094883448 0 -0.0092528927369492728 -0.012462258098755216 0 -0.0083584567079543395 -0.014717394504310616 0 -0.0085346849217776671 -0.010911861094883448 0 -0.0092528927369492728 -0.012462258098755216 0 -0.0083584567079543395 -0.014717394504310616 0 -0.0092528927369492728 -0.012462258098755216 0 -0.010885782620771995 -0.013491183987217067 0 -0.01251701344807339 -0.014864569158328863 0 -0.010885782620771995 -0.013491183987217067 0 -0.013424838214697069 -0.012019065070065355 0 -0.0093054495982695246 -0.010950023194751862 0 -0.010885782620771995 -0.013491183987217067 0 -0.013424838214697069 -0.012019065070065355 0 -0.011499319693830688 -0.010919599448285338 0 -0.0121507969281647 -0.011044609377981478 0 -0.010425611212672674 -0.0097956528135742897 0 -0.010696706749421485 -0.010161193720878099 0 -0.010284571025328136 -0.010819007519261797 0 -0.010425611212672674 -0.0097956528135742897 0 -0.0093054495982695246 -0.010950023194751862 0 -0.010284571025328136 -0.010819007519261797 0 -0.010425611212672674 -0.0097956528135742897 0 -0.0093054495982695246 -0.010950023194751862 0 -0.0085346849217776671 -0.010911861094883448 0 -0.0089987298616935711 -0.028670240983716205 0 -0.0082554929119049037 -0.030516225343550332 0 -0.0078130350542927555 -0.046888598635279007 0 -0.007978010790776098 -0.046454017233658294 0 -0.0080286612005247161 -0.046751187549714718 0 -0.007978010790776098 -0.046454017233658294 0 -0.0080286612005247161 -0.046751187549714718 0 -0.0082463359906025553 -0.046556308188110553 0 -0.0081037912014113572 -0.046899784749142866 0 -0.0080286612005247161 -0.046751187549714718 0 -0.0082463359906025553 -0.046556308188110553 0 -0.0070829133135119479 -0.049143902316153884 0 -0.0075549771781836493 -0.049880080658404845 0 -0.006856552083740728 -0.050186215413359402 0 -0.0070829133135119479 -0.049143902316153884 0 -0.006856552083740728 -0.050186215413359402 0 -0.0063197818842214201 -0.049603568370590198 0 -0.006856552083740728 -0.050186215413359402 0 -0.0072955852048404444 -0.051078617614215609 0 -0.0062582746820065557 -0.050690829207520147 0 -0.006856552083740728 -0.050186215413359402 0 -0.0062582746820065557 -0.050690829207520147 0 -0.0063197818842214201 -0.049603568370590198 0 -0.0082554929119049037 -0.030516225343550332 0 -0.0057936622712406478 -0.035323130135096123 0 -0.0075549771781836493 -0.049880080658404845 0 -0.006856552083740728 -0.050186215413359402 0 -0.0072955852048404444 -0.051078617614215609 0 -0.007978010790776098 -0.046454017233658294 0 -0.0082463359906025553 -0.046556308188110553 0 -0.008349744350056202 -0.045963530586456504 0 -0.0085346849217776671 -0.010911861094883448 0 -0.0029381437616803579 -0.016206698078395174 0 -0.0045613625462231772 -0.01544474942266023 0 -0.0061016947777742412 -0.045217244049691532 0 -0.0057936622712406478 -0.035323130135096123 0 -0.0072514715836752503 -0.019587650963352243 0 -0.0071789628811336596 -0.01683060662772258 0 -0.0045613625462231772 -0.01544474942266023 0 -0.0082106041126684213 -0.021352754296648086 0 -0.0047049352242096104 -0.019514291404827234 0 -0.0045613625462231772 -0.01544474942266023 0 -0.0048508150251017866 -0.02240253649947288 0 -0.0043019689165122279 -0.020494003348707528 0 -0.0057936622712406478 -0.035323130135096123 0 -0.0055491670351995783 -0.029192503086625337 0 -0.0047049352242096104 -0.019514291404827234 0 -0.0029381437616803579 -0.016206698078395174 0 -0.0016899941052142971 -0.021490232116931195 0 -0.0047049352242096104 -0.019514291404827234 0 -0.0029381437616803579 -0.016206698078395174 0 -0.0045613625462231772 -0.01544474942266023 0 -0.0072955852048404444 -0.051078617614215609 0 -0.0064459000038098145 -0.051941926966325103 0 -0.0062582746820065557 -0.050690829207520147 0 -0.0057936622712406478 -0.035323130135096123 0 -0.0036103015654774273 -0.040573443218189023 0 -0.0021944285850031622 -0.020213627697771238 0 -0.0014575546371225754 -0.023505152286442215 0 0.0017314170581329555 -0.024026709835550719 0 -0.00079456513105908265 -0.026855222646498107 0 -0.0014575546371225754 -0.023505152286442215 0 0.0017314170581329555 -0.024026709835550719 0 -0.0023838062049164358 -0.02529968260649534 0 -0.00079456513105908265 -0.026855222646498107 0 -0.0016899941052142971 -0.021490232116931195 0 -0.0052717704545095405 -0.028240508198129059 0 -0.0055491670351995783 -0.029192503086625337 0 -0.0023838062049164358 -0.02529968260649534 0 -0.0016899941052142971 -0.021490232116931195 0 -0.0041315438824442519 -0.023972978709567723 0 -0.0082106041126684213 -0.021352754296648086 0 -0.0041315438824442519 -0.023972978709567723 0 -0.0067032373783211269 -0.024469964080967119 0 -0.0082106041126684213 -0.021352754296648086 0 -0.0047049352242096104 -0.019514291404827234 0 -0.0041315438824442519 -0.023972978709567723 0 -0.0047049352242096104 -0.019514291404827234 0 -0.0016899941052142971 -0.021490232116931195 0 -0.0041315438824442519 -0.023972978709567723 0 -0.0056075604665089184 -0.052802458156914943 0 -0.004989506161785273 -0.052147101600122384 0 -0.0064459000038098145 -0.051941926966325103 0 -0.004989506161785273 -0.052147101600122384 0 -0.0064459000038098145 -0.051941926966325103 0 -0.0052816400110754945 -0.051259113024776787 0 -0.0064459000038098145 -0.051941926966325103 0 -0.0052816400110754945 -0.051259113024776787 0 -0.0062582746820065557 -0.050690829207520147 0 -0.0052816400110754945 -0.051259113024776787 0 -0.0053599528320666693 -0.050063449110496344 0 -0.0047403069278761107 -0.050621268661795837 0 -0.0052816400110754945 -0.051259113024776787 0 -0.0062582746820065557 -0.050690829207520147 0 -0.0053599528320666693 -0.050063449110496344 0 -0.0062582746820065557 -0.050690829207520147 0 -0.0063197818842214201 -0.049603568370590198 0 -0.0053599528320666693 -0.050063449110496344 0 -0.0056523849180695552 -0.049259291055535913 0 -0.0063197818842214201 -0.049603568370590198 0 -0.0053599528320666693 -0.050063449110496344 0 -0.0048965566360078747 -0.048918861290622173 0 -0.0056523849180695552 -0.049259291055535913 0 -0.0053599528320666693 -0.050063449110496344 0 -0.0048965566360078747 -0.048918861290622173 0 -0.0053599528320666693 -0.050063449110496344 0 -0.0042303106992199946 -0.049997122329395419 0 -0.0042303106992199946 -0.049997122329395419 0 -0.0047403069278761107 -0.050621268661795837 0 -0.0040931903929993223 -0.051166158734151625 0 -0.0053599528320666693 -0.050063449110496344 0 -0.0042303106992199946 -0.049997122329395419 0 -0.0047403069278761107 -0.050621268661795837 0 -0.0042303106992199946 -0.049997122329395419 0 -0.0032861089297062693 -0.050496935190288299 0 -0.0040931903929993223 -0.051166158734151625 0 -0.0042303106992199946 -0.049997122329395419 0 -0.0033306752023871703 -0.049555404674575462 0 -0.0032861089297062693 -0.050496935190288299 0 -0.0039258558378304637 -0.049010252579048515 0 -0.0042303106992199946 -0.049997122329395419 0 -0.0033306752023871703 -0.049555404674575462 0 -0.0029037933845925418 -0.050290567788382173 0 -0.0025051221090242018 -0.050668577259874337 0 -0.0033306752023871703 -0.049555404674575462 0 -0.0023225019369260066 -0.050181380104073352 0 -0.0032861089297062693 -0.050496935190288299 0 -0.0023827099050933373 -0.048870631703972989 0 -0.0033306752023871703 -0.049555404674575462 0 -0.0024646427688549137 -0.050172144616462543 0 -0.0023225019369260066 -0.050181380104073352 0 -0.0026591254570780256 -0.05154380268054528 0 -0.0013108325449442959 -0.050837494698927441 0 -0.0023225019369260066 -0.050181380104073352 0 -0.0032861089297062693 -0.050496935190288299 0 -0.0026591254570780256 -0.05154380268054528 0 -0.0032861089297062693 -0.050496935190288299 0 -0.0026591254570780256 -0.05154380268054528 0 -0.0040931903929993223 -0.051166158734151625 0 -0.0026591254570780256 -0.05154380268054528 0 -0.0038727030348377546 -0.052113659131320531 0 -0.0031937331834470751 -0.052824375633250473 0 -0.004989506161785273 -0.052147101600122384 0 -0.0038727030348377546 -0.052113659131320531 0 -0.0040931903929993223 -0.051166158734151625 0 -0.0052816400110754945 -0.051259113024776787 0 -0.0047403069278761107 -0.050621268661795837 0 -0.0040931903929993223 -0.051166158734151625 0 -0.004989506161785273 -0.052147101600122384 0 -0.0052816400110754945 -0.051259113024776787 0 -0.0040931903929993223 -0.051166158734151625 0 -0.0026591254570780256 -0.05154380268054528 0 -0.0038727030348377546 -0.052113659131320531 0 -0.0040931903929993223 -0.051166158734151625 0 0.00015757881509536006 -0.051068831977612916 0 -0.00086584444826307168 -0.050670068655285186 0 -5.819097102710399e-05 -0.051949466542280311 0 0.00015757881509536006 -0.051068831977612916 0 0.00022164566251368272 -0.050285391307172064 0 -0.00086584444826307168 -0.050670068655285186 0 -0.00054298401682301915 -0.049580606590035214 0 0.00015820216277175422 -0.049478811821156626 0 0.00022164566251368272 -0.050285391307172064 0 -0.0015200257747928615 -0.049404392039022971 0 -0.00054298401682301915 -0.049580606590035214 0 -0.00086584444826307168 -0.050670068655285186 0 -0.00054298401682301915 -0.049580606590035214 0 0.00022164566251368272 -0.050285391307172064 0 -0.00086584444826307168 -0.050670068655285186 0 -0.0015200257747928615 -0.049404392039022971 0 -0.0024646427688549137 -0.050172144616462543 0 -0.0016510381487755169 -0.050747737914917636 0 -0.0015200257747928615 -0.049404392039022971 0 -0.00074469464535628063 -0.050345242199019764 0 -0.0016510381487755169 -0.050747737914917636 0 -0.00074469464535628063 -0.050345242199019764 0 -0.0016510381487755169 -0.050747737914917636 0 -0.00078042667634517873 -0.051371150773868335 0 -0.0015875397560395055 -0.050450439471246118 0 -0.0013188412118921903 -0.051224806566808792 0 -0.0025051221090242018 -0.050668577259874337 0 -0.0018408703713853774 -0.051520221513627208 0 -0.0026591254570780256 -0.05154380268054528 0 -0.0013108325449442959 -0.050837494698927441 0 -0.0011901928681078726 -0.05197665146630899 0 -0.0026591254570780256 -0.05154380268054528 0 -0.0011901928681078726 -0.05197665146630899 0 -0.0019760143855513538 -0.052841975646802132 0 -0.0011901928681078726 -0.05197665146630899 0 -0.00029055138183332348 -0.051505065418548712 0 -0.00013789664034977482 -0.052275896730083954 0 -0.0011901928681078726 -0.05197665146630899 0 -0.00013789664034977482 -0.052275896730083954 0 -0.00074106630712978772 -0.052859335219903006 0 -0.0013108325449442959 -0.050837494698927441 0 -0.0011901928681078726 -0.05197665146630899 0 -0.00029055138183332348 -0.051505065418548712 0 -0.0018408703713853774 -0.051520221513627208 0 -0.0012335149819275529 -0.052852914960921225 0 -0.0013188412118921903 -0.051224806566808792 0 -0.0009981860985217091 -0.05319176555670236 0 -0.00074469464535628063 -0.050345242199019764 0 -0.00078042667634517873 -0.051371150773868335 0 0.00010125003767640846 -0.051391736900842214 0 -0.0012335149819275529 -0.052852914960921225 0 -0.00069047725943434889 -0.055151516400469044 0 -0.00029055138183332348 -0.051505065418548712 0 -0.00013789664034977482 -0.052275896730083954 0 0.00073806623822438293 -0.052188471895321178 0 -0.00013789664034977482 -0.052275896730083954 0 0.00073806623822438293 -0.052188471895321178 0 0.00050979221132881568 -0.052873204442209658 0 -0.00078042667634517873 -0.051371150773868335 0 0.00016768887316239106 -0.052033060059277346 0 0.00010125003767640846 -0.051391736900842214 0 0.00096886573385345605 -0.052566250513871642 0 0.00016768887316239106 -0.052033060059277346 0 0.00010125003767640846 -0.051391736900842214 0 0.00078934104441544966 -0.051585063299741489 0 0.00015757881509536006 -0.051068831977612916 0 -5.819097102710399e-05 -0.051949466542280311 0 -0.00086871502238307938 -0.079137770249552652 0 -0.0010484808730709576 -0.078707405490989452 0 -0.0011626463336553469 -0.079036549815144866 0 0.0015662832517758653 -0.052746982247304404 0 0.00073806623822438293 -0.052188471895321178 0 0.00050979221132881568 -0.052873204442209658 0 -0.0010484808730709576 -0.078707405490989452 0 -0.0013074733289958104 -0.07884290065600609 0 -0.0013404781282848686 -0.078604443729418022 0 -0.00013789664034977482 -0.052275896730083954 0 0.00050979221132881568 -0.052873204442209658 0 -0.00074106630712978772 -0.052859335219903006 0 -0.00023414744929948662 -0.063203347686772063 0 -0.0010677700193573918 -0.063832448062047756 0 -0.0010484808730709576 -0.078707405490989452 0 -0.0013074733289958104 -0.07884290065600609 0 -0.0011626463336553469 -0.079036549815144866 0 -0.0013074733289958104 -0.07884290065600609 0 -0.0013404781282848686 -0.078604443729418022 0 -0.0016549746575039027 -0.078488566875740601 0 -0.0011901928681078726 -0.05197665146630899 0 -0.00074106630712978772 -0.052859335219903006 0 -0.0019760143855513538 -0.052841975646802132 0 -0.0010677700193573918 -0.063832448062047756 0 -0.0018449999755327721 -0.06336992769748899 0 -0.0013074733289958104 -0.07884290065600609 0 -0.0016549746575039027 -0.078488566875740601 0 -0.0016616663592583954 -0.078786538038277926 0 -0.001428408720824718 -0.078983094439050092 0 -0.0016616663592583954 -0.078786538038277926 0 -0.001724216207593378 -0.079034512069149701 0 -0.0013074733289958104 -0.07884290065600609 0 -0.001428408720824718 -0.078983094439050092 0 -0.0016616663592583954 -0.078786538038277926 0 -0.001724216207593378 -0.079034512069149701 0 -0.0017587462798503832 -0.079215791844170796 0 -0.0014831398136270293 -0.079313653515400664 0 -0.001428408720824718 -0.078983094439050092 0 -0.001724216207593378 -0.079034512069149701 0 -0.0014831398136270293 -0.079313653515400664 0 -0.001428408720824718 -0.078983094439050092 0 -0.001271998434013122 -0.079183135592701917 0 -0.0014831398136270293 -0.079313653515400664 0 -0.001271998434013122 -0.079183135592701917 0 -0.0011998995176686926 -0.079291138793478322 0 -0.0014831398136270293 -0.079313653515400664 0 -0.0013074733289958104 -0.07884290065600609 0 -0.001428408720824718 -0.078983094439050092 0 -0.0011626463336553469 -0.079036549815144866 0 -0.001428408720824718 -0.078983094439050092 0 -0.0011626463336553469 -0.079036549815144866 0 -0.001271998434013122 -0.079183135592701917 0 -0.0011626463336553469 -0.079036549815144866 0 -0.001271998434013122 -0.079183135592701917 0 -0.0011737495453235641 -0.079184396620431197 0 -0.0011626463336553469 -0.079036549815144866 0 -0.0011737495453235641 -0.079184396620431197 0 -0.001077230913719495 -0.07921878616378826 0 -0.001271998434013122 -0.079183135592701917 0 -0.0011998995176686926 -0.079291138793478322 0 -0.0011737495453235641 -0.079184396620431197 0 -0.0011998995176686926 -0.079291138793478322 0 -0.0011737495453235641 -0.079184396620431197 0 -0.001077230913719495 -0.07921878616378826 0 -0.0011998995176686926 -0.079291138793478322 0 -0.001077230913719495 -0.07921878616378826 0 -0.0009245797890870711 -0.079344521385678921 0 -0.001986954597331933 -0.073448679626711408 0 -0.0019297685707282679 -0.077350443282282147 0 -0.00086871502238307938 -0.079137770249552652 0 -0.0011626463336553469 -0.079036549815144866 0 -0.001077230913719495 -0.07921878616378826 0 -0.00086871502238307938 -0.079137770249552652 0 -0.001077230913719495 -0.07921878616378826 0 -0.0009245797890870711 -0.079344521385678921 0 -0.002236261419465231 -0.078566589501396181 0 -0.00263879666291084 -0.078547178387148253 0 -0.0023243365818225049 -0.078875758500233636 0 -0.002236261419465231 -0.078566589501396181 0 -0.00263879666291084 -0.078547178387148253 0 -0.0024537887677017235 -0.078236342150525634 0 -0.0029737110434017266 -0.078140434020208385 0 -0.00263879666291084 -0.078547178387148253 0 -0.0024537887677017235 -0.078236342150525634 0 -0.004989506161785273 -0.052147101600122384 0 -0.0038727030348377546 -0.052113659131320531 0 -0.0043993655219159745 -0.052808807178599197 0 -0.002236261419465231 -0.078566589501396181 0 -0.0024537887677017235 -0.078236342150525634 0 -0.0020138652176998366 -0.078366862379731922 0 -0.0027941833265688566 -0.057496093765690183 0 -0.0025452398831628761 -0.061587503559692176 0 -0.0038727030348377546 -0.052113659131320531 0 -0.0043993655219159745 -0.052808807178599197 0 -0.0031937331834470751 -0.052824375633250473 0 -0.0026591254570780256 -0.05154380268054528 0 -0.0019760143855513538 -0.052841975646802132 0 -0.0031937331834470751 -0.052824375633250473 0 -0.0018449999755327721 -0.06336992769748899 0 -0.0025452398831628761 -0.061587503559692176 0 -0.0016549746575039027 -0.078488566875740601 0 -0.0020138652176998366 -0.078366862379731922 0 -0.0016616663592583954 -0.078786538038277926 0 -0.0020138652176998366 -0.078366862379731922 0 -0.0016616663592583954 -0.078786538038277926 0 -0.0019787419673100259 -0.078792472217597317 0 -0.002236261419465231 -0.078566589501396181 0 -0.0020138652176998366 -0.078366862379731922 0 -0.0019787419673100259 -0.078792472217597317 0 -0.0016616663592583954 -0.078786538038277926 0 -0.0019787419673100259 -0.078792472217597317 0 -0.001724216207593378 -0.079034512069149701 0 -0.001724216207593378 -0.079034512069149701 0 -0.0020467291976276922 -0.079145116074215593 0 -0.0017587462798503832 -0.079215791844170796 0 -0.0019787419673100259 -0.078792472217597317 0 -0.001724216207593378 -0.079034512069149701 0 -0.0020467291976276922 -0.079145116074215593 0 0.0047570600444201208 -0.059577891102926397 0 0.0038887822306666315 -0.058259271262085147 0 0.0099368000511112931 -0.04203783708196767 0 0.008164429206135906 -0.040477864474671589 0 0.0086031702279483063 -0.042793142788401337 0 -0.002236261419465231 -0.078566589501396181 0 -0.0019787419673100259 -0.078792472217597317 0 -0.0023243365818225049 -0.078875758500233636 0 -0.0019787419673100259 -0.078792472217597317 0 -0.0020467291976276922 -0.079145116074215593 0 -0.0023243365818225049 -0.078875758500233636 0 0.0066959302345334544 -0.039540817685955916 0 0.008164429206135906 -0.040477864474671589 0 0.0066011068139850086 -0.040636641325343788 0 0.0028256266924866608 -0.055641211796462517 0 0.0038887822306666315 -0.058259271262085147 0 0.008164429206135906 -0.040477864474671589 0 0.0071882108387370178 -0.042027885534536187 0 0.0086031702279483063 -0.042793142788401337 0 0.008164429206135906 -0.040477864474671589 0 0.0066011068139850086 -0.040636641325343788 0 0.0071882108387370178 -0.042027885534536187 0 0.0071882108387370178 -0.042027885534536187 0 0.0077049871889321494 -0.043540568049541019 0 0.0064560248721714265 -0.044197780965374099 0 0.0071882108387370178 -0.042027885534536187 0 0.0077049871889321494 -0.043540568049541019 0 0.0086031702279483063 -0.042793142788401337 0 0.0058795537875822989 -0.041815136077665932 0 0.0064161201019905991 -0.042704826525150327 0 0.0058365479006064992 -0.042150913617747011 0 0.0064560248721714265 -0.044197780965374099 0 0.007855511455696922 -0.044978778767403277 0 0.0078020435950023415 -0.047388956343432299 0 0.0067384001020978929 -0.043181673758789167 0 0.0079041877949076449 -0.044772974348015707 0 0.0077049871889321494 -0.043540568049541019 0 0.0064560248721714265 -0.044197780965374099 0 0.007855511455696922 -0.044978778767403277 0 0.0077049871889321494 -0.043540568049541019 0 0.007855511455696922 -0.044978778767403277 0 0.0086555262810479022 -0.044127130991865798 0 0.0099448537903288701 -0.04584296853404176 0 0.008623567244476554 -0.045786127772838775 0 0.0086555262810479022 -0.044127130991865798 0 0.007855511455696922 -0.044978778767403277 0 0.008623567244476554 -0.045786127772838775 0 0.0086555262810479022 -0.044127130991865798 0 0.0099368000511112931 -0.04203783708196767 0 0.0086031702279483063 -0.042793142788401337 0 0.0098843649846815235 -0.044232173509282352 0 0.0086555262810479022 -0.044127130991865798 0 0.0086031702279483063 -0.042793142788401337 0 0.0098843649846815235 -0.044232173509282352 0 0.0077049871889321494 -0.043540568049541019 0 0.0086555262810479022 -0.044127130991865798 0 0.0086031702279483063 -0.042793142788401337 0 -0.0020467291976276922 -0.079145116074215593 0 -0.0017587462798503832 -0.079215791844170796 0 -0.0018017265983401164 -0.079366663109972008 0 0.0057709121400006114 -0.060199475734642613 0 0.0085036343280519931 -0.057731457996331656 0 0.0047570600444201208 -0.059577891102926397 0 0.0057709121400006114 -0.060199475734642613 0 0.0099368000511112931 -0.04203783708196767 0 0.011628087721690461 -0.043766262010114826 0 0.0098843649846815235 -0.044232173509282352 0 -0.0017587462798503832 -0.079215791844170796 0 -0.0018017265983401164 -0.079366663109972008 0 -0.0014831398136270293 -0.079313653515400664 0 0.01144914551970496 -0.04388469553531104 0 0.010791748799394593 -0.044780360421942958 0 0.012962283212563793 -0.045489261366416324 0 0.0083692500932698987 -0.054343088481035938 0 0.0067341188463433217 -0.061447666904289315 0 0.0057709121400006114 -0.060199475734642613 0 0.0067341188463433217 -0.061447666904289315 0 0.011597245174312926 -0.044897404359805451 0 0.01299931766324936 -0.046026775504778829 0 0.014588106069203934 -0.045818189790246974 0 0.011597245174312926 -0.044897404359805451 0 0.011517264299819812 -0.046426129741750297 0 0.01299931766324936 -0.046026775504778829 0 0.0099448537903288701 -0.04584296853404176 0 0.0086555262810479022 -0.044127130991865798 0 0.011597245174312926 -0.044897404359805451 0 0.0086555262810479022 -0.044127130991865798 0 0.0098843649846815235 -0.044232173509282352 0 0.010791748799394593 -0.044780360421942958 0 0.01144914551970496 -0.04388469553531104 0 0.0098843649846815235 -0.044232173509282352 0 0.010791748799394593 -0.044780360421942958 0 0.0081219795841949195 -0.052292715335493414 0 0.0083692500932698987 -0.054343088481035938 0 0.0099448537903288701 -0.04584296853404176 0 0.011597245174312926 -0.044897404359805451 0 0.011517264299819812 -0.046426129741750297 0 0.0099448537903288701 -0.04584296853404176 0 0.011517264299819812 -0.046426129741750297 0 0.010395830857248102 -0.047074310651215506 0 0.011517264299819812 -0.046426129741750297 0 0.011210107637828582 -0.047681303156697205 0 0.010395830857248102 -0.047074310651215506 0 0.011517264299819812 -0.046426129741750297 0 0.011210107637828582 -0.047681303156697205 0 0.01276753637771668 -0.047524822625935492 0 0.011210107637828582 -0.047681303156697205 0 0.010395830857248102 -0.047074310651215506 0 0.010393211190723457 -0.04832060684914969 0 0.011632545600403619 -0.049001934423204753 0 0.011937908862082867 -0.048783797460811656 0 0.011916503048791691 -0.049210922854973548 0 0.011680147069058075 -0.054117197774363468 0 0.0067341188463433217 -0.061447666904289315 0 0.01299931766324936 -0.046026775504778829 0 0.01276753637771668 -0.047524822625935492 0 0.014588106069203934 -0.045818189790246974 0 0.011517264299819812 -0.046426129741750297 0 0.01299931766324936 -0.046026775504778829 0 0.01276753637771668 -0.047524822625935492 0 0.012172793456407979 -0.049694135958770133 0 0.011366693977558734 -0.049324511824865885 0 0.012719437499878878 -0.049342513861397055 0 0.011632545600403619 -0.049001934423204753 0 0.011366693977558734 -0.049324511824865885 0 0.011916503048791691 -0.049210922854973548 0 0.011778779635386056 -0.057045785977455674 0 0.010974312802831565 -0.058501077510153564 0 0.012172793456407979 -0.049694135958770133 0 0.011366693977558734 -0.049324511824865885 0 0.011491912940153361 -0.04986772548965359 0 0.010395830857248102 -0.047074310651215506 0 0.010393211190723457 -0.04832060684914969 0 0.0093704628342693042 -0.048332125583318987 0 0.011210107637828582 -0.047681303156697205 0 0.010393211190723457 -0.04832060684914969 0 0.010889575474751379 -0.049313718762057805 0 0.011632545600403619 -0.049001934423204753 0 0.011366693977558734 -0.049324511824865885 0 0.010889575474751379 -0.049313718762057805 0 0.011210107637828582 -0.047681303156697205 0 0.01276753637771668 -0.047524822625935492 0 0.010889575474751379 -0.049313718762057805 0 0.011680147069058075 -0.054117197774363468 0 0.012331559574803343 -0.052695404855188532 0 0.011366693977558734 -0.049324511824865885 0 0.010921749510410561 -0.04981214650943732 0 0.011491912940153361 -0.04986772548965359 0 0.011366693977558734 -0.049324511824865885 0 0.010889575474751379 -0.049313718762057805 0 0.010921749510410561 -0.04981214650943732 0 0.010889575474751379 -0.049313718762057805 0 0.01023062648710414 -0.04926782440323936 0 0.010921749510410561 -0.04981214650943732 0 0.010393211190723457 -0.04832060684914969 0 0.010889575474751379 -0.049313718762057805 0 0.01023062648710414 -0.04926782440323936 0 0.0079041877949076449 -0.044772974348015707 0 0.0097122105689292967 -0.046418250519339149 0 0.01023062648710414 -0.04926782440323936 0 0.0093704628342693042 -0.048332125583318987 0 0.0094798447246675632 -0.050397936844256835 0 0.0093704628342693042 -0.048332125583318987 0 0.0078020435950023415 -0.047388956343432299 0 0.0094798447246675632 -0.050397936844256835 0 0.0064161201019905991 -0.042704826525150327 0 0.0062693202145537958 -0.043594132181519758 0 0.006960728368736748 -0.043743539126901147 0 0.010393211190723457 -0.04832060684914969 0 0.01023062648710414 -0.04926782440323936 0 0.0093704628342693042 -0.048332125583318987 0 0.0060012351012263343 -0.043130935357637283 0 0.0064161201019905991 -0.042704826525150327 0 0.0057222460617850626 -0.042782425553568815 0 0.0060012351012263343 -0.043130935357637283 0 0.0064161201019905991 -0.042704826525150327 0 0.0062693202145537958 -0.043594132181519758 0 0.0060012351012263343 -0.043130935357637283 0 0.0062693202145537958 -0.043594132181519758 0 0.0055995043131599189 -0.043446581394000934 0 0.0064161201019905991 -0.042704826525150327 0 0.0057222460617850626 -0.042782425553568815 0 0.0058365479006064992 -0.042150913617747011 0 0.007855511455696922 -0.044978778767403277 0 0.008623567244476554 -0.045786127772838775 0 0.0078020435950023415 -0.047388956343432299 0 0.008623567244476554 -0.045786127772838775 0 0.0078020435950023415 -0.047388956343432299 0 0.0091191573926413094 -0.046956791157852874 0 0.0099448537903288701 -0.04584296853404176 0 0.010395830857248102 -0.047074310651215506 0 0.0091191573926413094 -0.046956791157852874 0 0.0099448537903288701 -0.04584296853404176 0 0.008623567244476554 -0.045786127772838775 0 0.0091191573926413094 -0.046956791157852874 0 0.010395830857248102 -0.047074310651215506 0 0.0093704628342693042 -0.048332125583318987 0 0.0091191573926413094 -0.046956791157852874 0 0.0093704628342693042 -0.048332125583318987 0 0.0078020435950023415 -0.047388956343432299 0 0.0091191573926413094 -0.046956791157852874 0 -0.0020085884551716573 -0.083035201412190965 0 -0.0021743609145412237 -0.082812419750016103 0 -0.0021965905723617812 -0.083107159236484179 0 -0.001750491180037109 -0.083176955579422659 0 -0.0019670358526378386 -0.083259322999826191 0 -0.0020085884551716573 -0.083035201412190965 0 -0.0019670358526378386 -0.083259322999826191 0 -0.0020085884551716573 -0.083035201412190965 0 -0.0021965905723617812 -0.083107159236484179 0 -0.0017547308925771161 -0.082791543275594626 0 -0.0020085884551716573 -0.083035201412190965 0 -0.0021743609145412237 -0.082812419750016103 0 -0.0017547308925771161 -0.082791543275594626 0 -0.00192621509064182 -0.0824322718205871 0 -0.0021743609145412237 -0.082812419750016103 0 -0.0023648415860399122 -0.082636402720004692 0 -0.00192621509064182 -0.0824322718205871 0 -0.0021743609145412237 -0.082812419750016103 0 -0.0021743609145412237 -0.082812419750016103 0 -0.0023677406245131861 -0.082787919562921045 0 -0.0024148804473233757 -0.082870808785711625 0 -0.0023648415860399122 -0.082636402720004692 0 -0.0023677406245131861 -0.082787919562921045 0 -0.0023689183879782518 -0.082843207850503989 0 -0.0023648415860399122 -0.082636402720004692 0 -0.0021743609145412237 -0.082812419750016103 0 -0.0023677406245131861 -0.082787919562921045 0 -0.0021743609145412237 -0.082812419750016103 0 -0.0024148804473233757 -0.082870808785711625 0 -0.0021965905723617812 -0.083107159236484179 0 -0.0024148804473233757 -0.082870808785711625 0 -0.0021965905723617812 -0.083107159236484179 0 -0.0025557948067646869 -0.083261210710042874 0 0.00099502009970672367 -0.074619518998983878 0 0.0026388134307639395 -0.069840659770677022 0 -0.0023505879702375148 -0.082746055407148578 0 -0.0020893347714295691 -0.082633500948149183 0 -0.0024122010403812891 -0.082596882414435413 0 -0.0024148804473233757 -0.082870808785711625 0 -0.0023505879702375148 -0.082746055407148578 0 -0.0024122010403812891 -0.082596882414435413 0 -0.0023505879702375148 -0.082746055407148578 0 -0.0023689183879782518 -0.082843207850503989 0 -0.0020893347714295691 -0.082633500948149183 0 -0.0024148804473233757 -0.082870808785711625 0 -0.0023505879702375148 -0.082746055407148578 0 -0.0023689183879782518 -0.082843207850503989 0 -0.001986954597331933 -0.073448679626711408 0 0.00039253925064018717 -0.068677396830354079 0 -0.0018319100375871788 -0.069132222919026654 0 0.001001732168251712 -0.06645000257215504 0 0.0025443006260738449 -0.067880454157796311 0 -0.001986954597331933 -0.073448679626711408 0 -1.7134766655173467e-05 -0.070505756854542884 0 -0.0023677406245131861 -0.082787919562921045 0 -0.0024148804473233757 -0.082870808785711625 0 -0.0023689183879782518 -0.082843207850503989 0 0.0057709121400006114 -0.060199475734642613 0 0.00039253925064018717 -0.068677396830354079 0 0.001001732168251712 -0.06645000257215504 0 0.0025443006260738449 -0.067880454157796311 0 0.0036832897743154422 -0.065726801131896884 0 0.0068893970135142186 -0.066637489037841627 0 0.0025443006260738449 -0.067880454157796311 0 0.0036832897743154422 -0.065726801131896884 0 -1.7134766655173467e-05 -0.070505756854542884 0 0.0067341188463433217 -0.061447666904289315 0 0.001001732168251712 -0.06645000257215504 0 0.0036832897743154422 -0.065726801131896884 0 0.003950925303173103 -0.063673501851382944 0 0.0068893970135142186 -0.066637489037841627 0 0.0036832897743154422 -0.065726801131896884 0 0.003950925303173103 -0.063673501851382944 0 0.0067341188463433217 -0.061447666904289315 0 0.006148480132992672 -0.063751643977420488 0 0.011937908862082867 -0.048783797460811656 0 0.011916503048791691 -0.049210922854973548 0 0.012279663204175952 -0.049164326627138558 0 0.0045280221174684217 -0.063453047293181575 0 0.0075644182233401604 -0.06653234140118218 0 0.0066766356844201631 -0.064826693234049493 0 0.010974312802831565 -0.058501077510153564 0 0.006148480132992672 -0.063751643977420488 0 0.012719437499878878 -0.049342513861397055 0 0.012810568144242827 -0.049605393977642159 0 0.012798382293252357 -0.049576532439085393 0 0.012172793456407979 -0.049694135958770133 0 0.012719437499878878 -0.049342513861397055 0 0.012906886622928311 -0.049663434391571865 0 0.012719437499878878 -0.049342513861397055 0 0.012906886622928311 -0.049663434391571865 0 0.012798382293252357 -0.049576532439085393 0 0.012906886622928311 -0.049663434391571865 0 0.012798382293252357 -0.049576532439085393 0 0.01263367308382706 -0.049488445473836608 0 0.012798382293252357 -0.049576532439085393 0 0.01280215667661643 -0.049613078149896669 0 0.01263367308382706 -0.049488445473836608 0 0.005613825303602697 -0.066746423890136186 0 0.0057260482817767747 -0.066865941581224816 0 0.0055720796131344284 -0.066884436559452268 0 0.0057374897693267795 -0.064141456030292865 0 0.007483313683513796 -0.064012185099424329 0 0.012810568144242827 -0.049605393977642159 0 0.012798382293252357 -0.049576532439085393 0 0.01280215667661643 -0.049613078149896669 0 0.0040299118035987992 -0.071445394481156776 0 0.0039991842148383045 -0.071540153409860543 0 0.0033910758687039355 -0.070813658513071975 0 0.0057374897693267795 -0.064141456030292865 0 0.0052897506318233855 -0.064728860563907087 0 0.0031447886635570417 -0.061335221243332322 0 0.0076613768185847522 -0.065901064023082948 0 0.0095619015139347396 -0.06004286404533913 0 0.006148480132992672 -0.063751643977420488 0 0.0052897506318233855 -0.064728860563907087 0 0.006148480132992672 -0.063751643977420488 0 0.0057374897693267795 -0.064141456030292865 0 0.0052897506318233855 -0.064728860563907087 0 0.0026388134307639395 -0.069840659770677022 0 0.0079823242613837209 -0.066448654143365191 0 0.0066766356844201631 -0.064826693234049493 0 0.0086575151974671374 -0.064362745722722395 0 0.0045280221174684217 -0.063453047293181575 0 0.0066766356844201631 -0.064826693234049493 0 0.0086575151974671374 -0.064362745722722395 0 0.0067341188463433217 -0.061447666904289315 0 0.0026388134307639395 -0.069840659770677022 0 0.0075644182233401604 -0.06653234140118218 0 0.0079823242613837209 -0.066448654143365191 0 0.0066766356844201631 -0.064826693234049493 0 0.0052897506318233855 -0.064728860563907087 0 0.00094831028445249222 -0.072140802104199694 0 0.0026388134307639395 -0.069840659770677022 0 0.00094831028445249222 -0.072140802104199694 0 0.0014522492795404091 -0.06984188900782938 0 0.0016219105122645665 -0.069316676357670387 0 0.0027057929969986644 -0.06960429787263922 0 -0.0021965905723617812 -0.083107159236484179 0 -0.0025557948067646869 -0.083261210710042874 0 -0.0020514940178732585 -0.083469754095668619 0 0.0039991842148383045 -0.071540153409860543 0 0.0027572130195509729 -0.071811899034468024 0 0.0033910758687039355 -0.070813658513071975 0 0.0057374897693267795 -0.064141456030292865 0 0.0052716262189299755 -0.069052158809827194 0 0.002450480861643501 -0.070975212326401707 0 0.0027572130195509729 -0.071811899034468024 0 0.0033910758687039355 -0.070813658513071975 0 -8.5609107247846007e-05 -0.073083150063155439 0 0.00094831028445249222 -0.072140802104199694 0 -0.0019670358526378386 -0.083259322999826191 0 -0.0021965905723617812 -0.083107159236484179 0 -0.0020514940178732585 -0.083469754095668619 0 -0.0017901554520762535 -0.083506630760933523 0 -0.0019670358526378386 -0.083259322999826191 0 -0.0020514940178732585 -0.083469754095668619 0 0.0014945387652652931 -0.083257179412883159 0 0.0022225310104071645 -0.083422223046778571 0 0.0018659747103908528 -0.08387840421057291 0 0.0022225310104071645 -0.083422223046778571 0 0.0018659747103908528 -0.08387840421057291 0 0.0024934920589383125 -0.083895104300472076 0 0.0016730105694625879 -0.08450604825179979 0 0.0018659747103908528 -0.08387840421057291 0 0.0023653256881277949 -0.084297288402687173 0 0.0016730105694625879 -0.08450604825179979 0 0.0023653256881277949 -0.084297288402687173 0 0.0025540593272197504 -0.08448189725450056 0 0.0023758428502066941 -0.073105383135312646 0 0.0052716262189299755 -0.069052158809827194 0 0.0018659747103908528 -0.08387840421057291 0 0.0023653256881277949 -0.084297288402687173 0 0.0024934920589383125 -0.083895104300472076 0 0.0023653256881277949 -0.084297288402687173 0 0.0028361903634039642 -0.084258900246312288 0 0.0024934920589383125 -0.083895104300472076 0 0.0023653256881277949 -0.084297288402687173 0 0.0026118556847119384 -0.084584561502261041 0 0.0028361903634039642 -0.084258900246312288 0 0.0055551492873104086 -0.069679876616237216 0 0.0052716262189299755 -0.069052158809827194 0 0.0028361903634039642 -0.084258900246312288 0 0.0024934920589383125 -0.083895104300472076 0 0.0030625457572274828 -0.08400839506343831 0 0.0024934920589383125 -0.083895104300472076 0 0.0028022027382515672 -0.083536828148466621 0 0.0030625457572274828 -0.08400839506343831 0 0.0022225310104071645 -0.083422223046778571 0 0.0024934920589383125 -0.083895104300472076 0 0.0028022027382515672 -0.083536828148466621 0 0.0022225310104071645 -0.083422223046778571 0 0.0028022027382515672 -0.083536828148466621 0 0.0028241627655215431 -0.08301884804993849 0 0.0028022027382515672 -0.083536828148466621 0 0.0030625457572274828 -0.08400839506343831 0 0.0042432771664977715 -0.083394766577089427 0 0.0030625457572274828 -0.08400839506343831 0 0.0036361360157467037 -0.084499501816018077 0 0.0042432771664977715 -0.083394766577089427 0 0.0026118556847119384 -0.084584561502261041 0 0.0028361903634039642 -0.084258900246312288 0 0.0036361360157467037 -0.084499501816018077 0 0.0052716262189299755 -0.069052158809827194 0 0.007483313683513796 -0.064012185099424329 0 0.0028361903634039642 -0.084258900246312288 0 0.0030625457572274828 -0.08400839506343831 0 0.0036361360157467037 -0.084499501816018077 0 0.012906886622928311 -0.049663434391571865 0 0.01263367308382706 -0.049488445473836608 0 0.013287612496642455 -0.049092968296103524 0 0.017021794809439342 -0.048554307799119227 0 0.015987020880908573 -0.048688312155608621 0 0.016543847021947663 -0.050215501229860834 0 0.007483313683513796 -0.064012185099424329 0 0.012344213461063968 -0.059813952967627544 0 0.015987020880908573 -0.048688312155608621 0 0.016543847021947663 -0.050215501229860834 0 0.015626630017402894 -0.0496635244869136 0 0.007483313683513796 -0.064012185099424329 0 0.0091870012877299668 -0.065968728694593776 0 0.0091870012877299668 -0.065968728694593776 0 0.010378446427194127 -0.066428848309437794 0 0.016543847021947663 -0.050215501229860834 0 0.016197032002944037 -0.051970067903046237 0 0.015167282480432297 -0.050620060544274995 0 0.0042432771664977715 -0.083394766577089427 0 0.0053356617016812125 -0.081983403061237567 0 0.0036852124253542009 -0.082093043590746179 0 0.0053356617016812125 -0.081983403061237567 0 0.0036852124253542009 -0.082093043590746179 0 0.0034288717430376171 -0.080588089548660494 0 0.0036852124253542009 -0.082093043590746179 0 0.001718049062949954 -0.081088677104257073 0 0.0034288717430376171 -0.080588089548660494 0 0.0028022027382515672 -0.083536828148466621 0 0.0042432771664977715 -0.083394766577089427 0 0.0028241627655215431 -0.08301884804993849 0 0.0042432771664977715 -0.083394766577089427 0 0.0036852124253542009 -0.082093043590746179 0 0.0028241627655215431 -0.08301884804993849 0 0.0022225310104071645 -0.083422223046778571 0 0.0028241627655215431 -0.08301884804993849 0 0.0020131873319842604 -0.082867751945185003 0 0.0023834748750010642 -0.082289925975421646 0 0.0020479011911466718 -0.081651421824001327 0 0.0028241627655215431 -0.08301884804993849 0 0.0020131873319842604 -0.082867751945185003 0 0.0021659571523789836 -0.082171311121407478 0 0.0036852124253542009 -0.082093043590746179 0 0.0028241627655215431 -0.08301884804993849 0 0.001718049062949954 -0.081088677104257073 0 0.0014234439680306332 -0.082530903558002383 0 0.0021659571523789836 -0.082171311121407478 0 0.0013973817148729875 -0.081982172461155481 0 0.0014234439680306332 -0.082530903558002383 0 0.0020131873319842604 -0.082867751945185003 0 0.0021659571523789836 -0.082171311121407478 0 0.0014945387652652931 -0.083257179412883159 0 0.0022225310104071645 -0.083422223046778571 0 0.0020131873319842604 -0.082867751945185003 0 0.0014945387652652931 -0.083257179412883159 0 0.0014234439680306332 -0.082530903558002383 0 0.0020131873319842604 -0.082867751945185003 0 0.01330732170372596 -0.04921949212251972 0 0.013969027865588218 -0.049582219748138957 0 0.013140922738194821 -0.050250558593626614 0 0.01330732170372596 -0.04921949212251972 0 0.012024242212915722 -0.049682834330284004 0 0.013140922738194821 -0.050250558593626614 0 0.010696682473847552 -0.048308715349972865 0 0.011735356800575903 -0.04893944325214105 0 0.011435543507250089 -0.047897743472266822 0 0.010696682473847552 -0.048308715349972865 0 0.010246852583151823 -0.046984303248801408 0 0.0098732432241176622 -0.047119773514856467 0 0.010027292322852387 -0.046906655210638783 0 0.0098732432241176622 -0.047119773514856467 0 0.010027292322852387 -0.046906655210638783 0 0.0098539872452470187 -0.046879702913681993 0 0.010027292322852387 -0.046906655210638783 0 0.010002686493163769 -0.046712250791390728 0 0.01020306646139693 -0.046863219245589234 0 0.0098539872452470187 -0.046879702913681993 0 0.010002686493163769 -0.046712250791390728 0 0.0097142461754617954 -0.046650937369235972 0 0.0085131553296662749 -0.045521398240499319 0 0.0077524046723003457 -0.044783297926925501 0 0.010027292322852387 -0.046906655210638783 0 0.0098539872452470187 -0.046879702913681993 0 0.010002686493163769 -0.046712250791390728 0 0.010002686493163769 -0.046712250791390728 0 0.01020306646139693 -0.046863219245589234 0 0.010295320398404082 -0.046774021290830255 0 0.0085131553296662749 -0.045521398240499319 0 0.0097122105689292967 -0.046418250519339149 0 0.010246852583151823 -0.046984303248801408 0 0.010027292322852387 -0.046906655210638783 0 0.01020306646139693 -0.046863219245589234 0 0.010246852583151823 -0.046984303248801408 0 0.01020306646139693 -0.046863219245589234 0 0.010330995895543222 -0.046843438620346518 0 0.01020306646139693 -0.046863219245589234 0 0.010330995895543222 -0.046843438620346518 0 0.010295320398404082 -0.046774021290830255 0 0.0097228369759484248 -0.046433447011214352 0 0.0097122105689292967 -0.046418250519339149 0 0.0094798447246675632 -0.050397936844256835 0 0.010921749510410561 -0.04981214650943732 0 0.011336852752030606 -0.05054296212008879 0 0.010330995895543222 -0.046843438620346518 0 0.010295658084161765 -0.046773913381673984 0 0.01063001547187846 -0.046847632064658563 0 0.010246852583151823 -0.046984303248801408 0 0.010330995895543222 -0.046843438620346518 0 0.01063001547187846 -0.046847632064658563 0 0.011435543507250089 -0.047897743472266822 0 0.011633763365429078 -0.047540994720013302 0 0.0097122105689292967 -0.046418250519339149 0 0.011633763365429078 -0.047540994720013302 0 0.01023062648710414 -0.04926782440323936 0 0.0094798447246675632 -0.050397936844256835 0 0.010921749510410561 -0.04981214650943732 0 0.010921749510410561 -0.04981214650943732 0 0.011336852752030606 -0.05054296212008879 0 0.011491912940153361 -0.04986772548965359 0 0.014698815701024227 -0.048833660674895966 0 0.014763448517349015 -0.049146943064714038 0 0.013969027865588218 -0.049582219748138957 0 0.014892796848419515 -0.048894033077263185 0 0.014698815701024227 -0.048833660674895966 0 0.014763448517349015 -0.049146943064714038 0 0.011659003898861939 -0.047547561482074105 0 0.011633763365429078 -0.047540994720013302 0 0.015987020880908573 -0.048688312155608621 0 0.014747874001991481 -0.048866705829995839 0 0.015176812489685401 -0.04922054142880114 0 0.012906886622928311 -0.049663434391571865 0 0.013287612496642455 -0.049092968296103524 0 0.014747874001991481 -0.048866705829995839 0 0.012906886622928311 -0.049663434391571865 0 0.014892796848419515 -0.048894033077263185 0 0.014747874001991481 -0.048866705829995839 0 0.012172793456407979 -0.049694135958770133 0 0.012906886622928311 -0.049663434391571865 0 0.011336852752030606 -0.05054296212008879 0 0.012906886622928311 -0.049663434391571865 0 0.014892796848419515 -0.048894033077263185 0 0.015076226416711119 -0.048936975684165239 0 0.012344213461063968 -0.059813952967627544 0 0.013516705282277832 -0.058562153267222659 0 0.01214679227726586 -0.047999096945725558 0 0.011633763365429078 -0.047540994720013302 0 0.012172793456407979 -0.049694135958770133 0 0.011336852752030606 -0.05054296212008879 0 0.011491912940153361 -0.04986772548965359 0 0.014892796848419515 -0.048894033077263185 0 0.014763448517349015 -0.049146943064714038 0 0.014747874001991481 -0.048866705829995839 0 0.014763448517349015 -0.049146943064714038 0 0.014747874001991481 -0.048866705829995839 0 0.015176812489685401 -0.04922054142880114 0 0.015987020880908573 -0.048688312155608621 0 0.015176812489685401 -0.04922054142880114 0 0.015626630017402894 -0.0496635244869136 0 0.016543847021947663 -0.050215501229860834 0 0.015626630017402894 -0.0496635244869136 0 0.015167282480432297 -0.050620060544274995 0 0.015176812489685401 -0.04922054142880114 0 0.015626630017402894 -0.0496635244869136 0 0.014921604650549564 -0.049660858778978204 0 0.014763448517349015 -0.049146943064714038 0 0.015176812489685401 -0.04922054142880114 0 0.014921604650549564 -0.049660858778978204 0 0.014921604650549564 -0.049660858778978204 0 0.014536709181790898 -0.050108503680293258 0 0.015167282480432297 -0.050620060544274995 0 0.015626630017402894 -0.0496635244869136 0 0.014921604650549564 -0.049660858778978204 0 0.015167282480432297 -0.050620060544274995 0 0.01330732170372596 -0.04921949212251972 0 0.014698815701024227 -0.048833660674895966 0 0.013969027865588218 -0.049582219748138957 0 0.013969027865588218 -0.049582219748138957 0 0.014536709181790898 -0.050108503680293258 0 0.014001813314617393 -0.050649844932123683 0 0.014763448517349015 -0.049146943064714038 0 0.014921604650549564 -0.049660858778978204 0 0.013969027865588218 -0.049582219748138957 0 0.014921604650549564 -0.049660858778978204 0 0.013969027865588218 -0.049582219748138957 0 0.014536709181790898 -0.050108503680293258 0 0.014536709181790898 -0.050108503680293258 0 0.014001813314617393 -0.050649844932123683 0 0.015167282480432297 -0.050620060544274995 0 0.014001813314617393 -0.050649844932123683 0 0.015167282480432297 -0.050620060544274995 0 0.014218486790038514 -0.052022573381822881 0 0.016197032002944037 -0.051970067903046237 0 0.015167282480432297 -0.050620060544274995 0 0.014218486790038514 -0.052022573381822881 0 0.014218486790038514 -0.052022573381822881 0 0.012910522949189476 -0.051515148317711708 0 0.012204460190951451 -0.053226370580064644 0 0.014001813314617393 -0.050649844932123683 0 0.014218486790038514 -0.052022573381822881 0 0.012910522949189476 -0.051515148317711708 0 0.013969027865588218 -0.049582219748138957 0 0.014001813314617393 -0.050649844932123683 0 0.013140922738194821 -0.050250558593626614 0 0.014001813314617393 -0.050649844932123683 0 0.012910522949189476 -0.051515148317711708 0 0.013140922738194821 -0.050250558593626614 0 0.011640319386980274 -0.049262259205143447 0 0.011925027095010749 -0.050820276117766801 0 0.011075027019877724 -0.050193815759961853 0 0.012910522949189476 -0.051515148317711708 0 0.013140922738194821 -0.050250558593626614 0 0.011925027095010749 -0.050820276117766801 0 0.011640319386980274 -0.049262259205143447 0 0.013140922738194821 -0.050250558593626614 0 0.011925027095010749 -0.050820276117766801 0 0.011956927190887059 -0.051839587950655061 0 0.010783278108470771 -0.051768551338868478 0 0.012204460190951451 -0.053226370580064644 0 0.012910522949189476 -0.051515148317711708 0 0.011956927190887059 -0.051839587950655061 0 0.012204460190951451 -0.053226370580064644 0 0.011925027095010749 -0.050820276117766801 0 0.011956927190887059 -0.051839587950655061 0 0.010783278108470771 -0.051768551338868478 0 0.012910522949189476 -0.051515148317711708 0 0.011925027095010749 -0.050820276117766801 0 0.011956927190887059 -0.051839587950655061 0 0.010188742025239582 -0.051640038864985624 0 0.0085945230779710096 -0.051916113006832985 0 0.0083518319474623244 -0.051091073722440011 0 0.010188742025239582 -0.051640038864985624 0 0.0085945230779710096 -0.051916113006832985 0 0.0094040829504541054 -0.052483143961945582 0 0.010188742025239582 -0.051640038864985624 0 0.0083518319474623244 -0.051091073722440011 0 0.0085343563259873047 -0.050085812922587687 0 0.0091657426348833552 -0.049037561903839053 0 0.010328538563271655 -0.050281666853156375 0 0.0093069489380113602 -0.047765469884880944 0 0.010312256118591418 -0.051567801995412881 0 0.0083093404669764871 -0.049672105429427599 0 0.010783278108470771 -0.051768551338868478 0 0.0086918972725515391 -0.049743281169969039 0 0.0093210130667966268 -0.04988902369188971 0 0.0084591343582892768 -0.049607207400486124 0 0.0091657426348833552 -0.049037561903839053 0 0.0083834349305965342 -0.048115041134653799 0 0.0084591343582892768 -0.049607207400486124 0 0.0091657426348833552 -0.049037561903839053 0 0.0093210130667966268 -0.04988902369188971 0 0.0083093404669764871 -0.049672105429427599 0 0.0083548302696731212 -0.049681946606801766 0 0.0091657426348833552 -0.049037561903839053 0 0.0093210130667966268 -0.04988902369188971 0 0.010328538563271655 -0.050281666853156375 0 0.011075027019877724 -0.050193815759961853 0 0.010328538563271655 -0.050281666853156375 0 0.010585152579724904 -0.049588123814503976 0 0.010783278108470771 -0.051768551338868478 0 0.0093210130667966268 -0.04988902369188971 0 0.010328538563271655 -0.050281666853156375 0 0.011925027095010749 -0.050820276117766801 0 0.010783278108470771 -0.051768551338868478 0 0.011075027019877724 -0.050193815759961853 0 0.010783278108470771 -0.051768551338868478 0 0.011075027019877724 -0.050193815759961853 0 0.010328538563271655 -0.050281666853156375 0 0.0089112517876444985 -0.050773988264281825 0 0.0063099048307543896 -0.049432766589847091 0 0.0070160186760632529 -0.050973695814912894 0 0.007728493997411115 -0.051768179091868316 0 0.0089112517876444985 -0.050773988264281825 0 0.0083918014232051332 -0.053026529081428783 0 0.007728493997411115 -0.051768179091868316 0 0.0070160186760632529 -0.050973695814912894 0 0.0065568710646524263 -0.052302673725900542 0 0.007728493997411115 -0.051768179091868316 0 0.0089112517876444985 -0.050773988264281825 0 0.0070160186760632529 -0.050973695814912894 0 0.0085945230779710096 -0.051916113006832985 0 0.0067986388399614755 -0.051306185977539644 0 0.0082416746213559121 -0.0532599380942885 0 0.0085945230779710096 -0.051916113006832985 0 0.0083518319474623244 -0.051091073722440011 0 0.0067986388399614755 -0.051306185977539644 0 0.0083518319474623244 -0.051091073722440011 0 0.0067986388399614755 -0.051306185977539644 0 0.007656873134638466 -0.050503722464260596 0 0.0085343563259873047 -0.050085812922587687 0 0.007656873134638466 -0.050503722464260596 0 0.0069433436258054416 -0.049732342118953547 0 0.008098422914380534 -0.048769030748467453 0 0.0062450087004707932 -0.048326207068331871 0 0.0069457795460995822 -0.047676083776077412 0 0.0067986388399614755 -0.051306185977539644 0 0.007656873134638466 -0.050503722464260596 0 0.0069433436258054416 -0.049732342118953547 0 0.0083093404669764871 -0.049672105429427599 0 0.006749520144743777 -0.049179258317774942 0 0.0083518319474623244 -0.051091073722440011 0 0.0085343563259873047 -0.050085812922587687 0 0.007656873134638466 -0.050503722464260596 0 0.0083093404669764871 -0.049672105429427599 0 0.0079660249196715806 -0.049284766189536255 0 0.0074698746467934431 -0.051098573827633539 0 0.0054249648080126455 -0.048778986295886874 0 0.0067986388399614755 -0.051306185977539644 0 0.0069433436258054416 -0.049732342118953547 0 0.0053596596295973674 -0.049374986228377708 0 0.0089112517876444985 -0.050773988264281825 0 0.0064944794449044874 -0.047332130718895103 0 0.0063099048307543896 -0.049432766589847091 0 0.006749520144743777 -0.049179258317774942 0 0.0054249648080126455 -0.048778986295886874 0 0.0062450087004707932 -0.048326207068331871 0 0.0050462099164228337 -0.047419513215038102 0 0.0041817047905966043 -0.047677915740182548 0 0.0047062155006772667 -0.046677936878660335 0 0.0050462099164228337 -0.047419513215038102 0 0.0056979369757152948 -0.047309062610045707 0 0.0047062155006772667 -0.046677936878660335 0 0.0056979369757152948 -0.047309062610045707 0 0.0054271664743339287 -0.046385679806847491 0 0.0047062155006772667 -0.046677936878660335 0 0.0050462099164228337 -0.047419513215038102 0 0.0043955043138650864 -0.047100742593173546 0 0.0062450087004707932 -0.048326207068331871 0 0.0050462099164228337 -0.047419513215038102 0 0.0056979369757152948 -0.047309062610045707 0 0.0056979369757152948 -0.047309062610045707 0 0.0054271664743339287 -0.046385679806847491 0 0.0062050153963126992 -0.046750457272155301 0 0.0056979369757152948 -0.047309062610045707 0 0.0062050153963126992 -0.046750457272155301 0 0.0069457795460995822 -0.047676083776077412 0 0.0062050153963126992 -0.046750457272155301 0 0.0069457795460995822 -0.047676083776077412 0 0.0069587206867115798 -0.046391007720041372 0 0.0062450087004707932 -0.048326207068331871 0 0.0056979369757152948 -0.047309062610045707 0 0.0069457795460995822 -0.047676083776077412 0 0.0084591343582892768 -0.049607207400486124 0 0.0069457795460995822 -0.047676083776077412 0 0.0083834349305965342 -0.048115041134653799 0 0.0069457795460995822 -0.047676083776077412 0 0.0081534594921258349 -0.046844572774290542 0 0.0083834349305965342 -0.048115041134653799 0 0.0069457795460995822 -0.047676083776077412 0 0.0081534594921258349 -0.046844572774290542 0 0.0069587206867115798 -0.046391007720041372 0 0.0081534594921258349 -0.046844572774290542 0 0.007421901998290543 -0.045122744869357287 0 0.0069587206867115798 -0.046391007720041372 0 0.007421901998290543 -0.045122744869357287 0 0.0069587206867115798 -0.046391007720041372 0 0.0061532708138680291 -0.045571275214510217 0 0.0062050153963126992 -0.046750457272155301 0 0.0069587206867115798 -0.046391007720041372 0 0.0061532708138680291 -0.045571275214510217 0 0.0061532708138680291 -0.045571275214510217 0 0.0045025399404708616 -0.043677786051517085 0 0.0045073544717910297 -0.04482325994473528 0 0.007421901998290543 -0.045122744869357287 0 0.0061532708138680291 -0.045571275214510217 0 0.0045025399404708616 -0.043677786051517085 0 0.0054271664743339287 -0.046385679806847491 0 0.0062050153963126992 -0.046750457272155301 0 0.0061532708138680291 -0.045571275214510217 0 0.0054271664743339287 -0.046385679806847491 0 0.0061532708138680291 -0.045571275214510217 0 0.005277283293771232 -0.045641506395636952 0 0.0061532708138680291 -0.045571275214510217 0 0.005277283293771232 -0.045641506395636952 0 0.0045073544717910297 -0.04482325994473528 0 0.005277283293771232 -0.045641506395636952 0 0.0045615604664527758 -0.045652426657607638 0 0.0045073544717910297 -0.04482325994473528 0 0.0054271664743339287 -0.046385679806847491 0 0.005277283293771232 -0.045641506395636952 0 0.0045615604664527758 -0.045652426657607638 0 0.0047062155006772667 -0.046677936878660335 0 0.0054271664743339287 -0.046385679806847491 0 0.0045615604664527758 -0.045652426657607638 0 0.0091184484514644018 -0.048235974029815228 0 0.0089697002524156515 -0.047086406493702396 0 0.010328538563271655 -0.050281666853156375 0 0.010666238144865094 -0.048872590651910436 0 0.010585152579724904 -0.049588123814503976 0 0.0098732432241176622 -0.047119773514856467 0 0.0098539872452470187 -0.046879702913681993 0 0.0096531506367307975 -0.04700788427995297 0 0.010696682473847552 -0.048308715349972865 0 0.0089697002524156515 -0.047086406493702396 0 0.010696682473847552 -0.048308715349972865 0 0.010667007272921315 -0.048415557297258369 0 0.011440106765746177 -0.049271668094693098 0 0.010666238144865094 -0.048872590651910436 0 0.010585152579724904 -0.049588123814503976 0 0.011640319386980274 -0.049262259205143447 0 0.011075027019877724 -0.050193815759961853 0 0.010585152579724904 -0.049588123814503976 0 0.010328538563271655 -0.050281666853156375 0 0.011043275936571072 -0.046901943528322852 0 0.0093069489380113602 -0.047765469884880944 0 0.0081534594921258349 -0.046844572774290542 0 0.011043275936571072 -0.046901943528322852 0 0.0093069489380113602 -0.047765469884880944 0 0.0081534594921258349 -0.046844572774290542 0 0.0093069489380113602 -0.047765469884880944 0 0.0083834349305965342 -0.048115041134653799 0 0.0091657426348833552 -0.049037561903839053 0 0.0093069489380113602 -0.047765469884880944 0 0.0083834349305965342 -0.048115041134653799 0 0.0081534594921258349 -0.046844572774290542 0 0.007421901998290543 -0.045122744869357287 0 0.011043275936571072 -0.046901943528322852 0 0.0070659746972943803 -0.045517052379665447 0 0.0089697002524156515 -0.047086406493702396 0 0.0067762403292096511 -0.044792076420291871 0 0.0089374973683109277 -0.0458734905257982 0 0.0080913610852307669 -0.044866997848718962 0 0.0080913610852307669 -0.044866997848718962 0 0.0077934733414250076 -0.044405337631562784 0 0.0092336813249964886 -0.044218908992832484 0 0.0067762403292096511 -0.044792076420291871 0 0.0080913610852307669 -0.044866997848718962 0 0.0077934733414250076 -0.044405337631562784 0 0.0089697002524156515 -0.047086406493702396 0 0.0077524046723003457 -0.044783297926925501 0 0.0098539872452470187 -0.046879702913681993 0 0.0096531506367307975 -0.04700788427995297 0 0.0097142461754617954 -0.046650937369235972 0 0.0089374973683109277 -0.0458734905257982 0 0.0080913610852307669 -0.044866997848718962 0 0.0092336813249964886 -0.044218908992832484 0 0.0060012351012263343 -0.043130935357637283 0 0.0055995043131599189 -0.043446581394000934 0 0.0057222460617850626 -0.042782425553568815 0 0.005678644618877667 -0.043070200541702013 0 0.0057575937078801825 -0.04258620047190128 0 0.0053134096021128924 -0.042732084803481014 0 0.0077524046723003457 -0.044783297926925501 0 0.0073642468123320407 -0.043665010881806611 0 0.0073642468123320407 -0.043665010881806611 0 0.0072493408312867217 -0.043288103465709209 0 0.0057575937078801825 -0.04258620047190128 0 0.0055094151092355019 -0.042236863831145242 0 0.0058365479006064992 -0.042150913617747011 0 0.0057575937078801825 -0.04258620047190128 0 0.0054416703161357808 -0.042480115708119028 0 0.0055094151092355019 -0.042236863831145242 0 0.0057575937078801825 -0.04258620047190128 0 0.0054416703161357808 -0.042480115708119028 0 0.0053134096021128924 -0.042732084803481014 0 0.0051783104740278987 -0.042365883063296243 0 0.0049580331175918778 -0.042521918538661038 0 0.0048636462185762249 -0.04220741107811788 0 0.0054416703161357808 -0.042480115708119028 0 0.0055094151092355019 -0.042236863831145242 0 0.0051783104740278987 -0.042365883063296243 0 0.0054416703161357808 -0.042480115708119028 0 0.0051783104740278987 -0.042365883063296243 0 0.0053134096021128924 -0.042732084803481014 0 0.0051783104740278987 -0.042365883063296243 0 0.0049580331175918778 -0.042521918538661038 0 0.0053134096021128924 -0.042732084803481014 0 0.0077524046723003457 -0.044783297926925501 0 0.0059377033116464195 -0.043837788475305291 0 0.0049580331175918778 -0.042521918538661038 0 0.0053134096021128924 -0.042732084803481014 0 0.0048832103771575897 -0.042904811668018031 0 0.005678644618877667 -0.043070200541702013 0 0.0053134096021128924 -0.042732084803481014 0 0.0048832103771575897 -0.042904811668018031 0 0.0077934733414250076 -0.044405337631562784 0 0.0092336813249964886 -0.044218908992832484 0 0.0070690869523726864 -0.043749101435580556 0 0.0067762403292096511 -0.044792076420291871 0 0.0077934733414250076 -0.044405337631562784 0 0.0070690869523726864 -0.043749101435580556 0 0.0059377033116464195 -0.043837788475305291 0 0.0043882234991265995 -0.043280507643972337 0 0.0067762403292096511 -0.044792076420291871 0 0.0070690869523726864 -0.043749101435580556 0 0.0057973169401776782 -0.04386372859571689 0 0.0070690869523726864 -0.043749101435580556 0 0.0057973169401776782 -0.04386372859571689 0 0.0048274069325169432 -0.043239710385056425 0 0.0067762403292096511 -0.044792076420291871 0 0.0057973169401776782 -0.04386372859571689 0 0.0045025399404708616 -0.043677786051517085 0 0.0048832103771575897 -0.042904811668018031 0 0.0040526628137148839 -0.042788581675198063 0 0.0043038838492274727 -0.04255539442593962 0 0.0070659746972943803 -0.045517052379665447 0 0.0057407512113725068 -0.044692384315384137 0 0.0057973169401776782 -0.04386372859571689 0 0.0048274069325169432 -0.043239710385056425 0 0.0045025399404708616 -0.043677786051517085 0 0.0040550066232693848 -0.042157841252567829 0 0.004571827275852077 -0.042387452096210788 0 0.0045903527103677401 -0.041835735512095622 0 0.0043038838492274727 -0.04255539442593962 0 0.0040550066232693848 -0.042157841252567829 0 0.0037520402634773297 -0.042357003499735438 0 0.0040526628137148839 -0.042788581675198063 0 0.0043038838492274727 -0.04255539442593962 0 0.0037520402634773297 -0.042357003499735438 0 0.0043038838492274727 -0.04255539442593962 0 0.0040550066232693848 -0.042157841252567829 0 0.004571827275852077 -0.042387452096210788 0 0.0048832103771575897 -0.042904811668018031 0 0.0043038838492274727 -0.04255539442593962 0 0.004571827275852077 -0.042387452096210788 0 0.0049580331175918778 -0.042521918538661038 0 0.0048832103771575897 -0.042904811668018031 0 0.004571827275852077 -0.042387452096210788 0 0.0049580331175918778 -0.042521918538661038 0 0.004571827275852077 -0.042387452096210788 0 0.0048636462185762249 -0.04220741107811788 0 0.0048636462185762249 -0.04220741107811788 0 0.0045903527103677401 -0.041835735512095622 0 0.00518585393720706 -0.041866536517250662 0 0.004571827275852077 -0.042387452096210788 0 0.0048636462185762249 -0.04220741107811788 0 0.0045903527103677401 -0.041835735512095622 0 0.0045903527103677401 -0.041835735512095622 0 0.0049781051545371036 -0.041424431461447482 0 0.00518585393720706 -0.041866536517250662 0 0.0040550066232693848 -0.042157841252567829 0 0.0045903527103677401 -0.041835735512095622 0 0.0038969628881030502 -0.041628382148059508 0 0.0043499346685473049 -0.04115095757036985 0 0.0045903527103677401 -0.041835735512095622 0 0.0038969628881030502 -0.041628382148059508 0 0.0043499346685473049 -0.04115095757036985 0 0.0038969628881030502 -0.041628382148059508 0 0.0036871538801987662 -0.041104270548648812 0 0.0043499346685473049 -0.04115095757036985 0 0.0045903527103677401 -0.041835735512095622 0 0.0049781051545371036 -0.041424431461447482 0 0.0056489273259397715 -0.041302066086977403 0 0.0049781051545371036 -0.041424431461447482 0 0.00518585393720706 -0.041866536517250662 0 0.0056489273259397715 -0.041302066086977403 0 0.0071882108387370178 -0.042027885534536187 0 0.0064560248721714265 -0.044197780965374099 0 0.0056489273259397715 -0.041302066086977403 0 0.0058795537875822989 -0.041815136077665932 0 0.0056036125115415669 -0.041838686736088988 0 0.0056489273259397715 -0.041302066086977403 0 0.0056036125115415669 -0.041838686736088988 0 0.00518585393720706 -0.041866536517250662 0 0.0062448870062765914 -0.042330531644841567 0 0.0067384001020978929 -0.043181673758789167 0 0.0058795537875822989 -0.041815136077665932 0 0.0056036125115415669 -0.041838686736088988 0 0.0058365479006064992 -0.042150913617747011 0 0.0055094151092355019 -0.042236863831145242 0 0.0056036125115415669 -0.041838686736088988 0 0.0058365479006064992 -0.042150913617747011 0 0.0055094151092355019 -0.042236863831145242 0 0.0056036125115415669 -0.041838686736088988 0 0.00518585393720706 -0.041866536517250662 0 0.0055094151092355019 -0.042236863831145242 0 0.0051783104740278987 -0.042365883063296243 0 0.00518585393720706 -0.041866536517250662 0 0.0051783104740278987 -0.042365883063296243 0 0.0048636462185762249 -0.04220741107811788 0 0.00518585393720706 -0.041866536517250662 0 0.00019782725052188151 -0.04017939523440648 0 0.0018383332247870808 -0.040818734106464069 0 0.00058301360765299157 -0.041965331595701164 0 0.00019782725052188151 -0.04017939523440648 0 0.00058301360765299157 -0.041965331595701164 0 -0.0011792155357686434 -0.041369097868978855 0 0.00019782725052188151 -0.04017939523440648 0 0.0013299196371003932 -0.038646135151293122 0 0.0018383332247870808 -0.040818734106464069 0 0.00019782725052188151 -0.04017939523440648 0 -0.001111784424892015 -0.039603089522235013 0 -0.0011792155357686434 -0.041369097868978855 0 -0.0027337558153371824 -0.040189075174755721 0 -0.001111784424892015 -0.039603089522235013 0 -0.0011792155357686434 -0.041369097868978855 0 0.00019782725052188151 -0.04017939523440648 0 -0.001111784424892015 -0.039603089522235013 0 -0.00014961105919658027 -0.038588217681126864 0 -0.0027337558153371824 -0.040189075174755721 0 -0.0015825358726921908 -0.037596284978126851 0 -0.001111784424892015 -0.039603089522235013 0 -0.0015825358726921908 -0.037596284978126851 0 -0.001111784424892015 -0.039603089522235013 0 -0.00014961105919658027 -0.038588217681126864 0 0.00042865884899835751 -0.036845385108692841 0 -0.00014961105919658027 -0.038588217681126864 0 0.0013299196371003932 -0.038646135151293122 0 0.00019782725052188151 -0.04017939523440648 0 -0.00014961105919658027 -0.038588217681126864 0 0.0013299196371003932 -0.038646135151293122 0 0.0013299196371003932 -0.038646135151293122 0 0.003174099368413202 -0.039257879900947763 0 0.0018383332247870808 -0.040818734106464069 0 0.00039931310116114114 -0.037500337414183772 0 0.0018341208856805628 -0.039934308387612125 0 0.0026401447542697357 -0.036616939791444328 0 0.0013299196371003932 -0.038646135151293122 0 0.003174099368413202 -0.039257879900947763 0 0.0030152946335044242 -0.040679237749818312 0 0.0033361501015423791 -0.041482098546491382 0 0.0036871538801987662 -0.041104270548648812 0 0.0038969628881030502 -0.041628382148059508 0 0.0033361501015423791 -0.041482098546491382 0 0.0036871538801987662 -0.041104270548648812 0 0.0018341208856805628 -0.039934308387612125 0 0.0022816598223939387 -0.040842021189121669 0 0.0040550066232693848 -0.042157841252567829 0 0.0038969628881030502 -0.041628382148059508 0 0.0034593414334061993 -0.041972223453387018 0 0.0038969628881030502 -0.041628382148059508 0 0.0033361501015423791 -0.041482098546491382 0 0.0034593414334061993 -0.041972223453387018 0 0.003174099368413202 -0.039257879900947763 0 0.0018383332247870808 -0.040818734106464069 0 0.0034593414334061993 -0.041972223453387018 0 0.0018383332247870808 -0.040818734106464069 0 0.0022385982890964187 -0.04260562201720923 0 0.00058301360765299157 -0.041965331595701164 0 0.0018383332247870808 -0.040818734106464069 0 0.0022385982890964187 -0.04260562201720923 0 0.0034593414334061993 -0.041972223453387018 0 0.0022385982890964187 -0.04260562201720923 0 0.0034593414334061993 -0.041972223453387018 0 0.0037520402634773297 -0.042357003499735438 0 0.0040526628137148839 -0.042788581675198063 0 0.0022385982890964187 -0.04260562201720923 0 0.0037520402634773297 -0.042357003499735438 0 0.0040550066232693848 -0.042157841252567829 0 0.0034593414334061993 -0.041972223453387018 0 0.0037520402634773297 -0.042357003499735438 0 0.0048274069325169432 -0.043239710385056425 0 0.0022385982890964187 -0.04260562201720923 0 0.0036516465362653443 -0.043588052657441104 0 0.0043882234991265995 -0.043280507643972337 0 0.0033980670033083712 -0.043014266143105787 0 0.0048274069325169432 -0.043239710385056425 0 0.0045025399404708616 -0.043677786051517085 0 0.0036516465362653443 -0.043588052657441104 0 0.0036516465362653443 -0.043588052657441104 0 0.0038225342044496654 -0.04426196741808025 0 0.002853649879446253 -0.044180712804830317 0 0.0045025399404708616 -0.043677786051517085 0 0.0036516465362653443 -0.043588052657441104 0 0.0038225342044496654 -0.04426196741808025 0 0.0045025399404708616 -0.043677786051517085 0 0.0038225342044496654 -0.04426196741808025 0 0.0045073544717910297 -0.04482325994473528 0 0.0022385982890964187 -0.04260562201720923 0 0.002853649879446253 -0.044180712804830317 0 0.0014409113893881368 -0.044357150378489273 0 0.0022385982890964187 -0.04260562201720923 0 0.0014409113893881368 -0.044357150378489273 0 0.00075739177773669422 -0.043290487238320158 0 0.0022385982890964187 -0.04260562201720923 0 0.0036516465362653443 -0.043588052657441104 0 0.002853649879446253 -0.044180712804830317 0 0.0014409113893881368 -0.044357150378489273 0 0.00075739177773669422 -0.043290487238320158 0 8.4013858832587536e-05 -0.044449968068721084 0 0.00075739177773669422 -0.043290487238320158 0 -0.0006237372274176435 -0.042895523676848048 0 8.4013858832587536e-05 -0.044449968068721084 0 0.0022385982890964187 -0.04260562201720923 0 0.00075739177773669422 -0.043290487238320158 0 0.00058301360765299157 -0.041965331595701164 0 0.00075739177773669422 -0.043290487238320158 0 0.00058301360765299157 -0.041965331595701164 0 -0.0006237372274176435 -0.042895523676848048 0 0.00058301360765299157 -0.041965331595701164 0 -0.0011792155357686434 -0.041369097868978855 0 -0.0006237372274176435 -0.042895523676848048 0 -0.0011792155357686434 -0.041369097868978855 0 -0.0017289587534352324 -0.042639017157956059 0 -0.0006237372274176435 -0.042895523676848048 0 -0.0024178081128678991 -0.041900826521592563 0 -0.0011792155357686434 -0.041369097868978855 0 -0.0017289587534352324 -0.042639017157956059 0 -0.0017289587534352324 -0.042639017157956059 0 -0.0006237372274176435 -0.042895523676848048 0 -0.0015211862716057714 -0.043688323507258049 0 -0.0015211862716057714 -0.043688323507258049 0 -0.0011179978997248429 -0.04475210161106042 0 8.4013858832587536e-05 -0.044449968068721084 0 -0.0006237372274176435 -0.042895523676848048 0 -0.0015211862716057714 -0.043688323507258049 0 8.4013858832587536e-05 -0.044449968068721084 0 -0.0011179978997248429 -0.04475210161106042 0 8.4013858832587536e-05 -0.044449968068721084 0 0.00043440029983196236 -0.046292821497096986 0 -0.0011179978997248429 -0.04475210161106042 0 0.00043440029983196236 -0.046292821497096986 0 -0.0012628494834831584 -0.046098171812104197 0 0.0014409113893881368 -0.044357150378489273 0 0.00043440029983196236 -0.046292821497096986 0 0.0022658696821363771 -0.045539484207820564 0 0.0014409113893881368 -0.044357150378489273 0 8.4013858832587536e-05 -0.044449968068721084 0 0.00043440029983196236 -0.046292821497096986 0 0.0024390145577502811 -0.047516825445096264 0 0.0034284528962612608 -0.047874737441329189 0 0.00043440029983196236 -0.046292821497096986 0 0.0035041653851568097 -0.046698722132271178 0 0.0021415724423709424 -0.04827217910940218 0 0.00043440029983196236 -0.046292821497096986 0 0.00044461548006842602 -0.048175064402989777 0 0.0021415724423709424 -0.04827217910940218 0 0.00043440029983196236 -0.046292821497096986 0 -0.00079956440462558283 -0.047526012302791569 0 0.00044461548006842602 -0.048175064402989777 0 -0.00079956440462558283 -0.047526012302791569 0 -0.0016567784822243748 -0.047038952621242802 0 -0.0012628494834831584 -0.046098171812104197 0 -0.0019282484411912799 -0.047940343512167041 0 -0.00079956440462558283 -0.047526012302791569 0 -0.0016567784822243748 -0.047038952621242802 0 0.00043440029983196236 -0.046292821497096986 0 -0.00079956440462558283 -0.047526012302791569 0 -0.0012628494834831584 -0.046098171812104197 0 0.0047062155006772667 -0.046677936878660335 0 0.0039626882797571894 -0.046068057100255293 0 0.0045615604664527758 -0.045652426657607638 0 0.0039626882797571894 -0.046068057100255293 0 0.0045615604664527758 -0.045652426657607638 0 0.0034979988738356562 -0.045206813355740977 0 0.0038225342044496654 -0.04426196741808025 0 0.0045073544717910297 -0.04482325994473528 0 0.0034979988738356562 -0.045206813355740977 0 0.0045615604664527758 -0.045652426657607638 0 0.0045073544717910297 -0.04482325994473528 0 0.0034979988738356562 -0.045206813355740977 0 0.0038225342044496654 -0.04426196741808025 0 0.002853649879446253 -0.044180712804830317 0 0.0034979988738356562 -0.045206813355740977 0 0.0039626882797571894 -0.046068057100255293 0 0.0034979988738356562 -0.045206813355740977 0 0.0033186260562220547 -0.046192642989612773 0 0.0034979988738356562 -0.045206813355740977 0 0.0022658696821363771 -0.045539484207820564 0 0.0033186260562220547 -0.046192642989612773 0 0.002853649879446253 -0.044180712804830317 0 0.0034979988738356562 -0.045206813355740977 0 0.0022658696821363771 -0.045539484207820564 0 0.002853649879446253 -0.044180712804830317 0 0.0014409113893881368 -0.044357150378489273 0 0.0022658696821363771 -0.045539484207820564 0 0.00043440029983196236 -0.046292821497096986 0 0.0022658696821363771 -0.045539484207820564 0 0.0022346683846116992 -0.046903762930821269 0 0.0022658696821363771 -0.045539484207820564 0 0.0022346683846116992 -0.046903762930821269 0 0.0033186260562220547 -0.046192642989612773 0 0.0034284528962612608 -0.047874737441329189 0 0.0054249648080126455 -0.048778986295886874 0 0.0022346683846116992 -0.046903762930821269 0 0.0038226445324518956 -0.047062252373887906 0 0.004166088000121867 -0.047557725188975657 0 0.0022346683846116992 -0.046903762930821269 0 0.0033186260562220547 -0.046192642989612773 0 0.0038226445324518956 -0.047062252373887906 0 0.0035041653851568097 -0.046698722132271178 0 0.0064944794449044874 -0.047332130718895103 0 0.0051752000215758631 -0.048078804682419526 0 0.0033186260562220547 -0.046192642989612773 0 0.0038226445324518956 -0.047062252373887906 0 0.0040797036847850113 -0.046624877756263186 0 0.0050462099164228337 -0.047419513215038102 0 0.0041817047905966043 -0.047677915740182548 0 0.0043955043138650864 -0.047100742593173546 0 0.0053571884325331253 -0.048694564698568289 0 0.0054249648080126455 -0.048778986295886874 0 0.0038226445324518956 -0.047062252373887906 0 0.0041817047905966043 -0.047677915740182548 0 0.0043955043138650864 -0.047100742593173546 0 0.0047062155006772667 -0.046677936878660335 0 0.0043955043138650864 -0.047100742593173546 0 0.0040797036847850113 -0.046624877756263186 0 0.0038226445324518956 -0.047062252373887906 0 0.0043955043138650864 -0.047100742593173546 0 0.0040797036847850113 -0.046624877756263186 0 0.0039626882797571894 -0.046068057100255293 0 0.0033186260562220547 -0.046192642989612773 0 0.0040797036847850113 -0.046624877756263186 0 0.0047062155006772667 -0.046677936878660335 0 0.0039626882797571894 -0.046068057100255293 0 0.0040797036847850113 -0.046624877756263186 0 0.0064944794449044874 -0.047332130718895103 0 0.0063099048307543896 -0.049432766589847091 0 0.0051752000215758631 -0.048078804682419526 0 0.0063099048307543896 -0.049432766589847091 0 0.0051752000215758631 -0.048078804682419526 0 0.004390366084400848 -0.048854655271382927 0 0.0063099048307543896 -0.049432766589847091 0 0.004390366084400848 -0.048854655271382927 0 0.0052695571141598719 -0.050481703257022233 0 0.004390366084400848 -0.048854655271382927 0 0.0030991262296791318 -0.050090802803425566 0 0.0052695571141598719 -0.050481703257022233 0 0.0035041653851568097 -0.046698722132271178 0 0.0051752000215758631 -0.048078804682419526 0 0.004390366084400848 -0.048854655271382927 0 0.0035041653851568097 -0.046698722132271178 0 0.004390366084400848 -0.048854655271382927 0 0.0021415724423709424 -0.04827217910940218 0 0.004390366084400848 -0.048854655271382927 0 0.0030991262296791318 -0.050090802803425566 0 0.0021415724423709424 -0.04827217910940218 0 0.0030991262296791318 -0.050090802803425566 0 0.0045593165983606769 -0.051869862574234073 0 0.0020807045050349124 -0.052341360858992707 0 0.0030991262296791318 -0.050090802803425566 0 0.0045593165983606769 -0.051869862574234073 0 0.0052695571141598719 -0.050481703257022233 0 0.0045593165983606769 -0.051869862574234073 0 0.0052695571141598719 -0.050481703257022233 0 0.0065568710646524263 -0.052302673725900542 0 0.0052695571141598719 -0.050481703257022233 0 0.0070160186760632529 -0.050973695814912894 0 0.0065568710646524263 -0.052302673725900542 0 0.0063099048307543896 -0.049432766589847091 0 0.0052695571141598719 -0.050481703257022233 0 0.0070160186760632529 -0.050973695814912894 0 -0.00044639467599870056 -0.049016171430416242 0 -0.0014560363924192941 -0.049147716974938194 0 -0.00027232938590874943 -0.0507866304410588 0 -0.00044639467599870056 -0.049016171430416242 0 0.00086883032011869209 -0.049763612536825354 0 -0.00027232938590874943 -0.0507866304410588 0 -0.00044639467599870056 -0.049016171430416242 0 -0.0014560363924192941 -0.049147716974938194 0 -0.0011794198364674874 -0.04841156240659128 0 -0.0019282484411912799 -0.047940343512167041 0 -0.0014560363924192941 -0.049147716974938194 0 -0.0011794198364674874 -0.04841156240659128 0 -0.0019282484411912799 -0.047940343512167041 0 -0.00079956440462558283 -0.047526012302791569 0 -0.0011794198364674874 -0.04841156240659128 0 -0.00079956440462558283 -0.047526012302791569 0 -0.00044639467599870056 -0.049016171430416242 0 -0.0011794198364674874 -0.04841156240659128 0 -0.00079956440462558283 -0.047526012302791569 0 -0.00044639467599870056 -0.049016171430416242 0 0.00044461548006842602 -0.048175064402989777 0 0.00044461548006842602 -0.048175064402989777 0 0.0021415724423709424 -0.04827217910940218 0 0.00086883032011869209 -0.049763612536825354 0 0.0030991262296791318 -0.050090802803425566 0 0.0021415724423709424 -0.04827217910940218 0 0.00086883032011869209 -0.049763612536825354 0 -0.00044639467599870056 -0.049016171430416242 0 0.00044461548006842602 -0.048175064402989777 0 0.00086883032011869209 -0.049763612536825354 0 0.0024098546465351192 -0.045604726275037505 0 0.0016683938617276775 -0.04279129245009488 0 -0.0060769564528963833 -0.01760837488819722 0 -0.0058720006708030386 -0.020579674392108942 0 -0.0023800564023260641 -0.019434883231034469 0 0.0030991262296791318 -0.050090802803425566 0 0.00086883032011869209 -0.049763612536825354 0 0.0020807045050349124 -0.052341360858992707 0 -0.0022242610505847863 -0.036178488258347123 0 0.0016683938617276775 -0.04279129245009488 0 0.00086883032011869209 -0.049763612536825354 0 -0.00027232938590874943 -0.0507866304410588 0 0.0018102923658660877 -0.051868520399675912 0 -0.0093193629058809253 -0.017901095670867537 0 -0.0060769564528963833 -0.01760837488819722 0 -0.0087237190781643287 -0.019543734869089762 0 -0.0093193629058809253 -0.017901095670867537 0 -0.008951708739262999 -0.016676652313861107 0 -0.0060769564528963833 -0.01760837488819722 0 -0.0041340433164586748 -0.031081620613746749 0 -0.0022242610505847863 -0.036178488258347123 0 -0.0095428088367996641 -0.01596152675915314 0 -0.008951708739262999 -0.016676652313861107 0 -0.0060769564528963833 -0.01760837488819722 0 -0.0060769564528963833 -0.01760837488819722 0 -0.0058720006708030386 -0.020579674392108942 0 -0.0087237190781643287 -0.019543734869089762 0 -0.0024483577983745045 -0.049715252533241279 0 -0.0014560363924192941 -0.049147716974938194 0 -0.00027232938590874943 -0.0507866304410588 0 -0.0058720006708030386 -0.020579674392108942 0 -0.0087237190781643287 -0.019543734869089762 0 -0.010714998859732261 -0.021727717633917076 0 -0.0058720006708030386 -0.020579674392108942 0 -0.0055354047303402491 -0.023667409839928231 0 -0.010714998859732261 -0.021727717633917076 0 -0.0023800564023260641 -0.019434883231034469 0 -0.0033786510280207492 -0.022705065344438578 0 -3.2237506020137518e-05 -0.024245526134472766 0 -0.0058720006708030386 -0.020579674392108942 0 -0.0023800564023260641 -0.019434883231034469 0 -0.0033786510280207492 -0.022705065344438578 0 -0.0058720006708030386 -0.020579674392108942 0 -0.0033786510280207492 -0.022705065344438578 0 -0.0055354047303402491 -0.023667409839928231 0 -0.0033786510280207492 -0.022705065344438578 0 -0.0029889834307322877 -0.025714147236163477 0 -0.0055354047303402491 -0.023667409839928231 0 -0.0033786510280207492 -0.022705065344438578 0 -0.0029889834307322877 -0.025714147236163477 0 -3.2237506020137518e-05 -0.024245526134472766 0 -0.0055354047303402491 -0.023667409839928231 0 -0.0073390395875089602 -0.026896596726593718 0 -0.010714998859732261 -0.021727717633917076 0 -0.0029889834307322877 -0.025714147236163477 0 -0.0055354047303402491 -0.023667409839928231 0 -0.0073390395875089602 -0.026896596726593718 0 0.0065568710646524263 -0.052302673725900542 0 0.0057351997388192981 -0.05409530086748443 0 0.0083918014232051332 -0.053026529081428783 0 0.0045593165983606769 -0.051869862574234073 0 0.0065568710646524263 -0.052302673725900542 0 0.0057351997388192981 -0.05409530086748443 0 0.010893245430721772 -0.056910550692079155 0 0.0095270969056526194 -0.056087926570305043 0 0.010485911093923498 -0.055879667879798325 0 0.0016683938617276775 -0.04279129245009488 0 0.0034871407792354428 -0.041109400603333658 0 0.0045593165983606769 -0.051869862574234073 0 0.0020807045050349124 -0.052341360858992707 0 0.0057351997388192981 -0.05409530086748443 0 0.0016683938617276775 -0.04279129245009488 0 0.0080497142746202236 -0.05044050125544116 0 -0.0029889834307322877 -0.025714147236163477 0 -3.2237506020137518e-05 -0.024245526134472766 0 -0.0011327189199954919 -0.027789191485104763 0 0.0095270969056526194 -0.056087926570305043 0 0.010485911093923498 -0.055879667879798325 0 0.0094007734873010479 -0.055447567968875795 0 0.010485911093923498 -0.055879667879798325 0 0.0094007734873010479 -0.055447567968875795 0 0.0093936099222118839 -0.054710276820891877 0 0.0094007734873010479 -0.055447567968875795 0 0.0093562579305950799 -0.055220084202216954 0 0.0092882905208974149 -0.055332824351030367 0 0.0095270969056526194 -0.056087926570305043 0 0.0094007734873010479 -0.055447567968875795 0 0.0092882905208974149 -0.055332824351030367 0 0.0093936099222118839 -0.054710276820891877 0 0.01022671365435017 -0.052485208023868517 0 0.0071762425010089368 -0.047953847456124812 0 0.0093936099222118839 -0.054710276820891877 0 0.0092770214637648302 -0.056639429107950154 0 0.0094726614185579958 -0.05564624986981246 0 0.0093562579305950799 -0.055220084202216954 0 0.0093936099222118839 -0.054710276820891877 0 0.0094726614185579958 -0.05564624986981246 0 0.0094007734873010479 -0.055447567968875795 0 0.0093562579305950799 -0.055220084202216954 0 0.0093936099222118839 -0.054710276820891877 0 0.0034871407792354428 -0.041109400603333658 0 0.0048930244187883635 -0.041067983653186264 0 0.010485911093923498 -0.055879667879798325 0 0.0093936099222118839 -0.054710276820891877 0 0.01022671365435017 -0.052485208023868517 0 -3.2237506020137518e-05 -0.024245526134472766 0 0.0024335425549247363 -0.029478791061742705 0 -0.0011327189199954919 -0.027789191485104763 0 0.0024335425549247363 -0.029478791061742705 0 -0.0011327189199954919 -0.027789191485104763 0 -0.0010200325017862505 -0.030435889673133727 0 -0.0010200325017862505 -0.030435889673133727 0 -0.00012351089379648912 -0.033613100181161475 0 0.0010487512348737931 -0.031349302028642889 0 -0.0010200325017862505 -0.030435889673133727 0 -0.00012351089379648912 -0.033613100181161475 0 -0.0035642539444161198 -0.032640636189602418 0 -0.00012351089379648912 -0.033613100181161475 0 0.0010487512348737931 -0.031349302028642889 0 0.0022127861932669424 -0.033395972187263478 0 0.0024335425549247363 -0.029478791061742705 0 0.0010487512348737931 -0.031349302028642889 0 0.0022127861932669424 -0.033395972187263478 0 0.0024335425549247363 -0.029478791061742705 0 -0.0010200325017862505 -0.030435889673133727 0 0.0010487512348737931 -0.031349302028642889 0 0.01022671365435017 -0.052485208023868517 0 0.0083957317051437282 -0.046396533233122698 0 0.0071762425010089368 -0.047953847456124812 0 0.0093629336558145732 -0.053605222583864007 0 0.0090458731177495352 -0.052535772405396662 0 0.0048930244187883635 -0.041067983653186264 0 0.005655000071319684 -0.041178888363757056 0 0.0024335425549247363 -0.029478791061742705 0 0.0022127861932669424 -0.033395972187263478 0 0.0049640567731414715 -0.035230347648513419 0 -0.0073390395875089602 -0.026896596726593718 0 -0.0068118599406232936 -0.031265365343715941 0 -0.011256809825970507 -0.028378408138770725 0 -0.0073390395875089602 -0.026896596726593718 0 -0.0039514769231727724 -0.029133656959989668 0 -0.0068118599406232936 -0.031265365343715941 0 -0.0029889834307322877 -0.025714147236163477 0 -0.0073390395875089602 -0.026896596726593718 0 -0.0039514769231727724 -0.029133656959989668 0 -0.0029889834307322877 -0.025714147236163477 0 -0.0011327189199954919 -0.027789191485104763 0 -0.0039514769231727724 -0.029133656959989668 0 -0.0011327189199954919 -0.027789191485104763 0 -0.0010200325017862505 -0.030435889673133727 0 -0.0039514769231727724 -0.029133656959989668 0 -0.0035642539444161198 -0.032640636189602418 0 -0.0068118599406232936 -0.031265365343715941 0 -0.0052014213882476306 -0.036106357437258679 0 -0.0039514769231727724 -0.029133656959989668 0 -0.0035642539444161198 -0.032640636189602418 0 -0.0068118599406232936 -0.031265365343715941 0 -0.0010200325017862505 -0.030435889673133727 0 -0.0039514769231727724 -0.029133656959989668 0 -0.0035642539444161198 -0.032640636189602418 0 -0.0068118599406232936 -0.031265365343715941 0 -0.0052014213882476306 -0.036106357437258679 0 -0.0093674580962269573 -0.034661140129420717 0 -0.0077566964368140324 -0.038986117219730297 0 -0.0052014213882476306 -0.036106357437258679 0 -0.0093674580962269573 -0.034661140129420717 0 -0.0077566964368140324 -0.038986117219730297 0 -0.008620319385371833 -0.042572001894000171 0 -0.0042429378979590218 -0.042138115313382483 0 -0.0077566964368140324 -0.038986117219730297 0 -0.0052014213882476306 -0.036106357437258679 0 -0.0042429378979590218 -0.042138115313382483 0 -0.0052014213882476306 -0.036106357437258679 0 -0.0015458569353142733 -0.037161241659730879 0 -0.0042429378979590218 -0.042138115313382483 0 -0.0015458569353142733 -0.037161241659730879 0 -0.00033253523757718239 -0.040636555505436107 0 -0.0042429378979590218 -0.042138115313382483 0 -0.0035642539444161198 -0.032640636189602418 0 -0.0052014213882476306 -0.036106357437258679 0 -0.0015458569353142733 -0.037161241659730879 0 -0.00012351089379648912 -0.033613100181161475 0 -0.0035642539444161198 -0.032640636189602418 0 -0.0015458569353142733 -0.037161241659730879 0 -0.00012351089379648912 -0.033613100181161475 0 0.0015058739318337066 -0.035961964038126841 0 -0.0015458569353142733 -0.037161241659730879 0 -0.00012351089379648912 -0.033613100181161475 0 0.0022127861932669424 -0.033395972187263478 0 0.0015058739318337066 -0.035961964038126841 0 0.0015058739318337066 -0.035961964038126841 0 -0.0015458569353142733 -0.037161241659730879 0 0.0014081960998379535 -0.038845286994375193 0 0.0022127861932669424 -0.033395972187263478 0 0.0015058739318337066 -0.035961964038126841 0 0.002944493280000265 -0.035505577392248348 0 0.0022127861932669424 -0.033395972187263478 0 0.0049640567731414715 -0.035230347648513419 0 0.002944493280000265 -0.035505577392248348 0 0.0049640567731414715 -0.035230347648513419 0 0.002944493280000265 -0.035505577392248348 0 0.0031481576998016003 -0.03749882576050851 0 0.0015058739318337066 -0.035961964038126841 0 0.002944493280000265 -0.035505577392248348 0 0.0031481576998016003 -0.03749882576050851 0 0.0015058739318337066 -0.035961964038126841 0 0.0031481576998016003 -0.03749882576050851 0 0.0014081960998379535 -0.038845286994375193 0 0.0049640567731414715 -0.035230347648513419 0 0.0031481576998016003 -0.03749882576050851 0 0.0047104546279178516 -0.039469035306282867 0 0.0049640567731414715 -0.035230347648513419 0 0.0047104546279178516 -0.039469035306282867 0 0.0069299913606834865 -0.042204861200744216 0 0.0047104546279178516 -0.039469035306282867 0 0.0034878527406885379 -0.040105379994239375 0 0.0045752974910051696 -0.042194513694125108 0 0.0031481576998016003 -0.03749882576050851 0 0.0034878527406885379 -0.040105379994239375 0 0.0014081960998379535 -0.038845286994375193 0 0.0034878527406885379 -0.040105379994239375 0 0.0023003710235197411 -0.041662957314215716 0 0.0014081960998379535 -0.038845286994375193 0 0.0031481576998016003 -0.03749882576050851 0 0.0047104546279178516 -0.039469035306282867 0 0.0034878527406885379 -0.040105379994239375 0 0.0034878527406885379 -0.040105379994239375 0 0.0023003710235197411 -0.041662957314215716 0 0.0045752974910051696 -0.042194513694125108 0 0.0023003710235197411 -0.041662957314215716 0 0.0045752974910051696 -0.042194513694125108 0 0.003839909658724063 -0.044322346516879677 0 0.0047104546279178516 -0.039469035306282867 0 0.0045752974910051696 -0.042194513694125108 0 0.0069299913606834865 -0.042204861200744216 0 -0.00033253523757718239 -0.040636555505436107 0 0.0006447505084260102 -0.043800070581653736 0 -0.0042429378979590218 -0.042138115313382483 0 -0.0015458569353142733 -0.037161241659730879 0 0.0014081960998379535 -0.038845286994375193 0 -0.00033253523757718239 -0.040636555505436107 0 0.0023003710235197411 -0.041662957314215716 0 0.0014081960998379535 -0.038845286994375193 0 -0.00033253523757718239 -0.040636555505436107 0 0.0023003710235197411 -0.041662957314215716 0 -0.00033253523757718239 -0.040636555505436107 0 0.0006447505084260102 -0.043800070581653736 0 -0.0014941751615734416 -0.046069991271481439 0 0.0006447505084260102 -0.043800070581653736 0 0.0033502281905680381 -0.048362153318966136 0 -0.0014941751615734416 -0.046069991271481439 0 0.0006447505084260102 -0.043800070581653736 0 -0.0042429378979590218 -0.042138115313382483 0 0.0006447505084260102 -0.043800070581653736 0 0.003839909658724063 -0.044322346516879677 0 0.0033502281905680381 -0.048362153318966136 0 0.003839909658724063 -0.044322346516879677 0 0.0033502281905680381 -0.048362153318966136 0 0.0067891209526583559 -0.046089668949132162 0 0.0045752974910051696 -0.042194513694125108 0 0.003839909658724063 -0.044322346516879677 0 0.0060893082906253605 -0.043650478913038006 0 0.0023003710235197411 -0.041662957314215716 0 0.0006447505084260102 -0.043800070581653736 0 0.003839909658724063 -0.044322346516879677 0 -0.0014941751615734416 -0.046069991271481439 0 -0.0040905936525392024 -0.048468511168213525 0 -0.00017824673971410555 -0.051592606929614364 0 -0.0014941751615734416 -0.046069991271481439 0 0.0033502281905680381 -0.048362153318966136 0 -0.00017824673971410555 -0.051592606929614364 0 -0.0040905936525392024 -0.048468511168213525 0 -0.0082050263622170314 -0.046854102224301211 0 -0.0042429378979590218 -0.042138115313382483 0 -0.0040905936525392024 -0.048468511168213525 0 -0.0082050263622170314 -0.046854102224301211 0 -0.0045812115424387389 -0.053812817674264497 0 -0.0082050263622170314 -0.046854102224301211 0 -0.008620319385371833 -0.042572001894000171 0 -0.0042429378979590218 -0.042138115313382483 0 -0.0014941751615734416 -0.046069991271481439 0 -0.0040905936525392024 -0.048468511168213525 0 -0.0042429378979590218 -0.042138115313382483 0 0.010955892028393832 -0.057904747871977393 0 0.01107240044978779 -0.0579335758418527 0 0.011176598720665246 -0.058094005749091078 0 0.011025333113343786 -0.057919313600825965 0 0.011054011061273426 -0.057945107120351412 0 0.01107240044978779 -0.0579335758418527 0 0.010955892028393832 -0.057904747871977393 0 0.011025333113343786 -0.057919313600825965 0 0.01107240044978779 -0.0579335758418527 0 0.010955892028393832 -0.057904747871977393 0 0.011025333113343786 -0.057919313600825965 0 0.011001380306763828 -0.057677719542964356 0 0.011025333113343786 -0.057919313600825965 0 0.011086006521151879 -0.057904612631066076 0 0.011001380306763828 -0.057677719542964356 0 0.011025333113343786 -0.057919313600825965 0 0.011086006521151879 -0.057904612631066076 0 0.011068263055073371 -0.05801886911399267 0 0.011086006521151879 -0.057904612631066076 0 0.011068263055073371 -0.05801886911399267 0 0.011136856738804308 -0.058097974076192181 0 0.011025333113343786 -0.057919313600825965 0 0.011068263055073371 -0.05801886911399267 0 0.011054011061273426 -0.057945107120351412 0 0.011068263055073371 -0.05801886911399267 0 0.011054011061273426 -0.057945107120351412 0 0.011070549099700164 -0.057980182421628432 0 0.011054011061273426 -0.057945107120351412 0 0.011070549099700164 -0.057980182421628432 0 0.011093394056714516 -0.057784163787858139 0 0.011068263055073371 -0.05801886911399267 0 0.011070549099700164 -0.057980182421628432 0 0.011093543680539582 -0.058139355410694211 0 0.011070549099700164 -0.057980182421628432 0 0.011139924694953071 -0.057963432956937157 0 0.011119503981279488 -0.057748305496671516 0 0.011070549099700164 -0.057980182421628432 0 0.011107593096234936 -0.058131095771815904 0 0.011139924694953071 -0.057963432956937157 0 0.011070549099700164 -0.057980182421628432 0 0.011107593096234936 -0.058131095771815904 0 0.011093543680539582 -0.058139355410694211 0 0.011070549099700164 -0.057980182421628432 0 0.011093394056714516 -0.057784163787858139 0 0.011119503981279488 -0.057748305496671516 0 0.011182704064189919 -0.05759122622830936 0 0.01107240044978779 -0.0579335758418527 0 0.011176598720665246 -0.058094005749091078 0 0.011093394056714516 -0.057784163787858139 0 0.011182704064189919 -0.05759122622830936 0 0.011207687233143951 -0.057328433755977223 0 0.011182704064189919 -0.05759122622830936 0 0.011176598720665246 -0.058094005749091078 0 0.011763534565718355 -0.05629441181476158 0 0.011093394056714516 -0.057784163787858139 0 0.011182704064189919 -0.05759122622830936 0 0.01107240044978779 -0.0579335758418527 0 0.011054011061273426 -0.057945107120351412 0 0.011093394056714516 -0.057784163787858139 0 0.01107240044978779 -0.0579335758418527 0 0.010489842108991987 -0.047716427493429643 0 0.0074923330206643898 -0.050278747171859921 0 0.0093864683964336674 -0.053309565492141539 0 0.010041182391182362 -0.052737480051470033 0 0.010668910925230054 -0.053934167187206228 0 0.010489842108991987 -0.047716427493429643 0 0.0074923330206643898 -0.050278747171859921 0 0.0067891209526583559 -0.046089668949132162 0 0.0033502281905680381 -0.048362153318966136 0 0.0074923330206643898 -0.050278747171859921 0 0.0062693973389689201 -0.053123052199330903 0 0.0033502281905680381 -0.048362153318966136 0 0.0074923330206643898 -0.050278747171859921 0 0.0067891209526583559 -0.046089668949132162 0 0.010489842108991987 -0.047716427493429643 0 0.0067891209526583559 -0.046089668949132162 0 0.0069718584096799254 -0.042041243738528619 0 0.0067891209526583559 -0.046089668949132162 0 0.0060893082906253605 -0.043650478913038006 0 0.0069718584096799254 -0.042041243738528619 0 0.003839909658724063 -0.044322346516879677 0 0.0067891209526583559 -0.046089668949132162 0 0.0060893082906253605 -0.043650478913038006 0 0.010041182391182362 -0.052737480051470033 0 0.0090840535507818766 -0.051532922922472239 0 0.011176598720665246 -0.058094005749091078 0 0.010680896208544967 -0.057778536138518292 0 0.010125355008431008 -0.057702098348970395 0 0.010955892028393832 -0.057904747871977393 0 0.011176598720665246 -0.058094005749091078 0 0.010680896208544967 -0.057778536138518292 0 0.010955892028393832 -0.057904747871977393 0 0.010680896208544967 -0.057778536138518292 0 0.010693624276769518 -0.057516838653586248 0 0.010680896208544967 -0.057778536138518292 0 0.01040197581175493 -0.057439385558253724 0 0.010125355008431008 -0.057702098348970395 0 0.010680896208544967 -0.057778536138518292 0 0.01040197581175493 -0.057439385558253724 0 0.010693624276769518 -0.057516838653586248 0 0.0083957317051437282 -0.046396533233122698 0 0.0069299913606834865 -0.042204861200744216 0 0.0069718584096799254 -0.042041243738528619 0 0.0060893082906253605 -0.043650478913038006 0 0.0069299913606834865 -0.042204861200744216 0 0.0069718584096799254 -0.042041243738528619 0 0.0045752974910051696 -0.042194513694125108 0 0.0060893082906253605 -0.043650478913038006 0 0.0069299913606834865 -0.042204861200744216 0 0.0083957317051437282 -0.046396533233122698 0 0.0069718584096799254 -0.042041243738528619 0 0.0071762425010089368 -0.047953847456124812 0 0.005655000071319684 -0.041178888363757056 0 0.0059574674433822529 -0.041436717084753986 0 0.010125355008431008 -0.057702098348970395 0 0.010077224961102098 -0.057038794582115269 0 0.0092770214637648302 -0.056639429107950154 0 0.0090840535507818766 -0.051532922922472239 0 0.0090458731177495352 -0.052535772405396662 0 0.01040197581175493 -0.057439385558253724 0 0.010125355008431008 -0.057702098348970395 0 0.010077224961102098 -0.057038794582115269 0 0.010693624276769518 -0.057516838653586248 0 0.010433535871768441 -0.057132551960684543 0 0.010633105830209176 -0.057151287597881337 0 0.01040197581175493 -0.057439385558253724 0 0.010693624276769518 -0.057516838653586248 0 0.010433535871768441 -0.057132551960684543 0 0.01040197581175493 -0.057439385558253724 0 0.010077224961102098 -0.057038794582115269 0 0.010433535871768441 -0.057132551960684543 0 0.010077224961102098 -0.057038794582115269 0 0.010433535871768441 -0.057132551960684543 0 0.010229199601862447 -0.056728836942113482 0 0.010433535871768441 -0.057132551960684543 0 0.010554911559596413 -0.05688018009839535 0 0.010229199601862447 -0.056728836942113482 0 0.010433535871768441 -0.057132551960684543 0 0.010633105830209176 -0.057151287597881337 0 0.010554911559596413 -0.05688018009839535 0 0.010633105830209176 -0.057151287597881337 0 0.010809476047143373 -0.057300622925105189 0 0.01076719068718162 -0.057003309185882242 0 0.010633105830209176 -0.057151287597881337 0 0.01076719068718162 -0.057003309185882242 0 0.010554911559596413 -0.05688018009839535 0 0.010809476047143373 -0.057300622925105189 0 0.0109743004769837 -0.057391027461174811 0 0.010949705336565169 -0.057142987640220438 0 0.010809476047143373 -0.057300622925105189 0 0.010949705336565169 -0.057142987640220438 0 0.01076719068718162 -0.057003309185882242 0 0.010809476047143373 -0.057300622925105189 0 0.011001380306763828 -0.057677719542964356 0 0.0109743004769837 -0.057391027461174811 0 0.010693624276769518 -0.057516838653586248 0 0.010633105830209176 -0.057151287597881337 0 0.010809476047143373 -0.057300622925105189 0 0.010955892028393832 -0.057904747871977393 0 0.010693624276769518 -0.057516838653586248 0 0.011001380306763828 -0.057677719542964356 0 0.010693624276769518 -0.057516838653586248 0 0.010809476047143373 -0.057300622925105189 0 0.011001380306763828 -0.057677719542964356 0 0.011001380306763828 -0.057677719542964356 0 0.011128955885446034 -0.057497827036607822 0 0.011154075400097066 -0.057740543043251248 0 0.011086006521151879 -0.057904612631066076 0 0.011001380306763828 -0.057677719542964356 0 0.011154075400097066 -0.057740543043251248 0 0.011001380306763828 -0.057677719542964356 0 0.011128955885446034 -0.057497827036607822 0 0.0109743004769837 -0.057391027461174811 0 0.011128955885446034 -0.057497827036607822 0 0.0109743004769837 -0.057391027461174811 0 0.010949705336565169 -0.057142987640220438 0 0.011128955885446034 -0.057497827036607822 0 0.010949705336565169 -0.057142987640220438 0 0.011077001829512068 -0.057167870937485876 0 0.011128955885446034 -0.057497827036607822 0 0.011077001829512068 -0.057167870937485876 0 0.011197396599837489 -0.057410184136070082 0 0.011077001829512068 -0.057167870937485876 0 0.01117220706412338 -0.056869036883087788 0 0.010974547761474321 -0.056855957909663288 0 0.011077001829512068 -0.057167870937485876 0 0.01117220706412338 -0.056869036883087788 0 0.011197396599837489 -0.057410184136070082 0 0.01117220706412338 -0.056869036883087788 0 0.010974547761474321 -0.056855957909663288 0 0.010920910595827322 -0.056483173318830474 0 0.010949705336565169 -0.057142987640220438 0 0.011077001829512068 -0.057167870937485876 0 0.010974547761474321 -0.056855957909663288 0 0.010949705336565169 -0.057142987640220438 0 0.01076719068718162 -0.057003309185882242 0 0.010772312960996218 -0.056690445461604719 0 0.010949705336565169 -0.057142987640220438 0 0.010974547761474321 -0.056855957909663288 0 0.010772312960996218 -0.056690445461604719 0 0.010554911559596413 -0.05688018009839535 0 0.010772312960996218 -0.056690445461604719 0 0.010396902932323464 -0.056448892643690372 0 0.01076719068718162 -0.057003309185882242 0 0.010554911559596413 -0.05688018009839535 0 0.010772312960996218 -0.056690445461604719 0 0.010772312960996218 -0.056690445461604719 0 0.010585872737378106 -0.056187967388929297 0 0.010396902932323464 -0.056448892643690372 0 0.010772312960996218 -0.056690445461604719 0 0.010920910595827322 -0.056483173318830474 0 0.010585872737378106 -0.056187967388929297 0 0.010974547761474321 -0.056855957909663288 0 0.010772312960996218 -0.056690445461604719 0 0.010920910595827322 -0.056483173318830474 0 0.010920910595827322 -0.056483173318830474 0 0.010585872737378106 -0.056187967388929297 0 0.011010730498816155 -0.055983477203971586 0 0.010585872737378106 -0.056187967388929297 0 0.011010730498816155 -0.055983477203971586 0 0.010275601110411592 -0.055563039211875061 0 0.01052428962731059 -0.055260764204791757 0 0.010170014131956678 -0.055312989420640252 0 0.01117220706412338 -0.056869036883087788 0 0.010920910595827322 -0.056483173318830474 0 0.011010730498816155 -0.055983477203971586 0 0.0097009842010427078 -0.05524642227874569 0 0.01085461937966847 -0.05445017298744434 0 0.011197859405471413 -0.055527777297663984 0 0.01117220706412338 -0.056869036883087788 0 0.010115949299064595 -0.055521508435319632 0 0.011370544233751383 -0.055738555726660838 0 0.01052428962731059 -0.055260764204791757 0 0.011168605996773572 -0.055433105393317354 0 0.010831324170673682 -0.055787686678067223 0 0.01052428962731059 -0.055260764204791757 0 0.0092770214637648302 -0.056639429107950154 0 0.009676727360518958 -0.056168425859133328 0 0.0094726614185579958 -0.05564624986981246 0 0.009676727360518958 -0.056168425859133328 0 0.0096889544768703224 -0.055877184029675724 0 0.0094726614185579958 -0.05564624986981246 0 0.0092770214637648302 -0.056639429107950154 0 0.0098520842519283103 -0.056553988872824937 0 0.009676727360518958 -0.056168425859133328 0 0.010077224961102098 -0.057038794582115269 0 0.0092770214637648302 -0.056639429107950154 0 0.0098520842519283103 -0.056553988872824937 0 0.009676727360518958 -0.056168425859133328 0 0.0099819876190644901 -0.056200667296281329 0 0.0096889544768703224 -0.055877184029675724 0 0.0098520842519283103 -0.056553988872824937 0 0.009676727360518958 -0.056168425859133328 0 0.0099819876190644901 -0.056200667296281329 0 0.0099819876190644901 -0.056200667296281329 0 0.010396902932323464 -0.056448892643690372 0 0.010172448112827456 -0.055982654284311678 0 0.0099819876190644901 -0.056200667296281329 0 0.010229199601862447 -0.056728836942113482 0 0.010396902932323464 -0.056448892643690372 0 0.010077224961102098 -0.057038794582115269 0 0.0098520842519283103 -0.056553988872824937 0 0.010229199601862447 -0.056728836942113482 0 0.0098520842519283103 -0.056553988872824937 0 0.0099819876190644901 -0.056200667296281329 0 0.010229199601862447 -0.056728836942113482 0 0.010554911559596413 -0.05688018009839535 0 0.010229199601862447 -0.056728836942113482 0 0.010396902932323464 -0.056448892643690372 0 0.010585872737378106 -0.056187967388929297 0 0.010396902932323464 -0.056448892643690372 0 0.010172448112827456 -0.055982654284311678 0 0.010585872737378106 -0.056187967388929297 0 0.010172448112827456 -0.055982654284311678 0 0.010275601110411592 -0.055563039211875061 0 0.010172448112827456 -0.055982654284311678 0 0.0097073090084787532 -0.055658166471769188 0 0.010275601110411592 -0.055563039211875061 0 0.0099819876190644901 -0.056200667296281329 0 0.010172448112827456 -0.055982654284311678 0 0.0097073090084787532 -0.055658166471769188 0 0.0097073090084787532 -0.055658166471769188 0 0.0092882905208974149 -0.055332824351030367 0 0.010275601110411592 -0.055563039211875061 0 0.0099819876190644901 -0.056200667296281329 0 0.0096889544768703224 -0.055877184029675724 0 0.0097073090084787532 -0.055658166471769188 0 0.0096889544768703224 -0.055877184029675724 0 0.0097073090084787532 -0.055658166471769188 0 0.0095052146318494856 -0.055504677338129714 0 0.0093562579305950799 -0.055220084202216954 0 0.0095052146318494856 -0.055504677338129714 0 0.0092882905208974149 -0.055332824351030367 0 0.0097073090084787532 -0.055658166471769188 0 0.0095052146318494856 -0.055504677338129714 0 0.0092882905208974149 -0.055332824351030367 0 0.0093562579305950799 -0.055220084202216954 0 0.0095052146318494856 -0.055504677338129714 0 0.0094726614185579958 -0.05564624986981246 0 0.0096889544768703224 -0.055877184029675724 0 0.0095052146318494856 -0.055504677338129714 0 0.0094726614185579958 -0.05564624986981246 0 0.0098601496520880211 -0.055288999776964325 0 0.010170014131956678 -0.055312989420640252 0 0.0080497142746202236 -0.05044050125544116 0 0.0092885313856576699 -0.052185476415098908 0 0.0095270969056526194 -0.056087926570305043 0 0.0092882905208974149 -0.055332824351030367 0 0.0093737336864436176 -0.055262668170905437 0 0.0092882905208974149 -0.055332824351030367 0 0.0093737336864436176 -0.055262668170905437 0 0.009885964177280316 -0.055410347224996777 0 0.0057351997388192981 -0.05409530086748443 0 0.0093737336864436176 -0.055262668170905437 0 0.0083017654329962127 -0.054187339607352794 0 0.0093737336864436176 -0.055262668170905437 0 0.0083017654329962127 -0.054187339607352794 0 0.0094421409368774922 -0.054374173373506113 0 0.0094421409368774922 -0.054374173373506113 0 0.009885964177280316 -0.055410347224996777 0 0.010579975780640046 -0.05373425205552481 0 0.0093737336864436176 -0.055262668170905437 0 0.0094421409368774922 -0.054374173373506113 0 0.009885964177280316 -0.055410347224996777 0 0.0094421409368774922 -0.054374173373506113 0 0.010579975780640046 -0.05373425205552481 0 0.0083918014232051332 -0.053026529081428783 0 0.0089112517876444985 -0.050773988264281825 0 0.010579975780640046 -0.05373425205552481 0 0.0083918014232051332 -0.053026529081428783 0 0.0074698746467934431 -0.051098573827633539 0 0.0091788808157850649 -0.053351505048676771 0 0.0057351997388192981 -0.05409530086748443 0 0.0083017654329962127 -0.054187339607352794 0 0.0083918014232051332 -0.053026529081428783 0 0.0083017654329962127 -0.054187339607352794 0 0.0094421409368774922 -0.054374173373506113 0 0.0083918014232051332 -0.053026529081428783 0 0.007728493997411115 -0.051768179091868316 0 0.0065568710646524263 -0.052302673725900542 0 0.0083918014232051332 -0.053026529081428783 0 0.0097009842010427078 -0.05524642227874569 0 0.01085461937966847 -0.05445017298744434 0 0.010029325110691262 -0.053430486634496677 0 0.01085461937966847 -0.05445017298744434 0 0.010029325110691262 -0.053430486634496677 0 0.01187092789980761 -0.053203439859726691 0 0.0097009842010427078 -0.05524642227874569 0 0.0082416746213559121 -0.0532599380942885 0 0.010029325110691262 -0.053430486634496677 0 0.01052428962731059 -0.055260764204791757 0 0.0091788808157850649 -0.053351505048676771 0 0.011837435314626936 -0.0557477296722384 0 0.009885964177280316 -0.055410347224996777 0 0.010579975780640046 -0.05373425205552481 0 0.0085945230779710096 -0.051916113006832985 0 0.0082416746213559121 -0.0532599380942885 0 0.0094040829504541054 -0.052483143961945582 0 0.0082416746213559121 -0.0532599380942885 0 0.0094040829504541054 -0.052483143961945582 0 0.010029325110691262 -0.053430486634496677 0 0.010188742025239582 -0.051640038864985624 0 0.0094040829504541054 -0.052483143961945582 0 0.010029325110691262 -0.053430486634496677 0 0.010188742025239582 -0.051640038864985624 0 0.010029325110691262 -0.053430486634496677 0 0.01187092789980761 -0.053203439859726691 0 0.010312256118591418 -0.051567801995412881 0 0.01187238414573878 -0.053058309387074218 0 0.01085461937966847 -0.05445017298744434 0 0.01187092789980761 -0.053203439859726691 0 0.011996792742808668 -0.054767696785676376 0 0.01085461937966847 -0.05445017298744434 0 0.011996792742808668 -0.054767696785676376 0 0.011197859405471413 -0.055527777297663984 0 0.012204460190951451 -0.053226370580064644 0 0.013646369516418589 -0.054795604578793157 0 0.014409840268261054 -0.053463867685271123 0 0.01187092789980761 -0.053203439859726691 0 0.011996792742808668 -0.054767696785676376 0 0.013646369516418589 -0.054795604578793157 0 0.01187238414573878 -0.053058309387074218 0 0.012699805756858844 -0.053852007654386941 0 0.014218486790038514 -0.052022573381822881 0 0.012204460190951451 -0.053226370580064644 0 0.014409840268261054 -0.053463867685271123 0 0.016197032002944037 -0.051970067903046237 0 0.014218486790038514 -0.052022573381822881 0 0.014409840268261054 -0.053463867685271123 0 0.016197032002944037 -0.051970067903046237 0 0.014409840268261054 -0.053463867685271123 0 0.015802124874886653 -0.054007899387458563 0 0.010378446427194127 -0.066428848309437794 0 0.011414003211753515 -0.066112596173538665 0 0.013646369516418589 -0.054795604578793157 0 0.014409840268261054 -0.053463867685271123 0 0.015802124874886653 -0.054007899387458563 0 0.013646369516418589 -0.054795604578793157 0 0.015336530403015915 -0.056298387752345684 0 0.013649440158641524 -0.056554835302822792 0 0.013646369516418589 -0.054795604578793157 0 0.015802124874886653 -0.054007899387458563 0 0.015336530403015915 -0.056298387752345684 0 0.011414003211753515 -0.066112596173538665 0 0.012421235792974179 -0.065023098867738743 0 0.0073498495069818925 -0.079704295880721185 0 0.01050838813570861 -0.074718745986805307 0 0.0059402041160536382 -0.075837156002013725 0 0.01050838813570861 -0.074718745986805307 0 0.0092240074470874862 -0.070665013453605971 0 0.0059402041160536382 -0.075837156002013725 0 0.012421235792974179 -0.065023098867738743 0 0.013170390614786292 -0.063624397568920257 0 0.01050838813570861 -0.074718745986805307 0 0.0092240074470874862 -0.070665013453605971 0 0.013053043052007034 -0.067229720451476807 0 0.015336530403015915 -0.056298387752345684 0 0.01408018507461575 -0.057731737213791608 0 0.013649440158641524 -0.056554835302822792 0 0.015336530403015915 -0.056298387752345684 0 0.01408018507461575 -0.057731737213791608 0 0.014797726220866871 -0.059086577982324015 0 0.01408018507461575 -0.057731737213791608 0 0.013649440158641524 -0.056554835302822792 0 0.012999268365526033 -0.057745353012064182 0 0.013649440158641524 -0.056554835302822792 0 0.012870644530423648 -0.056741160274614219 0 0.012999268365526033 -0.057745353012064182 0 0.012870644530423648 -0.056741160274614219 0 0.012999268365526033 -0.057745353012064182 0 0.012125273436553331 -0.056869825314499203 0 0.012870644530423648 -0.056741160274614219 0 0.012125273436553331 -0.056869825314499203 0 0.01273196676434726 -0.055844343023406573 0 0.012999268365526033 -0.057745353012064182 0 0.012074534969345695 -0.057781132255468201 0 0.012125273436553331 -0.056869825314499203 0 0.012074534969345695 -0.057781132255468201 0 0.011557556707625182 -0.057027522299213831 0 0.012125273436553331 -0.056869825314499203 0 0.01117220706412338 -0.056869036883087788 0 0.011557556707625182 -0.057027522299213831 0 0.011197396599837489 -0.057410184136070082 0 0.012074534969345695 -0.057781132255468201 0 0.011557556707625182 -0.057027522299213831 0 0.011197396599837489 -0.057410184136070082 0 0.01117220706412338 -0.056869036883087788 0 0.011557556707625182 -0.057027522299213831 0 0.011655221410122797 -0.056408470792066602 0 0.011557556707625182 -0.057027522299213831 0 0.012125273436553331 -0.056869825314499203 0 0.011655221410122797 -0.056408470792066602 0 0.011168605996773572 -0.055433105393317354 0 0.011596566451599491 -0.055524395337169852 0 0.011655221410122797 -0.056408470792066602 0 0.011370544233751383 -0.055738555726660838 0 0.01273196676434726 -0.055844343023406573 0 0.011996792742808668 -0.054767696785676376 0 0.011197859405471413 -0.055527777297663984 0 0.01273196676434726 -0.055844343023406573 0 0.012125273436553331 -0.056869825314499203 0 0.011655221410122797 -0.056408470792066602 0 0.01273196676434726 -0.055844343023406573 0 0.01117220706412338 -0.056869036883087788 0 0.011655221410122797 -0.056408470792066602 0 0.011370544233751383 -0.055738555726660838 0 0.011996792742808668 -0.054767696785676376 0 0.013646369516418589 -0.054795604578793157 0 0.01273196676434726 -0.055844343023406573 0 0.013646369516418589 -0.054795604578793157 0 0.013649440158641524 -0.056554835302822792 0 0.01273196676434726 -0.055844343023406573 0 0.013649440158641524 -0.056554835302822792 0 0.012870644530423648 -0.056741160274614219 0 0.01273196676434726 -0.055844343023406573 0 0.0014022533467917973 -0.07948914463861563 0 0.001718049062949954 -0.081088677104257073 0 0.0021562363756068089 -0.079524887605301728 0 0.0015796786705571284 -0.080713875645343353 0 0.0020479011911466718 -0.081651421824001327 0 0.0016968242232360301 -0.081441076220679462 0 0.0021659571523789836 -0.082171311121407478 0 0.0013973817148729875 -0.081982172461155481 0 0.001718049062949954 -0.081088677104257073 0 0.0021562363756068089 -0.079524887605301728 0 0.0034288717430376171 -0.080588089548660494 0 0.0014022533467917973 -0.07948914463861563 0 0.0021562363756068089 -0.079524887605301728 0 0.002092453283489908 -0.078940147530226004 0 0.0021562363756068089 -0.079524887605301728 0 0.0034288717430376171 -0.080588089548660494 0 0.0026391070152383092 -0.078172090076320228 0 0.0034288717430376171 -0.080588089548660494 0 0.0046410828556371735 -0.079494395807437002 0 0.0026391070152383092 -0.078172090076320228 0 0.0053356617016812125 -0.081983403061237567 0 0.0034288717430376171 -0.080588089548660494 0 0.0046410828556371735 -0.079494395807437002 0 0.0053356617016812125 -0.081983403061237567 0 0.0073498495069818925 -0.079704295880721185 0 0.0046410828556371735 -0.079494395807437002 0 0.0073498495069818925 -0.079704295880721185 0 0.0046410828556371735 -0.079494395807437002 0 0.0059402041160536382 -0.075837156002013725 0 0.0046410828556371735 -0.079494395807437002 0 0.0059402041160536382 -0.075837156002013725 0 0.0026391070152383092 -0.078172090076320228 0 0.0059402041160536382 -0.075837156002013725 0 0.0048413224413608987 -0.07152359639451579 0 0.0019478580456090762 -0.073691071152125892 0 0.0092240074470874862 -0.070665013453605971 0 0.0059402041160536382 -0.075837156002013725 0 0.0048413224413608987 -0.07152359639451579 0 0.004616621525611455 -0.075363256580139593 0 0.005365870484278939 -0.074083567677271242 0 0.0048413224413608987 -0.07152359639451579 0 0.0019478580456090762 -0.073691071152125892 0 0.0017846245440447178 -0.06940255749359904 0 0.0024097831674775392 -0.078637974362780513 0 0.0020286801354742461 -0.078723361191778099 0 0.0023892174743120526 -0.078488315455700369 0 0.0024097831674775392 -0.078637974362780513 0 0.0026391070152383092 -0.078172090076320228 0 0.002092453283489908 -0.078940147530226004 0 0.004616621525611455 -0.075363256580139593 0 0.004396901350522074 -0.076004734210055214 0 0.0059402041160536382 -0.075837156002013725 0 0.0019478580456090762 -0.073691071152125892 0 0.0026391070152383092 -0.078172090076320228 0 0.0021562363756068089 -0.079524887605301728 0 0.0026391070152383092 -0.078172090076320228 0 0.002092453283489908 -0.078940147530226004 0 0.002092453283489908 -0.078940147530226004 0 0.0020286801354742461 -0.078723361191778099 0 0.001617963933341886 -0.079392001991303709 0 0.0024097831674775392 -0.078637974362780513 0 0.002092453283489908 -0.078940147530226004 0 0.0020286801354742461 -0.078723361191778099 0 0.00354959286953768 -0.077184811781829551 0 0.0023792287895858886 -0.078677137350181447 0 0.0052475620830393921 -0.082243374048104181 0 0.0021523047902952792 -0.082128544963800759 0 0.0021287467203284943 -0.081011856788465911 0 0.0020286801354742461 -0.078723361191778099 0 0.001617963933341886 -0.079392001991303709 0 0.0014607428167207361 -0.079373626121261365 0 0.0014022533467917973 -0.07948914463861563 0 0.002092453283489908 -0.078940147530226004 0 0.001617963933341886 -0.079392001991303709 0 0.0038312886940921435 -0.078261281978709463 0 0.0030280148180094209 -0.080018912073464718 0 0.0015343603547659597 -0.078545173837235832 0 0.0038312886940921435 -0.078261281978709463 0 0.0030280148180094209 -0.080018912073464718 0 0.0061980126797635694 -0.07962813520334093 0 0.0052475620830393921 -0.082243374048104181 0 0.0030280148180094209 -0.080018912073464718 0 0.0021287467203284943 -0.081011856788465911 0 0.0052475620830393921 -0.082243374048104181 0 0.0030280148180094209 -0.080018912073464718 0 0.0061980126797635694 -0.07962813520334093 0 0.0052475620830393921 -0.082243374048104181 0 0.0061980126797635694 -0.07962813520334093 0 0.008614140847322628 -0.081727339356309006 0 0.00354959286953768 -0.077184811781829551 0 0.005365870484278939 -0.074083567677271242 0 0.0061980126797635694 -0.07962813520334093 0 0.0090869511185669091 -0.078105195012792172 0 0.008614140847322628 -0.081727339356309006 0 0.0072195682291555834 -0.070877565736045145 0 0.005365870484278939 -0.074083567677271242 0 0.0078657273892495591 -0.063767955268366511 0 0.0076405400780945173 -0.066493775125065963 0 0.0094037280433545648 -0.066076978623144642 0 0.0092240074470874862 -0.070665013453605971 0 0.0048413224413608987 -0.07152359639451579 0 0.0061722029478925881 -0.067999549257042019 0 0.005365870484278939 -0.074083567677271242 0 0.0079220893644922109 -0.071582475696710099 0 0.0048413224413608987 -0.07152359639451579 0 0.0017846245440447178 -0.06940255749359904 0 0.0061722029478925881 -0.067999549257042019 0 0.0078657273892495591 -0.063767955268366511 0 0.0094037280433545648 -0.066076978623144642 0 0.00985629986165713 -0.064471238097237343 0 0.0078657273892495591 -0.063767955268366511 0 0.00985629986165713 -0.064471238097237343 0 0.0099061993099838885 -0.062645230573599386 0 0.0078657273892495591 -0.063767955268366511 0 0.008584636224279605 -0.061245775271593431 0 0.0099061993099838885 -0.062645230573599386 0 0.008584636224279605 -0.061245775271593431 0 0.0099061993099838885 -0.062645230573599386 0 0.010029863389059134 -0.060562000743308399 0 0.0072195682291555834 -0.070877565736045145 0 0.0083245005328353751 -0.067766626873730709 0 0.0090869511185669091 -0.078105195012792172 0 0.0098513932967597782 -0.073856213582879471 0 0.0058154507436483892 -0.075623125365302205 0 0.0038312886940921435 -0.078261281978709463 0 0.0061980126797635694 -0.07962813520334093 0 0.0058154507436483892 -0.075623125365302205 0 0.0061980126797635694 -0.07962813520334093 0 0.0090869511185669091 -0.078105195012792172 0 0.0058154507436483892 -0.075623125365302205 0 0.0098513932967597782 -0.073856213582879471 0 0.0058154507436483892 -0.075623125365302205 0 0.0063745274253903051 -0.069752714845902508 0 0.0058154507436483892 -0.075623125365302205 0 0.0034318681323296891 -0.072180121078553192 0 0.0021248319809894708 -0.07609384661127816 0 0.0038312886940921435 -0.078261281978709463 0 0.0058154507436483892 -0.075623125365302205 0 0.0021248319809894708 -0.07609384661127816 0 0.013436552098149396 -0.060291321375482564 0 0.012156506122583661 -0.060713519807180892 0 0.013401508949130593 -0.062263278886594386 0 0.013436552098149396 -0.060291321375482564 0 0.012156506122583661 -0.060713519807180892 0 0.01344215086375939 -0.059050667852967038 0 0.011128955885446034 -0.057497827036607822 0 0.011154075400097066 -0.057740543043251248 0 0.011328858533047463 -0.057687389812082913 0 0.011154075400097066 -0.057740543043251248 0 0.011328858533047463 -0.057687389812082913 0 0.011214240278218249 -0.057977389812442034 0 0.012074534969345695 -0.057781132255468201 0 0.011197396599837489 -0.057410184136070082 0 0.012156506122583661 -0.060713519807180892 0 0.011128955885446034 -0.057497827036607822 0 0.011197396599837489 -0.057410184136070082 0 0.011328858533047463 -0.057687389812082913 0 0.011474835116260391 -0.058590099235438342 0 0.011741200695172233 -0.059175835779193206 0 0.012074534969345695 -0.057781132255468201 0 0.012156506122583661 -0.060713519807180892 0 0.012686009407607019 -0.058787737089478369 0 0.012999268365526033 -0.057745353012064182 0 0.012074534969345695 -0.057781132255468201 0 0.012686009407607019 -0.058787737089478369 0 0.012999268365526033 -0.057745353012064182 0 0.012686009407607019 -0.058787737089478369 0 0.01344215086375939 -0.059050667852967038 0 0.012156506122583661 -0.060713519807180892 0 0.012686009407607019 -0.058787737089478369 0 0.01344215086375939 -0.059050667852967038 0 0.01408018507461575 -0.057731737213791608 0 0.012999268365526033 -0.057745353012064182 0 0.01344215086375939 -0.059050667852967038 0 0.01408018507461575 -0.057731737213791608 0 0.01344215086375939 -0.059050667852967038 0 0.014797726220866871 -0.059086577982324015 0 0.013436552098149396 -0.060291321375482564 0 0.01344215086375939 -0.059050667852967038 0 0.014797726220866871 -0.059086577982324015 0 0.0094037280433545648 -0.066076978623144642 0 0.011091724269719655 -0.066255475929277025 0 0.00985629986165713 -0.064471238097237343 0 0.0092240074470874862 -0.070665013453605971 0 0.0061722029478925881 -0.067999549257042019 0 0.011091724269719655 -0.066255475929277025 0 0.0079220893644922109 -0.071582475696710099 0 0.0091836486914748904 -0.070700260323909941 0 0.0092240074470874862 -0.070665013453605971 0 0.013053043052007034 -0.067229720451476807 0 0.011091724269719655 -0.066255475929277025 0 0.00985629986165713 -0.064471238097237343 0 0.011412811372946622 -0.063814952836186115 0 0.0099061993099838885 -0.062645230573599386 0 0.011091724269719655 -0.066255475929277025 0 0.00985629986165713 -0.064471238097237343 0 0.011412811372946622 -0.063814952836186115 0 0.013436552098149396 -0.060291321375482564 0 0.014797726220866871 -0.059086577982324015 0 0.013401508949130593 -0.062263278886594386 0 0.013053043052007034 -0.067229720451476807 0 0.011412811372946622 -0.063814952836186115 0 0.013401508949130593 -0.062263278886594386 0 0.013053043052007034 -0.067229720451476807 0 0.011091724269719655 -0.066255475929277025 0 0.011412811372946622 -0.063814952836186115 0 0.013170390614786292 -0.063624397568920257 0 0.013375621677178101 -0.063038196057222662 0 0.011412811372946622 -0.063814952836186115 0 0.01170633174753441 -0.062123472684530341 0 0.013401508949130593 -0.062263278886594386 0 0.01170633174753441 -0.062123472684530341 0 0.013310469693907104 -0.062391217238257496 0 0.013401508949130593 -0.062263278886594386 0 0.011412811372946622 -0.063814952836186115 0 0.01170633174753441 -0.062123472684530341 0 0.0099061993099838885 -0.062645230573599386 0 0.01170633174753441 -0.062123472684530341 0 0.011293006008505982 -0.059858647802792278 0 0.010029863389059134 -0.060562000743308399 0 0.01170633174753441 -0.062123472684530341 0 0.0099061993099838885 -0.062645230573599386 0 0.010029863389059134 -0.060562000743308399 0 0.01170633174753441 -0.062123472684530341 0 0.013310469693907104 -0.062391217238257496 0 0.011293006008505982 -0.059858647802792278 0 0.011501508643774109 -0.058243850338448998 0 0.011251718726960505 -0.059188070236067772 0 0.011293006008505982 -0.059858647802792278 0 0.011979340614487292 -0.059789325837952836 0 0.011871827866076358 -0.059784386665102281 0 0.011288794233125484 -0.058544769905843425 0 0.011501508643774109 -0.058243850338448998 0 0.011251718726960505 -0.059188070236067772 0 0.011204363185162828 -0.058542639236618677 0 0.011288794233125484 -0.058544769905843425 0 0.011251718726960505 -0.059188070236067772 0 0.011204363185162828 -0.058542639236618677 0 0.011199260771036858 -0.058631838645257818 0 0.011251718726960505 -0.059188070236067772 0 0.011288794233125484 -0.058544769905843425 0 0.011501508643774109 -0.058243850338448998 0 0.011262114078337384 -0.058252299126141029 0 0.011204363185162828 -0.058542639236618677 0 0.011288794233125484 -0.058544769905843425 0 0.011262114078337384 -0.058252299126141029 0 0.011741200695172233 -0.059175835779193206 0 0.011979340614487292 -0.059789325837952836 0 0.011501508643774109 -0.058243850338448998 0 0.011262114078337384 -0.058252299126141029 0 0.011214240278218249 -0.057977389812442034 0 0.011328858533047463 -0.057687389812082913 0 0.011501508643774109 -0.058243850338448998 0 0.011214240278218249 -0.057977389812442034 0 0.012156506122583661 -0.060713519807180892 0 0.013310469693907104 -0.062391217238257496 0 0.013401508949130593 -0.062263278886594386 0 0.011086006521151879 -0.057904612631066076 0 0.011214240278218249 -0.057977389812442034 0 0.011136856738804308 -0.058097974076192181 0 0.011086006521151879 -0.057904612631066076 0 0.011154075400097066 -0.057740543043251248 0 0.011214240278218249 -0.057977389812442034 0 0.011262114078337384 -0.058252299126141029 0 0.011214240278218249 -0.057977389812442034 0 0.011136856738804308 -0.058097974076192181 0 0.011262114078337384 -0.058252299126141029 0 0.011136856738804308 -0.058097974076192181 0 0.011158293067538686 -0.058284435259259859 0 0.011068263055073371 -0.05801886911399267 0 0.011136856738804308 -0.058097974076192181 0 0.011093543680539582 -0.058139355410694211 0 0.011136856738804308 -0.058097974076192181 0 0.011093543680539582 -0.058139355410694211 0 0.011158293067538686 -0.058284435259259859 0 0.011093543680539582 -0.058139355410694211 0 0.011158293067538686 -0.058284435259259859 0 0.01114213586551463 -0.058343444480569558 0 0.011204363185162828 -0.058542639236618677 0 0.011262114078337384 -0.058252299126141029 0 0.011158293067538686 -0.058284435259259859 0 0.011204363185162828 -0.058542639236618677 0 0.01114213586551463 -0.058343444480569558 0 0.011199260771036858 -0.058631838645257818 0 0.011204363185162828 -0.058542639236618677 0 0.011158293067538686 -0.058284435259259859 0 0.01114213586551463 -0.058343444480569558 0 0.011107593096234936 -0.058131095771815904 0 0.011093543680539582 -0.058139355410694211 0 0.01114213586551463 -0.058343444480569558 0 0.011107593096234936 -0.058131095771815904 0 0.01114213586551463 -0.058343444480569558 0 0.011163268884829968 -0.058286780423219796 0 0.011163268884829968 -0.058286780423219796 0 0.011214271828977843 -0.058185138428691247 0 0.011139924694953071 -0.057963432956937157 0 0.011163268884829968 -0.058286780423219796 0 0.011226862045578958 -0.058479661875187577 0 0.011214271828977843 -0.058185138428691247 0 0.011163268884829968 -0.058286780423219796 0 0.011199260771036858 -0.058631838645257818 0 0.011226862045578958 -0.058479661875187577 0 0.01114213586551463 -0.058343444480569558 0 0.011163268884829968 -0.058286780423219796 0 0.011199260771036858 -0.058631838645257818 0 0.011226862045578958 -0.058479661875187577 0 0.011324830399529256 -0.058374747459834064 0 0.011240057876799105 -0.058881308104202931 0 0.011199260771036858 -0.058631838645257818 0 0.011226862045578958 -0.058479661875187577 0 0.011240057876799105 -0.058881308104202931 0 0.011226862045578958 -0.058479661875187577 0 0.011214271828977843 -0.058185138428691247 0 0.011324830399529256 -0.058374747459834064 0 0.011324830399529256 -0.058374747459834064 0 0.011329750037248988 -0.058969183831683668 0 0.011450991138513377 -0.058407730942164879 0 0.011324830399529256 -0.058374747459834064 0 0.011240057876799105 -0.058881308104202931 0 0.011329750037248988 -0.058969183831683668 0 0.011240057876799105 -0.058881308104202931 0 0.011138343318609552 -0.059483148017940336 0 0.011329750037248988 -0.058969183831683668 0 0.011138343318609552 -0.059483148017940336 0 0.01088246570472985 -0.059419946666774102 0 0.011329750037248988 -0.058969183831683668 0 0.011240057876799105 -0.058881308104202931 0 0.011251718726960505 -0.059188070236067772 0 0.011138343318609552 -0.059483148017940336 0 0.011199260771036858 -0.058631838645257818 0 0.011240057876799105 -0.058881308104202931 0 0.011251718726960505 -0.059188070236067772 0 0.011251718726960505 -0.059188070236067772 0 0.011293006008505982 -0.059858647802792278 0 0.011138343318609552 -0.059483148017940336 0 0.011293006008505982 -0.059858647802792278 0 0.010029863389059134 -0.060562000743308399 0 0.010090370494016648 -0.060066950341457898 0 0.011293006008505982 -0.059858647802792278 0 0.010090370494016648 -0.060066950341457898 0 0.011138343318609552 -0.059483148017940336 0 0.010090370494016648 -0.060066950341457898 0 0.011138343318609552 -0.059483148017940336 0 0.01088246570472985 -0.059419946666774102 0 0.01088246570472985 -0.059419946666774102 0 0.010368178742136986 -0.059487230889870395 0 0.011191666924313993 -0.059024569013777894 0 0.010090370494016648 -0.060066950341457898 0 0.01088246570472985 -0.059419946666774102 0 0.010368178742136986 -0.059487230889870395 0 0.010090370494016648 -0.060066950341457898 0 0.010368178742136986 -0.059487230889870395 0 0.0096706325494484539 -0.059723901076269625 0 0.010368178742136986 -0.059487230889870395 0 0.0096706325494484539 -0.059723901076269625 0 0.010504027286518839 -0.058816032251680167 0 0.010368178742136986 -0.059487230889870395 0 0.011191666924313993 -0.059024569013777894 0 0.010504027286518839 -0.058816032251680167 0 0.011191666924313993 -0.059024569013777894 0 0.011335173387847963 -0.058534888078448831 0 0.010504027286518839 -0.058816032251680167 0 0.011191666924313993 -0.059024569013777894 0 0.011632134228807975 -0.058706013330253749 0 0.011335173387847963 -0.058534888078448831 0 0.011191666924313993 -0.059024569013777894 0 0.011632134228807975 -0.058706013330253749 0 0.011536148929440269 -0.058763751745825016 0 0.011329750037248988 -0.058969183831683668 0 0.011536148929440269 -0.058763751745825016 0 0.011450991138513377 -0.058407730942164879 0 0.011191666924313993 -0.059024569013777894 0 0.011329750037248988 -0.058969183831683668 0 0.011536148929440269 -0.058763751745825016 0 0.01088246570472985 -0.059419946666774102 0 0.011191666924313993 -0.059024569013777894 0 0.011329750037248988 -0.058969183831683668 0 0.0028367527095848853 -0.068168339132800307 0 0.0063745274253903051 -0.069752714845902508 0 0.0057304202289043754 -0.065221691161148135 0 0.0028367527095848853 -0.068168339132800307 0 0.0034318681323296891 -0.072180121078553192 0 0.0063745274253903051 -0.069752714845902508 0 0.0058154507436483892 -0.075623125365302205 0 0.0034318681323296891 -0.072180121078553192 0 0.0063745274253903051 -0.069752714845902508 0 0.0063745274253903051 -0.069752714845902508 0 0.010248927210375802 -0.06844801700239421 0 0.0057304202289043754 -0.065221691161148135 0 0.0089281046607793887 -0.065042289596221242 0 0.0090867918102520498 -0.06363187049611449 0 0.0098513932967597782 -0.073856213582879471 0 0.0063745274253903051 -0.069752714845902508 0 0.010248927210375802 -0.06844801700239421 0 0.0083245005328353751 -0.067766626873730709 0 0.0089281046607793887 -0.065042289596221242 0 0.008584636224279605 -0.061245775271593431 0 0.010029863389059134 -0.060562000743308399 0 0.0094648651395681949 -0.060335806157333798 0 0.010090370494016648 -0.060066950341457898 0 0.0094648651395681949 -0.060335806157333798 0 0.0094088326055698241 -0.061559618272990314 0 0.010029863389059134 -0.060562000743308399 0 0.010090370494016648 -0.060066950341457898 0 0.0094648651395681949 -0.060335806157333798 0 0.010090370494016648 -0.060066950341457898 0 0.0096706325494484539 -0.059723901076269625 0 0.0094088326055698241 -0.061559618272990314 0 0.0096706325494484539 -0.059723901076269625 0 0.0094088326055698241 -0.061559618272990314 0 0.0085133479645817956 -0.05978633922665632 0 0.0094088326055698241 -0.061559618272990314 0 0.0057552188573774584 -0.061658222631889421 0 0.0085133479645817956 -0.05978633922665632 0 0.010248927210375802 -0.06844801700239421 0 0.0094088326055698241 -0.061559618272990314 0 0.0057304202289043754 -0.065221691161148135 0 0.0094088326055698241 -0.061559618272990314 0 0.0057304202289043754 -0.065221691161148135 0 0.0057552188573774584 -0.061658222631889421 0 0.0057552188573774584 -0.061658222631889421 0 0.0065911119342035931 -0.05946581533320297 0 0.0085133479645817956 -0.05978633922665632 0 0.0057552188573774584 -0.061658222631889421 0 0.0034157944282323933 -0.060670382091697811 0 0.0051135561317374803 -0.059566766957531075 0 0.0057552188573774584 -0.061658222631889421 0 0.0034157944282323933 -0.060670382091697811 0 0.003123709606050492 -0.063965407471441055 0 0.0057304202289043754 -0.065221691161148135 0 0.0057552188573774584 -0.061658222631889421 0 0.003123709606050492 -0.063965407471441055 0 0.0028367527095848853 -0.068168339132800307 0 0.0057304202289043754 -0.065221691161148135 0 0.003123709606050492 -0.063965407471441055 0 0.0037733707112602402 -0.056737580165968554 0 0.0040844683360994755 -0.05848144235944476 0 0.0053708297109460795 -0.05474913974645302 0 0.0035861947527377944 -0.057410891369421152 0 0.0031683739906930401 -0.057571309344021743 0 0.0037733707112602402 -0.056737580165968554 0 0.0040844683360994755 -0.05848144235944476 0 0.0021047702336347636 -0.058737211926627043 0 0.0034157944282323933 -0.060670382091697811 0 0.0040844683360994755 -0.05848144235944476 0 0.0021047702336347636 -0.058737211926627043 0 0.0034157944282323933 -0.060670382091697811 0 0.0051135561317374803 -0.059566766957531075 0 0.0040844683360994755 -0.05848144235944476 0 0.0057552188573774584 -0.061658222631889421 0 0.0051135561317374803 -0.059566766957531075 0 0.0065911119342035931 -0.05946581533320297 0 0.0051135561317374803 -0.059566766957531075 0 0.0040844683360994755 -0.05848144235944476 0 0.00616677793417654 -0.057907926464180783 0 0.0051135561317374803 -0.059566766957531075 0 0.0065911119342035931 -0.05946581533320297 0 0.00616677793417654 -0.057907926464180783 0 0.0040844683360994755 -0.05848144235944476 0 0.00616677793417654 -0.057907926464180783 0 0.0055055954785162226 -0.056179842509173197 0 0.0065911119342035931 -0.05946581533320297 0 0.00616677793417654 -0.057907926464180783 0 0.0079180692676663316 -0.058070055003186238 0 0.00616677793417654 -0.057907926464180783 0 0.0079180692676663316 -0.058070055003186238 0 0.0073317379527070908 -0.056440706452803177 0 0.0065911119342035931 -0.05946581533320297 0 0.0079180692676663316 -0.058070055003186238 0 0.0085133479645817956 -0.05978633922665632 0 0.0096706325494484539 -0.059723901076269625 0 0.0085133479645817956 -0.05978633922665632 0 0.0092401803120102828 -0.058344798379674011 0 0.0079180692676663316 -0.058070055003186238 0 0.0085133479645817956 -0.05978633922665632 0 0.0092401803120102828 -0.058344798379674011 0 0.0079180692676663316 -0.058070055003186238 0 0.0092401803120102828 -0.058344798379674011 0 0.0088900719695361816 -0.056992013516729181 0 0.0079180692676663316 -0.058070055003186238 0 0.0073317379527070908 -0.056440706452803177 0 0.0088900719695361816 -0.056992013516729181 0 0.0081066627676028031 -0.055361146451470417 0 0.0073317379527070908 -0.056440706452803177 0 0.0088900719695361816 -0.056992013516729181 0 0.0063873733996582709 -0.056154399442759947 0 0.0051530222760665613 -0.056172527643460986 0 0.0081066627676028031 -0.055361146451470417 0 0.0073317379527070908 -0.056440706452803177 0 0.0068780064962104858 -0.054873460213494409 0 0.00616677793417654 -0.057907926464180783 0 0.0073317379527070908 -0.056440706452803177 0 0.0055055954785162226 -0.056179842509173197 0 0.0031683739906930401 -0.057571309344021743 0 0.0051530222760665613 -0.056172527643460986 0 0.0036097526581965532 -0.05699502388978421 0 0.0036757720142778414 -0.056814547093119658 0 0.0037428339412182853 -0.05683345700976427 0 0.0031683739906930401 -0.057571309344021743 0 0.003810625715603463 -0.056612852522348114 0 -0.0019409507933623488 -0.060342550710306239 0 -0.0020481176498721343 -0.060103474705028442 0 -0.0017984691211355456 -0.059954636077870313 0 0.0073317379527070908 -0.056440706452803177 0 0.0055055954785162226 -0.056179842509173197 0 0.0068780064962104858 -0.054873460213494409 0 -0.0020481176498721343 -0.060103474705028442 0 -0.0022967387918615373 -0.060252564024307842 0 -0.0021738599235205892 -0.059851995360758324 0 -0.0019409507933623488 -0.060342550710306239 0 -0.0020481176498721343 -0.060103474705028442 0 -0.0022967387918615373 -0.060252564024307842 0 -0.0021256428010735895 -0.060564843007903713 0 -0.0019409507933623488 -0.060342550710306239 0 -0.0022967387918615373 -0.060252564024307842 0 0.0012642881650723073 -0.058673622688237934 0 0.0031683739906930401 -0.057571309344021743 0 0.011087362309657811 -0.057730927938103499 0 0.012136557150220089 -0.056889277787248227 0 0.012120464635957439 -0.058148635904786569 0 0.011632134228807975 -0.058706013330253749 0 0.011335173387847963 -0.058534888078448831 0 0.012120464635957439 -0.058148635904786569 0 0.011087362309657811 -0.057730927938103499 0 0.011335173387847963 -0.058534888078448831 0 0.012120464635957439 -0.058148635904786569 0 0.011087362309657811 -0.057730927938103499 0 0.011335173387847963 -0.058534888078448831 0 0.010504027286518839 -0.058816032251680167 0 0.0096706325494484539 -0.059723901076269625 0 0.0092401803120102828 -0.058344798379674011 0 0.010504027286518839 -0.058816032251680167 0 0.0092401803120102828 -0.058344798379674011 0 0.010504027286518839 -0.058816032251680167 0 0.0099825117548839951 -0.057827887736609573 0 0.0092401803120102828 -0.058344798379674011 0 0.0099825117548839951 -0.057827887736609573 0 0.0088900719695361816 -0.056992013516729181 0 0.011087362309657811 -0.057730927938103499 0 0.0099825117548839951 -0.057827887736609573 0 0.010109041798460824 -0.056819585375400238 0 0.011087362309657811 -0.057730927938103499 0 0.010504027286518839 -0.058816032251680167 0 0.0099825117548839951 -0.057827887736609573 0 0.0099825117548839951 -0.057827887736609573 0 0.010109041798460824 -0.056819585375400238 0 0.0088900719695361816 -0.056992013516729181 0 0.010109041798460824 -0.056819585375400238 0 0.0088900719695361816 -0.056992013516729181 0 0.0092239162133457443 -0.05597830197177648 0 0.0081066627676028031 -0.055361146451470417 0 0.0088900719695361816 -0.056992013516729181 0 0.0092239162133457443 -0.05597830197177648 0 0.0081066627676028031 -0.055361146451470417 0 0.0092239162133457443 -0.05597830197177648 0 0.0088849677185836966 -0.054748634530093439 0 0.010109041798460824 -0.056819585375400238 0 0.009944947343808597 -0.055340234387416268 0 0.011088744618156994 -0.056097886350208237 0 0.0092239162133457443 -0.05597830197177648 0 0.009944947343808597 -0.055340234387416268 0 0.0088849677185836966 -0.054748634530093439 0 0.010109041798460824 -0.056819585375400238 0 0.0092239162133457443 -0.05597830197177648 0 0.009944947343808597 -0.055340234387416268 0 0.009944947343808597 -0.055340234387416268 0 0.010724301176034248 -0.055148071135293582 0 0.011088744618156994 -0.056097886350208237 0 0.010724301176034248 -0.055148071135293582 0 0.011088744618156994 -0.056097886350208237 0 0.011468729711880959 -0.055171175133301144 0 0.011087362309657811 -0.057730927938103499 0 0.010109041798460824 -0.056819585375400238 0 0.011088744618156994 -0.056097886350208237 0 0.011087362309657811 -0.057730927938103499 0 0.011088744618156994 -0.056097886350208237 0 0.012136557150220089 -0.056889277787248227 0 0.010487693477393114 -0.052089928488449795 0 0.01238903289763872 -0.051744015196593142 0 0.011088744618156994 -0.056097886350208237 0 0.012136557150220089 -0.056889277787248227 0 0.011904930162413008 -0.055191607269546028 0 0.011088744618156994 -0.056097886350208237 0 0.011468729711880959 -0.055171175133301144 0 0.011904930162413008 -0.055191607269546028 0 0.0070607722834396015 -0.047501653590760654 0 0.0069866860300314172 -0.047575033977811633 0 0.0071316825122598312 -0.047676726008787335 0 0.0069866860300314172 -0.047575033977811633 0 0.0070038463641489386 -0.047671947644965539 0 0.0071316825122598312 -0.047676726008787335 0 0.0069866860300314172 -0.047575033977811633 0 0.0068854452263583015 -0.047660361982219332 0 0.0070038463641489386 -0.047671947644965539 0 0.0069866860300314172 -0.047575033977811633 0 0.0068804604846687519 -0.047525804724433809 0 0.0068854452263583015 -0.047660361982219332 0 0.0068804604846687519 -0.047525804724433809 0 0.0069349581806976363 -0.04744960770252684 0 0.0068290157707125388 -0.04743896981791304 0 0.0069866860300314172 -0.047575033977811633 0 0.0068804604846687519 -0.047525804724433809 0 0.0069349581806976363 -0.04744960770252684 0 0.0070607722834396015 -0.047501653590760654 0 0.0069866860300314172 -0.047575033977811633 0 0.0069349581806976363 -0.04744960770252684 0 0.0069349581806976363 -0.04744960770252684 0 0.0068628737213181877 -0.047317705690268774 0 0.0069890833997856942 -0.047342885955584169 0 0.0070607722834396015 -0.047501653590760654 0 0.0069349581806976363 -0.04744960770252684 0 0.0069890833997856942 -0.047342885955584169 0 0.010487693477393114 -0.052089928488449795 0 0.009367866967566996 -0.053164547653831391 0 0.0068628737213181877 -0.047317705690268774 0 0.0067576936565608495 -0.047362287078256016 0 0.0067600064823313275 -0.047449794044391529 0 0.0043586611880847117 -0.045166794747564097 0 0.0041665496011422483 -0.043988314886119893 0 0.0069349581806976363 -0.04744960770252684 0 0.0068628737213181877 -0.047317705690268774 0 0.0068290157707125388 -0.04743896981791304 0 0.0068628737213181877 -0.047317705690268774 0 0.0067414531303582118 -0.047271740990921879 0 0.0069319321193478623 -0.047172990628183996 0 0.009367866967566996 -0.053164547653831391 0 0.0085588762756854224 -0.055909701292365652 0 0.0068628737213181877 -0.047317705690268774 0 0.0069890833997856942 -0.047342885955584169 0 0.0069319321193478623 -0.047172990628183996 0 0.0063871675505680183 -0.053661993226980759 0 0.003004112190001022 -0.04968584790756226 0 0.0054640613766091077 -0.064869402853687086 0 0.0097812043872170119 -0.06494946625956749 0 0.0055685399771226596 -0.068160391062830075 0 0.0067414531303582118 -0.047271740990921879 0 0.0066647477323137898 -0.047407057265441338 0 0.0067576936565608495 -0.047362287078256016 0 0.0068628737213181877 -0.047317705690268774 0 0.0067414531303582118 -0.047271740990921879 0 0.0067576936565608495 -0.047362287078256016 0 0.0067414531303582118 -0.047271740990921879 0 0.0066647477323137898 -0.047407057265441338 0 0.0065400797075405035 -0.047389096066764079 0 0.0066647477323137898 -0.047407057265441338 0 0.0067576936565608495 -0.047362287078256016 0 0.0067600064823313275 -0.047449794044391529 0 0.0066647477323137898 -0.047407057265441338 0 0.0067600064823313275 -0.047449794044391529 0 0.0066089183654544741 -0.04751860654657343 0 0.0066647477323137898 -0.047407057265441338 0 0.0065400797075405035 -0.047389096066764079 0 0.0066089183654544741 -0.04751860654657343 0 0.003004112190001022 -0.04968584790756226 0 0.0035834675558651767 -0.049326932646741227 0 0.0063414088605087109 -0.047089950570618593 0 0.0064570563965868615 -0.047514043443117743 0 0.006129091195194415 -0.047238503317286483 0 0.0013248212028729291 -0.039025207800018405 0 0.0018391328114075059 -0.043568210110424284 0 0.0063414088605087109 -0.047089950570618593 0 0.0064570563965868615 -0.047514043443117743 0 0.0066089183654544741 -0.04751860654657343 0 -0.0085818984680890685 -0.021908533726060306 0 -0.0055635671049201856 -0.022328271629624134 0 -0.0041690723258462122 -0.026056866107885556 0 0.0064570563965868615 -0.047514043443117743 0 0.0066089183654544741 -0.04751860654657343 0 0.0066853081662351264 -0.047649755627792494 0 -0.0085818984680890685 -0.021908533726060306 0 -0.012778857527584517 -0.017982407757361346 0 -0.0084776525748652409 -0.017768878903514324 0 0.0013248212028729291 -0.039025207800018405 0 0.0043372235826506476 -0.03819217737630589 0 -0.0085818984680890685 -0.021908533726060306 0 -0.0065711242371056357 -0.019442370856284846 0 -0.0055635671049201856 -0.022328271629624134 0 -0.0085818984680890685 -0.021908533726060306 0 -0.0065711242371056357 -0.019442370856284846 0 -0.0084776525748652409 -0.017768878903514324 0 0.0068804604846687519 -0.047525804724433809 0 0.0068290157707125388 -0.04743896981791304 0 0.0067756154678206421 -0.047553883669891418 0 0.0067600064823313275 -0.047449794044391529 0 0.0066089183654544741 -0.04751860654657343 0 0.0066853081662351264 -0.047649755627792494 0 0.0041665496011422483 -0.043988314886119893 0 0.0043372235826506476 -0.03819217737630589 0 0.0043372235826506476 -0.03819217737630589 0 0.011679598671295111 -0.044704284262601639 0 0.0050667583160003554 -0.038913764670055355 0 0.0047958157623874563 -0.039486103924654008 0 0.0056822508474241159 -0.039467961817391692 0 0.0068804604846687519 -0.047525804724433809 0 0.0067756154678206421 -0.047553883669891418 0 0.0068854452263583015 -0.047660361982219332 0 0.0043372235826506476 -0.03819217737630589 0 0.0041971959906057623 -0.034915694510442984 0 -0.0066377166224314416 -0.017267144910218666 0 -0.0084776525748652409 -0.017768878903514324 0 -0.0071064941928729525 -0.015372015566137641 0 -0.0065711242371056357 -0.019442370856284846 0 -0.0066377166224314416 -0.017267144910218666 0 -0.005072746783055076 -0.017852251951786084 0 -0.0065711242371056357 -0.019442370856284846 0 -0.0066377166224314416 -0.017267144910218666 0 -0.0084776525748652409 -0.017768878903514324 0 -0.012778857527584517 -0.017982407757361346 0 -0.0084776525748652409 -0.017768878903514324 0 -0.0092895408776867555 -0.015654813498983046 0 -0.0092895408776867555 -0.015654813498983046 0 -0.008064632425589335 -0.01428115814523844 0 -0.010350768422037455 -0.01295682223504554 0 -0.012778857527584517 -0.017982407757361346 0 -0.0092895408776867555 -0.015654813498983046 0 -0.010350768422037455 -0.01295682223504554 0 -0.008064632425589335 -0.01428115814523844 0 -0.0063674350786302996 -0.014210609193380866 0 -0.0075035935892771282 -0.01291148676072571 0 -0.0084776525748652409 -0.017768878903514324 0 -0.0092895408776867555 -0.015654813498983046 0 -0.0071064941928729525 -0.015372015566137641 0 -0.0092895408776867555 -0.015654813498983046 0 -0.008064632425589335 -0.01428115814523844 0 -0.0071064941928729525 -0.015372015566137641 0 -0.0066377166224314416 -0.017267144910218666 0 -0.0071064941928729525 -0.015372015566137641 0 -0.0059242212796965813 -0.015953771249649838 0 -0.0071064941928729525 -0.015372015566137641 0 -0.0061217171611243539 -0.014969157379302699 0 -0.0059242212796965813 -0.015953771249649838 0 -0.0071064941928729525 -0.015372015566137641 0 -0.0061217171611243539 -0.014969157379302699 0 -0.0063674350786302996 -0.014210609193380866 0 -0.008064632425589335 -0.01428115814523844 0 -0.0071064941928729525 -0.015372015566137641 0 -0.0063674350786302996 -0.014210609193380866 0 -0.0050998141645738002 -0.014365991731253112 0 -0.0059242212796965813 -0.015953771249649838 0 -0.005072746783055076 -0.017852251951786084 0 -0.0050998141645738002 -0.014365991731253112 0 -0.0034783101935382281 -0.014760739033930817 0 -0.0039808002529803698 -0.016925161011953994 0 -0.0050998141645738002 -0.014365991731253112 0 -0.005072746783055076 -0.017852251951786084 0 -0.0025953494346160877 -0.020170301642327772 0 -0.0040174758542015129 -0.019233886777857145 0 -0.0033709510141300353 -0.021166459373296212 0 -0.0063674350786302996 -0.014210609193380866 0 -0.0050998141645738002 -0.014365991731253112 0 -0.0052519693545702677 -0.013103653251865847 0 -0.0061217171611243539 -0.014969157379302699 0 -0.0063674350786302996 -0.014210609193380866 0 -0.0050998141645738002 -0.014365991731253112 0 -0.0061217171611243539 -0.014969157379302699 0 -0.0050998141645738002 -0.014365991731253112 0 -0.0059242212796965813 -0.015953771249649838 0 -0.0066377166224314416 -0.017267144910218666 0 -0.0059242212796965813 -0.015953771249649838 0 -0.005072746783055076 -0.017852251951786084 0 -0.0034783101935382281 -0.014760739033930817 0 -0.0018170793016536123 -0.015541177090062478 0 -0.0039808002529803698 -0.016925161011953994 0 -0.0050998141645738002 -0.014365991731253112 0 -0.0034783101935382281 -0.014760739033930817 0 -0.0040251836668647621 -0.013570004078029751 0 -0.0034783101935382281 -0.014760739033930817 0 -0.0025492557495616938 -0.013414936987439103 0 -0.0040251836668647621 -0.013570004078029751 0 -0.0018170793016536123 -0.015541177090062478 0 0.001393970351264117 -0.01673891765268929 0 -0.00059345116804449915 -0.013609964621910274 0 -0.0018170793016536123 -0.015541177090062478 0 -0.00059345116804449915 -0.013609964621910274 0 -0.0025492557495616938 -0.013414936987439103 0 -0.0034783101935382281 -0.014760739033930817 0 -0.0018170793016536123 -0.015541177090062478 0 -0.0025492557495616938 -0.013414936987439103 0 -0.0016216619113090774 -0.017732433105788176 0 0.001393970351264117 -0.01673891765268929 0 -0.0016947632178834686 -0.02050643589355829 0 -0.0018170793016536123 -0.015541177090062478 0 -0.0016216619113090774 -0.017732433105788176 0 0.001393970351264117 -0.01673891765268929 0 -0.0016216619113090774 -0.017732433105788176 0 -0.0039808002529803698 -0.016925161011953994 0 -0.002890681827478969 -0.01968229463753126 0 -0.0018170793016536123 -0.015541177090062478 0 -0.0016216619113090774 -0.017732433105788176 0 -0.0039808002529803698 -0.016925161011953994 0 -0.0033709510141300353 -0.021166459373296212 0 -0.0019134081449135221 -0.025874514273615916 0 -0.0055635671049201856 -0.022328271629624134 0 -0.0025953494346160877 -0.020170301642327772 0 -0.00032947735667363816 -0.02592691335591911 0 -0.0027900334734452218 -0.025147564868494236 0 -0.0019134081449135221 -0.025874514273615916 0 -0.0065711242371056357 -0.019442370856284846 0 -0.0055635671049201856 -0.022328271629624134 0 -0.004853971574066987 -0.019999365718761802 0 -0.0055635671049201856 -0.022328271629624134 0 -0.004853971574066987 -0.019999365718761802 0 -0.0025953494346160877 -0.020170301642327772 0 -0.0065711242371056357 -0.019442370856284846 0 -0.005072746783055076 -0.017852251951786084 0 -0.004853971574066987 -0.019999365718761802 0 -0.005072746783055076 -0.017852251951786084 0 -0.004853971574066987 -0.019999365718761802 0 -0.0025953494346160877 -0.020170301642327772 0 0.023914818525847321 0.011413078120344778 0 0.019849204399931049 0.011918275836740069 0 0.019612717388706312 0.0061104036225985356 0 0.001393970351264117 -0.01673891765268929 0 0.0016560062779864327 -0.011926516020442153 0 0.00453336011078578 -0.012883146542704 0 0.019849204399931049 0.011918275836740069 0 0.019612717388706312 0.0061104036225985356 0 0.017486643106838069 0.0092185840256294831 0 0.010215588121636712 -0.006099534603319268 0 0.0071376873614796606 -0.0037362952646673255 0 0.001393970351264117 -0.01673891765268929 0 0.0016560062779864327 -0.011926516020442153 0 -0.00059345116804449915 -0.013609964621910274 0 0.010215588121636712 -0.006099534603319268 0 0.00065978947166216346 -0.024314036061513878 0 0.019849204399931049 0.011918275836740069 0 0.021233074081282492 0.015834968207304956 0 0.018481953148481091 0.015846096080993684 0 0.023914818525847321 0.011413078120344778 0 0.019849204399931049 0.011918275836740069 0 0.021233074081282492 0.015834968207304956 0 0.021233074081282492 0.015834968207304956 0 0.019775177293273914 0.019078743010426794 0 0.018481953148481091 0.015846096080993684 0 0.021233074081282492 0.015834968207304956 0 0.02197151164091422 0.018111197105518433 0 0.024210903881779381 0.017002837430076571 0 0.021233074081282492 0.015834968207304956 0 0.02197151164091422 0.018111197105518433 0 0.019775177293273914 0.019078743010426794 0 0.023914818525847321 0.011413078120344778 0 0.024210903881779381 0.017002837430076571 0 0.028140795840158557 0.016616486958365768 0 0.023914818525847321 0.011413078120344778 0 0.021233074081282492 0.015834968207304956 0 0.024210903881779381 0.017002837430076571 0 0.024210903881779381 0.017002837430076571 0 0.022659989730545917 0.020521690355460892 0 0.028140795840158557 0.016616486958365768 0 -0.0071104503746324517 -0.059748325345800969 0 -0.003453376807400117 -0.06043769350923546 0 -0.0064508023491281043 -0.057803273985152739 0 -0.00068084310872598339 -0.042014082466433664 0 0.00051024403440192714 -0.048386376087875368 0 0.0043786699912241956 -0.021938580112913005 0 0.00065978947166216346 -0.024314036061513878 0 0.02197151164091422 0.018111197105518433 0 0.024210903881779381 0.017002837430076571 0 0.022659989730545917 0.020521690355460892 0 0.022659989730545917 0.020521690355460892 0 0.019775177293273914 0.019078743010426794 0 0.017160951185465571 0.024491198654495307 0 0.02197151164091422 0.018111197105518433 0 0.022659989730545917 0.020521690355460892 0 0.019775177293273914 0.019078743010426794 0 0.0018391328114075059 -0.043568210110424284 0 -0.0023419974327096704 -0.03857296779961094 0 -0.0025095443096753932 -0.058501453425651578 0 -0.0033855907530949592 -0.057744612624802814 0 -0.0028028840890845911 -0.057690870267179582 0 -0.0041690723258462122 -0.026056866107885556 0 -0.00023803199438045071 -0.026055143953790192 0 0.00037116643186754268 -0.030224131755559477 0 -0.001946614053084813 -0.058092643172082022 0 -0.0025095443096753932 -0.058501453425651578 0 -0.0028028840890845911 -0.057690870267179582 0 -0.0055635671049201856 -0.022328271629624134 0 -0.0041690723258462122 -0.026056866107885556 0 -0.00023803199438045071 -0.026055143953790192 0 0.003004112190001022 -0.04968584790756226 0 0.0018391328114075059 -0.043568210110424284 0 -0.0016216619113090774 -0.017732433105788176 0 -0.002890681827478969 -0.01968229463753126 0 -0.0016947632178834686 -0.02050643589355829 0 -0.0019134081449135221 -0.025874514273615916 0 0.00065978947166216346 -0.024314036061513878 0 -0.00023803199438045071 -0.026055143953790192 0 0.0010567597577100065 -0.029380668855492287 0 0.00037116643186754268 -0.030224131755559477 0 -0.0035899894867280051 -0.061944302356093425 0 -0.0030868855582798778 -0.061328349257632829 0 -0.003453376807400117 -0.06043769350923546 0 -0.0019134081449135221 -0.025874514273615916 0 -0.0016808083958734839 -0.034718280166501747 0 0.0051618146944475097 -0.032027934681506796 0 -0.0092245776256814141 -0.022162231132860821 0 -0.0021688078023409797 -0.013499036937229694 0 0.00065978947166216346 -0.024314036061513878 0 -0.0016808083958734839 -0.034718280166501747 0 -0.0016808083958734839 -0.034718280166501747 0 -0.0023419974327096704 -0.03857296779961094 0 -0.00068084310872598339 -0.042014082466433664 0 -0.00077633006782630782 -0.051365362400290528 0 -0.0034155975310670287 -0.057787619991873498 0 -0.0037456545735525975 -0.057522424219293856 0 -0.0032183706557747248 -0.057544445350201617 0 -0.0037456545735525975 -0.057522424219293856 0 -0.0034060578714600223 -0.056966227987977597 0 -0.0032183706557747248 -0.057544445350201617 0 -0.0023419974327096704 -0.03857296779961094 0 -0.0025470716615918899 -0.038949197677183557 0 -0.0071104503746324517 -0.059748325345800969 0 -0.0035899894867280051 -0.061944302356093425 0 -0.003453376807400117 -0.06043769350923546 0 -0.0037456545735525975 -0.057522424219293856 0 -0.0034060578714600223 -0.056966227987977597 0 -0.0037747393511067444 -0.056349260969690049 0 -0.0018936931030450726 -0.048963420025191974 0 0.0026908355461569178 -0.043334603754108955 0 -0.0078994120388272433 -0.033772947222725253 0 -0.0016808083958734839 -0.034718280166501747 0 -0.00068084310872598339 -0.042014082466433664 0 -0.0023419974327096704 -0.03857296779961094 0 -0.00068084310872598339 -0.042014082466433664 0 0.003004112190001022 -0.04968584790756226 0 0.0018979115381907807 -0.056424525601177541 0 -0.0028028840890845911 -0.057690870267179582 0 -0.0032183706557747248 -0.057544445350201617 0 -0.0029358103364766214 -0.056533445159906916 0 -0.001946614053084813 -0.058092643172082022 0 -0.0028028840890845911 -0.057690870267179582 0 -0.0029358103364766214 -0.056533445159906916 0 0.0054640613766091077 -0.064869402853687086 0 0.0055685399771226596 -0.068160391062830075 0 0.002656999746488713 -0.063895447355422824 0 -0.0034060578714600223 -0.056966227987977597 0 -0.0032183706557747248 -0.057544445350201617 0 -0.0029358103364766214 -0.056533445159906916 0 -0.0033855907530949592 -0.057744612624802814 0 -0.0028028840890845911 -0.057690870267179582 0 -0.0032183706557747248 -0.057544445350201617 0 0.004534254316570889 -0.062356274244177057 0 0.002656999746488713 -0.063895447355422824 0 0.002909941193607097 -0.060373959712312603 0 0.0054640613766091077 -0.064869402853687086 0 0.004534254316570889 -0.062356274244177057 0 0.002656999746488713 -0.063895447355422824 0 -0.0037747393511067444 -0.056349260969690049 0 -0.0045557268908477415 -0.055936767574478095 0 -0.0041444778299365081 -0.054454260888577424 0 -0.0034060578714600223 -0.056966227987977597 0 -0.0029358103364766214 -0.056533445159906916 0 -0.0037747393511067444 -0.056349260969690049 0 -0.0029358103364766214 -0.056533445159906916 0 -0.0037747393511067444 -0.056349260969690049 0 -0.0041444778299365081 -0.054454260888577424 0 -0.0037456545735525975 -0.057522424219293856 0 -0.0037747393511067444 -0.056349260969690049 0 -0.0045557268908477415 -0.055936767574478095 0 0.0018979115381907807 -0.056424525601177541 0 -0.0012775136771570402 -0.05526786520524634 0 -0.00075330639978081861 -0.059375622306841895 0 0.002909941193607097 -0.060373959712312603 0 0.0015665511751049627 -0.057874837358427134 0 0.002656999746488713 -0.063895447355422824 0 -0.00075330639978081861 -0.059375622306841895 0 0.002909941193607097 -0.060373959712312603 0 0.002909941193607097 -0.060373959712312603 0 0.0039736231172212439 -0.057891259402540092 0 0.0015665511751049627 -0.057874837358427134 0 0.002909941193607097 -0.060373959712312603 0 0.0039736231172212439 -0.057891259402540092 0 0.005936790507287377 -0.060036047371255959 0 0.004534254316570889 -0.062356274244177057 0 0.002909941193607097 -0.060373959712312603 0 0.005936790507287377 -0.060036047371255959 0 -0.0064508023491281043 -0.057803273985152739 0 -0.0083700901464592893 -0.055456750776776385 0 -0.011170788637044697 -0.057527509941275444 0 0.0043786699912241956 -0.021938580112913005 0 0.0012916052887053382 -0.018324002257816104 0 -0.0071104503746324517 -0.059748325345800969 0 -0.0064508023491281043 -0.057803273985152739 0 -0.011170788637044697 -0.057527509941275444 0 -0.0031500141945274519 -0.060633773911748012 0 -0.0045111485148556976 -0.057310320959643314 0 -0.0064508023491281043 -0.057803273985152739 0 -0.0045111485148556976 -0.057310320959643314 0 -0.0064508023491281043 -0.057803273985152739 0 -0.0063336426801028044 -0.055980216227696292 0 -0.00077633006782630782 -0.051365362400290528 0 -0.0014846175462324184 -0.052371946492687789 0 -0.0045557268908477415 -0.055936767574478095 0 -0.0041444778299365081 -0.054454260888577424 0 -0.0058170001733528496 -0.053674864772591029 0 -0.0045111485148556976 -0.057310320959643314 0 -0.0063336426801028044 -0.055980216227696292 0 -0.0058170001733528496 -0.053674864772591029 0 -0.0063336426801028044 -0.055980216227696292 0 -0.0083700901464592893 -0.055456750776776385 0 -0.0058170001733528496 -0.053674864772591029 0 -0.0064508023491281043 -0.057803273985152739 0 -0.0063336426801028044 -0.055980216227696292 0 -0.0083700901464592893 -0.055456750776776385 0 -0.0083700901464592893 -0.055456750776776385 0 -0.0078136428159322098 -0.052598024648191084 0 -0.010006182085565724 -0.053674166270506259 0 -0.0083700901464592893 -0.055456750776776385 0 -0.0078136428159322098 -0.052598024648191084 0 -0.0058170001733528496 -0.053674864772591029 0 -0.0078136428159322098 -0.052598024648191084 0 -0.0094879728739458383 -0.050150083812469583 0 -0.010006182085565724 -0.053674166270506259 0 -0.0078136428159322098 -0.052598024648191084 0 -0.0060363313289513269 -0.05101755763516741 0 -0.0094879728739458383 -0.050150083812469583 0 -0.0012775136771570402 -0.05526786520524634 0 -0.0043264854658873995 -0.052019602826356842 0 -0.0078136428159322098 -0.052598024648191084 0 -0.0058170001733528496 -0.053674864772591029 0 -0.0060363313289513269 -0.05101755763516741 0 -0.0041444778299365081 -0.054454260888577424 0 -0.0058170001733528496 -0.053674864772591029 0 -0.0060363313289513269 -0.05101755763516741 0 -0.0040905936525392024 -0.048468511168213525 0 -0.0045812115424387389 -0.053812817674264497 0 -0.00017824673971410555 -0.051592606929614364 0 -0.0060225082565572713 -0.049692820556645166 0 -0.0043264854658873995 -0.052019602826356842 0 -0.0082050263622170314 -0.046854102224301211 0 -0.0060363313289513269 -0.05101755763516741 0 -0.0094879728739458383 -0.050150083812469583 0 0.0019149359499624928 -0.05499622620699697 0 0.004866800210856316 -0.055294969432531205 0 0.0039736231172212439 -0.057891259402540092 0 0.0019149359499624928 -0.05499622620699697 0 0.0039736231172212439 -0.057891259402540092 0 0.0015665511751049627 -0.057874837358427134 0 -0.00075330639978081861 -0.059375622306841895 0 -0.0045812115424387389 -0.053812817674264497 0 -0.00038369578552434905 -0.055581035527138528 0 -0.00075330639978081861 -0.059375622306841895 0 0.0015665511751049627 -0.057874837358427134 0 -0.00038369578552434905 -0.055581035527138528 0 0.0019149359499624928 -0.05499622620699697 0 0.0015665511751049627 -0.057874837358427134 0 -0.00038369578552434905 -0.055581035527138528 0 0.0019149359499624928 -0.05499622620699697 0 -0.00038369578552434905 -0.055581035527138528 0 -0.00017824673971410555 -0.051592606929614364 0 -0.0045812115424387389 -0.053812817674264497 0 -0.00038369578552434905 -0.055581035527138528 0 -0.00017824673971410555 -0.051592606929614364 0 0.0033502281905680381 -0.048362153318966136 0 -0.00017824673971410555 -0.051592606929614364 0 0.0032779248138588529 -0.05270539748330668 0 0.0033502281905680381 -0.048362153318966136 0 0.0032779248138588529 -0.05270539748330668 0 0.0062693973389689201 -0.053123052199330903 0 0.0019149359499624928 -0.05499622620699697 0 -0.00017824673971410555 -0.051592606929614364 0 0.0032779248138588529 -0.05270539748330668 0 0.0019149359499624928 -0.05499622620699697 0 0.004866800210856316 -0.055294969432531205 0 0.0032779248138588529 -0.05270539748330668 0 0.004866800210856316 -0.055294969432531205 0 0.0032779248138588529 -0.05270539748330668 0 0.0062693973389689201 -0.053123052199330903 0 0.0074923330206643898 -0.050278747171859921 0 0.0062693973389689201 -0.053123052199330903 0 0.0080726809794063499 -0.054315000798961642 0 0.0062693973389689201 -0.053123052199330903 0 0.0080726809794063499 -0.054315000798961642 0 0.007144507865203968 -0.055677307291501249 0 0.004866800210856316 -0.055294969432531205 0 0.0062693973389689201 -0.053123052199330903 0 0.007144507865203968 -0.055677307291501249 0 0.004866800210856316 -0.055294969432531205 0 0.007144507865203968 -0.055677307291501249 0 0.0063273943197428364 -0.057539237630783467 0 0.007144507865203968 -0.055677307291501249 0 0.0078124911643916344 -0.057122292399191768 0 0.0091076001237527359 -0.056579577567551546 0 0.0080726809794063499 -0.054315000798961642 0 0.007144507865203968 -0.055677307291501249 0 0.0091076001237527359 -0.056579577567551546 0 0.007144507865203968 -0.055677307291501249 0 0.0078124911643916344 -0.057122292399191768 0 0.0063273943197428364 -0.057539237630783467 0 0.0078124911643916344 -0.057122292399191768 0 0.0063273943197428364 -0.057539237630783467 0 0.0084639370408284217 -0.058486284198605527 0 0.004866800210856316 -0.055294969432531205 0 0.0039736231172212439 -0.057891259402540092 0 0.0063273943197428364 -0.057539237630783467 0 0.0099867955798022441 -0.057571428519776591 0 0.011148251888603274 -0.05743180950614301 0 0.010609480189108015 -0.058750876940895799 0 0.0099867955798022441 -0.057571428519776591 0 0.0084639370408284217 -0.058486284198605527 0 0.010609480189108015 -0.058750876940895799 0 0.0078124911643916344 -0.057122292399191768 0 0.0091076001237527359 -0.056579577567551546 0 0.0084639370408284217 -0.058486284198605527 0 0.0099867955798022441 -0.057571428519776591 0 0.0091076001237527359 -0.056579577567551546 0 0.0084639370408284217 -0.058486284198605527 0 0.0091076001237527359 -0.056579577567551546 0 0.010374927483582668 -0.056684749862691404 0 0.010081654730812625 -0.055626299176737455 0 0.0099867955798022441 -0.057571428519776591 0 0.0091076001237527359 -0.056579577567551546 0 0.010374927483582668 -0.056684749862691404 0 0.010374927483582668 -0.056684749862691404 0 0.011063547859058569 -0.056597922122174578 0 0.011148251888603274 -0.05743180950614301 0 0.0099867955798022441 -0.057571428519776591 0 0.010374927483582668 -0.056684749862691404 0 0.011148251888603274 -0.05743180950614301 0 0.010374927483582668 -0.056684749862691404 0 0.010081654730812625 -0.055626299176737455 0 0.011063547859058569 -0.056597922122174578 0 0.010081654730812625 -0.055626299176737455 0 0.011763534565718355 -0.05629441181476158 0 0.011063547859058569 -0.056597922122174578 0 0.010081654730812625 -0.055626299176737455 0 0.0093864683964336674 -0.053309565492141539 0 0.011763534565718355 -0.05629441181476158 0 0.010489842108991987 -0.047716427493429643 0 0.0093864683964336674 -0.053309565492141539 0 0.011763534565718355 -0.05629441181476158 0 0.0080726809794063499 -0.054315000798961642 0 0.010081654730812625 -0.055626299176737455 0 0.0093864683964336674 -0.053309565492141539 0 0.0080726809794063499 -0.054315000798961642 0 0.0091076001237527359 -0.056579577567551546 0 0.010081654730812625 -0.055626299176737455 0 0.0074923330206643898 -0.050278747171859921 0 0.0080726809794063499 -0.054315000798961642 0 0.0093864683964336674 -0.053309565492141539 0 0.011182704064189919 -0.05759122622830936 0 0.011207687233143951 -0.057328433755977223 0 0.011763534565718355 -0.05629441181476158 0 0.011207687233143951 -0.057328433755977223 0 0.011444831716805942 -0.056925166760525718 0 0.011763534565718355 -0.05629441181476158 0 0.011207687233143951 -0.057328433755977223 0 0.011293136649073107 -0.057264787650597067 0 0.011444831716805942 -0.056925166760525718 0 0.011293136649073107 -0.057264787650597067 0 0.011444831716805942 -0.056925166760525718 0 0.011359987645533502 -0.057330509724271339 0 0.011444831716805942 -0.056925166760525718 0 0.011763534565718355 -0.05629441181476158 0 0.011499868566229015 -0.056833908970529465 0 0.011763534565718355 -0.05629441181476158 0 0.011063547859058569 -0.056597922122174578 0 0.011499868566229015 -0.056833908970529465 0 0.011139924694953071 -0.057963432956937157 0 0.011196220610610838 -0.05759683580021583 0 0.011253403578964373 -0.057877144807650965 0 0.011107593096234936 -0.058131095771815904 0 0.011163268884829968 -0.058286780423219796 0 0.011139924694953071 -0.057963432956937157 0 0.011093394056714516 -0.057784163787858139 0 0.011207687233143951 -0.057328433755977223 0 0.011119503981279488 -0.057748305496671516 0 0.011139924694953071 -0.057963432956937157 0 0.011119503981279488 -0.057748305496671516 0 0.011196220610610838 -0.05759683580021583 0 0.011207687233143951 -0.057328433755977223 0 0.011119503981279488 -0.057748305496671516 0 0.011196220610610838 -0.05759683580021583 0 0.011294895786808617 -0.057539818502857457 0 0.011253403578964373 -0.057877144807650965 0 0.011363003120121255 -0.05784024123884391 0 0.011293136649073107 -0.057264787650597067 0 0.011196220610610838 -0.05759683580021583 0 0.011294895786808617 -0.057539818502857457 0 0.011207687233143951 -0.057328433755977223 0 0.011293136649073107 -0.057264787650597067 0 0.011196220610610838 -0.05759683580021583 0 0.011293136649073107 -0.057264787650597067 0 0.011294895786808617 -0.057539818502857457 0 0.011359987645533502 -0.057330509724271339 0 0.011196220610610838 -0.05759683580021583 0 0.011294895786808617 -0.057539818502857457 0 0.011253403578964373 -0.057877144807650965 0 0.011214271828977843 -0.058185138428691247 0 0.011324830399529256 -0.058374747459834064 0 0.011253403578964373 -0.057877144807650965 0 0.011214271828977843 -0.058185138428691247 0 0.011139924694953071 -0.057963432956937157 0 0.011253403578964373 -0.057877144807650965 0 0.011363003120121255 -0.05784024123884391 0 0.011450991138513377 -0.058407730942164879 0 0.011046569953803308 -0.058316596034658684 0 0.011324830399529256 -0.058374747459834064 0 0.011253403578964373 -0.057877144807650965 0 0.011363003120121255 -0.05784024123884391 0 0.011324830399529256 -0.058374747459834064 0 0.011363003120121255 -0.05784024123884391 0 0.011450991138513377 -0.058407730942164879 0 0.011294895786808617 -0.057539818502857457 0 0.011363003120121255 -0.05784024123884391 0 0.011359987645533502 -0.057330509724271339 0 0.011363003120121255 -0.05784024123884391 0 0.011359987645533502 -0.057330509724271339 0 0.011046569953803308 -0.058316596034658684 0 0.010073337816832116 -0.057958723690316932 0 0.0098044892263204047 -0.057781285826300065 0 0.011499868566229015 -0.056833908970529465 0 0.011359987645533502 -0.057330509724271339 0 0.011046569953803308 -0.058316596034658684 0 0.011499868566229015 -0.056833908970529465 0 0.011148251888603274 -0.05743180950614301 0 0.012677809760282014 -0.058786053787530018 0 0.011063547859058569 -0.056597922122174578 0 0.011499868566229015 -0.056833908970529465 0 0.011148251888603274 -0.05743180950614301 0 0.011444831716805942 -0.056925166760525718 0 0.011499868566229015 -0.056833908970529465 0 0.011359987645533502 -0.057330509724271339 0 0.011148251888603274 -0.05743180950614301 0 0.012677809760282014 -0.058786053787530018 0 0.010609480189108015 -0.058750876940895799 0 0.0098044892263204047 -0.057781285826300065 0 0.0085588762756854224 -0.055909701292365652 0 0.012677809760282014 -0.058786053787530018 0 0.011141555648303091 -0.060986665323912996 0 0.010609480189108015 -0.058750876940895799 0 0.012677809760282014 -0.058786053787530018 0 0.011141555648303091 -0.060986665323912996 0 0.013745809774918514 -0.061780035265735764 0 0.011536148929440269 -0.058763751745825016 0 0.011046569953803308 -0.058316596034658684 0 0.011150529896276328 -0.058927708128469813 0 0.011536148929440269 -0.058763751745825016 0 0.011450991138513377 -0.058407730942164879 0 0.011046569953803308 -0.058316596034658684 0 0.0090990146342266962 -0.056125045662545073 0 0.0085588762756854224 -0.055909701292365652 0 0.011632134228807975 -0.058706013330253749 0 0.011536148929440269 -0.058763751745825016 0 0.011932009575787579 -0.058765220962238421 0 0.011632134228807975 -0.058706013330253749 0 0.012120464635957439 -0.058148635904786569 0 0.011932009575787579 -0.058765220962238421 0 0.0097812043872170119 -0.06494946625956749 0 0.011141555648303091 -0.060986665323912996 0 0.013745809774918514 -0.061780035265735764 0 0.0063871675505680183 -0.053661993226980759 0 0.0085588762756854224 -0.055909701292365652 0 0.0097812043872170119 -0.06494946625956749 0 0.0066091272785543448 -0.062705301415958939 0 0.0088220638882266708 -0.06088935972088564 0 0.0097812043872170119 -0.06494946625956749 0 0.011141555648303091 -0.060986665323912996 0 0.0088220638882266708 -0.06088935972088564 0 0.0054640613766091077 -0.064869402853687086 0 0.0097812043872170119 -0.06494946625956749 0 0.0066091272785543448 -0.062705301415958939 0 0.0054640613766091077 -0.064869402853687086 0 0.004534254316570889 -0.062356274244177057 0 0.0066091272785543448 -0.062705301415958939 0 0.004534254316570889 -0.062356274244177057 0 0.0066091272785543448 -0.062705301415958939 0 0.005936790507287377 -0.060036047371255959 0 0.0066091272785543448 -0.062705301415958939 0 0.005936790507287377 -0.060036047371255959 0 0.0088220638882266708 -0.06088935972088564 0 0.0039736231172212439 -0.057891259402540092 0 0.0063273943197428364 -0.057539237630783467 0 0.005936790507287377 -0.060036047371255959 0 0.0063273943197428364 -0.057539237630783467 0 0.005936790507287377 -0.060036047371255959 0 0.0084639370408284217 -0.058486284198605527 0 0.005936790507287377 -0.060036047371255959 0 0.0084639370408284217 -0.058486284198605527 0 0.0088220638882266708 -0.06088935972088564 0 0.0084639370408284217 -0.058486284198605527 0 0.010609480189108015 -0.058750876940895799 0 0.0088220638882266708 -0.06088935972088564 0 0.011141555648303091 -0.060986665323912996 0 0.010609480189108015 -0.058750876940895799 0 0.0088220638882266708 -0.06088935972088564 0 -0.00010474614585578112 -0.084482931027199851 0 -0.00012694831908230086 -0.084512083572102104 0 -0.0001419312344397978 -0.084058955506547545 0 -0.00010474614585578112 -0.084482931027199851 0 -0.0001419312344397978 -0.084058955506547545 0 -0.00018220630086482136 -0.084056122137339886 0 -0.00010474614585578112 -0.084482931027199851 0 -4.5615614284250567e-07 -0.084999233630317458 0 6.5041208420790291e-07 -0.084997751084590983 0 -0.00010474614585578112 -0.084482931027199851 0 -4.5615614284250567e-07 -0.084999233630317458 0 -0.00012694831908230086 -0.084512083572102104 0 -4.5615614284250567e-07 -0.084999233630317458 0 -0.00017403598763553605 -0.084758283592579864 0 -0.00012694831908230086 -0.084512083572102104 0 -0.00017403598763553605 -0.084758283592579864 0 -0.00012694831908230086 -0.084512083572102104 0 -0.00012273913071131004 -0.084154658762061893 0 -4.5615614284250567e-07 -0.084999233630317458 0 -0.00017403598763553605 -0.084758283592579864 0 -9.7422107251068032e-08 -0.084999541972695603 0 -0.00012694831908230086 -0.084512083572102104 0 -0.0001419312344397978 -0.084058955506547545 0 -0.00012273913071131004 -0.084154658762061893 0 -0.0001419312344397978 -0.084058955506547545 0 -0.00010962247974169635 -0.083824358956331599 0 -0.00012273913071131004 -0.084154658762061893 0 -0.0001419312344397978 -0.084058955506547545 0 -0.00012974312727168308 -0.083576320066431564 0 -0.00022412982194046124 -0.083651557140894561 0 -0.0001419312344397978 -0.084058955506547545 0 -0.00012974312727168308 -0.083576320066431564 0 -0.00010962247974169635 -0.083824358956331599 0 -0.00012974312727168308 -0.083576320066431564 0 -0.00022412982194046124 -0.083651557140894561 0 -0.00013893423612613008 -0.083104870575548731 0 -0.00022412982194046124 -0.083651557140894561 0 -0.00018220630086482136 -0.084056122137339886 0 -0.00027724620949405284 -0.083794539938322463 0 -0.0001419312344397978 -0.084058955506547545 0 -0.00022412982194046124 -0.083651557140894561 0 -0.00018220630086482136 -0.084056122137339886 0 -0.00027724620949405284 -0.083794539938322463 0 -0.00022874363349383009 -0.083778855128580271 0 -0.00013541874581191244 -0.084238762178537444 0 -0.00018220630086482136 -0.084056122137339886 0 -0.00027724620949405284 -0.083794539938322463 0 -0.00013541874581191244 -0.084238762178537444 0 -0.00027724620949405284 -0.083794539938322463 0 -0.00043273295524894225 -0.083387809545077615 0 -0.00039258051934066657 -0.08346706821421003 0 -0.00022412982194046124 -0.083651557140894561 0 -0.00027724620949405284 -0.083794539938322463 0 -0.00043273295524894225 -0.083387809545077615 0 -0.00022412982194046124 -0.083651557140894561 0 -0.00043273295524894225 -0.083387809545077615 0 -0.00062217443149362064 -0.083287944181990647 0 -0.00039258051934066657 -0.08346706821421003 0 -0.00049525826278161271 -0.083186455355588301 0 -0.00053237738188835189 -0.083155092150803175 0 -0.00043273295524894225 -0.083387809545077615 0 -0.00039258051934066657 -0.08346706821421003 0 -0.00053237738188835189 -0.083155092150803175 0 -0.00039258051934066657 -0.08346706821421003 0 -0.00022874363349383009 -0.083778855128580271 0 -0.00034379454449149982 -0.083400016059433993 0 -0.00027724620949405284 -0.083794539938322463 0 -0.00039258051934066657 -0.08346706821421003 0 -0.00022874363349383009 -0.083778855128580271 0 -0.00022874363349383009 -0.083778855128580271 0 -0.00013541874581191244 -0.084238762178537444 0 -6.665651801798749e-06 -0.083791147422772105 0 -0.00022874363349383009 -0.083778855128580271 0 -6.665651801798749e-06 -0.083791147422772105 0 -0.00034379454449149982 -0.083400016059433993 0 -0.00010474614585578112 -0.084482931027199851 0 -0.00018220630086482136 -0.084056122137339886 0 -0.00013541874581191244 -0.084238762178537444 0 -0.00010474614585578112 -0.084482931027199851 0 -0.00013541874581191244 -0.084238762178537444 0 6.5041208420790291e-07 -0.084997751084590983 0 1.0345139363651415e-09 -0.085000004778893121 0 -6.6256916865251743e-09 -0.08499999956028377 0 -4.5521994959562813e-06 -0.085001819777592788 0 -0.00013541874581191244 -0.084238762178537444 0 6.5041208420790291e-07 -0.084997751084590983 0 -6.665651801798749e-06 -0.083791147422772105 0 -2.2527392484079854e-07 -0.084999250345474939 0 -0.00021473791162549577 -0.084565097178831608 0 -6.6256916865251743e-09 -0.08499999956028377 0 -4.5521994959562813e-06 -0.085001819777592788 0 -7.0180758827989894e-06 -0.084998752444930034 0 -6.665651801798749e-06 -0.083791147422772105 0 -0.00023585518707313529 -0.083152781730478589 0 -0.00034379454449149982 -0.083400016059433993 0 -0.00021473791162549577 -0.084565097178831608 0 -0.00031687817360280952 -0.084393359607505936 0 -4.5521994959562813e-06 -0.085001819777592788 0 -7.0180758827989894e-06 -0.084998752444930034 0 -1.4524697754755787e-05 -0.085000137968407039 0 -7.0180758827989894e-06 -0.084998752444930034 0 -1.4837042167387827e-05 -0.084995034078922047 0 -1.4524697754755787e-05 -0.085000137968407039 0 -6.6256916865251743e-09 -0.08499999956028377 0 -7.0180758827989894e-06 -0.084998752444930034 0 2.4873377897681389e-10 -0.085000002829728916 0 -7.0180758827989894e-06 -0.084998752444930034 0 2.4873377897681389e-10 -0.085000002829728916 0 -1.1020343361731234e-05 -0.084993553640987457 0 -7.0180758827989894e-06 -0.084998752444930034 0 -1.4837042167387827e-05 -0.084995034078922047 0 -1.1020343361731234e-05 -0.084993553640987457 0 -1.4837042167387827e-05 -0.084995034078922047 0 -1.1020343361731234e-05 -0.084993553640987457 0 -1.7985784919659442e-05 -0.084989283308861532 0 -1.1020343361731234e-05 -0.084993553640987457 0 -1.4531912525819853e-05 -0.084978218265788788 0 -1.7985784919659442e-05 -0.084989283308861532 0 -0.00020691870337190247 -0.084740428442758628 0 -0.00024465600496400837 -0.084698393722016707 0 -4.3391182788479446e-05 -0.084973307893267833 0 -1.4531912525819853e-05 -0.084978218265788788 0 -7.0687125151550157e-05 -0.085003939206093851 0 -6.5504927623111872e-06 -0.084971072758233818 0 -4.3391182788479446e-05 -0.084973307893267833 0 -1.4531912525819853e-05 -0.084978218265788788 0 2.4873377897681389e-10 -0.085000002829728916 0 -1.1020343361731234e-05 -0.084993553640987457 0 -1.4531912525819853e-05 -0.084978218265788788 0 -5.2638873945155604e-10 -0.084999900316783214 0 -6.5504927623111872e-06 -0.084971072758233818 0 2.4873377897681389e-10 -0.085000002829728916 0 -6.5504927623111872e-06 -0.084971072758233818 0 2.4873377897681389e-10 -0.085000002829728916 0 -1.4531912525819853e-05 -0.084978218265788788 0 -0.00017474433389603341 -0.084931812397457826 0 -8.4763119069133623e-05 -0.084944538756721491 0 -0.00012222905307001557 -0.084983134148317166 0 -0.00017474433389603341 -0.084931812397457826 0 -0.00012222905307001557 -0.084983134148317166 0 -0.00016704255583050413 -0.085004731962772639 0 -8.4763119069133623e-05 -0.084944538756721491 0 -0.00012222905307001557 -0.084983134148317166 0 -7.0687125151550157e-05 -0.085003939206093851 0 -8.4763119069133623e-05 -0.084944538756721491 0 -4.3391182788479446e-05 -0.084973307893267833 0 -7.0687125151550157e-05 -0.085003939206093851 0 -0.00012222905307001557 -0.084983134148317166 0 -7.0687125151550157e-05 -0.085003939206093851 0 -0.00012944166390753544 -0.085043050150556895 0 -1.4837042167387827e-05 -0.084995034078922047 0 -1.7985784919659442e-05 -0.084989283308861532 0 -2.3807010977398197e-05 -0.084993648673835423 0 -0.00024465600496400837 -0.084698393722016707 0 -0.00033895879108884774 -0.084532988616270482 0 -0.00012222905307001557 -0.084983134148317166 0 -0.00012944166390753544 -0.085043050150556895 0 -0.00016704255583050413 -0.085004731962772639 0 -0.00013693028370148546 -0.085035025054515545 0 -0.00016704255583050413 -0.085004731962772639 0 -0.0001780476247611965 -0.08506512199687026 0 -0.00033895879108884774 -0.084532988616270482 0 -0.00025852347739042518 -0.084636787626199375 0 -0.00046333754518815653 -0.082896946810696745 0 -0.00047648204951561429 -0.083101537613067863 0 -0.00058584101464071413 -0.083003468141844991 0 -0.00033895879108884774 -0.084532988616270482 0 -0.00034719109321941494 -0.084031804715915315 0 -0.00047648204951561429 -0.083101537613067863 0 -0.00058051773049159951 -0.083028660711819385 0 -0.00058584101464071413 -0.083003468141844991 0 -1.4837042167387827e-05 -0.084995034078922047 0 -2.3807010977398197e-05 -0.084993648673835423 0 -1.4524697754755787e-05 -0.085000137968407039 0 -0.00046333754518815653 -0.082896946810696745 0 -0.00047648204951561429 -0.083101537613067863 0 -0.00023585518707313529 -0.083152781730478589 0 -0.00033895879108884774 -0.084532988616270482 0 -0.00031687817360280952 -0.084393359607505936 0 -0.00047648204951561429 -0.083101537613067863 0 -0.00023585518707313529 -0.083152781730478589 0 -0.00034379454449149982 -0.083400016059433993 0 -0.00047648204951561429 -0.083101537613067863 0 -0.00049525826278161271 -0.083186455355588301 0 -0.00058051773049159951 -0.083028660711819385 0 -0.00047648204951561429 -0.083101537613067863 0 -0.00034379454449149982 -0.083400016059433993 0 -0.00049525826278161271 -0.083186455355588301 0 -0.00039258051934066657 -0.08346706821421003 0 -0.00034379454449149982 -0.083400016059433993 0 -0.00049525826278161271 -0.083186455355588301 0 -0.00049525826278161271 -0.083186455355588301 0 -0.00056182680182954403 -0.0830475254326596 0 -0.00053237738188835189 -0.083155092150803175 0 -0.00049525826278161271 -0.083186455355588301 0 -0.00056182680182954403 -0.0830475254326596 0 -0.00058051773049159951 -0.083028660711819385 0 -0.00056182680182954403 -0.0830475254326596 0 -0.00060589813366405281 -0.082902517635783185 0 -0.00065797536379154592 -0.08289526477829888 0 -0.00060589813366405281 -0.082902517635783185 0 -0.00058918337988433174 -0.08297378750787264 0 -0.00058051773049159951 -0.083028660711819385 0 -0.00037296193356358727 -0.083469697850794611 0 -0.00033872860757633576 -0.083524264295162992 0 -0.00056182680182954403 -0.0830475254326596 0 -0.00060589813366405281 -0.082902517635783185 0 -0.00058051773049159951 -0.083028660711819385 0 -0.00070963439395845191 -0.082467872163599756 0 -0.00079852801593775812 -0.082611350443174303 0 -0.00092186769717040977 -0.082397255863710897 0 -0.00079852801593775812 -0.082611350443174303 0 -0.00090279565197565724 -0.082448436396949029 0 -0.00082776900203257171 -0.082644063079655466 0 -0.00060589813366405281 -0.082902517635783185 0 -0.00079852801593775812 -0.082611350443174303 0 -0.00065797536379154592 -0.08289526477829888 0 -0.00033872860757633576 -0.083524264295162992 0 -0.00035991216571962058 -0.083465948948707208 0 -0.00060589813366405281 -0.082902517635783185 0 -0.00066313888594317382 -0.082750630056131785 0 -0.00079852801593775812 -0.082611350443174303 0 -0.00079852801593775812 -0.082611350443174303 0 -0.00092186769717040977 -0.082397255863710897 0 -0.00090279565197565724 -0.082448436396949029 0 -0.00070963439395845191 -0.082467872163599756 0 -0.00094699879179012923 -0.082337835257231956 0 -0.00092186769717040977 -0.082397255863710897 0 -0.00022087598111285842 -0.085095750205489859 0 -0.00021710036219945144 -0.085057970681636785 0 -0.00026293490296757537 -0.085041235770504459 0 -0.00033872860757633576 -0.083524264295162992 0 -0.00049307420177849867 -0.083688862220241245 0 -0.00058918337988433174 -0.08297378750787264 0 -0.00058051773049159951 -0.083028660711819385 0 -0.00058584101464071413 -0.083003468141844991 0 -0.00033872860757633576 -0.083524264295162992 0 -0.00034719109321941494 -0.084031804715915315 0 -0.00022087598111285842 -0.085095750205489859 0 -0.00021710036219945144 -0.085057970681636785 0 -0.0001780476247611965 -0.08506512199687026 0 -0.00021710036219945144 -0.085057970681636785 0 -0.0001780476247611965 -0.08506512199687026 0 -0.00020766368585397167 -0.085029521262336469 0 -0.00016704255583050413 -0.085004731962772639 0 -0.00020766368585397167 -0.085029521262336469 0 -0.00023104068788027264 -0.084985783911645976 0 -0.00016704255583050413 -0.085004731962772639 0 -0.0001780476247611965 -0.08506512199687026 0 -0.00020766368585397167 -0.085029521262336469 0 -0.00026293490296757537 -0.085041235770504459 0 -0.00023104068788027264 -0.084985783911645976 0 -0.00030840375668992644 -0.084981783221012477 0 -0.00020766368585397167 -0.085029521262336469 0 -0.00026293490296757537 -0.085041235770504459 0 -0.00023104068788027264 -0.084985783911645976 0 -0.00021710036219945144 -0.085057970681636785 0 -0.00020766368585397167 -0.085029521262336469 0 -0.00026293490296757537 -0.085041235770504459 0 -0.00026254539808418491 -0.0849234208133086 0 -0.00023104068788027264 -0.084985783911645976 0 -0.00030840375668992644 -0.084981783221012477 0 -0.00017474433389603341 -0.084931812397457826 0 -0.00016704255583050413 -0.085004731962772639 0 -0.00023104068788027264 -0.084985783911645976 0 -0.00017474433389603341 -0.084931812397457826 0 -0.00026254539808418491 -0.0849234208133086 0 -0.00023104068788027264 -0.084985783911645976 0 -0.0010966599002763598 -0.082826238248355916 0 -0.001113446126801294 -0.082493131108925588 0 -0.00092783156854494848 -0.082651982389293804 0 -0.001113446126801294 -0.082493131108925588 0 -0.00096758085516839465 -0.082359559545990418 0 -0.00092783156854494848 -0.082651982389293804 0 -0.0007104629332071663 -0.0839987633550765 0 -0.00062482887433397481 -0.083817691773065889 0 -0.00035431529348678946 -0.084917232432789647 0 -0.00026254539808418491 -0.0849234208133086 0 -0.00030840375668992644 -0.084981783221012477 0 -0.00049307420177849867 -0.083688862220241245 0 -0.00062482887433397481 -0.083817691773065889 0 -0.00094699879179012923 -0.082337835257231956 0 -0.001113446126801294 -0.082493131108925588 0 -0.0010057827635348347 -0.082357344284821027 0 -0.001113446126801294 -0.082493131108925588 0 -0.0010057827635348347 -0.082357344284821027 0 -0.00096758085516839465 -0.082359559545990418 0 -0.00096758085516839465 -0.082359559545990418 0 -0.00096056944638680012 -0.08231684564052133 0 -0.00090357105430818939 -0.082124487384713327 0 -0.0010057827635348347 -0.082357344284821027 0 -0.00096758085516839465 -0.082359559545990418 0 -0.00096056944638680012 -0.08231684564052133 0 -0.00094699879179012923 -0.082337835257231956 0 -0.0010057827635348347 -0.082357344284821027 0 -0.00092186769717040977 -0.082397255863710897 0 -0.0010057827635348347 -0.082357344284821027 0 -0.00096056944638680012 -0.08231684564052133 0 -0.00092186769717040977 -0.082397255863710897 0 -0.00096056944638680012 -0.08231684564052133 0 -0.00090279565197565724 -0.082448436396949029 0 -0.00090114766587032853 -0.082311726323566606 0 -0.00096056944638680012 -0.08231684564052133 0 -0.00092186769717040977 -0.082397255863710897 0 -0.00090279565197565724 -0.082448436396949029 0 -0.00096056944638680012 -0.08231684564052133 0 -0.00090114766587032853 -0.082311726323566606 0 -0.00090357105430818939 -0.082124487384713327 0 -0.00090114766587032853 -0.082311726323566606 0 -0.00078887428242430308 -0.081826025530598478 0 -0.00090357105430818939 -0.082124487384713327 0 -0.00090114766587032853 -0.082311726323566606 0 -0.00071696475161224114 -0.081947236905057827 0 -0.00078887428242430308 -0.081826025530598478 0 -0.00035570830783901783 -0.082298107961369021 0 -0.00050769046123158232 -0.082173392000531503 0 -0.00071696475161224114 -0.081947236905057827 0 -0.00090114766587032853 -0.082311726323566606 0 -0.00086717588443533614 -0.082651312659759599 0 -0.00071696475161224114 -0.081947236905057827 0 -0.00054689483289376505 -0.082672933491154579 0 -0.00060073337519940876 -0.08254757783174739 0 -0.00090114766587032853 -0.082311726323566606 0 -0.00086717588443533614 -0.082651312659759599 0 -0.00082776900203257171 -0.082644063079655466 0 -0.00090279565197565724 -0.082448436396949029 0 -0.00090114766587032853 -0.082311726323566606 0 -0.00082776900203257171 -0.082644063079655466 0 -0.00079852801593775812 -0.082611350443174303 0 -0.00082776900203257171 -0.082644063079655466 0 -0.00065797536379154592 -0.08289526477829888 0 -0.00082776900203257171 -0.082644063079655466 0 -0.0006761146345611776 -0.082989027102169835 0 -0.00065797536379154592 -0.08289526477829888 0 -0.00043273295524894225 -0.083387809545077615 0 -0.0006761146345611776 -0.082989027102169835 0 -0.00053237738188835189 -0.083155092150803175 0 -0.00056182680182954403 -0.0830475254326596 0 -0.00053237738188835189 -0.083155092150803175 0 -0.00065797536379154592 -0.08289526477829888 0 -0.0006761146345611776 -0.082989027102169835 0 -0.00053237738188835189 -0.083155092150803175 0 -0.00065797536379154592 -0.08289526477829888 0 -0.00043273295524894225 -0.083387809545077615 0 -0.0006761146345611776 -0.082989027102169835 0 -0.00062217443149362064 -0.083287944181990647 0 -0.00086717588443533614 -0.082651312659759599 0 -0.00082776900203257171 -0.082644063079655466 0 -0.0006761146345611776 -0.082989027102169835 0 -0.00054689483289376505 -0.082672933491154579 0 -0.00044301594880303928 -0.082905658653626924 0 -0.00086717588443533614 -0.082651312659759599 0 -0.0006761146345611776 -0.082989027102169835 0 -0.00062217443149362064 -0.083287944181990647 0 -0.00035570830783901783 -0.082298107961369021 0 -0.00016983890247976777 -0.082903425101383293 0 -0.0003025423531925338 -0.082584297961102171 0 -0.00022412982194046124 -0.083651557140894561 0 -0.00016983890247976777 -0.082903425101383293 0 -0.00013893423612613008 -0.083104870575548731 0 -0.00037543716120740312 -0.083034821829144526 0 -0.00044301594880303928 -0.082905658653626924 0 -0.00016983890247976777 -0.082903425101383293 0 -0.00013893423612613008 -0.083104870575548731 0 -0.0003025423531925338 -0.082584297961102171 0 -0.0003025423531925338 -0.082584297961102171 0 -0.00043291252177753029 -0.082237860940173324 0 -0.00035283213669756952 -0.082460165789822987 0 -0.00043291252177753029 -0.082237860940173324 0 -0.00050769046123158232 -0.082173392000531503 0 -0.00056744998038598814 -0.081817640889929863 0 -0.0003025423531925338 -0.082584297961102171 0 -0.00043291252177753029 -0.082237860940173324 0 -0.00050769046123158232 -0.082173392000531503 0 -0.00050769046123158232 -0.082173392000531503 0 -0.00056744998038598814 -0.081817640889929863 0 -0.00071696475161224114 -0.081947236905057827 0 -0.00035570830783901783 -0.082298107961369021 0 -0.0003025423531925338 -0.082584297961102171 0 -0.00050769046123158232 -0.082173392000531503 0 -0.00056744998038598814 -0.081817640889929863 0 -0.00055687891884743652 -0.081339107590217063 0 -0.00068743459737979982 -0.081351615134685959 0 -0.00056744998038598814 -0.081817640889929863 0 -0.00068743459737979982 -0.081351615134685959 0 -0.00071696475161224114 -0.081947236905057827 0 -0.00043291252177753029 -0.082237860940173324 0 -0.00056744998038598814 -0.081817640889929863 0 -0.00044044646831295872 -0.082007979577315204 0 -0.00056744998038598814 -0.081817640889929863 0 -0.00055687891884743652 -0.081339107590217063 0 -0.00044044646831295872 -0.082007979577315204 0 -0.00055687891884743652 -0.081339107590217063 0 -0.0007800028005426141 -0.080269677654640048 0 -0.00066185624877679891 -0.081471588312228616 0 -0.00055687891884743652 -0.081339107590217063 0 -0.00071299735475520247 -0.080902094465951285 0 -0.0007800028005426141 -0.080269677654640048 0 -0.00071299735475520247 -0.080902094465951285 0 -0.00073389918234592394 -0.080813921038996969 0 -0.0007800028005426141 -0.080269677654640048 0 -0.00055687891884743652 -0.081339107590217063 0 -0.00071299735475520247 -0.080902094465951285 0 -0.00068743459737979982 -0.081351615134685959 0 -0.00073389918234592394 -0.080813921038996969 0 -0.00072208284237791057 -0.08134579849457528 0 -0.00068743459737979982 -0.081351615134685959 0 -0.00071299735475520247 -0.080902094465951285 0 -0.00073389918234592394 -0.080813921038996969 0 -0.00068743459737979982 -0.081351615134685959 0 -0.00073389918234592394 -0.080813921038996969 0 -0.0006449483435046929 -0.081214886305223929 0 -0.00061188583124534193 -0.080734452370200827 0 -0.00073389918234592394 -0.080813921038996969 0 -0.0006449483435046929 -0.081214886305223929 0 -0.00072208284237791057 -0.08134579849457528 0 -0.0006449483435046929 -0.081214886305223929 0 -0.00072208284237791057 -0.08134579849457528 0 -0.00070496547226289025 -0.08164830692050383 0 -0.00072208284237791057 -0.08134579849457528 0 -0.00078887428242430308 -0.081826025530598478 0 -0.00070496547226289025 -0.08164830692050383 0 -0.00072208284237791057 -0.08134579849457528 0 -0.00068743459737979982 -0.081351615134685959 0 -0.00078887428242430308 -0.081826025530598478 0 -0.00068743459737979982 -0.081351615134685959 0 -0.00071696475161224114 -0.081947236905057827 0 -0.00078887428242430308 -0.081826025530598478 0 -0.00078887428242430308 -0.081826025530598478 0 -0.00075821680717729335 -0.081943604982476381 0 -0.00090357105430818939 -0.082124487384713327 0 -0.00078887428242430308 -0.081826025530598478 0 -0.00075821680717729335 -0.081943604982476381 0 -0.00070496547226289025 -0.08164830692050383 0 -0.00075821680717729335 -0.081943604982476381 0 -0.00074171607541648915 -0.08232600106561544 0 -0.00059990608390491197 -0.081953987959697175 0 -0.00075821680717729335 -0.081943604982476381 0 -0.00059990608390491197 -0.081953987959697175 0 -0.00070496547226289025 -0.08164830692050383 0 -0.00075821680717729335 -0.081943604982476381 0 -0.00090357105430818939 -0.082124487384713327 0 -0.00074171607541648915 -0.08232600106561544 0 -0.00096758085516839465 -0.082359559545990418 0 -0.00074171607541648915 -0.08232600106561544 0 -0.00092783156854494848 -0.082651982389293804 0 -0.00096758085516839465 -0.082359559545990418 0 -0.00090357105430818939 -0.082124487384713327 0 -0.00074171607541648915 -0.08232600106561544 0 -0.00074171607541648915 -0.08232600106561544 0 -0.00041550537972836983 -0.082344485223817182 0 -0.00059990608390491197 -0.081953987959697175 0 -0.00074171607541648915 -0.08232600106561544 0 -0.00048199543713020154 -0.082617284042793213 0 -0.00041550537972836983 -0.082344485223817182 0 -0.00074171607541648915 -0.08232600106561544 0 -0.00048199543713020154 -0.082617284042793213 0 -0.0006195395720941687 -0.082742013932517774 0 -0.00041925458906475881 -0.083118041986717739 0 -0.00048199543713020154 -0.082617284042793213 0 -0.0006195395720941687 -0.082742013932517774 0 -0.00074171607541648915 -0.08232600106561544 0 -0.0006195395720941687 -0.082742013932517774 0 -0.00092783156854494848 -0.082651982389293804 0 -0.00069085523262731637 -0.083132151001064067 0 -0.0006195395720941687 -0.082742013932517774 0 -0.00092783156854494848 -0.082651982389293804 0 -0.00039938368622906024 -0.082393478652816252 0 -0.00016700012982592764 -0.081952308667568044 0 -0.00049347839737046107 -0.08208344513377655 0 -0.00097930918831838805 -0.081999716561826225 0 -0.00033552876988005156 -0.081613957365612347 0 -0.00070004186277840546 -0.082366823371348138 0 -0.00049347839737046107 -0.08208344513377655 0 -0.00097930918831838805 -0.081999716561826225 0 -0.00039732790454999269 -0.082396318135936564 0 -0.00039938368622906024 -0.082393478652816252 0 -0.00041925458906475881 -0.083118041986717739 0 -0.00048199543713020154 -0.082617284042793213 0 -0.00020641897147552639 -0.08272154358209427 0 -0.00048199543713020154 -0.082617284042793213 0 -0.00020641897147552639 -0.08272154358209427 0 -0.00041550537972836983 -0.082344485223817182 0 -0.00020641897147552639 -0.08272154358209427 0 -0.00011461395702684697 -0.082627043336951603 0 -0.00041550537972836983 -0.082344485223817182 0 -0.00011461395702684697 -0.082627043336951603 0 -0.00042567743365793694 -0.082048940522302813 0 -0.00041550537972836983 -0.082344485223817182 0 -0.00039938368622906024 -0.082393478652816252 0 -0.00039645899489411883 -0.082351680075708866 0 -0.00042567743365793694 -0.082048940522302813 0 -0.00041550537972836983 -0.082344485223817182 0 -0.00059990608390491197 -0.081953987959697175 0 -0.00042360886474739583 -0.08209014930948122 0 -0.00042567743365793694 -0.082048940522302813 0 -0.00033454499163140572 -0.081977450890095796 0 -0.00042567743365793694 -0.082048940522302813 0 -0.00034911157684516716 -0.08164605825180847 0 -0.00033454499163140572 -0.081977450890095796 0 -0.00042567743365793694 -0.082048940522302813 0 -0.00053666167321658547 -0.081611299567884169 0 -0.00034911157684516716 -0.08164605825180847 0 -0.00042567743365793694 -0.082048940522302813 0 -0.00053666167321658547 -0.081611299567884169 0 -0.00059990608390491197 -0.081953987959697175 0 -0.00053666167321658547 -0.081611299567884169 0 -0.00059990608390491197 -0.081953987959697175 0 -0.00070496547226289025 -0.08164830692050383 0 -0.0006449483435046929 -0.081214886305223929 0 -0.00053666167321658547 -0.081611299567884169 0 -0.00070496547226289025 -0.08164830692050383 0 -0.0006449483435046929 -0.081214886305223929 0 -0.00053666167321658547 -0.081611299567884169 0 -0.00044144432604858227 -0.081227331131703856 0 -0.00044144432604858227 -0.081227331131703856 0 -3.605398106595281e-05 -0.081284686667713699 0 -0.00034911157684516716 -0.08164605825180847 0 -0.00044144432604858227 -0.081227331131703856 0 -3.605398106595281e-05 -0.081284686667713699 0 -7.9828461902157075e-05 -0.08077673088576165 0 -3.605398106595281e-05 -0.081284686667713699 0 0.00050271647970944117 -0.08104166355683437 0 -7.9828461902157075e-05 -0.08077673088576165 0 -3.605398106595281e-05 -0.081284686667713699 0 0.0001091895636784931 -0.081692873047972611 0 -0.00034911157684516716 -0.08164605825180847 0 -3.605398106595281e-05 -0.081284686667713699 0 0.0001091895636784931 -0.081692873047972611 0 0.00050271647970944117 -0.08104166355683437 0 -0.00053666167321658547 -0.081611299567884169 0 -0.00044144432604858227 -0.081227331131703856 0 -0.00034911157684516716 -0.08164605825180847 0 0.0001091895636784931 -0.081692873047972611 0 -0.00034911157684516716 -0.08164605825180847 0 -0.00033454499163140572 -0.081977450890095796 0 0.00022709268989508737 -0.081561552705350857 0 -0.00016700012982592764 -0.081952308667568044 0 0.0003067599193585681 -0.081188665227772128 0 -0.00033552876988005156 -0.081613957365612347 0 0.0001101239688350545 -0.081975894357767934 0 0.0003067599193585681 -0.081188665227772128 0 0.0001101239688350545 -0.081975894357767934 0 0.00087640920607500871 -0.081528741950593536 0 -0.00039091833935806381 -0.08253622086542764 0 -0.00049347839737046107 -0.08208344513377655 0 0.0001101239688350545 -0.081975894357767934 0 -0.00049347839737046107 -0.08208344513377655 0 -0.00033552876988005156 -0.081613957365612347 0 0.0001101239688350545 -0.081975894357767934 0 0.0013973817148729875 -0.081982172461155481 0 0.00079196003844453236 -0.082224842502161125 0 0.00087640920607500871 -0.081528741950593536 0 0.0001101239688350545 -0.081975894357767934 0 0.00079196003844453236 -0.082224842502161125 0 0.00087640920607500871 -0.081528741950593536 0 0.0016968242232360301 -0.081441076220679462 0 0.0013973817148729875 -0.081982172461155481 0 0.00087640920607500871 -0.081528741950593536 0 0.0016968242232360301 -0.081441076220679462 0 0.00087640920607500871 -0.081528741950593536 0 0.00091888119264206894 -0.080685244076079701 0 0.0014022533467917973 -0.07948914463861563 0 0.001617963933341886 -0.079392001991303709 0 0.0011820811812166352 -0.080094289654746326 0 0.0015796786705571284 -0.080713875645343353 0 0.0013506931336863199 -0.080282825875533328 0 0.0016968242232360301 -0.081441076220679462 0 0.00091888119264206894 -0.080685244076079701 0 0.0011820811812166352 -0.080094289654746326 0 0.00022709268989508737 -0.081561552705350857 0 0.00051516897064706716 -0.081326955714377355 0 0.0003067599193585681 -0.081188665227772128 0 0.00087640920607500871 -0.081528741950593536 0 0.00091888119264206894 -0.080685244076079701 0 0.0001091895636784931 -0.081692873047972611 0 0.00091888119264206894 -0.080685244076079701 0 0.00050271647970944117 -0.08104166355683437 0 0.00050271647970944117 -0.08104166355683437 0 0.00080274452481557857 -0.081012698066374456 0 -7.9828461902157075e-05 -0.08077673088576165 0 0.00091888119264206894 -0.080685244076079701 0 0.00050271647970944117 -0.08104166355683437 0 0.0011820811812166352 -0.080094289654746326 0 0.00050271647970944117 -0.08104166355683437 0 0.0021523047902952792 -0.082128544963800759 0 0.00080274452481557857 -0.081012698066374456 0 0.00050271647970944117 -0.08104166355683437 0 0.0011820811812166352 -0.080094289654746326 0 0.0014607428167207361 -0.079373626121261365 0 0.001617963933341886 -0.079392001991303709 0 0.0011820811812166352 -0.080094289654746326 0 0.0014607428167207361 -0.079373626121261365 0 0.001863477632237514 -0.079148693075522331 0 0.0023792287895858886 -0.078677137350181447 0 0.0030280148180094209 -0.080018912073464718 0 0.0021287467203284943 -0.081011856788465911 0 0.00038503081437545121 -0.080038074259381614 0 0.0021287467203284943 -0.081011856788465911 0 0.00038503081437545121 -0.080038074259381614 0 0.00080274452481557857 -0.081012698066374456 0 0.0021523047902952792 -0.082128544963800759 0 0.0021287467203284943 -0.081011856788465911 0 0.00080274452481557857 -0.081012698066374456 0 0.0030280148180094209 -0.080018912073464718 0 0.00038503081437545121 -0.080038074259381614 0 0.0015343603547659597 -0.078545173837235832 0 0.00038503081437545121 -0.080038074259381614 0 0.00080274452481557857 -0.081012698066374456 0 -7.9828461902157075e-05 -0.08077673088576165 0 0.00038503081437545121 -0.080038074259381614 0 -7.9828461902157075e-05 -0.08077673088576165 0 -0.0008619707050056669 -0.079995932225100805 0 -7.9828461902157075e-05 -0.08077673088576165 0 -0.00061188583124534193 -0.080734452370200827 0 -0.0008619707050056669 -0.079995932225100805 0 -0.00044144432604858227 -0.081227331131703856 0 -7.9828461902157075e-05 -0.08077673088576165 0 -0.00061188583124534193 -0.080734452370200827 0 -0.0006449483435046929 -0.081214886305223929 0 -0.00044144432604858227 -0.081227331131703856 0 -0.00061188583124534193 -0.080734452370200827 0 -0.00073389918234592394 -0.080813921038996969 0 -0.0008619707050056669 -0.079995932225100805 0 -0.0007800028005426141 -0.080269677654640048 0 -0.00073389918234592394 -0.080813921038996969 0 -0.00061188583124534193 -0.080734452370200827 0 -0.0008619707050056669 -0.079995932225100805 0 0.00038503081437545121 -0.080038074259381614 0 -0.0008619707050056669 -0.079995932225100805 0 -0.0013234731814825865 -0.078019421759237831 0 -0.0008619707050056669 -0.079995932225100805 0 -0.0007800028005426141 -0.080269677654640048 0 -0.0013234731814825865 -0.078019421759237831 0 -0.0007800028005426141 -0.080269677654640048 0 -0.0013234731814825865 -0.078019421759237831 0 -0.0013296846281365814 -0.080749339430455327 0 -0.0022050791847051244 -0.077151359724735871 0 -0.0029256135767938389 -0.075950568145782396 0 0.0021248319809894708 -0.07609384661127816 0 -0.0013234731814825865 -0.078019421759237831 0 -0.00015074951308266686 -0.071301918692337304 0 0.0034318681323296891 -0.072180121078553192 0 0.0021248319809894708 -0.07609384661127816 0 -0.00015074951308266686 -0.071301918692337304 0 0.0038312886940921435 -0.078261281978709463 0 0.0021248319809894708 -0.07609384661127816 0 0.0015343603547659597 -0.078545173837235832 0 0.0021248319809894708 -0.07609384661127816 0 0.0015343603547659597 -0.078545173837235832 0 -0.0013234731814825865 -0.078019421759237831 0 0.00038503081437545121 -0.080038074259381614 0 0.0015343603547659597 -0.078545173837235832 0 -0.0013234731814825865 -0.078019421759237831 0 -0.00015074951308266686 -0.071301918692337304 0 -0.0040022607337583871 -0.066663322806952849 0 9.7604492174686649e-05 -0.065864452155577832 0 0.0028367527095848853 -0.068168339132800307 0 -0.00015074951308266686 -0.071301918692337304 0 9.7604492174686649e-05 -0.065864452155577832 0 0.0028367527095848853 -0.068168339132800307 0 0.0034318681323296891 -0.072180121078553192 0 -0.00015074951308266686 -0.071301918692337304 0 -0.0013234731814825865 -0.078019421759237831 0 -0.00015074951308266686 -0.071301918692337304 0 -0.0053845661633956533 -0.071206850558758139 0 -0.0007800028005426141 -0.080269677654640048 0 -0.0013296846281365814 -0.080749339430455327 0 -0.00066185624877679891 -0.081471588312228616 0 -0.0013296846281365814 -0.080749339430455327 0 -0.0010234628029741264 -0.081900133083016344 0 -0.00066185624877679891 -0.081471588312228616 0 -0.0029256135767938389 -0.075950568145782396 0 -0.0037857987176269925 -0.074133775341509819 0 -0.0053845661633956533 -0.071206850558758139 0 -0.0040022607337583871 -0.066663322806952849 0 -0.0076491773907789076 -0.065682042316404773 0 -0.00015074951308266686 -0.071301918692337304 0 -0.0053845661633956533 -0.071206850558758139 0 -0.0040022607337583871 -0.066663322806952849 0 -0.0040022607337583871 -0.066663322806952849 0 -0.0042877411284764355 -0.064171520207986235 0 -0.0076491773907789076 -0.065682042316404773 0 -0.0040022607337583871 -0.066663322806952849 0 -0.0042877411284764355 -0.064171520207986235 0 -0.0019971827944728865 -0.063416715873127888 0 -0.0042877411284764355 -0.064171520207986235 0 -0.0076491773907789076 -0.065682042316404773 0 -0.0061062988483768562 -0.063249650578290531 0 -0.0076491773907789076 -0.065682042316404773 0 -0.0061062988483768562 -0.063249650578290531 0 -0.0082631884680905727 -0.062039030947975762 0 -0.0061062988483768562 -0.063249650578290531 0 -0.0064773932362435539 -0.061723272653582448 0 -0.0046132659118266334 -0.06081931676847533 0 -0.0061062988483768562 -0.063249650578290531 0 -0.0064773932362435539 -0.061723272653582448 0 -0.0082631884680905727 -0.062039030947975762 0 -0.0042877411284764355 -0.064171520207986235 0 -0.0038347279847814881 -0.062474611395597172 0 -0.0019971827944728865 -0.063416715873127888 0 -0.0042877411284764355 -0.064171520207986235 0 -0.0061062988483768562 -0.063249650578290531 0 -0.0038347279847814881 -0.062474611395597172 0 -0.0061062988483768562 -0.063249650578290531 0 -0.0038347279847814881 -0.062474611395597172 0 -0.0046132659118266334 -0.06081931676847533 0 -0.0038347279847814881 -0.062474611395597172 0 -0.002115064235760009 -0.060762938916868507 0 -0.0046132659118266334 -0.06081931676847533 0 -0.00081736012526163488 -0.06183257887393788 0 -0.0019971827944728865 -0.063416715873127888 0 -0.002115064235760009 -0.060762938916868507 0 -0.0038347279847814881 -0.062474611395597172 0 -0.0019971827944728865 -0.063416715873127888 0 -0.002115064235760009 -0.060762938916868507 0 -0.00081736012526163488 -0.06183257887393788 0 -0.0019971827944728865 -0.063416715873127888 0 0.00077924016138074302 -0.062649479310935285 0 -0.0019971827944728865 -0.063416715873127888 0 9.7604492174686649e-05 -0.065864452155577832 0 0.00077924016138074302 -0.062649479310935285 0 -0.0040022607337583871 -0.066663322806952849 0 -0.0019971827944728865 -0.063416715873127888 0 9.7604492174686649e-05 -0.065864452155577832 0 0.003123709606050492 -0.063965407471441055 0 9.7604492174686649e-05 -0.065864452155577832 0 0.00077924016138074302 -0.062649479310935285 0 0.0028367527095848853 -0.068168339132800307 0 0.003123709606050492 -0.063965407471441055 0 9.7604492174686649e-05 -0.065864452155577832 0 0.0034157944282323933 -0.060670382091697811 0 0.003123709606050492 -0.063965407471441055 0 0.00077924016138074302 -0.062649479310935285 0 0.0034157944282323933 -0.060670382091697811 0 0.00077924016138074302 -0.062649479310935285 0 -7.979308378262999e-05 -0.060090243811388507 0 -0.00081736012526163488 -0.06183257887393788 0 0.00077924016138074302 -0.062649479310935285 0 -7.979308378262999e-05 -0.060090243811388507 0 0.0034157944282323933 -0.060670382091697811 0 -7.979308378262999e-05 -0.060090243811388507 0 0.0012292795998857539 -0.058408374682403952 0 0.0004800645245247962 -0.060139239082308449 0 -0.00032820667141239968 -0.059557191281984688 0 -7.979308378262999e-05 -0.060090243811388507 0 0.00089131813327946309 -0.058891907653529217 0 -0.0010558509117872547 -0.058939274785007191 0 -0.00026749266681054025 -0.059521745027431343 0 -0.00032820667141239968 -0.059557191281984688 0 -7.979308378262999e-05 -0.060090243811388507 0 -0.002115064235760009 -0.060762938916868507 0 -0.0010558509117872547 -0.058939274785007191 0 -0.00081736012526163488 -0.06183257887393788 0 -7.979308378262999e-05 -0.060090243811388507 0 -0.002115064235760009 -0.060762938916868507 0 -0.002115064235760009 -0.060762938916868507 0 -0.0010558509117872547 -0.058939274785007191 0 -0.0029411303656270097 -0.058625558197109295 0 -0.0010558509117872547 -0.058939274785007191 0 -0.0011945088351715256 -0.056348526538343303 0 -0.0029411303656270097 -0.058625558197109295 0 -0.0011945088351715256 -0.056348526538343303 0 -0.0029411303656270097 -0.058625558197109295 0 -0.0042865549249514754 -0.056559638189219441 0 -0.0021256428010735895 -0.060564843007903713 0 -0.0023047291868677064 -0.060784350007657958 0 -0.0025155316968092424 -0.060534390337497176 0 -0.00032820667141239968 -0.059557191281984688 0 -0.0024514364206175074 -0.059365742056576888 0 0.00089131813327946309 -0.058891907653529217 0 -0.0010558509117872547 -0.058939274785007191 0 -0.0011945088351715256 -0.056348526538343303 0 0.0012642881650723073 -0.058673622688237934 0 -0.00032820667141239968 -0.059557191281984688 0 -0.0021256428010735895 -0.060564843007903713 0 -0.0025155316968092424 -0.060534390337497176 0 -0.0022967387918615373 -0.060252564024307842 0 -0.0025155316968092424 -0.060534390337497176 0 -0.0022967387918615373 -0.060252564024307842 0 -0.0027309879913074765 -0.060285019430678176 0 -0.0011945088351715256 -0.056348526538343303 0 -0.0033920199066836327 -0.053667881557864339 0 -0.0042865549249514754 -0.056559638189219441 0 -0.0024514364206175074 -0.059365742056576888 0 -0.0044613918559213116 -0.059967561735245666 0 -0.0022967387918615373 -0.060252564024307842 0 -0.0027309879913074765 -0.060285019430678176 0 -0.002497212061961978 -0.060030476916098946 0 -0.0027309879913074765 -0.060285019430678176 0 -0.0027256532545181203 -0.059905910261860158 0 -0.002497212061961978 -0.060030476916098946 0 -0.0022967387918615373 -0.060252564024307842 0 -0.002497212061961978 -0.060030476916098946 0 -0.0021738599235205892 -0.059851995360758324 0 -0.0066489313486340889 -0.062039738323024528 0 -0.0056141910856160769 -0.063491909842879876 0 -0.0086423241857858206 -0.070055295512768387 0 -0.0098466257078616091 -0.068202518446011051 0 -0.0079811948422456921 -0.069229858661282936 0 -0.0086423241857858206 -0.070055295512768387 0 -0.0098466257078616091 -0.068202518446011051 0 -0.0097423333983987382 -0.070247162166702834 0 -0.0033920199066836327 -0.053667881557864339 0 -0.0064807988598121063 -0.054427121946220076 0 -0.0055610272479171162 -0.051005392378586159 0 -0.0044613918559213116 -0.059967561735245666 0 -0.0056141910856160769 -0.063491909842879876 0 -0.0027309879913074765 -0.060285019430678176 0 -0.0027256532545181203 -0.059905910261860158 0 -0.0029446149528275446 -0.060036459569310474 0 -0.0033920199066836327 -0.053667881557864339 0 -0.0064807988598121063 -0.054427121946220076 0 -0.0042865549249514754 -0.056559638189219441 0 -0.0066489313486340889 -0.062039738323024528 0 -0.0073096157539498125 -0.061903685697454566 0 -0.0098466257078616091 -0.068202518446011051 0 -0.0096287128964930475 -0.065097082998406483 0 -0.0081053109216386292 -0.06681424924814508 0 -0.0074837729551174657 -0.05796427490747335 0 -0.0042865549249514754 -0.056559638189219441 0 -0.0051242179226327544 -0.058861529222060199 0 -0.0064807988598121063 -0.054427121946220076 0 -0.0074837729551174657 -0.05796427490747335 0 -0.0042865549249514754 -0.056559638189219441 0 -0.0029411303656270097 -0.058625558197109295 0 -0.0042865549249514754 -0.056559638189219441 0 -0.0051242179226327544 -0.058861529222060199 0 -0.0029411303656270097 -0.058625558197109295 0 -0.0051242179226327544 -0.058861529222060199 0 -0.0046132659118266334 -0.06081931676847533 0 -0.0051242179226327544 -0.058861529222060199 0 -0.0046132659118266334 -0.06081931676847533 0 -0.0064055135840133488 -0.060309304490319363 0 -0.002115064235760009 -0.060762938916868507 0 -0.0029411303656270097 -0.058625558197109295 0 -0.0046132659118266334 -0.06081931676847533 0 -0.0073096157539498125 -0.061903685697454566 0 -0.0075224887967078428 -0.062013608629583598 0 -0.0074837729551174657 -0.05796427490747335 0 -0.0064055135840133488 -0.060309304490319363 0 -0.0082631884680905727 -0.062039030947975762 0 -0.0074837729551174657 -0.05796427490747335 0 -0.0051242179226327544 -0.058861529222060199 0 -0.0064055135840133488 -0.060309304490319363 0 -0.0064773932362435539 -0.061723272653582448 0 -0.0046132659118266334 -0.06081931676847533 0 -0.0064055135840133488 -0.060309304490319363 0 -0.0064773932362435539 -0.061723272653582448 0 -0.0064055135840133488 -0.060309304490319363 0 -0.0082631884680905727 -0.062039030947975762 0 -0.0081777356764299539 -0.064020355084265249 0 -0.0082631884680905727 -0.062039030947975762 0 -0.0083686712162146914 -0.062073497630216017 0 -0.0096287128964930475 -0.065097082998406483 0 -0.0081777356764299539 -0.064020355084265249 0 -0.0082631884680905727 -0.062039030947975762 0 -0.0081777356764299539 -0.064020355084265249 0 -0.0058298503695758093 -0.065582824820001134 0 -0.0083686712162146914 -0.062073497630216017 0 -0.0031720571010503454 -0.073835877296519178 0 -0.0039497205213707238 -0.073155899527858781 0 -0.00025991414313344447 -0.082392084257140008 0 6.8602804546154123e-05 -0.082263623879102493 0 -0.00052312231441341186 -0.082398425184414079 0 -0.0096287128964930475 -0.065097082998406483 0 -0.0081777356764299539 -0.064020355084265249 0 -0.0081053109216386292 -0.06681424924814508 0 -0.0081777356764299539 -0.064020355084265249 0 -0.0058298503695758093 -0.065582824820001134 0 -0.0081053109216386292 -0.06681424924814508 0 -0.0081053109216386292 -0.06681424924814508 0 -0.0068371114328975961 -0.068176767327275387 0 -0.0079811948422456921 -0.069229858661282936 0 -0.0098466257078616091 -0.068202518446011051 0 -0.0081053109216386292 -0.06681424924814508 0 -0.0079811948422456921 -0.069229858661282936 0 -0.0058298503695758093 -0.065582824820001134 0 -0.0081053109216386292 -0.06681424924814508 0 -0.0068371114328975961 -0.068176767327275387 0 -0.0058298503695758093 -0.065582824820001134 0 -0.0057304626427345084 -0.068456890190476113 0 -0.0068371114328975961 -0.068176767327275387 0 -0.0058298503695758093 -0.065582824820001134 0 -0.0057304626427345084 -0.068456890190476113 0 -0.0036253382520191196 -0.06978663191740965 0 -0.0057304626427345084 -0.068456890190476113 0 -0.0068371114328975961 -0.068176767327275387 0 -0.0066049873982024811 -0.070185479241183291 0 -0.0057304626427345084 -0.068456890190476113 0 -0.0066049873982024811 -0.070185479241183291 0 -0.0036253382520191196 -0.06978663191740965 0 -0.0086423241857858206 -0.070055295512768387 0 -0.0079811948422456921 -0.069229858661282936 0 -0.0076363198047691757 -0.070588289395629694 0 -0.0066049873982024811 -0.070185479241183291 0 -0.0079811948422456921 -0.069229858661282936 0 -0.0076363198047691757 -0.070588289395629694 0 -0.0068371114328975961 -0.068176767327275387 0 -0.0066049873982024811 -0.070185479241183291 0 -0.0079811948422456921 -0.069229858661282936 0 -0.0011551320558200989 -0.080849366533509007 0 -0.0018433235903705903 -0.080733576548756888 0 -0.0012369485155732727 -0.079282799080572883 0 -0.0002849166378678722 -0.080963440572748416 0 -0.0038438708072428742 -0.079315197084484909 0 -0.0022841529615836636 -0.077976404764070875 0 -0.0012369485155732727 -0.079282799080572883 0 -0.0038438708072428742 -0.079315197084484909 0 -0.0022841529615836636 -0.077976404764070875 0 -0.0038438708072428742 -0.079315197084484909 0 -0.0037703024860337108 -0.077106939105486508 0 -0.0012369485155732727 -0.079282799080572883 0 0.00026391227790535036 -0.080541474947819144 0 -0.0026580237167813229 -0.075075130118001973 0 -0.0066049873982024811 -0.070185479241183291 0 -0.0036253382520191196 -0.06978663191740965 0 -0.0029470664039457487 -0.074656742341280211 0 -0.0012369485155732727 -0.079282799080572883 0 0.00026391227790535036 -0.080541474947819144 0 -0.0002849166378678722 -0.080963440572748416 0 6.8602804546154123e-05 -0.082263623879102493 0 0.00026391227790535036 -0.080541474947819144 0 -0.00027629957467651311 -0.081944153717202581 0 0.00026391227790535036 -0.080541474947819144 0 -0.0002849166378678722 -0.080963440572748416 0 -0.00027629957467651311 -0.081944153717202581 0 -0.0031720571010503454 -0.073835877296519178 0 -0.0025086078218576869 -0.074634789324725795 0 -0.0002849166378678722 -0.080963440572748416 0 -0.00054464997224558474 -0.081787166435625253 0 -0.00063160280196528182 -0.081599394017814852 0 -0.0002849166378678722 -0.080963440572748416 0 -0.00054464997224558474 -0.081787166435625253 0 -0.00027629957467651311 -0.081944153717202581 0 -0.00054464997224558474 -0.081787166435625253 0 -0.00048920076848334236 -0.082290075388989026 0 -0.00065882895112973484 -0.082170457890520424 0 -0.00054464997224558474 -0.081787166435625253 0 -0.00048920076848334236 -0.082290075388989026 0 -0.00027629957467651311 -0.081944153717202581 0 -0.00048920076848334236 -0.082290075388989026 0 -0.00027629957467651311 -0.081944153717202581 0 -0.00029475241755637816 -0.082361333568025261 0 6.8602804546154123e-05 -0.082263623879102493 0 -0.00027629957467651311 -0.081944153717202581 0 -0.00029475241755637816 -0.082361333568025261 0 -0.00025991414313344447 -0.082392084257140008 0 -0.00029475241755637816 -0.082361333568025261 0 -0.00036079481742089053 -0.082442389561708213 0 -0.00025991414313344447 -0.082392084257140008 0 6.8602804546154123e-05 -0.082263623879102493 0 -0.00029475241755637816 -0.082361333568025261 0 -0.00048920076848334236 -0.082290075388989026 0 -0.00029475241755637816 -0.082361333568025261 0 -0.00045434370616361652 -0.082519857124528598 0 -0.00048920076848334236 -0.082290075388989026 0 -0.00045434370616361652 -0.082519857124528598 0 -0.00062391807527743739 -0.082581724274803106 0 -0.00029475241755637816 -0.082361333568025261 0 -0.00045434370616361652 -0.082519857124528598 0 -0.00036079481742089053 -0.082442389561708213 0 -0.00045434370616361652 -0.082519857124528598 0 -0.0004014186228697193 -0.082485421898180519 0 -0.00036079481742089053 -0.082442389561708213 0 -0.0004014186228697193 -0.082485421898180519 0 -0.00038844035925783912 -0.082293923797391949 0 -0.00036079481742089053 -0.082442389561708213 0 -0.0004014186228697193 -0.082485421898180519 0 -0.00038844035925783912 -0.082293923797391949 0 -0.00041225737719582782 -0.08213539944812033 0 -0.0004014186228697193 -0.082485421898180519 0 -0.00041225737719582782 -0.08213539944812033 0 -0.00038139138819726608 -0.082399064980518466 0 -0.00038844035925783912 -0.082293923797391949 0 -0.00046272701225850006 -0.082033250468116534 0 -0.00041225737719582782 -0.08213539944812033 0 -0.00038844035925783912 -0.082293923797391949 0 -0.00036079481742089053 -0.082442389561708213 0 -0.00037608762041840561 -0.082319309380748953 0 -0.00025991414313344447 -0.082392084257140008 0 -0.00036079481742089053 -0.082442389561708213 0 -0.00037608762041840561 -0.082319309380748953 0 -0.00037608762041840561 -0.082319309380748953 0 -0.00052312231441341186 -0.082398425184414079 0 -0.00058810575744307984 -0.082096152733598021 0 -0.00025991414313344447 -0.082392084257140008 0 -0.00037608762041840561 -0.082319309380748953 0 -0.00052312231441341186 -0.082398425184414079 0 -0.0037857987176269925 -0.074133775341509819 0 -0.0039497205213707238 -0.073155899527858781 0 -0.0076491773907789076 -0.065682042316404773 0 -0.0082631884680905727 -0.062039030947975762 0 -0.0083686712162146914 -0.062073497630216017 0 -0.0010234628029741264 -0.081900133083016344 0 -0.00052312231441341186 -0.082398425184414079 0 -0.00058810575744307984 -0.082096152733598021 0 -0.00037608762041840561 -0.082319309380748953 0 -0.00058810575744307984 -0.082096152733598021 0 -0.00046272701225850006 -0.082033250468116534 0 -0.00038844035925783912 -0.082293923797391949 0 -0.00037608762041840561 -0.082319309380748953 0 -0.00046272701225850006 -0.082033250468116534 0 -0.00058810575744307984 -0.082096152733598021 0 -0.00046272701225850006 -0.082033250468116534 0 -0.00066185624877679891 -0.081471588312228616 0 -0.00046272701225850006 -0.082033250468116534 0 -0.00066185624877679891 -0.081471588312228616 0 -0.00049119394514829514 -0.081775808215550985 0 -0.0010234628029741264 -0.081900133083016344 0 -0.00058810575744307984 -0.082096152733598021 0 -0.00066185624877679891 -0.081471588312228616 0 -0.00055687891884743652 -0.081339107590217063 0 -0.00066185624877679891 -0.081471588312228616 0 -0.00049119394514829514 -0.081775808215550985 0 -0.00055687891884743652 -0.081339107590217063 0 -0.00049119394514829514 -0.081775808215550985 0 -0.00044044646831295872 -0.082007979577315204 0 -0.00044044646831295872 -0.082007979577315204 0 -0.00041225737719582782 -0.08213539944812033 0 -0.00038139138819726608 -0.082399064980518466 0 -0.00049119394514829514 -0.081775808215550985 0 -0.00044044646831295872 -0.082007979577315204 0 -0.00041225737719582782 -0.08213539944812033 0 -0.00046272701225850006 -0.082033250468116534 0 -0.00049119394514829514 -0.081775808215550985 0 -0.00041225737719582782 -0.08213539944812033 0 -0.0003215106867184318 -0.0826896344083346 0 -0.00035283213669756952 -0.082460165789822987 0 -0.00025689171628194156 -0.08275961056858834 0 -0.0003215106867184318 -0.0826896344083346 0 -0.00038139138819726608 -0.082399064980518466 0 -0.00035283213669756952 -0.082460165789822987 0 -0.00044044646831295872 -0.082007979577315204 0 -0.00038139138819726608 -0.082399064980518466 0 -0.00035283213669756952 -0.082460165789822987 0 -0.00043291252177753029 -0.082237860940173324 0 -0.00044044646831295872 -0.082007979577315204 0 -0.00035283213669756952 -0.082460165789822987 0 -0.0003025423531925338 -0.082584297961102171 0 -0.00035283213669756952 -0.082460165789822987 0 -0.00025689171628194156 -0.08275961056858834 0 -0.00013893423612613008 -0.083104870575548731 0 -0.00025689171628194156 -0.08275961056858834 0 -0.00016234494659658888 -0.083029787175118303 0 -0.00013893423612613008 -0.083104870575548731 0 -0.0003025423531925338 -0.082584297961102171 0 -0.00025689171628194156 -0.08275961056858834 0 -0.00013893423612613008 -0.083104870575548731 0 -0.00016234494659658888 -0.083029787175118303 0 -0.00010443848582943036 -0.083284602464435906 0 -0.00016234494659658888 -0.083029787175118303 0 -0.00018446289207480881 -0.083007395349611116 0 -8.5327360017516224e-05 -0.083210669035925167 0 -0.00016234494659658888 -0.083029787175118303 0 -0.00024680726453085792 -0.08286732060349665 0 -0.00018446289207480881 -0.083007395349611116 0 -0.00016234494659658888 -0.083029787175118303 0 -8.5327360017516224e-05 -0.083210669035925167 0 -0.00010443848582943036 -0.083284602464435906 0 -0.00025689171628194156 -0.08275961056858834 0 -0.00016234494659658888 -0.083029787175118303 0 -0.00024680726453085792 -0.08286732060349665 0 -0.0003215106867184318 -0.0826896344083346 0 -0.00025689171628194156 -0.08275961056858834 0 -0.00024680726453085792 -0.08286732060349665 0 -0.00024680726453085792 -0.08286732060349665 0 -0.00033752692510674982 -0.082844619481870052 0 -0.00018446289207480881 -0.083007395349611116 0 -0.0003215106867184318 -0.0826896344083346 0 -0.00024680726453085792 -0.08286732060349665 0 -0.00033752692510674982 -0.082844619481870052 0 -0.00018446289207480881 -0.083007395349611116 0 -0.00014432509739371028 -0.083134923242898992 0 -9.8280825378768886e-05 -0.083126649980114806 0 -0.00018446289207480881 -0.083007395349611116 0 -0.00030894856308721403 -0.082990525140078403 0 -0.00014432509739371028 -0.083134923242898992 0 -0.00033752692510674982 -0.082844619481870052 0 -0.00018446289207480881 -0.083007395349611116 0 -0.00030894856308721403 -0.082990525140078403 0 -0.00033752692510674982 -0.082844619481870052 0 -0.00030894856308721403 -0.082990525140078403 0 -0.00047523242113317994 -0.082788524562127999 0 -0.00033752692510674982 -0.082844619481870052 0 -0.00047523242113317994 -0.082788524562127999 0 -0.00040917225879002675 -0.082659432054866977 0 -0.00047523242113317994 -0.082788524562127999 0 -0.00040917225879002675 -0.082659432054866977 0 -0.00050627052822307885 -0.082659424935053072 0 -0.0003215106867184318 -0.0826896344083346 0 -0.00033752692510674982 -0.082844619481870052 0 -0.00040917225879002675 -0.082659432054866977 0 -0.0003215106867184318 -0.0826896344083346 0 -0.00038139138819726608 -0.082399064980518466 0 -0.00040917225879002675 -0.082659432054866977 0 -0.0004014186228697193 -0.082485421898180519 0 -0.00038139138819726608 -0.082399064980518466 0 -0.00040917225879002675 -0.082659432054866977 0 -0.0004014186228697193 -0.082485421898180519 0 -0.00040917225879002675 -0.082659432054866977 0 -0.00050627052822307885 -0.082659424935053072 0 -0.00045434370616361652 -0.082519857124528598 0 -0.0004014186228697193 -0.082485421898180519 0 -0.00050627052822307885 -0.082659424935053072 0 -0.00050627052822307885 -0.082659424935053072 0 -0.00062391807527743739 -0.082581724274803106 0 -0.00062190806898483034 -0.08275020118825524 0 -0.00045434370616361652 -0.082519857124528598 0 -0.00050627052822307885 -0.082659424935053072 0 -0.00062391807527743739 -0.082581724274803106 0 -0.00062190806898483034 -0.08275020118825524 0 -0.00087575551293419781 -0.082744125403474825 0 -0.00049200588855887568 -0.082945883807027762 0 -0.00047523242113317994 -0.082788524562127999 0 -0.00062190806898483034 -0.08275020118825524 0 -0.00049200588855887568 -0.082945883807027762 0 -0.00047523242113317994 -0.082788524562127999 0 -0.00050627052822307885 -0.082659424935053072 0 -0.00062190806898483034 -0.08275020118825524 0 -0.00062391807527743739 -0.082581724274803106 0 -0.00062190806898483034 -0.08275020118825524 0 -0.00087575551293419781 -0.082744125403474825 0 -0.00048920076848334236 -0.082290075388989026 0 -0.00062391807527743739 -0.082581724274803106 0 -0.00065882895112973484 -0.082170457890520424 0 -0.00062391807527743739 -0.082581724274803106 0 -0.00087575551293419781 -0.082744125403474825 0 -0.00065882895112973484 -0.082170457890520424 0 -0.00054464997224558474 -0.081787166435625253 0 -0.00065882895112973484 -0.082170457890520424 0 -0.00063160280196528182 -0.081599394017814852 0 -0.00065882895112973484 -0.082170457890520424 0 -0.00090906027291315632 -0.081995739092138378 0 -0.00063160280196528182 -0.081599394017814852 0 -0.00087575551293419781 -0.082744125403474825 0 -0.00065882895112973484 -0.082170457890520424 0 -0.00090906027291315632 -0.081995739092138378 0 -0.00087575551293419781 -0.082744125403474825 0 -0.00090906027291315632 -0.081995739092138378 0 -0.0014830198500519753 -0.081972868772594507 0 -0.00054454487415505259 -0.082383943264476511 0 -0.00056887063730942579 -0.082181624931972799 0 -0.00090906027291315632 -0.081995739092138378 0 -0.0011116864880744825 -0.081544883739608678 0 -0.0014830198500519753 -0.081972868772594507 0 -0.0024791360001219526 -0.080718430442003081 0 -0.0018433235903705903 -0.080733576548756888 0 -0.00090906027291315632 -0.081995739092138378 0 -0.0011116864880744825 -0.081544883739608678 0 -0.00063160280196528182 -0.081599394017814852 0 -0.0060163715197383725 -0.078385118374858412 0 -0.0038438708072428742 -0.079315197084484909 0 -0.0050401419178383059 -0.077197294845730416 0 -0.0038438708072428742 -0.079315197084484909 0 -0.0037703024860337108 -0.077106939105486508 0 -0.0050401419178383059 -0.077197294845730416 0 -0.00070163964959625189 -0.081363585853088574 0 -0.00071836140656501423 -0.08217460521860466 0 0.00073111075945545359 -0.083889930684599753 0 0.00092402469502655645 -0.083950968531913001 0 0.00020643655533255303 -0.084008159993723644 0 -0.00032397421701322666 -0.084251757863259447 0 -0.00024351793383572807 -0.083780100964286869 0 0.00020643655533255303 -0.084008159993723644 0 -0.00038840173791483446 -0.081548275871613687 0 -0.00070163964959625189 -0.081363585853088574 0 -0.0024791360001219526 -0.080718430442003081 0 -0.00070163964959625189 -0.081363585853088574 0 -0.00032397421701322666 -0.084251757863259447 0 -0.00063063933172367479 -0.083750878238430512 0 -0.00024351793383572807 -0.083780100964286869 0 -0.00070163964959625189 -0.081363585853088574 0 -0.00056887063730942579 -0.082181624931972799 0 -0.0011116864880744825 -0.081544883739608678 0 -0.001885679622094379 -0.081412349358420219 0 -0.0014830198500519753 -0.081972868772594507 0 -0.00087575551293419781 -0.082744125403474825 0 -0.00063063933172367479 -0.083750878238430512 0 -0.00038468089942398867 -0.083279662204302815 0 -0.00063063933172367479 -0.083750878238430512 0 -0.00024351793383572807 -0.083780100964286869 0 -0.00038468089942398867 -0.083279662204302815 0 -0.00024351793383572807 -0.083780100964286869 0 -0.0001063704581756372 -0.083587261812562985 0 0.00020643655533255303 -0.084008159993723644 0 -0.00024351793383572807 -0.083780100964286869 0 -0.0001063704581756372 -0.083587261812562985 0 -0.00038468089942398867 -0.083279662204302815 0 -0.0001063704581756372 -0.083587261812562985 0 -0.00019136078402422571 -0.083256743376599524 0 1.1687815045730587e-05 -0.083628450943719276 0 -0.0001063704581756372 -0.083587261812562985 0 -0.00038468089942398867 -0.083279662204302815 0 -0.00019136078402422571 -0.083256743376599524 0 -0.00038468089942398867 -0.083279662204302815 0 -0.00049200588855887568 -0.082945883807027762 0 -0.00019136078402422571 -0.083256743376599524 0 -0.00087575551293419781 -0.082744125403474825 0 -0.00038468089942398867 -0.083279662204302815 0 -0.00049200588855887568 -0.082945883807027762 0 -0.00030894856308721403 -0.082990525140078403 0 -0.00049200588855887568 -0.082945883807027762 0 -0.00019136078402422571 -0.083256743376599524 0 -0.00030894856308721403 -0.082990525140078403 0 -0.00047523242113317994 -0.082788524562127999 0 -0.00049200588855887568 -0.082945883807027762 0 -0.00030894856308721403 -0.082990525140078403 0 -0.00019136078402422571 -0.083256743376599524 0 -0.00014432509739371028 -0.083134923242898992 0 -0.00019136078402422571 -0.083256743376599524 0 1.2979232646995456e-05 -0.083435018208540004 0 1.1687815045730587e-05 -0.083628450943719276 0 -0.00019136078402422571 -0.083256743376599524 0 1.2979232646995456e-05 -0.083435018208540004 0 -0.00014432509739371028 -0.083134923242898992 0 1.2979232646995456e-05 -0.083435018208540004 0 0.00010153756815667554 -0.083882394067782459 0 0.00030438831777365586 -0.083540868969110782 0 1.2979232646995456e-05 -0.083435018208540004 0 0.00030438831777365586 -0.083540868969110782 0 0.00010054318407083422 -0.083328271291300146 0 0.00010153756815667554 -0.083882394067782459 0 1.1687815045730587e-05 -0.083628450943719276 0 0.00020643655533255303 -0.084008159993723644 0 1.2979232646995456e-05 -0.083435018208540004 0 0.00010153756815667554 -0.083882394067782459 0 1.1687815045730587e-05 -0.083628450943719276 0 -0.0001063704581756372 -0.083587261812562985 0 1.1687815045730587e-05 -0.083628450943719276 0 0.00020643655533255303 -0.084008159993723644 0 0.00020643655533255303 -0.084008159993723644 0 0.00013362069658550218 -0.084165023995260435 0 0.00020852397304547672 -0.084132271582947768 0 0.00010153756815667554 -0.083882394067782459 0 0.00013362069658550218 -0.084165023995260435 0 0.0001473645184692047 -0.084210388895978344 0 0.00010153756815667554 -0.083882394067782459 0 0.00020643655533255303 -0.084008159993723644 0 0.00013362069658550218 -0.084165023995260435 0 0.00020852397304547672 -0.084132271582947768 0 6.8780738837380994e-05 -0.084411702331734811 0 4.0397585381120591e-05 -0.084243756568407421 0 0.00013362069658550218 -0.084165023995260435 0 0.00020852397304547672 -0.084132271582947768 0 6.8780738837380994e-05 -0.084411702331734811 0 0.00020852397304547672 -0.084132271582947768 0 4.0397585381120591e-05 -0.084243756568407421 0 0.00021037072638843975 -0.083958234875763538 0 0.00020852397304547672 -0.084132271582947768 0 0.00040730503054642347 -0.083896523810311943 0 0.00021037072638843975 -0.083958234875763538 0 0.00020643655533255303 -0.084008159993723644 0 0.00020852397304547672 -0.084132271582947768 0 0.0004325539592767724 -0.083972865182208686 0 0.00073111075945545359 -0.083889930684599753 0 0.00020643655533255303 -0.084008159993723644 0 0.0004325539592767724 -0.083972865182208686 0 0.00020852397304547672 -0.084132271582947768 0 0.0004325539592767724 -0.083972865182208686 0 0.00040730503054642347 -0.083896523810311943 0 -3.5003405181834221e-05 -0.084611396350998222 0 6.8780738837380994e-05 -0.084411702331734811 0 7.4798069204834433e-07 -0.084998367651799495 0 -3.5003405181834221e-05 -0.084611396350998222 0 7.4798069204834433e-07 -0.084998367651799495 0 -2.2753873209567522e-07 -0.084999859878045703 0 -3.5003405181834221e-05 -0.084611396350998222 0 6.8780738837380994e-05 -0.084411702331734811 0 4.0397585381120591e-05 -0.084243756568407421 0 6.8780738837380994e-05 -0.084411702331734811 0 0.0001473645184692047 -0.084210388895978344 0 7.4798069204834433e-07 -0.084998367651799495 0 0.00013362069658550218 -0.084165023995260435 0 6.8780738837380994e-05 -0.084411702331734811 0 0.0001473645184692047 -0.084210388895978344 0 4.8233071728607375e-09 -0.084999995295743286 0 -4.5853483167337384e-06 -0.085002041262959432 0 -6.2683879582254318e-09 -0.085000012756560953 0 1.3493922087206368e-08 -0.084999353920187024 0 -6.0786655624884112e-05 -0.084604578340789396 0 0.0001473645184692047 -0.084210388895978344 0 7.4798069204834433e-07 -0.084998367651799495 0 0.0003199532250638123 -0.084094044564066828 0 -4.5853483167337384e-06 -0.085002041262959432 0 -6.2683879582254318e-09 -0.085000012756560953 0 -2.1786080707194563e-10 -0.084999971816920844 0 0.00010153756815667554 -0.083882394067782459 0 0.0001473645184692047 -0.084210388895978344 0 0.00030438831777365586 -0.083540868969110782 0 0.0001473645184692047 -0.084210388895978344 0 0.0003199532250638123 -0.084094044564066828 0 0.00030438831777365586 -0.083540868969110782 0 -6.0786655624884112e-05 -0.084604578340789396 0 -0.00012080224992883899 -0.084393751245031068 0 -4.5853483167337384e-06 -0.085002041262959432 0 -2.1786080707194563e-10 -0.084999971816920844 0 -9.8210138461543998e-06 -0.084989401138859791 0 -4.5853483167337384e-06 -0.085002041262959432 0 -2.3733245966113137e-05 -0.084987521825354906 0 -9.8210138461543998e-06 -0.084989401138859791 0 -1.0372271045737602e-05 -0.08500400331780858 0 -0.0036697216725172233 -0.085021017145368985 0 -2.1786080707194563e-10 -0.084999971816920844 0 -9.8210138461543998e-06 -0.084989401138859791 0 -1.7723371867996171e-06 -0.084977879682131774 0 -2.3733245966113137e-05 -0.084987521825354906 0 -9.8210138461543998e-06 -0.084989401138859791 0 -1.6011986216468269e-05 -0.08497391257390309 0 -1.7723371867996171e-06 -0.084977879682131774 0 -1.6011986216468269e-05 -0.08497391257390309 0 -3.8883554265720011e-06 -0.084957212076395047 0 -0.0036697216725172233 -0.085021017145368985 0 -0.00068737225728993979 -0.084944236683272042 0 6.3411782477524585e-09 -0.084764532814808988 0 -9.6036681949692013e-09 -0.085000001137220962 0 3.7067464591758635e-05 -0.084994897783684298 0 -9.8210138461543998e-06 -0.084989401138859791 0 -1.7723371867996171e-06 -0.084977879682131774 0 -1.6011986216468269e-05 -0.08497391257390309 0 -1.6011986216468269e-05 -0.08497391257390309 0 -3.8883554265720011e-06 -0.084957212076395047 0 -2.1122782821464019e-05 -0.084958998911398437 0 -0.00060022259195472317 -0.08323062702465947 0 -0.00035953815630312036 -0.083425950446071748 0 -0.00059633749974563317 -0.083699068028245519 0 -0.00068737225728993979 -0.084944236683272042 0 -0.00055594996844855206 -0.084542471297325103 0 3.5105049250938588e-08 -0.085000320753933226 0 3.4486396192831154e-06 -0.08499972721929909 0 -7.2655600731348373e-06 -0.085030404554891761 0 -6.2379966798234826e-06 -0.084998236511091285 0 -0.00068737225728993979 -0.084944236683272042 0 -0.00068737225728993979 -0.084944236683272042 0 -0.00037193990718782579 -0.084570908045605714 0 -0.00060022259195472317 -0.08323062702465947 0 -0.00035953815630312036 -0.083425950446071748 0 -0.00029810660164923181 -0.083218810829644885 0 -0.00018114611921512855 -0.083303295073990716 0 -0.00011996948654070169 -0.083362708158663493 0 -0.00018143009144481087 -0.083496280938438056 0 -0.00035953815630312036 -0.083425950446071748 0 -0.00018114611921512855 -0.083303295073990716 0 -0.00018143009144481087 -0.083496280938438056 0 -0.00035953815630312036 -0.083425950446071748 0 -0.00018114611921512855 -0.083303295073990716 0 -0.00029810660164923181 -0.083218810829644885 0 -0.00037193990718782579 -0.084570908045605714 0 -0.00026148362624336063 -0.084313201315188283 0 -0.00018114611921512855 -0.083303295073990716 0 -0.00029810660164923181 -0.083218810829644885 0 -0.00011386385247120343 -0.083213968607517286 0 -1.6011986216468269e-05 -0.08497391257390309 0 -2.1122782821464019e-05 -0.084958998911398437 0 -4.0134423339923201e-05 -0.084960629688286202 0 -2.3733245966113137e-05 -0.084987521825354906 0 -1.6011986216468269e-05 -0.08497391257390309 0 -4.0134423339923201e-05 -0.084960629688286202 0 -0.00012080224992883899 -0.084393751245031068 0 -0.00026148362624336063 -0.084313201315188283 0 1.2979232646995456e-05 -0.083435018208540004 0 0.00010054318407083422 -0.083328271291300146 0 -4.6459618336388233e-05 -0.083159030365755712 0 0.00030438831777365586 -0.083540868969110782 0 0.00010054318407083422 -0.083328271291300146 0 0.00018580510940860597 -0.083138704187911083 0 0.00010054318407083422 -0.083328271291300146 0 -4.6459618336388233e-05 -0.083159030365755712 0 0.00018580510940860597 -0.083138704187911083 0 -0.00015611954249977863 -0.084203305758067129 0 -0.00026148362624336063 -0.084313201315188283 0 1.2979232646995456e-05 -0.083435018208540004 0 -0.00014432509739371028 -0.083134923242898992 0 -4.6459618336388233e-05 -0.083159030365755712 0 -0.00014432509739371028 -0.083134923242898992 0 -4.6459618336388233e-05 -0.083159030365755712 0 -9.8280825378768886e-05 -0.083126649980114806 0 -4.6459618336388233e-05 -0.083159030365755712 0 -9.8280825378768886e-05 -0.083126649980114806 0 -7.1348891605018029e-05 -0.083224957776635758 0 -9.8280825378768886e-05 -0.083126649980114806 0 -7.1348891605018029e-05 -0.083224957776635758 0 -8.5327360017516224e-05 -0.083210669035925167 0 -0.00018446289207480881 -0.083007395349611116 0 -9.8280825378768886e-05 -0.083126649980114806 0 -8.5327360017516224e-05 -0.083210669035925167 0 -0.00018114611921512855 -0.083303295073990716 0 -9.9072888646016706e-05 -0.083263777425081023 0 -0.00011386385247120343 -0.083213968607517286 0 -0.00028162679049023343 -0.084248748363230194 0 -0.00026148362624336063 -0.084313201315188283 0 -4.6459618336388233e-05 -0.083159030365755712 0 -9.9072888646016706e-05 -0.083263777425081023 0 -0.00012500794940030347 -0.083216795581041086 0 -4.6459618336388233e-05 -0.083159030365755712 0 -7.1348891605018029e-05 -0.083224957776635758 0 -9.9072888646016706e-05 -0.083263777425081023 0 -7.1348891605018029e-05 -0.083224957776635758 0 -9.9072888646016706e-05 -0.083263777425081023 0 -8.8733545359594986e-05 -0.083311751073314469 0 -0.00018114611921512855 -0.083303295073990716 0 -9.9072888646016706e-05 -0.083263777425081023 0 -0.00011996948654070169 -0.083362708158663493 0 -9.9072888646016706e-05 -0.083263777425081023 0 -8.8733545359594986e-05 -0.083311751073314469 0 -0.00011996948654070169 -0.083362708158663493 0 -8.2778014041323238e-05 -0.083443829282892248 0 -8.5327360017516224e-05 -0.083210669035925167 0 -8.6716321982995158e-05 -0.083519329538905521 0 -8.8733545359594986e-05 -0.083311751073314469 0 -0.00011996948654070169 -0.083362708158663493 0 -8.2778014041323238e-05 -0.083443829282892248 0 -0.00011996948654070169 -0.083362708158663493 0 -8.2778014041323238e-05 -0.083443829282892248 0 -0.00018143009144481087 -0.083496280938438056 0 -7.1348891605018029e-05 -0.083224957776635758 0 -8.8733545359594986e-05 -0.083311751073314469 0 -8.2778014041323238e-05 -0.083443829282892248 0 -8.2778014041323238e-05 -0.083443829282892248 0 -8.6716321982995158e-05 -0.083519329538905521 0 -0.00010436801861678693 -0.083768058980266499 0 -7.1348891605018029e-05 -0.083224957776635758 0 -8.2778014041323238e-05 -0.083443829282892248 0 -8.5327360017516224e-05 -0.083210669035925167 0 -8.5327360017516224e-05 -0.083210669035925167 0 -0.00010443848582943036 -0.083284602464435906 0 -8.6716321982995158e-05 -0.083519329538905521 0 -0.00012974312727168308 -0.083576320066431564 0 -0.00013893423612613008 -0.083104870575548731 0 -0.00010443848582943036 -0.083284602464435906 0 -0.00012974312727168308 -0.083576320066431564 0 -0.00010443848582943036 -0.083284602464435906 0 -8.6716321982995158e-05 -0.083519329538905521 0 -8.6716321982995158e-05 -0.083519329538905521 0 -0.00010962247974169635 -0.083824358956331599 0 -0.00010436801861678693 -0.083768058980266499 0 -0.00012974312727168308 -0.083576320066431564 0 -8.6716321982995158e-05 -0.083519329538905521 0 -0.00010962247974169635 -0.083824358956331599 0 -0.00010962247974169635 -0.083824358956331599 0 -0.00012273913071131004 -0.084154658762061893 0 -0.00010436801861678693 -0.083768058980266499 0 -0.00012273913071131004 -0.084154658762061893 0 -0.00010436801861678693 -0.083768058980266499 0 -0.00018050606448374374 -0.084052349732015724 0 -0.00010436801861678693 -0.083768058980266499 0 -0.00018050606448374374 -0.084052349732015724 0 -0.00015184367201764599 -0.083713910015921475 0 -0.00017403598763553605 -0.084758283592579864 0 -0.00018050606448374374 -0.084052349732015724 0 -0.00059633749974563317 -0.083699068028245519 0 -0.00050377047857158564 -0.084524679772918318 0 -0.00055594996844855206 -0.084542471297325103 0 -0.00017403598763553605 -0.084758283592579864 0 -0.00012273913071131004 -0.084154658762061893 0 -0.00018050606448374374 -0.084052349732015724 0 -0.00017403598763553605 -0.084758283592579864 0 -9.7422107251068032e-08 -0.084999541972695603 0 -7.2655600731348373e-06 -0.085030404554891761 0 -0.00018050606448374374 -0.084052349732015724 0 -0.00059633749974563317 -0.083699068028245519 0 -0.00027638074689042424 -0.083664742529130059 0 3.5105049250938588e-08 -0.085000320753933226 0 -9.7422107251068032e-08 -0.084999541972695603 0 -7.2655600731348373e-06 -0.085030404554891761 0 -0.00035953815630312036 -0.083425950446071748 0 -0.00059633749974563317 -0.083699068028245519 0 -0.00027638074689042424 -0.083664742529130059 0 -0.00035953815630312036 -0.083425950446071748 0 -0.00018143009144481087 -0.083496280938438056 0 -0.00027638074689042424 -0.083664742529130059 0 -8.2778014041323238e-05 -0.083443829282892248 0 -0.00018143009144481087 -0.083496280938438056 0 -0.00015184367201764599 -0.083713910015921475 0 -8.2778014041323238e-05 -0.083443829282892248 0 -0.00010436801861678693 -0.083768058980266499 0 -0.00015184367201764599 -0.083713910015921475 0 -0.00018050606448374374 -0.084052349732015724 0 -0.00015184367201764599 -0.083713910015921475 0 -0.00027638074689042424 -0.083664742529130059 0 -0.00018143009144481087 -0.083496280938438056 0 -0.00015184367201764599 -0.083713910015921475 0 -0.00027638074689042424 -0.083664742529130059 0 -2.754593571497519e-05 -0.084927423299026319 0 2.3603922473110032e-06 -0.084956309088783585 0 -2.1218039645544151e-05 -0.084981125618278142 0 -2.754593571497519e-05 -0.084927423299026319 0 -5.4442124885234754e-08 -0.084999908845586891 0 -2.1218039645544151e-05 -0.084981125618278142 0 -5.4442124885234754e-08 -0.084999908845586891 0 -2.2562495189337741e-05 -0.08491429990623045 0 1.0870269052896e-08 -0.084999866144391797 0 -2.754593571497519e-05 -0.084927423299026319 0 -5.4442124885234754e-08 -0.084999908845586891 0 -2.2562495189337741e-05 -0.08491429990623045 0 -2.754593571497519e-05 -0.084927423299026319 0 -4.2826709918376465e-05 -0.084779144437892751 0 -2.2562495189337741e-05 -0.08491429990623045 0 -4.2826709918376465e-05 -0.084779144437892751 0 -0.00022631068464947057 -0.084334995379172467 0 -0.00033010778277350173 -0.084647943783080729 0 -2.754593571497519e-05 -0.084927423299026319 0 -4.2826709918376465e-05 -0.084779144437892751 0 2.3603922473110032e-06 -0.084956309088783585 0 -4.2826709918376465e-05 -0.084779144437892751 0 -0.00022631068464947057 -0.084334995379172467 0 8.4618967631043144e-05 -0.084362828028852227 0 -0.00014747437368618191 -0.084642845470049993 0 -0.00016148790992835527 -0.084529687343505966 0 8.4618967631043144e-05 -0.084362828028852227 0 -6.6361315380569395e-05 -0.084142160438864924 0 0.00016760105680544148 -0.08399846321544796 0 -0.00022631068464947057 -0.084334995379172467 0 8.4618967631043144e-05 -0.084362828028852227 0 -6.6361315380569395e-05 -0.084142160438864924 0 -0.00016148790992835527 -0.084529687343505966 0 -0.0002348135139254249 -0.084173697002642225 0 -0.00022631068464947057 -0.084334995379172467 0 -6.6361315380569395e-05 -0.084142160438864924 0 -0.00027046394523406352 -0.084041697877274779 0 -0.00022631068464947057 -0.084334995379172467 0 -0.00027046394523406352 -0.084041697877274779 0 -0.000393645696705606 -0.08418998708754237 0 -0.00031038081559800528 -0.080964756611577468 0 -0.0016500356626229537 -0.078784819281203608 0 -6.6361315380569395e-05 -0.084142160438864924 0 -0.00027046394523406352 -0.084041697877274779 0 -0.00012979452416152801 -0.083821520389569817 0 -0.00027046394523406352 -0.084041697877274779 0 -0.00012979452416152801 -0.083821520389569817 0 -0.00052122178839128833 -0.083999781454746181 0 -6.6361315380569395e-05 -0.084142160438864924 0 0.00016760105680544148 -0.08399846321544796 0 -0.00012979452416152801 -0.083821520389569817 0 -1.800789373621941e-05 -0.08499261217087288 0 -2.1218039645544151e-05 -0.084981125618278142 0 -2.9072310305970693e-05 -0.084995562832616597 0 2.3603922473110032e-06 -0.084956309088783585 0 -1.800789373621941e-05 -0.08499261217087288 0 -2.1218039645544151e-05 -0.084981125618278142 0 -5.4442124885234754e-08 -0.084999908845586891 0 -2.1218039645544151e-05 -0.084981125618278142 0 6.5246492257419454e-09 -0.084999922884250789 0 6.5246492257419454e-09 -0.084999922884250789 0 -2.9072310305970693e-05 -0.084995562832616597 0 -1.4271817624846848e-07 -0.085000277334876334 0 -2.1218039645544151e-05 -0.084981125618278142 0 6.5246492257419454e-09 -0.084999922884250789 0 -2.9072310305970693e-05 -0.084995562832616597 0 -2.9072310305970693e-05 -0.084995562832616597 0 -5.3283571734496922e-05 -0.084983166432431298 0 -1.4271817624846848e-07 -0.085000277334876334 0 -2.9072310305970693e-05 -0.084995562832616597 0 -5.3283571734496922e-05 -0.084983166432431298 0 -4.4387345196159865e-05 -0.084987837617668441 0 -5.3283571734496922e-05 -0.084983166432431298 0 -1.4271817624846848e-07 -0.085000277334876334 0 -0.00011284911731518948 -0.084924402723957057 0 -0.0002348135139254249 -0.084173697002642225 0 -0.00034833667403878565 -0.083136805267954819 0 -1.800789373621941e-05 -0.08499261217087288 0 -2.9072310305970693e-05 -0.084995562832616597 0 -4.4387345196159865e-05 -0.084987837617668441 0 -0.0016318094581791449 -0.085336535252342 0 -0.0013175409449894028 -0.083986372900168318 0 -0.00011284911731518948 -0.084924402723957057 0 -0.0015830581292524955 -0.0814007348654988 0 -0.0008177183492358805 -0.082610464757540358 0 -0.00014623277615313001 -0.081217947778248117 0 -0.0015830581292524955 -0.0814007348654988 0 -0.0008177183492358805 -0.082610464757540358 0 -0.0013175409449894028 -0.083986372900168318 0 -0.00034833667403878565 -0.083136805267954819 0 -0.00045792954822785259 -0.083269457319111909 0 -0.0008177183492358805 -0.082610464757540358 0 -0.0013175409449894028 -0.083986372900168318 0 -0.0012867462990010282 -0.084037340977546837 0 -0.0013175409449894028 -0.083986372900168318 0 -0.00011284911731518948 -0.084924402723957057 0 -4.8205008966208893e-07 -0.084997930203393496 0 -1.4271817624846848e-07 -0.085000277334876334 0 -0.00011284911731518948 -0.084924402723957057 0 -4.8205008966208893e-07 -0.084997930203393496 0 -5.3283571734496922e-05 -0.084983166432431298 0 -4.4387345196159865e-05 -0.084987837617668441 0 -0.00011284911731518948 -0.084924402723957057 0 -0.00034833667403878565 -0.083136805267954819 0 -0.00053445057662230395 -0.083514633452264814 0 -0.0013175409449894028 -0.083986372900168318 0 -4.8205008966208893e-07 -0.084997930203393496 0 -0.0012867462990010282 -0.084037340977546837 0 -3.5586130496661974e-07 -0.084998525729099647 0 -0.00017371059058972279 -0.084209449175549692 0 -9.0642152641933683e-05 -0.084656784104113939 0 -3.5586130496661974e-07 -0.084998525729099647 0 -0.0002937520939611115 -0.083590798324017015 0 -0.00017371059058972279 -0.084209449175549692 0 -5.553872904863126e-07 -0.084998593432426731 0 -0.00012285313045814071 -0.084331537544289986 0 -0.0002937520939611115 -0.083590798324017015 0 -0.00018589555133101222 -0.083780190355178571 0 -0.00017371059058972279 -0.084209449175549692 0 -0.0002937520939611115 -0.083590798324017015 0 -0.00018589555133101222 -0.083780190355178571 0 -2.6024779770691407e-05 -0.083263420679713498 0 -0.00010898792142382087 -0.083864882157403439 0 -0.00018589555133101222 -0.083780190355178571 0 -2.6024779770691407e-05 -0.083263420679713498 0 -0.00010898792142382087 -0.083864882157403439 0 -0.00017371059058972279 -0.084209449175549692 0 -9.4200315885254206e-05 -0.084282907222315795 0 -0.00010898792142382087 -0.083864882157403439 0 -0.00018589555133101222 -0.083780190355178571 0 -0.00017371059058972279 -0.084209449175549692 0 -3.5003405181834221e-05 -0.084611396350998222 0 -9.4200315885254206e-05 -0.084282907222315795 0 4.0397585381120591e-05 -0.084243756568407421 0 -0.00010898792142382087 -0.083864882157403439 0 -9.4200315885254206e-05 -0.084282907222315795 0 4.8264118147287815e-05 -0.083890001645685275 0 -9.4200315885254206e-05 -0.084282907222315795 0 4.0397585381120591e-05 -0.084243756568407421 0 4.8264118147287815e-05 -0.083890001645685275 0 -3.5586130496661974e-07 -0.084998525729099647 0 -2.2753873209567522e-07 -0.084999859878045703 0 -9.0642152641933683e-05 -0.084656784104113939 0 -3.5003405181834221e-05 -0.084611396350998222 0 -9.4200315885254206e-05 -0.084282907222315795 0 -9.0642152641933683e-05 -0.084656784104113939 0 -3.5003405181834221e-05 -0.084611396350998222 0 -2.2753873209567522e-07 -0.084999859878045703 0 -9.0642152641933683e-05 -0.084656784104113939 0 -0.00017371059058972279 -0.084209449175549692 0 -9.4200315885254206e-05 -0.084282907222315795 0 -9.0642152641933683e-05 -0.084656784104113939 0 0.00041354227789949837 -0.083485553258929202 0 0.00064252967101561371 -0.083779736382076614 0 0.00094181896045684055 -0.083532880751801777 0 0.00073111075945545359 -0.083889930684599753 0 0.0004325539592767724 -0.083972865182208686 0 0.00064252967101561371 -0.083779736382076614 0 0.0004325539592767724 -0.083972865182208686 0 0.00064252967101561371 -0.083779736382076614 0 0.00040730503054642347 -0.083896523810311943 0 0.00041354227789949837 -0.083485553258929202 0 0.00064252967101561371 -0.083779736382076614 0 0.00040730503054642347 -0.083896523810311943 0 0.00041354227789949837 -0.083485553258929202 0 0.00040730503054642347 -0.083896523810311943 0 0.00021037072638843975 -0.083958234875763538 0 4.0397585381120591e-05 -0.084243756568407421 0 0.00021037072638843975 -0.083958234875763538 0 4.8264118147287815e-05 -0.083890001645685275 0 0.00041354227789949837 -0.083485553258929202 0 0.00021037072638843975 -0.083958234875763538 0 4.8264118147287815e-05 -0.083890001645685275 0 0.00041354227789949837 -0.083485553258929202 0 9.6821152259378242e-05 -0.083354962781409553 0 0.00029785564973249472 -0.082808324683701015 0 0.00041354227789949837 -0.083485553258929202 0 4.8264118147287815e-05 -0.083890001645685275 0 9.6821152259378242e-05 -0.083354962781409553 0 -0.00010898792142382087 -0.083864882157403439 0 9.6821152259378242e-05 -0.083354962781409553 0 -2.6024779770691407e-05 -0.083263420679713498 0 -0.00010898792142382087 -0.083864882157403439 0 4.8264118147287815e-05 -0.083890001645685275 0 9.6821152259378242e-05 -0.083354962781409553 0 9.6821152259378242e-05 -0.083354962781409553 0 -2.6024779770691407e-05 -0.083263420679713498 0 0.00029785564973249472 -0.082808324683701015 0 -2.6024779770691407e-05 -0.083263420679713498 0 0.00029785564973249472 -0.082808324683701015 0 0.00025447169956247239 -0.081978968301372662 0 0.00045159364853570411 -0.082544244350707993 0 0.00037553377614970207 -0.082545811827048676 0 0.00041354227789949837 -0.083485553258929202 0 0.00082967127168368003 -0.082258965051733912 0 0.00094181896045684055 -0.083532880751801777 0 0.00041354227789949837 -0.083485553258929202 0 0.00029785564973249472 -0.082808324683701015 0 0.00082967127168368003 -0.082258965051733912 0 0.00082967127168368003 -0.082258965051733912 0 0.0010846210796900382 -0.081003452522532091 0 0.0018347369795281808 -0.081391172329002559 0 0.00029785564973249472 -0.082808324683701015 0 0.00082967127168368003 -0.082258965051733912 0 0.00025447169956247239 -0.081978968301372662 0 0.00082967127168368003 -0.082258965051733912 0 0.0010846210796900382 -0.081003452522532091 0 0.00025447169956247239 -0.081978968301372662 0 0.0010846210796900382 -0.081003452522532091 0 0.00025447169956247239 -0.081978968301372662 0 0.00060869632597130283 -0.080712285776824627 0 -0.0002937520939611115 -0.083590798324017015 0 -2.6024779770691407e-05 -0.083263420679713498 0 0.00025447169956247239 -0.081978968301372662 0 -0.0008177183492358805 -0.082610464757540358 0 -0.0012867462990010282 -0.084037340977546837 0 0.00025447169956247239 -0.081978968301372662 0 -0.00012285313045814071 -0.084331537544289986 0 0.00011377070040965885 -0.083894351468324441 0 0.00025447169956247239 -0.081978968301372662 0 -0.00014623277615313001 -0.081217947778248117 0 0.00060869632597130283 -0.080712285776824627 0 -0.0008177183492358805 -0.082610464757540358 0 0.00025447169956247239 -0.081978968301372662 0 -0.00014623277615313001 -0.081217947778248117 0 -0.0015830581292524955 -0.0814007348654988 0 -0.00014623277615313001 -0.081217947778248117 0 0.00059581772381223606 -0.07937997207613455 0 -0.00034833667403878565 -0.083136805267954819 0 -0.00031038081559800528 -0.080964756611577468 0 0.00016760105680544148 -0.08399846321544796 0 0.00024775137216415317 -0.083637603274130473 0 -0.00012979452416152801 -0.083821520389569817 0 -0.00014623277615313001 -0.081217947778248117 0 0.00060869632597130283 -0.080712285776824627 0 0.00059581772381223606 -0.07937997207613455 0 0.0012180283799071436 -0.080028549696824366 0 0.00059581772381223606 -0.07937997207613455 0 0.0017896356450259451 -0.07912758130722794 0 0.0010846210796900382 -0.081003452522532091 0 0.0012180283799071436 -0.080028549696824366 0 0.0018499827668288366 -0.079834709112012237 0 0.0010846210796900382 -0.081003452522532091 0 0.0012180283799071436 -0.080028549696824366 0 0.00060869632597130283 -0.080712285776824627 0 0.0012180283799071436 -0.080028549696824366 0 0.00060869632597130283 -0.080712285776824627 0 0.00059581772381223606 -0.07937997207613455 0 0.0017896356450259451 -0.07912758130722794 0 0.0018499827668288366 -0.079834709112012237 0 0.0026418606099509728 -0.078423994928332477 0 0.0018499827668288366 -0.079834709112012237 0 0.0026418606099509728 -0.078423994928332477 0 0.0025604545680924747 -0.079413110996941386 0 0.0012180283799071436 -0.080028549696824366 0 0.0017896356450259451 -0.07912758130722794 0 0.0018499827668288366 -0.079834709112012237 0 0.0026418606099509728 -0.078423994928332477 0 0.0030739071339753892 -0.077469688860795471 0 0.0023536959695847747 -0.07847644870988045 0 0.0026418606099509728 -0.078423994928332477 0 0.0030739071339753892 -0.077469688860795471 0 0.0025604545680924747 -0.079413110996941386 0 0.0030739071339753892 -0.077469688860795471 0 0.003558373866291382 -0.079770733273256608 0 0.0025604545680924747 -0.079413110996941386 0 0.003558373866291382 -0.079770733273256608 0 0.0025604545680924747 -0.079413110996941386 0 0.0029847485842138489 -0.08087489618632808 0 0.0025604545680924747 -0.079413110996941386 0 0.0029847485842138489 -0.08087489618632808 0 0.0018347369795281808 -0.081391172329002559 0 0.003558373866291382 -0.079770733273256608 0 0.0029847485842138489 -0.08087489618632808 0 0.0043463869539934943 -0.081115020788378275 0 0.0018499827668288366 -0.079834709112012237 0 0.0025604545680924747 -0.079413110996941386 0 0.0018347369795281808 -0.081391172329002559 0 0.0010846210796900382 -0.081003452522532091 0 0.0018499827668288366 -0.079834709112012237 0 0.0018347369795281808 -0.081391172329002559 0 0.0018347369795281808 -0.081391172329002559 0 0.0028237818317715835 -0.082193634456269732 0 0.0014634886129962998 -0.08286236661122838 0 0.00082967127168368003 -0.082258965051733912 0 0.0018347369795281808 -0.081391172329002559 0 0.0014634886129962998 -0.08286236661122838 0 0.0028237818317715835 -0.082193634456269732 0 0.0044950678485631036 -0.08287886838097934 0 0.0043463869539934943 -0.081115020788378275 0 0.0029847485842138489 -0.08087489618632808 0 0.0018347369795281808 -0.081391172329002559 0 0.0028237818317715835 -0.082193634456269732 0 0.0029847485842138489 -0.08087489618632808 0 0.0028237818317715835 -0.082193634456269732 0 0.0043463869539934943 -0.081115020788378275 0 0.0024377569738077602 -0.084363503254278521 0 0.0025942865218939225 -0.083614708856557279 0 0.0044950678485631036 -0.08287886838097934 0 0.0028237818317715835 -0.082193634456269732 0 0.0025942865218939225 -0.083614708856557279 0 0.0044950678485631036 -0.08287886838097934 0 -0.00070163964959625189 -0.081363585853088574 0 -0.0013257122383038783 -0.078838351190127484 0 -0.0060163715197383725 -0.078385118374858412 0 -0.0085088399892051161 -0.077987326003294222 0 -0.0060430204663115246 -0.076004247103632919 0 0.00073111075945545359 -0.083889930684599753 0 0.00088385816257632985 -0.083966852015367355 0 0.00094181896045684055 -0.083532880751801777 0 0.0024377569738077602 -0.084363503254278521 0 0.0025942865218939225 -0.083614708856557279 0 0.0014634886129962998 -0.08286236661122838 0 -0.00070163964959625189 -0.081363585853088574 0 0.00037553377614970207 -0.082545811827048676 0 0.0028237818317715835 -0.082193634456269732 0 0.0025942865218939225 -0.083614708856557279 0 0.0014634886129962998 -0.08286236661122838 0 0.00073111075945545359 -0.083889930684599753 0 0.00064252967101561371 -0.083779736382076614 0 0.00094181896045684055 -0.083532880751801777 0 -0.0038497002164555342 -0.075909948939071867 0 -0.0050401419178383059 -0.077197294845730416 0 -0.0060430204663115246 -0.076004247103632919 0 -0.0038497002164555342 -0.075909948939071867 0 -0.0037703024860337108 -0.077106939105486508 0 -0.0031239870741135382 -0.076512296266304208 0 -0.0038497002164555342 -0.075909948939071867 0 -0.0037703024860337108 -0.077106939105486508 0 -0.0050401419178383059 -0.077197294845730416 0 -0.0060163715197383725 -0.078385118374858412 0 -0.0050401419178383059 -0.077197294845730416 0 -0.0060430204663115246 -0.076004247103632919 0 0.0044950678485631036 -0.08287886838097934 0 0.0043463869539934943 -0.081115020788378275 0 0.0069878320963960546 -0.081035097014689569 0 -0.0038497002164555342 -0.075909948939071867 0 -0.003345532549445307 -0.074918898578460305 0 -0.0026580237167813229 -0.075075130118001973 0 -0.0013257122383038783 -0.078838351190127484 0 -0.0022210667048236155 -0.075986577578872505 0 -0.0038497002164555342 -0.075909948939071867 0 -0.0060430204663115246 -0.076004247103632919 0 -0.003345532549445307 -0.074918898578460305 0 -0.0023608098992006559 -0.070367847041952938 0 0.00044203271183672181 -0.072887198391749577 0 -0.0025297956457935658 -0.073748592520860828 0 -0.0022210667048236155 -0.075986577578872505 0 8.766279118503253e-05 -0.076885826096261808 0 0.0043463869539934943 -0.081115020788378275 0 0.0069878320963960546 -0.081035097014689569 0 0.0054451862496887908 -0.07961721929245455 0 0.003558373866291382 -0.079770733273256608 0 0.0043463869539934943 -0.081115020788378275 0 0.0054451862496887908 -0.07961721929245455 0 0.0030739071339753892 -0.077469688860795471 0 0.003558373866291382 -0.079770733273256608 0 0.0054451862496887908 -0.07961721929245455 0 0.0030739071339753892 -0.077469688860795471 0 0.00027546422773155356 -0.076187324567922585 0 0.0023536959695847747 -0.07847644870988045 0 0.00070758063235469646 -0.077134590409400058 0 8.766279118503253e-05 -0.076885826096261808 0 0.0030739071339753892 -0.077469688860795471 0 0.00044203271183672181 -0.072887198391749577 0 0.00027546422773155356 -0.076187324567922585 0 0.00027546422773155356 -0.076187324567922585 0 -0.0025297956457935658 -0.073748592520860828 0 -0.0024500879564134251 -0.077149538536358447 0 0.00044203271183672181 -0.072887198391749577 0 0.00027546422773155356 -0.076187324567922585 0 -0.0025297956457935658 -0.073748592520860828 0 -0.0082304707999829134 -0.072914705288194465 0 -0.0085532172736393908 -0.072368932716476764 0 -0.0090849443789523966 -0.07272135286316124 0 -0.0082304707999829134 -0.072914705288194465 0 -0.0085532172736393908 -0.072368932716476764 0 -0.0075686825068015653 -0.072074659501459526 0 -0.0085532172736393908 -0.072368932716476764 0 -0.0083536467844789134 -0.071782791538283999 0 -0.0075686825068015653 -0.072074659501459526 0 -0.0085532172736393908 -0.072368932716476764 0 -0.0083536467844789134 -0.071782791538283999 0 -0.0091804632696104865 -0.072258783458356235 0 -0.0041878111958992843 -0.078526963928408938 0 -0.0038080047952283478 -0.078813320523232616 0 -0.00086009047061484916 -0.084251377802232838 0 -0.00068133444819285546 -0.084166245729271186 0 -0.00064998497088552393 -0.084306708212601555 0 -0.0045978157692892693 -0.075977008109215677 0 -0.0035284880479313436 -0.076969354745723612 0 -0.0085532172736393908 -0.072368932716476764 0 -0.0091804632696104865 -0.072258783458356235 0 -0.0090849443789523966 -0.07272135286316124 0 0.00027546422773155356 -0.076187324567922585 0 -0.0024500879564134251 -0.077149538536358447 0 0.0023536959695847747 -0.07847644870988045 0 -0.0035284880479313436 -0.076969354745723612 0 -0.0016500356626229537 -0.078784819281203608 0 0.0026418606099509728 -0.078423994928332477 0 0.0023536959695847747 -0.07847644870988045 0 0.0024064793060564575 -0.078207653912835684 0 -0.0091804632696104865 -0.072258783458356235 0 -0.0090849443789523966 -0.07272135286316124 0 -0.0098503903291391175 -0.072624446741583332 0 -0.0038080047952283478 -0.078813320523232616 0 -0.0016500356626229537 -0.078784819281203608 0 -0.0010756144969426766 -0.079350583052914786 0 -0.0016500356626229537 -0.078784819281203608 0 0.00059581772381223606 -0.07937997207613455 0 0.0017896356450259451 -0.07912758130722794 0 0.0024064793060564575 -0.078207653912835684 0 -0.00027046394523406352 -0.084041697877274779 0 -0.00046500764041120408 -0.084038539246688734 0 -0.000393645696705606 -0.08418998708754237 0 0.0017896356450259451 -0.07912758130722794 0 0.0026418606099509728 -0.078423994928332477 0 0.0024064793060564575 -0.078207653912835684 0 -0.00022631068464947057 -0.084334995379172467 0 -0.000393645696705606 -0.08418998708754237 0 -0.00046410076038910265 -0.084341972153332875 0 -0.00046500764041120408 -0.084038539246688734 0 -0.000393645696705606 -0.08418998708754237 0 -0.00052807939893476303 -0.0842048481063465 0 -0.000393645696705606 -0.08418998708754237 0 -0.00052807939893476303 -0.0842048481063465 0 -0.00046410076038910265 -0.084341972153332875 0 -0.00068133444819285546 -0.084166245729271186 0 -0.00046500764041120408 -0.084038539246688734 0 -0.00052807939893476303 -0.0842048481063465 0 -0.00068133444819285546 -0.084166245729271186 0 -0.00052807939893476303 -0.0842048481063465 0 -0.00064998497088552393 -0.084306708212601555 0 -0.00052807939893476303 -0.0842048481063465 0 -0.00064998497088552393 -0.084306708212601555 0 -0.00046410076038910265 -0.084341972153332875 0 -0.00064998497088552393 -0.084306708212601555 0 -0.00046410076038910265 -0.084341972153332875 0 -0.00058480176857259698 -0.084491401448744202 0 -0.00064998497088552393 -0.084306708212601555 0 -0.00058480176857259698 -0.084491401448744202 0 -0.0007304882703068347 -0.084392635703031793 0 -0.00022631068464947057 -0.084334995379172467 0 -0.00046410076038910265 -0.084341972153332875 0 -0.00033010778277350173 -0.084647943783080729 0 -0.00046410076038910265 -0.084341972153332875 0 -0.00033010778277350173 -0.084647943783080729 0 -0.00058480176857259698 -0.084491401448744202 0 -0.00033010778277350173 -0.084647943783080729 0 -0.00058480176857259698 -0.084491401448744202 0 -0.00062723834258980083 -0.084648400066124743 0 -0.00058480176857259698 -0.084491401448744202 0 -0.00076763095048399961 -0.084523471353567803 0 -0.00062723834258980083 -0.084648400066124743 0 -0.00076763095048399961 -0.084523471353567803 0 -0.00087668397391270033 -0.084388512274638977 0 -0.0007304882703068347 -0.084392635703031793 0 -0.00058480176857259698 -0.084491401448744202 0 -0.00076763095048399961 -0.084523471353567803 0 -0.0007304882703068347 -0.084392635703031793 0 -0.00076763095048399961 -0.084523471353567803 0 -0.00087668397391270033 -0.084388512274638977 0 -0.00096943768235513601 -0.084476760716120619 0 -0.00086009047061484916 -0.084251377802232838 0 -0.00087668397391270033 -0.084388512274638977 0 -0.0007304882703068347 -0.084392635703031793 0 -0.00086009047061484916 -0.084251377802232838 0 -0.00087668397391270033 -0.084388512274638977 0 -0.0010241705585874964 -0.084299350087962091 0 -0.00086009047061484916 -0.084251377802232838 0 -0.00064998497088552393 -0.084306708212601555 0 -0.0007304882703068347 -0.084392635703031793 0 -0.0040921899796269763 -0.078340329882572654 0 -0.00385577487599921 -0.078341198306035115 0 -0.0071830159041774066 -0.071506124022516493 0 -0.007484294457268224 -0.071430141670367195 0 -0.0070022643406240734 -0.071361984970643777 0 -0.0071830159041774066 -0.071506124022516493 0 -0.0070705410604322205 -0.071484169479144877 0 -0.0070022643406240734 -0.071361984970643777 0 -0.0071830159041774066 -0.071506124022516493 0 -0.0070705410604322205 -0.071484169479144877 0 -0.0070606165461448303 -0.071661058161991628 0 -0.0071830159041774066 -0.071506124022516493 0 -0.007484294457268224 -0.071430141670367195 0 -0.0075686825068015653 -0.072074659501459526 0 -0.0041878111958992843 -0.078526963928408938 0 -0.0040921899796269763 -0.078340329882572654 0 -0.00087668397391270033 -0.084388512274638977 0 -0.0010241705585874964 -0.084299350087962091 0 -0.00096943768235513601 -0.084476760716120619 0 -0.0010241705585874964 -0.084299350087962091 0 -0.00096943768235513601 -0.084476760716120619 0 -0.0010845681946920905 -0.084361590183795382 0 -0.00096943768235513601 -0.084476760716120619 0 -0.0010939909996818711 -0.084430952113299831 0 -0.0010845681946920905 -0.084361590183795382 0 -0.0010241705585874964 -0.084299350087962091 0 -0.0010845681946920905 -0.084361590183795382 0 -0.0012023065619974382 -0.084327780913284925 0 -0.0010939909996818711 -0.084430952113299831 0 -0.0010845681946920905 -0.084361590183795382 0 -0.0011662935105651374 -0.084380692430833099 0 -0.0010845681946920905 -0.084361590183795382 0 -0.0011662935105651374 -0.084380692430833099 0 -0.0012023065619974382 -0.084327780913284925 0 -0.0011662935105651374 -0.084380692430833099 0 -0.0012023065619974382 -0.084327780913284925 0 -0.0012005204639351263 -0.084352357027124902 0 -0.0010939909996818711 -0.084430952113299831 0 -0.0011662935105651374 -0.084380692430833099 0 -0.0011643003235181869 -0.084434029893764972 0 -0.0011643003235181869 -0.084434029893764972 0 -0.0012012161862254888 -0.08440548295119181 0 -0.0012142481720569095 -0.084437677674143813 0 -0.0011662935105651374 -0.084380692430833099 0 -0.0011643003235181869 -0.084434029893764972 0 -0.0012012161862254888 -0.08440548295119181 0 -0.0070214220022323647 -0.071406738497899608 0 -0.0070022643406240734 -0.071361984970643777 0 -0.0070564948072475422 -0.071465756056592805 0 -0.0012012161862254888 -0.08440548295119181 0 -0.0012153788355862133 -0.084373841726544163 0 -0.001247856417256358 -0.08440270530454988 0 -0.0012012161862254888 -0.08440548295119181 0 -0.001247856417256358 -0.08440270530454988 0 -0.0012142481720569095 -0.084437677674143813 0 -0.00385577487599921 -0.078341198306035115 0 -0.0050158585975429958 -0.074822748962346683 0 -0.0012671820465935866 -0.08434762388493143 0 -0.0012023065619974382 -0.084327780913284925 0 -0.0014561934737477515 -0.08433369742928376 0 -0.0012671820465935866 -0.08434762388493143 0 -0.0013026247571625044 -0.084354111674026858 0 -0.0014561934737477515 -0.08433369742928376 0 -0.00385577487599921 -0.078341198306035115 0 -0.003430258424233485 -0.07973904136145854 0 -0.0070022643406240734 -0.071361984970643777 0 -0.0070989305933432841 -0.071578333689378396 0 -0.0070564948072475422 -0.071465756056592805 0 -0.0011662935105651374 -0.084380692430833099 0 -0.0012153788355862133 -0.084373841726544163 0 -0.0012005204639351263 -0.084352357027124902 0 -0.0011662935105651374 -0.084380692430833099 0 -0.0012012161862254888 -0.08440548295119181 0 -0.0012153788355862133 -0.084373841726544163 0 -0.0012153788355862133 -0.084373841726544163 0 -0.0012005204639351263 -0.084352357027124902 0 -0.0012295919738675959 -0.084353590829108815 0 -0.0012153788355862133 -0.084373841726544163 0 -0.0012570248436119091 -0.084369961750376102 0 -0.0012295919738675959 -0.084353590829108815 0 -0.0012153788355862133 -0.084373841726544163 0 -0.0012570248436119091 -0.084369961750376102 0 -0.001247856417256358 -0.08440270530454988 0 -0.0012671820465935866 -0.08434762388493143 0 -0.0012570248436119091 -0.084369961750376102 0 -0.0012295919738675959 -0.084353590829108815 0 -0.0012570248436119091 -0.084369961750376102 0 -0.001247856417256358 -0.08440270530454988 0 -0.0012905278928515178 -0.084378579664540793 0 -0.0012905278928515178 -0.084378579664540793 0 -0.0013446238344046412 -0.084363127388594306 0 -0.0013024713781498091 -0.084401959325338227 0 -0.001247856417256358 -0.08440270530454988 0 -0.0012905278928515178 -0.084378579664540793 0 -0.0013024713781498091 -0.084401959325338227 0 -0.0012905278928515178 -0.084378579664540793 0 -0.0013446238344046412 -0.084363127388594306 0 -0.0013026247571625044 -0.084354111674026858 0 -0.0013446238344046412 -0.084363127388594306 0 -0.0013589870945392233 -0.084389960756261553 0 -0.0013024713781498091 -0.084401959325338227 0 -0.0012570248436119091 -0.084369961750376102 0 -0.0012905278928515178 -0.084378579664540793 0 -0.0013026247571625044 -0.084354111674026858 0 -0.0012671820465935866 -0.08434762388493143 0 -0.0012570248436119091 -0.084369961750376102 0 -0.0013026247571625044 -0.084354111674026858 0 -0.0070339580034166488 -0.071426539170901859 0 -0.0070214220022323647 -0.071406738497899608 0 -0.0070564948072475422 -0.071465756056592805 0 -0.0070418221987651429 -0.071435250540136178 0 -0.0070339580034166488 -0.071426539170901859 0 -0.0070564948072475422 -0.071465756056592805 0 -0.0070418221987651429 -0.071435250540136178 0 -0.0070520536820881958 -0.07142681784728809 0 -0.0070315121667541558 -0.071418209369583333 0 -0.0070339580034166488 -0.071426539170901859 0 -0.0070202231744607557 -0.071413492235427478 0 -0.0070315121667541558 -0.071418209369583333 0 -0.0070418221987651429 -0.071435250540136178 0 -0.0070339580034166488 -0.071426539170901859 0 -0.0070315121667541558 -0.071418209369583333 0 -0.0070339580034166488 -0.071426539170901859 0 -0.0070214220022323647 -0.071406738497899608 0 -0.0070202231744607557 -0.071413492235427478 0 -0.0070214220022323647 -0.071406738497899608 0 -0.0070151202318008542 -0.071400395509778974 0 -0.0070202231744607557 -0.071413492235427478 0 -0.0070214220022323647 -0.071406738497899608 0 -0.0070151202318008542 -0.071400395509778974 0 -0.0070022643406240734 -0.071361984970643777 0 -0.0070151202318008542 -0.071400395509778974 0 -0.0070022643406240734 -0.071361984970643777 0 -0.0070165512953741325 -0.071409465134906119 0 -0.0012023065619974382 -0.084327780913284925 0 -0.0012005204639351263 -0.084352357027124902 0 -0.0012295919738675959 -0.084353590829108815 0 -0.0012671820465935866 -0.08434762388493143 0 -0.0012023065619974382 -0.084327780913284925 0 -0.0012295919738675959 -0.084353590829108815 0 -0.0011404918570096822 -0.084088892962587924 0 -0.0014561934737477515 -0.08433369742928376 0 -0.0014938183426631666 -0.084280644569647928 0 -0.0070989305933432841 -0.071578333689378396 0 -0.0071575951311193967 -0.071507185188256342 0 -0.0072513116317244148 -0.071517595253565047 0 -0.0014980583654289493 -0.084343094626191231 0 -0.0014938183426631666 -0.084280644569647928 0 -0.0015556578353786506 -0.084358760327035598 0 -0.0014980583654289493 -0.084343094626191231 0 -0.0014561934737477515 -0.08433369742928376 0 -0.0014938183426631666 -0.084280644569647928 0 -0.0070989305933432841 -0.071578333689378396 0 -0.0070889265179117688 -0.07151363302702804 0 -0.0071152825638188125 -0.071505944758466347 0 -0.0070989305933432841 -0.071578333689378396 0 -0.0071152825638188125 -0.071505944758466347 0 -0.0071575951311193967 -0.071507185188256342 0 -0.0013446238344046412 -0.084363127388594306 0 -0.0013026247571625044 -0.084354111674026858 0 -0.0014561934737477515 -0.08433369742928376 0 -0.0013446238344046412 -0.084363127388594306 0 -0.0014561934737477515 -0.08433369742928376 0 -0.0013937984934868212 -0.084371650518460628 0 -0.0013446238344046412 -0.084363127388594306 0 -0.0013589870945392233 -0.084389960756261553 0 -0.0013937984934868212 -0.084371650518460628 0 -0.0070989305933432841 -0.071578333689378396 0 -0.0070564948072475422 -0.071465756056592805 0 -0.0070889265179117688 -0.07151363302702804 0 -0.0070564948072475422 -0.071465756056592805 0 -0.0070520536820881958 -0.07142681784728809 0 -0.007074566682593127 -0.071439060531290899 0 -0.0070418221987651429 -0.071435250540136178 0 -0.0070564948072475422 -0.071465756056592805 0 -0.0070520536820881958 -0.07142681784728809 0 -0.007074566682593127 -0.071439060531290899 0 -0.0070916227880390694 -0.071467731778737068 0 -0.0071139058633524505 -0.071408032832190577 0 -0.0070564948072475422 -0.071465756056592805 0 -0.007074566682593127 -0.071439060531290899 0 -0.0070916227880390694 -0.071467731778737068 0 -0.0070564948072475422 -0.071465756056592805 0 -0.0070916227880390694 -0.071467731778737068 0 -0.0070889265179117688 -0.07151363302702804 0 -0.0070916227880390694 -0.071467731778737068 0 -0.0070889265179117688 -0.07151363302702804 0 -0.0071152825638188125 -0.071505944758466347 0 -0.0071152825638188125 -0.071505944758466347 0 -0.0071381469625490853 -0.071463282904791217 0 -0.0071575951311193967 -0.071507185188256342 0 -0.0070916227880390694 -0.071467731778737068 0 -0.0071152825638188125 -0.071505944758466347 0 -0.0071381469625490853 -0.071463282904791217 0 -0.0070916227880390694 -0.071467731778737068 0 -0.0071381469625490853 -0.071463282904791217 0 -0.0071139058633524505 -0.071408032832190577 0 -0.0071381469625490853 -0.071463282904791217 0 -0.0071139058633524505 -0.071408032832190577 0 -0.0072064978110466561 -0.071369402616047226 0 -0.0071381469625490853 -0.071463282904791217 0 -0.0072086122069384478 -0.071454953636612403 0 -0.0072064978110466561 -0.071369402616047226 0 -0.0072086122069384478 -0.071454953636612403 0 -0.0071575951311193967 -0.071507185188256342 0 -0.0072513116317244148 -0.071517595253565047 0 -0.0071381469625490853 -0.071463282904791217 0 -0.0072086122069384478 -0.071454953636612403 0 -0.0071575951311193967 -0.071507185188256342 0 -0.0072064978110466561 -0.071369402616047226 0 -0.0071419645104521326 -0.071332027689075761 0 -0.0072349897106217531 -0.07120357853707121 0 -0.0071419645104521326 -0.071332027689075761 0 -0.0071195690440325008 -0.0712918391483464 0 -0.0072349897106217531 -0.07120357853707121 0 -0.0071139058633524505 -0.071408032832190577 0 -0.0072064978110466561 -0.071369402616047226 0 -0.0071419645104521326 -0.071332027689075761 0 -0.0071139058633524505 -0.071408032832190577 0 -0.0071419645104521326 -0.071332027689075761 0 -0.0070805812140619911 -0.071386236225998406 0 -0.0071419645104521326 -0.071332027689075761 0 -0.0070805812140619911 -0.071386236225998406 0 -0.0071195690440325008 -0.0712918391483464 0 -0.0070805812140619911 -0.071386236225998406 0 -0.007055959167506393 -0.07137400360298185 0 -0.0071195690440325008 -0.0712918391483464 0 -0.0070520536820881958 -0.07142681784728809 0 -0.007074566682593127 -0.071439060531290899 0 -0.0070805812140619911 -0.071386236225998406 0 -0.007074566682593127 -0.071439060531290899 0 -0.0071139058633524505 -0.071408032832190577 0 -0.0070805812140619911 -0.071386236225998406 0 -0.0070520536820881958 -0.07142681784728809 0 -0.0070805812140619911 -0.071386236225998406 0 -0.0070477917593875063 -0.071404789809795949 0 -0.0070520536820881958 -0.07142681784728809 0 -0.0070477917593875063 -0.071404789809795949 0 -0.0070315121667541558 -0.071418209369583333 0 -0.0070477917593875063 -0.071404789809795949 0 -0.007055959167506393 -0.07137400360298185 0 -0.0070261099761052929 -0.071415377275627009 0 -0.0070805812140619911 -0.071386236225998406 0 -0.0070477917593875063 -0.071404789809795949 0 -0.007055959167506393 -0.07137400360298185 0 -0.007055959167506393 -0.07137400360298185 0 -0.0070420926495960356 -0.071419751232166748 0 -0.0070923397342088582 -0.071325287599607712 0 -0.007055959167506393 -0.07137400360298185 0 -0.0071195690440325008 -0.0712918391483464 0 -0.0070923397342088582 -0.071325287599607712 0 -0.0071195690440325008 -0.0712918391483464 0 -0.0071776243483060338 -0.071181594319201499 0 -0.0072349897106217531 -0.07120357853707121 0 -0.0071195690440325008 -0.0712918391483464 0 -0.0071776243483060338 -0.071181594319201499 0 -0.0070923397342088582 -0.071325287599607712 0 -0.0070705410604322205 -0.071484169479144877 0 -0.0070022643406240734 -0.071361984970643777 0 -0.0070265791293009786 -0.071432599975572802 0 -0.0070179213243025959 -0.07144070934793316 0 -0.0070265791293009786 -0.071432599975572802 0 -0.0070169140748579557 -0.071419633442066088 0 -0.0070311803248804929 -0.071464507730820234 0 -0.0070179213243025959 -0.07144070934793316 0 -0.0070265791293009786 -0.071432599975572802 0 -0.0070705410604322205 -0.071484169479144877 0 -0.0070311803248804929 -0.071464507730820234 0 -0.0070265791293009786 -0.071432599975572802 0 -0.0070022643406240734 -0.071361984970643777 0 -0.0070265791293009786 -0.071432599975572802 0 -0.0070165512953741325 -0.071409465134906119 0 -0.0070265791293009786 -0.071432599975572802 0 -0.0070165512953741325 -0.071409465134906119 0 -0.0070169140748579557 -0.071419633442066088 0 -0.0070151202318008542 -0.071400395509778974 0 -0.0070165512953741325 -0.071409465134906119 0 -0.0070169140748579557 -0.071419633442066088 0 -0.0070151202318008542 -0.071400395509778974 0 -0.0070169140748579557 -0.071419633442066088 0 -0.0070202231744607557 -0.071413492235427478 0 -0.0070202231744607557 -0.071413492235427478 0 -0.0070196193581352484 -0.071419138569417506 0 -0.0070315121667541558 -0.071418209369583333 0 -0.0070169140748579557 -0.071419633442066088 0 -0.0070202231744607557 -0.071413492235427478 0 -0.0070196193581352484 -0.071419138569417506 0 -0.0070477917593875063 -0.071404789809795949 0 -0.0070315121667541558 -0.071418209369583333 0 -0.0070261099761052929 -0.071415377275627009 0 -0.0070196193581352484 -0.071419138569417506 0 -0.0070315121667541558 -0.071418209369583333 0 -0.0070261099761052929 -0.071415377275627009 0 -0.0070179213243025959 -0.07144070934793316 0 -0.0070196193581352484 -0.071419138569417506 0 -0.0070261099761052929 -0.071415377275627009 0 -0.0070179213243025959 -0.07144070934793316 0 -0.0070261099761052929 -0.071415377275627009 0 -0.0070223875020811836 -0.071441975498211976 0 -0.0070179213243025959 -0.07144070934793316 0 -0.0070169140748579557 -0.071419633442066088 0 -0.0070196193581352484 -0.071419138569417506 0 -0.0070179213243025959 -0.07144070934793316 0 -0.0070223875020811836 -0.071441975498211976 0 -0.0070243353619639038 -0.071510745592787306 0 -0.007055959167506393 -0.07137400360298185 0 -0.0070223875020811836 -0.071441975498211976 0 -0.0070420926495960356 -0.071419751232166748 0 -0.007055959167506393 -0.07137400360298185 0 -0.0070261099761052929 -0.071415377275627009 0 -0.0070223875020811836 -0.071441975498211976 0 -0.0070223875020811836 -0.071441975498211976 0 -0.0070420926495960356 -0.071419751232166748 0 -0.0070225709927379046 -0.071500535182932534 0 -0.0070223875020811836 -0.071441975498211976 0 -0.0070225709927379046 -0.071500535182932534 0 -0.0070243353619639038 -0.071510745592787306 0 -0.0070225709927379046 -0.071500535182932534 0 -0.0070243353619639038 -0.071510745592787306 0 -0.0070212159113550695 -0.071615006287872748 0 -0.0070705410604322205 -0.071484169479144877 0 -0.0070243353619639038 -0.071510745592787306 0 -0.0070606165461448303 -0.071661058161991628 0 -0.0070311803248804929 -0.071464507730820234 0 -0.0070179213243025959 -0.07144070934793316 0 -0.0070243353619639038 -0.071510745592787306 0 -0.0070705410604322205 -0.071484169479144877 0 -0.0070311803248804929 -0.071464507730820234 0 -0.0070243353619639038 -0.071510745592787306 0 -0.0070212159113550695 -0.071615006287872748 0 -0.0070146079485051312 -0.071882531462457114 0 -0.0070606165461448303 -0.071661058161991628 0 -0.0070243353619639038 -0.071510745592787306 0 -0.0070212159113550695 -0.071615006287872748 0 -0.0070606165461448303 -0.071661058161991628 0 -0.0070225709927379046 -0.071500535182932534 0 -0.0070212159113550695 -0.071615006287872748 0 -0.007043103002986272 -0.071495355365879587 0 -0.0070420926495960356 -0.071419751232166748 0 -0.0070225709927379046 -0.071500535182932534 0 -0.007043103002986272 -0.071495355365879587 0 -0.0070212159113550695 -0.071615006287872748 0 -0.007043103002986272 -0.071495355365879587 0 -0.0070380232766741914 -0.071683416035746378 0 -0.007043103002986272 -0.071495355365879587 0 -0.0070380232766741914 -0.071683416035746378 0 -0.0071047380694755817 -0.071416862525001776 0 -0.0070380232766741914 -0.071683416035746378 0 -0.0071047380694755817 -0.071416862525001776 0 -0.0071292777530922481 -0.071647315653543833 0 -0.0070212159113550695 -0.071615006287872748 0 -0.0070380232766741914 -0.071683416035746378 0 -0.0070146079485051312 -0.071882531462457114 0 -0.0070380232766741914 -0.071683416035746378 0 -0.0070146079485051312 -0.071882531462457114 0 -0.0070154377181748627 -0.071989474021706648 0 -0.0071776243483060338 -0.071181594319201499 0 -0.0071807324331871532 -0.071184474316082658 0 -0.0073211869641650789 -0.070929204866973641 0 -0.0071776243483060338 -0.071181594319201499 0 -0.0071807324331871532 -0.071184474316082658 0 -0.0070923397342088582 -0.071325287599607712 0 -0.007043103002986272 -0.071495355365879587 0 -0.0070923397342088582 -0.071325287599607712 0 -0.0071047380694755817 -0.071416862525001776 0 -0.0071807324331871532 -0.071184474316082658 0 -0.0070923397342088582 -0.071325287599607712 0 -0.0071047380694755817 -0.071416862525001776 0 -0.0070420926495960356 -0.071419751232166748 0 -0.007043103002986272 -0.071495355365879587 0 -0.0070923397342088582 -0.071325287599607712 0 -0.0071807324331871532 -0.071184474316082658 0 -0.0071047380694755817 -0.071416862525001776 0 -0.0072134917137626226 -0.071252854620681802 0 -0.0071047380694755817 -0.071416862525001776 0 -0.0072134917137626226 -0.071252854620681802 0 -0.0071292777530922481 -0.071647315653543833 0 -0.0071807324331871532 -0.071184474316082658 0 -0.0072134917137626226 -0.071252854620681802 0 -0.0073685083587230948 -0.07083373870258515 0 -0.0073079253463443272 -0.071290824478373593 0 -0.0075048389897919721 -0.071034861034264735 0 -0.0073685083587230948 -0.07083373870258515 0 -0.0072134917137626226 -0.071252854620681802 0 -0.0073079253463443272 -0.071290824478373593 0 -0.0073685083587230948 -0.07083373870258515 0 -0.0073079253463443272 -0.071290824478373593 0 -0.0072710462734631998 -0.071672930233613041 0 -0.0071292777530922481 -0.071647315653543833 0 -0.0072134917137626226 -0.071252854620681802 0 -0.0073079253463443272 -0.071290824478373593 0 -0.0071292777530922481 -0.071647315653543833 0 -0.0073079253463443272 -0.071290824478373593 0 -0.0072710462734631998 -0.071672930233613041 0 -0.0075048389897919721 -0.071034861034264735 0 -0.0070154377181748627 -0.071989474021706648 0 -0.0071292777530922481 -0.071647315653543833 0 -0.007048083108556996 -0.072150202769143454 0 -0.0070154377181748627 -0.071989474021706648 0 -0.007048083108556996 -0.072150202769143454 0 -0.0069304352784597921 -0.072382336495042277 0 -0.0070380232766741914 -0.071683416035746378 0 -0.0070154377181748627 -0.071989474021706648 0 -0.0071292777530922481 -0.071647315653543833 0 -0.0072710462734631998 -0.071672930233613041 0 -0.007048083108556996 -0.072150202769143454 0 -0.0071198876408872895 -0.072230509932666373 0 -0.0072710462734631998 -0.071672930233613041 0 -0.0071292777530922481 -0.071647315653543833 0 -0.007048083108556996 -0.072150202769143454 0 -0.007048083108556996 -0.072150202769143454 0 -0.006952810052748495 -0.072682090160453947 0 -0.0069304352784597921 -0.072382336495042277 0 -0.006952810052748495 -0.072682090160453947 0 -0.0067709704273269675 -0.07345358751846226 0 -0.0069304352784597921 -0.072382336495042277 0 -0.0069304352784597921 -0.072382336495042277 0 -0.0071410309292228641 -0.071969086176697269 0 -0.0072575783554646861 -0.072519541554861219 0 -0.0067709704273269675 -0.07345358751846226 0 -0.0069304352784597921 -0.072382336495042277 0 -0.0072575783554646861 -0.072519541554861219 0 -0.0070146079485051312 -0.071882531462457114 0 -0.0070154377181748627 -0.071989474021706648 0 -0.0069304352784597921 -0.072382336495042277 0 -0.0071830159041774066 -0.071506124022516493 0 -0.0071410309292228641 -0.071969086176697269 0 -0.0075686825068015653 -0.072074659501459526 0 -0.0070146079485051312 -0.071882531462457114 0 -0.0069304352784597921 -0.072382336495042277 0 -0.0071410309292228641 -0.071969086176697269 0 -0.0071830159041774066 -0.071506124022516493 0 -0.0071410309292228641 -0.071969086176697269 0 -0.0070606165461448303 -0.071661058161991628 0 -0.0070146079485051312 -0.071882531462457114 0 -0.0071410309292228641 -0.071969086176697269 0 -0.0070606165461448303 -0.071661058161991628 0 -0.0083536467844789134 -0.071782791538283999 0 -0.007484294457268224 -0.071430141670367195 0 -0.0075686825068015653 -0.072074659501459526 0 -0.0071410309292228641 -0.071969086176697269 0 -0.0075686825068015653 -0.072074659501459526 0 -0.0072575783554646861 -0.072519541554861219 0 -0.0082304707999829134 -0.072914705288194465 0 -0.0075686825068015653 -0.072074659501459526 0 -0.0072575783554646861 -0.072519541554861219 0 -0.0082304707999829134 -0.072914705288194465 0 -0.0067709704273269675 -0.07345358751846226 0 -0.0072575783554646861 -0.072519541554861219 0 -0.0045978157692892693 -0.075977008109215677 0 -0.005130808139137492 -0.07555823708191535 0 -0.0024500879564134251 -0.077149538536358447 0 -0.0067709704273269675 -0.07345358751846226 0 -0.0050172927793129245 -0.073780642624603363 0 -0.0025297956457935658 -0.073748592520860828 0 -0.0024500879564134251 -0.077149538536358447 0 -0.0050172927793129245 -0.073780642624603363 0 -0.0050172927793129245 -0.073780642624603363 0 -0.0068102392530097599 -0.072652880366520442 0 -0.0049955593367317537 -0.072298843009982711 0 -0.0025297956457935658 -0.073748592520860828 0 -0.0050172927793129245 -0.073780642624603363 0 -0.0049955593367317537 -0.072298843009982711 0 -0.006952810052748495 -0.072682090160453947 0 -0.0068102392530097599 -0.072652880366520442 0 -0.0071198876408872895 -0.072230509932666373 0 -0.006952810052748495 -0.072682090160453947 0 -0.0067709704273269675 -0.07345358751846226 0 -0.0068102392530097599 -0.072652880366520442 0 -0.0067709704273269675 -0.07345358751846226 0 -0.0050172927793129245 -0.073780642624603363 0 -0.0068102392530097599 -0.072652880366520442 0 -0.0040527987380041706 -0.074865942497753496 0 -0.0034199613402585037 -0.074977267407067533 0 -0.0068102392530097599 -0.072652880366520442 0 -0.0070241123298047659 -0.072082627754725431 0 -0.0066803775343943486 -0.071813409672808456 0 -0.0068102392530097599 -0.072652880366520442 0 -0.0070241123298047659 -0.072082627754725431 0 -0.0071198876408872895 -0.072230509932666373 0 -0.0070241123298047659 -0.072082627754725431 0 -0.0066803775343943486 -0.071813409672808456 0 -0.0070778976884000536 -0.071744596112266468 0 -0.0068102392530097599 -0.072652880366520442 0 -0.0066803775343943486 -0.071813409672808456 0 -0.0060464654922331362 -0.071912713412120896 0 -0.0066803775343943486 -0.071813409672808456 0 -0.0060464654922331362 -0.071912713412120896 0 -0.0063897823498116919 -0.071405967105771184 0 -0.0066803775343943486 -0.071813409672808456 0 -0.0063897823498116919 -0.071405967105771184 0 -0.0069723279792232784 -0.071444921971722974 0 -0.0066803775343943486 -0.071813409672808456 0 -0.0069723279792232784 -0.071444921971722974 0 -0.0070778976884000536 -0.071744596112266468 0 -0.0055444905812192039 -0.071461651986945179 0 -0.0060464654922331362 -0.071912713412120896 0 -0.0063897823498116919 -0.071405967105771184 0 -0.0023608098992006559 -0.070367847041952938 0 -0.0025297956457935658 -0.073748592520860828 0 -0.0049955593367317537 -0.072298843009982711 0 -0.0022210667048236155 -0.075986577578872505 0 -0.0034199613402585037 -0.074977267407067533 0 -0.0055444905812192039 -0.071461651986945179 0 -0.0063897823498116919 -0.071405967105771184 0 -0.0063878644972483996 -0.070836233325187625 0 -0.0022210667048236155 -0.075986577578872505 0 -0.004779700060289235 -0.073116837226243972 0 -0.003345532549445307 -0.074918898578460305 0 -0.0029470664039457487 -0.074656742341280211 0 -0.0026580237167813229 -0.075075130118001973 0 -0.0063897823498116919 -0.071405967105771184 0 -0.0067007621782756311 -0.071101049404251257 0 -0.0063878644972483996 -0.070836233325187625 0 -0.0063897823498116919 -0.071405967105771184 0 -0.0067007621782756311 -0.071101049404251257 0 -0.0069723279792232784 -0.071444921971722974 0 -0.0057722079216264207 -0.071989258685302537 0 -0.004779700060289235 -0.073116837226243972 0 -0.0067007621782756311 -0.071101049404251257 0 -0.0063878644972483996 -0.070836233325187625 0 -0.0069071051685885409 -0.070869430414395682 0 -0.0036253382520191196 -0.06978663191740965 0 -0.0029470664039457487 -0.074656742341280211 0 -0.0026580237167813229 -0.075075130118001973 0 -0.0025086078218576869 -0.074634789324725795 0 -0.0024941802912164914 -0.074706216647309198 0 -0.0022841529615836636 -0.077976404764070875 0 -0.0012369485155732727 -0.079282799080572883 0 -0.0026580237167813229 -0.075075130118001973 0 -0.0022841529615836636 -0.077976404764070875 0 -0.0031239870741135382 -0.076512296266304208 0 -0.0026580237167813229 -0.075075130118001973 0 -0.0022841529615836636 -0.077976404764070875 0 -0.0037703024860337108 -0.077106939105486508 0 -0.0031239870741135382 -0.076512296266304208 0 -0.0038497002164555342 -0.075909948939071867 0 -0.0031239870741135382 -0.076512296266304208 0 -0.0026580237167813229 -0.075075130118001973 0 -0.0086423241857858206 -0.070055295512768387 0 -0.0076363198047691757 -0.070588289395629694 0 -0.008167375308340049 -0.071190945409238204 0 -0.0076363198047691757 -0.070588289395629694 0 -0.0069071051685885409 -0.070869430414395682 0 -0.0076452469547751666 -0.071074065350370641 0 -0.0076363198047691757 -0.070588289395629694 0 -0.0076452469547751666 -0.071074065350370641 0 -0.008167375308340049 -0.071190945409238204 0 -0.0066049873982024811 -0.070185479241183291 0 -0.0076363198047691757 -0.070588289395629694 0 -0.0069071051685885409 -0.070869430414395682 0 -0.0066049873982024811 -0.070185479241183291 0 -0.0063878644972483996 -0.070836233325187625 0 -0.0069071051685885409 -0.070869430414395682 0 -0.0069071051685885409 -0.070869430414395682 0 -0.0069831277110371107 -0.071171408040471312 0 -0.0073506139246695664 -0.071272387827736178 0 -0.0069071051685885409 -0.070869430414395682 0 -0.0073506139246695664 -0.071272387827736178 0 -0.0076452469547751666 -0.071074065350370641 0 -0.0067007621782756311 -0.071101049404251257 0 -0.0069071051685885409 -0.070869430414395682 0 -0.0069831277110371107 -0.071171408040471312 0 -0.0067007621782756311 -0.071101049404251257 0 -0.0069831277110371107 -0.071171408040471312 0 -0.0069723279792232784 -0.071444921971722974 0 -0.0069831277110371107 -0.071171408040471312 0 -0.0069723279792232784 -0.071444921971722974 0 -0.0073506139246695664 -0.071272387827736178 0 -0.0069723279792232784 -0.071444921971722974 0 -0.0073506139246695664 -0.071272387827736178 0 -0.0073387393287750423 -0.071556194781215596 0 -0.0073506139246695664 -0.071272387827736178 0 -0.0076452469547751666 -0.071074065350370641 0 -0.0077779256925864819 -0.07148823196385376 0 -0.0073506139246695664 -0.071272387827736178 0 -0.0077779256925864819 -0.07148823196385376 0 -0.0073387393287750423 -0.071556194781215596 0 -0.0076452469547751666 -0.071074065350370641 0 -0.0077779256925864819 -0.07148823196385376 0 -0.008167375308340049 -0.071190945409238204 0 -0.0077779256925864819 -0.07148823196385376 0 -0.0075270079647120373 -0.071565775473396431 0 -0.0076586568443855795 -0.07118333524892094 0 -0.0077779256925864819 -0.07148823196385376 0 -0.0075270079647120373 -0.071565775473396431 0 -0.0073387393287750423 -0.071556194781215596 0 -0.0069723279792232784 -0.071444921971722974 0 -0.0073387393287750423 -0.071556194781215596 0 -0.0070778976884000536 -0.071744596112266468 0 -0.0075270079647120373 -0.071565775473396431 0 -0.0073387393287750423 -0.071556194781215596 0 -0.0072654801187285283 -0.071829040676412104 0 -0.0070241123298047659 -0.072082627754725431 0 -0.0072654801187285283 -0.071829040676412104 0 -0.0070778976884000536 -0.071744596112266468 0 -0.0073387393287750423 -0.071556194781215596 0 -0.0072654801187285283 -0.071829040676412104 0 -0.0070778976884000536 -0.071744596112266468 0 -0.0070241123298047659 -0.072082627754725431 0 -0.0072654801187285283 -0.071829040676412104 0 -0.0071198876408872895 -0.072230509932666373 0 -0.0072654801187285283 -0.071829040676412104 0 -0.0071198876408872895 -0.072230509932666373 0 -0.0074280242824844821 -0.071613428154155043 0 -0.0075270079647120373 -0.071565775473396431 0 -0.0072654801187285283 -0.071829040676412104 0 -0.0074280242824844821 -0.071613428154155043 0 -0.0072710462734631998 -0.071672930233613041 0 -0.0071198876408872895 -0.072230509932666373 0 -0.0074280242824844821 -0.071613428154155043 0 -0.007048083108556996 -0.072150202769143454 0 -0.006952810052748495 -0.072682090160453947 0 -0.0071198876408872895 -0.072230509932666373 0 -0.0074280242824844821 -0.071613428154155043 0 -0.0076586568443855795 -0.07118333524892094 0 -0.0075048389897919721 -0.071034861034264735 0 -0.0075270079647120373 -0.071565775473396431 0 -0.0074280242824844821 -0.071613428154155043 0 -0.0076586568443855795 -0.07118333524892094 0 -0.0072710462734631998 -0.071672930233613041 0 -0.0074280242824844821 -0.071613428154155043 0 -0.0075048389897919721 -0.071034861034264735 0 -0.0076368627038513603 -0.070750306571804922 0 -0.0076586568443855795 -0.07118333524892094 0 -0.0075048389897919721 -0.071034861034264735 0 -0.0076368627038513603 -0.070750306571804922 0 -0.007317342431668419 -0.07083602193235472 0 -0.0076586568443855795 -0.07118333524892094 0 -0.0076368627038513603 -0.070750306571804922 0 -0.007317342431668419 -0.07083602193235472 0 -0.0077222298654066514 -0.070025541249717285 0 -0.007317342431668419 -0.07083602193235472 0 -0.0076586568443855795 -0.07118333524892094 0 -0.007382046130037262 -0.071493671199980374 0 -0.0097020649294139467 -0.066637218117051505 0 -0.010829706112313198 -0.068796386157744069 0 -0.0094124785765605061 -0.068000905436529632 0 -0.0074763997221681542 -0.068914070067126257 0 -0.0057421951049015079 -0.065947598754791781 0 -0.0077779256925864819 -0.07148823196385376 0 -0.0076586568443855795 -0.07118333524892094 0 -0.007382046130037262 -0.071493671199980374 0 -0.0077779256925864819 -0.07148823196385376 0 -0.008167375308340049 -0.071190945409238204 0 -0.0087809350621500405 -0.071366062501788508 0 -0.0065039693422190891 -0.067216945994928667 0 -0.0057421951049015079 -0.065947598754791781 0 -0.0057421951049015079 -0.065947598754791781 0 -0.0056141910856160769 -0.063491909842879876 0 -0.002854855920682243 -0.059685729037046095 0 -0.0027256532545181203 -0.059905910261860158 0 -0.0029446149528275446 -0.060036459569310474 0 -0.008167375308340049 -0.071190945409238204 0 -0.0087809350621500405 -0.071366062501788508 0 -0.0085919272662465379 -0.070622608942417786 0 -0.0053192576735674691 -0.065751469409449995 0 -0.0056141910856160769 -0.063491909842879876 0 -0.0086423241857858206 -0.070055295512768387 0 -0.008167375308340049 -0.071190945409238204 0 -0.0097423333983987382 -0.070247162166702834 0 -0.002497212061961978 -0.060030476916098946 0 -0.0025068460226402539 -0.059772890209006259 0 -0.0021738599235205892 -0.059851995360758324 0 -0.0048250030922589605 -0.062972123336309194 0 -0.0028319409068015677 -0.059733132887478932 0 -0.0027256532545181203 -0.059905910261860158 0 -0.002497212061961978 -0.060030476916098946 0 -0.0025068460226402539 -0.059772890209006259 0 -0.010829706112313198 -0.068796386157744069 0 -0.0091529589455311301 -0.069580452342295582 0 -0.0094124785765605061 -0.068000905436529632 0 -0.002854855920682243 -0.059685729037046095 0 -0.0027256532545181203 -0.059905910261860158 0 -0.0025068460226402539 -0.059772890209006259 0 -0.0057421951049015079 -0.065947598754791781 0 -0.0048250030922589605 -0.062972123336309194 0 -0.0091529589455311301 -0.069580452342295582 0 -0.007968871350748653 -0.068669271530269207 0 -0.0073475257655417686 -0.070422760817315896 0 -0.0091529589455311301 -0.069580452342295582 0 -0.007968871350748653 -0.068669271530269207 0 -0.0094124785765605061 -0.068000905436529632 0 -0.007968871350748653 -0.068669271530269207 0 -0.0094124785765605061 -0.068000905436529632 0 -0.0091488253148512746 -0.066886413406407871 0 -0.007968871350748653 -0.068669271530269207 0 -0.0091488253148512746 -0.066886413406407871 0 -0.0070311440131199431 -0.066358668665961018 0 -0.0097020649294139467 -0.066637218117051505 0 -0.0094124785765605061 -0.068000905436529632 0 -0.0091488253148512746 -0.066886413406407871 0 -0.0097020649294139467 -0.066637218117051505 0 -0.0091488253148512746 -0.066886413406407871 0 -0.010181104866643026 -0.065427507906626103 0 -0.0091488253148512746 -0.066886413406407871 0 -0.010181104866643026 -0.065427507906626103 0 -0.0070311440131199431 -0.066358668665961018 0 -0.010181104866643026 -0.065427507906626103 0 -0.007840115172858441 -0.060108214221763705 0 -0.007115080235014966 -0.063808553605781027 0 -0.010181104866643026 -0.065427507906626103 0 -0.01044713277760873 -0.05864039682028311 0 -0.014274039609880313 -0.056994443427659636 0 -0.0091422838460186225 -0.063674868698136974 0 -0.0089909825671031351 -0.06291868469159248 0 -0.010181104866643026 -0.065427507906626103 0 -0.01044713277760873 -0.05864039682028311 0 -0.007840115172858441 -0.060108214221763705 0 -0.01044713277760873 -0.05864039682028311 0 -0.014274039609880313 -0.056994443427659636 0 -0.011555836410278124 -0.055273182041901084 0 -0.01044713277760873 -0.05864039682028311 0 -0.0088241150672288098 -0.055927236647061757 0 -0.007840115172858441 -0.060108214221763705 0 -0.01044713277760873 -0.05864039682028311 0 -0.0088241150672288098 -0.055927236647061757 0 -0.011555836410278124 -0.055273182041901084 0 -0.010181104866643026 -0.065427507906626103 0 -0.0095469484280374921 -0.070053184016248091 0 -0.0083078306113178665 -0.068431767382154771 0 -0.0095469484280374921 -0.070053184016248091 0 -0.0083078306113178665 -0.068431767382154771 0 -0.008158415322976658 -0.070237329872061369 0 -0.0074763997221681542 -0.068914070067126257 0 -0.0078116485169598829 -0.06925874152708425 0 -0.0097020649294139467 -0.066637218117051505 0 -0.010181104866643026 -0.065427507906626103 0 -0.0083078306113178665 -0.068431767382154771 0 -0.0083078306113178665 -0.068431767382154771 0 -0.0077222298654066514 -0.070025541249717285 0 -0.0078002998107751173 -0.0698136936764958 0 -0.007317342431668419 -0.07083602193235472 0 -0.0083078306113178665 -0.068431767382154771 0 -0.0077222298654066514 -0.070025541249717285 0 -0.0077222298654066514 -0.070025541249717285 0 -0.0075048389897919721 -0.071034861034264735 0 -0.0073685083587230948 -0.07083373870258515 0 -0.0076368627038513603 -0.070750306571804922 0 -0.0077222298654066514 -0.070025541249717285 0 -0.0075048389897919721 -0.071034861034264735 0 -0.0073685083587230948 -0.07083373870258515 0 -0.0075601859300744078 -0.070379670429882704 0 -0.0073211869641650789 -0.070929204866973641 0 -0.0077222298654066514 -0.070025541249717285 0 -0.0073685083587230948 -0.07083373870258515 0 -0.0075601859300744078 -0.070379670429882704 0 -0.0075601859300744078 -0.070379670429882704 0 -0.0075087575387636982 -0.070765845384323081 0 -0.0073211869641650789 -0.070929204866973641 0 -0.0071807324331871532 -0.071184474316082658 0 -0.0073685083587230948 -0.07083373870258515 0 -0.0073211869641650789 -0.070929204866973641 0 -0.0083078306113178665 -0.068431767382154771 0 -0.0078002998107751173 -0.0698136936764958 0 -0.008158415322976658 -0.070237329872061369 0 -0.0077222298654066514 -0.070025541249717285 0 -0.0075601859300744078 -0.070379670429882704 0 -0.0078002998107751173 -0.0698136936764958 0 -0.0075601859300744078 -0.070379670429882704 0 -0.0078002998107751173 -0.0698136936764958 0 -0.0076924063592375812 -0.070681027172114483 0 -0.0075601859300744078 -0.070379670429882704 0 -0.0075087575387636982 -0.070765845384323081 0 -0.0076924063592375812 -0.070681027172114483 0 -0.0078002998107751173 -0.0698136936764958 0 -0.008158415322976658 -0.070237329872061369 0 -0.0076924063592375812 -0.070681027172114483 0 -0.008158415322976658 -0.070237329872061369 0 -0.0079400410736283258 -0.070928531181341167 0 -0.0076924063592375812 -0.070681027172114483 0 -0.008158415322976658 -0.070237329872061369 0 -0.0079400410736283258 -0.070928531181341167 0 -0.0083510816140928423 -0.071079455690931798 0 -0.0076924063592375812 -0.070681027172114483 0 -0.0076906132348486559 -0.071111817301478045 0 -0.0074489690611058189 -0.071041048541779214 0 -0.0079400410736283258 -0.070928531181341167 0 -0.0076924063592375812 -0.070681027172114483 0 -0.0076906132348486559 -0.071111817301478045 0 -0.0079400410736283258 -0.070928531181341167 0 -0.0076906132348486559 -0.071111817301478045 0 -0.0079236463026952364 -0.071255138719495889 0 -0.0076906132348486559 -0.071111817301478045 0 -0.0075130601792613039 -0.07130315092112785 0 -0.0077095293620139975 -0.071381377692701087 0 -0.0076906132348486559 -0.071111817301478045 0 -0.0079236463026952364 -0.071255138719495889 0 -0.0077095293620139975 -0.071381377692701087 0 -0.0079400410736283258 -0.070928531181341167 0 -0.0079236463026952364 -0.071255138719495889 0 -0.0083510816140928423 -0.071079455690931798 0 -0.0079236463026952364 -0.071255138719495889 0 -0.0081169915707363215 -0.071404856056086305 0 -0.0083510816140928423 -0.071079455690931798 0 -0.0071776243483060338 -0.071181594319201499 0 -0.0073211869641650789 -0.070929204866973641 0 -0.0072349897106217531 -0.07120357853707121 0 -0.0073211869641650789 -0.070929204866973641 0 -0.0072349897106217531 -0.07120357853707121 0 -0.0074489690611058189 -0.071041048541779214 0 -0.0075087575387636982 -0.070765845384323081 0 -0.0076924063592375812 -0.070681027172114483 0 -0.0074489690611058189 -0.071041048541779214 0 -0.0075087575387636982 -0.070765845384323081 0 -0.0073211869641650789 -0.070929204866973641 0 -0.0074489690611058189 -0.071041048541779214 0 -0.0074489690611058189 -0.071041048541779214 0 -0.0075130601792613039 -0.07130315092112785 0 -0.0073419538369802247 -0.071300549562685139 0 -0.0076906132348486559 -0.071111817301478045 0 -0.0074489690611058189 -0.071041048541779214 0 -0.0075130601792613039 -0.07130315092112785 0 -0.0072349897106217531 -0.07120357853707121 0 -0.0074489690611058189 -0.071041048541779214 0 -0.0073419538369802247 -0.071300549562685139 0 -0.0072064978110466561 -0.071369402616047226 0 -0.0072349897106217531 -0.07120357853707121 0 -0.0073419538369802247 -0.071300549562685139 0 -0.0050158585975429958 -0.074822748962346683 0 -0.0058360690326267105 -0.069105026639274925 0 -0.0070989305933432841 -0.071578333689378396 0 -0.0075506980124581229 -0.071684606251207511 0 -0.0073842908585760461 -0.071586611424116792 0 -0.0014938183426631666 -0.084280644569647928 0 -0.0018007924078531305 -0.084338337198743077 0 -0.0015556578353786506 -0.084358760327035598 0 -0.0070989305933432841 -0.071578333689378396 0 -0.0075506980124581229 -0.071684606251207511 0 -0.0078202512507494753 -0.071921466074736956 0 -0.0072513116317244148 -0.071517595253565047 0 -0.0072935642025910288 -0.071429592129364963 0 -0.0073627043404831637 -0.071506662474078261 0 -0.0072086122069384478 -0.071454953636612403 0 -0.0072513116317244148 -0.071517595253565047 0 -0.0072935642025910288 -0.071429592129364963 0 -0.0072086122069384478 -0.071454953636612403 0 -0.0072064978110466561 -0.071369402616047226 0 -0.0072935642025910288 -0.071429592129364963 0 -0.0072064978110466561 -0.071369402616047226 0 -0.0073419538369802247 -0.071300549562685139 0 -0.0072935642025910288 -0.071429592129364963 0 -0.0073419538369802247 -0.071300549562685139 0 -0.0072935642025910288 -0.071429592129364963 0 -0.007421044246966795 -0.071436065383252395 0 -0.0072513116317244148 -0.071517595253565047 0 -0.0073627043404831637 -0.071506662474078261 0 -0.0073842908585760461 -0.071586611424116792 0 -0.0072935642025910288 -0.071429592129364963 0 -0.0073627043404831637 -0.071506662474078261 0 -0.007421044246966795 -0.071436065383252395 0 -0.0073627043404831637 -0.071506662474078261 0 -0.0074445314147037469 -0.071530161896286373 0 -0.0073842908585760461 -0.071586611424116792 0 -0.0074445314147037469 -0.071530161896286373 0 -0.007421044246966795 -0.071436065383252395 0 -0.0075509676850672959 -0.07152284077105131 0 -0.0074445314147037469 -0.071530161896286373 0 -0.0075509676850672959 -0.07152284077105131 0 -0.0075103661491329873 -0.071596927936233956 0 -0.0073627043404831637 -0.071506662474078261 0 -0.0074445314147037469 -0.071530161896286373 0 -0.007421044246966795 -0.071436065383252395 0 -0.0075130601792613039 -0.07130315092112785 0 -0.0073419538369802247 -0.071300549562685139 0 -0.007421044246966795 -0.071436065383252395 0 -0.0075130601792613039 -0.07130315092112785 0 -0.007421044246966795 -0.071436065383252395 0 -0.0075509676850672959 -0.07152284077105131 0 -0.0075130601792613039 -0.07130315092112785 0 -0.0075509676850672959 -0.07152284077105131 0 -0.0077095293620139975 -0.071381377692701087 0 -0.0076034113367007472 -0.071619365101436891 0 -0.0075506980124581229 -0.071684606251207511 0 -0.0076778093294331395 -0.071668971349712174 0 -0.0075509676850672959 -0.07152284077105131 0 -0.0076034113367007472 -0.071619365101436891 0 -0.0077273487731773609 -0.071584487315173639 0 -0.0075509676850672959 -0.07152284077105131 0 -0.0076034113367007472 -0.071619365101436891 0 -0.0075103661491329873 -0.071596927936233956 0 -0.0076034113367007472 -0.071619365101436891 0 -0.0075506980124581229 -0.071684606251207511 0 -0.0075103661491329873 -0.071596927936233956 0 -0.0075506980124581229 -0.071684606251207511 0 -0.0075103661491329873 -0.071596927936233956 0 -0.0073842908585760461 -0.071586611424116792 0 -0.0074445314147037469 -0.071530161896286373 0 -0.0075103661491329873 -0.071596927936233956 0 -0.0073842908585760461 -0.071586611424116792 0 -0.0070989305933432841 -0.071578333689378396 0 -0.0072513116317244148 -0.071517595253565047 0 -0.0073842908585760461 -0.071586611424116792 0 -0.0080769603083749742 -0.07161555659120844 0 -0.0083834644472537394 -0.071375349108428382 0 -0.0080705039433734572 -0.071996771321225339 0 -0.0081169915707363215 -0.071404856056086305 0 -0.0080769603083749742 -0.07161555659120844 0 -0.0083834644472537394 -0.071375349108428382 0 -0.0078890726232828754 -0.071487762398299431 0 -0.0078704984604157924 -0.071644559689043291 0 -0.0080769603083749742 -0.07161555659120844 0 -0.0081169915707363215 -0.071404856056086305 0 -0.0078890726232828754 -0.071487762398299431 0 -0.0080769603083749742 -0.07161555659120844 0 -0.0079236463026952364 -0.071255138719495889 0 -0.0081169915707363215 -0.071404856056086305 0 -0.0078890726232828754 -0.071487762398299431 0 -0.0079236463026952364 -0.071255138719495889 0 -0.0077095293620139975 -0.071381377692701087 0 -0.0078890726232828754 -0.071487762398299431 0 -0.0075509676850672959 -0.07152284077105131 0 -0.0077095293620139975 -0.071381377692701087 0 -0.0077273487731773609 -0.071584487315173639 0 -0.0077095293620139975 -0.071381377692701087 0 -0.0078890726232828754 -0.071487762398299431 0 -0.0077273487731773609 -0.071584487315173639 0 -0.0078890726232828754 -0.071487762398299431 0 -0.0078704984604157924 -0.071644559689043291 0 -0.0077273487731773609 -0.071584487315173639 0 -0.0078704984604157924 -0.071644559689043291 0 -0.007770891808571689 -0.07167796314534626 0 -0.0077273487731773609 -0.071584487315173639 0 -0.0075506980124581229 -0.071684606251207511 0 -0.0077478289370488127 -0.071766720437701173 0 -0.0078202512507494753 -0.071921466074736956 0 -0.0078704984604157924 -0.071644559689043291 0 -0.007770891808571689 -0.07167796314534626 0 -0.0078426765456018795 -0.07174862315837241 0 -0.0076034113367007472 -0.071619365101436891 0 -0.0077273487731773609 -0.071584487315173639 0 -0.0076778093294331395 -0.071668971349712174 0 -0.007770891808571689 -0.07167796314534626 0 -0.0077273487731773609 -0.071584487315173639 0 -0.0076778093294331395 -0.071668971349712174 0 -0.0075506980124581229 -0.071684606251207511 0 -0.0076778093294331395 -0.071668971349712174 0 -0.0077478289370488127 -0.071766720437701173 0 -0.007770891808571689 -0.07167796314534626 0 -0.0076778093294331395 -0.071668971349712174 0 -0.0077478289370488127 -0.071766720437701173 0 -0.0078704984604157924 -0.071644559689043291 0 -0.0078426765456018795 -0.07174862315837241 0 -0.0079348599375022328 -0.071783003420443081 0 -0.0077478289370488127 -0.071766720437701173 0 -0.0078426765456018795 -0.07174862315837241 0 -0.0078202512507494753 -0.071921466074736956 0 -0.0078426765456018795 -0.07174862315837241 0 -0.0079348599375022328 -0.071783003420443081 0 -0.0078202512507494753 -0.071921466074736956 0 -0.007770891808571689 -0.07167796314534626 0 -0.0077478289370488127 -0.071766720437701173 0 -0.0078426765456018795 -0.07174862315837241 0 -0.0079348599375022328 -0.071783003420443081 0 -0.0080769603083749742 -0.07161555659120844 0 -0.0080705039433734572 -0.071996771321225339 0 -0.0078704984604157924 -0.071644559689043291 0 -0.0079348599375022328 -0.071783003420443081 0 -0.0080769603083749742 -0.07161555659120844 0 -0.0074655515684396651 -0.062381264905875727 0 -0.0052976272228656982 -0.065127541004662656 0 -0.015832418319874857 -0.050886030912758624 0 -0.012507461849312214 -0.048334471574723453 0 -0.01321325085901962 -0.052790975577335503 0 -0.0074655515684396651 -0.062381264905875727 0 -0.0056357875685119742 -0.05877895468445609 0 -0.015832418319874857 -0.050886030912758624 0 -0.012507461849312214 -0.048334471574723453 0 -0.012228455541328629 -0.04427291423556403 0 -0.01321325085901962 -0.052790975577335503 0 -0.010809419165876206 -0.04423633209080928 0 -0.0090309707441386874 -0.047139321572123465 0 -0.012507461849312214 -0.048334471574723453 0 -0.01321325085901962 -0.052790975577335503 0 -0.0087113002055963385 -0.045284929327274112 0 -0.01321325085901962 -0.052790975577335503 0 -0.0090309707441386874 -0.047139321572123465 0 -0.0087404974033727569 -0.050047541711672187 0 -0.01059300732863654 -0.048298889513264172 0 -0.0089097969006411981 -0.044458490836412262 0 -0.01321325085901962 -0.052790975577335503 0 -0.0098758838955619686 -0.053259466572953107 0 -0.0087404974033727569 -0.050047541711672187 0 -0.0088241150672288098 -0.055927236647061757 0 -0.0098758838955619686 -0.053259466572953107 0 -0.011555836410278124 -0.055273182041901084 0 -0.014274039609880313 -0.056994443427659636 0 -0.01321325085901962 -0.052790975577335503 0 -0.011555836410278124 -0.055273182041901084 0 -0.01321325085901962 -0.052790975577335503 0 -0.0098758838955619686 -0.053259466572953107 0 -0.011555836410278124 -0.055273182041901084 0 -0.0089909825671031351 -0.06291868469159248 0 -0.0074655515684396651 -0.062381264905875727 0 -0.014274039609880313 -0.056994443427659636 0 -0.015832418319874857 -0.050886030912758624 0 -0.01321325085901962 -0.052790975577335503 0 -0.0095469484280374921 -0.070053184016248091 0 -0.00865300921473958 -0.071878147259404557 0 -0.0083510816140928423 -0.071079455690931798 0 -0.0095469484280374921 -0.070053184016248091 0 -0.008158415322976658 -0.070237329872061369 0 -0.0083510816140928423 -0.071079455690931798 0 -0.0081169915707363215 -0.071404856056086305 0 -0.0083834644472537394 -0.071375349108428382 0 -0.0083510816140928423 -0.071079455690931798 0 -0.0074655515684396651 -0.062381264905875727 0 -0.0078120508257005792 -0.06350152315780154 0 -0.0029295244783962161 -0.06206288663127435 0 -0.0029152990648765738 -0.062107520552579114 0 -0.0028721288043016707 -0.062020597012172773 0 -0.0029295244783962161 -0.06206288663127435 0 -0.0029078451859793674 -0.062022188048934154 0 -0.0028721288043016707 -0.062020597012172773 0 -0.0029295244783962161 -0.06206288663127435 0 -0.0029152990648765738 -0.062107520552579114 0 -0.0029385114028025248 -0.062093085849988086 0 -0.0029295244783962161 -0.06206288663127435 0 -0.0029385114028025248 -0.062093085849988086 0 -0.0029564237237069335 -0.062085983834918666 0 -0.0029295244783962161 -0.06206288663127435 0 -0.0029575411751321238 -0.062059507507406832 0 -0.0029441155533352762 -0.062031446625881816 0 -0.0029295244783962161 -0.06206288663127435 0 -0.0029078451859793674 -0.062022188048934154 0 -0.0029441155533352762 -0.062031446625881816 0 -0.0029295244783962161 -0.06206288663127435 0 -0.0029564237237069335 -0.062085983834918666 0 -0.0029575411751321238 -0.062059507507406832 0 -0.008365137056041215 -0.043834584361314169 0 -0.0087113002055963385 -0.045284929327274112 0 -0.0050650049093479491 -0.039414855386346148 0 -0.0056357875685119742 -0.05877895468445609 0 -0.0029889875382829978 -0.053272708885076056 0 -0.008365137056041215 -0.043834584361314169 0 -0.0079284285246373643 -0.039664773537186344 0 -0.0050650049093479491 -0.039414855386346148 0 -0.008365137056041215 -0.043834584361314169 0 -0.010732043472527352 -0.044526740827517029 0 -0.0079284285246373643 -0.039664773537186344 0 -0.0089097969006411981 -0.044458490836412262 0 -0.0060358250954432721 -0.038687231336077973 0 -0.008365137056041215 -0.043834584361314169 0 -0.0087113002055963385 -0.045284929327274112 0 -0.012228455541328629 -0.04427291423556403 0 -0.0058298491030185475 -0.058014867204093636 0 -0.0056357875685119742 -0.05877895468445609 0 -0.010809419165876206 -0.04423633209080928 0 -0.0090309707441386874 -0.047139321572123465 0 -0.0078515283756611688 -0.044318183487113597 0 -0.012507461849312214 -0.048334471574723453 0 -0.0087113002055963385 -0.045284929327274112 0 -0.012228455541328629 -0.04427291423556403 0 -0.0077240967014934837 -0.062731396853007215 0 -0.007314163892518313 -0.061699029967869863 0 -0.0080479072605437602 -0.061916890232612702 0 -0.0029152990648765738 -0.062107520552579114 0 -0.0029385114028025248 -0.062093085849988086 0 -0.0029617884965446313 -0.062120238067712309 0 -0.0056357875685119742 -0.05877895468445609 0 -0.0052976272228656982 -0.065127541004662656 0 -0.0029385114028025248 -0.062093085849988086 0 -0.0029617884965446313 -0.062120238067712309 0 -0.0029564237237069335 -0.062085983834918666 0 -0.002898592916811727 -0.062358061491173719 0 -0.0029815301209861035 -0.062381507949775719 0 -0.0029874137734021596 -0.062081042433894285 0 -0.0058360690326267105 -0.069105026639274925 0 -0.001856441269919226 -0.070879347153458172 0 -0.0052976272228656982 -0.065127541004662656 0 -0.0058360690326267105 -0.069105026639274925 0 -0.0079348599375022328 -0.071783003420443081 0 -0.0080705039433734572 -0.071996771321225339 0 -0.0078202512507494753 -0.071921466074736956 0 -0.0018007924078531305 -0.084338337198743077 0 -0.0015556578353786506 -0.084358760327035598 0 -0.0016375239294525183 -0.084453610154671413 0 -0.0018007924078531305 -0.084338337198743077 0 -0.0016375239294525183 -0.084453610154671413 0 -0.0016619922248015139 -0.084638942408071349 0 -0.0015556578353786506 -0.084358760327035598 0 -0.0016375239294525183 -0.084453610154671413 0 -0.0015333210091872549 -0.084485515845934084 0 -0.0016375239294525183 -0.084453610154671413 0 -0.0016619922248015139 -0.084638942408071349 0 -0.0015333210091872549 -0.084485515845934084 0 -0.0016619922248015139 -0.084638942408071349 0 -0.0014220133827137591 -0.084586657250307756 0 -0.0015333210091872549 -0.084485515845934084 0 -0.0052976272228656982 -0.065127541004662656 0 -0.0050824514140073596 -0.063821063475571788 0 -0.0029617884965446313 -0.062120238067712309 0 -0.0029564237237069335 -0.062085983834918666 0 -0.0029874137734021596 -0.062081042433894285 0 -0.0029815301209861035 -0.062381507949775719 0 -0.0030551537042206242 -0.062083043423474663 0 -0.0029874137734021596 -0.062081042433894285 0 -0.0030551537042206242 -0.062083043423474663 0 -0.0029874137734021596 -0.062081042433894285 0 -0.0029923148448025546 -0.062031200058559714 0 -0.0029874137734021596 -0.062081042433894285 0 -0.0029575411751321238 -0.062059507507406832 0 -0.0029923148448025546 -0.062031200058559714 0 -0.0029564237237069335 -0.062085983834918666 0 -0.0029874137734021596 -0.062081042433894285 0 -0.0029575411751321238 -0.062059507507406832 0 -0.0029575411751321238 -0.062059507507406832 0 -0.0029923148448025546 -0.062031200058559714 0 -0.0029441155533352762 -0.062031446625881816 0 -0.0029923148448025546 -0.062031200058559714 0 -0.0030757405517007935 -0.061960454956209221 0 -0.0029570430326710689 -0.061980950118109238 0 -0.0029923148448025546 -0.062031200058559714 0 -0.0029570430326710689 -0.061980950118109238 0 -0.0029441155533352762 -0.062031446625881816 0 -0.0030551537042206242 -0.062083043423474663 0 -0.0029923148448025546 -0.062031200058559714 0 -0.0030757405517007935 -0.061960454956209221 0 -0.0016619922248015139 -0.084638942408071349 0 -0.0015379096251863841 -0.084901140766307157 0 -0.0014210603684615881 -0.084770319653887344 0 -0.001856441269919226 -0.070879347153458172 0 -0.00025568255582969962 -0.064644254438281645 0 -0.00025568255582969962 -0.064644254438281645 0 -0.0017690828329496068 -0.05767664138627715 0 -0.00023325492223675611 -0.049973311099598995 0 -0.00078652037293530631 -0.050048554730409804 0 -0.00079265822014779475 -0.050271326447483416 0 -0.00078652037293530631 -0.050048554730409804 0 -0.00074802986224689724 -0.050086859267455125 0 -0.00079265822014779475 -0.050271326447483416 0 -0.00078652037293530631 -0.050048554730409804 0 -0.00074802986224689724 -0.050086859267455125 0 -0.00073964197693342768 -0.050309548692944045 0 -0.00074802986224689724 -0.050086859267455125 0 -0.00060610819695001582 -0.050100170104660481 0 -0.00066914971475607221 -0.050137868987668616 0 -0.0029570430326710689 -0.061980950118109238 0 -0.0029078451859793674 -0.062022188048934154 0 -0.0028582580735416279 -0.061982147106861021 0 -0.0017690828329496068 -0.05767664138627715 0 -0.0019370892655041095 -0.052216185752822226 0 -0.0029570430326710689 -0.061980950118109238 0 -0.0029078451859793674 -0.062022188048934154 0 -0.0029441155533352762 -0.062031446625881816 0 -0.0079284285246373643 -0.039664773537186344 0 -0.0065855372527120386 -0.037883138470215946 0 -0.0050650049093479491 -0.039414855386346148 0 -0.0029889875382829978 -0.053272708885076056 0 -0.0019370892655041095 -0.052216185752822226 0 -0.0029078451859793674 -0.062022188048934154 0 -0.0028721288043016707 -0.062020597012172773 0 -0.0028582580735416279 -0.061982147106861021 0 -0.00078385648153890672 -0.049982556870334302 0 -0.0010250782017324326 -0.045367386569765702 0 5.7978836986175375e-05 -0.049386343586545492 0 -0.00073964197693342768 -0.050309548692944045 0 -0.00078385648153890672 -0.049982556870334302 0 5.7978836986175375e-05 -0.049386343586545492 0 -0.00074802986224689724 -0.050086859267455125 0 -0.00073964197693342768 -0.050309548692944045 0 -0.00078385648153890672 -0.049982556870334302 0 -0.0019370892655041095 -0.052216185752822226 0 -0.0010145680178639542 -0.04624317341206325 0 -0.00078385648153890672 -0.049982556870334302 0 -0.00060610819695001582 -0.050100170104660481 0 -0.00033908287509026505 -0.050092510216924131 0 -0.00074802986224689724 -0.050086859267455125 0 -0.00078385648153890672 -0.049982556870334302 0 -0.00060610819695001582 -0.050100170104660481 0 -0.00068167794569474452 -0.047809182685401339 0 -0.00050216986430130252 -0.046662936438046178 0 -0.00078385648153890672 -0.049982556870334302 0 -0.00033908287509026505 -0.050092510216924131 0 0.00024005927550725475 -0.050071773779246098 0 -0.00060610819695001582 -0.050100170104660481 0 -0.00033908287509026505 -0.050092510216924131 0 -0.00066914971475607221 -0.050137868987668616 0 -0.00033908287509026505 -0.050092510216924131 0 -0.00066914971475607221 -0.050137868987668616 0 -0.00039842552080517356 -0.049834429390200392 0 -0.00033908287509026505 -0.050092510216924131 0 0.00024005927550725475 -0.050071773779246098 0 -0.00039842552080517356 -0.049834429390200392 0 -0.00066914971475607221 -0.050137868987668616 0 -0.00076904820531210135 -0.050072770103535676 0 -0.00079265822014779475 -0.050271326447483416 0 -0.00074802986224689724 -0.050086859267455125 0 -0.00066914971475607221 -0.050137868987668616 0 -0.00079265822014779475 -0.050271326447483416 0 -0.00066914971475607221 -0.050137868987668616 0 -0.00076904820531210135 -0.050072770103535676 0 -0.00039842552080517356 -0.049834429390200392 0 -0.00076904820531210135 -0.050072770103535676 0 -0.00063493304513330536 -0.049348885531397303 0 -0.00090221592299408453 -0.050451540708406815 0 -0.00076904820531210135 -0.050072770103535676 0 -0.00063493304513330536 -0.049348885531397303 0 -0.00039842552080517356 -0.049834429390200392 0 0.00024005927550725475 -0.050071773779246098 0 5.791293754911845e-05 -0.04886225521038616 0 0.0014680552167891615 -0.047557552453922132 0 0.00024005927550725475 -0.050071773779246098 0 -0.00039842552080517356 -0.049834429390200392 0 5.791293754911845e-05 -0.04886225521038616 0 -0.00063493304513330536 -0.049348885531397303 0 -0.00039842552080517356 -0.049834429390200392 0 5.791293754911845e-05 -0.04886225521038616 0 -0.00063493304513330536 -0.049348885531397303 0 5.791293754911845e-05 -0.04886225521038616 0 -0.00016337480549172826 -0.046761451626731301 0 5.791293754911845e-05 -0.04886225521038616 0 -0.00016337480549172826 -0.046761451626731301 0 0.0014680552167891615 -0.047557552453922132 0 -0.00063493304513330536 -0.049348885531397303 0 -0.00016337480549172826 -0.046761451626731301 0 -0.00062314343561325472 -0.04918871069340728 0 -0.00063493304513330536 -0.049348885531397303 0 -0.00062314343561325472 -0.04918871069340728 0 -0.00090221592299408453 -0.050451540708406815 0 -2.4212495641042029e-06 -0.045341605129559384 0 -1.3130686291481228e-06 -0.050016850197762287 0 -0.00062314343561325472 -0.04918871069340728 0 -0.00016337480549172826 -0.046761451626731301 0 -2.4212495641042029e-06 -0.045341605129559384 0 -0.00062314343561325472 -0.04918871069340728 0 -0.00016337480549172826 -0.046761451626731301 0 -2.4212495641042029e-06 -0.045341605129559384 0 5.8604231929457141e-06 -0.040674575367695136 0 -1.3130686291481228e-06 -0.050016850197762287 0 -0.00060628445174750226 -0.052430799481133196 0 7.6380879880196226e-07 -0.054691126942655738 0 -1.3130686291481228e-06 -0.050016850197762287 0 -0.00062314343561325472 -0.04918871069340728 0 -0.00060628445174750226 -0.052430799481133196 0 -0.00062314343561325472 -0.04918871069340728 0 -0.00060628445174750226 -0.052430799481133196 0 -0.00090221592299408453 -0.050451540708406815 0 -0.00060628445174750226 -0.052430799481133196 0 -0.00053030343661675109 -0.050725627052792523 0 0.0004746302539884496 -0.051191107733319134 0 -0.00060628445174750226 -0.052430799481133196 0 -0.00090221592299408453 -0.050451540708406815 0 -0.00053030343661675109 -0.050725627052792523 0 -0.00090221592299408453 -0.050451540708406815 0 -0.00079265822014779475 -0.050271326447483416 0 -0.00053030343661675109 -0.050725627052792523 0 -0.00076904820531210135 -0.050072770103535676 0 -0.00090221592299408453 -0.050451540708406815 0 -0.00079265822014779475 -0.050271326447483416 0 -0.00023325492223675611 -0.049973311099598995 0 -0.00079265822014779475 -0.050271326447483416 0 -0.00053030343661675109 -0.050725627052792523 0 0.0039813310774211852 -0.064764662047624322 0 0.0028882539608472871 -0.061974178058107406 0 0.00099916683692116378 -0.064146882084090154 0 -0.00023325492223675611 -0.049973311099598995 0 -0.00053030343661675109 -0.050725627052792523 0 0.0004746302539884496 -0.051191107733319134 0 -0.00025568255582969962 -0.064644254438281645 0 -0.00034391377872365712 -0.058466578369152769 0 0.0028882539608472871 -0.061974178058107406 0 -0.00010316210598619652 -0.06154548975972049 0 0.00099916683692116378 -0.064146882084090154 0 -0.00034391377872365712 -0.058466578369152769 0 -0.00022206333365891234 -0.057373026896249291 0 0.0028882539608472871 -0.061974178058107406 0 0.00085844512252045808 -0.056949009516328634 0 -0.00010316210598619652 -0.06154548975972049 0 -0.00060628445174750226 -0.052430799481133196 0 0.0004746302539884496 -0.051191107733319134 0 0.00085844512252045808 -0.056949009516328634 0 0.00085844512252045808 -0.056949009516328634 0 7.6380879880196226e-07 -0.054691126942655738 0 1.104585974087256e-07 -0.059364976851095846 0 -0.00060628445174750226 -0.052430799481133196 0 0.00085844512252045808 -0.056949009516328634 0 7.6380879880196226e-07 -0.054691126942655738 0 1.104585974087256e-07 -0.059364976851095846 0 -0.00026185405685816602 -0.059855454029332483 0 -1.1127290341418939e-06 -0.064038881185763757 0 0.00085844512252045808 -0.056949009516328634 0 1.104585974087256e-07 -0.059364976851095846 0 -0.00026185405685816602 -0.059855454029332483 0 -0.00026185405685816602 -0.059855454029332483 0 -0.000865320445711866 -0.062062993922020401 0 -0.00010316210598619652 -0.06154548975972049 0 0.00085844512252045808 -0.056949009516328634 0 -0.00026185405685816602 -0.059855454029332483 0 -0.00010316210598619652 -0.06154548975972049 0 -0.00026185405685816602 -0.059855454029332483 0 -0.000865320445711866 -0.062062993922020401 0 -1.1127290341418939e-06 -0.064038881185763757 0 -0.000865320445711866 -0.062062993922020401 0 -0.0010845831486713581 -0.063364786561346517 0 -0.0011329352758799652 -0.063313193249970812 0 -0.000865320445711866 -0.062062993922020401 0 -0.00010316210598619652 -0.06154548975972049 0 -0.0010845831486713581 -0.063364786561346517 0 -0.00010316210598619652 -0.06154548975972049 0 -0.0010845831486713581 -0.063364786561346517 0 0.00099916683692116378 -0.064146882084090154 0 -0.00093422429174610654 -0.085076516568746263 0 -0.0010134395698463228 -0.08484217718520555 0 -0.00074746341096747486 -0.084951223285003027 0 -0.00089111702871155231 -0.084829268394890384 0 -0.00076563432180242678 -0.084769976254712415 0 -0.0010134395698463228 -0.08484217718520555 0 -0.0010331346287181221 -0.084695653673015583 0 -0.00082709882269143805 -0.0847075675720107 0 -0.0010134395698463228 -0.08484217718520555 0 -0.0012446797113213953 -0.084737801912965677 0 -0.0010331346287181221 -0.084695653673015583 0 -0.0010134395698463228 -0.08484217718520555 0 -0.0012418420074887953 -0.084987050845278939 0 -0.0012446797113213953 -0.084737801912965677 0 -0.00093422429174610654 -0.085076516568746263 0 -0.0010134395698463228 -0.08484217718520555 0 -0.0012418420074887953 -0.084987050845278939 0 -0.00049847088576680429 -0.073363818192813637 0 0.000303170158781189 -0.070505409923990958 0 -0.00025568255582969962 -0.064644254438281645 0 0.000303170158781189 -0.070505409923990958 0 -0.0015379096251863841 -0.084901140766307157 0 -0.0012418420074887953 -0.084987050845278939 0 -0.0014210603684615881 -0.084770319653887344 0 -0.0012418420074887953 -0.084987050845278939 0 -0.0014210603684615881 -0.084770319653887344 0 -0.0012446797113213953 -0.084737801912965677 0 -0.0012446797113213953 -0.084737801912965677 0 -0.0012783931201397203 -0.084585817003997865 0 -0.001149666337903415 -0.084588604335894366 0 -0.0012446797113213953 -0.084737801912965677 0 -0.0012783931201397203 -0.084585817003997865 0 -0.0014220133827137591 -0.084586657250307756 0 -0.0012783931201397203 -0.084585817003997865 0 -0.0014220133827137591 -0.084586657250307756 0 -0.0013444413242129059 -0.084473651992831453 0 -0.0012783931201397203 -0.084585817003997865 0 -0.0012443408121127467 -0.084519633119430101 0 -0.001149666337903415 -0.084588604335894366 0 -0.0014210603684615881 -0.084770319653887344 0 -0.0012446797113213953 -0.084737801912965677 0 -0.0014220133827137591 -0.084586657250307756 0 -0.0016619922248015139 -0.084638942408071349 0 -0.0014210603684615881 -0.084770319653887344 0 -0.0014220133827137591 -0.084586657250307756 0 -0.0014220133827137591 -0.084586657250307756 0 -0.0015333210091872549 -0.084485515845934084 0 -0.0014404146976665665 -0.084469009604509038 0 -0.0015333210091872549 -0.084485515845934084 0 -0.0014404146976665665 -0.084469009604509038 0 -0.0014859497687906261 -0.084397066320169564 0 -0.0014220133827137591 -0.084586657250307756 0 -0.0014404146976665665 -0.084469009604509038 0 -0.0013444413242129059 -0.084473651992831453 0 -0.0014404146976665665 -0.084469009604509038 0 -0.0014167548121345828 -0.084401405777083771 0 -0.0013444413242129059 -0.084473651992831453 0 -0.0013589870945392233 -0.084389960756261553 0 -0.0014167548121345828 -0.084401405777083771 0 -0.0013444413242129059 -0.084473651992831453 0 -0.0013589870945392233 -0.084389960756261553 0 -0.0013937984934868212 -0.084371650518460628 0 -0.0014167548121345828 -0.084401405777083771 0 -0.0014561934737477515 -0.08433369742928376 0 -0.0013937984934868212 -0.084371650518460628 0 -0.0014167548121345828 -0.084401405777083771 0 -0.0015556578353786506 -0.084358760327035598 0 -0.0015333210091872549 -0.084485515845934084 0 -0.0014859497687906261 -0.084397066320169564 0 -0.0014404146976665665 -0.084469009604509038 0 -0.0014167548121345828 -0.084401405777083771 0 -0.0014859497687906261 -0.084397066320169564 0 -0.0014561934737477515 -0.08433369742928376 0 -0.0014167548121345828 -0.084401405777083771 0 -0.0014859497687906261 -0.084397066320169564 0 -0.0014980583654289493 -0.084343094626191231 0 -0.0014561934737477515 -0.08433369742928376 0 -0.0014859497687906261 -0.084397066320169564 0 -0.0014980583654289493 -0.084343094626191231 0 -0.0015556578353786506 -0.084358760327035598 0 -0.0014859497687906261 -0.084397066320169564 0 -0.0012443408121127467 -0.084519633119430101 0 -0.0012687793905889291 -0.08445043974849567 0 -0.0011849715459421911 -0.084498244235407138 0 -0.0012783931201397203 -0.084585817003997865 0 -0.0012443408121127467 -0.084519633119430101 0 -0.0013444413242129059 -0.084473651992831453 0 -0.0012443408121127467 -0.084519633119430101 0 -0.0013444413242129059 -0.084473651992831453 0 -0.0012687793905889291 -0.08445043974849567 0 -0.0013589870945392233 -0.084389960756261553 0 -0.0013444413242129059 -0.084473651992831453 0 -0.0013192032503557554 -0.084429852885921461 0 -0.0013444413242129059 -0.084473651992831453 0 -0.0013192032503557554 -0.084429852885921461 0 -0.0012687793905889291 -0.08445043974849567 0 -0.0013589870945392233 -0.084389960756261553 0 -0.0013192032503557554 -0.084429852885921461 0 -0.0013024713781498091 -0.084401959325338227 0 -0.0013192032503557554 -0.084429852885921461 0 -0.0013024713781498091 -0.084401959325338227 0 -0.0012687793905889291 -0.08445043974849567 0 -0.001247856417256358 -0.08440270530454988 0 -0.0012687793905889291 -0.08445043974849567 0 -0.0012142481720569095 -0.084437677674143813 0 -0.0012687793905889291 -0.08445043974849567 0 -0.0012142481720569095 -0.084437677674143813 0 -0.0011849715459421911 -0.084498244235407138 0 -0.001247856417256358 -0.08440270530454988 0 -0.0013024713781498091 -0.084401959325338227 0 -0.0012687793905889291 -0.08445043974849567 0 -0.0010893978121883691 -0.084502926810182302 0 -0.00098968073371309109 -0.084602359525678975 0 -0.001149666337903415 -0.084588604335894366 0 -0.0011643003235181869 -0.084434029893764972 0 -0.0012142481720569095 -0.084437677674143813 0 -0.0011849715459421911 -0.084498244235407138 0 -0.0011643003235181869 -0.084434029893764972 0 -0.0011849715459421911 -0.084498244235407138 0 -0.0010893978121883691 -0.084502926810182302 0 -0.0011849715459421911 -0.084498244235407138 0 -0.0010893978121883691 -0.084502926810182302 0 -0.001149666337903415 -0.084588604335894366 0 -0.0012443408121127467 -0.084519633119430101 0 -0.0011849715459421911 -0.084498244235407138 0 -0.001149666337903415 -0.084588604335894366 0 -0.0010939909996818711 -0.084430952113299831 0 -0.0011643003235181869 -0.084434029893764972 0 -0.0010893978121883691 -0.084502926810182302 0 -0.00096943768235513601 -0.084476760716120619 0 -0.0010893978121883691 -0.084502926810182302 0 -0.00098968073371309109 -0.084602359525678975 0 -0.00096943768235513601 -0.084476760716120619 0 -0.00098968073371309109 -0.084602359525678975 0 -0.00082709882269143805 -0.0847075675720107 0 -0.00096943768235513601 -0.084476760716120619 0 -0.0010939909996818711 -0.084430952113299831 0 -0.0010893978121883691 -0.084502926810182302 0 -0.00098968073371309109 -0.084602359525678975 0 -0.0010331346287181221 -0.084695653673015583 0 -0.00082709882269143805 -0.0847075675720107 0 -0.00098968073371309109 -0.084602359525678975 0 -0.0010331346287181221 -0.084695653673015583 0 -0.001149666337903415 -0.084588604335894366 0 -0.0012446797113213953 -0.084737801912965677 0 -0.0010331346287181221 -0.084695653673015583 0 -0.001149666337903415 -0.084588604335894366 0 -0.00076563432180242678 -0.084769976254712415 0 -0.00056680963226831739 -0.08468399338818805 0 -0.00070913688514521187 -0.084781726113771272 0 -0.00049492305522971748 -0.084741388945113016 0 -0.00054954908692946079 -0.084916819557291093 0 -0.00076763095048399961 -0.084523471353567803 0 -0.00096943768235513601 -0.084476760716120619 0 -0.00082709882269143805 -0.0847075675720107 0 -0.00076763095048399961 -0.084523471353567803 0 -0.00082709882269143805 -0.0847075675720107 0 -0.00062723834258980083 -0.084648400066124743 0 -0.00044593952142290763 -0.084631995984614738 0 -0.00056680963226831739 -0.08468399338818805 0 -0.00033010778277350173 -0.084647943783080729 0 -0.00049492305522971748 -0.084741388945113016 0 -0.00034343385509610734 -0.084799141899010319 0 -0.00034343385509610734 -0.084799141899010319 0 -0.0003995931550125177 -0.084875080568541678 0 -0.00027466076842064035 -0.084881794972742425 0 -0.0003995931550125177 -0.084875080568541678 0 -0.0003206409197198758 -0.084943518270165691 0 -0.00027466076842064035 -0.084881794972742425 0 -0.00049492305522971748 -0.084741388945113016 0 -0.00034343385509610734 -0.084799141899010319 0 -0.0003995931550125177 -0.084875080568541678 0 -0.00049492305522971748 -0.084741388945113016 0 -0.0003995931550125177 -0.084875080568541678 0 -0.00054954908692946079 -0.084916819557291093 0 -0.0003995931550125177 -0.084875080568541678 0 -0.00039509899054419596 -0.084989967876654998 0 -0.00054954908692946079 -0.084916819557291093 0 -0.0003995931550125177 -0.084875080568541678 0 -0.0003206409197198758 -0.084943518270165691 0 -0.00039509899054419596 -0.084989967876654998 0 -0.0003206409197198758 -0.084943518270165691 0 -0.00039509899054419596 -0.084989967876654998 0 -0.0002769056739075729 -0.085009423512576718 0 -0.00039509899054419596 -0.084989967876654998 0 -0.00030644101429307824 -0.085083477435833221 0 -0.0002769056739075729 -0.085009423512576718 0 -0.00039509899054419596 -0.084989967876654998 0 -0.00030644101429307824 -0.085083477435833221 0 -0.00041463770723795736 -0.085076890095167695 0 -0.00039509899054419596 -0.084989967876654998 0 -0.00049864192019568232 -0.085016780173543957 0 -0.00054954908692946079 -0.084916819557291093 0 -0.00039509899054419596 -0.084989967876654998 0 -0.00049864192019568232 -0.085016780173543957 0 -0.00041463770723795736 -0.085076890095167695 0 -0.00049864192019568232 -0.085016780173543957 0 -0.00041463770723795736 -0.085076890095167695 0 -0.00053267050177241838 -0.085094628201822745 0 -0.00059313786993555337 -0.085020280959274372 0 -0.00074746341096747486 -0.084951223285003027 0 -0.00064586887545163953 -0.085131066016761139 0 -0.00059313786993555337 -0.085020280959274372 0 -0.00054954908692946079 -0.084916819557291093 0 -0.00074746341096747486 -0.084951223285003027 0 -0.00049864192019568232 -0.085016780173543957 0 -0.00059313786993555337 -0.085020280959274372 0 -0.00053267050177241838 -0.085094628201822745 0 -0.00049864192019568232 -0.085016780173543957 0 -0.00059313786993555337 -0.085020280959274372 0 -0.00054954908692946079 -0.084916819557291093 0 -0.0010134395698463228 -0.08484217718520555 0 -0.00070913688514521187 -0.084781726113771272 0 -0.00074746341096747486 -0.084951223285003027 0 -0.00070913688514521187 -0.084781726113771272 0 -0.00054954908692946079 -0.084916819557291093 0 -0.00074746341096747486 -0.084951223285003027 0 -0.00093422429174610654 -0.085076516568746263 0 -0.00074746341096747486 -0.084951223285003027 0 -0.00064586887545163953 -0.085131066016761139 0 -0.00049847088576680429 -0.073363818192813637 0 -0.00077673800653943427 -0.07567095132768191 0 -0.0010845831486713581 -0.063364786561346517 0 -0.0010355844736820157 -0.063307383190802591 0 -0.0011329352758799652 -0.063313193249970812 0 -0.0010355844736820157 -0.063307383190802591 0 -0.00047415250596197103 -0.064317036120176696 0 0.00072101536141260848 -0.063559877575951024 0 -0.00077673800653943427 -0.07567095132768191 0 -0.00050567568960892078 -0.079045294678495331 0 -0.00059313786993555337 -0.085020280959274372 0 -0.00064586887545163953 -0.085131066016761139 0 -0.00053267050177241838 -0.085094628201822745 0 -0.0010355844736820157 -0.063307383190802591 0 -0.00047415250596197103 -0.064317036120176696 0 -0.0011329352758799652 -0.063313193249970812 0 -0.00047415250596197103 -0.064317036120176696 0 -0.0011329352758799652 -0.063313193249970812 0 -0.00075721742931523291 -0.064739090681597708 0 -0.000865320445711866 -0.062062993922020401 0 -0.0011329352758799652 -0.063313193249970812 0 -0.00075721742931523291 -0.064739090681597708 0 -0.000865320445711866 -0.062062993922020401 0 -0.00075721742931523291 -0.064739090681597708 0 -1.1127290341418939e-06 -0.064038881185763757 0 -0.00075721742931523291 -0.064739090681597708 0 -3.1720617477157339e-06 -0.068714507627793964 0 8.1905461639075324e-05 -0.066261815628570447 0 -0.00047415250596197103 -0.064317036120176696 0 -0.00075721742931523291 -0.064739090681597708 0 8.1905461639075324e-05 -0.066261815628570447 0 -0.00075721742931523291 -0.064739090681597708 0 -3.1720617477157339e-06 -0.068714507627793964 0 -1.1127290341418939e-06 -0.064038881185763757 0 0.00044790022187660231 -0.068923280444158852 0 7.8353550911109548e-06 -0.073380448587070199 0 0.0036122907501179944 -0.068909237410354901 0 2.2617878957296146e-06 -0.073391922353272507 0 0.00049559389057918658 -0.07485078177396548 0 -3.1720617477157339e-06 -0.068714507627793964 0 0.00044790022187660231 -0.068923280444158852 0 8.1905461639075324e-05 -0.066261815628570447 0 -3.1720617477157339e-06 -0.068714507627793964 0 0.00044790022187660231 -0.068923280444158852 0 7.8353550911109548e-06 -0.073380448587070199 0 0.00044790022187660231 -0.068923280444158852 0 0.002191433978681752 -0.066901251256701558 0 0.0036122907501179944 -0.068909237410354901 0 8.1905461639075324e-05 -0.066261815628570447 0 0.002191433978681752 -0.066901251256701558 0 0.0024647210464546899 -0.064783038695374648 0 0.00044790022187660231 -0.068923280444158852 0 8.1905461639075324e-05 -0.066261815628570447 0 0.002191433978681752 -0.066901251256701558 0 -0.00048328368149191839 -0.078270786630037448 0 -0.00050567568960892078 -0.079045294678495331 0 8.1905461639075324e-05 -0.066261815628570447 0 0.0024647210464546899 -0.064783038695374648 0 0.00072101536141260848 -0.063559877575951024 0 -0.00029847636705859684 -0.085203364782855381 0 -0.00040928028383584695 -0.085119451080774053 0 -0.00029785013913333154 -0.085159281626567218 0 -0.00047415250596197103 -0.064317036120176696 0 8.1905461639075324e-05 -0.066261815628570447 0 0.00072101536141260848 -0.063559877575951024 0 -0.00064586887545163953 -0.085131066016761139 0 -0.00042749621258421849 -0.085140508698685224 0 -0.00053267050177241838 -0.085094628201822745 0 -0.00041463770723795736 -0.085076890095167695 0 -0.00041756007504993299 -0.08515926772643613 0 -0.00053267050177241838 -0.085094628201822745 0 -0.00050567568960892078 -0.079045294678495331 0 0.00012836965977897782 -0.080046952445907066 0 -0.00041756007504993299 -0.08515926772643613 0 -0.00029785013913333154 -0.085159281626567218 0 -0.00034490970822414731 -0.085123775789314654 0 -0.00050567568960892078 -0.079045294678495331 0 -0.00018129961652088651 -0.079740596148170473 0 -0.00029785013913333154 -0.085159281626567218 0 -0.00034490970822414731 -0.085123775789314654 0 -0.00028814694741120518 -0.085128698498374331 0 -0.00041463770723795736 -0.085076890095167695 0 -0.00041756007504993299 -0.08515926772643613 0 -0.00034490970822414731 -0.085123775789314654 0 -0.00030644101429307824 -0.085083477435833221 0 -0.00041463770723795736 -0.085076890095167695 0 -0.00034490970822414731 -0.085123775789314654 0 -0.00030644101429307824 -0.085083477435833221 0 -0.00034490970822414731 -0.085123775789314654 0 -0.00028814694741120518 -0.085128698498374331 0 -0.00030644101429307824 -0.085083477435833221 0 -0.00028814694741120518 -0.085128698498374331 0 -0.00023759743945687389 -0.085121075833803808 0 -0.00030644101429307824 -0.085083477435833221 0 -0.00023759743945687389 -0.085121075833803808 0 -0.00021657035274373705 -0.085068425212167439 0 -0.00023759743945687389 -0.085121075833803808 0 -0.00017658749425651735 -0.085108750734808239 0 -0.00021657035274373705 -0.085068425212167439 0 -0.00023759743945687389 -0.085121075833803808 0 -0.00019964283750628899 -0.085166757484014435 0 -0.00025276619916686022 -0.085164564446598645 0 -0.00023759743945687389 -0.085121075833803808 0 -0.00019964283750628899 -0.085166757484014435 0 -0.00017658749425651735 -0.085108750734808239 0 -0.00028814694741120518 -0.085128698498374331 0 -0.00023759743945687389 -0.085121075833803808 0 -0.00025276619916686022 -0.085164564446598645 0 -0.00029785013913333154 -0.085159281626567218 0 -0.00028814694741120518 -0.085128698498374331 0 -0.00025276619916686022 -0.085164564446598645 0 -0.00019964283750628899 -0.085166757484014435 0 -0.00010386860232875182 -0.085129099927431631 0 -0.00017658749425651735 -0.085108750734808239 0 -0.00010386860232875182 -0.085129099927431631 0 -0.00017658749425651735 -0.085108750734808239 0 -0.00012879756310182886 -0.085057329041968194 0 -0.00013834477471980869 -0.079753845594720263 0 -0.00055030293466017479 -0.082595537652335585 0 -0.00019964283750628899 -0.085166757484014435 0 -0.00010386860232875182 -0.085129099927431631 0 -0.00020255731763279807 -0.085255278267408821 0 0.00015303456696952431 -0.084739927333561574 0 0.00012291097992358742 -0.084719911572841838 0 4.3975329976534368e-06 -0.084806786985702556 0 3.3961603896610502e-05 -0.084930265092456728 0 0.00015303456696952431 -0.084739927333561574 0 4.3975329976534368e-06 -0.084806786985702556 0 -0.0011997888871396816 -0.083423598615051539 0 -0.00057266998597744058 -0.078800999510446834 0 -0.00048328368149191839 -0.078270786630037448 0 -0.00057266998597744058 -0.078800999510446834 0 -0.00029847636705859684 -0.085203364782855381 0 -0.00023613801698691076 -0.085201629428087733 0 -0.00020255731763279807 -0.085255278267408821 0 0.002191433978681752 -0.066901251256701558 0 0.0024647210464546899 -0.064783038695374648 0 0.0050954529476107333 -0.066270160264788089 0 -0.00019964283750628899 -0.085166757484014435 0 -0.00023613801698691076 -0.085201629428087733 0 -0.00020255731763279807 -0.085255278267408821 0 -0.00029847636705859684 -0.085203364782855381 0 -0.00025276619916686022 -0.085164564446598645 0 -0.00023613801698691076 -0.085201629428087733 0 -0.00029847636705859684 -0.085203364782855381 0 -0.00029785013913333154 -0.085159281626567218 0 -0.00025276619916686022 -0.085164564446598645 0 -0.00019964283750628899 -0.085166757484014435 0 -0.00025276619916686022 -0.085164564446598645 0 -0.00023613801698691076 -0.085201629428087733 0 0.002191433978681752 -0.066901251256701558 0 0.0050954529476107333 -0.066270160264788089 0 0.0036122907501179944 -0.068909237410354901 0 -0.00017409602286679634 -0.076506861402452164 0 -0.00020418051189424876 -0.076437728897897947 0 2.2407255958810561e-05 -0.076279077133263443 0 -0.00057266998597744058 -0.078800999510446834 0 0.00049559389057918658 -0.07485078177396548 0 -0.00018363968364962978 -0.076512792755029715 0 -0.00020418051189424876 -0.076437728897897947 0 2.2407255958810561e-05 -0.076279077133263443 0 -2.3108284059060572e-05 -0.080736592532910795 0 7.3149538510218393e-07 -0.080753103053493383 0 1.0020431528832728e-05 -0.080720254854912021 0 -0.00057266998597744058 -0.078800999510446834 0 -0.00013834477471980869 -0.079753845594720263 0 -0.00018363968364962978 -0.076512792755029715 0 -0.00020418051189424876 -0.076437728897897947 0 -0.0002522059491520667 -0.076467076309438498 0 -0.00020418051189424876 -0.076437728897897947 0 -0.00010778489240478739 -0.076274207822088977 0 -7.0072608274116137e-05 -0.076482492311950909 0 -0.00011826200625955195 -0.0797277474217883 0 -0.00013834477471980869 -0.079753845594720263 0 -0.00013834477471980869 -0.079753845594720263 0 -0.00014176429106856409 -0.080555670342127142 0 -0.00010778489240478739 -0.076274207822088977 0 0.00068237124737146389 -0.076421433228924668 0 -7.0072608274116137e-05 -0.076482492311950909 0 -0.00017409602286679634 -0.076506861402452164 0 -7.0072608274116137e-05 -0.076482492311950909 0 -0.00030060651982081164 -0.076913451730736368 0 0.00068237124737146389 -0.076421433228924668 0 -7.0072608274116137e-05 -0.076482492311950909 0 -0.00030060651982081164 -0.076913451730736368 0 -0.00017409602286679634 -0.076506861402452164 0 -0.00020418051189424876 -0.076437728897897947 0 -7.0072608274116137e-05 -0.076482492311950909 0 0.00068237124737146389 -0.076421433228924668 0 -0.00030060651982081164 -0.076913451730736368 0 -2.751999219048181e-08 -0.07850217128684317 0 -0.00014176429106856409 -0.080555670342127142 0 4.2784695359061042e-07 -0.078513391436817001 0 2.1863047549965321e-08 -0.073398018822481759 0 -0.00030060651982081164 -0.076913451730736368 0 -2.751999219048181e-08 -0.07850217128684317 0 2.1863047549965321e-08 -0.073398018822481759 0 -0.00030060651982081164 -0.076913451730736368 0 2.2407255958810561e-05 -0.076279077133263443 0 -0.00017409602286679634 -0.076506861402452164 0 -0.00030060651982081164 -0.076913451730736368 0 2.2407255958810561e-05 -0.076279077133263443 0 9.5516773484022263e-07 -0.078518051196648828 0 -6.5755569000864689e-07 -0.084995550578607346 0 3.3573573820563546e-05 -0.084077138144513883 0 -6.5755569000864689e-07 -0.084995550578607346 0 2.6854158311103993e-05 -0.084801938333667545 0 3.4511153393932857e-07 -0.085001745304695009 0 -6.5755569000864689e-07 -0.084995550578607346 0 3.3573573820563546e-05 -0.084077138144513883 0 2.6854158311103993e-05 -0.084801938333667545 0 3.3573573820563546e-05 -0.084077138144513883 0 0.00023010435170891917 -0.084396518403683701 0 2.6854158311103993e-05 -0.084801938333667545 0 3.6479840843125976e-05 -0.081455044891178011 0 4.0663120861028888e-05 -0.081242816304092705 0 0.00037002496578617959 -0.081327049913510571 0 9.5516773484022263e-07 -0.078518051196648828 0 -0.0002265258230740814 -0.081289051659028208 0 9.5516773484022263e-07 -0.078518051196648828 0 3.3573573820563546e-05 -0.084077138144513883 0 -0.0002265258230740814 -0.081289051659028208 0 -0.00014176429106856409 -0.080555670342127142 0 4.0663120861028888e-05 -0.081242816304092705 0 -0.00014176429106856409 -0.080555670342127142 0 -0.00055030293466017479 -0.082595537652335585 0 0.00023010435170891917 -0.084396518403683701 0 0.00024660730874609329 -0.084714232566338157 0 2.6854158311103993e-05 -0.084801938333667545 0 0.00042820834536143684 -0.084640186941512568 0 0.00024660730874609329 -0.084714232566338157 0 0.00027046942306534563 -0.084927051739650303 0 0.00042820834536143684 -0.084640186941512568 0 0.00023010435170891917 -0.084396518403683701 0 0.00024660730874609329 -0.084714232566338157 0 0.00024660730874609329 -0.084714232566338157 0 2.6854158311103993e-05 -0.084801938333667545 0 0.00027046942306534563 -0.084927051739650303 0 2.6854158311103993e-05 -0.084801938333667545 0 7.7244823623248969e-05 -0.084967086634824621 0 3.4511153393932857e-07 -0.085001745304695009 0 2.6854158311103993e-05 -0.084801938333667545 0 7.7244823623248969e-05 -0.084967086634824621 0 0.00027046942306534563 -0.084927051739650303 0 -0.00030312693859717272 -0.083941622186328252 0 -0.00055030293466017479 -0.082595537652335585 0 -0.00055030293466017479 -0.082595537652335585 0 -0.00065946169803662706 -0.084053731650618801 0 3.3961603896610502e-05 -0.084930265092456728 0 4.3975329976534368e-06 -0.084806786985702556 0 -4.7862900976869058e-06 -0.08497355015529881 0 -3.4670907742306386e-06 -0.084989931641165223 0 -1.5913937145439255e-05 -0.08499243911429849 0 -4.7862900976869058e-06 -0.08497355015529881 0 -3.4670907742306386e-06 -0.084989931641165223 0 1.5716971320479083e-08 -0.084999913915936823 0 -4.7862900976869058e-06 -0.08497355015529881 0 -0.00030312693859717272 -0.083941622186328252 0 -1.3093970032226559e-06 -0.08499701191154152 0 -1.2394092064594629e-05 -0.085005077748483052 0 -2.9933111289492779e-08 -0.085000045748432881 0 -4.7862900976869058e-06 -0.08497355015529881 0 1.5716971320479083e-08 -0.084999913915936823 0 -2.9933111289492779e-08 -0.085000045748432881 0 -4.7862900976869058e-06 -0.08497355015529881 0 -1.2394092064594629e-05 -0.085005077748483052 0 -2.9933111289492779e-08 -0.085000045748432881 0 -1.7632355086871388e-05 -0.084972480513592658 0 -1.2394092064594629e-05 -0.085005077748483052 0 -5.0383965111271264e-05 -0.084976530339074305 0 -1.7632355086871388e-05 -0.084972480513592658 0 -1.2394092064594629e-05 -0.085005077748483052 0 -5.0383965111271264e-05 -0.084976530339074305 0 -9.970111866411365e-05 -0.085000227625832411 0 -0.00010386860232875182 -0.085129099927431631 0 -1.2394092064594629e-05 -0.085005077748483052 0 -0.00012879756310182886 -0.085057329041968194 0 3.3961603896610502e-05 -0.084930265092456728 0 -1.2394092064594629e-05 -0.085005077748483052 0 -4.7862900976869058e-06 -0.08497355015529881 0 -0.0011997888871396816 -0.083423598615051539 0 -0.0010202681723287461 -0.08412682752104006 0 -1.2394092064594629e-05 -0.085005077748483052 0 -0.00012879756310182886 -0.085057329041968194 0 -9.970111866411365e-05 -0.085000227625832411 0 -0.00017658749425651735 -0.085108750734808239 0 -0.00012879756310182886 -0.085057329041968194 0 -0.00021657035274373705 -0.085068425212167439 0 -0.00012879756310182886 -0.085057329041968194 0 -0.00021657035274373705 -0.085068425212167439 0 -0.00018043093090224332 -0.085005390687375074 0 -0.00012879756310182886 -0.085057329041968194 0 -9.970111866411365e-05 -0.085000227625832411 0 -0.00018043093090224332 -0.085005390687375074 0 -0.00030644101429307824 -0.085083477435833221 0 -0.00021657035274373705 -0.085068425212167439 0 -0.0002769056739075729 -0.085009423512576718 0 -0.00021657035274373705 -0.085068425212167439 0 -0.0002769056739075729 -0.085009423512576718 0 -0.00018043093090224332 -0.085005390687375074 0 -0.0003206409197198758 -0.084943518270165691 0 -0.0002769056739075729 -0.085009423512576718 0 -0.0002383849925836842 -0.084956206065202253 0 -0.0002769056739075729 -0.085009423512576718 0 -0.0002383849925836842 -0.084956206065202253 0 -0.00018043093090224332 -0.085005390687375074 0 -0.0002383849925836842 -0.084956206065202253 0 -0.00018043093090224332 -0.085005390687375074 0 -0.00013712129477104493 -0.084944009880453725 0 -0.0003206409197198758 -0.084943518270165691 0 -0.0002383849925836842 -0.084956206065202253 0 -0.00027466076842064035 -0.084881794972742425 0 -5.0383965111271264e-05 -0.084976530339074305 0 -9.970111866411365e-05 -0.085000227625832411 0 -0.00013712129477104493 -0.084944009880453725 0 -9.970111866411365e-05 -0.085000227625832411 0 -0.00018043093090224332 -0.085005390687375074 0 -0.00013712129477104493 -0.084944009880453725 0 -5.0383965111271264e-05 -0.084976530339074305 0 -0.00013712129477104493 -0.084944009880453725 0 -6.3849300697118157e-05 -0.084919232471642722 0 -0.00013712129477104493 -0.084944009880453725 0 -0.00018334597681395344 -0.084841437705338293 0 -6.3849300697118157e-05 -0.084919232471642722 0 -0.00013712129477104493 -0.084944009880453725 0 -0.00027466076842064035 -0.084881794972742425 0 -0.00018334597681395344 -0.084841437705338293 0 -0.00034343385509610734 -0.084799141899010319 0 -0.00027466076842064035 -0.084881794972742425 0 -0.00018334597681395344 -0.084841437705338293 0 -0.0002383849925836842 -0.084956206065202253 0 -0.00013712129477104493 -0.084944009880453725 0 -0.00027466076842064035 -0.084881794972742425 0 -4.2826709918376465e-05 -0.084779144437892751 0 -0.00033010778277350173 -0.084647943783080729 0 -0.00018334597681395344 -0.084841437705338293 0 -0.00033010778277350173 -0.084647943783080729 0 -0.00034343385509610734 -0.084799141899010319 0 -0.00018334597681395344 -0.084841437705338293 0 -4.2826709918376465e-05 -0.084779144437892751 0 -0.00018334597681395344 -0.084841437705338293 0 -6.3849300697118157e-05 -0.084919232471642722 0 -4.2826709918376465e-05 -0.084779144437892751 0 -2.2562495189337741e-05 -0.08491429990623045 0 -6.3849300697118157e-05 -0.084919232471642722 0 -2.2562495189337741e-05 -0.08491429990623045 0 1.0870269052896e-08 -0.084999866144391797 0 -1.7632355086871388e-05 -0.084972480513592658 0 -2.9933111289492779e-08 -0.085000045748432881 0 1.0870269052896e-08 -0.084999866144391797 0 -1.7632355086871388e-05 -0.084972480513592658 0 -5.0383965111271264e-05 -0.084976530339074305 0 -1.7632355086871388e-05 -0.084972480513592658 0 -6.3849300697118157e-05 -0.084919232471642722 0 -2.2562495189337741e-05 -0.08491429990623045 0 -1.7632355086871388e-05 -0.084972480513592658 0 -6.3849300697118157e-05 -0.084919232471642722 0 -0.0046678922404923681 -0.0024787296398990134 0 -0.0050915838678880897 -0.00087840527603604815 0 -0.0025864920371727329 -0.0030439523991990214 0 0.0027861318213608117 -0.016907155177663665 0 0.0078348587108275115 -0.020325966649386643 0 -0.0046678922404923681 -0.0024787296398990134 0 -0.0025864920371727329 -0.0030439523991990214 0 -0.0041465371119888423 -0.0040884092562502279 0 -0.0046678922404923681 -0.0024787296398990134 0 -0.0051982733149012394 -0.0027429264169028457 0 -0.0048819128057461291 -0.0035830832891242882 0 -0.0046678922404923681 -0.0024787296398990134 0 -0.0051982733149012394 -0.0027429264169028457 0 -0.0052182841731164735 -0.0023626357325840352 0 -0.0046678922404923681 -0.0024787296398990134 0 -0.0052182841731164735 -0.0023626357325840352 0 -0.0055691283804690525 -0.0024891059076633218 0 -0.0052948549477239409 -0.0030792649364534161 0 -0.0052182841731164735 -0.0023626357325840352 0 -0.0055691283804690525 -0.0024891059076633218 0 0.025991533636190396 -0.04383799519981179 0 0.023149503984638123 -0.044658214450091285 0 0.02214631703260507 -0.038253091447050053 0 0.025991533636190396 -0.04383799519981179 0 0.023149503984638123 -0.044658214450091285 0 0.023791684589915988 -0.047962578898670165 0 0.0015147491936585227 -0.012562079921986801 0 0.0027861318213608117 -0.016907155177663665 0 0.023149503984638123 -0.044658214450091285 0 0.020516296948842067 -0.043790972789726761 0 0.02214631703260507 -0.038253091447050053 0 0.023149503984638123 -0.044658214450091285 0 0.020516296948842067 -0.043790972789726761 0 0.020889537503908845 -0.047119309557877194 0 0.020516296948842067 -0.043790972789726761 0 0.017372369610096475 -0.046205893598397399 0 0.020889537503908845 -0.047119309557877194 0 0.017880158950020979 -0.042375518951112356 0 0.017372369610096475 -0.046205893598397399 0 0.013491803133762597 -0.044409241236345563 0 0.020516296948842067 -0.043790972789726761 0 0.017880158950020979 -0.042375518951112356 0 0.017372369610096475 -0.046205893598397399 0 0.017201570491661392 -0.039185635824525993 0 0.02214631703260507 -0.038253091447050053 0 0.016000222480756242 -0.035620981641555957 0 0.017880158950020979 -0.042375518951112356 0 0.017201570491661392 -0.039185635824525993 0 0.02214631703260507 -0.038253091447050053 0 0.017880158950020979 -0.042375518951112356 0 0.017201570491661392 -0.039185635824525993 0 0.013885536494507425 -0.04017059738054319 0 0.017201570491661392 -0.039185635824525993 0 0.016000222480756242 -0.035620981641555957 0 0.013885536494507425 -0.04017059738054319 0 0.020516296948842067 -0.043790972789726761 0 0.017880158950020979 -0.042375518951112356 0 0.02214631703260507 -0.038253091447050053 0 -0.0025864920371727329 -0.0030439523991990214 0 -0.0026908369157632676 -0.0054537026323237111 0 0.00072181211876281562 -0.0070161172702822242 0 0.0078348587108275115 -0.020325966649386643 0 0.007945482236562924 -0.019450274817204384 0 -0.0025864920371727329 -0.0030439523991990214 0 -0.0026908369157632676 -0.0054537026323237111 0 -0.0041465371119888423 -0.0040884092562502279 0 0.02214631703260507 -0.038253091447050053 0 0.016000222480756242 -0.035620981641555957 0 0.017597561904511113 -0.03135769700369366 0 0.00072181211876281562 -0.0070161172702822242 0 -0.0031373704413090353 -0.0076060026518081428 0 0.001033462238653794 -0.011185696437598782 0 -0.0026908369157632676 -0.0054537026323237111 0 0.00072181211876281562 -0.0070161172702822242 0 -0.0031373704413090353 -0.0076060026518081428 0 -0.0026908369157632676 -0.0054537026323237111 0 -0.0031373704413090353 -0.0076060026518081428 0 -0.0039512020534917267 -0.0053599231144831443 0 -0.0011392899319235177 -0.0097337610733530377 0 -0.002697230920554058 -0.0083905164828850919 0 -0.0023386852163609561 -0.0098787179425440918 0 -0.0031373704413090353 -0.0076060026518081428 0 -0.0039512020534917267 -0.0053599231144831443 0 -0.0052942725520798211 -0.0043636110362343782 0 -0.0011392899319235177 -0.0097337610733530377 0 -0.0029315824297959894 -0.0064664331986849771 0 -0.002697230920554058 -0.0083905164828850919 0 -0.0017822061052803252 -0.0078439465339131681 0 -0.0039695891732875648 -0.0060923663228116907 0 -0.0026908369157632676 -0.0054537026323237111 0 -0.0039512020534917267 -0.0053599231144831443 0 -0.0041465371119888423 -0.0040884092562502279 0 -0.0039512020534917267 -0.0053599231144831443 0 -0.0045525887062500929 -0.0044194593512696546 0 -0.0052942725520798211 -0.0043636110362343782 0 -0.0046678922404923681 -0.0024787296398990134 0 -0.0041465371119888423 -0.0040884092562502279 0 -0.0048819128057461291 -0.0035830832891242882 0 -0.0039512020534917267 -0.0053599231144831443 0 -0.0045525887062500929 -0.0044194593512696546 0 -0.0041465371119888423 -0.0040884092562502279 0 -0.0045525887062500929 -0.0044194593512696546 0 -0.0041465371119888423 -0.0040884092562502279 0 -0.0048819128057461291 -0.0035830832891242882 0 -0.0051982733149012394 -0.0027429264169028457 0 -0.0048819128057461291 -0.0035830832891242882 0 -0.0052942725520798211 -0.0043636110362343782 0 -0.0033739345690039792 -0.0066453473116303494 0 -0.0029315824297959894 -0.0064664331986849771 0 -0.005287572549496574 -0.0025521355157277032 0 -0.0045525887062500929 -0.0044194593512696546 0 -0.0048819128057461291 -0.0035830832891242882 0 -0.0052942725520798211 -0.0043636110362343782 0 -0.0033739345690039792 -0.0066453473116303494 0 -0.0029315824297959894 -0.0064664331986849771 0 -0.002697230920554058 -0.0083905164828850919 0 -0.002697230920554058 -0.0083905164828850919 0 -0.0032743597882725008 -0.0095271321429738348 0 -0.0023386852163609561 -0.0098787179425440918 0 -0.0033739345690039792 -0.0066453473116303494 0 -0.002697230920554058 -0.0083905164828850919 0 -0.0034088041494163093 -0.0083610310169240313 0 -0.002697230920554058 -0.0083905164828850919 0 -0.0034088041494163093 -0.0083610310169240313 0 -0.0032743597882725008 -0.0095271321429738348 0 -0.0033739345690039792 -0.0066453473116303494 0 -0.0034088041494163093 -0.0083610310169240313 0 -0.0045597801269581769 -0.0088871271008036309 0 -0.0034088041494163093 -0.0083610310169240313 0 -0.0045597801269581769 -0.0088871271008036309 0 -0.0032743597882725008 -0.0095271321429738348 0 -0.0033739345690039792 -0.0066453473116303494 0 -0.0045597801269581769 -0.0088871271008036309 0 -0.0086250641996415325 -0.0086801213618643014 0 -0.0033739345690039792 -0.0066453473116303494 0 -0.0056347080018324973 -0.0029698213601766373 0 -0.005287572549496574 -0.0025521355157277032 0 -0.0046179227177937541 -0.004786782463362488 0 -0.0062607029080359866 -0.0046080994080683405 0 -0.0056347080018324973 -0.0029698213601766373 0 -0.0057109637227831462 -0.0019316910932307464 0 -0.0059072610672953772 -0.0015021805401378939 0 -0.0056347080018324973 -0.0029698213601766373 0 -0.0057109637227831462 -0.0019316910932307464 0 -0.005287572549496574 -0.0025521355157277032 0 -0.0057109637227831462 -0.0019316910932307464 0 -0.005287572549496574 -0.0025521355157277032 0 -0.0057113375306290697 -0.0011516590729415638 0 -0.0039695891732875648 -0.0060923663228116907 0 -0.0050228354688421325 -0.0051577588862068138 0 -0.0051982733149012394 -0.0027429264169028457 0 -0.0052942725520798211 -0.0043636110362343782 0 -0.005287572549496574 -0.0025521355157277032 0 -0.0059072610672953772 -0.0015021805401378939 0 -0.0060136334615904421 -0.00061092910227203206 0 -0.0060220841237418219 -0.00083847143058692845 0 -0.0060136334615904421 -0.00061092910227203206 0 -0.0060220841237418219 -0.00083847143058692845 0 -0.0060676848166200722 6.8813265679865471e-05 0 -0.0060136334615904421 -0.00061092910227203206 0 -0.0060676848166200722 6.8813265679865471e-05 0 -0.0060451629898007888 8.5315586852440401e-05 0 -0.0056347080018324973 -0.0029698213601766373 0 -0.0059072610672953772 -0.0015021805401378939 0 -0.0060220841237418219 -0.00083847143058692845 0 -0.0062607029080359866 -0.0046080994080683405 0 -0.0067921884688094064 -0.0033259056736466546 0 -0.0057109637227831462 -0.0019316910932307464 0 -0.0059138402477137775 -0.0011470050036691093 0 -0.0057113375306290697 -0.0011516590729415638 0 -0.0057109637227831462 -0.0019316910932307464 0 -0.0059072610672953772 -0.0015021805401378939 0 -0.0059138402477137775 -0.0011470050036691093 0 -0.0059072610672953772 -0.0015021805401378939 0 -0.0059138402477137775 -0.0011470050036691093 0 -0.0060136334615904421 -0.00061092910227203206 0 -0.0060136334615904421 -0.00061092910227203206 0 -0.0059637330465387604 -0.0003505115760144149 0 -0.0060451629898007888 8.5315586852440401e-05 0 -0.0059138402477137775 -0.0011470050036691093 0 -0.0060136334615904421 -0.00061092910227203206 0 -0.0059637330465387604 -0.0003505115760144149 0 -0.0059637330465387604 -0.0003505115760144149 0 -0.0057113375306290697 -0.0011516590729415638 0 -0.005797067092213698 -2.5429291952698101e-05 0 -0.0059138402477137775 -0.0011470050036691093 0 -0.0059637330465387604 -0.0003505115760144149 0 -0.0057113375306290697 -0.0011516590729415638 0 -0.0057113375306290697 -0.0011516590729415638 0 -0.0046413242663915092 -0.0017538448342407857 0 -0.0055990213675309059 -0.00034705376009431691 0 -0.0051982733149012394 -0.0027429264169028457 0 -0.0052182841731164735 -0.0023626357325840352 0 -0.0046413242663915092 -0.0017538448342407857 0 -0.0051982733149012394 -0.0027429264169028457 0 -0.005287572549496574 -0.0025521355157277032 0 -0.0046413242663915092 -0.0017538448342407857 0 -0.005287572549496574 -0.0025521355157277032 0 -0.0057113375306290697 -0.0011516590729415638 0 -0.0046413242663915092 -0.0017538448342407857 0 -0.0052948549477239409 -0.0030792649364534161 0 -0.0052182841731164735 -0.0023626357325840352 0 -0.0046413242663915092 -0.0017538448342407857 0 -0.0052948549477239409 -0.0030792649364534161 0 -0.0046413242663915092 -0.0017538448342407857 0 -0.0054889582914671815 -0.0049914898289047643 0 -0.0046413242663915092 -0.0017538448342407857 0 -0.0054889582914671815 -0.0049914898289047643 0 -0.0013359108869477269 -0.00492574115571976 0 -0.0026450195162046816 -0.0017126878673722075 0 -0.0016495624540325039 -0.0022050749457440148 0 -0.0013359108869477269 -0.00492574115571976 0 -0.002545407279370554 -0.0078669110415414915 0 0.0017209264314478132 -0.0088873178574410423 0 -0.0054889582914671815 -0.0049914898289047643 0 -0.0013359108869477269 -0.00492574115571976 0 -0.002545407279370554 -0.0078669110415414915 0 -0.0054889582914671815 -0.0049914898289047643 0 -0.002545407279370554 -0.0078669110415414915 0 -0.0053573014301025353 -0.0079999538506808562 0 -0.0057113375306290697 -0.0011516590729415638 0 -0.0055990213675309059 -0.00034705376009431691 0 -0.005797067092213698 -2.5429291952698101e-05 0 -0.0016495624540325039 -0.0022050749457440148 0 0.0012235457284016889 -0.0031099055927613943 0 -0.0055990213675309059 -0.00034705376009431691 0 -0.005797067092213698 -2.5429291952698101e-05 0 -0.0060391139959729712 -0.00058041851650779722 0 -0.005797067092213698 -2.5429291952698101e-05 0 -0.0060391139959729712 -0.00058041851650779722 0 -0.0055731239506324522 -0.00069935011574634497 0 0.0012235457284016889 -0.0031099055927613943 0 0.0071376873614796606 -0.0037362952646673255 0 -0.0060391139959729712 -0.00058041851650779722 0 -0.0056364527060708304 -0.0017041328981603537 0 -0.0055731239506324522 -0.00069935011574634497 0 0.0017209264314478132 -0.0088873178574410423 0 0.0016560062779864327 -0.011926516020442153 0 -0.0015224667784607369 -0.011150107293420801 0 0.0016560062779864327 -0.011926516020442153 0 -0.0015224667784607369 -0.011150107293420801 0 -0.00059345116804449915 -0.013609964621910274 0 0.0017209264314478132 -0.0088873178574410423 0 0.0016560062779864327 -0.011926516020442153 0 0.00453336011078578 -0.012883146542704 0 -0.0060391139959729712 -0.00058041851650779722 0 -0.0058119937102525604 -0.0019310325354502842 0 -0.0056364527060708304 -0.0017041328981603537 0 0.0071376873614796606 -0.0037362952646673255 0 0.0065583058611264813 -0.0040302346378578531 0 -0.0053573014301025353 -0.0079999538506808562 0 -0.0043062202319778748 -0.010230066474237661 0 -0.0068627956782763401 -0.011082708321079352 0 -0.002545407279370554 -0.0078669110415414915 0 -0.0053573014301025353 -0.0079999538506808562 0 -0.0043062202319778748 -0.010230066474237661 0 -0.002545407279370554 -0.0078669110415414915 0 0.0017209264314478132 -0.0088873178574410423 0 -0.0015224667784607369 -0.011150107293420801 0 -0.002545407279370554 -0.0078669110415414915 0 -0.0043062202319778748 -0.010230066474237661 0 -0.0015224667784607369 -0.011150107293420801 0 -0.0015224667784607369 -0.011150107293420801 0 -0.0025492557495616938 -0.013414936987439103 0 -0.0038982442997208171 -0.012202698592029833 0 -0.0015224667784607369 -0.011150107293420801 0 -0.00059345116804449915 -0.013609964621910274 0 -0.0025492557495616938 -0.013414936987439103 0 -0.0025492557495616938 -0.013414936987439103 0 -0.0040251836668647621 -0.013570004078029751 0 -0.0038982442997208171 -0.012202698592029833 0 -0.0043062202319778748 -0.010230066474237661 0 -0.0015224667784607369 -0.011150107293420801 0 -0.0038982442997208171 -0.012202698592029833 0 -0.0043062202319778748 -0.010230066474237661 0 -0.0038982442997208171 -0.012202698592029833 0 -0.0053831636471135032 -0.011944604682361396 0 -0.0043062202319778748 -0.010230066474237661 0 -0.0053831636471135032 -0.011944604682361396 0 -0.0068627956782763401 -0.011082708321079352 0 -0.0038982442997208171 -0.012202698592029833 0 -0.0053831636471135032 -0.011944604682361396 0 -0.0052519693545702677 -0.013103653251865847 0 -0.0040251836668647621 -0.013570004078029751 0 -0.0038982442997208171 -0.012202698592029833 0 -0.0052519693545702677 -0.013103653251865847 0 -0.0050998141645738002 -0.014365991731253112 0 -0.0040251836668647621 -0.013570004078029751 0 -0.0052519693545702677 -0.013103653251865847 0 -0.0063674350786302996 -0.014210609193380866 0 -0.0052519693545702677 -0.013103653251865847 0 -0.0075035935892771282 -0.01291148676072571 0 0.00017345198010533557 -0.031577650882985253 0 0.00068315986642772332 -0.031966336880393457 0 -0.0053831636471135032 -0.011944604682361396 0 -0.0052519693545702677 -0.013103653251865847 0 -0.006451572864652976 -0.013164574361336232 0 0.00068315986642772332 -0.031966336880393457 0 0.0041971959906057623 -0.034915694510442984 0 -0.008064632425589335 -0.01428115814523844 0 -0.0075035935892771282 -0.01291148676072571 0 -0.010350768422037455 -0.01295682223504554 0 0.0044845835907376935 -0.03539792489834738 0 0.0024772190961643722 -0.035474210389300147 0 0.0038953085666582747 -0.032449952408140074 0 0.026548088429917998 -0.059019269562158312 0 0.027873672109562864 -0.056126313439918703 0 0.024484597929306223 -0.056448872301346063 0 0.0041971959906057623 -0.034915694510442984 0 0.0024295049513353693 -0.030283036448571277 0 -0.0053831636471135032 -0.011944604682361396 0 -0.006451572864652976 -0.013164574361336232 0 -0.0068627956782763401 -0.011082708321079352 0 0.00068315986642772332 -0.031966336880393457 0 0.0024295049513353693 -0.030283036448571277 0 0.026548088429917998 -0.059019269562158312 0 0.024484597929306223 -0.056448872301346063 0 0.021474880731077561 -0.059309606195077288 0 0.0041971959906057623 -0.034915694510442984 0 0.011679598671295111 -0.044704284262601639 0 0.024484597929306223 -0.056448872301346063 0 0.023210595928515081 -0.053945907695421083 0 0.021486692900606022 -0.056128777585761291 0 0.024484597929306223 -0.056448872301346063 0 0.025415520787393297 -0.053668491268117458 0 0.023210595928515081 -0.053945907695421083 0 0.027873672109562864 -0.056126313439918703 0 0.024484597929306223 -0.056448872301346063 0 0.025415520787393297 -0.053668491268117458 0 0.025415520787393297 -0.053668491268117458 0 0.023210595928515081 -0.053945907695421083 0 0.024160808555119605 -0.051303703895678558 0 -0.0053573014301025353 -0.0079999538506808562 0 -0.007040510911093107 -0.011963766036428007 0 -0.0080176448111939341 -0.0062457416514347906 0 0.027873672109562864 -0.056126313439918703 0 0.025415520787393297 -0.053668491268117458 0 0.026819935387865226 -0.050083638083793139 0 0.0032292074030313088 -0.022891300890005985 0 0.0024295049513353693 -0.030283036448571277 0 0.0024295049513353693 -0.030283036448571277 0 0.0048579636793825431 -0.027195084092039426 0 -0.0054889582914671815 -0.0049914898289047643 0 -0.0053573014301025353 -0.0079999538506808562 0 -0.0080176448111939341 -0.0062457416514347906 0 0.025415520787393297 -0.053668491268117458 0 0.026819935387865226 -0.050083638083793139 0 0.024160808555119605 -0.051303703895678558 0 0.023210595928515081 -0.053945907695421083 0 0.024160808555119605 -0.051303703895678558 0 0.021529089044844772 -0.050814604278935985 0 0.024160808555119605 -0.051303703895678558 0 0.023791684589915988 -0.047962578898670165 0 0.021529089044844772 -0.050814604278935985 0 0.026819935387865226 -0.050083638083793139 0 0.024160808555119605 -0.051303703895678558 0 0.023791684589915988 -0.047962578898670165 0 0.025991533636190396 -0.04383799519981179 0 0.026819935387865226 -0.050083638083793139 0 0.023791684589915988 -0.047962578898670165 0 0.0027861318213608117 -0.016907155177663665 0 0.0048579636793825431 -0.027195084092039426 0 -0.0089379294581316462 -0.0010769558749226112 0 -0.0054889582914671815 -0.0049914898289047643 0 -0.0080176448111939341 -0.0062457416514347906 0 0.0027861318213608117 -0.016907155177663665 0 -0.0037209474750588478 -0.0086948263270503409 0 -0.0052948549477239409 -0.0030792649364534161 0 -0.0055691283804690525 -0.0024891059076633218 0 -0.0054889582914671815 -0.0049914898289047643 0 0.018881487317993963 -0.049086785746809414 0 0.017372369610096475 -0.046205893598397399 0 0.016003944462512805 -0.050124807006006807 0 0.017372369610096475 -0.046205893598397399 0 0.016003944462512805 -0.050124807006006807 0 0.013707025176956517 -0.048438826027886225 0 0.018881487317993963 -0.049086785746809414 0 0.017372369610096475 -0.046205893598397399 0 0.020889537503908845 -0.047119309557877194 0 0.023791684589915988 -0.047962578898670165 0 0.020889537503908845 -0.047119309557877194 0 0.021529089044844772 -0.050814604278935985 0 0.018881487317993963 -0.049086785746809414 0 0.020889537503908845 -0.047119309557877194 0 0.021529089044844772 -0.050814604278935985 0 0.023149503984638123 -0.044658214450091285 0 0.023791684589915988 -0.047962578898670165 0 0.020889537503908845 -0.047119309557877194 0 0.018881487317993963 -0.049086785746809414 0 0.021529089044844772 -0.050814604278935985 0 0.018305656088979199 -0.051532368664211813 0 0.021529089044844772 -0.050814604278935985 0 0.018305656088979199 -0.051532368664211813 0 0.019563819409951989 -0.054020334913804133 0 0.018881487317993963 -0.049086785746809414 0 0.018305656088979199 -0.051532368664211813 0 0.016003944462512805 -0.050124807006006807 0 0.018305656088979199 -0.051532368664211813 0 0.016003944462512805 -0.050124807006006807 0 0.016154962210075025 -0.053025921914105108 0 0.016154962210075025 -0.053025921914105108 0 0.016670647609889847 -0.055431910257009054 0 0.019563819409951989 -0.054020334913804133 0 0.018305656088979199 -0.051532368664211813 0 0.016154962210075025 -0.053025921914105108 0 0.019563819409951989 -0.054020334913804133 0 0.016670647609889847 -0.055431910257009054 0 0.019563819409951989 -0.054020334913804133 0 0.018674704332324096 -0.056913971895893874 0 0.023210595928515081 -0.053945907695421083 0 0.019563819409951989 -0.054020334913804133 0 0.021486692900606022 -0.056128777585761291 0 0.023210595928515081 -0.053945907695421083 0 0.021529089044844772 -0.050814604278935985 0 0.019563819409951989 -0.054020334913804133 0 0.019563819409951989 -0.054020334913804133 0 0.021486692900606022 -0.056128777585761291 0 0.018674704332324096 -0.056913971895893874 0 0.011679598671295111 -0.044704284262601639 0 0.01206990914855733 -0.048815587855625557 0 0.021359859218525561 -0.059348254691110706 0 0.018674704332324096 -0.056913971895893874 0 0.017561036077782477 -0.059533687913704836 0 0.024484597929306223 -0.056448872301346063 0 0.021486692900606022 -0.056128777585761291 0 0.021474880731077561 -0.059309606195077288 0 0.021486692900606022 -0.056128777585761291 0 0.021474880731077561 -0.059309606195077288 0 0.018674704332324096 -0.056913971895893874 0 0.011679598671295111 -0.044704284262601639 0 0.015057706851561806 -0.048358634643080045 0 0.01206990914855733 -0.048815587855625557 0 0.01238903289763872 -0.051744015196593142 0 0.015892546966349473 -0.057488205706430949 0 0.017561036077782477 -0.059533687913704836 0 0.013704345118836517 -0.059695015346393959 0 0.016670647609889847 -0.055431910257009054 0 0.015892546966349473 -0.057488205706430949 0 0.018674704332324096 -0.056913971895893874 0 0.015892546966349473 -0.057488205706430949 0 0.018674704332324096 -0.056913971895893874 0 0.017561036077782477 -0.059533687913704836 0 0.016670647609889847 -0.055431910257009054 0 0.015892546966349473 -0.057488205706430949 0 0.012582899367678322 -0.056047907776972661 0 0.015892546966349473 -0.057488205706430949 0 0.013704345118836517 -0.059695015346393959 0 0.012582899367678322 -0.056047907776972661 0 0.01238903289763872 -0.051744015196593142 0 0.012528014228079387 -0.053245260369408569 0 0.01206913785907583 -0.055140737693069639 0 0.011707403141455101 -0.053779990384160835 0 0.011274659221728231 -0.054635635321939303 0 0.011468729711880959 -0.055171175133301144 0 0.01206913785907583 -0.055140737693069639 0 0.011274659221728231 -0.054635635321939303 0 0.012321957582067325 -0.051813799523229898 0 0.01238903289763872 -0.051744015196593142 0 0.012528014228079387 -0.053245260369408569 0 0.012403990220955133 -0.053149154040329903 0 0.012582899367678322 -0.056047907776972661 0 0.013745791622736633 -0.051755231475828938 0 0.011398684314745619 -0.052356607461370629 0 0.016154962210075025 -0.053025921914105108 0 0.016670647609889847 -0.055431910257009054 0 0.012582899367678322 -0.056047907776972661 0 0.016154962210075025 -0.053025921914105108 0 0.012582899367678322 -0.056047907776972661 0 0.013745791622736633 -0.051755231475828938 0 0.011707403141455101 -0.053779990384160835 0 0.010161049564930223 -0.053090090367950662 0 0.010479884283315685 -0.054298635067644388 0 0.011707403141455101 -0.053779990384160835 0 0.010161049564930223 -0.053090090367950662 0 0.011398684314745619 -0.052356607461370629 0 0.011707403141455101 -0.053779990384160835 0 0.010479884283315685 -0.054298635067644388 0 0.011274659221728231 -0.054635635321939303 0 0.010724301176034248 -0.055148071135293582 0 0.011468729711880959 -0.055171175133301144 0 0.011274659221728231 -0.054635635321939303 0 0.009944947343808597 -0.055340234387416268 0 0.010724301176034248 -0.055148071135293582 0 0.010479884283315685 -0.054298635067644388 0 0.010724301176034248 -0.055148071135293582 0 0.010479884283315685 -0.054298635067644388 0 0.011274659221728231 -0.054635635321939303 0 0.009944947343808597 -0.055340234387416268 0 0.0088849677185836966 -0.054748634530093439 0 0.0091325751102757802 -0.053672920932519061 0 0.009944947343808597 -0.055340234387416268 0 0.010479884283315685 -0.054298635067644388 0 0.0091325751102757802 -0.053672920932519061 0 0.0081066627676028031 -0.055361146451470417 0 0.0088849677185836966 -0.054748634530093439 0 0.0079763442046739737 -0.053538132410572446 0 0.0088849677185836966 -0.054748634530093439 0 0.0079763442046739737 -0.053538132410572446 0 0.0091325751102757802 -0.053672920932519061 0 0.008034108919974246 -0.052625154230629974 0 0.0091325751102757802 -0.053672920932519061 0 0.0084587082051392776 -0.052020001189494992 0 0.0079763442046739737 -0.053538132410572446 0 0.008034108919974246 -0.052625154230629974 0 0.0091325751102757802 -0.053672920932519061 0 0.010161049564930223 -0.053090090367950662 0 0.010479884283315685 -0.054298635067644388 0 0.0091325751102757802 -0.053672920932519061 0 0.010161049564930223 -0.053090090367950662 0 0.0091325751102757802 -0.053672920932519061 0 0.0084587082051392776 -0.052020001189494992 0 0.010161049564930223 -0.053090090367950662 0 0.0084587082051392776 -0.052020001189494992 0 0.0092809484881557196 -0.051260732672234188 0 0.0084587082051392776 -0.052020001189494992 0 0.0082898903551735844 -0.051154298531164155 0 0.0092809484881557196 -0.051260732672234188 0 0.0082898903551735844 -0.051154298531164155 0 0.0092809484881557196 -0.051260732672234188 0 0.0081860858106988631 -0.050255984231471339 0 0.0084587082051392776 -0.052020001189494992 0 0.0075114121389495718 -0.051878206624196233 0 0.0077572003142995678 -0.051087795649349226 0 0.008034108919974246 -0.052625154230629974 0 0.0084587082051392776 -0.052020001189494992 0 0.0075114121389495718 -0.051878206624196233 0 0.0084587082051392776 -0.052020001189494992 0 0.0082898903551735844 -0.051154298531164155 0 0.0077572003142995678 -0.051087795649349226 0 0.0075114121389495718 -0.051878206624196233 0 0.0077572003142995678 -0.051087795649349226 0 0.0072060882052211077 -0.051300171925063871 0 0.0077572003142995678 -0.051087795649349226 0 0.00738307502677723 -0.050982342205896564 0 0.0072060882052211077 -0.051300171925063871 0 0.0077572003142995678 -0.051087795649349226 0 0.0077066231376066129 -0.050757333769287101 0 0.0081860858106988631 -0.050255984231471339 0 0.0077572003142995678 -0.051087795649349226 0 0.0077066231376066129 -0.050757333769287101 0 0.00738307502677723 -0.050982342205896564 0 0.0081860858106988631 -0.050255984231471339 0 0.0089866252844849094 -0.049286031750844249 0 0.0077456691600624522 -0.047745583093968133 0 0.0092809484881557196 -0.051260732672234188 0 0.0081860858106988631 -0.050255984231471339 0 0.0089866252844849094 -0.049286031750844249 0 0.0082898903551735844 -0.051154298531164155 0 0.0077572003142995678 -0.051087795649349226 0 0.0081860858106988631 -0.050255984231471339 0 0.0092809484881557196 -0.051260732672234188 0 0.0089866252844849094 -0.049286031750844249 0 0.011183645593498659 -0.050206108990002801 0 0.0089866252844849094 -0.049286031750844249 0 0.011337037934351939 -0.047516405678302023 0 0.011183645593498659 -0.050206108990002801 0 0.0089866252844849094 -0.049286031750844249 0 0.011337037934351939 -0.047516405678302023 0 0.010028539754528124 -0.044507375954799144 0 0.011337037934351939 -0.047516405678302023 0 0.013707025176956517 -0.048438826027886225 0 0.013491803133762597 -0.044409241236345563 0 0.017372369610096475 -0.046205893598397399 0 0.013707025176956517 -0.048438826027886225 0 0.013491803133762597 -0.044409241236345563 0 0.011337037934351939 -0.047516405678302023 0 0.013707025176956517 -0.048438826027886225 0 0.011183645593498659 -0.050206108990002801 0 0.016003944462512805 -0.050124807006006807 0 0.013707025176956517 -0.048438826027886225 0 0.013745791622736633 -0.051755231475828938 0 0.013707025176956517 -0.048438826027886225 0 0.013745791622736633 -0.051755231475828938 0 0.011183645593498659 -0.050206108990002801 0 0.016003944462512805 -0.050124807006006807 0 0.016154962210075025 -0.053025921914105108 0 0.013745791622736633 -0.051755231475828938 0 0.013745791622736633 -0.051755231475828938 0 0.011398684314745619 -0.052356607461370629 0 0.011183645593498659 -0.050206108990002801 0 0.010161049564930223 -0.053090090367950662 0 0.0092809484881557196 -0.051260732672234188 0 0.011398684314745619 -0.052356607461370629 0 0.0092809484881557196 -0.051260732672234188 0 0.011398684314745619 -0.052356607461370629 0 0.011183645593498659 -0.050206108990002801 0 -0.007968871350748653 -0.068669271530269207 0 -0.0073475257655417686 -0.070422760817315896 0 -0.0055978701368309099 -0.068743509047857074 0 0.0051505091106022697 -0.052947608267794162 0 0.0057596768878142683 -0.052673208818065115 0 0.0057690765932002569 -0.052015857914204329 0 -0.0028319409068015677 -0.059733132887478932 0 -0.00051354997656757298 -0.059228680479684 0 -0.0020481176498721343 -0.060103474705028442 0 -0.0021738599235205892 -0.059851995360758324 0 -0.0017984691211355456 -0.059954636077870313 0 0.0051505091106022697 -0.052947608267794162 0 0.0061531474370138482 -0.053247262415352846 0 0.0057596768878142683 -0.052673208818065115 0 -0.0028319409068015677 -0.059733132887478932 0 0.003810625715603463 -0.056612852522348114 0 0.003810625715603463 -0.056612852522348114 0 0.0051530222760665613 -0.056172527643460986 0 0.003810625715603463 -0.056612852522348114 0 0.0054630251717789468 -0.053097138514588312 0 0.0061531474370138482 -0.053247262415352846 0 0.0057596768878142683 -0.052673208818065115 0 0.0065004726322009324 -0.052189657556430777 0 0.0057596768878142683 -0.052673208818065115 0 0.0065004726322009324 -0.052189657556430777 0 0.0057690765932002569 -0.052015857914204329 0 0.0053063083374741095 -0.054142560910633346 0 0.0059170050768185337 -0.052483629733906655 0 0.0066529417314726514 -0.053400896134798093 0 0.0059170050768185337 -0.052483629733906655 0 0.0066529417314726514 -0.053400896134798093 0 0.0071093139040391273 -0.052621144444680405 0 0.0081066627676028031 -0.055361146451470417 0 0.0066529417314726514 -0.053400896134798093 0 0.0055860697174084763 -0.054743513170450411 0 0.0053063083374741095 -0.054142560910633346 0 0.0066529417314726514 -0.053400896134798093 0 0.0059124108449236136 -0.054318451503763403 0 0.0057348211337321896 -0.055343176141589581 0 0.0051530222760665613 -0.056172527643460986 0 0.0081066627676028031 -0.055361146451470417 0 0.0079763442046739737 -0.053538132410572446 0 0.0066529417314726514 -0.053400896134798093 0 0.0079763442046739737 -0.053538132410572446 0 0.0066529417314726514 -0.053400896134798093 0 0.0071093139040391273 -0.052621144444680405 0 0.008034108919974246 -0.052625154230629974 0 0.0075114121389495718 -0.051878206624196233 0 0.0071093139040391273 -0.052621144444680405 0 0.0079763442046739737 -0.053538132410572446 0 0.008034108919974246 -0.052625154230629974 0 0.0071093139040391273 -0.052621144444680405 0 0.0075114121389495718 -0.051878206624196233 0 0.0071093139040391273 -0.052621144444680405 0 0.0068879081023618402 -0.051867594797732848 0 0.0075114121389495718 -0.051878206624196233 0 0.0068879081023618402 -0.051867594797732848 0 0.0072060882052211077 -0.051300171925063871 0 0.00738307502677723 -0.050982342205896564 0 0.0072060882052211077 -0.051300171925063871 0 0.0070408867477277587 -0.051088702256491661 0 0.0072060882052211077 -0.051300171925063871 0 0.0070408867477277587 -0.051088702256491661 0 0.0067315025131681489 -0.051243299959447194 0 0.0068879081023618402 -0.051867594797732848 0 0.0072060882052211077 -0.051300171925063871 0 0.0067315025131681489 -0.051243299959447194 0 0.0054630251717789468 -0.053097138514588312 0 0.0059182922660184004 -0.052165597721027142 0 0.0065004726322009324 -0.052189657556430777 0 0.0067315025131681489 -0.051243299959447194 0 0.0063989939950257818 -0.051189276151880646 0 0.0059170050768185337 -0.052483629733906655 0 0.0071093139040391273 -0.052621144444680405 0 0.0068879081023618402 -0.051867594797732848 0 0.0059170050768185337 -0.052483629733906655 0 0.0068879081023618402 -0.051867594797732848 0 0.0067315025131681489 -0.051243299959447194 0 0.0016982221940174177 -0.057545145963107648 0 -0.00051354997656757298 -0.059228680479684 0 0.0065004726322009324 -0.052189657556430777 0 0.0063989939950257818 -0.051189276151880646 0 0.0057690765932002569 -0.052015857914204329 0 -0.0021009145772706108 -0.065799138486655209 0 -0.0070311440131199431 -0.066358668665961018 0 -0.0055978701368309099 -0.068743509047857074 0 -0.0021009145772706108 -0.065799138486655209 0 -0.0070311440131199431 -0.066358668665961018 0 -0.0047136520245046427 -0.06373362143924842 0 -0.007968871350748653 -0.068669271530269207 0 -0.0070311440131199431 -0.066358668665961018 0 -0.0055978701368309099 -0.068743509047857074 0 -0.0088241150672288098 -0.055927236647061757 0 -0.0055285101245973493 -0.056169600658657191 0 -0.007840115172858441 -0.060108214221763705 0 -0.0055285101245973493 -0.056169600658657191 0 -0.0049262858433359938 -0.060225750811526535 0 -0.007840115172858441 -0.060108214221763705 0 -0.0049262858433359938 -0.060225750811526535 0 -0.007840115172858441 -0.060108214221763705 0 -0.007115080235014966 -0.063808553605781027 0 -0.010181104866643026 -0.065427507906626103 0 -0.0070311440131199431 -0.066358668665961018 0 -0.007115080235014966 -0.063808553605781027 0 -0.0070311440131199431 -0.066358668665961018 0 -0.007115080235014966 -0.063808553605781027 0 -0.0047136520245046427 -0.06373362143924842 0 -0.0049262858433359938 -0.060225750811526535 0 -0.007115080235014966 -0.063808553605781027 0 -0.0047136520245046427 -0.06373362143924842 0 -0.0049262858433359938 -0.060225750811526535 0 -0.0047136520245046427 -0.06373362143924842 0 -0.0023091136847071462 -0.061364695050196885 0 -0.0021009145772706108 -0.065799138486655209 0 -0.0047136520245046427 -0.06373362143924842 0 -0.0023091136847071462 -0.061364695050196885 0 -0.0049262858433359938 -0.060225750811526535 0 -0.0023091136847071462 -0.061364695050196885 0 -0.0020873025760220886 -0.056848598294038641 0 -0.0055285101245973493 -0.056169600658657191 0 -0.0049262858433359938 -0.060225750811526535 0 -0.0020873025760220886 -0.056848598294038641 0 -0.0023091136847071462 -0.061364695050196885 0 -0.0020873025760220886 -0.056848598294038641 0 0.0025217620299753884 -0.059633290390736886 0 -0.0020873025760220886 -0.056848598294038641 0 0.0025217620299753884 -0.059633290390736886 0 0.00090893529863018767 -0.052387664428628106 0 0.0025217620299753884 -0.059633290390736886 0 0.0062274257104724595 -0.051335619002252586 0 0.00090893529863018767 -0.052387664428628106 0 -0.0021009145772706108 -0.065799138486655209 0 -0.0023091136847071462 -0.061364695050196885 0 0.0025217620299753884 -0.059633290390736886 0 0.0070408867477277587 -0.051088702256491661 0 0.0067315025131681489 -0.051243299959447194 0 0.0069291091797683444 -0.051043016446958418 0 0.0067315025131681489 -0.051243299959447194 0 0.0063989939950257818 -0.051189276151880646 0 0.0069291091797683444 -0.051043016446958418 0 0.0016982221940174177 -0.057545145963107648 0 0.0037421566550636057 -0.055174772307405189 0 0.0069291091797683444 -0.051043016446958418 0 0.0071330518121862233 -0.051037568758245208 0 0.0068950445621114879 -0.05126819931544907 0 0.0070408867477277587 -0.051088702256491661 0 0.0069291091797683444 -0.051043016446958418 0 0.0071330518121862233 -0.051037568758245208 0 0.00738307502677723 -0.050982342205896564 0 0.0070408867477277587 -0.051088702256491661 0 0.0071330518121862233 -0.051037568758245208 0 0.0069291091797683444 -0.051043016446958418 0 0.0068950445621114879 -0.05126819931544907 0 0.0062274257104724595 -0.051335619002252586 0 0.0037421566550636057 -0.055174772307405189 0 0.0048028608461564235 -0.053612963219558434 0 0.0068950445621114879 -0.05126819931544907 0 0.0062274257104724595 -0.051335619002252586 0 0.0077857545654081324 -0.050530814881392147 0 0.0062274257104724595 -0.051335619002252586 0 0.0030777624192204651 -0.049722147192225216 0 0.00090893529863018767 -0.052387664428628106 0 0.0062274257104724595 -0.051335619002252586 0 0.0048605260293167144 -0.048381504901119844 0 0.0030777624192204651 -0.049722147192225216 0 0.0062274257104724595 -0.051335619002252586 0 0.0048605260293167144 -0.048381504901119844 0 0.0077857545654081324 -0.050530814881392147 0 0.0048605260293167144 -0.048381504901119844 0 0.0077857545654081324 -0.050530814881392147 0 0.0055325994329369259 -0.042469794772440526 0 0.0048605260293167144 -0.048381504901119844 0 0.0013267402836245662 -0.047071464574635929 0 0.0055325994329369259 -0.042469794772440526 0 0.0048605260293167144 -0.048381504901119844 0 0.0013267402836245662 -0.047071464574635929 0 0.0030777624192204651 -0.049722147192225216 0 0.0013267402836245662 -0.047071464574635929 0 -0.00069054351988574747 -0.049522045938531496 0 0.0030777624192204651 -0.049722147192225216 0 0.0013267402836245662 -0.047071464574635929 0 -0.00069054351988574747 -0.049522045938531496 0 -0.0030216850902218635 -0.04637506154629966 0 -0.00069054351988574747 -0.049522045938531496 0 0.0030777624192204651 -0.049722147192225216 0 0.00090893529863018767 -0.052387664428628106 0 -0.0055285101245973493 -0.056169600658657191 0 -0.0020873025760220886 -0.056848598294038641 0 -0.003346024394700975 -0.051650383225226013 0 -0.00069054351988574747 -0.049522045938531496 0 0.00090893529863018767 -0.052387664428628106 0 -0.003346024394700975 -0.051650383225226013 0 -0.0020873025760220886 -0.056848598294038641 0 0.00090893529863018767 -0.052387664428628106 0 -0.003346024394700975 -0.051650383225226013 0 -0.00069054351988574747 -0.049522045938531496 0 -0.003346024394700975 -0.051650383225226013 0 -0.0030216850902218635 -0.04637506154629966 0 -0.003346024394700975 -0.051650383225226013 0 -0.0030216850902218635 -0.04637506154629966 0 -0.0058308790598642886 -0.048690112137362115 0 -0.0030216850902218635 -0.04637506154629966 0 -0.0058308790598642886 -0.048690112137362115 0 -0.0064558506859794303 -0.045799183248735616 0 -0.0058308790598642886 -0.048690112137362115 0 -0.0090309707441386874 -0.047139321572123465 0 -0.0064558506859794303 -0.045799183248735616 0 -0.0058308790598642886 -0.048690112137362115 0 -0.0090309707441386874 -0.047139321572123465 0 -0.0087404974033727569 -0.050047541711672187 0 -0.0058308790598642886 -0.048690112137362115 0 -0.0087404974033727569 -0.050047541711672187 0 -0.0068698551839201059 -0.052528296117570698 0 -0.0098758838955619686 -0.053259466572953107 0 -0.0087404974033727569 -0.050047541711672187 0 -0.0068698551839201059 -0.052528296117570698 0 -0.003346024394700975 -0.051650383225226013 0 -0.0058308790598642886 -0.048690112137362115 0 -0.0068698551839201059 -0.052528296117570698 0 -0.0055285101245973493 -0.056169600658657191 0 -0.003346024394700975 -0.051650383225226013 0 -0.0068698551839201059 -0.052528296117570698 0 -0.0088241150672288098 -0.055927236647061757 0 -0.0055285101245973493 -0.056169600658657191 0 -0.0068698551839201059 -0.052528296117570698 0 -0.0088241150672288098 -0.055927236647061757 0 -0.0098758838955619686 -0.053259466572953107 0 -0.0068698551839201059 -0.052528296117570698 0 0.010384308491233962 -0.040403078968948708 0 0.010028539754528124 -0.044507375954799144 0 0.0059934459910373017 -0.040473051589745526 0 0.010384308491233962 -0.040403078968948708 0 0.0059934459910373017 -0.040473051589745526 0 0.0085681093379324589 -0.036006304681016246 0 0.010384308491233962 -0.040403078968948708 0 0.0085681093379324589 -0.036006304681016246 0 0.012287111513255003 -0.036680221204630652 0 0.010384308491233962 -0.040403078968948708 0 0.013885536494507425 -0.04017059738054319 0 0.012287111513255003 -0.036680221204630652 0 0.016000222480756242 -0.035620981641555957 0 0.013885536494507425 -0.04017059738054319 0 0.012287111513255003 -0.036680221204630652 0 0.010384308491233962 -0.040403078968948708 0 0.013885536494507425 -0.04017059738054319 0 0.013491803133762597 -0.044409241236345563 0 0.017880158950020979 -0.042375518951112356 0 0.013885536494507425 -0.04017059738054319 0 0.013491803133762597 -0.044409241236345563 0 0.011337037934351939 -0.047516405678302023 0 0.013491803133762597 -0.044409241236345563 0 0.010028539754528124 -0.044507375954799144 0 0.0089866252844849094 -0.049286031750844249 0 0.010028539754528124 -0.044507375954799144 0 0.0059934459910373017 -0.040473051589745526 0 0.010384308491233962 -0.040403078968948708 0 0.013491803133762597 -0.044409241236345563 0 0.010028539754528124 -0.044507375954799144 0 0.0079308273490480297 -0.045922286930813461 0 0.0074848634808829997 -0.042986445195187822 0 0.0089866252844849094 -0.049286031750844249 0 0.0077456691600624522 -0.047745583093968133 0 0.0088257416976926812 -0.047379890001270734 0 0.0078479559191213088 -0.049969401410132293 0 0.0075871835801358603 -0.049168753542946406 0 0.0077066231376066129 -0.050757333769287101 0 0.0081860858106988631 -0.050255984231471339 0 0.0073107580274848214 -0.051197663191214798 0 0.0077066231376066129 -0.050757333769287101 0 0.0073433147312382454 -0.051010509647182803 0 0.0073107580274848214 -0.051197663191214798 0 0.0068950445621114879 -0.05126819931544907 0 0.0073433147312382454 -0.051010509647182803 0 0.0073107580274848214 -0.051197663191214798 0 0.0077066231376066129 -0.050757333769287101 0 0.00738307502677723 -0.050982342205896564 0 0.0073433147312382454 -0.051010509647182803 0 0.00738307502677723 -0.050982342205896564 0 0.0071330518121862233 -0.051037568758245208 0 0.0073433147312382454 -0.051010509647182803 0 0.0071330518121862233 -0.051037568758245208 0 0.0068950445621114879 -0.05126819931544907 0 0.0073433147312382454 -0.051010509647182803 0 0.0077456691600624522 -0.047745583093968133 0 0.0080628518850168716 -0.046471862464733033 0 0.0069374910763970229 -0.045545563920447479 0 0.0068950445621114879 -0.05126819931544907 0 0.0073107580274848214 -0.051197663191214798 0 0.0077857545654081324 -0.050530814881392147 0 0.0075871835801358603 -0.049168753542946406 0 0.0070276175582500364 -0.047186337458270833 0 0.0077456691600624522 -0.047745583093968133 0 0.0088257416976926812 -0.047379890001270734 0 0.0080628518850168716 -0.046471862464733033 0 0.0088257416976926812 -0.047379890001270734 0 0.0080628518850168716 -0.046471862464733033 0 0.0089759276790554055 -0.044966974069640606 0 0.0080628518850168716 -0.046471862464733033 0 0.0069374910763970229 -0.045545563920447479 0 0.0089759276790554055 -0.044966974069640606 0 0.0074848634808829997 -0.042986445195187822 0 0.0068109610278847899 -0.037553170967957336 0 0.0069374910763970229 -0.045545563920447479 0 0.007496886932522543 -0.043632857515692951 0 0.0055325994329369259 -0.042469794772440526 0 0.0070276175582500364 -0.047186337458270833 0 0.006420799877095127 -0.045065820678367625 0 0.0069374910763970229 -0.045545563920447479 0 0.007496886932522543 -0.043632857515692951 0 0.0089759276790554055 -0.044966974069640606 0 0.0041775607301788274 -0.031122149694275899 0 0.01155167954312941 -0.030377332868726657 0 0.0073110703996997544 -0.02629837417625568 0 0.0041775607301788274 -0.031122149694275899 0 0.0085681093379324589 -0.036006304681016246 0 0.01155167954312941 -0.030377332868726657 0 0.0085681093379324589 -0.036006304681016246 0 0.012287111513255003 -0.036680221204630652 0 0.01155167954312941 -0.030377332868726657 0 0.0059934459910373017 -0.040473051589745526 0 0.0041775607301788274 -0.031122149694275899 0 0.0085681093379324589 -0.036006304681016246 0 0.016000222480756242 -0.035620981641555957 0 0.012287111513255003 -0.036680221204630652 0 0.01155167954312941 -0.030377332868726657 0 0.016000222480756242 -0.035620981641555957 0 0.017597561904511113 -0.03135769700369366 0 0.01155167954312941 -0.030377332868726657 0 0.017597561904511113 -0.03135769700369366 0 0.01155167954312941 -0.030377332868726657 0 0.01149183467773016 -0.023703522019663692 0 0.007945482236562924 -0.019450274817204384 0 0.0069648062474463399 -0.018338195351176232 0 0.00072181211876281562 -0.0070161172702822242 0 0.0035226992867609247 -0.012668492386431363 0 0.001033462238653794 -0.011185696437598782 0 0.0035226992867609247 -0.012668492386431363 0 0.0015327398467783221 -0.014083291282629321 0 0.001033462238653794 -0.011185696437598782 0 0.0035226992867609247 -0.012668492386431363 0 0.0015327398467783221 -0.014083291282629321 0 0.0026933954067958621 -0.016309144214914327 0 0.0015327398467783221 -0.014083291282629321 0 0.0026933954067958621 -0.016309144214914327 0 0.0010669904812349586 -0.016136611152932304 0 0.0069648062474463399 -0.018338195351176232 0 0.0062063048926170638 -0.017794904534023187 0 0.0035226992867609247 -0.012668492386431363 0 0.0026933954067958621 -0.016309144214914327 0 0.0047710380043304293 -0.018038939051245598 0 0.01149183467773016 -0.023703522019663692 0 0.0031898440108033268 -0.020918973457367894 0 0.0047710380043304293 -0.018038939051245598 0 0.01155167954312941 -0.030377332868726657 0 0.01149183467773016 -0.023703522019663692 0 0.0073110703996997544 -0.02629837417625568 0 0.01149183467773016 -0.023703522019663692 0 0.0073110703996997544 -0.02629837417625568 0 0.0031898440108033268 -0.020918973457367894 0 0.0068109610278847899 -0.037553170967957336 0 0.0062477529858285903 -0.031781517047193487 0 0.0041775607301788274 -0.031122149694275899 0 0.0073110703996997544 -0.02629837417625568 0 0.0031898440108033268 -0.020918973457367894 0 0.007496886932522543 -0.043632857515692951 0 0.0089759276790554055 -0.044966974069640606 0 0.0091929939033433689 -0.040822142297774082 0 0.007496886932522543 -0.043632857515692951 0 0.0091929939033433689 -0.040822142297774082 0 0.0055325994329369259 -0.042469794772440526 0 0.0059255995050094372 -0.03762358080255971 0 0.0091929939033433689 -0.040822142297774082 0 0.0055325994329369259 -0.042469794772440526 0 0.0031898440108033268 -0.020918973457367894 0 0.0047400376670969635 -0.017936139721620007 0 0.0047710380043304293 -0.018038939051245598 0 0.0059255995050094372 -0.03762358080255971 0 0.0091929939033433689 -0.040822142297774082 0 0.0081718815470488149 -0.034042888763957085 0 0.0047400376670969635 -0.017936139721620007 0 0.0047710380043304293 -0.018038939051245598 0 0.0034037255615219559 -0.018116572452318371 0 0.0062477529858285903 -0.031781517047193487 0 0.0057852954643267049 -0.027781185052144042 0 0.0059255995050094372 -0.03762358080255971 0 0.0081718815470488149 -0.034042888763957085 0 0.0045530480660036371 -0.032301665717970073 0 0.0059255995050094372 -0.03762358080255971 0 0.0045530480660036371 -0.032301665717970073 0 0.0029572054159172309 -0.03408689531004392 0 0.0081718815470488149 -0.034042888763957085 0 0.0045530480660036371 -0.032301665717970073 0 0.0037383578549366591 -0.025819868139599893 0 0.0045530480660036371 -0.032301665717970073 0 0.0029572054159172309 -0.03408689531004392 0 0.0023312756913821727 -0.030237584585714707 0 0.0057852954643267049 -0.027781185052144042 0 0.0054038430987840809 -0.026641186030317104 0 0.0047400376670969635 -0.017936139721620007 0 0.0029226977101025594 -0.0214904504053051 0 0.0022421102636920529 -0.019659752628225887 0 0.0047400376670969635 -0.017936139721620007 0 0.0029226977101025594 -0.0214904504053051 0 0.0037383578549366591 -0.025819868139599893 0 0.0029226977101025594 -0.0214904504053051 0 0.0022421102636920529 -0.019659752628225887 0 0.0012668900717683932 -0.021324688818978747 0 0.0022421102636920529 -0.019659752628225887 0 0.00052637904901173835 -0.019484420280013914 0 0.0017598493946471782 -0.01813710075517631 0 0.0022421102636920529 -0.019659752628225887 0 0.00052637904901173835 -0.019484420280013914 0 0.0012668900717683932 -0.021324688818978747 0 0.00052637904901173835 -0.019484420280013914 0 0.0017598493946471782 -0.01813710075517631 0 0.00050844235474118847 -0.017754892603630987 0 0.0017598493946471782 -0.01813710075517631 0 0.00050844235474118847 -0.017754892603630987 0 0.0010669904812349586 -0.016136611152932304 0 0.0026933954067958621 -0.016309144214914327 0 0.0017598493946471782 -0.01813710075517631 0 0.0010669904812349586 -0.016136611152932304 0 0.0026933954067958621 -0.016309144214914327 0 0.0017598493946471782 -0.01813710075517631 0 0.0034037255615219559 -0.018116572452318371 0 0.0047400376670969635 -0.017936139721620007 0 0.0022421102636920529 -0.019659752628225887 0 0.0034037255615219559 -0.018116572452318371 0 0.0026933954067958621 -0.016309144214914327 0 0.0047710380043304293 -0.018038939051245598 0 0.0034037255615219559 -0.018116572452318371 0 0.0022421102636920529 -0.019659752628225887 0 0.0017598493946471782 -0.01813710075517631 0 0.0034037255615219559 -0.018116572452318371 0 -0.0069677668370954765 -0.041303881719434277 0 -0.0038418391228318559 -0.038272603406383734 0 -0.007569975472209103 -0.03691069600226337 0 -0.010809419165876206 -0.04423633209080928 0 -0.0069677668370954765 -0.041303881719434277 0 -0.007569975472209103 -0.03691069600226337 0 -0.010809419165876206 -0.04423633209080928 0 -0.0069677668370954765 -0.041303881719434277 0 -0.0078515283756611688 -0.044318183487113597 0 -0.0090309707441386874 -0.047139321572123465 0 -0.0078515283756611688 -0.044318183487113597 0 -0.0064558506859794303 -0.045799183248735616 0 -0.0030216850902218635 -0.04637506154629966 0 -0.0064558506859794303 -0.045799183248735616 0 -0.0060862374182091457 -0.04327714933906935 0 -0.0078515283756611688 -0.044318183487113597 0 -0.0064558506859794303 -0.045799183248735616 0 -0.0060862374182091457 -0.04327714933906935 0 -0.0069677668370954765 -0.041303881719434277 0 -0.0078515283756611688 -0.044318183487113597 0 -0.0060862374182091457 -0.04327714933906935 0 -0.0069677668370954765 -0.041303881719434277 0 -0.0060862374182091457 -0.04327714933906935 0 -0.0035365410342707323 -0.042114411417676925 0 -0.0030216850902218635 -0.04637506154629966 0 -0.0060862374182091457 -0.04327714933906935 0 -0.0035365410342707323 -0.042114411417676925 0 -0.0030216850902218635 -0.04637506154629966 0 -0.0035365410342707323 -0.042114411417676925 0 0.00011859411525208371 -0.043174858859952481 0 -0.0035365410342707323 -0.042114411417676925 0 -0.0014829860684971367 -0.03983236863668152 0 0.00011859411525208371 -0.043174858859952481 0 -0.0035365410342707323 -0.042114411417676925 0 -0.0014829860684971367 -0.03983236863668152 0 -0.0038418391228318559 -0.038272603406383734 0 -0.0069677668370954765 -0.041303881719434277 0 -0.0035365410342707323 -0.042114411417676925 0 -0.0038418391228318559 -0.038272603406383734 0 -0.0014829860684971367 -0.03983236863668152 0 -0.0038418391228318559 -0.038272603406383734 0 -0.00088145537942408304 -0.036412208196139779 0 0.0012690410744155155 -0.039904846961403 0 0.0031447066377622169 -0.037678820839703676 0 -0.00088145537942408304 -0.036412208196139779 0 -0.0014829860684971367 -0.03983236863668152 0 0.0012690410744155155 -0.039904846961403 0 -0.00088145537942408304 -0.036412208196139779 0 -0.0014829860684971367 -0.03983236863668152 0 0.0012690410744155155 -0.039904846961403 0 0.00011859411525208371 -0.043174858859952481 0 0.0013267402836245662 -0.047071464574635929 0 -0.0030216850902218635 -0.04637506154629966 0 0.00011859411525208371 -0.043174858859952481 0 0.0013267402836245662 -0.047071464574635929 0 0.00011859411525208371 -0.043174858859952481 0 0.0055325994329369259 -0.042469794772440526 0 0.0012690410744155155 -0.039904846961403 0 0.00011859411525208371 -0.043174858859952481 0 0.0055325994329369259 -0.042469794772440526 0 0.0012690410744155155 -0.039904846961403 0 0.0055325994329369259 -0.042469794772440526 0 0.0031447066377622169 -0.037678820839703676 0 0.0059255995050094372 -0.03762358080255971 0 0.0055325994329369259 -0.042469794772440526 0 0.0031447066377622169 -0.037678820839703676 0 0.0031447066377622169 -0.037678820839703676 0 0.0029572054159172309 -0.03408689531004392 0 0.00051783513950623709 -0.033300156513169511 0 0.0059255995050094372 -0.03762358080255971 0 0.0031447066377622169 -0.037678820839703676 0 0.0029572054159172309 -0.03408689531004392 0 0.0029572054159172309 -0.03408689531004392 0 0.00051783513950623709 -0.033300156513169511 0 0.0023312756913821727 -0.030237584585714707 0 0.00051783513950623709 -0.033300156513169511 0 0.00028973719807963075 -0.03031128128012903 0 0.0023312756913821727 -0.030237584585714707 0 0.00051783513950623709 -0.033300156513169511 0 -0.0014666560338588085 -0.032310302198358891 0 0.00028973719807963075 -0.03031128128012903 0 0.00051783513950623709 -0.033300156513169511 0 -0.00088145537942408304 -0.036412208196139779 0 -0.0014666560338588085 -0.032310302198358891 0 0.0031447066377622169 -0.037678820839703676 0 0.00051783513950623709 -0.033300156513169511 0 -0.00088145537942408304 -0.036412208196139779 0 -0.00088145537942408304 -0.036412208196139779 0 -0.0034760541499770869 -0.03490912981193469 0 -0.0014666560338588085 -0.032310302198358891 0 -0.0038418391228318559 -0.038272603406383734 0 -0.00088145537942408304 -0.036412208196139779 0 -0.0034760541499770869 -0.03490912981193469 0 -0.0014666560338588085 -0.032310302198358891 0 -0.0039065978593967642 -0.031180251896836281 0 -0.0008385325651949012 -0.030106350339705171 0 -0.0034760541499770869 -0.03490912981193469 0 -0.0014666560338588085 -0.032310302198358891 0 -0.0039065978593967642 -0.031180251896836281 0 -0.0020778564337432834 -0.03454894119397689 0 -0.0046591135460974419 -0.035324344646522385 0 -0.0050650049093479491 -0.039414855386346148 0 -0.0032893964213350237 -0.034149882407345164 0 -0.0060358250954432721 -0.038687231336077973 0 -0.0034760541499770869 -0.03490912981193469 0 -0.0039065978593967642 -0.031180251896836281 0 -0.007569975472209103 -0.03691069600226337 0 -0.0065855372527120386 -0.037883138470215946 0 -0.0046591135460974419 -0.035324344646522385 0 -0.0050650049093479491 -0.039414855386346148 0 -0.0038418391228318559 -0.038272603406383734 0 -0.0034760541499770869 -0.03490912981193469 0 -0.007569975472209103 -0.03691069600226337 0 -0.0010250782017324326 -0.045367386569765702 0 0.00068445751210589173 -0.044863575156460778 0 -0.0004133951902147 -0.041582290553739923 0 -0.00050216986430130252 -0.046662936438046178 0 -0.00023571430700855935 -0.044235973964624288 0 -0.00023650258130643781 -0.041105792736619316 0 7.8395783777523268e-05 -0.03873206057746701 0 -0.0010250782017324326 -0.045367386569765702 0 5.7978836986175375e-05 -0.049386343586545492 0 0.00068445751210589173 -0.044863575156460778 0 -0.0020778564337432834 -0.03454894119397689 0 -0.0046591135460974419 -0.035324344646522385 0 -0.0016796389613591919 -0.032682339880623322 0 -0.0010145680178639542 -0.04624317341206325 0 -0.00023650258130643781 -0.041105792736619316 0 -0.0032893964213350237 -0.034149882407345164 0 -0.0014576336642478562 -0.032223461480634534 0 -0.0039065978593967642 -0.031180251896836281 0 -0.0008385325651949012 -0.030106350339705171 0 0.00020867822036452823 -0.028998777413423559 0 -0.0020778564337432834 -0.03454894119397689 0 -0.0016796389613591919 -0.032682339880623322 0 -5.4502519010004198e-05 -0.032239849026800368 0 -0.0008385325651949012 -0.030106350339705171 0 0.00020867822036452823 -0.028998777413423559 0 0.0001645436862822724 -0.029223092808106439 0 -0.0016796389613591919 -0.032682339880623322 0 -5.4502519010004198e-05 -0.032239849026800368 0 0.00067456816547924387 -0.032800578181455105 0 0.00020867822036452823 -0.028998777413423559 0 0.0001645436862822724 -0.029223092808106439 0 -2.4946398826614236e-05 -0.030441647714072064 0 0.0001645436862822724 -0.029223092808106439 0 0.00050059324171420987 -0.029191135585997816 0 -2.4946398826614236e-05 -0.030441647714072064 0 -0.0008385325651949012 -0.030106350339705171 0 0.0001645436862822724 -0.029223092808106439 0 0.00028973719807963075 -0.03031128128012903 0 -0.0014666560338588085 -0.032310302198358891 0 -0.0008385325651949012 -0.030106350339705171 0 0.00028973719807963075 -0.03031128128012903 0 0.0001645436862822724 -0.029223092808106439 0 0.00028973719807963075 -0.03031128128012903 0 0.0013410197387729583 -0.028836624748725975 0 0.00028973719807963075 -0.03031128128012903 0 0.0023312756913821727 -0.030237584585714707 0 0.0013410197387729583 -0.028836624748725975 0 0.0001645436862822724 -0.029223092808106439 0 0.0013410197387729583 -0.028836624748725975 0 0.00050059324171420987 -0.029191135585997816 0 0.0013410197387729583 -0.028836624748725975 0 0.00050059324171420987 -0.029191135585997816 0 0.0037383578549366591 -0.025819868139599893 0 0.00050059324171420987 -0.029191135585997816 0 0.00011547068453504555 -0.031278208614942279 0 0.00084979049339967681 -0.02805034977784612 0 0.00050059324171420987 -0.029191135585997816 0 0.00011547068453504555 -0.031278208614942279 0 -2.4946398826614236e-05 -0.030441647714072064 0 0.00011547068453504555 -0.031278208614942279 0 -1.8227103905285303e-06 -0.033051247652297208 0 0.00084979049339967681 -0.02805034977784612 0 0.00011547068453504555 -0.031278208614942279 0 -1.8227103905285303e-06 -0.033051247652297208 0 8.1687169190310571e-05 -0.034525960109720054 0 -1.8227103905285303e-06 -0.033051247652297208 0 8.1687169190310571e-05 -0.034525960109720054 0 5.8439708467782257e-06 -0.037645291066622552 0 0.00011547068453504555 -0.031278208614942279 0 8.1687169190310571e-05 -0.034525960109720054 0 -2.4946398826614236e-05 -0.030441647714072064 0 0.00020867822036452823 -0.028998777413423559 0 8.1687169190310571e-05 -0.034525960109720054 0 -2.4946398826614236e-05 -0.030441647714072064 0 -0.0014576336642478562 -0.032223461480634534 0 -0.0011392305426732349 -0.032794546390581519 0 -5.4502519010004198e-05 -0.032239849026800368 0 8.1687169190310571e-05 -0.034525960109720054 0 0.00067456816547924387 -0.032800578181455105 0 0.00066235958869798918 -0.041326025410932749 0 3.3751170257084172e-06 -0.037669334370026175 0 -2.8268167628656556e-06 -0.04065480208282278 0 8.1687169190310571e-05 -0.034525960109720054 0 0.00067456816547924387 -0.032800578181455105 0 5.8439708467782257e-06 -0.037645291066622552 0 7.8395783777523268e-05 -0.03873206057746701 0 4.369152110377221e-07 -0.037658413322191706 0 2.952145496812625e-07 -0.040671235460466783 0 -0.00023571430700855935 -0.044235973964624288 0 -0.00016337480549172826 -0.046761451626731301 0 5.8604231929457141e-06 -0.040674575367695136 0 0.0014680552167891615 -0.047557552453922132 0 0.00066235958869798918 -0.041326025410932749 0 -2.8268167628656556e-06 -0.04065480208282278 0 -0.0004133951902147 -0.041582290553739923 0 0.00068445751210589173 -0.044863575156460778 0 0.00066235958869798918 -0.041326025410932749 0 -0.0004133951902147 -0.041582290553739923 0 0.00070942195068469656 -0.022792589964787242 0 0.0037383578549366591 -0.025819868139599893 0 0.0007243797412451379 -0.025174126679117299 0 0.00070942195068469656 -0.022792589964787242 0 -4.9137335570946851e-05 -0.021011362877548213 0 -5.3966278288049991e-05 -0.020359353756426703 0 0.00070942195068469656 -0.022792589964787242 0 0.0012668900717683932 -0.021324688818978747 0 -5.3966278288049991e-05 -0.020359353756426703 0 0.00052637904901173835 -0.019484420280013914 0 0.0012668900717683932 -0.021324688818978747 0 -5.3966278288049991e-05 -0.020359353756426703 0 0.00070942195068469656 -0.022792589964787242 0 0.0012668900717683932 -0.021324688818978747 0 0.0037383578549366591 -0.025819868139599893 0 0.0029226977101025594 -0.0214904504053051 0 0.0012668900717683932 -0.021324688818978747 0 0.0037383578549366591 -0.025819868139599893 0 0.0045530480660036371 -0.032301665717970073 0 0.0023312756913821727 -0.030237584585714707 0 0.0037383578549366591 -0.025819868139599893 0 0.0023312756913821727 -0.030237584585714707 0 0.0013410197387729583 -0.028836624748725975 0 0.0037383578549366591 -0.025819868139599893 0 0.00050059324171420987 -0.029191135585997816 0 0.0037383578549366591 -0.025819868139599893 0 0.00084979049339967681 -0.02805034977784612 0 0.0037383578549366591 -0.025819868139599893 0 0.00084979049339967681 -0.02805034977784612 0 0.0007243797412451379 -0.025174126679117299 0 -1.8227103905285303e-06 -0.033051247652297208 0 0.00084979049339967681 -0.02805034977784612 0 1.3711674076824228e-06 -0.028444967627284969 0 0.00084979049339967681 -0.02805034977784612 0 1.3711674076824228e-06 -0.028444967627284969 0 0.0007243797412451379 -0.025174126679117299 0 1.3711674076824228e-06 -0.028444967627284969 0 0.0007243797412451379 -0.025174126679117299 0 1.453788815288404e-07 -0.023841244709202999 0 0.00070942195068469656 -0.022792589964787242 0 0.0007243797412451379 -0.025174126679117299 0 -4.9137335570946851e-05 -0.021011362877548213 0 1.453788815288404e-07 -0.023841244709202999 0 -5.1313354242999313e-07 -0.019236139378226057 0 -4.9137335570946851e-05 -0.021011362877548213 0 0.0007243797412451379 -0.025174126679117299 0 1.453788815288404e-07 -0.023841244709202999 0 -4.9137335570946851e-05 -0.021011362877548213 0 -5.1313354242999313e-07 -0.019236139378226057 0 -0.00038802898084914806 -0.017483854426527869 0 -4.9137335570946851e-05 -0.021011362877548213 0 -5.1313354242999313e-07 -0.019236139378226057 0 -0.00038802898084914806 -0.017483854426527869 0 -1.1295628229385561e-06 -0.014631962025947064 0 -0.00038802898084914806 -0.017483854426527869 0 -0.0010209148289821246 -0.016167344257504546 0 -0.00013684486893912021 -0.018561885911380943 0 -0.00038802898084914806 -0.017483854426527869 0 -4.9137335570946851e-05 -0.021011362877548213 0 -0.00013684486893912021 -0.018561885911380943 0 -1.1295628229385561e-06 -0.014631962025947064 0 -0.00069442157426663367 -0.014004393839957708 0 -1.491891656249933e-06 -0.010026200020084461 0 -0.00038802898084914806 -0.017483854426527869 0 -1.1295628229385561e-06 -0.014631962025947064 0 -0.00069442157426663367 -0.014004393839957708 0 -0.00038802898084914806 -0.017483854426527869 0 -0.00069442157426663367 -0.014004393839957708 0 -0.0010209148289821246 -0.016167344257504546 0 -0.00069442157426663367 -0.014004393839957708 0 -0.0009315777486520819 -0.015211477851948065 0 -0.0010209148289821246 -0.016167344257504546 0 -0.0017489954788423284 -0.0105175737176717 0 -0.001794113005725012 -0.011013777136081213 0 -0.0009315777486520819 -0.015211477851948065 0 -0.0010209148289821246 -0.016167344257504546 0 -0.0020106478979174639 -0.013311679132757258 0 -0.0010209148289821246 -0.016167344257504546 0 -0.0020106478979174639 -0.013311679132757258 0 -0.00013684486893912021 -0.018561885911380943 0 -0.0020106478979174639 -0.013311679132757258 0 -0.00013684486893912021 -0.018561885911380943 0 -0.0010851825571436124 -0.012381388376745841 0 -0.0020106478979174639 -0.013311679132757258 0 -0.0010851825571436124 -0.012381388376745841 0 -0.0022297668346152899 -0.012005353084379222 0 -0.0020106478979174639 -0.013311679132757258 0 -0.0022297668346152899 -0.012005353084379222 0 -0.0023675236493986142 -0.011403131705414958 0 -0.0028482427418196005 -0.0096455254419522823 0 -0.0020106478979174639 -0.013311679132757258 0 -0.0023675236493986142 -0.011403131705414958 0 -4.9137335570946851e-05 -0.021011362877548213 0 -0.00013684486893912021 -0.018561885911380943 0 -5.3966278288049991e-05 -0.020359353756426703 0 -0.0011799949447967846 -0.01623162720892694 0 -0.0018056355689419598 -0.015106664797813123 0 -0.00013684486893912021 -0.018561885911380943 0 -0.00058341119874279451 -0.019347842780841722 0 -0.0012703223510948335 -0.019016810982129845 0 -0.00013684486893912021 -0.018561885911380943 0 -0.0012703223510948335 -0.019016810982129845 0 -0.0020973871474905862 -0.019207432767526979 0 0.00052637904901173835 -0.019484420280013914 0 -5.3966278288049991e-05 -0.020359353756426703 0 -0.00058341119874279451 -0.019347842780841722 0 -0.00013684486893912021 -0.018561885911380943 0 -5.3966278288049991e-05 -0.020359353756426703 0 -0.00058341119874279451 -0.019347842780841722 0 0.00052637904901173835 -0.019484420280013914 0 -0.00058341119874279451 -0.019347842780841722 0 -0.00045126821026426835 -0.018326839289072829 0 0.00052637904901173835 -0.019484420280013914 0 -0.00045126821026426835 -0.018326839289072829 0 0.00050844235474118847 -0.017754892603630987 0 -0.00045126821026426835 -0.018326839289072829 0 0.00050844235474118847 -0.017754892603630987 0 -0.00039612043793479858 -0.016537074407112048 0 0.00050844235474118847 -0.017754892603630987 0 -0.00039612043793479858 -0.016537074407112048 0 0.0010669904812349586 -0.016136611152932304 0 -0.00039612043793479858 -0.016537074407112048 0 -0.0015713867187265962 -0.017255290694054182 0 -0.0015362646562104149 -0.014819985725225171 0 -0.0015713867187265962 -0.017255290694054182 0 -0.0028767758275582288 -0.016251754509667926 0 -0.0015362646562104149 -0.014819985725225171 0 -0.00045126821026426835 -0.018326839289072829 0 -0.00039612043793479858 -0.016537074407112048 0 -0.0015713867187265962 -0.017255290694054182 0 -0.0015713867187265962 -0.017255290694054182 0 -0.0012703223510948335 -0.019016810982129845 0 -0.0025751179970563303 -0.017642589103676283 0 -0.00045126821026426835 -0.018326839289072829 0 -0.0015713867187265962 -0.017255290694054182 0 -0.0012703223510948335 -0.019016810982129845 0 -0.00058341119874279451 -0.019347842780841722 0 -0.00045126821026426835 -0.018326839289072829 0 -0.0012703223510948335 -0.019016810982129845 0 -0.0020973871474905862 -0.019207432767526979 0 -0.0025751179970563303 -0.017642589103676283 0 -0.0052456264544937783 -0.016439315469968793 0 -0.0018056355689419598 -0.015106664797813123 0 -0.0026316650884524615 -0.013150367659827094 0 -0.0012703223510948335 -0.019016810982129845 0 -0.0020973871474905862 -0.019207432767526979 0 -0.0025751179970563303 -0.017642589103676283 0 -0.0022297668346152899 -0.012005353084379222 0 -0.0022137387873430053 -0.011170852883161175 0 -0.002312707400816791 -0.011776927530592349 0 -0.0010851825571436124 -0.012381388376745841 0 -0.0022297668346152899 -0.012005353084379222 0 -0.0022137387873430053 -0.011170852883161175 0 -0.0025751179970563303 -0.017642589103676283 0 -0.0052456264544937783 -0.016439315469968793 0 -0.0028767758275582288 -0.016251754509667926 0 -0.0052456264544937783 -0.016439315469968793 0 -0.0028767758275582288 -0.016251754509667926 0 -0.0037532620253179212 -0.01452972152485916 0 -0.0015713867187265962 -0.017255290694054182 0 -0.0025751179970563303 -0.017642589103676283 0 -0.0028767758275582288 -0.016251754509667926 0 -0.0028767758275582288 -0.016251754509667926 0 -0.0037532620253179212 -0.01452972152485916 0 -0.0015362646562104149 -0.014819985725225171 0 -0.0037532620253179212 -0.01452972152485916 0 -0.0017101868779876789 -0.01186796554322081 0 -0.0015362646562104149 -0.014819985725225171 0 -0.0025686206296748285 -0.012984637559667838 0 -0.0022899484881326554 -0.01267941636405117 0 -0.0031362405600021998 -0.012336895807384162 0 -0.0031055292608863972 -0.011627770260442025 0 -0.0034920572913062237 -0.011457825488564957 0 -0.0026316650884524615 -0.013150367659827094 0 -0.0030075435870966431 -0.012562796182996959 0 -0.0026316650884524615 -0.013150367659827094 0 -0.0025686206296748285 -0.012984637559667838 0 -0.0031362405600021998 -0.012336895807384162 0 -0.0024200550988245262 -0.011858304616115875 0 -0.0031055292608863972 -0.011627770260442025 0 -0.0024200550988245262 -0.011858304616115875 0 -0.0031055292608863972 -0.011627770260442025 0 -0.0028369448727732101 -0.010959671431414074 0 -0.0031055292608863972 -0.011627770260442025 0 -0.0041889051275666384 -0.01102779814824412 0 -0.0034920572913062237 -0.011457825488564957 0 -0.0031055292608863972 -0.011627770260442025 0 -0.0028369448727732101 -0.010959671431414074 0 -0.0041889051275666384 -0.01102779814824412 0 -0.0028369448727732101 -0.010959671431414074 0 -0.0032743597882725008 -0.0095271321429738348 0 -0.0023386852163609561 -0.0098787179425440918 0 -0.0045597801269581769 -0.0088871271008036309 0 -0.0032743597882725008 -0.0095271321429738348 0 -0.0041889051275666384 -0.01102779814824412 0 -0.0028369448727732101 -0.010959671431414074 0 -0.0032743597882725008 -0.0095271321429738348 0 -0.0041889051275666384 -0.01102779814824412 0 -0.0024200550988245262 -0.011858304616115875 0 -0.0021296961424061601 -0.011072617911764374 0 -0.0017101868779876789 -0.01186796554322081 0 -0.0024200550988245262 -0.011858304616115875 0 -0.0028369448727732101 -0.010959671431414074 0 -0.0021296961424061601 -0.011072617911764374 0 -0.0011392899319235177 -0.0097337610733530377 0 -0.0021296961424061601 -0.011072617911764374 0 -0.0017101868779876789 -0.01186796554322081 0 -0.0028369448727732101 -0.010959671431414074 0 -0.0021296961424061601 -0.011072617911764374 0 -0.0023386852163609561 -0.0098787179425440918 0 -0.0011392899319235177 -0.0097337610733530377 0 -0.0021296961424061601 -0.011072617911764374 0 -0.0023386852163609561 -0.0098787179425440918 0 -0.0017822061052803252 -0.0078439465339131681 0 -0.00023019963997323713 -0.0088772553137504914 0 -0.0011392899319235177 -0.0097337610733530377 0 -0.0017101868779876789 -0.01186796554322081 0 -0.00037844279416305101 -0.012521997044841174 0 -0.0011392899319235177 -0.0097337610733530377 0 -0.00037844279416305101 -0.012521997044841174 0 0.001033462238653794 -0.011185696437598782 0 0.0015327398467783221 -0.014083291282629321 0 -0.00037844279416305101 -0.012521997044841174 0 0.001033462238653794 -0.011185696437598782 0 0.0015327398467783221 -0.014083291282629321 0 -0.00037844279416305101 -0.012521997044841174 0 6.2149107099240044e-05 -0.014668704891573349 0 0.0015327398467783221 -0.014083291282629321 0 0.0010669904812349586 -0.016136611152932304 0 6.2149107099240044e-05 -0.014668704891573349 0 -0.00039612043793479858 -0.016537074407112048 0 0.0010669904812349586 -0.016136611152932304 0 6.2149107099240044e-05 -0.014668704891573349 0 -0.00039612043793479858 -0.016537074407112048 0 6.2149107099240044e-05 -0.014668704891573349 0 -0.0015362646562104149 -0.014819985725225171 0 -0.0017101868779876789 -0.01186796554322081 0 -0.00037844279416305101 -0.012521997044841174 0 -0.0015362646562104149 -0.014819985725225171 0 -0.00037844279416305101 -0.012521997044841174 0 6.2149107099240044e-05 -0.014668704891573349 0 -0.0015362646562104149 -0.014819985725225171 0 -0.0013284563739622036 -0.011882266580423463 0 -0.0011714509738812943 -0.011261192156750898 0 -0.00052460263972570426 -0.011717515413370794 0 -0.0013284563739622036 -0.011882266580423463 0 -0.0011714509738812943 -0.011261192156750898 0 -0.001779517250143888 -0.011455044448537543 0 -0.0011714509738812943 -0.011261192156750898 0 -0.001779517250143888 -0.011455044448537543 0 -0.001875800037553593 -0.011065094871010851 0 -0.0011714509738812943 -0.011261192156750898 0 -0.00052460263972570426 -0.011717515413370794 0 -0.00047326832179563229 -0.011105646290014102 0 7.33419791152855e-05 -0.011456860267519131 0 -0.00052460263972570426 -0.011717515413370794 0 -0.00047326832179563229 -0.011105646290014102 0 7.33419791152855e-05 -0.011456860267519131 0 0.00015213714810523158 -0.010923283493196453 0 0.00062620696338560699 -0.011227401717564128 0 7.33419791152855e-05 -0.011456860267519131 0 0.00015213714810523158 -0.010923283493196453 0 -0.00047326832179563229 -0.011105646290014102 0 7.33419791152855e-05 -0.011456860267519131 0 9.4909527335034548e-05 -0.01205278684397262 0 0.00056599058356590528 -0.011768602745324297 0 7.33419791152855e-05 -0.011456860267519131 0 -0.00052460263972570426 -0.011717515413370794 0 9.4909527335034548e-05 -0.01205278684397262 0 -0.0067921884688094064 -0.0033259056736466546 0 -0.0056355161557134796 -0.0011939979258370561 0 -0.00045223952390216119 -0.012751833229465326 0 9.4909527335034548e-05 -0.01205278684397262 0 0.00076878689823969056 -0.012464620965509267 0 -0.00052460263972570426 -0.011717515413370794 0 -0.00045223952390216119 -0.012751833229465326 0 9.4909527335034548e-05 -0.01205278684397262 0 -0.0013284563739622036 -0.011882266580423463 0 -0.00045223952390216119 -0.012751833229465326 0 -0.0021131702398341765 -0.012542993311639904 0 -0.0067921884688094064 -0.0033259056736466546 0 -0.0054648515416103041 -0.0067249759917669414 0 -0.0086250641996415325 -0.0086801213618643014 0 -0.014332173049251036 -0.010126197755792248 0 -0.0094380803421327559 -0.01059780362691779 0 -0.0013284563739622036 -0.011882266580423463 0 -0.00052460263972570426 -0.011717515413370794 0 -0.00045223952390216119 -0.012751833229465326 0 -0.0086250641996415325 -0.0086801213618643014 0 -0.0094380803421327559 -0.01059780362691779 0 -0.0041889051275666384 -0.01102779814824412 0 -0.0013284563739622036 -0.011882266580423463 0 -0.0021131702398341765 -0.012542993311639904 0 -0.0020700080251254967 -0.011782810032462662 0 -0.0021131702398341765 -0.012542993311639904 0 -0.0027814570506304991 -0.01173303634972399 0 -0.0020700080251254967 -0.011782810032462662 0 -0.0027814570506304991 -0.01173303634972399 0 -0.0041889051275666384 -0.01102779814824412 0 -0.0032590735812995258 -0.011444757035234785 0 -0.0045597801269581769 -0.0088871271008036309 0 -0.0086250641996415325 -0.0086801213618643014 0 -0.0041889051275666384 -0.01102779814824412 0 -0.0021131702398341765 -0.012542993311639904 0 -0.0027814570506304991 -0.01173303634972399 0 -0.0041889051275666384 -0.01102779814824412 0 -0.0054648515416103041 -0.0067249759917669414 0 -0.0046997730223842767 -0.0076810842718173624 0 -0.0041889051275666384 -0.01102779814824412 0 -0.0034920572913062237 -0.011457825488564957 0 -0.0032590735812995258 -0.011444757035234785 0 -0.0036389891420143304 -0.010816838515928153 0 -0.0034920572913062237 -0.011457825488564957 0 -0.0027313028933698149 -0.010933434581327915 0 -0.0034920572913062237 -0.011457825488564957 0 -0.0032590735812995258 -0.011444757035234785 0 -0.0025816972378467852 -0.011402341148648939 0 -0.0034920572913062237 -0.011457825488564957 0 -0.0025816972378467852 -0.011402341148648939 0 -0.0027313028933698149 -0.010933434581327915 0 -0.0020700080251254967 -0.011782810032462662 0 -0.001779517250143888 -0.011455044448537543 0 -0.0025816972378467852 -0.011402341148648939 0 -0.0013284563739622036 -0.011882266580423463 0 -0.0020700080251254967 -0.011782810032462662 0 -0.001779517250143888 -0.011455044448537543 0 -0.0027814570506304991 -0.01173303634972399 0 -0.0020700080251254967 -0.011782810032462662 0 -0.0025816972378467852 -0.011402341148648939 0 -0.0027814570506304991 -0.01173303634972399 0 -0.0032590735812995258 -0.011444757035234785 0 -0.0025816972378467852 -0.011402341148648939 0 -0.0025816972378467852 -0.011402341148648939 0 -0.001875800037553593 -0.011065094871010851 0 -0.0027313028933698149 -0.010933434581327915 0 -0.001779517250143888 -0.011455044448537543 0 -0.0025816972378467852 -0.011402341148648939 0 -0.001875800037553593 -0.011065094871010851 0 -0.001875800037553593 -0.011065094871010851 0 -0.0020290090166552146 -0.01065508409450208 0 -0.0010489207497611742 -0.010729899321385173 0 -0.0020290090166552146 -0.01065508409450208 0 -0.0014328870384872779 -0.010328012261799732 0 -0.0010489207497611742 -0.010729899321385173 0 -0.001875800037553593 -0.011065094871010851 0 -0.0020290090166552146 -0.01065508409450208 0 -0.0027313028933698149 -0.010933434581327915 0 -0.0036389891420143304 -0.010816838515928153 0 -0.0027313028933698149 -0.010933434581327915 0 -0.0026150602596780423 -0.010242184528191806 0 -0.0020290090166552146 -0.01065508409450208 0 -0.0027313028933698149 -0.010933434581327915 0 -0.0026150602596780423 -0.010242184528191806 0 -0.0026316650884524615 -0.013150367659827094 0 -0.0021307002617155478 -0.011945340942800827 0 -0.0022297668346152899 -0.012005353084379222 0 -0.002312707400816791 -0.011776927530592349 0 -0.0023675236493986142 -0.011403131705414958 0 -0.0020290090166552146 -0.01065508409450208 0 -0.0026150602596780423 -0.010242184528191806 0 -0.0014328870384872779 -0.010328012261799732 0 -0.0026150602596780423 -0.010242184528191806 0 -0.0014328870384872779 -0.010328012261799732 0 -0.0015010822311037481 -0.010238678447697259 0 -0.0021307002617155478 -0.011945340942800827 0 -0.0019203361098932977 -0.011548457883652921 0 -0.0014328870384872779 -0.010328012261799732 0 -0.0008405083502134044 -0.010026534317801558 0 -0.0015010822311037481 -0.010238678447697259 0 -0.0014328870384872779 -0.010328012261799732 0 -0.0010489207497611742 -0.010729899321385173 0 -0.00036704676102305506 -0.010291395680711799 0 -0.0008405083502134044 -0.010026534317801558 0 -0.00036704676102305506 -0.010291395680711799 0 -0.0002122818602747256 -0.0094683456892672106 0 -0.0014328870384872779 -0.010328012261799732 0 -0.0008405083502134044 -0.010026534317801558 0 -0.00036704676102305506 -0.010291395680711799 0 -0.0010489207497611742 -0.010729899321385173 0 -0.00027335197227481846 -0.010681873701876557 0 -0.00036704676102305506 -0.010291395680711799 0 -0.0010489207497611742 -0.010729899321385173 0 -0.00047326832179563229 -0.011105646290014102 0 -0.00027335197227481846 -0.010681873701876557 0 -0.0011714509738812943 -0.011261192156750898 0 -0.0010489207497611742 -0.010729899321385173 0 -0.00047326832179563229 -0.011105646290014102 0 -0.0011714509738812943 -0.011261192156750898 0 -0.001875800037553593 -0.011065094871010851 0 -0.0010489207497611742 -0.010729899321385173 0 0.00015213714810523158 -0.010923283493196453 0 -0.00047326832179563229 -0.011105646290014102 0 -0.00027335197227481846 -0.010681873701876557 0 -0.00027335197227481846 -0.010681873701876557 0 0.00036981512077717592 -0.010378404191727142 0 -0.00036704676102305506 -0.010291395680711799 0 0.00015213714810523158 -0.010923283493196453 0 -0.00027335197227481846 -0.010681873701876557 0 0.00036981512077717592 -0.010378404191727142 0 0.00036981512077717592 -0.010378404191727142 0 -0.00036704676102305506 -0.010291395680711799 0 0.00075639858376969006 -0.009656606477089472 0 -0.00036704676102305506 -0.010291395680711799 0 -0.0002122818602747256 -0.0094683456892672106 0 0.00075639858376969006 -0.009656606477089472 0 0.0006224248681907077 -0.0090239529063273465 0 -0.0002122818602747256 -0.0094683456892672106 0 0.00075639858376969006 -0.009656606477089472 0 0.0006224248681907077 -0.0090239529063273465 0 -0.0002122818602747256 -0.0094683456892672106 0 -0.00018043068953927703 -0.0086832116608737148 0 -0.0008405083502134044 -0.010026534317801558 0 -0.00083122281054485026 -0.0093727260752874929 0 -0.0002122818602747256 -0.0094683456892672106 0 -0.0008405083502134044 -0.010026534317801558 0 -0.00083122281054485026 -0.0093727260752874929 0 -0.0015010822311037481 -0.010238678447697259 0 -0.00083122281054485026 -0.0093727260752874929 0 -0.0002122818602747256 -0.0094683456892672106 0 -0.00018043068953927703 -0.0086832116608737148 0 -0.00083122281054485026 -0.0093727260752874929 0 -0.00018043068953927703 -0.0086832116608737148 0 -0.0006515039494631612 -0.0081834257923447049 0 -0.00018043068953927703 -0.0086832116608737148 0 -0.0006515039494631612 -0.0081834257923447049 0 7.0873628955333843e-05 -0.0074487397403984398 0 -0.00018043068953927703 -0.0086832116608737148 0 0.00060974925646478 -0.0082372299464672383 0 7.0873628955333843e-05 -0.0074487397403984398 0 0.00060974925646478 -0.0082372299464672383 0 0.00088364805160129377 -0.0073196904935924735 0 0.0014007276180731205 -0.0087768560600405589 0 0.00060974925646478 -0.0082372299464672383 0 0.00088364805160129377 -0.0073196904935924735 0 7.0873628955333843e-05 -0.0074487397403984398 0 0.0006224248681907077 -0.0090239529063273465 0 0.00060974925646478 -0.0082372299464672383 0 0.0014007276180731205 -0.0087768560600405589 0 0.0006224248681907077 -0.0090239529063273465 0 -0.00018043068953927703 -0.0086832116608737148 0 0.00060974925646478 -0.0082372299464672383 0 -0.002312707400816791 -0.011776927530592349 0 -0.0023675236493986142 -0.011403131705414958 0 -0.0015010822311037481 -0.010238678447697259 0 -0.0023675236493986142 -0.011403131705414958 0 -0.0015010822311037481 -0.010238678447697259 0 -0.0015961035087996664 -0.0091421481423465244 0 -0.00083122281054485026 -0.0093727260752874929 0 -0.0015010822311037481 -0.010238678447697259 0 -0.0015961035087996664 -0.0091421481423465244 0 -0.00083122281054485026 -0.0093727260752874929 0 -0.0006515039494631612 -0.0081834257923447049 0 -0.0015961035087996664 -0.0091421481423465244 0 -0.0006515039494631612 -0.0081834257923447049 0 -0.0015961035087996664 -0.0091421481423465244 0 -0.0010343669112596809 -0.0071530186607135253 0 -0.0028482427418196005 -0.0096455254419522823 0 -0.0023675236493986142 -0.011403131705414958 0 -0.0015961035087996664 -0.0091421481423465244 0 -0.00069442157426663367 -0.014004393839957708 0 -0.0009315777486520819 -0.015211477851948065 0 0.00067323560358871449 -0.011921850431178374 0 -0.0028482427418196005 -0.0096455254419522823 0 -0.0015961035087996664 -0.0091421481423465244 0 -0.0019547978111068382 -0.0069094887040835242 0 -0.0017489954788423284 -0.0105175737176717 0 -0.001305199179546551 -0.0087593733760808687 0 -0.0015961035087996664 -0.0091421481423465244 0 -0.0019547978111068382 -0.0069094887040835242 0 -0.0010343669112596809 -0.0071530186607135253 0 -0.001305199179546551 -0.0087593733760808687 0 -1.1873537828744312e-06 -0.0054254229973738129 0 0.00067323560358871449 -0.011921850431178374 0 4.2799089771170144e-06 -0.0054260409331223043 0 -1.491891656249933e-06 -0.010026200020084461 0 -0.0019547978111068382 -0.0069094887040835242 0 -0.0010343669112596809 -0.0071530186607135253 0 -7.1981918437464428e-06 -0.0054118805299033287 0 -0.00069442157426663367 -0.014004393839957708 0 0.00067323560358871449 -0.011921850431178374 0 -1.491891656249933e-06 -0.010026200020084461 0 0.0015202113274215754 -0.0064084945773211456 0 0.00088364805160129377 -0.0073196904935924735 0 0.0014007276180731205 -0.0087768560600405589 0 0.00020908596747242208 -0.0062539234202321024 0 0.0012459796002651051 -0.0063886246577798018 0 0.00088364805160129377 -0.0073196904935924735 0 0.0012459796002651051 -0.0063886246577798018 0 0.0021681269534979015 -0.0062235934550316594 0 -0.00014388203168038194 -0.0045665378584774634 0 0.00020908596747242208 -0.0062539234202321024 0 0.0012459796002651051 -0.0063886246577798018 0 -0.00014388203168038194 -0.0045665378584774634 0 0.0012459796002651051 -0.0063886246577798018 0 0.0015202113274215754 -0.0064084945773211456 0 0.00088364805160129377 -0.0073196904935924735 0 -0.00080773552562172298 0.0018354304993861187 0 -0.00083483117503441509 0.001893681213883865 0 0.00020908596747242208 -0.0062539234202321024 0 0.00088364805160129377 -0.0073196904935924735 0 7.0873628955333843e-05 -0.0074487397403984398 0 -0.0006515039494631612 -0.0081834257923447049 0 7.0873628955333843e-05 -0.0074487397403984398 0 -0.00044010452471479584 -0.0062774395157043934 0 -0.0006515039494631612 -0.0081834257923447049 0 -0.0010343669112596809 -0.0071530186607135253 0 -0.00044010452471479584 -0.0062774395157043934 0 0.00020908596747242208 -0.0062539234202321024 0 7.0873628955333843e-05 -0.0074487397403984398 0 -0.00044010452471479584 -0.0062774395157043934 0 0.00020908596747242208 -0.0062539234202321024 0 -0.00044010452471479584 -0.0062774395157043934 0 -0.00014388203168038194 -0.0045665378584774634 0 -7.1981918437464428e-06 -0.0054118805299033287 0 6.4870794261083387e-06 -0.0016419891059676088 0 -0.00014388203168038194 -0.0045665378584774634 0 -0.0010343669112596809 -0.0071530186607135253 0 -7.1981918437464428e-06 -0.0054118805299033287 0 -0.00044010452471479584 -0.0062774395157043934 0 -7.1981918437464428e-06 -0.0054118805299033287 0 -0.00044010452471479584 -0.0062774395157043934 0 -0.00014388203168038194 -0.0045665378584774634 0 0.0021681269534979015 -0.0062235934550316594 0 6.4870794261083387e-06 -0.0016419891059676088 0 -0.00014388203168038194 -0.0045665378584774634 0 -0.00083483117503441509 0.001893681213883865 0 -4.8484621222965113e-08 -0.0016275996359546895 0 7.1584959202862495e-05 0.0012767527983766319 0 2.1146485887722074e-06 -0.0016246416178578868 0 -1.5046448028986806e-06 0.0026399055788580688 0 7.1584959202862495e-05 0.0012767527983766319 0 -1.5046448028986806e-06 0.0026399055788580688 0 -0.00010984126750744094 0.0037555383738653225 0 -0.00083483117503441509 0.001893681213883865 0 -0.0022483783695790116 0.0057936883219678924 0 -0.007150809738142608 0.011880627231327713 0 -0.0049103010517728349 0.010767725580276395 0 -0.0062175474070660115 0.0094339951052110713 0 -0.007150809738142608 0.011880627231327713 0 -0.0049103010517728349 0.010767725580276395 0 -0.0046358285616046029 0.012415049454196775 0 -0.0049103010517728349 0.010767725580276395 0 -0.0046358285616046029 0.012415049454196775 0 -0.0032437843732495554 0.011151115278546299 0 -1.5046448028986806e-06 0.0026399055788580688 0 -0.00010984126750744094 0.0037555383738653225 0 2.1386645412215101e-07 0.0069136849180818569 0 -0.0046358285616046029 0.012415049454196775 0 -0.0021996056530197883 0.012938439171314773 0 -0.002351383851638788 0.011840047989042557 0 -0.0022483783695790116 0.0057936883219678924 0 -0.0017815214849448947 0.008373250002677678 0 -0.00010984126750744094 0.0037555383738653225 0 2.1386645412215101e-07 0.0069136849180818569 0 5.9194625127787333e-05 0.0082756488721049196 0 2.1386645412215101e-07 0.0069136849180818569 0 5.9194625127787333e-05 0.0082756488721049196 0 1.1560642043000244e-07 0.011187750197220084 0 -0.0021996056530197883 0.012938439171314773 0 -0.0013331771206548787 0.012204750439115135 0 -0.002351383851638788 0.011840047989042557 0 -0.002351383851638788 0.011840047989042557 0 -0.0014632120173577365 0.010997362411724805 0 -0.0032437843732495554 0.011151115278546299 0 -3.6246286584890291e-05 0.01071896942265352 0 -0.0012666513905873623 0.010886853043953463 0 -0.0013331771206548787 0.012204750439115135 0 -0.002351383851638788 0.011840047989042557 0 -0.0014632120173577365 0.010997362411724805 0 -0.0046358285616046029 0.012415049454196775 0 -0.002351383851638788 0.011840047989042557 0 -0.0032437843732495554 0.011151115278546299 0 -0.0049103010517728349 0.010767725580276395 0 -0.0032437843732495554 0.011151115278546299 0 -0.0032831039866178832 0.0089069976195080124 0 -0.0012741186051547094 0.010886117307918235 0 -0.0032437843732495554 0.011151115278546299 0 -0.0032831039866178832 0.0089069976195080124 0 -3.6246286584890291e-05 0.01071896942265352 0 -0.0014981121219333384 0.0025100265396896886 0 0.0045726303334384273 -0.0057355849418638137 0 0.0041440024107447628 -0.0083863478318812953 0 0.0028256612084260756 -0.0075545862475485089 0 0.0041440024107447628 -0.0083863478318812953 0 0.0028256612084260756 -0.0075545862475485089 0 0.0031089673996257425 -0.0097135155572307084 0 -0.0049103010517728349 0.010767725580276395 0 -0.0032831039866178832 0.0089069976195080124 0 -0.0062175474070660115 0.0094339951052110713 0 -0.0014981121219333384 0.0025100265396896886 0 -0.0028726657597468626 -0.0031772395881108587 0 -0.0032831039866178832 0.0089069976195080124 0 -0.0062175474070660115 0.0094339951052110713 0 -0.0052560147097098801 0.006936098525964259 0 -0.0022203626154542674 0.00020746965929350914 0 -0.0028726657597468626 -0.0031772395881108587 0 0.0006224248681907077 -0.0090239529063273465 0 0.00075639858376969006 -0.009656606477089472 0 0.0014007276180731205 -0.0087768560600405589 0 0.00075639858376969006 -0.009656606477089472 0 0.0014007276180731205 -0.0087768560600405589 0 0.001390488690027567 -0.010039341387938249 0 -0.00083483117503441509 0.001893681213883865 0 -0.0022203626154542674 0.00020746965929350914 0 -0.00077199585178276979 0.020553092514419159 0 -0.00074076756562764436 0.020354923984221639 0 -0.00064187219298565093 0.020465161233631655 0 -0.00074076756562764436 0.020354923984221639 0 -0.00064187219298565093 0.020465161233631655 0 -0.00051019430794530755 0.019805689228572915 0 -0.00064187219298565093 0.020465161233631655 0 -0.00044574752689258303 0.019826155103809254 0 -0.00051019430794530755 0.019805689228572915 0 -2.3532045039572083e-06 0.019076430777124707 0 -0.00044574752689258303 0.019826155103809254 0 -1.2770157549864776e-06 0.022695582229529148 0 -0.00064187219298565093 0.020465161233631655 0 -0.00044574752689258303 0.019826155103809254 0 -1.2770157549864776e-06 0.022695582229529148 0 -2.3532045039572083e-06 0.019076430777124707 0 -0.00044574752689258303 0.019826155103809254 0 -0.00025447361437397727 0.018315543695203152 0 -0.00044574752689258303 0.019826155103809254 0 -0.00025447361437397727 0.018315543695203152 0 -0.00051019430794530755 0.019805689228572915 0 -2.3532045039572083e-06 0.019076430777124707 0 -0.00025447361437397727 0.018315543695203152 0 4.1043820558809082e-06 0.015466909365860678 0 0.00061665976660720944 0.019815135274756934 0 0.00097277200102913067 0.020496387566311305 0 -0.0002592123140109701 0.020660307818011567 0 -0.00025447361437397727 0.018315543695203152 0 -0.00051019430794530755 0.019805689228572915 0 0.00061665976660720944 0.019815135274756934 0 -0.00074076756562764436 0.020354923984221639 0 -0.00051019430794530755 0.019805689228572915 0 -0.0002592123140109701 0.020660307818011567 0 -0.00051019430794530755 0.019805689228572915 0 0.00061665976660720944 0.019815135274756934 0 -0.0002592123140109701 0.020660307818011567 0 -0.00025447361437397727 0.018315543695203152 0 0.00061665976660720944 0.019815135274756934 0 0.002963923276319651 0.018531367197486995 0 0.00061665976660720944 0.019815135274756934 0 0.002963923276319651 0.018531367197486995 0 0.001360266483548894 0.021215891013867502 0 0.0032104784854562769 0.011809360280311647 0 0.002878029422476502 0.010537885275618131 0 2.5963973035660885e-07 0.015457315203543485 0 -1.4889165557159681e-05 0.013553531182114132 0 1.1560642043000244e-07 0.011187750197220084 0 -0.00025447361437397727 0.018315543695203152 0 4.1043820558809082e-06 0.015466909365860678 0 0.002963923276319651 0.018531367197486995 0 1.9221055614106233e-06 0.015457128317896982 0 0.00067468525347160846 0.013954767750545657 0 2.5963973035660885e-07 0.015457315203543485 0 -1.4889165557159681e-05 0.013553531182114132 0 -0.00015406956815962937 0.012358483616155073 0 -0.0017815214849448947 0.008373250002677678 0 -0.0012547573180446657 0.0094782487340827302 0 -0.0013331771206548787 0.012204750439115135 0 -1.4889165557159681e-05 0.013553531182114132 0 -0.00015406956815962937 0.012358483616155073 0 -0.0021996056530197883 0.012938439171314773 0 -0.0013331771206548787 0.012204750439115135 0 -1.4889165557159681e-05 0.013553531182114132 0 5.9194625127787333e-05 0.0082756488721049196 0 -1.4889165557159681e-05 0.013553531182114132 0 1.1560642043000244e-07 0.011187750197220084 0 -3.6246286584890291e-05 0.01071896942265352 0 0.00067468525347160846 0.013954767750545657 0 0.0051640526656985533 0.020673105553098207 0 0.002963923276319651 0.018531367197486995 0 0.001360266483548894 0.021215891013867502 0 -0.0013331771206548787 0.012204750439115135 0 -0.0014632120173577365 0.010997362411724805 0 -0.00015406956815962937 0.012358483616155073 0 -3.6246286584890291e-05 0.01071896942265352 0 0.002878029422476502 0.010537885275618131 0 0.0045726303334384273 -0.0057355849418638137 0 0.0057166821461352877 -0.0081135520153963261 0 0.0067905275483116784 -0.0060002948405171478 0 0.0045726303334384273 -0.0057355849418638137 0 0.0041440024107447628 -0.0083863478318812953 0 0.0057166821461352877 -0.0081135520153963261 0 -0.0027347671157680244 0.020459591273970037 0 -0.0023155441434847225 0.021059199685821525 0 -0.0021550494118893941 0.020647350379252947 0 -0.0027347671157680244 0.020459591273970037 0 -0.0021550494118893941 0.020647350379252947 0 -0.0020839533656480261 0.020120471840149298 0 0.00067732569064399208 0.0071721310227659662 0 0.002878029422476502 0.010537885275618131 0 -0.0023155441434847225 0.021059199685821525 0 -0.0018284988608592541 0.02094220838411278 0 -0.0021550494118893941 0.020647350379252947 0 0.002878029422476502 0.010537885275618131 0 0.00014425584624122941 0.013413016457857583 0 -0.0018284988608592541 0.02094220838411278 0 -0.0021550494118893941 0.020647350379252947 0 -0.0018030383048849952 0.020617783415885684 0 -0.0021550494118893941 0.020647350379252947 0 -0.0018030383048849952 0.020617783415885684 0 -0.0020839533656480261 0.020120471840149298 0 -0.0018030383048849952 0.020617783415885684 0 -0.0016894099339605795 0.022384571332911857 0 -0.0014634597425153013 0.021557111442195038 0 -0.0018030383048849952 0.020617783415885684 0 -0.001496940860369461 0.020231738826378205 0 -0.0013707152689360173 0.020949486305990129 0 -0.0018030383048849952 0.020617783415885684 0 -0.0014634597425153013 0.021557111442195038 0 -0.0013707152689360173 0.020949486305990129 0 -0.0018030383048849952 0.020617783415885684 0 -0.0010258318589874719 0.02062103538186914 0 -0.00081489077252121993 0.02049511395177284 0 0.00014425584624122941 0.013413016457857583 0 -0.00051406939689233944 0.014268089500919101 0 -0.0018284988608592541 0.02094220838411278 0 -0.0018030383048849952 0.020617783415885684 0 -0.0010258318589874719 0.02062103538186914 0 -0.0015464927420331548 0.021969781267911187 0 -0.001337849518035894 0.022476627560640623 0 -0.00074076756562764436 0.020354923984221639 0 -0.0002592123140109701 0.020660307818011567 0 -0.0010258318589874719 0.02062103538186914 0 -0.00077199585178276979 0.020553092514419159 0 -0.0010258318589874719 0.02062103538186914 0 -0.00081489077252121993 0.02049511395177284 0 -0.00077199585178276979 0.020553092514419159 0 -0.00074076756562764436 0.020354923984221639 0 -0.0010258318589874719 0.02062103538186914 0 -0.0018030383048849952 0.020617783415885684 0 -0.001496940860369461 0.020231738826378205 0 -0.0020839533656480261 0.020120471840149298 0 -0.001505550461248905 0.019543584346411895 0 -0.001496940860369461 0.020231738826378205 0 -0.0020839533656480261 0.020120471840149298 0 -0.00051608020004088851 0.015193911738215111 0 -0.00092652931836869322 0.013523618096526748 0 -0.001505550461248905 0.019543584346411895 0 -0.0020839533656480261 0.020120471840149298 0 -0.0021695925885806509 0.019394405357531255 0 -0.0020839533656480261 0.020120471840149298 0 -0.0026035686142898591 0.019791210157980965 0 -0.0021695925885806509 0.019394405357531255 0 -0.0026035686142898591 0.019791210157980965 0 -0.0028531577009998569 0.019170789647912728 0 -0.0021695925885806509 0.019394405357531255 0 -0.0027347671157680244 0.020459591273970037 0 -0.0020839533656480261 0.020120471840149298 0 -0.0026035686142898591 0.019791210157980965 0 0.00067732569064399208 0.0071721310227659662 0 -0.001233779032606424 0.0060781389917329495 0 0.0041440024107447628 -0.0083863478318812953 0 0.0057166821461352877 -0.0081135520153963261 0 0.0045974759391463676 -0.010164494875587486 0 -0.0027347671157680244 0.020459591273970037 0 -0.0026035686142898591 0.019791210157980965 0 -0.0031863888228058582 0.019745536993851197 0 -0.0026035686142898591 0.019791210157980965 0 -0.0028531577009998569 0.019170789647912728 0 -0.0031863888228058582 0.019745536993851197 0 -0.0022447606074094718 0.0091322189384817603 0 -0.0039008311408576068 0.006832281062940336 0 -0.0028181811917041603 0.0054488139387315797 0 -0.0022447606074094718 0.0091322189384817603 0 -0.00051597878743849207 0.007256510921567305 0 -0.0028181811917041603 0.0054488139387315797 0 -0.0022447606074094718 0.0091322189384817603 0 -0.00051597878743849207 0.007256510921567305 0 0.00038239909218329876 0.010628771478767732 0 -0.0020597144907555259 0.010967579270640094 0 -0.00092652931836869322 0.013523618096526748 0 0.00038239909218329876 0.010628771478767732 0 0.0012515280295862503 0.0096106653041044543 0 0.0018187393032875782 0.010683929485255501 0 -0.00051597878743849207 0.007256510921567305 0 0.00038239909218329876 0.010628771478767732 0 0.0012515280295862503 0.0096106653041044543 0 -0.00051597878743849207 0.007256510921567305 0 0.0012515280295862503 0.0096106653041044543 0 0.0011149355840686069 0.0080266712347368003 0 0.0012515280295862503 0.0096106653041044543 0 0.0011149355840686069 0.0080266712347368003 0 0.0022212831238677586 0.0096357606930720426 0 0.0012515280295862503 0.0096106653041044543 0 0.0022212831238677586 0.0096357606930720426 0 0.0021070401706308941 0.011392782122460176 0 0.0012515280295862503 0.0096106653041044543 0 0.0018187393032875782 0.010683929485255501 0 0.0021070401706308941 0.011392782122460176 0 0.0018384328863055624 0.010728595425803896 0 0.0018187393032875782 0.010683929485255501 0 0.0009626346364583709 0.011144457765945826 0 0.0018384328863055624 0.010728595425803896 0 0.00038239909218329876 0.010628771478767732 0 0.0018187393032875782 0.010683929485255501 0 0.0014967229897045471 -0.010206301864669788 0 0.0020189481612236534 -0.010577809753060151 0 0.0013658074864217001 -0.010661388172180264 0 0.0014967229897045471 -0.010206301864669788 0 0.0013658074864217001 -0.010661388172180264 0 0.0012245313995505765 -0.010363737979046151 0 0.0014967229897045471 -0.010206301864669788 0 0.0012245313995505765 -0.010363737979046151 0 0.0012081662792251563 -0.010147929667333654 0 0.0014967229897045471 -0.010206301864669788 0 0.0020189481612236534 -0.010577809753060151 0 0.0021232087434387942 -0.0094962024512723429 0 0.0020189481612236534 -0.010577809753060151 0 0.0014905194086839201 -0.011172081881494543 0 0.0020923725562221919 -0.011476240573472032 0 0.0020189481612236534 -0.010577809753060151 0 0.0013658074864217001 -0.010661388172180264 0 0.0014905194086839201 -0.011172081881494543 0 0.0013658074864217001 -0.010661388172180264 0 0.0010532970953296382 -0.011012071306331292 0 0.0014905194086839201 -0.011172081881494543 0 0.0010532970953296382 -0.011012071306331292 0 0.00068518237287238596 -0.010748330524861693 0 0.0010365594156898936 -0.010625726626550827 0 0.0013658074864217001 -0.010661388172180264 0 0.0010532970953296382 -0.011012071306331292 0 0.0010365594156898936 -0.010625726626550827 0 0.00015213714810523158 -0.010923283493196453 0 0.00068518237287238596 -0.010748330524861693 0 0.00062620696338560699 -0.011227401717564128 0 0.0010532970953296382 -0.011012071306331292 0 0.00068518237287238596 -0.010748330524861693 0 0.00062620696338560699 -0.011227401717564128 0 0.00015213714810523158 -0.010923283493196453 0 0.00036981512077717592 -0.010378404191727142 0 0.00068518237287238596 -0.010748330524861693 0 0.00036981512077717592 -0.010378404191727142 0 0.00068518237287238596 -0.010748330524861693 0 0.00089713157153320771 -0.010362889862167948 0 0.0013658074864217001 -0.010661388172180264 0 0.0010365594156898936 -0.010625726626550827 0 0.0012245313995505765 -0.010363737979046151 0 0.00068518237287238596 -0.010748330524861693 0 0.0010365594156898936 -0.010625726626550827 0 0.00089713157153320771 -0.010362889862167948 0 0.0010365594156898936 -0.010625726626550827 0 0.00089713157153320771 -0.010362889862167948 0 0.0012245313995505765 -0.010363737979046151 0 0.0012081662792251563 -0.010147929667333654 0 0.00093339674988700998 -0.010072035827674398 0 0.001390488690027567 -0.010039341387938249 0 0.00075639858376969006 -0.009656606477089472 0 0.00093339674988700998 -0.010072035827674398 0 0.001390488690027567 -0.010039341387938249 0 0.00089713157153320771 -0.010362889862167948 0 0.0012245313995505765 -0.010363737979046151 0 0.0012081662792251563 -0.010147929667333654 0 0.00036981512077717592 -0.010378404191727142 0 0.00075639858376969006 -0.009656606477089472 0 0.00093339674988700998 -0.010072035827674398 0 0.00089713157153320771 -0.010362889862167948 0 0.0012081662792251563 -0.010147929667333654 0 0.00093339674988700998 -0.010072035827674398 0 0.00036981512077717592 -0.010378404191727142 0 0.00089713157153320771 -0.010362889862167948 0 0.00093339674988700998 -0.010072035827674398 0 0.0028256612084260756 -0.0075545862475485089 0 0.0011401664937673169 -0.0093734187840326787 0 0.0021232087434387942 -0.0094962024512723429 0 0.0014967229897045471 -0.010206301864669788 0 0.0011401664937673169 -0.0093734187840326787 0 0.0021232087434387942 -0.0094962024512723429 0 0.0014967229897045471 -0.010206301864669788 0 0.0012081662792251563 -0.010147929667333654 0 0.0013250744703528997 -0.010024759332431261 0 -0.0024293818782273168 -0.0041616008618803081 0 -0.0028726657597468626 -0.0031772395881108587 0 -0.0028684001307839962 -0.003292190176935167 0 -0.0028726657597468626 -0.0031772395881108587 0 0.0028256612084260756 -0.0075545862475485089 0 0.0021232087434387942 -0.0094962024512723429 0 0.0031089673996257425 -0.0097135155572307084 0 0.0020189481612236534 -0.010577809753060151 0 0.0021232087434387942 -0.0094962024512723429 0 0.0031089673996257425 -0.0097135155572307084 0 0.0041440024107447628 -0.0083863478318812953 0 0.0031089673996257425 -0.0097135155572307084 0 0.0045974759391463676 -0.010164494875587486 0 0.0045974759391463676 -0.010164494875587486 0 0.003481735966998419 -0.010708926479039343 0 0.0035109800326831131 -0.011967859578551976 0 0.0031089673996257425 -0.0097135155572307084 0 0.0045974759391463676 -0.010164494875587486 0 0.003481735966998419 -0.010708926479039343 0 0.0020189481612236534 -0.010577809753060151 0 0.0031089673996257425 -0.0097135155572307084 0 0.0027015663265014698 -0.010950962417670634 0 0.0031089673996257425 -0.0097135155572307084 0 0.003481735966998419 -0.010708926479039343 0 0.0027015663265014698 -0.010950962417670634 0 0.0020189481612236534 -0.010577809753060151 0 0.0027015663265014698 -0.010950962417670634 0 0.0020923725562221919 -0.011476240573472032 0 0.003481735966998419 -0.010708926479039343 0 0.0027015663265014698 -0.010950962417670634 0 0.0035109800326831131 -0.011967859578551976 0 0.0027015663265014698 -0.010950962417670634 0 0.0035109800326831131 -0.011967859578551976 0 0.0020923725562221919 -0.011476240573472032 0 -0.0041011386727694901 0.0064993402850363523 0 -0.0043672750806780574 0.0018329843645667645 0 0.0035109800326831131 -0.011967859578551976 0 0.0020364632993954373 -0.012237813531374707 0 0.0020923725562221919 -0.011476240573472032 0 -0.0022447606074094718 0.0091322189384817603 0 -0.0049187956367894511 0.007574100871290154 0 -0.0039008311408576068 0.006832281062940336 0 -0.001233779032606424 0.0060781389917329495 0 -0.0041011386727694901 0.0064993402850363523 0 -0.0020597144907555259 0.010967579270640094 0 -0.0041011386727694901 0.0064993402850363523 0 -0.0028531577009998569 0.019170789647912728 0 -0.0031863888228058582 0.019745536993851197 0 -0.0036110320522982054 0.018939610724808233 0 -0.0041011386727694901 0.0064993402850363523 0 -0.0041089763508103784 0.0065131100017314265 0 -0.0039008311408576068 0.006832281062940336 0 -0.0045984650958487963 0.0052981890562534125 0 -0.0028181811917041603 0.0054488139387315797 0 -0.0039008311408576068 0.006832281062940336 0 -0.0045984650958487963 0.0052981890562534125 0 -0.0051782902833371804 0.0068306516163677165 0 -0.0049187956367894511 0.007574100871290154 0 -0.0039008311408576068 0.006832281062940336 0 -0.0051782902833371804 0.0068306516163677165 0 -0.0047927125507006944 0.0075987649885137275 0 -0.0051782902833371804 0.0068306516163677165 0 -0.0079381435215251338 0.0066059149065711515 0 -0.0064324118977936769 0.005768799917861776 0 -0.0051782902833371804 0.0068306516163677165 0 -0.0079381435215251338 0.0066059149065711515 0 -0.0045984650958487963 0.0052981890562534125 0 -0.0064324118977936769 0.005768799917861776 0 -0.0051782902833371804 0.0068306516163677165 0 -0.0045984650958487963 0.0052981890562534125 0 -0.0064324118977936769 0.005768799917861776 0 -0.0057317564246365353 0.0038465455040242137 0 -0.0043672750806780574 0.0018329843645667645 0 -0.0056355161557134796 -0.0011939979258370561 0 -0.0064324118977936769 0.005768799917861776 0 -0.010394125276830648 0.0044240278878753883 0 -0.0057317564246365353 0.0038465455040242137 0 -0.0064324118977936769 0.005768799917861776 0 -0.0079381435215251338 0.0066059149065711515 0 -0.010394125276830648 0.0044240278878753883 0 -0.0079381435215251338 0.0066059149065711515 0 -0.010394125276830648 0.0044240278878753883 0 -0.011402994184649148 0.0056573513403371063 0 0.0020364632993954373 -0.012237813531374707 0 0.001164427574485899 -0.011703831677862073 0 0.00076878689823969056 -0.012464620965509267 0 0.0020364632993954373 -0.012237813531374707 0 0.0020923725562221919 -0.011476240573472032 0 0.001164427574485899 -0.011703831677862073 0 0.0014905194086839201 -0.011172081881494543 0 0.0020923725562221919 -0.011476240573472032 0 0.001164427574485899 -0.011703831677862073 0 0.0010532970953296382 -0.011012071306331292 0 0.0014905194086839201 -0.011172081881494543 0 0.001164427574485899 -0.011703831677862073 0 7.33419791152855e-05 -0.011456860267519131 0 0.00062620696338560699 -0.011227401717564128 0 0.00056599058356590528 -0.011768602745324297 0 0.0010532970953296382 -0.011012071306331292 0 0.00062620696338560699 -0.011227401717564128 0 0.001164427574485899 -0.011703831677862073 0 0.00062620696338560699 -0.011227401717564128 0 0.001164427574485899 -0.011703831677862073 0 0.00056599058356590528 -0.011768602745324297 0 0.001164427574485899 -0.011703831677862073 0 0.00056599058356590528 -0.011768602745324297 0 0.00076878689823969056 -0.012464620965509267 0 9.4909527335034548e-05 -0.01205278684397262 0 0.00056599058356590528 -0.011768602745324297 0 0.00076878689823969056 -0.012464620965509267 0 -0.0067921884688094064 -0.0033259056736466546 0 -0.0074400732859433803 -0.00038249297710567714 0 -0.014667825886570401 0.0048076969837496106 0 -0.010394125276830648 0.0044240278878753883 0 -0.011402994184649148 0.0056573513403371063 0 -0.0061247276909021002 0.00087651216447796529 0 -0.0060676848166200722 6.8813265679865471e-05 0 -0.0060562041231882096 0.00076907833082460032 0 -0.0060220841237418219 -0.00083847143058692845 0 -0.0061247276909021002 0.00087651216447796529 0 -0.0060676848166200722 6.8813265679865471e-05 0 -0.0060676848166200722 6.8813265679865471e-05 0 -0.0060451629898007888 8.5315586852440401e-05 0 -0.0060562041231882096 0.00076907833082460032 0 -0.0074400732859433803 -0.00038249297710567714 0 -0.0065463346935346819 0.00047893438692099907 0 -0.0061247276909021002 0.00087651216447796529 0 -0.0059753047513412053 0.0018150033308674536 0 -0.0060562041231882096 0.00076907833082460032 0 -0.0061247276909021002 0.00087651216447796529 0 -0.0059753047513412053 0.0018150033308674536 0 -0.0057317564246365353 0.0038465455040242137 0 -0.0057861371509323111 0.001035693046566566 0 -0.0060562041231882096 0.00076907833082460032 0 -0.005925110494193306 0.00032417598490286977 0 -0.0059753047513412053 0.0018150033308674536 0 -0.0057861371509323111 0.001035693046566566 0 -0.0060562041231882096 0.00076907833082460032 0 -0.0059753047513412053 0.0018150033308674536 0 -0.0057861371509323111 0.001035693046566566 0 -0.0054751413650102809 0.002389028086172469 0 -0.0059637330465387604 -0.0003505115760144149 0 -0.0060451629898007888 8.5315586852440401e-05 0 -0.005925110494193306 0.00032417598490286977 0 -0.0060451629898007888 8.5315586852440401e-05 0 -0.0060562041231882096 0.00076907833082460032 0 -0.005925110494193306 0.00032417598490286977 0 -0.0059637330465387604 -0.0003505115760144149 0 -0.005925110494193306 0.00032417598490286977 0 -0.005645379878032878 0.00023167355360249843 0 -0.0059637330465387604 -0.0003505115760144149 0 -0.005797067092213698 -2.5429291952698101e-05 0 -0.005645379878032878 0.00023167355360249843 0 -0.0057861371509323111 0.001035693046566566 0 -0.005925110494193306 0.00032417598490286977 0 -0.005645379878032878 0.00023167355360249843 0 -0.0057861371509323111 0.001035693046566566 0 -0.005645379878032878 0.00023167355360249843 0 -0.0050609873939627707 0.00084482794215018256 0 -0.0022756082200616795 0.0052665433970898647 0 0.0019687887920326981 0.0090171566493937941 0 0.00097757203496424885 0.0050491275141022708 0 -0.0028328114829317451 0.0030905999626426239 0 -0.0010490541982718245 0.0045198066205627144 0 -0.0051488130921667008 0.00014723067421268339 0 -0.0050609873939627707 0.00084482794215018256 0 -0.0036666293448221121 0.00052065636210769808 0 -0.005645379878032878 0.00023167355360249843 0 -0.0051488130921667008 0.00014723067421268339 0 -0.0050609873939627707 0.00084482794215018256 0 -0.0050609873939627707 0.00084482794215018256 0 -0.0037707315721742635 0.0017531577532647231 0 -0.0048040385143128441 0.0020087696230601288 0 -0.0050609873939627707 0.00084482794215018256 0 -0.0037707315721742635 0.0017531577532647231 0 -0.0036666293448221121 0.00052065636210769808 0 -0.0048040385143128441 0.0020087696230601288 0 -0.0043625797962803638 0.0037078026473956662 0 -0.0031832694300561988 0.0033212046150484704 0 -0.0037707315721742635 0.0017531577532647231 0 -0.0048040385143128441 0.0020087696230601288 0 -0.0031832694300561988 0.0033212046150484704 0 -0.0048040385143128441 0.0020087696230601288 0 -0.0054751413650102809 0.002389028086172469 0 -0.0043625797962803638 0.0037078026473956662 0 -0.0057861371509323111 0.001035693046566566 0 -0.0050609873939627707 0.00084482794215018256 0 -0.0048040385143128441 0.0020087696230601288 0 -0.0057861371509323111 0.001035693046566566 0 -0.0048040385143128441 0.0020087696230601288 0 -0.0054751413650102809 0.002389028086172469 0 -0.0059753047513412053 0.0018150033308674536 0 -0.0054751413650102809 0.002389028086172469 0 -0.0057317564246365353 0.0038465455040242137 0 -0.0054751413650102809 0.002389028086172469 0 -0.0057317564246365353 0.0038465455040242137 0 -0.0043625797962803638 0.0037078026473956662 0 -0.0045984650958487963 0.0052981890562534125 0 -0.0043625797962803638 0.0037078026473956662 0 -0.0028181811917041603 0.0054488139387315797 0 -0.0045984650958487963 0.0052981890562534125 0 -0.0057317564246365353 0.0038465455040242137 0 -0.0043625797962803638 0.0037078026473956662 0 -0.0043625797962803638 0.0037078026473956662 0 -0.0028181811917041603 0.0054488139387315797 0 -0.0031832694300561988 0.0033212046150484704 0 -0.0028181811917041603 0.0054488139387315797 0 -0.0013702755019889532 0.004783098967353603 0 -0.0031832694300561988 0.0033212046150484704 0 -0.00051597878743849207 0.007256510921567305 0 -0.0028181811917041603 0.0054488139387315797 0 -0.0013702755019889532 0.004783098967353603 0 -0.00051597878743849207 0.007256510921567305 0 -0.0013702755019889532 0.004783098967353603 0 0.0011068473739865975 0.0054699819413652796 0 0.00051711835616174517 0.0057822235863465481 0 0.0014872033437958437 0.0068521780478029677 0 -0.0013702755019889532 0.004783098967353603 0 -0.0012568351498280876 0.0023124251689819017 0 0.0011068473739865975 0.0054699819413652796 0 -0.0037707315721742635 0.0017531577532647231 0 -0.0012568351498280876 0.0023124251689819017 0 -0.0031832694300561988 0.0033212046150484704 0 -0.0013702755019889532 0.004783098967353603 0 -0.0012568351498280876 0.0023124251689819017 0 -0.0031832694300561988 0.0033212046150484704 0 0.0022212831238677586 0.0096357606930720426 0 0.0026076253758067812 0.0081966115659184088 0 0.0025908480632985996 0.0081891093481688618 0 0.0011149355840686069 0.0080266712347368003 0 0.0022212831238677586 0.0096357606930720426 0 0.0011068473739865975 0.0054699819413652796 0 0.0019825085419623418 0.0075515952494439528 0 0.0014872033437958437 0.0068521780478029677 0 -0.00051597878743849207 0.007256510921567305 0 0.0011149355840686069 0.0080266712347368003 0 0.0011068473739865975 0.0054699819413652796 0 0.0040233825559315151 0.0090974762886239981 0 0.0025908480632985996 0.0081891093481688618 0 0.0031733235330457855 0.0090085649901573538 0 0.0025908480632985996 0.0081891093481688618 0 0.0024979151278031104 0.0085232760695381632 0 0.0031733235330457855 0.0090085649901573538 0 0.001952253646959755 0.012479016297071138 0 0.001803646646737353 0.013250078566974282 0 0.0026076253758067812 0.0081966115659184088 0 0.0024979151278031104 0.0085232760695381632 0 0.0018016958070416211 0.0090727738975156114 0 0.0026076253758067812 0.0081966115659184088 0 0.0025908480632985996 0.0081891093481688618 0 0.0024979151278031104 0.0085232760695381632 0 0.0024979151278031104 0.0085232760695381632 0 0.0018016958070416211 0.0090727738975156114 0 0.0031733235330457855 0.0090085649901573538 0 0.0018016958070416211 0.0090727738975156114 0 0.0031733235330457855 0.0090085649901573538 0 0.0030679210169611117 0.010178820945247635 0 0.0031733235330457855 0.0090085649901573538 0 0.0030679210169611117 0.010178820945247635 0 0.0044589270766634435 0.0088707255790523194 0 0.0018016958070416211 0.0090727738975156114 0 0.0030679210169611117 0.010178820945247635 0 0.001222913841677436 0.011388605609010012 0 0.001803646646737353 0.013250078566974282 0 0.00168763125500021 0.014096638927905769 0 0.0040233825559315151 0.0090974762886239981 0 0.0019687887920326981 0.0090171566493937941 0 0.0044589270766634435 0.0088707255790523194 0 0.00051711835616174517 0.0057822235863465481 0 -0.0010490541982718245 0.0045198066205627144 0 -0.0037707315721742635 0.0017531577532647231 0 -0.0012568351498280876 0.0023124251689819017 0 -0.0036666293448221121 0.00052065636210769808 0 0.0040233825559315151 0.0090974762886239981 0 0.0031733235330457855 0.0090085649901573538 0 0.0044589270766634435 0.0088707255790523194 0 0.0030679210169611117 0.010178820945247635 0 0.0044589270766634435 0.0088707255790523194 0 0.0042523521890090229 0.010979753431118216 0 0.0046259932170120985 0.0087115773179260222 0 0.0046321770750804899 0.0087648972414271047 0 0.0044589270766634435 0.0088707255790523194 0 0.0061238578498372344 0.012327855338861698 0 0.0042523521890090229 0.010979753431118216 0 0.0019687887920326981 0.0090171566493937941 0 0.0044589270766634435 0.0088707255790523194 0 0.00097757203496424885 0.0050491275141022708 0 0.0044589270766634435 0.0088707255790523194 0 0.0037342821367166907 0.0035233000625139333 0 0.00097757203496424885 0.0050491275141022708 0 0.0037342821367166907 0.0035233000625139333 0 0.00097757203496424885 0.0050491275141022708 0 0.00075298840379521678 0.0015660723102800945 0 0.0042523521890090229 0.010979753431118216 0 0.0044369353607276096 0.013417218840937564 0 0.003190432280711105 0.012226923471922729 0 0.0061238578498372344 0.012327855338861698 0 0.0042523521890090229 0.010979753431118216 0 0.0044369353607276096 0.013417218840937564 0 0.0044369353607276096 0.013417218840937564 0 0.0057053268963286113 0.014342965847114664 0 0.0045051326315125205 0.015502874397137092 0 0.0061238578498372344 0.012327855338861698 0 0.0044369353607276096 0.013417218840937564 0 0.0057053268963286113 0.014342965847114664 0 0.0037342821367166907 0.0035233000625139333 0 0.0022565284779466634 -0.00058638129341795754 0 0.00075298840379521678 0.0015660723102800945 0 0.0046321770750804899 0.0087648972414271047 0 0.0048077887275615582 0.010257989617343432 0 0.0061238578498372344 0.012327855338861698 0 0.0057053268963286113 0.014342965847114664 0 0.0068115969237853768 0.015353175661572309 0 0.0057053268963286113 0.014342965847114664 0 0.0065436376356848647 0.015234676242785322 0 0.0056668992537972996 0.015359820920244517 0 0.0052340090348720917 0.010810692377919798 0 0.0048077887275615582 0.010257989617343432 0 0.0022565284779466634 -0.00058638129341795754 0 -0.00029870792951442349 -0.00054249926774982134 0 0.00075298840379521678 0.0015660723102800945 0 0.0030679210169611117 0.010178820945247635 0 0.001222913841677436 0.011388605609010012 0 0.003190432280711105 0.012226923471922729 0 0.001222913841677436 0.011388605609010012 0 0.003190432280711105 0.012226923471922729 0 0.003005524090910192 0.014344622829832973 0 0.0030679210169611117 0.010178820945247635 0 0.0042523521890090229 0.010979753431118216 0 0.003190432280711105 0.012226923471922729 0 0.003005524090910192 0.014344622829832973 0 0.0016293829696722741 0.015596927643357994 0 0.0028920743301728813 0.016128790914888849 0 0.0044369353607276096 0.013417218840937564 0 0.003005524090910192 0.014344622829832973 0 0.0045051326315125205 0.015502874397137092 0 0.0044369353607276096 0.013417218840937564 0 0.003190432280711105 0.012226923471922729 0 0.003005524090910192 0.014344622829832973 0 0.00168763125500021 0.014096638927905769 0 0.0016911963166349763 0.014734902273698423 0 0.001222913841677436 0.011388605609010012 0 0.003005524090910192 0.014344622829832973 0 0.0016293829696722741 0.015596927643357994 0 0.0015075056200017599 0.016501624346371674 0 0.0016293829696722741 0.015596927643357994 0 0.0017730090461219301 0.016042969001150924 0 0.0016293829696722741 0.015596927643357994 0 0.0016019072033927782 0.016441196240607997 0 0.0017730090461219301 0.016042969001150924 0 0.0016293829696722741 0.015596927643357994 0 0.0016019072033927782 0.016441196240607997 0 0.0028920743301728813 0.016128790914888849 0 0.0016019072033927782 0.016441196240607997 0 0.0028920743301728813 0.016128790914888849 0 0.0024753410409018299 0.017172589702033156 0 0.003005524090910192 0.014344622829832973 0 0.0028920743301728813 0.016128790914888849 0 0.0045051326315125205 0.015502874397137092 0 0.0028920743301728813 0.016128790914888849 0 0.0045051326315125205 0.015502874397137092 0 0.0041900552238204299 0.017011941596221849 0 0.0035116570735112757 0.017466825417066501 0 0.0024753410409018299 0.017172589702033156 0 0.0018667592747457946 0.018806652952703732 0 0.0028920743301728813 0.016128790914888849 0 0.0035116570735112757 0.017466825417066501 0 0.0041900552238204299 0.017011941596221849 0 0.0035116570735112757 0.017466825417066501 0 0.0044024861853702553 0.017943116351579764 0 0.0038169951164139255 0.01895240270477223 0 0.0035116570735112757 0.017466825417066501 0 0.0041900552238204299 0.017011941596221849 0 0.0044024861853702553 0.017943116351579764 0 0.0028920743301728813 0.016128790914888849 0 0.0035116570735112757 0.017466825417066501 0 0.0024753410409018299 0.017172589702033156 0 0.0016019072033927782 0.016441196240607997 0 0.0018909957221259742 0.016400565759860694 0 0.001526996793678982 0.016033562403908144 0 0.0027433366642345249 0.018154274274961309 0 0.0034487318036221957 0.020252711884570337 0 0.0016019072033927782 0.016441196240607997 0 0.0024753410409018299 0.017172589702033156 0 0.0018667592747457946 0.018806652952703732 0 0.0060136202823623461 0.012873768186667663 0 0.0066865632833997832 0.015893482075496637 0 0.0084778416372092123 0.015162049760251957 0 0.0048077887275615582 0.010257989617343432 0 0.0062573102945960909 0.015509988887488979 0 0.0058781336333806281 0.016316858784949685 0 0.0065436376356848647 0.015234676242785322 0 0.0069817287159821689 0.017386922010192967 0 0.0058781336333806281 0.016316858784949685 0 0.0065436376356848647 0.015234676242785322 0 0.0056668992537972996 0.015359820920244517 0 0.0058781336333806281 0.016316858784949685 0 0.0056668992537972996 0.015359820920244517 0 0.0045051326315125205 0.015502874397137092 0 0.0058781336333806281 0.016316858784949685 0 0.0045051326315125205 0.015502874397137092 0 0.0057698378370905721 0.017983057621877522 0 0.0057053268963286113 0.014342965847114664 0 0.0056668992537972996 0.015359820920244517 0 0.0045051326315125205 0.015502874397137092 0 0.0045051326315125205 0.015502874397137092 0 0.0041900552238204299 0.017011941596221849 0 0.0056665275164987684 0.018041481071435564 0 0.0052218304369815484 0.016928586356040269 0 0.0058263942998377774 0.0182416257354014 0 0.0041900552238204299 0.017011941596221849 0 0.0044024861853702553 0.017943116351579764 0 0.0056665275164987684 0.018041481071435564 0 0.0044024861853702553 0.017943116351579764 0 0.0056665275164987684 0.018041481071435564 0 0.0048058850356894993 0.018631178397433317 0 0.0058781336333806281 0.016316858784949685 0 0.0057698378370905721 0.017983057621877522 0 0.0069817287159821689 0.017386922010192967 0 0.0066865632833997832 0.015893482075496637 0 0.0084778416372092123 0.015162049760251957 0 0.0085489371766826368 0.017218705831243863 0 0.0084778416372092123 0.015162049760251957 0 0.0085489371766826368 0.017218705831243863 0 0.01086662816371106 0.017429923476542701 0 0.0022565284779466634 -0.00058638129341795754 0 -0.00095559831546576906 -0.0023930143408954028 0 -0.00029870792951442349 -0.00054249926774982134 0 0.0048077887275615582 0.010257989617343432 0 0.0037523024099974179 0.008143173036773135 0 -0.00095559831546576906 -0.0023930143408954028 0 -0.00029870792951442349 -0.00054249926774982134 0 -0.0021018706440730753 -0.0011786962586049811 0 -0.00029870792951442349 -0.00054249926774982134 0 -0.0021018706440730753 -0.0011786962586049811 0 -0.0011609947703069945 0.00033480670358547075 0 -0.00095559831546576906 -0.0023930143408954028 0 -0.0021018706440730753 -0.0011786962586049811 0 -0.0028971871623168586 -0.0020711036767632933 0 -0.0021018706440730753 -0.0011786962586049811 0 -0.0039061449537742283 -0.0011684467760788063 0 -0.0034609923503866988 -8.784027211528755e-06 0 -0.0021018706440730753 -0.0011786962586049811 0 -0.0028971871623168586 -0.0020711036767632933 0 -0.0039061449537742283 -0.0011684467760788063 0 -0.0021018706440730753 -0.0011786962586049811 0 -0.0011609947703069945 0.00033480670358547075 0 -0.0034609923503866988 -8.784027211528755e-06 0 -0.0028971871623168586 -0.0020711036767632933 0 -0.0042379550032675658 -0.0021607677028857692 0 -0.0029843505297112846 -0.0033142832238867558 0 0.0037523024099974179 0.008143173036773135 0 0.0039127743495686353 0.0080034325027794288 0 -0.00095559831546576906 -0.0023930143408954028 0 -0.0028971871623168586 -0.0020711036767632933 0 -0.0029843505297112846 -0.0033142832238867558 0 -0.0042379550032675658 -0.0021607677028857692 0 -0.0029843505297112846 -0.0033142832238867558 0 -0.004234230265313995 -0.0030737464907420356 0 -0.0042379550032675658 -0.0021607677028857692 0 -0.005173135610985851 -0.0023253983004349918 0 -0.004234230265313995 -0.0030737464907420356 0 -0.0028971871623168586 -0.0020711036767632933 0 -0.0042379550032675658 -0.0021607677028857692 0 -0.0039061449537742283 -0.0011684467760788063 0 -0.0055502694530822645 -0.0023001869179616751 0 -0.005173135610985851 -0.0023253983004349918 0 -0.0053668607845928935 -0.0030300282301183568 0 -0.0055502694530822645 -0.0023001869179616751 0 -0.005173135610985851 -0.0023253983004349918 0 -0.0056364527060708304 -0.0017041328981603537 0 -0.0059935802883722246 -0.0022765424249073267 0 -0.0055502694530822645 -0.0023001869179616751 0 -0.0056364527060708304 -0.0017041328981603537 0 -0.0042379550032675658 -0.0021607677028857692 0 -0.005173135610985851 -0.0023253983004349918 0 -0.0051863481847587174 -0.0015448957020265356 0 -0.0042379550032675658 -0.0021607677028857692 0 -0.0051863481847587174 -0.0015448957020265356 0 -0.0049883040324826562 -0.0011021350497572805 0 -0.005173135610985851 -0.0023253983004349918 0 -0.0051863481847587174 -0.0015448957020265356 0 -0.0056364527060708304 -0.0017041328981603537 0 -0.0051863481847587174 -0.0015448957020265356 0 -0.0056364527060708304 -0.0017041328981603537 0 -0.0055731239506324522 -0.00069935011574634497 0 -0.0051863481847587174 -0.0015448957020265356 0 -0.0049883040324826562 -0.0011021350497572805 0 -0.0055731239506324522 -0.00069935011574634497 0 -0.0049883040324826562 -0.0011021350497572805 0 -0.0055731239506324522 -0.00069935011574634497 0 -0.0051726664440302069 -0.0001991973736441392 0 -0.0039061449537742283 -0.0011684467760788063 0 -0.0051726664440302069 -0.0001991973736441392 0 -0.0034609923503866988 -8.784027211528755e-06 0 -0.0042379550032675658 -0.0021607677028857692 0 -0.0049883040324826562 -0.0011021350497572805 0 -0.0039061449537742283 -0.0011684467760788063 0 -0.0049883040324826562 -0.0011021350497572805 0 -0.0039061449537742283 -0.0011684467760788063 0 -0.0051726664440302069 -0.0001991973736441392 0 -0.0051726664440302069 -0.0001991973736441392 0 -0.0050602092304686186 0.00069183937511285069 0 -0.0034609923503866988 -8.784027211528755e-06 0 -0.005797067092213698 -2.5429291952698101e-05 0 -0.0051726664440302069 -0.0001991973736441392 0 -0.0050602092304686186 0.00069183937511285069 0 -0.005797067092213698 -2.5429291952698101e-05 0 -0.0055731239506324522 -0.00069935011574634497 0 -0.0051726664440302069 -0.0001991973736441392 0 -0.005797067092213698 -2.5429291952698101e-05 0 -0.005645379878032878 0.00023167355360249843 0 -0.0050602092304686186 0.00069183937511285069 0 -0.005645379878032878 0.00023167355360249843 0 -0.0051488130921667008 0.00014723067421268339 0 -0.0050602092304686186 0.00069183937511285069 0 -0.0022756082200616795 0.0052665433970898647 0 -0.0050602092304686186 0.00069183937511285069 0 -0.0018351594938673067 0.0020022503020940417 0 -0.0028328114829317451 0.0030905999626426239 0 -0.0037243657077004025 0.0023069682139753096 0 -0.0022756082200616795 0.0052665433970898647 0 -0.0018351594938673067 0.0020022503020940417 0 0.00097757203496424885 0.0050491275141022708 0 -0.0018351594938673067 0.0020022503020940417 0 0.00097757203496424885 0.0050491275141022708 0 0.00075298840379521678 0.0015660723102800945 0 -0.0018351594938673067 0.0020022503020940417 0 0.00075298840379521678 0.0015660723102800945 0 -0.0011609947703069945 0.00033480670358547075 0 -0.00029870792951442349 -0.00054249926774982134 0 0.00075298840379521678 0.0015660723102800945 0 -0.0011609947703069945 0.00033480670358547075 0 -0.0018351594938673067 0.0020022503020940417 0 -0.0011609947703069945 0.00033480670358547075 0 -0.0034609923503866988 -8.784027211528755e-06 0 -0.0050602092304686186 0.00069183937511285069 0 -0.0018351594938673067 0.0020022503020940417 0 -0.0034609923503866988 -8.784027211528755e-06 0 -0.0036722327407989006 0.015869331902415195 0 -0.0070253096919020794 0.014869645101274748 0 -0.0065030105798197435 0.018124547311767002 0 -0.0036722327407989006 0.015869331902415195 0 -0.0065030105798197435 0.018124547311767002 0 -0.0039282876706417313 0.018294204815338676 0 -0.0036722327407989006 0.015869331902415195 0 -0.0039282876706417313 0.018294204815338676 0 -0.0018636169512921234 0.017920050210264091 0 0.0021817552609586436 0.016444862659562694 0 0.0022962758994025407 0.016660327830548143 0 0.0019758095975714921 0.016610798797764083 0 -0.0014192210831755338 0.018586735040983647 0 -0.0035476485675872893 0.021529035735130587 0 0.0022962758994025407 0.016660327830548143 0 0.0025664732559699697 0.016624850240756075 0 0.0024506321024064864 0.016814791572426855 0 0.0021817552609586436 0.016444862659562694 0 0.0022962758994025407 0.016660327830548143 0 0.0025664732559699697 0.016624850240756075 0 -0.0014677180861946274 0.029184875055196596 0 -0.0011743376345990327 0.029869276820761643 0 -0.0010854975693779215 0.029425512430007687 0 -0.0070253096919020794 0.014869645101274748 0 -0.0082977156584560681 0.015902309455023644 0 -0.010036490754245394 0.01392504368040377 0 -0.0035476485675872893 0.021529035735130587 0 -0.0039004752704673872 0.030221474489247682 0 -0.0052951792510246417 0.025118251313108707 0 -0.0039004752704673872 0.030221474489247682 0 -0.0014677180861946274 0.029184875055196596 0 -0.0010854975693779215 0.029425512430007687 0 -0.0011051100498414145 0.028971739124531833 0 -0.0014677180861946274 0.029184875055196596 0 -0.0013361053774227183 0.028786228766207834 0 -0.0011051100498414145 0.028971739124531833 0 -0.0070253096919020794 0.014869645101274748 0 -0.0082977156584560681 0.015902309455023644 0 -0.0065030105798197435 0.018124547311767002 0 -0.0014677180861946274 0.029184875055196596 0 -0.0013361053774227183 0.028786228766207834 0 -0.0014937068521678537 0.028628192061442827 0 -0.0052951792510246417 0.025118251313108707 0 -0.0043529777640880733 0.024426303786939527 0 -0.0013342277236364408 0.028580279429309612 0 -0.0013361053774227183 0.028786228766207834 0 -0.0014937068521678537 0.028628192061442827 0 -0.0013342277236364408 0.028580279429309612 0 -0.0013579242985420263 0.028355259173100025 0 -0.0014937068521678537 0.028628192061442827 0 -0.0013361053774227183 0.028786228766207834 0 -0.0011051100498414145 0.028971739124531833 0 -0.0012076172717554459 0.028725286502691044 0 -0.0013342277236364408 0.028580279429309612 0 -0.0013361053774227183 0.028786228766207834 0 -0.0012076172717554459 0.028725286502691044 0 -0.0013342277236364408 0.028580279429309612 0 -0.0013085405488076876 0.028500529345752902 0 -0.0012076172717554459 0.028725286502691044 0 -0.0013085405488076876 0.028500529345752902 0 -0.0013579242985420263 0.028355259173100025 0 -0.0013459836800750213 0.028326736393334061 0 -0.0013342277236364408 0.028580279429309612 0 -0.0013085405488076876 0.028500529345752902 0 -0.0013579242985420263 0.028355259173100025 0 -0.0013579242985420263 0.028355259173100025 0 -0.0014937068521678537 0.028628192061442827 0 -0.0012672314735988036 0.028119070439836854 0 -0.0013579242985420263 0.028355259173100025 0 -0.0012672314735988036 0.028119070439836854 0 -0.0012842231293627017 0.028116066031685878 0 -0.0043529777640880733 0.024426303786939527 0 -0.0030432893355256557 0.024981850981463431 0 -0.0065030105798197435 0.018124547311767002 0 -0.0039282876706417313 0.018294204815338676 0 -0.0046229019603664387 0.020626733295343778 0 -0.0039282876706417313 0.018294204815338676 0 -0.0046229019603664387 0.020626733295343778 0 -0.0019677773252039883 0.019647602199055588 0 -0.0046229019603664387 0.020626733295343778 0 -0.0019677773252039883 0.019647602199055588 0 -0.0025558880972460169 0.023550799339534537 0 -0.0019677773252039883 0.019647602199055588 0 0.00045206004625419585 0.021205258089378214 0 -0.0025558880972460169 0.023550799339534537 0 -0.0019677773252039883 0.019647602199055588 0 0.00045206004625419585 0.021205258089378214 0 0.00017914467965013191 0.018709531543301666 0 0.00045206004625419585 0.021205258089378214 0 0.00017914467965013191 0.018709531543301666 0 0.0018959696054640716 0.019768467188406247 0 0.00017914467965013191 0.018709531543301666 0 -0.0018636169512921234 0.017920050210264091 0 0.00029363238044407766 0.017120162751478717 0 0.00017914467965013191 0.018709531543301666 0 0.0011771655774071741 0.01691390293976331 0 0.00029363238044407766 0.017120162751478717 0 -0.0019677773252039883 0.019647602199055588 0 0.00017914467965013191 0.018709531543301666 0 -0.0018636169512921234 0.017920050210264091 0 -0.0039282876706417313 0.018294204815338676 0 -0.0019677773252039883 0.019647602199055588 0 -0.0018636169512921234 0.017920050210264091 0 0.0049319835650621291 0.020158961894526841 0 0.0075121941542996692 0.023036322504162071 0 0.0033973198398798516 0.02211231599261378 0 0.0027449638616103746 0.018831182135247142 0 0.0034487318036221957 0.020252711884570337 0 0.00045206004625419585 0.021205258089378214 0 0.0018959696054640716 0.019768467188406247 0 0.0033973198398798516 0.02211231599261378 0 0.0049319835650621291 0.020158961894526841 0 0.0018959696054640716 0.019768467188406247 0 0.0033973198398798516 0.02211231599261378 0 0.00017914467965013191 0.018709531543301666 0 0.0018959696054640716 0.019768467188406247 0 0.0011771655774071741 0.01691390293976331 0 0.0012699860006015306 0.017565947811013189 0 0.00048906954383104049 0.017744372897944467 0 0.0018909957221259742 0.016400565759860694 0 0.0011771655774071741 0.01691390293976331 0 0.001866424020644727 0.016488603982246261 0 0.0011771655774071741 0.01691390293976331 0 0.001866424020644727 0.016488603982246261 0 0.00029363238044407766 0.017120162751478717 0 0.0049319835650621291 0.020158961894526841 0 0.0018959696054640716 0.019768467188406247 0 0.0011771655774071741 0.01691390293976331 0 0.0027449638616103746 0.018831182135247142 0 0.0020767387678194242 0.018021561116225077 0 0.0016019072033927782 0.016441196240607997 0 0.001866424020644727 0.016488603982246261 0 0.0017730090461219301 0.016042969001150924 0 0.0016019072033927782 0.016441196240607997 0 0.0018909957221259742 0.016400565759860694 0 0.001866424020644727 0.016488603982246261 0 0.001866424020644727 0.016488603982246261 0 0.0017730090461219301 0.016042969001150924 0 0.0018399711818339905 0.016307709610829807 0 0.0017730090461219301 0.016042969001150924 0 0.0018399711818339905 0.016307709610829807 0 0.001801802725482292 0.016341060075039417 0 0.0018399711818339905 0.016307709610829807 0 0.001801802725482292 0.016341060075039417 0 0.0018710998303627334 0.016399796705687128 0 0.001866424020644727 0.016488603982246261 0 0.0018399711818339905 0.016307709610829807 0 0.0018611306432246176 0.016321544089428187 0 0.0018320886893130853 0.016512658030366386 0 0.001801802725482292 0.016341060075039417 0 0.0018710998303627334 0.016399796705687128 0 0.0018320886893130853 0.016512658030366386 0 0.0018710998303627334 0.016399796705687128 0 0.0019122570455656228 0.016580025902524283 0 0.0018320886893130853 0.016512658030366386 0 0.001801802725482292 0.016341060075039417 0 0.001693272945111436 0.016664593092953595 0 0.0015075056200017599 0.016501624346371674 0 0.0017730090461219301 0.016042969001150924 0 0.001801802725482292 0.016341060075039417 0 0.0015075056200017599 0.016501624346371674 0 0.001801802725482292 0.016341060075039417 0 0.001693272945111436 0.016664593092953595 0 -0.0036722327407989006 0.015869331902415195 0 -0.0018636169512921234 0.017920050210264091 0 0.00029363238044407766 0.017120162751478717 0 -0.0014192210831755338 0.018586735040983647 0 0.00048906954383104049 0.017744372897944467 0 0.0021817552609586436 0.016444862659562694 0 0.0018611306432246176 0.016321544089428187 0 0.0019397655731776735 0.016449617071830749 0 0.0018399711818339905 0.016307709610829807 0 0.0018611306432246176 0.016321544089428187 0 0.0018710998303627334 0.016399796705687128 0 0.0018611306432246176 0.016321544089428187 0 0.0018710998303627334 0.016399796705687128 0 0.0019397655731776735 0.016449617071830749 0 0.0018710998303627334 0.016399796705687128 0 0.0020733812346590314 0.016563075312960043 0 0.0019122570455656228 0.016580025902524283 0 0.0018710998303627334 0.016399796705687128 0 0.0019758095975714921 0.016610798797764083 0 0.0019397655731776735 0.016449617071830749 0 0.0019950715491004992 0.016572241394789581 0 0.0020794076810600709 0.016642506455036888 0 0.0021817552609586436 0.016444862659562694 0 0.0019758095975714921 0.016610798797764083 0 0.0019397655731776735 0.016449617071830749 0 0.0020733812346590314 0.016563075312960043 0 0.0019487985568281685 0.016798236621484233 0 0.0021705096221729227 0.016924880634548355 0 0.0020794076810600709 0.016642506455036888 0 0.0022549825783255511 0.016784719536976477 0 0.0019122570455656228 0.016580025902524283 0 0.0019487985568281685 0.016798236621484233 0 0.0018312984549991346 0.016691407774664369 0 0.0020733812346590314 0.016563075312960043 0 0.0019122570455656228 0.016580025902524283 0 0.0019487985568281685 0.016798236621484233 0 0.0019487985568281685 0.016798236621484233 0 0.0017714059072083633 0.016921627505045743 0 0.0019858921877491027 0.017030355944213954 0 0.0019487985568281685 0.016798236621484233 0 0.0019858921877491027 0.017030355944213954 0 0.0021705096221729227 0.016924880634548355 0 0.0015918338029549026 0.016891173905461455 0 0.0015075056200017599 0.016501624346371674 0 0.001693272945111436 0.016664593092953595 0 0.0018320886893130853 0.016512658030366386 0 0.001693272945111436 0.016664593092953595 0 0.0018312984549991346 0.016691407774664369 0 0.0018320886893130853 0.016512658030366386 0 0.0019122570455656228 0.016580025902524283 0 0.0018312984549991346 0.016691407774664369 0 0.0019487985568281685 0.016798236621484233 0 0.0018312984549991346 0.016691407774664369 0 0.0017714059072083633 0.016921627505045743 0 0.001693272945111436 0.016664593092953595 0 0.0018312984549991346 0.016691407774664369 0 0.0017714059072083633 0.016921627505045743 0 0.0015918338029549026 0.016891173905461455 0 0.001693272945111436 0.016664593092953595 0 0.0017714059072083633 0.016921627505045743 0 0.0020747049366027009 0.017205118706678492 0 0.0015918338029549026 0.016891173905461455 0 0.0016719064081193093 0.017009954884518463 0 0.0015918338029549026 0.016891173905461455 0 0.0017714059072083633 0.016921627505045743 0 0.0016719064081193093 0.017009954884518463 0 0.0017714059072083633 0.016921627505045743 0 0.0016719064081193093 0.017009954884518463 0 0.0017630717065617208 0.017129752560411902 0 0.0016719064081193093 0.017009954884518463 0 0.0015237776349909262 0.016555852266251805 0 0.0017630717065617208 0.017129752560411902 0 0.00055292409241653481 0.017408070084882248 0 -7.4712363837501521e-05 0.017653099974455921 0 0.0015237776349909262 0.016555852266251805 0 -0.0032515099742053584 0.016175179601539975 0 -0.00078597867895400131 0.014625095977337264 0 0.0015237776349909262 0.016555852266251805 0 0.0012883193346939807 0.014105581642122472 0 -0.00078597867895400131 0.014625095977337264 0 0.0020747049366027009 0.017205118706678492 0 0.0015237776349909262 0.016555852266251805 0 0.0012883193346939807 0.014105581642122472 0 0.0020747049366027009 0.017205118706678492 0 0.0016719064081193093 0.017009954884518463 0 0.0015237776349909262 0.016555852266251805 0 0.0019858921877491027 0.017030355944213954 0 0.0021087734839965789 0.017302167673379967 0 0.002273754298862494 0.017162799538501732 0 0.0019858921877491027 0.017030355944213954 0 0.002273754298862494 0.017162799538501732 0 0.0021705096221729227 0.016924880634548355 0 0.0017714059072083633 0.016921627505045743 0 0.0019858921877491027 0.017030355944213954 0 0.0017630717065617208 0.017129752560411902 0 -7.4712363837501521e-05 0.017653099974455921 0 7.2117647765642762e-05 0.018669884389085747 0 0.0019858921877491027 0.017030355944213954 0 0.0017630717065617208 0.017129752560411902 0 0.0021087734839965789 0.017302167673379967 0 -0.0032515099742053584 0.016175179601539975 0 -0.0031482716740958896 0.015685959992497101 0 -0.0036072561255788326 0.016391600127037657 0 -0.0031482716740958896 0.015685959992497101 0 0.00094567277507524665 0.016160024860939409 0 -0.00025962587192112079 0.017346537114731966 0 7.2117647765642762e-05 0.018669884389085747 0 0.0015951400281714648 0.021238489058049266 0 0.0021087734839965789 0.017302167673379967 0 0.0024629777053692377 0.017444569428464271 0 0.002273754298862494 0.017162799538501732 0 0.0024629777053692377 0.017444569428464271 0 0.0025168581096857222 0.017231386899918686 0 0.002273754298862494 0.017162799538501732 0 0.0025168581096857222 0.017231386899918686 0 0.002273754298862494 0.017162799538501732 0 0.0024963666137712446 0.016930357466402302 0 0.002273754298862494 0.017162799538501732 0 0.0021705096221729227 0.016924880634548355 0 0.0024963666137712446 0.016930357466402302 0 0.0021705096221729227 0.016924880634548355 0 0.0024963666137712446 0.016930357466402302 0 0.0022649520398949179 0.016730408003004966 0 0.0024465005176524729 0.016934571310380734 0 0.0022549825783255511 0.016784719536976477 0 0.0024775368137127645 0.017039559940415332 0 0.0024506321024064864 0.016814791572426855 0 0.0022129919474835019 0.016837697995700375 0 0.0022962758994025407 0.016660327830548143 0 0.0024506321024064864 0.016814791572426855 0 0.0022129919474835019 0.016837697995700375 0 0.0020733812346590314 0.016563075312960043 0 0.0021705096221729227 0.016924880634548355 0 0.0022649520398949179 0.016730408003004966 0 0.0022962758994025407 0.016660327830548143 0 0.0019758095975714921 0.016610798797764083 0 0.0022129919474835019 0.016837697995700375 0 0.0026949257251056317 0.016912573123743051 0 0.0029066738508605645 0.017062912492658528 0 0.0029482648997654782 0.016809740920013985 0 0.0025664732559699697 0.016624850240756075 0 0.0026949257251056317 0.016912573123743051 0 0.0029482648997654782 0.016809740920013985 0 0.0025664732559699697 0.016624850240756075 0 0.0024506321024064864 0.016814791572426855 0 0.0026949257251056317 0.016912573123743051 0 0.0024775368137127645 0.017039559940415332 0 0.0024506321024064864 0.016814791572426855 0 0.0026949257251056317 0.016912573123743051 0 0.0024775368137127645 0.017039559940415332 0 0.0026949257251056317 0.016912573123743051 0 0.0027385378028746288 0.017200739052992815 0 0.0024465005176524729 0.016934571310380734 0 0.0025538227771536052 0.017016597275349373 0 0.0026949257251056317 0.016912573123743051 0 0.0029066738508605645 0.017062912492658528 0 0.0027385378028746288 0.017200739052992815 0 0.0029066738508605645 0.017062912492658528 0 0.0027385378028746288 0.017200739052992815 0 0.003003894374822584 0.017302024473150213 0 0.0027385378028746288 0.017200739052992815 0 0.0028505987974783552 0.01738798336001772 0 0.003003894374822584 0.017302024473150213 0 0.0027385378028746288 0.017200739052992815 0 0.0026726585467051782 0.017370212132036725 0 0.0028505987974783552 0.01738798336001772 0 0.0025168581096857222 0.017231386899918686 0 0.0027385378028746288 0.017200739052992815 0 0.0026726585467051782 0.017370212132036725 0 0.0025168581096857222 0.017231386899918686 0 0.0024963666137712446 0.016930357466402302 0 0.0027385378028746288 0.017200739052992815 0 0.0024629777053692377 0.017444569428464271 0 0.0025168581096857222 0.017231386899918686 0 0.0026726585467051782 0.017370212132036725 0 0.00094567277507524665 0.016160024860939409 0 0.0057009465834094815 0.01679826868093905 0 0.0025929768007965405 0.016749762094318974 0 0.0015951400281714648 0.021238489058049266 0 0.0036910792370425096 0.026942788299045978 0 0.0024629777053692377 0.017444569428464271 0 0.0026726585467051782 0.017370212132036725 0 0.0028294174872412117 0.017582171970670541 0 0.0028505987974783552 0.01738798336001772 0 0.0028294174872412117 0.017582171970670541 0 0.0030140050046642813 0.017494451253169344 0 0.0026726585467051782 0.017370212132036725 0 0.0028505987974783552 0.01738798336001772 0 0.0028294174872412117 0.017582171970670541 0 0.0057009465834094815 0.01679826868093905 0 0.0048238654258478432 0.02021643850549416 0 0.0077284080431611465 0.019169733525537396 0 0.004517083827429819 0.01973492596038498 0 0.006322751104368844 0.022916813311055162 0 0.0041075726125317218 0.022203717155683148 0 0.0024015053472538949 0.023103111099671468 0 0.0032468672505248852 0.027909702020744102 0 0.0048238654258478432 0.02021643850549416 0 0.0077284080431611465 0.019169733525537396 0 0.0076693774561060954 0.020887667358608166 0 0.0048238654258478432 0.02021643850549416 0 0.0072639070846325596 0.023642289782247826 0 0.0076693774561060954 0.020887667358608166 0 0.002601360089429277 0.021756253927950706 0 0.0025314479175156464 0.019779225654284367 0 0.0013288956866720463 0.021408579979070887 0 0.002601360089429277 0.021756253927950706 0 0.0025314479175156464 0.019779225654284367 0 0.0041075726125317218 0.022203717155683148 0 0.004517083827429819 0.01973492596038498 0 0.0025314479175156464 0.019779225654284367 0 0.0041075726125317218 0.022203717155683148 0 0.0057009465834094815 0.01679826868093905 0 0.0048238654258478432 0.02021643850549416 0 0.0025929768007965405 0.016749762094318974 0 0.0025314479175156464 0.019779225654284367 0 0.0025929768007965405 0.016749762094318974 0 0.0013587465342708317 0.017827285897260944 0 0.0024015053472538949 0.023103111099671468 0 0.0018019738280217934 0.021191141495157901 0 0.004517083827429819 0.01973492596038498 0 0.0025314479175156464 0.019779225654284367 0 0.0025929768007965405 0.016749762094318974 0 0.00094567277507524665 0.016160024860939409 0 0.0025929768007965405 0.016749762094318974 0 0.0013587465342708317 0.017827285897260944 0 0.00094567277507524665 0.016160024860939409 0 -0.00025962587192112079 0.017346537114731966 0 0.0013587465342708317 0.017827285897260944 0 -0.00025962587192112079 0.017346537114731966 0 -0.0012825754016425254 0.018370058781827649 0 0.00099640534654698524 0.019057728932430702 0 -0.00025962587192112079 0.017346537114731966 0 0.0013587465342708317 0.017827285897260944 0 0.00099640534654698524 0.019057728932430702 0 0.0025314479175156464 0.019779225654284367 0 0.0013587465342708317 0.017827285897260944 0 0.00099640534654698524 0.019057728932430702 0 -0.0031482716740958896 0.015685959992497101 0 -0.00025962587192112079 0.017346537114731966 0 -0.0012825754016425254 0.018370058781827649 0 -0.0012825754016425254 0.018370058781827649 0 -0.0018373824834332685 0.020823979786848617 0 -0.0028896735339364876 0.018389297924138921 0 -0.0012825754016425254 0.018370058781827649 0 -0.00053540993166380799 0.021090314882460482 0 0.0001541686598467102 0.020001036874342928 0 -0.0012825754016425254 0.018370058781827649 0 -0.00053540993166380799 0.021090314882460482 0 -0.0018373824834332685 0.020823979786848617 0 -0.0012825754016425254 0.018370058781827649 0 0.00099640534654698524 0.019057728932430702 0 0.0001541686598467102 0.020001036874342928 0 0.00099640534654698524 0.019057728932430702 0 0.0001541686598467102 0.020001036874342928 0 0.0013288956866720463 0.021408579979070887 0 0.0025314479175156464 0.019779225654284367 0 0.00099640534654698524 0.019057728932430702 0 0.0013288956866720463 0.021408579979070887 0 -0.00053540993166380799 0.021090314882460482 0 0.0001541686598467102 0.020001036874342928 0 0.0013288956866720463 0.021408579979070887 0 0.0013288956866720463 0.021408579979070887 0 0.00047924971634078395 0.023748990626651645 0 0.0024550739234678628 0.023692329780209583 0 -0.00053540993166380799 0.021090314882460482 0 0.0013288956866720463 0.021408579979070887 0 0.00047924971634078395 0.023748990626651645 0 0.00047924971634078395 0.023748990626651645 0 0.0014974291906007082 0.024967767116741178 0 0.0024550739234678628 0.023692329780209583 0 -0.0018373824834332685 0.020823979786848617 0 -0.00088092995805904336 0.023171629765097297 0 -0.0023747304287207545 0.022968708582398408 0 -0.00053540993166380799 0.021090314882460482 0 0.00047924971634078395 0.023748990626651645 0 -0.00088092995805904336 0.023171629765097297 0 -0.00053540993166380799 0.021090314882460482 0 -0.0018373824834332685 0.020823979786848617 0 -0.00088092995805904336 0.023171629765097297 0 0.00047924971634078395 0.023748990626651645 0 -0.00088092995805904336 0.023171629765097297 0 -0.0010349252148691419 0.025625678566088439 0 -0.00088092995805904336 0.023171629765097297 0 -0.0016542559440214906 0.024293966624484773 0 -0.0010349252148691419 0.025625678566088439 0 -0.0016542559440214906 0.024293966624484773 0 -0.0023747304287207545 0.022968708582398408 0 -0.0023938306134077972 0.025373849741173373 0 -0.00088092995805904336 0.023171629765097297 0 -0.0016542559440214906 0.024293966624484773 0 -0.0023747304287207545 0.022968708582398408 0 -0.0010349252148691419 0.025625678566088439 0 -0.0022682984897516023 0.027736991310425452 0 -0.00032873959611966523 0.028611558322290263 0 -0.0016542559440214906 0.024293966624484773 0 -0.0010349252148691419 0.025625678566088439 0 -0.0023938306134077972 0.025373849741173373 0 -0.0010349252148691419 0.025625678566088439 0 -0.0023938306134077972 0.025373849741173373 0 -0.0022682984897516023 0.027736991310425452 0 -0.0010349252148691419 0.025625678566088439 0 0.00066413252855519799 0.026210658570051816 0 -0.00032873959611966523 0.028611558322290263 0 0.00047924971634078395 0.023748990626651645 0 0.0014974291906007082 0.024967767116741178 0 0.00066413252855519799 0.026210658570051816 0 0.0014974291906007082 0.024967767116741178 0 0.00066413252855519799 0.026210658570051816 0 0.0023523027334556835 0.026199143829408775 0 0.00047924971634078395 0.023748990626651645 0 -0.0010349252148691419 0.025625678566088439 0 0.00066413252855519799 0.026210658570051816 0 0.00066413252855519799 0.026210658570051816 0 0.0023523027334556835 0.026199143829408775 0 0.0011639552493226096 0.028025601717710506 0 0.0014974291906007082 0.024967767116741178 0 0.0023523027334556835 0.026199143829408775 0 0.0024550739234678628 0.023692329780209583 0 0.0023523027334556835 0.026199143829408775 0 0.0043485645374536546 0.027060231095116658 0 0.0041680064356045135 0.024732339251211787 0 0.0023523027334556835 0.026199143829408775 0 0.0041680064356045135 0.024732339251211787 0 0.0024550739234678628 0.023692329780209583 0 0.0023523027334556835 0.026199143829408775 0 0.0043485645374536546 0.027060231095116658 0 0.0026038682520103237 0.028780124918136085 0 0.0043485645374536546 0.027060231095116658 0 0.0059003387644535141 0.025634948760589686 0 0.0062385564493588931 0.027533529404798408 0 0.0043485645374536546 0.027060231095116658 0 0.0059003387644535141 0.025634948760589686 0 0.0041680064356045135 0.024732339251211787 0 0.0059003387644535141 0.025634948760589686 0 0.0041680064356045135 0.024732339251211787 0 0.006322751104368844 0.022916813311055162 0 0.0041680064356045135 0.024732339251211787 0 0.006322751104368844 0.022916813311055162 0 0.0041075726125317218 0.022203717155683148 0 0.002601360089429277 0.021756253927950706 0 0.0041075726125317218 0.022203717155683148 0 0.0024550739234678628 0.023692329780209583 0 0.002601360089429277 0.021756253927950706 0 0.0013288956866720463 0.021408579979070887 0 0.0024550739234678628 0.023692329780209583 0 0.0041680064356045135 0.024732339251211787 0 0.0041075726125317218 0.022203717155683148 0 0.0024550739234678628 0.023692329780209583 0 0.0018187393032875782 0.010683929485255501 0 0.0009626346364583709 0.011144457765945826 0 0.0021070401706308941 0.011392782122460176 0 0.0009626346364583709 0.011144457765945826 0 0.0021070401706308941 0.011392782122460176 0 -5.1131241400394625e-06 0.012639209233138589 0 0.0021070401706308941 0.011392782122460176 0 0.0012883193346939807 0.014105581642122472 0 -5.1131241400394625e-06 0.012639209233138589 0 0.0022212831238677586 0.0096357606930720426 0 0.0026076253758067812 0.0081966115659184088 0 0.0021070401706308941 0.011392782122460176 0 0.0020747049366027009 0.017205118706678492 0 0.0021070401706308941 0.011392782122460176 0 0.0012883193346939807 0.014105581642122472 0 0.001952253646959755 0.012479016297071138 0 0.0019644431103587679 0.011859247939173003 0 0.0012883193346939807 0.014105581642122472 0 -5.1131241400394625e-06 0.012639209233138589 0 -0.00078597867895400131 0.014625095977337264 0 -0.0032515099742053584 0.016175179601539975 0 -0.00078597867895400131 0.014625095977337264 0 -0.002255650268654639 0.014589638388308708 0 -5.1131241400394625e-06 0.012639209233138589 0 -0.00078597867895400131 0.014625095977337264 0 -0.002255650268654639 0.014589638388308708 0 0.0009626346364583709 0.011144457765945826 0 -0.0013911488698331584 0.012514536605465462 0 -0.00010780032015381044 0.0095903233246485003 0 0.0009626346364583709 0.011144457765945826 0 -5.1131241400394625e-06 0.012639209233138589 0 -0.0013911488698331584 0.012514536605465462 0 -5.1131241400394625e-06 0.012639209233138589 0 -0.002255650268654639 0.014589638388308708 0 -0.0013911488698331584 0.012514536605465462 0 -0.0013911488698331584 0.012514536605465462 0 -0.0045009249284039985 0.015748204388873321 0 -0.0043975107769325637 0.011419625951275228 0 -0.0024143636179342082 0.017408901010731004 0 -0.0021809694335227356 0.017864193654644672 0 -0.002255650268654639 0.014589638388308708 0 -0.0013911488698331584 0.012514536605465462 0 -0.0045009249284039985 0.015748204388873321 0 -0.0045009249284039985 0.015748204388873321 0 -0.0035554009628154309 0.020326198306262037 0 -0.006203149912329637 0.020876443333826974 0 -0.0032515099742053584 0.016175179601539975 0 -0.002255650268654639 0.014589638388308708 0 -0.0045009249284039985 0.015748204388873321 0 -0.0032515099742053584 0.016175179601539975 0 -0.0045009249284039985 0.015748204388873321 0 -0.0036072561255788326 0.016391600127037657 0 -0.0045009249284039985 0.015748204388873321 0 -0.0036072561255788326 0.016391600127037657 0 -0.0028896735339364876 0.018389297924138921 0 -0.0012825754016425254 0.018370058781827649 0 -0.0036072561255788326 0.016391600127037657 0 -0.0028896735339364876 0.018389297924138921 0 -0.0031482716740958896 0.015685959992497101 0 -0.0012825754016425254 0.018370058781827649 0 -0.0036072561255788326 0.016391600127037657 0 -0.0045009249284039985 0.015748204388873321 0 -0.0028896735339364876 0.018389297924138921 0 -0.0035554009628154309 0.020326198306262037 0 -0.0018373824834332685 0.020823979786848617 0 -0.0028896735339364876 0.018389297924138921 0 -0.0035554009628154309 0.020326198306262037 0 -0.0018373824834332685 0.020823979786848617 0 -0.0035554009628154309 0.020326198306262037 0 -0.0023747304287207545 0.022968708582398408 0 -0.0035554009628154309 0.020326198306262037 0 -0.0041878962013441054 0.022914532612070562 0 -0.0023747304287207545 0.022968708582398408 0 -0.0035554009628154309 0.020326198306262037 0 -0.0041878962013441054 0.022914532612070562 0 -0.006203149912329637 0.020876443333826974 0 -0.0041878962013441054 0.022914532612070562 0 -0.0042179636957154877 0.025533152445280476 0 -0.0064447396524676135 0.024956987230401156 0 -0.0041878962013441054 0.022914532612070562 0 -0.003311117952652255 0.024428385316722215 0 -0.0042179636957154877 0.025533152445280476 0 -0.0041878962013441054 0.022914532612070562 0 -0.003311117952652255 0.024428385316722215 0 -0.0023747304287207545 0.022968708582398408 0 -0.003311117952652255 0.024428385316722215 0 -0.0023747304287207545 0.022968708582398408 0 -0.0023938306134077972 0.025373849741173373 0 -0.0032007745624899227 0.026639759920247998 0 -0.0042179636957154877 0.025533152445280476 0 -0.0040861700221134266 0.029417858689724512 0 -0.003311117952652255 0.024428385316722215 0 -0.0023938306134077972 0.025373849741173373 0 -0.0032007745624899227 0.026639759920247998 0 -0.0023938306134077972 0.025373849741173373 0 -0.0032007745624899227 0.026639759920247998 0 -0.0022682984897516023 0.027736991310425452 0 -0.003311117952652255 0.024428385316722215 0 -0.0032007745624899227 0.026639759920247998 0 -0.0042179636957154877 0.025533152445280476 0 -0.0042179636957154877 0.025533152445280476 0 -0.0052764218034535128 0.025277011938990967 0 -0.0040861700221134266 0.029417858689724512 0 0.0010629352795484654 0.019866348530926243 0 0.00011275687059630142 0.020503370335232501 0 0.0010986461415665278 0.02153117350137132 0 -0.0013639861686811296 0.01956558393027925 0 -0.0010940497318386682 0.024144636133158284 0 -0.0016043600826453827 0.019696107529679728 0 -0.0013639861686811296 0.01956558393027925 0 -0.0042084729265636171 0.0086155391572177303 0 -0.0043975107769325637 0.011419625951275228 0 -0.00010780032015381044 0.0095903233246485003 0 -0.0041878962013441054 0.022914532612070562 0 -0.0064447396524676135 0.024956987230401156 0 -0.006203149912329637 0.020876443333826974 0 -0.0013639861686811296 0.01956558393027925 0 -0.0021809694335227356 0.017864193654644672 0 -0.0013639861686811296 0.01956558393027925 0 -0.00090941281672941052 0.01680320942079366 0 -0.0013911488698331584 0.012514536605465462 0 -0.0043975107769325637 0.011419625951275228 0 -0.00010780032015381044 0.0095903233246485003 0 -0.00043195043613326737 0.019631559595848471 0 0.00011275687059630142 0.020503370335232501 0 -0.00081742301716645983 0.020702945623849625 0 0.0010629352795484654 0.019866348530926243 0 -0.00043195043613326737 0.019631559595848471 0 0.00011275687059630142 0.020503370335232501 0 -0.001496940860369461 0.020231738826378205 0 -0.00043195043613326737 0.019631559595848471 0 -0.00081742301716645983 0.020702945623849625 0 -0.001496940860369461 0.020231738826378205 0 -0.0013707152689360173 0.020949486305990129 0 -0.00081742301716645983 0.020702945623849625 0 -0.001505550461248905 0.019543584346411895 0 -0.001496940860369461 0.020231738826378205 0 -0.00043195043613326737 0.019631559595848471 0 0.0018384328863055624 0.010728595425803896 0 0.0009626346364583709 0.011144457765945826 0 -0.00010780032015381044 0.0095903233246485003 0 -0.00051608020004088851 0.015193911738215111 0 -0.00090941281672941052 0.01680320942079366 0 -0.0016894099339605795 0.022384571332911857 0 -0.00098081143604205733 0.022643587712596815 0 -0.0012702703637225881 0.022121047628867387 0 -0.00098081143604205733 0.022643587712596815 0 -0.0012702703637225881 0.022121047628867387 0 -0.0009822455483610847 0.02169437372924015 0 -0.00098081143604205733 0.022643587712596815 0 -0.0009822455483610847 0.02169437372924015 0 -0.00024049307247311894 0.022522466938354236 0 -0.0016894099339605795 0.022384571332911857 0 -0.0012702703637225881 0.022121047628867387 0 -0.0014634597425153013 0.021557111442195038 0 -0.0012702703637225881 0.022121047628867387 0 -0.0014634597425153013 0.021557111442195038 0 -0.0009822455483610847 0.02169437372924015 0 -0.0014634597425153013 0.021557111442195038 0 -0.0013707152689360173 0.020949486305990129 0 -0.0009822455483610847 0.02169437372924015 0 -0.0013707152689360173 0.020949486305990129 0 -0.00081742301716645983 0.020702945623849625 0 -0.0009822455483610847 0.02169437372924015 0 -0.00081742301716645983 0.020702945623849625 0 -0.0009822455483610847 0.02169437372924015 0 -0.00019292951193868163 0.021361185714358969 0 0.00011275687059630142 0.020503370335232501 0 -0.00019292951193868163 0.021361185714358969 0 0.0010986461415665278 0.02153117350137132 0 -0.00019292951193868163 0.021361185714358969 0 -0.00024049307247311894 0.022522466938354236 0 0.0010986461415665278 0.02153117350137132 0 0.00011275687059630142 0.020503370335232501 0 -0.00081742301716645983 0.020702945623849625 0 -0.00019292951193868163 0.021361185714358969 0 -0.0009822455483610847 0.02169437372924015 0 -0.00019292951193868163 0.021361185714358969 0 -0.00024049307247311894 0.022522466938354236 0 -0.00024049307247311894 0.022522466938354236 0 0.0010986461415665278 0.02153117350137132 0 0.00098004701635157976 0.023865533568552692 0 -0.0040861700221134266 0.029417858689724512 0 -0.0018985726262548432 0.031273594997280996 0 -0.0015519519184684265 0.031395476688434953 0 -0.0010940497318386682 0.024144636133158284 0 -0.00053779209670270676 0.026326356213281221 0 -0.0032007745624899227 0.026639759920247998 0 -0.0040861700221134266 0.029417858689724512 0 -0.0022682984897516023 0.027736991310425452 0 -0.0040861700221134266 0.029417858689724512 0 -0.0022682984897516023 0.027736991310425452 0 -0.0015420864894493975 0.030204978337576811 0 -0.0040861700221134266 0.029417858689724512 0 -0.0018985726262548432 0.031273594997280996 0 -0.0015420864894493975 0.030204978337576811 0 -0.0018985726262548432 0.031273594997280996 0 -0.0012768220537517367 0.03120271893841528 0 -0.0015519519184684265 0.031395476688434953 0 -0.0018985726262548432 0.031273594997280996 0 -0.0012768220537517367 0.03120271893841528 0 -0.00094357901181257907 0.032741459851606147 0 -0.0012768220537517367 0.03120271893841528 0 1.633759702023543e-08 0.027427556474992936 0 -2.516311610501587e-06 0.032399707096753549 0 5.9938152428204456e-06 0.027405736167716244 0 0.00098004701635157976 0.023865533568552692 0 -5.3924228455313133e-06 0.026325023766357106 0 -0.0012768220537517367 0.03120271893841528 0 1.633759702023543e-08 0.027427556474992936 0 -0.0015519519184684265 0.031395476688434953 0 -1.0504081677305304e-06 0.027418362904586383 0 -0.00053779209670270676 0.026326356213281221 0 -0.00024049307247311894 0.022522466938354236 0 0.00098004701635157976 0.023865533568552692 0 -0.00095632812534477091 0.024336723813297826 0 -0.00098081143604205733 0.022643587712596815 0 -0.00024049307247311894 0.022522466938354236 0 -0.00095632812534477091 0.024336723813297826 0 -6.4480822437956788e-07 0.026308087344487804 0 -0.00090591376363975283 0.023810514996700484 0 2.5187796393076655e-06 0.026306163630851243 0 -1.2770157549864776e-06 0.022695582229529148 0 0.00012385817598663007 0.021376611544586682 0 0.00098004701635157976 0.023865533568552692 0 -5.3924228455313133e-06 0.026325023766357106 0 -0.00095632812534477091 0.024336723813297826 0 -0.00064187219298565093 0.020465161233631655 0 -1.2770157549864776e-06 0.022695582229529148 0 0.00012385817598663007 0.021376611544586682 0 -0.001337849518035894 0.022476627560640623 0 -0.00090591376363975283 0.023810514996700484 0 -0.0016894099339605795 0.022384571332911857 0 -0.00098081143604205733 0.022643587712596815 0 -0.00095632812534477091 0.024336723813297826 0 -0.00077199585178276979 0.020553092514419159 0 -0.00064187219298565093 0.020465161233631655 0 0.00012385817598663007 0.021376611544586682 0 -0.00077199585178276979 0.020553092514419159 0 -0.00081489077252121993 0.02049511395177284 0 0.00012385817598663007 0.021376611544586682 0 0.0021364453065120291 0.031707934824017001 0 0.0010781676780337256 0.029888666856627211 0 -0.0001439613892106178 0.031456070258848251 0 0.0021364453065120291 0.031707934824017001 0 -0.0001439613892106178 0.031456070258848251 0 0.00042603653008537281 0.035210208308796044 0 0.0021364453065120291 0.031707934824017001 0 0.0045500426560120292 0.029631060628994937 0 0.0052179904205447245 0.034760575319483671 0 0.0021364453065120291 0.031707934824017001 0 0.0045500426560120292 0.029631060628994937 0 0.0026038682520103237 0.028780124918136085 0 0.0043485645374536546 0.027060231095116658 0 0.0045500426560120292 0.029631060628994937 0 0.0062385564493588931 0.027533529404798408 0 0.0043485645374536546 0.027060231095116658 0 0.0045500426560120292 0.029631060628994937 0 0.0026038682520103237 0.028780124918136085 0 0.0021364453065120291 0.031707934824017001 0 0.0026038682520103237 0.028780124918136085 0 0.0010781676780337256 0.029888666856627211 0 0.0026038682520103237 0.028780124918136085 0 0.0010781676780337256 0.029888666856627211 0 0.0011639552493226096 0.028025601717710506 0 0.0023523027334556835 0.026199143829408775 0 0.0026038682520103237 0.028780124918136085 0 0.0011639552493226096 0.028025601717710506 0 0.0010781676780337256 0.029888666856627211 0 -0.00032873959611966523 0.028611558322290263 0 -0.0001439613892106178 0.031456070258848251 0 0.00066413252855519799 0.026210658570051816 0 0.0011639552493226096 0.028025601717710506 0 -0.00032873959611966523 0.028611558322290263 0 0.0010781676780337256 0.029888666856627211 0 0.0011639552493226096 0.028025601717710506 0 -0.00032873959611966523 0.028611558322290263 0 -0.0022682984897516023 0.027736991310425452 0 -0.00032873959611966523 0.028611558322290263 0 -0.0015420864894493975 0.030204978337576811 0 -0.0018985726262548432 0.031273594997280996 0 -0.0015420864894493975 0.030204978337576811 0 -0.00094357901181257907 0.032741459851606147 0 -0.00032873959611966523 0.028611558322290263 0 -0.0015420864894493975 0.030204978337576811 0 -0.0001439613892106178 0.031456070258848251 0 -0.0015420864894493975 0.030204978337576811 0 -0.0001439613892106178 0.031456070258848251 0 -0.00094357901181257907 0.032741459851606147 0 -0.0001439613892106178 0.031456070258848251 0 -0.00094357901181257907 0.032741459851606147 0 0.00042603653008537281 0.035210208308796044 0 -0.0012768220537517367 0.03120271893841528 0 -0.00094357901181257907 0.032741459851606147 0 -2.516311610501587e-06 0.032399707096753549 0 -0.00094357901181257907 0.032741459851606147 0 -2.516311610501587e-06 0.032399707096753549 0 -3.0592663736543156e-06 0.037383601794282954 0 -0.00094357901181257907 0.032741459851606147 0 -3.0592663736543156e-06 0.037383601794282954 0 0.00042603653008537281 0.035210208308796044 0 -3.0592663736543156e-06 0.037383601794282954 0 0.00042603653008537281 0.035210208308796044 0 1.2170613446614139e-05 0.042354640898278402 0 0.0021364453065120291 0.031707934824017001 0 0.00042603653008537281 0.035210208308796044 0 0.0052179904205447245 0.034760575319483671 0 0.00042603653008537281 0.035210208308796044 0 1.2170613446614139e-05 0.042354640898278402 0 0.0052179904205447245 0.034760575319483671 0 5.2610639621713377e-06 0.042372138953510538 0 0.00019750413506422043 0.045165841609492559 0 -1.7523265000607349e-06 0.046189724838188895 0 5.2610639621713377e-06 0.042372138953510538 0 0.00019750413506422043 0.045165841609492559 0 0.0016311248158138632 0.049551275521851026 0 3.8689455397274205e-06 0.042364807612069143 0 0.0020076458930214499 0.042031169361385991 0 0.00019750413506422043 0.045165841609492559 0 -9.1807861426911408e-05 0.048205762674531326 0 0.00034909132286350904 0.047979835907029582 0 0.00019750413506422043 0.045165841609492559 0 -1.7523265000607349e-06 0.046189724838188895 0 -9.1807861426911408e-05 0.048205762674531326 0 -1.7523265000607349e-06 0.046189724838188895 0 -9.1807861426911408e-05 0.048205762674531326 0 -0.00028924601210803788 0.049049802163150816 0 -9.1807861426911408e-05 0.048205762674531326 0 -0.00041773807750411832 0.050125882759809233 0 -0.00028924601210803788 0.049049802163150816 0 -9.1807861426911408e-05 0.048205762674531326 0 0.00029243694080597471 0.049006841516386637 0 0.00034909132286350904 0.047979835907029582 0 -9.1807861426911408e-05 0.048205762674531326 0 0.00029243694080597471 0.049006841516386637 0 -0.00012220573869966598 0.049757160337535453 0 0.00029243694080597471 0.049006841516386637 0 -0.00012220573869966598 0.049757160337535453 0 0.00034195379665515264 0.050225964745506162 0 -9.1807861426911408e-05 0.048205762674531326 0 -0.00012220573869966598 0.049757160337535453 0 -0.00041773807750411832 0.050125882759809233 0 0.001816563517419991 0.047158122105929928 0 0.002077671555311873 0.047315775259769016 0 0.00019750413506422043 0.045165841609492559 0 0.0016311248158138632 0.049551275521851026 0 0.00096290385195148037 0.050518375421975951 0 0.00019750413506422043 0.045165841609492559 0 0.00034909132286350904 0.047979835907029582 0 0.0013353739079314901 0.049708741483615891 0 0.00029243694080597471 0.049006841516386637 0 0.00034909132286350904 0.047979835907029582 0 0.0013353739079314901 0.049708741483615891 0 0.00029243694080597471 0.049006841516386637 0 0.0013353739079314901 0.049708741483615891 0 0.00034195379665515264 0.050225964745506162 0 0.0013353739079314901 0.049708741483615891 0 0.00034195379665515264 0.050225964745506162 0 0.00088571749460511972 0.051278875223783625 0 0.0045500426560120292 0.029631060628994937 0 0.0052179904205447245 0.034760575319483671 0 0.0076726601334176523 0.029494002986151093 0 0.0020076458930214499 0.042031169361385991 0 0.003268703841221794 0.042140683852705349 0 0.002077671555311873 0.047315775259769016 0 0.003268703841221794 0.042140683852705349 0 0.0016311248158138632 0.049551275521851026 0 0.00096290385195148037 0.050518375421975951 0 0.00068728236132067639 0.055299153033260807 0 -0.00012220573869966598 0.049757160337535453 0 -0.00046067724370267978 0.050836018742167643 0 -0.00041773807750411832 0.050125882759809233 0 -0.00012220573869966598 0.049757160337535453 0 0.00034195379665515264 0.050225964745506162 0 -0.00046067724370267978 0.050836018742167643 0 0.00034195379665515264 0.050225964745506162 0 0.00088571749460511972 0.051278875223783625 0 -0.00046067724370267978 0.050836018742167643 0 0.0048196438476973309 0.044811925509164706 0 0.0044550480389570647 0.03943187796417897 0 -0.00046067724370267978 0.050836018742167643 0 -0.00070210288433993171 0.050529665661252367 0 -0.0004712358283218379 0.050611200439867235 0 0.00088571749460511972 0.051278875223783625 0 -0.00046067724370267978 0.050836018742167643 0 0.0006537670609469662 0.052323042751497434 0 0.003268703841221794 0.042140683852705349 0 0.0043119566103555738 0.036929991169664146 0 0.0045500426560120292 0.029631060628994937 0 0.0076726601334176523 0.029494002986151093 0 0.0062385564493588931 0.027533529404798408 0 0.0076726601334176523 0.029494002986151093 0 0.0082623697582650691 0.02600608853362376 0 0.0062385564493588931 0.027533529404798408 0 0.003268703841221794 0.042140683852705349 0 0.0044550480389570647 0.03943187796417897 0 -0.00023592125776864626 0.050825135537062242 0 -9.2235959892200556e-06 0.050750188704899793 0 -0.00014929079423868296 0.050560720444000951 0 -0.00023592125776864626 0.050825135537062242 0 -0.00033705622112632951 0.050670448563831363 0 -0.00014929079423868296 0.050560720444000951 0 -0.00033705622112632951 0.050670448563831363 0 -0.00046067724370267978 0.050836018742167643 0 -0.0004712358283218379 0.050611200439867235 0 -0.00023592125776864626 0.050825135537062242 0 -0.00033705622112632951 0.050670448563831363 0 -0.00046067724370267978 0.050836018742167643 0 -0.00046067724370267978 0.050836018742167643 0 -0.00037683895191240507 0.051211450471732027 0 -0.00041773807750411832 0.050125882759809233 0 -0.00023592125776864626 0.050825135537062242 0 -0.00046067724370267978 0.050836018742167643 0 -0.00037683895191240507 0.051211450471732027 0 -0.00040794850442548667 0.052803777295254234 0 -0.00030593519670886959 0.053019529319364211 0 -0.00023592125776864626 0.050825135537062242 0 -0.00037683895191240507 0.051211450471732027 0 8.1155324844085175e-05 0.051042184314986042 0 -0.00037683895191240507 0.051211450471732027 0 -0.00032545744247774718 0.051707459610956921 0 -0.00013519776326156781 0.053357659583546622 0 -0.00037683895191240507 0.051211450471732027 0 -0.00032545744247774718 0.051707459610956921 0 -0.00041773807750411832 0.050125882759809233 0 -0.00032545744247774718 0.051707459610956921 0 -0.00041773807750411832 0.050125882759809233 0 -0.00028924601210803788 0.049049802163150816 0 -0.00032545744247774718 0.051707459610956921 0 -8.004780846842452e-07 0.050018291467099532 0 -0.00028924601210803788 0.049049802163150816 0 -1.7523265000607349e-06 0.046189724838188895 0 -8.004780846842452e-07 0.050018291467099532 0 -0.00028924601210803788 0.049049802163150816 0 -0.00032545744247774718 0.051707459610956921 0 -8.004780846842452e-07 0.050018291467099532 0 -2.0652283433977121e-07 0.053834217716083405 0 -0.00032545744247774718 0.051707459610956921 0 -2.0652283433977121e-07 0.053834217716083405 0 -4.3173898069591419e-05 0.053205950858739519 0 -1.160614778774254e-06 0.053844889966494974 0 -0.00067911139298204983 0.055539702381164881 0 -2.0652283433977121e-07 0.053834217716083405 0 -4.3173898069591419e-05 0.053205950858739519 0 -0.00022945054481054406 0.053411160257414367 0 8.0591058694442019e-07 0.05384341756063598 0 1.0730757283416095e-07 0.058404045101752254 0 0.00013262074281277119 0.058533463983237229 0 -4.3173898069591419e-05 0.053205950858739519 0 -0.00022945054481054406 0.053411160257414367 0 -0.00028352130861530064 0.053782781188897989 0 -4.3173898069591419e-05 0.053205950858739519 0 -0.00028352130861530064 0.053782781188897989 0 -0.00018615112485352581 0.053266386529639484 0 -0.00028352130861530064 0.053782781188897989 0 -0.0005192871426452358 0.054353358526871509 0 -0.00018615112485352581 0.053266386529639484 0 -0.00032545744247774718 0.051707459610956921 0 -4.3173898069591419e-05 0.053205950858739519 0 -0.00018615112485352581 0.053266386529639484 0 -0.00032545744247774718 0.051707459610956921 0 -0.00018615112485352581 0.053266386529639484 0 -0.00013519776326156781 0.053357659583546622 0 -4.3395527209565394e-06 0.062964243414149856 0 -0.00038041640054076729 0.061660970527992701 0 -0.00092028119659973238 0.061241803681438368 0 1.0730757283416095e-07 0.058404045101752254 0 0.00013262074281277119 0.058533463983237229 0 -0.00092028119659973238 0.061241803681438368 0 -0.00022945054481054406 0.053411160257414367 0 -0.00028352130861530064 0.053782781188897989 0 -0.0010477967166848559 0.055359879764804956 0 1.0730757283416095e-07 0.058404045101752254 0 -4.3395527209565394e-06 0.062964243414149856 0 -0.00092028119659973238 0.061241803681438368 0 -0.00067911139298204983 0.055539702381164881 0 -0.00040542168490572371 0.056527702970572864 0 -0.00028352130861530064 0.053782781188897989 0 -0.0005192871426452358 0.054353358526871509 0 -0.0010477967166848559 0.055359879764804956 0 -0.0005192871426452358 0.054353358526871509 0 -0.0010477967166848559 0.055359879764804956 0 -0.00097077877208276105 0.055592974727458937 0 -0.00040542168490572371 0.056527702970572864 0 5.5550131138160276e-05 0.056774435602190129 0 -0.0010477967166848559 0.055359879764804956 0 -0.00069004451637884562 0.057062037190171527 0 -0.00011824304415126959 0.059040129553055515 0 -0.00038041640054076729 0.061660970527992701 0 -0.00092028119659973238 0.061241803681438368 0 -0.00011824304415126959 0.059040129553055515 0 -0.0010477967166848559 0.055359879764804956 0 -0.00069004451637884562 0.057062037190171527 0 -0.00097077877208276105 0.055592974727458937 0 -0.00063784759480098134 0.055799230857275686 0 -0.00097077877208276105 0.055592974727458937 0 -0.00086686619533072283 0.055429832838293475 0 -0.00063784759480098134 0.055799230857275686 0 -0.00069004451637884562 0.057062037190171527 0 -0.00097077877208276105 0.055592974727458937 0 -0.0005192871426452358 0.054353358526871509 0 -0.00097077877208276105 0.055592974727458937 0 -0.00066802310417936415 0.055014691800588732 0 0.00052006799961321082 0.050721991870632435 0 0.00074721604652998102 0.050794071947482117 0 0.00041555767263518219 0.050910378583321397 0 0.00026829023136937848 0.054249027619785541 0 -8.7268148605892015e-05 0.053520280735684725 0 -0.00097077877208276105 0.055592974727458937 0 -0.00086686619533072283 0.055429832838293475 0 -0.00066802310417936415 0.055014691800588732 0 0.0011172642840385147 0.055499450506969632 0 0.00079708961107064174 0.056141041869362009 0 0.00034000277387707224 0.055914169265175881 0 -0.00021793870275239668 0.056959246107849838 0 -0.00071174518174665642 0.056180581014591051 0 0.0003268281680689621 0.056362139072102878 0 0.00026829023136937848 0.054249027619785541 0 0.00014947165226351198 0.054466088527193292 0 -0.00071174518174665642 0.056180581014591051 0 0.00034000277387707224 0.055914169265175881 0 0.0003268281680689621 0.056362139072102878 0 0.00044650618526385785 0.055273710590811646 0 0.00026829023136937848 0.054249027619785541 0 -0.0005192871426452358 0.054353358526871509 0 -0.00013519776326156781 0.053357659583546622 0 -0.00066802310417936415 0.055014691800588732 0 -0.00030593519670886959 0.053019529319364211 0 -8.7268148605892015e-05 0.053520280735684725 0 -0.0005192871426452358 0.054353358526871509 0 -0.00018615112485352581 0.053266386529639484 0 -0.00013519776326156781 0.053357659583546622 0 0.00052006799961321082 0.050721991870632435 0 0.00041555767263518219 0.050910378583321397 0 0.00032232451412812497 0.050653288553093402 0 0.00041555767263518219 0.050910378583321397 0 0.00017466407367584575 0.050798065551668291 0 0.00032232451412812497 0.050653288553093402 0 8.1155324844085175e-05 0.051042184314986042 0 0.00041555767263518219 0.050910378583321397 0 0.00017466407367584575 0.050798065551668291 0 8.1155324844085175e-05 0.051042184314986042 0 0.00017466407367584575 0.050798065551668291 0 -9.2235959892200556e-06 0.050750188704899793 0 0.00017466407367584575 0.050798065551668291 0 -9.2235959892200556e-06 0.050750188704899793 0 9.302848207478873e-05 0.050563340694648552 0 -0.00023592125776864626 0.050825135537062242 0 8.1155324844085175e-05 0.051042184314986042 0 -9.2235959892200556e-06 0.050750188704899793 0 -9.2235959892200556e-06 0.050750188704899793 0 9.302848207478873e-05 0.050563340694648552 0 -0.00014929079423868296 0.050560720444000951 0 9.302848207478873e-05 0.050563340694648552 0 -1.4017453820307007e-05 0.050389388012791914 0 0.00011251888802193166 0.050365849503064122 0 9.302848207478873e-05 0.050563340694648552 0 -1.4017453820307007e-05 0.050389388012791914 0 -0.00014929079423868296 0.050560720444000951 0 9.302848207478873e-05 0.050563340694648552 0 0.00023134811492653436 0.050415802236736362 0 0.00011251888802193166 0.050365849503064122 0 0.00017466407367584575 0.050798065551668291 0 9.302848207478873e-05 0.050563340694648552 0 0.00032232451412812497 0.050653288553093402 0 0.00032232451412812497 0.050653288553093402 0 0.00023134811492653436 0.050415802236736362 0 0.00048491989892434913 0.050489368599259135 0 0.00052006799961321082 0.050721991870632435 0 0.00032232451412812497 0.050653288553093402 0 0.00048491989892434913 0.050489368599259135 0 9.302848207478873e-05 0.050563340694648552 0 0.00032232451412812497 0.050653288553093402 0 0.00023134811492653436 0.050415802236736362 0 0.0035517207197252529 0.058296448374594002 0 0.002352603925089894 0.056814209837900261 0 0.0024378791165959399 0.057970875049614748 0 0.00023134811492653436 0.050415802236736362 0 0.00022378158149503934 0.050201372292954613 0 0.00048491989892434913 0.050489368599259135 0 0.0015677619921843932 0.056825653189312451 0 0.00075114742544128102 0.05482608034147908 0 0.00023134811492653436 0.050415802236736362 0 0.00022378158149503934 0.050201372292954613 0 0.00015236707486727364 0.050227837138200011 0 0.0015677619921843932 0.056825653189312451 0 0.00158170841726787 0.056753260673135103 0 0.00021887021557872251 0.050206147180469458 0 0.00015236707486727364 0.050227837138200011 0 7.1460678546774321e-05 0.05019407565554123 0 0.00015236707486727364 0.050227837138200011 0 5.558513752999258e-05 0.05028332045000599 0 0.00011251888802193166 0.050365849503064122 0 0.00015236707486727364 0.050227837138200011 0 5.558513752999258e-05 0.05028332045000599 0 7.1460678546774321e-05 0.05019407565554123 0 5.558513752999258e-05 0.05028332045000599 0 -1.4017453820307007e-05 0.050389388012791914 0 -4.4586425368194338e-05 0.050241750423599053 0 5.558513752999258e-05 0.05028332045000599 0 7.1460678546774321e-05 0.05019407565554123 0 -4.4586425368194338e-05 0.050241750423599053 0 5.558513752999258e-05 0.05028332045000599 0 -1.4017453820307007e-05 0.050389388012791914 0 0.00011251888802193166 0.050365849503064122 0 0.00023134811492653436 0.050415802236736362 0 0.00015236707486727364 0.050227837138200011 0 0.00011251888802193166 0.050365849503064122 0 0.0011172642840385147 0.055499450506969632 0 0.00079708961107064174 0.056141041869362009 0 0.0013005384417337624 0.0566067853893166 0 0.00046972437267314129 0.056667498439205141 0 0.00079708961107064174 0.056141041869362009 0 0.00034000277387707224 0.055914169265175881 0 0.00046972437267314129 0.056667498439205141 0 0.00079708961107064174 0.056141041869362009 0 0.0013005384417337624 0.0566067853893166 0 0.00026829023136937848 0.054249027619785541 0 0.00075114742544128102 0.05482608034147908 0 0.00052006799961321082 0.050721991870632435 0 0.00074721604652998102 0.050794071947482117 0 0.00048491989892434913 0.050489368599259135 0 0.0011172642840385147 0.055499450506969632 0 0.0013005384417337624 0.0566067853893166 0 0.002352603925089894 0.056814209837900261 0 0.0013005384417337624 0.0566067853893166 0 0.002352603925089894 0.056814209837900261 0 0.0015611973696764523 0.058028200233314085 0 0.002352603925089894 0.056814209837900261 0 0.0024378791165959399 0.057970875049614748 0 0.0015611973696764523 0.058028200233314085 0 0.0024378791165959399 0.057970875049614748 0 0.0015611973696764523 0.058028200233314085 0 0.0023222467142397702 0.058704074472226662 0 0.00046972437267314129 0.056667498439205141 0 0.0013005384417337624 0.0566067853893166 0 0.0015611973696764523 0.058028200233314085 0 0.00083934964859417986 0.057619257640950571 0 0.0015611973696764523 0.058028200233314085 0 0.0008377024293297747 0.058325981514708088 0 -0.00027501914133173808 0.059178700537733588 0 1.3332711084120369e-05 0.059023943176599362 0 0.00080307380913717118 0.058890233315740871 0 0.0012725376757385446 0.058970537784698754 0 0.00034551665917934823 0.059339244758639227 0 0.0015611973696764523 0.058028200233314085 0 0.0008377024293297747 0.058325981514708088 0 0.0013085730985407606 0.059008768217186751 0 0.0008377024293297747 0.058325981514708088 0 0.00080307380913717118 0.058890233315740871 0 0.0013085730985407606 0.059008768217186751 0 0.00043035612146423105 0.063053983571237968 0 0.0004263425152007355 0.063253649045079949 0 0.001141689991295694 0.060123454955577832 0 0.0012661829588822711 0.060067160563125534 0 0.0013348648370327348 0.060142248284233604 0 0.0004263425152007355 0.063253649045079949 0 0.0012571610675331962 0.062881520214544573 0 0.0004263425152007355 0.063253649045079949 0 0.0013296581730371051 0.059874326996901185 0 0.0015611973696764523 0.058028200233314085 0 0.0013085730985407606 0.059008768217186751 0 0.0023222467142397702 0.058704074472226662 0 -0.00031544120772523845 0.085253458294263632 0 -0.0016163062062946594 0.085042067042692765 0 -0.0009480152531965093 0.084250484535633691 0 0.0004263425152007355 0.063253649045079949 0 -0.00099644262737207849 0.068429228296273112 0 -0.00031544120772523845 0.085253458294263632 0 0.00069877172199531796 0.084877145874867749 0 0.00025492256461538947 0.084095688614204425 0 -0.00031544120772523845 0.085253458294263632 0 0.00025492256461538947 0.084095688614204425 0 -0.0009480152531965093 0.084250484535633691 0 0.00021887021557872251 0.050206147180469458 0 7.1460678546774321e-05 0.05019407565554123 0 -3.3006666578105757e-05 0.050083720553962319 0 0.0013871664956393328 0.060016222641872993 0 0.0013348648370327348 0.060142248284233604 0 0.0015204637092334913 0.060164274070442905 0 0.0015677619921843932 0.056825653189312451 0 0.0022545287172652776 0.056863198632531621 0 0.00021887021557872251 0.050206147180469458 0 -4.2588339323365799e-05 0.049902140490430798 0 -3.3006666578105757e-05 0.050083720553962319 0 7.1460678546774321e-05 0.05019407565554123 0 -3.3006666578105757e-05 0.050083720553962319 0 -4.4586425368194338e-05 0.050241750423599053 0 0.0013871664956393328 0.060016222641872993 0 0.0012661829588822711 0.060067160563125534 0 0.0013348648370327348 0.060142248284233604 0 0.0015677619921843932 0.056825653189312451 0 0.0013296581730371051 0.059874326996901185 0 0.0035517207197252529 0.058296448374594002 0 0.0024378791165959399 0.057970875049614748 0 0.0023222467142397702 0.058704074472226662 0 -0.0016163062062946594 0.085042067042692765 0 -0.0021015974738870049 0.083973081436096747 0 -0.0009480152531965093 0.084250484535633691 0 -0.0016163062062946594 0.085042067042692765 0 -0.0029870819553407878 0.084789514482419684 0 -0.0021015974738870049 0.083973081436096747 0 0.0012571610675331962 0.062881520214544573 0 0.0022545287172652776 0.056863198632531621 0 0.003466211878246089 0.051449466314023223 0 0.0020453225224194055 0.051195920822583618 0 0.0024524683426217515 0.050279096210414986 0 0.0022545287172652776 0.056863198632531621 0 0.0020501455019737392 0.049832276080369671 0 0.0022545287172652776 0.056863198632531621 0 0.0028621403373118256 0.059288372591975738 0 -4.2588339323365799e-05 0.049902140490430798 0 -0.00030508556147769753 0.050040222500104363 0 -0.00029571654163514761 0.049849258649999117 0 -3.3006666578105757e-05 0.050083720553962319 0 -0.0001872242467549801 0.050187952506388335 0 -0.00030508556147769753 0.050040222500104363 0 -4.2588339323365799e-05 0.049902140490430798 0 -3.3006666578105757e-05 0.050083720553962319 0 -0.00030508556147769753 0.050040222500104363 0 -3.3006666578105757e-05 0.050083720553962319 0 -0.0001872242467549801 0.050187952506388335 0 -4.4586425368194338e-05 0.050241750423599053 0 -0.00030508556147769753 0.050040222500104363 0 -0.00063126348133861064 0.050167151244777719 0 -0.00036465259562443712 0.050270329407360016 0 -0.0001872242467549801 0.050187952506388335 0 -0.00030508556147769753 0.050040222500104363 0 -0.00036465259562443712 0.050270329407360016 0 0.0020501455019737392 0.049832276080369671 0 0.0031371466188920725 0.042785622228053759 0 -0.00030508556147769753 0.050040222500104363 0 -0.00029571654163514761 0.049849258649999117 0 -0.00054397695532105853 0.049794888107770129 0 0.0020453225224194055 0.051195920822583618 0 0.0012843611590075757 0.050823801818684296 0 0.00064427965857084325 0.050931954440878967 0 0.0018111185388644737 0.050610435815675842 0 0.0020453225224194055 0.051195920822583618 0 0.0024524683426217515 0.050279096210414986 0 0.0018111185388644737 0.050610435815675842 0 0.0020453225224194055 0.051195920822583618 0 0.0012843611590075757 0.050823801818684296 0 0.0012843611590075757 0.050823801818684296 0 0.00064427965857084325 0.050931954440878967 0 0.00068103138649294119 0.050767611952957779 0 0.0035491941448681473 0.043969625537164443 0 0.0025024933592495968 0.043888226177869527 0 0.0036907378139079284 0.043323826980385206 0 0.0012843611590075757 0.050823801818684296 0 0.00067599376844942828 0.050774414068269685 0 0.00075803906494999835 0.050404611274262746 0 0.012194957468300021 0.017783449471003378 0 0.010494501416558529 0.019303010670348751 0 0.011132099410704196 0.020930140998077922 0 0.0031371466188920725 0.042785622228053759 0 0.0057135459494024148 0.034395299809218779 0 0.0029967429800960561 0.042686273672117407 0 0.0031361110642212434 0.042504072301540331 0 0.0031361110642212434 0.042504072301540331 0 0.003163312150234264 0.045380798300504975 0 0.012194957468300021 0.017783449471003378 0 0.012277016656484755 0.01740705854784896 0 0.010885449233838555 0.017293960014393896 0 0.0031371466188920725 0.042785622228053759 0 0.0031361110642212434 0.042504072301540331 0 0.012194957468300021 0.017783449471003378 0 0.010636411505886706 0.017583085294058456 0 0.010176391257533333 0.018389078886096515 0 0.012194957468300021 0.017783449471003378 0 0.010885449233838555 0.017293960014393896 0 0.010636411505886706 0.017583085294058456 0 0.0031361110642212434 0.042504072301540331 0 0.0058527830410916122 0.039494842526023019 0 0.0058527830410916122 0.039494842526023019 0 0.0059287141374416118 0.039376840261655471 0 0.012194957468300021 0.017783449471003378 0 0.010494501416558529 0.019303010670348751 0 0.010176391257533333 0.018389078886096515 0 0.0057009465834094815 0.01679826868093905 0 0.010887973254404366 0.017293440525253733 0 0.0091258075901070618 0.018042884342037362 0 0.0036910792370425096 0.026942788299045978 0 0.0058527830410916122 0.039494842526023019 0 0.0057009465834094815 0.01679826868093905 0 0.0091258075901070618 0.018042884342037362 0 0.0077284080431611465 0.019169733525537396 0 0.010636411505886706 0.017583085294058456 0 0.0091258075901070618 0.018042884342037362 0 0.010176391257533333 0.018389078886096515 0 0.010887973254404366 0.017293440525253733 0 0.010636411505886706 0.017583085294058456 0 0.0091258075901070618 0.018042884342037362 0 0.0091258075901070618 0.018042884342037362 0 0.0096213271735234827 0.019027790990598467 0 0.010176391257533333 0.018389078886096515 0 0.010494501416558529 0.019303010670348751 0 0.0096213271735234827 0.019027790990598467 0 0.010176391257533333 0.018389078886096515 0 0.010494501416558529 0.019303010670348751 0 0.0098102791265567823 0.019635725554385003 0 0.010076076780666405 0.020277968848686507 0 0.010494501416558529 0.019303010670348751 0 0.0096213271735234827 0.019027790990598467 0 0.0098102791265567823 0.019635725554385003 0 0.0096213271735234827 0.019027790990598467 0 0.0098102791265567823 0.019635725554385003 0 0.0090537329750787609 0.019932657445362597 0 0.0096213271735234827 0.019027790990598467 0 0.0077284080431611465 0.019169733525537396 0 0.0090537329750787609 0.019932657445362597 0 0.0091258075901070618 0.018042884342037362 0 0.0096213271735234827 0.019027790990598467 0 0.0077284080431611465 0.019169733525537396 0 0.0096169747566996876 0.022197429275239405 0 0.010377914773022308 0.021071490524880332 0 0.010075910048314783 0.024138283578864727 0 0.0069191927316580807 0.02806839924632834 0 0.0062840033146501651 0.031174857766804828 0 0.0077284080431611465 0.019169733525537396 0 0.0076693774561060954 0.020887667358608166 0 0.0090537329750787609 0.019932657445362597 0 0.0076693774561060954 0.020887667358608166 0 0.0092716721166268383 0.021036360790380258 0 0.0090537329750787609 0.019932657445362597 0 0.0092716721166268383 0.021036360790380258 0 0.0090537329750787609 0.019932657445362597 0 0.010076076780666405 0.020277968848686507 0 0.0098102791265567823 0.019635725554385003 0 0.0090537329750787609 0.019932657445362597 0 0.010076076780666405 0.020277968848686507 0 0.0092716721166268383 0.021036360790380258 0 0.010076076780666405 0.020277968848686507 0 0.010377914773022308 0.021071490524880332 0 0.0092716721166268383 0.021036360790380258 0 0.0096169747566996876 0.022197429275239405 0 0.010377914773022308 0.021071490524880332 0 0.0096169747566996876 0.022197429275239405 0 0.0086926661778749942 0.022076002359098113 0 0.0090678461029479445 0.023479481287372879 0 0.0092716721166268383 0.021036360790380258 0 0.0096169747566996876 0.022197429275239405 0 0.0086926661778749942 0.022076002359098113 0 0.0076693774561060954 0.020887667358608166 0 0.0092716721166268383 0.021036360790380258 0 0.0086926661778749942 0.022076002359098113 0 0.0072639070846325596 0.023642289782247826 0 0.0076693774561060954 0.020887667358608166 0 0.0086926661778749942 0.022076002359098113 0 0.0041379007632324615 0.038249285425614676 0 0.004153095118296448 0.039207624433496673 0 0.0048035366444529335 0.037337592322434228 0 0.0034250499677733301 0.041066442618779939 0 0.0041379007632324615 0.038249285425614676 0 0.004153095118296448 0.039207624433496673 0 0.010377914773022308 0.021071490524880332 0 0.011132099410704196 0.020930140998077922 0 0.010036399015644792 0.024596096597078523 0 0.0031371466188920725 0.042785622228053759 0 0.0030137334173336388 0.043209145383955233 0 0.0057135459494024148 0.034395299809218779 0 0.0062840033146501651 0.031174857766804828 0 -0.00030508556147769753 0.050040222500104363 0 -0.00054397695532105853 0.049794888107770129 0 -0.00063126348133861064 0.050167151244777719 0 0.010494501416558529 0.019303010670348751 0 0.010076076780666405 0.020277968848686507 0 0.011132099410704196 0.020930140998077922 0 0.010076076780666405 0.020277968848686507 0 0.010377914773022308 0.021071490524880332 0 0.011132099410704196 0.020930140998077922 0 0.0041379007632324615 0.038249285425614676 0 0.0048035366444529335 0.037337592322434228 0 0.0048293398999774938 0.035435342640505456 0 0.0030137334173336388 0.043209145383955233 0 0.0044550480389570647 0.03943187796417897 0 -0.00063126348133861064 0.050167151244777719 0 -0.00049862826119696389 0.05041074162245008 0 -0.00036465259562443712 0.050270329407360016 0 -0.00063126348133861064 0.050167151244777719 0 -0.00049862826119696389 0.05041074162245008 0 -0.00070210288433993171 0.050529665661252367 0 0.0072639070846325596 0.023642289782247826 0 0.0096824498845850537 0.025367467690133733 0 0.0097625071873319366 0.027024088699060238 0 0.0032468672505248852 0.027909702020744102 0 0.0043119566103555738 0.036929991169664146 0 0.0072639070846325596 0.023642289782247826 0 0.0086926661778749942 0.022076002359098113 0 0.0090678461029479445 0.023479481287372879 0 0.0072639070846325596 0.023642289782247826 0 0.0090678461029479445 0.023479481287372879 0 0.0096824498845850537 0.025367467690133733 0 0.0096169747566996876 0.022197429275239405 0 0.0090678461029479445 0.023479481287372879 0 0.010075910048314783 0.024138283578864727 0 0.010069106126955539 0.024152410425857744 0 0.0096824498845850537 0.025367467690133733 0 0.0097625071873319366 0.027024088699060238 0 0.0090678461029479445 0.023479481287372879 0 0.010075910048314783 0.024138283578864727 0 0.0096824498845850537 0.025367467690133733 0 0.0062840033146501651 0.031174857766804828 0 0.0043119566103555738 0.036929991169664146 0 0.0062840033146501651 0.031174857766804828 0 0.0064553209274891927 0.030724399290106279 0 0.0059003387644535141 0.025634948760589686 0 0.006322751104368844 0.022916813311055162 0 0.0082623697582650691 0.02600608853362376 0 0.0042084739365473517 0.040999324883458602 0 0.0043207612754226979 0.039845609381722963 0 0.0044241378522706784 0.039982746940108345 0 0.0048035366444529335 0.037337592322434228 0 0.0050140741440772357 0.035685226946254575 0 0.0048293398999774938 0.035435342640505456 0 0.0043119566103555738 0.036929991169664146 0 0.0044550480389570647 0.03943187796417897 0 0.0059003387644535141 0.025634948760589686 0 0.0082623697582650691 0.02600608853362376 0 0.0062385564493588931 0.027533529404798408 0 -0.00049862826119696389 0.05041074162245008 0 -0.00070210288433993171 0.050529665661252367 0 -0.0004712358283218379 0.050611200439867235 0 -0.00049862826119696389 0.05041074162245008 0 -0.0004712358283218379 0.050611200439867235 0 -0.00032234554748935239 0.050468262146975411 0 -0.00033705622112632951 0.050670448563831363 0 -0.0004712358283218379 0.050611200439867235 0 -0.00032234554748935239 0.050468262146975411 0 -0.00033705622112632951 0.050670448563831363 0 -0.00032234554748935239 0.050468262146975411 0 -0.00014929079423868296 0.050560720444000951 0 -1.4017453820307007e-05 0.050389388012791914 0 -0.00014929079423868296 0.050560720444000951 0 -0.00018152664669583682 0.050352778189888148 0 -0.00032234554748935239 0.050468262146975411 0 -0.00014929079423868296 0.050560720444000951 0 -0.00018152664669583682 0.050352778189888148 0 -1.4017453820307007e-05 0.050389388012791914 0 -0.00018152664669583682 0.050352778189888148 0 -4.4586425368194338e-05 0.050241750423599053 0 -0.0001872242467549801 0.050187952506388335 0 -0.00018152664669583682 0.050352778189888148 0 -4.4586425368194338e-05 0.050241750423599053 0 -0.0001872242467549801 0.050187952506388335 0 -0.00018152664669583682 0.050352778189888148 0 -0.00036465259562443712 0.050270329407360016 0 -0.00049862826119696389 0.05041074162245008 0 -0.00032234554748935239 0.050468262146975411 0 -0.00036465259562443712 0.050270329407360016 0 -0.00032234554748935239 0.050468262146975411 0 -0.00018152664669583682 0.050352778189888148 0 -0.00036465259562443712 0.050270329407360016 0 -3.5261510382315846e-06 0.084990363429067642 0 -0.00043970145536791929 0.08308054438019942 0 -0.00022545862980447284 0.084459552284314759 0 -3.5261510382315846e-06 0.084990363429067642 0 1.0935594015992362e-06 0.085001484060729909 0 -0.00022545862980447284 0.084459552284314759 0 -0.00043970145536791929 0.08308054438019942 0 4.9896409895958455e-05 0.083895687646248218 0 -0.00022545862980447284 0.084459552284314759 0 0.00045439600732271148 0.083950205852065515 0 0.00015042352399751588 0.084498049500963318 0 -3.5261510382315846e-06 0.084990363429067642 0 -0.00043970145536791929 0.08308054438019942 0 5.3369675631702435e-06 0.075909341845651471 0 -0.00043970145536791929 0.08308054438019942 0 0.00065076817678820422 0.080926491581144691 0 0.00091731436802962849 0.082765971361528579 0 -0.00043970145536791929 0.08308054438019942 0 5.3369675631702435e-06 0.075909341845651471 0 0.00065076817678820422 0.080926491581144691 0 1.3972924576649675e-06 0.075890228831909809 0 0.0010023041746635862 0.075568305903849192 0 5.3369675631702435e-06 0.075909341845651471 0 0.00065076817678820422 0.080926491581144691 0 0.0028695448726692376 0.081176597114775179 0 0.00065076817678820422 0.080926491581144691 0 0.00091731436802962849 0.082765971361528579 0 0.0028695448726692376 0.081176597114775179 0 0.00091731436802962849 0.082765971361528579 0 0.0012326712982607176 0.083683293526877117 0 0.0020626142306819561 0.082995333553188749 0 0.00070453855689093744 0.083612568742218243 0 0.00045439600732271148 0.083950205852065515 0 -0.00043970145536791929 0.08308054438019942 0 0.00091731436802962849 0.082765971361528579 0 4.9896409895958455e-05 0.083895687646248218 0 0.00044527727965565779 0.083650771447409178 0 0.0012326712982607176 0.083683293526877117 0 0.00060392998433457187 0.084318733618447689 0 0.00091731436802962849 0.082765971361528579 0 0.00044527727965565779 0.083650771447409178 0 0.0012326712982607176 0.083683293526877117 0 0.0012326712982607176 0.083683293526877117 0 0.0023868983676577555 0.083516352678573658 0 0.0020626142306819561 0.082995333553188749 0 0.0012326712982607176 0.083683293526877117 0 0.0023868983676577555 0.083516352678573658 0 0.0013307674068593618 0.08444929092176541 0 0.0023868983676577555 0.083516352678573658 0 0.0027601975956952278 0.083051004496154698 0 0.0020626142306819561 0.082995333553188749 0 0.0017641490847289715 0.074548520174553351 0 0.00013947619736464251 0.068236211840962666 0 0.0023868983676577555 0.083516352678573658 0 0.0027601975956952278 0.083051004496154698 0 0.0026170057472810625 0.083627324212962789 0 -8.5527275702975799e-05 0.071324529179851617 0 -9.8737268942456725e-05 0.071345419664943899 0 -0.00010313574255289171 0.071353011191456983 0 -8.5527275702975799e-05 0.071324529179851617 0 -9.8737268942456725e-05 0.071345419664943899 0 -0.00018716031127103517 0.071287982227739813 0 0.00091731436802962849 0.082765971361528579 0 0.0020626142306819561 0.082995333553188749 0 0.0028695448726692376 0.081176597114775179 0 0.0027601975956952278 0.083051004496154698 0 0.0020626142306819561 0.082995333553188749 0 0.0028695448726692376 0.081176597114775179 0 0.0017641490847289715 0.074548520174553351 0 0.0010023041746635862 0.075568305903849192 0 2.7117660844832291e-06 0.075885345675374347 0 -0.00010313574255289171 0.071353011191456983 0 -2.65318370206524e-06 0.071708928387891141 0 -2.65318370206524e-06 0.071708928387891141 0 -0.00029961467043077429 0.07067575127641286 0 2.5949900500876157e-06 0.067532006102800163 0 -0.00010313574255289171 0.071353011191456983 0 -2.65318370206524e-06 0.071708928387891141 0 -0.00029961467043077429 0.07067575127641286 0 -9.8737268942456725e-05 0.071345419664943899 0 -0.00010313574255289171 0.071353011191456983 0 -0.00029961467043077429 0.07067575127641286 0 -9.8737268942456725e-05 0.071345419664943899 0 -0.00029961467043077429 0.07067575127641286 0 0.00056975239882411878 0.07096967629334465 0 0.0029015670987301732 0.06005186576774553 0 0.00025954926706541501 0.060874035562334422 0 0.0011470261944986112 0.058336164112484976 0 0.0029015670987301732 0.06005186576774553 0 7.782396183757912e-06 0.067518252277638913 0 9.6142284641799079e-05 0.063233820344005487 0 -0.00029961467043077429 0.07067575127641286 0 0.00056975239882411878 0.07096967629334465 0 2.5949900500876157e-06 0.067532006102800163 0 0.00047537540019632437 0.065713935937224577 0 1.1355231840468754e-06 0.067523685377391771 0 -4.3395527209565394e-06 0.062964243414149856 0 7.782396183757912e-06 0.067518252277638913 0 9.6142284641799079e-05 0.063233820344005487 0 -4.3395527209565394e-06 0.062964243414149856 0 -0.00038041640054076729 0.061660970527992701 0 9.6142284641799079e-05 0.063233820344005487 0 -0.00038041640054076729 0.061660970527992701 0 0.00025954926706541501 0.060874035562334422 0 -0.00011824304415126959 0.059040129553055515 0 -0.00038041640054076729 0.061660970527992701 0 9.6142284641799079e-05 0.063233820344005487 0 0.00025954926706541501 0.060874035562334422 0 0.0029015670987301732 0.06005186576774553 0 9.6142284641799079e-05 0.063233820344005487 0 0.00025954926706541501 0.060874035562334422 0 0.00025954926706541501 0.060874035562334422 0 -0.00011824304415126959 0.059040129553055515 0 0.0011470261944986112 0.058336164112484976 0 0.00030993240170966359 0.058251284093012487 0 -0.00011824304415126959 0.059040129553055515 0 0.0011470261944986112 0.058336164112484976 0 -0.00069004451637884562 0.057062037190171527 0 0.00030993240170966359 0.058251284093012487 0 -0.00011824304415126959 0.059040129553055515 0 -0.00063784759480098134 0.055799230857275686 0 -0.00069004451637884562 0.057062037190171527 0 0.00030993240170966359 0.058251284093012487 0 0.00044650618526385785 0.055273710590811646 0 0.0006105756608660068 0.055755020376276131 0 -0.00021793870275239668 0.056959246107849838 0 0.00076403770031412404 0.056938569710093027 0 0.0003268281680689621 0.056362139072102878 0 -0.00021793870275239668 0.056959246107849838 0 0.00030993240170966359 0.058251284093012487 0 0.00076403770031412404 0.056938569710093027 0 0.00030993240170966359 0.058251284093012487 0 0.00076403770031412404 0.056938569710093027 0 0.0011470261944986112 0.058336164112484976 0 -9.8737268942456725e-05 0.071345419664943899 0 0.00056975239882411878 0.07096967629334465 0 0.00038587752640946215 0.071805226932403793 0 0.00047537540019632437 0.065713935937224577 0 0.00048990438159504928 0.064585588084789897 0 0.0029015670987301732 0.06005186576774553 0 0.0011470261944986112 0.058336164112484976 0 0.0022756740304057115 0.056514868064168576 0 0.0011569974986524261 0.065956339007851111 0 0.00048990438159504928 0.064585588084789897 0 0.00076403770031412404 0.056938569710093027 0 0.0011470261944986112 0.058336164112484976 0 0.0022756740304057115 0.056514868064168576 0 -8.5527275702975799e-05 0.071324529179851617 0 -0.00018716031127103517 0.071287982227739813 0 -0.00018804109578752216 0.071163980901460408 0 0.00048990438159504928 0.064585588084789897 0 0.00013947619736464251 0.068236211840962666 0 -0.00017713595606691658 0.05677572766111607 0 0.00028033106745692273 0.057196804404758349 0 -0.00022186802885034237 0.057320865772066923 0 0.00048990438159504928 0.064585588084789897 0 -0.00050337536171948436 0.060441093285367897 0 0.00076403770031412404 0.056938569710093027 0 0.0004516607715576441 0.05575582382826464 0 0.0003268281680689621 0.056362139072102878 0 0.00076403770031412404 0.056938569710093027 0 0.0022756740304057115 0.056514868064168576 0 0.0004516607715576441 0.05575582382826464 0 0.0004516607715576441 0.05575582382826464 0 0.00034000277387707224 0.055914169265175881 0 0.0003268281680689621 0.056362139072102878 0 0.00028998053616192352 0.057571593853215967 0 -0.00022186802885034237 0.057320865772066923 0 0.00029825276106794444 0.058167030977455812 0 0.00083934964859417986 0.057619257640950571 0 0.00028033106745692273 0.057196804404758349 0 0.00028998053616192352 0.057571593853215967 0 0.00046972437267314129 0.056667498439205141 0 0.0004516607715576441 0.05575582382826464 0 0.00034000277387707224 0.055914169265175881 0 -0.00027501914133173808 0.059178700537733588 0 -0.00050337536171948436 0.060441093285367897 0 0.00028033106745692273 0.057196804404758349 0 0.00028998053616192352 0.057571593853215967 0 -0.00022186802885034237 0.057320865772066923 0 0.00013947619736464251 0.068236211840962666 0 -0.0019866139378198525 0.062437519189399875 0 0.00013947619736464251 0.068236211840962666 0 -0.00090511373585157708 0.070818345766203022 0 -0.00040249417182686522 0.057255566682891057 0 -0.00049700702134966395 0.058420339912904601 0 0.00029825276106794444 0.058167030977455812 0 0.00083934964859417986 0.057619257640950571 0 0.00028998053616192352 0.057571593853215967 0 0.00029825276106794444 0.058167030977455812 0 0.00083934964859417986 0.057619257640950571 0 0.0008377024293297747 0.058325981514708088 0 0.00029825276106794444 0.058167030977455812 0 0.0008377024293297747 0.058325981514708088 0 0.00080307380913717118 0.058890233315740871 0 0.00024830014399952353 0.058752705618975221 0 -0.00049700702134966395 0.058420339912904601 0 0.00029825276106794444 0.058167030977455812 0 0.00024830014399952353 0.058752705618975221 0 0.0008377024293297747 0.058325981514708088 0 0.00029825276106794444 0.058167030977455812 0 0.00024830014399952353 0.058752705618975221 0 0.00080307380913717118 0.058890233315740871 0 0.00024830014399952353 0.058752705618975221 0 0.00034551665917934823 0.059339244758639227 0 0.00024830014399952353 0.058752705618975221 0 0.00034551665917934823 0.059339244758639227 0 -0.00059981508111835635 0.059723965835912406 0 -0.00099644262737207849 0.068429228296273112 0 -0.0032345777922871311 0.072056310259823161 0 0.00069877172199531796 0.084877145874867749 0 0.0016008753481508717 0.084522282782694358 0 0.0012730742643842598 0.084143856986602567 0 -0.0032345777922871311 0.072056310259823161 0 -0.0031852721339744035 0.072158809311341165 0 0.0016050279346822946 0.084524325689595906 0 0.0016096171847213103 0.084397536051776439 0 0.0018287226989612941 0.084404185079980557 0 -0.0032345777922871311 0.072056310259823161 0 -0.0032242294189168911 0.07222401303542994 0 -0.00049700702134966395 0.058420339912904601 0 0.00024830014399952353 0.058752705618975221 0 -0.00059981508111835635 0.059723965835912406 0 -0.00090511373585157708 0.070818345766203022 0 -0.0032345777922871311 0.072056310259823161 0 0.0023049890947852716 0.084071613563316022 0 0.0018991904798138187 0.084350527618147444 0 0.0019323960690208382 0.084112502135707742 0 0.0023049890947852716 0.084071613563316022 0 0.001913906908772645 0.084385769502941327 0 0.0018991904798138187 0.084350527618147444 0 0.0018991904798138187 0.084350527618147444 0 0.0018338126869882783 0.084410304626606203 0 0.0018323231422676062 0.08434525700512098 0 0.0018991904798138187 0.084350527618147444 0 0.0018287226989612941 0.084404185079980557 0 0.0018323231422676062 0.08434525700512098 0 0.001913906908772645 0.084385769502941327 0 0.0018991904798138187 0.084350527618147444 0 0.0018287226989612941 0.084404185079980557 0 0.0018991904798138187 0.084350527618147444 0 0.001705090617860016 0.08438926928864976 0 0.0018338126869882783 0.084410304626606203 0 0.0018991904798138187 0.084350527618147444 0 0.0019323960690208382 0.084112502135707742 0 0.001705090617860016 0.08438926928864976 0 0.0019323960690208382 0.084112502135707742 0 0.002221976463429462 0.083811029675854257 0 0.0017025578022792163 0.083708644437792232 0 0.0026170057472810625 0.083627324212962789 0 0.0023049890947852716 0.084071613563316022 0 0.002221976463429462 0.083811029675854257 0 0.0023049890947852716 0.084071613563316022 0 0.0019323960690208382 0.084112502135707742 0 0.002221976463429462 0.083811029675854257 0 0.0023868983676577555 0.083516352678573658 0 0.0026170057472810625 0.083627324212962789 0 0.002221976463429462 0.083811029675854257 0 0.0018056951987170452 0.083823051104476978 0 0.0014552578894475678 0.084062968897063439 0 0.0023868983676577555 0.083516352678573658 0 0.002221976463429462 0.083811029675854257 0 0.0017025578022792163 0.083708644437792232 0 0.0012326712982607176 0.083683293526877117 0 0.0013307674068593618 0.08444929092176541 0 0.00060392998433457187 0.084318733618447689 0 0.0013307674068593618 0.08444929092176541 0 0.00060392998433457187 0.084318733618447689 0 0.0004833014842747395 0.084860588662305336 0 0.0014552578894475678 0.084062968897063439 0 0.00095132865930439904 0.084392651755463441 0 0.0017025578022792163 0.083708644437792232 0 0.0011104252150996488 0.083986802024020452 0 0.0015587040705674095 0.084141750837056661 0 0.0019323960690208382 0.084112502135707742 0 0.0017025578022792163 0.083708644437792232 0 0.0015587040705674095 0.084141750837056661 0 0.0019323960690208382 0.084112502135707742 0 0.0015587040705674095 0.084141750837056661 0 0.001705090617860016 0.08438926928864976 0 0.0015587040705674095 0.084141750837056661 0 0.001705090617860016 0.08438926928864976 0 0.001208985891175724 0.084543091369603904 0 0.001705090617860016 0.08438926928864976 0 0.0014996994801026661 0.084611400668610337 0 0.0018338126869882783 0.084410304626606203 0 0.001705090617860016 0.08438926928864976 0 0.001208985891175724 0.084543091369603904 0 0.0014996994801026661 0.084611400668610337 0 0.001208985891175724 0.084543091369603904 0 0.00080196227059661437 0.085036334864184757 0 0.0014996994801026661 0.084611400668610337 0 0.0011104252150996488 0.083986802024020452 0 0.0015587040705674095 0.084141750837056661 0 0.001208985891175724 0.084543091369603904 0 0.00095132865930439904 0.084392651755463441 0 0.00068732842214181203 0.084572261842468285 0 0.0011104252150996488 0.083986802024020452 0 0.001208985891175724 0.084543091369603904 0 0.00029224644219205177 0.084784875527541964 0 0.001208985891175724 0.084543091369603904 0 0.00029224644219205177 0.084784875527541964 0 0.00080196227059661437 0.085036334864184757 0 1.4001657657895425e-07 0.085000335987721595 0 0.00029224644219205177 0.084784875527541964 0 0.00080196227059661437 0.085036334864184757 0 1.4001657657895425e-07 0.085000335987721595 0 3.2290472500975205e-07 0.084999684014652563 0 0.00029224644219205177 0.084784875527541964 0 3.2290472500975205e-07 0.084999684014652563 0 0.00029224644219205177 0.084784875527541964 0 -1.9977770442261604e-07 0.084999108907029691 0 0.0004833014842747395 0.084860588662305336 0 -1.9977770442261604e-07 0.084999108907029691 0 0.00014765793328476871 0.084420493217707795 0 0.0004833014842747395 0.084860588662305336 0 0.00029224644219205177 0.084784875527541964 0 -1.9977770442261604e-07 0.084999108907029691 0 0.00060392998433457187 0.084318733618447689 0 0.0004833014842747395 0.084860588662305336 0 0.00014765793328476871 0.084420493217707795 0 0.00044527727965565779 0.083650771447409178 0 0.00060392998433457187 0.084318733618447689 0 0.00014765793328476871 0.084420493217707795 0 -1.1635258987702568e-07 0.084999264695020824 0 0.00015042352399751588 0.084498049500963318 0 1.919029962468314e-08 0.084999900416105348 0 4.4100251204592502e-05 0.084901698847835702 0 2.7266723897117081e-05 0.084929186946581983 0 4.4100251204592502e-05 0.084901698847835702 0 6.6832569459144336e-05 0.084846529143247681 0 2.7266723897117081e-05 0.084929186946581983 0 1.919029962468314e-08 0.084999900416105348 0 4.4100251204592502e-05 0.084901698847835702 0 3.2893688205323794e-08 0.084999892885972789 0 2.918774049551785e-09 0.08499994312695984 0 3.2893688205323794e-08 0.084999892885972789 0 3.8889820484982527e-05 0.084916984568224468 0 4.4139540906126461e-07 0.084999548781938855 0 0.00037814328575752642 0.084785417123829698 0 4.4100251204592502e-05 0.084901698847835702 0 3.2893688205323794e-08 0.084999892885972789 0 3.8889820484982527e-05 0.084916984568224468 0 4.4100251204592502e-05 0.084901698847835702 0 3.8889820484982527e-05 0.084916984568224468 0 9.1285891733241208e-05 0.084814861103474123 0 0.00037814328575752642 0.084785417123829698 0 0.00070446888504288574 0.084456480314963167 0 0.00080196227059661437 0.085036334864184757 0 0.0014996994801026661 0.084611400668610337 0 0.0016211417075838084 0.084682774205194156 0 0.0014996994801026661 0.084611400668610337 0 0.0016211417075838084 0.084682774205194156 0 0.0018338126869882783 0.084410304626606203 0 9.1285891733241208e-05 0.084814861103474123 0 9.7695412638906258e-05 0.084802959911331202 0 0.00016633149770567518 0.084720391556817085 0 4.4100251204592502e-05 0.084901698847835702 0 9.1285891733241208e-05 0.084814861103474123 0 9.7695412638906258e-05 0.084802959911331202 0 4.4100251204592502e-05 0.084901698847835702 0 9.7695412638906258e-05 0.084802959911331202 0 6.6832569459144336e-05 0.084846529143247681 0 9.7695412638906258e-05 0.084802959911331202 0 6.6832569459144336e-05 0.084846529143247681 0 0.00013327350158322696 0.084722519132888807 0 6.6832569459144336e-05 0.084846529143247681 0 0.00013327350158322696 0.084722519132888807 0 9.3419905748925915e-05 0.084787468459402202 0 0.00013327350158322696 0.084722519132888807 0 0.00021443612639828112 0.084578009730988571 0 0.00015771864319357126 0.084638120403455128 0 0.00021443612639828112 0.084578009730988571 0 0.00016633149770567518 0.084720391556817085 0 0.00018749303458178798 0.084670532152388872 0 0.00084833482828470272 0.083908848602318981 0 0.00072066549478162583 0.083017558445671102 0 9.7695412638906258e-05 0.084802959911331202 0 0.00013327350158322696 0.084722519132888807 0 0.00016633149770567518 0.084720391556817085 0 0.00013327350158322696 0.084722519132888807 0 0.00021443612639828112 0.084578009730988571 0 0.00016633149770567518 0.084720391556817085 0 0.0016211417075838084 0.084682774205194156 0 0.0019146798827635232 0.083932653752331124 0 0.0018338126869882783 0.084410304626606203 0 0.00070446888504288574 0.084456480314963167 0 0.00084833482828470272 0.083908848602318981 0 0.0018338126869882783 0.084410304626606203 0 0.0018323231422676062 0.08434525700512098 0 0.001738174475366215 0.084084924005398326 0 0.0017273257843598243 0.08426362597804174 0 0.0018323231422676062 0.08434525700512098 0 0.001738174475366215 0.084084924005398326 0 0.0018287226989612941 0.084404185079980557 0 0.0017273257843598243 0.08426362597804174 0 0.0018323231422676062 0.08434525700512098 0 0.0016096171847213103 0.084397536051776439 0 0.0018287226989612941 0.084404185079980557 0 0.0017273257843598243 0.08426362597804174 0 0.0017273257843598243 0.08426362597804174 0 0.001738174475366215 0.084084924005398326 0 0.0015883008342536607 0.084217416627286809 0 0.0019146798827635232 0.083932653752331124 0 0.001738174475366215 0.084084924005398326 0 0.0014228987483614894 0.083624836475596057 0 0.0019146798827635232 0.083932653752331124 0 0.0018338126869882783 0.084410304626606203 0 0.001738174475366215 0.084084924005398326 0 0.0019146798827635232 0.083932653752331124 0 0.0014228987483614894 0.083624836475596057 0 0.0013557530505435608 0.082868919578370712 0 0.0014228987483614894 0.083624836475596057 0 0.00094132356250808209 0.083528554751675713 0 0.0013557530505435608 0.082868919578370712 0 0.0014228987483614894 0.083624836475596057 0 0.0012730742643842598 0.084143856986602567 0 0.00094132356250808209 0.083528554751675713 0 0.001738174475366215 0.084084924005398326 0 0.0012730742643842598 0.084143856986602567 0 0.0015883008342536607 0.084217416627286809 0 0.001738174475366215 0.084084924005398326 0 0.0014228987483614894 0.083624836475596057 0 0.0012730742643842598 0.084143856986602567 0 0.0016096171847213103 0.084397536051776439 0 0.0012730742643842598 0.084143856986602567 0 0.0015883008342536607 0.084217416627286809 0 0.0016008753481508717 0.084522282782694358 0 0.0016096171847213103 0.084397536051776439 0 0.0012730742643842598 0.084143856986602567 0 0.0016096171847213103 0.084397536051776439 0 0.0017273257843598243 0.08426362597804174 0 0.0015883008342536607 0.084217416627286809 0 0.00069877172199531796 0.084877145874867749 0 0.0012730742643842598 0.084143856986602567 0 0.00025492256461538947 0.084095688614204425 0 0.0012730742643842598 0.084143856986602567 0 0.00094132356250808209 0.083528554751675713 0 0.00025492256461538947 0.084095688614204425 0 0.00094132356250808209 0.083528554751675713 0 0.0013557530505435608 0.082868919578370712 0 0.00024405664371645 0.082955223522052757 0 0.00094132356250808209 0.083528554751675713 0 0.00025492256461538947 0.084095688614204425 0 0.00024405664371645 0.082955223522052757 0 0.00072066549478162583 0.083017558445671102 0 0.00037067338176663189 0.081518511463350651 0 0.0013557530505435608 0.082868919578370712 0 0.00024405664371645 0.082955223522052757 0 0.00021444163859538187 0.081891127767222502 0 0.00021443612639828112 0.084578009730988571 0 0.00018749303458178798 0.084670532152388872 0 0.00026117640514439276 0.084269163559094182 0 0.00018749303458178798 0.084670532152388872 0 0.00026117640514439276 0.084269163559094182 0 -0.00018141321881963242 0.084576746903018279 0 0.00026117640514439276 0.084269163559094182 0 -0.00018141321881963242 0.084576746903018279 0 -0.00025460655223436392 0.083940448668665096 0 0.00026117640514439276 0.084269163559094182 0 -5.2540275801706724e-05 0.083090387116005027 0 -0.00025460655223436392 0.083940448668665096 0 0.00021443612639828112 0.084578009730988571 0 0.00026117640514439276 0.084269163559094182 0 0.00015771864319357126 0.084638120403455128 0 0.00026117640514439276 0.084269163559094182 0 0.00023591201218916606 0.084565896338861066 0 0.00015771864319357126 0.084638120403455128 0 0.00023591201218916606 0.084565896338861066 0 0.0002507535965756213 0.08470716521270602 0 0.00018463182898959292 0.08467788342723756 0 0.00023591201218916606 0.084565896338861066 0 0.00044226403940991006 0.084568153365847512 0 0.00033093270915007296 0.084658461552045872 0 0.00026117640514439276 0.084269163559094182 0 0.00023591201218916606 0.084565896338861066 0 0.00044226403940991006 0.084568153365847512 0 0.00074960938942992476 0.082546149568854754 0 0.00047124231060886933 0.081709686406345808 0 0.00044226403940991006 0.084568153365847512 0 0.00040335281176116984 0.084688032637801489 0 0.00033093270915007296 0.084658461552045872 0 0.00040335281176116984 0.084688032637801489 0 0.00033093270915007296 0.084658461552045872 0 0.00032646133878509699 0.084733900754510039 0 0.00040335281176116984 0.084688032637801489 0 0.00032646133878509699 0.084733900754510039 0 0.00038513006200523642 0.084762266988419543 0 0.00032646133878509699 0.084733900754510039 0 0.00038513006200523642 0.084762266988419543 0 0.00031124745799886291 0.0848147192457233 0 0.00038513006200523642 0.084762266988419543 0 0.00031124745799886291 0.0848147192457233 0 0.00038340376982455267 0.084850762096173427 0 0.00025486002706578926 0.084849438831773247 0 0.00025177692271434872 0.084782688054372612 0 0.00018661846467933098 0.0848383378694718 0 0.00031124745799886291 0.0848147192457233 0 0.00025486002706578926 0.084849438831773247 0 0.00028144609711450218 0.084878745521818427 0 0.00031124745799886291 0.0848147192457233 0 0.00025486002706578926 0.084849438831773247 0 0.00025177692271434872 0.084782688054372612 0 0.00032646133878509699 0.084733900754510039 0 0.00031124745799886291 0.0848147192457233 0 0.00025177692271434872 0.084782688054372612 0 0.00025177692271434872 0.084782688054372612 0 0.0002507535965756213 0.08470716521270602 0 0.00019500650517637348 0.084758463838144379 0 0.00032646133878509699 0.084733900754510039 0 0.00025177692271434872 0.084782688054372612 0 0.0002507535965756213 0.08470716521270602 0 0.00023591201218916606 0.084565896338861066 0 0.00033093270915007296 0.084658461552045872 0 0.0002507535965756213 0.08470716521270602 0 0.00033093270915007296 0.084658461552045872 0 0.00032646133878509699 0.084733900754510039 0 0.0002507535965756213 0.08470716521270602 0 0.0002507535965756213 0.08470716521270602 0 0.00019500650517637348 0.084758463838144379 0 0.00018463182898959292 0.08467788342723756 0 0.00019500650517637348 0.084758463838144379 0 0.00018661846467933098 0.0848383378694718 0 0.00013470130010542088 0.084779209654446006 0 0.00019500650517637348 0.084758463838144379 0 0.00013470130010542088 0.084779209654446006 0 0.00018463182898959292 0.08467788342723756 0 0.00025177692271434872 0.084782688054372612 0 0.00019500650517637348 0.084758463838144379 0 0.00018661846467933098 0.0848383378694718 0 0.00025486002706578926 0.084849438831773247 0 0.00018661846467933098 0.0848383378694718 0 0.00021411531037522917 0.084875492862781052 0 0.00018661846467933098 0.0848383378694718 0 0.0001163876200422611 0.084872313524040052 0 0.00016235654744430392 0.084891265732400176 0 0.00018661846467933098 0.0848383378694718 0 0.0001163876200422611 0.084872313524040052 0 0.00013470130010542088 0.084779209654446006 0 0.0001163876200422611 0.084872313524040052 0 0.00013470130010542088 0.084779209654446006 0 7.2552633507848996e-05 0.08486581061871501 0 0.00013470130010542088 0.084779209654446006 0 0.00015771864319357126 0.084638120403455128 0 8.9982830448954781e-05 0.084802837248981217 0 0.00015771864319357126 0.084638120403455128 0 9.3419905748925915e-05 0.084787468459402202 0 8.9982830448954781e-05 0.084802837248981217 0 0.00023591201218916606 0.084565896338861066 0 0.00018463182898959292 0.08467788342723756 0 0.00015771864319357126 0.084638120403455128 0 0.00013470130010542088 0.084779209654446006 0 0.00018463182898959292 0.08467788342723756 0 0.00015771864319357126 0.084638120403455128 0 0.00013327350158322696 0.084722519132888807 0 0.00015771864319357126 0.084638120403455128 0 9.3419905748925915e-05 0.084787468459402202 0 6.6832569459144336e-05 0.084846529143247681 0 9.3419905748925915e-05 0.084787468459402202 0 4.3225858312056635e-05 0.084883838571631745 0 9.3419905748925915e-05 0.084787468459402202 0 4.3225858312056635e-05 0.084883838571631745 0 8.9982830448954781e-05 0.084802837248981217 0 0.00013470130010542088 0.084779209654446006 0 8.9982830448954781e-05 0.084802837248981217 0 7.2552633507848996e-05 0.08486581061871501 0 4.3225858312056635e-05 0.084883838571631745 0 8.9982830448954781e-05 0.084802837248981217 0 7.2552633507848996e-05 0.08486581061871501 0 0.0001163876200422611 0.084872313524040052 0 7.2552633507848996e-05 0.08486581061871501 0 6.4768916120805411e-05 0.084932504497052808 0 7.2552633507848996e-05 0.08486581061871501 0 3.2692813374744637e-05 0.08493094001258486 0 6.4768916120805411e-05 0.084932504497052808 0 4.3225858312056635e-05 0.084883838571631745 0 7.2552633507848996e-05 0.08486581061871501 0 3.2692813374744637e-05 0.08493094001258486 0 4.3225858312056635e-05 0.084883838571631745 0 3.2692813374744637e-05 0.08493094001258486 0 1.6084290851216548e-05 0.084948572804677422 0 3.2692813374744637e-05 0.08493094001258486 0 1.6084290851216548e-05 0.084948572804677422 0 7.872458483677976e-06 0.084973017081120442 0 3.2692813374744637e-05 0.08493094001258486 0 7.872458483677976e-06 0.084973017081120442 0 1.8530946281728415e-05 0.084972651862566487 0 7.872458483677976e-06 0.084973017081120442 0 5.9411863581311754e-09 0.084999936317276439 0 1.0791685861320727e-09 0.084999969866585118 0 1.6084290851216548e-05 0.084948572804677422 0 7.872458483677976e-06 0.084973017081120442 0 5.9411863581311754e-09 0.084999936317276439 0 1.6084290851216548e-05 0.084948572804677422 0 5.9411863581311754e-09 0.084999936317276439 0 1.01997271006504e-08 0.084999906051053134 0 4.3225858312056635e-05 0.084883838571631745 0 1.6084290851216548e-05 0.084948572804677422 0 1.01997271006504e-08 0.084999906051053134 0 4.3225858312056635e-05 0.084883838571631745 0 1.01997271006504e-08 0.084999906051053134 0 2.7266723897117081e-05 0.084929186946581983 0 6.6832569459144336e-05 0.084846529143247681 0 4.3225858312056635e-05 0.084883838571631745 0 2.7266723897117081e-05 0.084929186946581983 0 1.919029962468314e-08 0.084999900416105348 0 1.01997271006504e-08 0.084999906051053134 0 2.7266723897117081e-05 0.084929186946581983 0 0.0025683865211498526 0.076639082757732124 0 -0.00045209856630560214 0.07671703594712638 0 0.0033082183253095214 0.072024585758114879 0 0.0025683865211498526 0.076639082757732124 0 0.00317724256542485 0.078105873252062197 0 0.0046511302677324038 0.071976064875491047 0 0.0017112169334939744 0.050865648496847327 0 0.0011695372821968703 0.050841489012067954 0 0.0017112169334939744 0.050865648496847327 0 0.0026985160982307224 0.052408630673641522 0 0.0025683865211498526 0.076639082757732124 0 0.00317724256542485 0.078105873252062197 0 0.00094060485003979837 0.077132947063446256 0 0.0023213227745343366 0.077711256639456036 0 0.00094060485003979837 0.077132947063446256 0 0.00084136564703786703 0.078607673805340839 0 -0.0034070609101672969 0.082028490080867392 0 -0.0034865140208235681 0.082763282175193853 0 -0.0027351331269643282 0.082637472548390781 0 -0.00045209856630560214 0.07671703594712638 0 0.00094060485003979837 0.077132947063446256 0 -0.00032384760335046507 0.078479224807334907 0 0.0025683865211498526 0.076639082757732124 0 -0.00045209856630560214 0.07671703594712638 0 0.00094060485003979837 0.077132947063446256 0 0.00084136564703786703 0.078607673805340839 0 -0.00032384760335046507 0.078479224807334907 0 -0.00042800514435387767 0.079512723833385188 0 -0.00032384760335046507 0.078479224807334907 0 -0.00042800514435387767 0.079512723833385188 0 -0.0022314962693602866 0.080677647683889214 0 -0.00045209856630560214 0.07671703594712638 0 -0.00032384760335046507 0.078479224807334907 0 -0.0022314962693602866 0.080677647683889214 0 0.00094060485003979837 0.077132947063446256 0 0.00084136564703786703 0.078607673805340839 0 -0.00032384760335046507 0.078479224807334907 0 -0.00042800514435387767 0.079512723833385188 0 0.0016434263447914889 0.080094481873721576 0 -0.00031356358913541807 0.080613174499738718 0 0.00084136564703786703 0.078607673805340839 0 -0.00042800514435387767 0.079512723833385188 0 0.0016434263447914889 0.080094481873721576 0 -9.8202234174818811e-05 0.030409734940981738 0 -0.00031320403454304294 0.030001197926972548 0 -3.276796035445551e-06 0.029915722993161892 0 0.0023213227745343366 0.077711256639456036 0 0.00084136564703786703 0.078607673805340839 0 0.0016434263447914889 0.080094481873721576 0 0.0017112169334939744 0.050865648496847327 0 -0.0003739993327697933 0.055040414014751293 0 0.0017112169334939744 0.050865648496847327 0 -0.0014276557688751572 0.039645298718608557 0 -9.8202234174818811e-05 0.030409734940981738 0 -0.00031320403454304294 0.030001197926972548 0 -0.00064274628141644974 0.030161540108613809 0 -0.00031320403454304294 0.030001197926972548 0 -0.00064274628141644974 0.030161540108613809 0 -0.00051458022903204154 0.029702737828874313 0 -0.00064274628141644974 0.030161540108613809 0 -0.00083416873200681523 0.029735689669844544 0 -0.00051458022903204154 0.029702737828874313 0 -0.0014276557688751572 0.039645298718608557 0 -0.0039004752704673872 0.030221474489247682 0 -0.00064274628141644974 0.030161540108613809 0 -0.0011743376345990327 0.029869276820761643 0 -0.00083416873200681523 0.029735689669844544 0 -0.00065183108158501756 0.039725094336711682 0 -0.0049902108160627253 0.038154540122978413 0 -0.0012575394641235282 0.042470767071933084 0 -0.0039004752704673872 0.030221474489247682 0 -0.0025036028625520755 0.036572794955233287 0 0.0029066738508605645 0.017062912492658528 0 0.0031656173411853611 0.017083414162342801 0 0.003003894374822584 0.017302024473150213 0 0.0029066738508605645 0.017062912492658528 0 0.0029482648997654782 0.016809740920013985 0 0.0031656173411853611 0.017083414162342801 0 0.0036730386064090033 0.041290305950791847 0 -0.00065183108158501756 0.039725094336711682 0 -0.0012575394641235282 0.042470767071933084 0 -0.0025036028625520755 0.036572794955233287 0 0.0011695372821968703 0.050841489012067954 0 0.0036730386064090033 0.041290305950791847 0 -0.0012575394641235282 0.042470767071933084 0 0.0024641893479386413 0.046768158833905775 0 0.0031656173411853611 0.017083414162342801 0 0.0032089740978666669 0.01733852563909195 0 0.0033929489412379264 0.017378815935749501 0 0.0032089740978666669 0.01733852563909195 0 0.0033555075841344853 0.017548192772837999 0 0.0033929489412379264 0.017378815935749501 0 0.0034259137246941966 0.047003071066819384 0 0.0011695372821968703 0.050841489012067954 0 0.0031656173411853611 0.017083414162342801 0 0.0032089740978666669 0.01733852563909195 0 0.003003894374822584 0.017302024473150213 0 0.0032089740978666669 0.01733852563909195 0 0.003003894374822584 0.017302024473150213 0 0.0031773757741521739 0.017511302626696236 0 0.0028294174872412117 0.017582171970670541 0 0.003211993301018747 0.017700512593292476 0 0.0030140050046642813 0.017494451253169344 0 0.0028505987974783552 0.01738798336001772 0 0.003003894374822584 0.017302024473150213 0 0.0030140050046642813 0.017494451253169344 0 0.003003894374822584 0.017302024473150213 0 0.0030140050046642813 0.017494451253169344 0 0.0031773757741521739 0.017511302626696236 0 0.003211993301018747 0.017700512593292476 0 0.0030140050046642813 0.017494451253169344 0 0.0031773757741521739 0.017511302626696236 0 0.0032926885168722895 0.049140774914922122 0 0.0028063860310293801 0.049712315821787666 0 0.0022135049895734655 0.053940775533874219 0 0.0035142506396364376 0.046546147576306721 0 0.0035261607784960393 0.046529275064165078 0 0.0035060024529279367 0.046638040018577576 0 0.0034259137246941966 0.047003071066819384 0 0.0028775900426340501 0.048965181799439914 0 0.0032089740978666669 0.01733852563909195 0 0.0033555075841344853 0.017548192772837999 0 0.0031773757741521739 0.017511302626696236 0 0.003211993301018747 0.017700512593292476 0 0.0033555075841344853 0.017548192772837999 0 0.0031773757741521739 0.017511302626696236 0 0.0034259137246941966 0.047003071066819384 0 0.003163312150234264 0.045380798300504975 0 0.0025024933592495968 0.043888226177869527 0 0.0039373708035457863 0.042197664803097314 0 0.0036907378139079284 0.043323826980385206 0 0.0058527830410916122 0.039494842526023019 0 0.0034259137246941966 0.047003071066819384 0 0.0028775900426340501 0.048965181799439914 0 0.003163312150234264 0.045380798300504975 0 0.0012843611590075757 0.050823801818684296 0 0.00075803906494999835 0.050404611274262746 0 0.0014663709049276504 0.050142389077665633 0 -0.0043715225491339268 0.083184120826458222 0 -0.0034124066320153422 0.083202532824657394 0 -0.0036853346532680076 0.083996326596675594 0 0.0010009336487212805 0.049639652976183862 0 0.00075803906494999835 0.050404611274262746 0 0.0014663709049276504 0.050142389077665633 0 0.0018111185388644737 0.050610435815675842 0 0.0012843611590075757 0.050823801818684296 0 0.0014663709049276504 0.050142389077665633 0 0.0018111185388644737 0.050610435815675842 0 0.0014663709049276504 0.050142389077665633 0 0.0024524683426217515 0.050279096210414986 0 0.0014663709049276504 0.050142389077665633 0 0.0014410496099888459 0.049123458098177683 0 0.0024524683426217515 0.050279096210414986 0 0.0017978892083407283 0.056142528824921545 0 0.0028621403373118256 0.059288372591975738 0 0.0010009336487212805 0.049639652976183862 0 0.0014663709049276504 0.050142389077665633 0 0.0014410496099888459 0.049123458098177683 0 0.0028775900426340501 0.048965181799439914 0 0.0017978892083407283 0.056142528824921545 0 0.0028775900426340501 0.048965181799439914 0 0.0016657605169458738 0.053485890710295886 0 4.2262018580657473e-07 0.062455686891150754 0 0.0016657605169458738 0.053485890710295886 0 0.0025683865211498526 0.076639082757732124 0 0.0042535685527105927 0.071511898753297526 0 0.0046511302677324038 0.071976064875491047 0 0.0028063860310293801 0.049712315821787666 0 0.0016524049392744938 0.053291287445427667 0 0.0022135049895734655 0.053940775533874219 0 -0.0043298285877745582 0.072891571510176612 0 0.0017978892083407283 0.056142528824921545 0 0.0022971380868206668 0.053448310327636896 0 0.0014689381070859386 0.056022129120077487 0 0.00078435339375393116 0.055230338841692726 0 0.0025683865211498526 0.076639082757732124 0 0.0038361663387337696 0.072630578348013175 0 0.0033082183253095214 0.072024585758114879 0 0.0016657605169458738 0.053485890710295886 0 0.0017978892083407283 0.056142528824921545 0 0.0016657605169458738 0.053485890710295886 0 0.0011695372821968703 0.050841489012067954 0 -0.0034124066320153422 0.083202532824657394 0 -0.0028568752333277148 0.083639707911395605 0 -0.0027351331269643282 0.082637472548390781 0 -0.0043715225491339268 0.083184120826458222 0 -0.0034865140208235681 0.082763282175193853 0 -0.0034124066320153422 0.083202532824657394 0 -0.0034070609101672969 0.082028490080867392 0 -0.0043715225491339268 0.083184120826458222 0 -0.0034865140208235681 0.082763282175193853 0 -0.0034865140208235681 0.082763282175193853 0 -0.0034124066320153422 0.083202532824657394 0 -0.0027351331269643282 0.082637472548390781 0 -0.0029870819553407878 0.084789514482419684 0 -0.0036853346532680076 0.083996326596675594 0 -0.0028568752333277148 0.083639707911395605 0 -0.0034124066320153422 0.083202532824657394 0 -0.0036853346532680076 0.083996326596675594 0 -0.0028568752333277148 0.083639707911395605 0 -0.0029870819553407878 0.084789514482419684 0 -0.0028568752333277148 0.083639707911395605 0 -0.0021015974738870049 0.083973081436096747 0 -0.0028568752333277148 0.083639707911395605 0 -0.0021015974738870049 0.083973081436096747 0 -0.0022250075279392355 0.083213014541933458 0 -0.0021015974738870049 0.083973081436096747 0 -0.0013825843458117847 0.083317497308197819 0 -0.0022250075279392355 0.083213014541933458 0 -0.0021015974738870049 0.083973081436096747 0 -0.0013825843458117847 0.083317497308197819 0 -0.0009480152531965093 0.084250484535633691 0 -0.0013825843458117847 0.083317497308197819 0 -0.00088681391929736921 0.082399116857643798 0 -0.001865689698936749 0.082414755181342322 0 -0.0013825843458117847 0.083317497308197819 0 -0.0022250075279392355 0.083213014541933458 0 -0.001865689698936749 0.082414755181342322 0 -0.0027351331269643282 0.082637472548390781 0 -0.0022250075279392355 0.083213014541933458 0 -0.001865689698936749 0.082414755181342322 0 -0.0028568752333277148 0.083639707911395605 0 -0.0027351331269643282 0.082637472548390781 0 -0.0022250075279392355 0.083213014541933458 0 0.00025492256461538947 0.084095688614204425 0 -0.0009480152531965093 0.084250484535633691 0 -0.00050196667554536689 0.083470324978070956 0 -0.0013825843458117847 0.083317497308197819 0 -0.0009480152531965093 0.084250484535633691 0 -0.00050196667554536689 0.083470324978070956 0 -0.0013825843458117847 0.083317497308197819 0 -0.00050196667554536689 0.083470324978070956 0 -0.00088681391929736921 0.082399116857643798 0 -0.00050196667554536689 0.083470324978070956 0 0.00024405664371645 0.082955223522052757 0 -0.00088681391929736921 0.082399116857643798 0 0.00025492256461538947 0.084095688614204425 0 -0.00050196667554536689 0.083470324978070956 0 0.00024405664371645 0.082955223522052757 0 0.00024405664371645 0.082955223522052757 0 -0.00088681391929736921 0.082399116857643798 0 0.00021444163859538187 0.081891127767222502 0 -0.0013095510657376327 0.084278839861376589 0 -0.00018141321881963242 0.084576746903018279 0 -0.00072378335686857341 0.08396471298021399 0 6.8812342303637818e-05 0.078764662260998639 0 0.00037067338176663189 0.081518511463350651 0 -0.00088681391929736921 0.082399116857643798 0 -0.0012224935022514755 0.080992275287940396 0 0.00021444163859538187 0.081891127767222502 0 -0.00018141321881963242 0.084576746903018279 0 -0.00025460655223436392 0.083940448668665096 0 -0.00072378335686857341 0.08396471298021399 0 -0.0027351331269643282 0.082637472548390781 0 -0.0023805453408160663 0.081826117421752692 0 -0.001865689698936749 0.082414755181342322 0 -0.0034070609101672969 0.082028490080867392 0 -0.0027351331269643282 0.082637472548390781 0 -0.0023805453408160663 0.081826117421752692 0 -0.00088681391929736921 0.082399116857643798 0 -0.001865689698936749 0.082414755181342322 0 -0.0017251819557300954 0.081596567682044555 0 -0.0023805453408160663 0.081826117421752692 0 -0.001865689698936749 0.082414755181342322 0 -0.0017251819557300954 0.081596567682044555 0 -0.0012224935022514755 0.080992275287940396 0 -0.0017251819557300954 0.081596567682044555 0 -0.0022314962693602866 0.080677647683889214 0 -0.00088681391929736921 0.082399116857643798 0 -0.0012224935022514755 0.080992275287940396 0 -0.0017251819557300954 0.081596567682044555 0 -0.0023805453408160663 0.081826117421752692 0 -0.0017251819557300954 0.081596567682044555 0 -0.0022314962693602866 0.080677647683889214 0 -0.0043298285877745582 0.072891571510176612 0 -0.0047876077470180309 0.076083094543945726 0 -0.00042800514435387767 0.079512723833385188 0 -0.0022314962693602866 0.080677647683889214 0 -0.0013482366018812315 0.080395065615143022 0 -0.0034070609101672969 0.082028490080867392 0 -0.0023805453408160663 0.081826117421752692 0 -0.0022314962693602866 0.080677647683889214 0 -0.0022314962693602866 0.080677647683889214 0 -0.0022054401534617818 0.08076005261749182 0 -0.0013482366018812315 0.080395065615143022 0 -0.0022054401534617818 0.08076005261749182 0 -0.0013482366018812315 0.080395065615143022 0 -0.00031356358913541807 0.080613174499738718 0 -0.0013095510657376327 0.084278839861376589 0 -0.0026495900705782957 0.08366665707380011 0 -0.0013071677373254146 0.083717530583649266 0 -0.0026495900705782957 0.08366665707380011 0 -0.0026231337847574432 0.083229114594052467 0 -0.0013071677373254146 0.083717530583649266 0 -0.0012224935022514755 0.080992275287940396 0 -0.0022314962693602866 0.080677647683889214 0 -0.0022054401534617818 0.08076005261749182 0 -0.0030276282701790056 0.070345032351615794 0 -0.0018399088797014232 0.073596890144344035 0 6.8812342303637818e-05 0.078764662260998639 0 0.00010379822828138704 0.073148671324230016 0 -0.0083125983905238225 0.082372502738044445 0 -0.0047683887092420099 0.081430823739220975 0 -0.0013071677373254146 0.083717530583649266 0 -0.0047683887092420099 0.081430823739220975 0 -0.0025441413182065091 0.081905066440603927 0 -0.0013071677373254146 0.083717530583649266 0 -0.0047683887092420099 0.081430823739220975 0 -0.0025441413182065091 0.081905066440603927 0 -0.0022607690259509494 0.079801828011299994 0 -0.0025441413182065091 0.081905066440603927 0 -0.0022607690259509494 0.079801828011299994 0 -0.0013017577062657576 0.082824910718839101 0 -0.0047683887092420099 0.081430823739220975 0 -0.0022607690259509494 0.079801828011299994 0 -0.0039354797332916778 0.077227996146791558 0 -0.0047683887092420099 0.081430823739220975 0 -0.0072467105475781625 0.079421670619004459 0 -0.0039354797332916778 0.077227996146791558 0 -0.0072467105475781625 0.079421670619004459 0 -0.0096179520178837578 0.080142789572801951 0 -0.010988439079410762 0.077495847942524135 0 -0.0083125983905238225 0.082372502738044445 0 -0.0096179520178837578 0.080142789572801951 0 -0.007482418212873241 0.080842559119255156 0 -0.0047683887092420099 0.081430823739220975 0 -0.0072467105475781625 0.079421670619004459 0 -0.007482418212873241 0.080842559119255156 0 -0.0083125983905238225 0.082372502738044445 0 -0.0047683887092420099 0.081430823739220975 0 -0.007482418212873241 0.080842559119255156 0 -0.0072467105475781625 0.079421670619004459 0 -0.0096179520178837578 0.080142789572801951 0 -0.007482418212873241 0.080842559119255156 0 -0.00025460655223436392 0.083940448668665096 0 -0.0006578234748806348 0.083523988350817327 0 -0.00072378335686857341 0.08396471298021399 0 -0.00025460655223436392 0.083940448668665096 0 -0.0006578234748806348 0.083523988350817327 0 -0.00043257144940146177 0.083348392351807771 0 -0.00089915902273965777 0.083432120377754229 0 -0.00072378335686857341 0.08396471298021399 0 -0.0013071677373254146 0.083717530583649266 0 -0.00089915902273965777 0.083432120377754229 0 -0.0013017577062657576 0.082824910718839101 0 -0.00084274202493935066 0.083066594813093322 0 -0.0006578234748806348 0.083523988350817327 0 -0.00089915902273965777 0.083432120377754229 0 -0.00072378335686857341 0.08396471298021399 0 -0.0006578234748806348 0.083523988350817327 0 -0.00089915902273965777 0.083432120377754229 0 -0.00084274202493935066 0.083066594813093322 0 -0.0013095510657376327 0.084278839861376589 0 -0.00072378335686857341 0.08396471298021399 0 -0.0013071677373254146 0.083717530583649266 0 -0.00089915902273965777 0.083432120377754229 0 -0.0013071677373254146 0.083717530583649266 0 -0.0013017577062657576 0.082824910718839101 0 -0.0025441413182065091 0.081905066440603927 0 -0.0013071677373254146 0.083717530583649266 0 -0.0013017577062657576 0.082824910718839101 0 -0.0013017577062657576 0.082824910718839101 0 -0.00084274202493935066 0.083066594813093322 0 -0.00076303946326979999 0.082884263705540848 0 -0.0022607690259509494 0.079801828011299994 0 -0.0013017577062657576 0.082824910718839101 0 0.0018942548658855785 0.077716734761741776 0 -0.0022607690259509494 0.079801828011299994 0 0.0018942548658855785 0.077716734761741776 0 -0.0039354797332916778 0.077227996146791558 0 -0.0014260184948928234 0.079338772004953692 0 -0.00087869341110810855 0.077807868312940287 0 -0.00084274202493935066 0.083066594813093322 0 -0.00071122545541056419 0.082975547583773929 0 -0.00076303946326979999 0.082884263705540848 0 -0.00074227502195707811 0.078083934487481951 0 -0.00087869341110810855 0.077807868312940287 0 -5.2540275801706724e-05 0.083090387116005027 0 -0.00025460655223436392 0.083940448668665096 0 -0.00043257144940146177 0.083348392351807771 0 -5.2540275801706724e-05 0.083090387116005027 0 -0.00071122545541056419 0.082975547583773929 0 -0.00060390560070979946 0.082257214026618578 0 -0.00066125153212054475 0.083193973257656165 0 -0.00071122545541056419 0.082975547583773929 0 -0.00043257144940146177 0.083348392351807771 0 -0.0006578234748806348 0.083523988350817327 0 -0.00066125153212054475 0.083193973257656165 0 -0.00043257144940146177 0.083348392351807771 0 -0.0006578234748806348 0.083523988350817327 0 -0.00084274202493935066 0.083066594813093322 0 -0.00066125153212054475 0.083193973257656165 0 -0.00084274202493935066 0.083066594813093322 0 -0.00066125153212054475 0.083193973257656165 0 -0.00071122545541056419 0.082975547583773929 0 -5.2540275801706724e-05 0.083090387116005027 0 -0.00071122545541056419 0.082975547583773929 0 -0.00043257144940146177 0.083348392351807771 0 0.00047124231060886933 0.081709686406345808 0 -0.0010613677820299323 0.078138105776415112 0 0.00044226403940991006 0.084568153365847512 0 0.00040335281176116984 0.084688032637801489 0 0.00050720679880690935 0.084713517723145781 0 -0.00071122545541056419 0.082975547583773929 0 -0.00060390560070979946 0.082257214026618578 0 -0.00089319848210532647 0.082731370517718714 0 0.00040335281176116984 0.084688032637801489 0 0.00038513006200523642 0.084762266988419543 0 0.00050720679880690935 0.084713517723145781 0 -0.0010613677820299323 0.078138105776415112 0 -0.00087869341110810855 0.077807868312940287 0 -0.00087869341110810855 0.077807868312940287 0 -0.0016938213930730523 0.071507967325564664 0 -0.0016445152103355079 0.072542881189141067 0 -0.0017960792654593356 0.072799072104213464 0 -0.0021441451244919481 0.072304879403763248 0 0.0018942548658855785 0.077716734761741776 0 -0.0039354797332916778 0.077227996146791558 0 -0.0024718069799976638 0.071829688299352393 0 -0.0010613677820299323 0.078138105776415112 0 -0.0026969140585593838 0.073956570400632124 0 -0.0016445152103355079 0.072542881189141067 0 -0.0019856938272597912 0.072096250438148282 0 -0.0021441451244919481 0.072304879403763248 0 -0.0023194578051632924 0.071663245031318878 0 -0.00229488564064624 0.071700669356414823 0 -0.0023215401448139759 0.071704468626420825 0 0.00038513006200523642 0.084762266988419543 0 0.00050720679880690935 0.084713517723145781 0 0.00038340376982455267 0.084850762096173427 0 -0.0023194578051632924 0.071663245031318878 0 -0.0023215401448139759 0.071704468626420825 0 -0.0023531248811683235 0.071665354899347833 0 -0.0010613677820299323 0.078138105776415112 0 -0.00097845621790799151 0.078328087449090616 0 -0.0072467105475781625 0.079421670619004459 0 -0.0082977039059475306 0.073280861896463462 0 -0.0039354797332916778 0.077227996146791558 0 -0.0072467105475781625 0.079421670619004459 0 -0.0082977039059475306 0.073280861896463462 0 -0.010988439079410762 0.077495847942524135 0 -0.0082977039059475306 0.073280861896463462 0 -0.0039354797332916778 0.077227996146791558 0 -0.0024718069799976638 0.071829688299352393 0 -0.0016938213930730523 0.071507967325564664 0 -0.0023173222996950341 0.064684616547855747 0 -0.0082977039059475306 0.073280861896463462 0 -0.0024718069799976638 0.071829688299352393 0 -0.0067513284492703336 0.066009992216894978 0 -0.0019856938272597912 0.072096250438148282 0 -0.0021441451244919481 0.072304879403763248 0 -0.0024140345720702057 0.071873402238837508 0 -0.0082977039059475306 0.073280861896463462 0 -0.012568525682322964 0.067079313728707679 0 -0.0067513284492703336 0.066009992216894978 0 -0.0043641729436684146 0.053151582996886049 0 -0.0047819795712193951 0.04988195213444447 0 -0.0010261832651483993 0.02881531766693872 0 -0.000925956405617903 0.029006828753610093 0 -0.00095571561208890841 0.028783690065432389 0 -0.0082977039059475306 0.073280861896463462 0 -0.014040359485368862 0.073912591300556371 0 -0.012568525682322964 0.067079313728707679 0 -0.0010261832651483993 0.02881531766693872 0 -0.0010528892881944325 0.028903344636356222 0 -0.000925956405617903 0.029006828753610093 0 -0.0010261832651483993 0.02881531766693872 0 -0.0010528892881944325 0.028903344636356222 0 -0.0010981502182766075 0.028750818716941972 0 -0.0010528892881944325 0.028903344636356222 0 -0.001034567253829496 0.029055246006531803 0 -0.000925956405617903 0.029006828753610093 0 -0.001034567253829496 0.029055246006531803 0 -0.000925956405617903 0.029006828753610093 0 -0.00095317868202127035 0.029302534870345568 0 -0.0010528892881944325 0.028903344636356222 0 -0.001034567253829496 0.029055246006531803 0 -0.001091164227863174 0.028950695695615487 0 -0.0082977039059475306 0.073280861896463462 0 -0.014040359485368862 0.073912591300556371 0 -0.010988439079410762 0.077495847942524135 0 -0.014040359485368862 0.073912591300556371 0 -0.010988439079410762 0.077495847942524135 0 -0.015520080010620182 0.080688622797940673 0 -0.0043641729436684146 0.053151582996886049 0 -0.0027703877043606185 0.059593099511198552 0 -0.0030276282701790056 0.070345032351615794 0 -0.0027703877043606185 0.059593099511198552 0 -0.0096179520178837578 0.080142789572801951 0 -0.010988439079410762 0.077495847942524135 0 -0.015520080010620182 0.080688622797940673 0 -0.0083125983905238225 0.082372502738044445 0 -0.0096179520178837578 0.080142789572801951 0 -0.015520080010620182 0.080688622797940673 0 -0.0026231337847574432 0.083229114594052467 0 -0.0041866329987046876 0.082752272675124819 0 -0.0042210780465627481 0.082911351059245519 0 -0.001034567253829496 0.029055246006531803 0 -0.0010493071877509111 0.029180914511812404 0 -0.00095317868202127035 0.029302534870345568 0 -0.001034567253829496 0.029055246006531803 0 -0.0010493071877509111 0.029180914511812404 0 -0.0010941471117752054 0.029100264118340314 0 -0.0037896054543819194 0.05552708342748186 0 -0.0028272749356603429 0.059544058440716585 0 -0.0002292888232909124 0.029252572226564754 0 9.4165611759965077e-05 0.029452438907258998 0 -0.00022846758352249575 0.029629659726518435 0 -0.0034377283688798647 0.057227824394795346 0 -0.0024535871649352574 0.057433276798765392 0 -0.0024996939488662346 0.057641748878139804 0 -0.0037896054543819194 0.05552708342748186 0 -0.0027703877043606185 0.059593099511198552 0 -0.0027703877043606185 0.059593099511198552 0 -0.0028272749356603429 0.059544058440716585 0 -0.0028272749356603429 0.059544058440716585 0 -0.0003739993327697933 0.055040414014751293 0 9.4165611759965077e-05 0.029452438907258998 0 -0.00022846758352249575 0.029629659726518435 0 -3.276796035445551e-06 0.029915722993161892 0 0.0010353755194876658 0.082272565608169201 0 0.0016434263447914889 0.080094481873721576 0 -0.00031356358913541807 0.080613174499738718 0 -0.00031320403454304294 0.030001197926972548 0 -0.00022846758352249575 0.029629659726518435 0 -3.276796035445551e-06 0.029915722993161892 0 -0.0022054401534617818 0.08076005261749182 0 0.0010353755194876658 0.082272565608169201 0 -0.00031356358913541807 0.080613174499738718 0 -0.0026495900705782957 0.08366665707380011 0 -0.0026231337847574432 0.083229114594052467 0 -0.0042210780465627481 0.082911351059245519 0 0.00010379822828138704 0.073148671324230016 0 -0.0028272749356603429 0.059544058440716585 0 -0.00042800514435387767 0.079512723833385188 0 -0.0013482366018812315 0.080395065615143022 0 -0.00031356358913541807 0.080613174499738718 0 -0.00076381313063327667 0.029404437209148385 0 -0.0010854975693779215 0.029425512430007687 0 -0.00083416873200681523 0.029735689669844544 0 -0.0011743376345990327 0.029869276820761643 0 -0.0010854975693779215 0.029425512430007687 0 -0.00083416873200681523 0.029735689669844544 0 -0.00076381313063327667 0.029404437209148385 0 -0.00083416873200681523 0.029735689669844544 0 -0.00051458022903204154 0.029702737828874313 0 -0.00031320403454304294 0.030001197926972548 0 -0.00022846758352249575 0.029629659726518435 0 -0.00051458022903204154 0.029702737828874313 0 -0.0002292888232909124 0.029252572226564754 0 -0.00022846758352249575 0.029629659726518435 0 -0.00044001297692506064 0.029433550508842384 0 -0.00022846758352249575 0.029629659726518435 0 -0.00051458022903204154 0.029702737828874313 0 -0.00044001297692506064 0.029433550508842384 0 -0.00076381313063327667 0.029404437209148385 0 -0.00051458022903204154 0.029702737828874313 0 -0.00044001297692506064 0.029433550508842384 0 -0.00076381313063327667 0.029404437209148385 0 -0.00044001297692506064 0.029433550508842384 0 -0.00046798613576606429 0.029164526893582246 0 -0.0037896054543819194 0.05552708342748186 0 -0.0039195115306416622 0.051931110247165117 0 -0.0002292888232909124 0.029252572226564754 0 -0.00044001297692506064 0.029433550508842384 0 -0.00046798613576606429 0.029164526893582246 0 -0.0039195115306416622 0.051931110247165117 0 -0.0039937603562863492 0.048398349537237192 0 -0.00076381313063327667 0.029404437209148385 0 -0.00046798613576606429 0.029164526893582246 0 -0.0011051100498414145 0.028971739124531833 0 -0.00076381313063327667 0.029404437209148385 0 -0.0010854975693779215 0.029425512430007687 0 -0.0011051100498414145 0.028971739124531833 0 -0.0010941471117752054 0.029100264118340314 0 -0.0011051100498414145 0.028971739124531833 0 -0.0011288419102939823 0.028875108572213336 0 -0.0011051100498414145 0.028971739124531833 0 -0.0011288419102939823 0.028875108572213336 0 -0.0012076172717554459 0.028725286502691044 0 -0.0011288419102939823 0.028875108572213336 0 -0.0012076172717554459 0.028725286502691044 0 -0.0011336570382551919 0.028805585630929203 0 -0.0010528892881944325 0.028903344636356222 0 -0.001091164227863174 0.028950695695615487 0 -0.0011336570382551919 0.028805585630929203 0 -0.0010941471117752054 0.029100264118340314 0 -0.0011288419102939823 0.028875108572213336 0 -0.001091164227863174 0.028950695695615487 0 -0.001034567253829496 0.029055246006531803 0 -0.0010941471117752054 0.029100264118340314 0 -0.001091164227863174 0.028950695695615487 0 -0.0011288419102939823 0.028875108572213336 0 -0.001091164227863174 0.028950695695615487 0 -0.0011336570382551919 0.028805585630929203 0 -0.0010528892881944325 0.028903344636356222 0 -0.0011336570382551919 0.028805585630929203 0 -0.0010981502182766075 0.028750818716941972 0 -0.0011336570382551919 0.028805585630929203 0 -0.0010981502182766075 0.028750818716941972 0 -0.0012110914398559052 0.02862368970564793 0 -0.0013085405488076876 0.028500529345752902 0 -0.0012076172717554459 0.028725286502691044 0 -0.0012110914398559052 0.02862368970564793 0 -0.0012076172717554459 0.028725286502691044 0 -0.0011336570382551919 0.028805585630929203 0 -0.0012110914398559052 0.02862368970564793 0 -0.0013085405488076876 0.028500529345752902 0 -0.0012110914398559052 0.02862368970564793 0 -0.0013056155634283391 0.028499081120400043 0 -0.0012110914398559052 0.02862368970564793 0 -0.0012217241869370247 0.028540498793218582 0 -0.0013056155634283391 0.028499081120400043 0 -0.0012110914398559052 0.02862368970564793 0 -0.0011326995290232762 0.02864045300437347 0 -0.0012217241869370247 0.028540498793218582 0 -0.0010981502182766075 0.028750818716941972 0 -0.0012110914398559052 0.02862368970564793 0 -0.0011326995290232762 0.02864045300437347 0 -0.0010981502182766075 0.028750818716941972 0 -0.0011326995290232762 0.02864045300437347 0 -0.0010408849421481962 0.028729769154414189 0 -0.0011439745615632576 0.028583133716654593 0 -0.001214634001917906 0.028485139137741006 0 -0.0011113893689209786 0.028604189439625612 0 -0.0011326995290232762 0.02864045300437347 0 -0.0011439745615632576 0.028583133716654593 0 -0.0012217241869370247 0.028540498793218582 0 -0.0011439745615632576 0.028583133716654593 0 -0.0012217241869370247 0.028540498793218582 0 -0.001214634001917906 0.028485139137741006 0 -0.0012217241869370247 0.028540498793218582 0 -0.0013005652267413853 0.028487378545445759 0 -0.0013056155634283391 0.028499081120400043 0 -0.0012217241869370247 0.028540498793218582 0 -0.0013005652267413853 0.028487378545445759 0 -0.001214634001917906 0.028485139137741006 0 -0.0022478494870299169 0.029073029506059191 0 -0.0029393352934819097 0.028639327412572333 0 -0.0028552514206660116 0.029890734964459098 0 -0.0025718240526168236 0.036050314727334165 0 -0.0021554578028227089 0.034741311537106613 0 -0.0013005652267413853 0.028487378545445759 0 -0.001214634001917906 0.028485139137741006 0 -0.0013768939003257824 0.028461958673915776 0 -0.0022478494870299169 0.029073029506059191 0 -0.0029393352934819097 0.028639327412572333 0 -0.0016593766866358727 0.028595887467913805 0 -0.0029393352934819097 0.028639327412572333 0 -0.0016593766866358727 0.028595887467913805 0 -0.0013768939003257824 0.028461958673915776 0 -0.0022478494870299169 0.029073029506059191 0 -0.0028552514206660116 0.029890734964459098 0 -0.0013025140944426157 0.029047389604259087 0 -0.0019072501915023471 0.038441144806985385 0 -0.00076674355195499957 0.033458463648283504 0 -0.0025718240526168236 0.036050314727334165 0 -0.0035378385414416491 0.040515779279811447 0 -0.0029393352934819097 0.028639327412572333 0 -0.0040778616034286043 0.029216289563402078 0 -0.0045153954591337425 0.028691369516290643 0 -0.0029393352934819097 0.028639327412572333 0 -0.0040778616034286043 0.029216289563402078 0 -0.0038475512863304731 0.029738043509329896 0 -0.0029393352934819097 0.028639327412572333 0 -0.0038475512863304731 0.029738043509329896 0 -0.0028552514206660116 0.029890734964459098 0 -0.0019072501915023471 0.038441144806985385 0 -0.0049815691966752056 0.046125002072051849 0 -0.0017284988181981333 0.039620410783446768 0 -0.0021089861488676961 0.039813047507013963 0 -0.0017799878271059768 0.039873656211444272 0 -0.0038475512863304731 0.029738043509329896 0 -0.0028552514206660116 0.029890734964459098 0 -0.0043356610242922429 0.030660472934086941 0 -0.0017284988181981333 0.039620410783446768 0 -0.0013470607329026812 0.039428691943322797 0 -0.0014776162839277055 0.039716538884377102 0 -0.0017284988181981333 0.039620410783446768 0 -0.0016211813655678717 0.039821742202654713 0 -0.0017799878271059768 0.039873656211444272 0 -0.0017284988181981333 0.039620410783446768 0 -0.0016211813655678717 0.039821742202654713 0 -0.0014776162839277055 0.039716538884377102 0 -0.0016211813655678717 0.039821742202654713 0 -0.0014776162839277055 0.039716538884377102 0 -0.0014818745721660248 0.039872527810450982 0 -0.0084589780407606334 0.057042341413624423 0 -0.010322830252657705 0.057971360832872014 0 -0.0091295836052637559 0.058545088289413315 0 -0.0084589780407606334 0.057042341413624423 0 -0.0091295836052637559 0.058545088289413315 0 -0.0080086778679822491 0.05867617371054086 0 -0.0084589780407606334 0.057042341413624423 0 -0.010322830252657705 0.057971360832872014 0 -0.010354458464923543 0.056033182021387004 0 -0.010322830252657705 0.057971360832872014 0 -0.010354458464923543 0.056033182021387004 0 -0.011659871531101464 0.056987593783464685 0 -0.010322830252657705 0.057971360832872014 0 -0.010038824911103706 0.059411706033444492 0 -0.012287100117551896 0.059804400186713541 0 -0.010322830252657705 0.057971360832872014 0 -0.010038824911103706 0.059411706033444492 0 -0.0091295836052637559 0.058545088289413315 0 -0.010038824911103706 0.059411706033444492 0 -0.0091295836052637559 0.058545088289413315 0 -0.0088662571682071086 0.059801230135178803 0 -0.0091295836052637559 0.058545088289413315 0 -0.008117963185112511 0.059216629518257693 0 -0.0080086778679822491 0.05867617371054086 0 -0.0088662571682071086 0.059801230135178803 0 -0.008117963185112511 0.059216629518257693 0 -0.0078990744428289184 0.059935722376427719 0 -0.0091295836052637559 0.058545088289413315 0 -0.0088662571682071086 0.059801230135178803 0 -0.008117963185112511 0.059216629518257693 0 -0.0066563107363008618 0.04711947147670046 0 -0.0060834469967331424 0.048069510479641253 0 -0.0084589780407606334 0.057042341413624423 0 -0.0080086778679822491 0.05867617371054086 0 -0.0063232809226093549 0.059899794659691509 0 -0.008117963185112511 0.059216629518257693 0 -0.0080086778679822491 0.05867617371054086 0 -0.0063232809226093549 0.059899794659691509 0 -0.008117963185112511 0.059216629518257693 0 -0.0063232809226093549 0.059899794659691509 0 -0.0078990744428289184 0.059935722376427719 0 -0.0049815691966752056 0.046125002072051849 0 -0.0060078654732209436 0.043902293527579087 0 -0.0043356610242922429 0.030660472934086941 0 -0.0043440953825601911 0.030036397290552633 0 -0.0048192785418648661 0.030024354249110364 0 -0.0043083354221562318 0.030753015077588684 0 -0.0048192785418648661 0.030024354249110364 0 -0.004479549848620628 0.030829497576425023 0 -0.0049815691966752056 0.046125002072051849 0 -0.0060834469967331424 0.048069510479641253 0 -0.0038475512863304731 0.029738043509329896 0 -0.0043356610242922429 0.030660472934086941 0 -0.0043440953825601911 0.030036397290552633 0 -0.0043715803921374448 0.029721560477468704 0 -0.0048192785418648661 0.030024354249110364 0 -0.0046960655594847798 0.02942107385400233 0 -0.0043440953825601911 0.030036397290552633 0 -0.0043715803921374448 0.029721560477468704 0 -0.0048192785418648661 0.030024354249110364 0 -0.0038475512863304731 0.029738043509329896 0 -0.0043440953825601911 0.030036397290552633 0 -0.0043715803921374448 0.029721560477468704 0 -0.0052805354857492397 0.029676040602278051 0 -0.0048192785418648661 0.030024354249110364 0 -0.004479549848620628 0.030829497576425023 0 -0.0052805354857492397 0.029676040602278051 0 -0.0048192785418648661 0.030024354249110364 0 -0.0046960655594847798 0.02942107385400233 0 -0.0052805354857492397 0.029676040602278051 0 -0.0046960655594847798 0.02942107385400233 0 -0.0049922090592440013 0.029223947096116639 0 -0.0046960655594847798 0.02942107385400233 0 -0.0049922090592440013 0.029223947096116639 0 -0.0045153954591337425 0.028691369516290643 0 -0.0052805354857492397 0.029676040602278051 0 -0.0049922090592440013 0.029223947096116639 0 -0.0052784103759300656 0.02900979690069808 0 -0.0040778616034286043 0.029216289563402078 0 -0.0046960655594847798 0.02942107385400233 0 -0.0045153954591337425 0.028691369516290643 0 -0.0040778616034286043 0.029216289563402078 0 -0.0043715803921374448 0.029721560477468704 0 -0.0046960655594847798 0.02942107385400233 0 -0.0040778616034286043 0.029216289563402078 0 -0.0038475512863304731 0.029738043509329896 0 -0.0043715803921374448 0.029721560477468704 0 -0.0049922090592440013 0.029223947096116639 0 -0.0045153954591337425 0.028691369516290643 0 -0.0052784103759300656 0.02900979690069808 0 -0.0035378385414416491 0.040515779279811447 0 -0.0051378649749606554 0.049994524506876123 0 -0.0045153954591337425 0.028691369516290643 0 -0.0052784103759300656 0.02900979690069808 0 -0.0060265968991124654 0.028694496456739254 0 -0.0052805354857492397 0.029676040602278051 0 -0.0052784103759300656 0.02900979690069808 0 -0.0060265968991124654 0.028694496456739254 0 -0.0066563107363008618 0.04711947147670046 0 -0.0051378649749606554 0.049994524506876123 0 -0.010354458464923543 0.056033182021387004 0 -0.011026156273465376 0.054170065353179947 0 -0.011659871531101464 0.056987593783464685 0 -0.0084589780407606334 0.057042341413624423 0 -0.010354458464923543 0.056033182021387004 0 -0.010565519958674866 0.054190657161716581 0 -0.010354458464923543 0.056033182021387004 0 -0.010565519958674866 0.054190657161716581 0 -0.011026156273465376 0.054170065353179947 0 -0.0051378649749606554 0.049994524506876123 0 -0.0049085961265952112 0.051473954623412886 0 -0.0017262695323902689 0.05070502438987011 0 -0.0031297776460886139 0.050643468383247063 0 -0.0028131507065992547 0.049272313766979811 0 -0.0048969300734340356 0.051087568539196535 0 -0.0047819795712193951 0.04988195213444447 0 -0.0011365048303423474 0.02869440955341155 0 -0.0011408700784919532 0.028695281657989891 0 -0.0011087692040449807 0.02862794040340641 0 -0.0048969300734340356 0.051087568539196535 0 0.00034961435529009128 0.042054766581398138 0 -0.00099466856727325028 0.028774977957504656 0 -0.0010102051849633705 0.02872735055850479 0 -0.00095571561208890841 0.028783690065432389 0 -0.0049085961265952112 0.051473954623412886 0 -0.0048969300734340356 0.051087568539196535 0 -0.0051378649749606554 0.049994524506876123 0 -0.0048969300734340356 0.051087568539196535 0 0.0012720417138860232 0.03963133937099244 0 0.00034961435529009128 0.042054766581398138 0 -0.0011439745615632576 0.028583133716654593 0 -0.0011113893689209786 0.028604189439625612 0 -0.0011087692040449807 0.02862794040340641 0 -0.0011326995290232762 0.02864045300437347 0 -0.0011439745615632576 0.028583133716654593 0 -0.0011087692040449807 0.02862794040340641 0 -0.0011113893689209786 0.028604189439625612 0 -0.0011365048303423474 0.02869440955341155 0 -0.0011087692040449807 0.02862794040340641 0 -0.0011326995290232762 0.02864045300437347 0 -0.0010102051849633705 0.02872735055850479 0 -0.0010408849421481962 0.028729769154414189 0 -0.0010261832651483993 0.02881531766693872 0 -0.0010408849421481962 0.028729769154414189 0 -0.00095571561208890841 0.028783690065432389 0 -0.0010102051849633705 0.02872735055850479 0 -0.0010408849421481962 0.028729769154414189 0 -0.00095571561208890841 0.028783690065432389 0 -0.0010261832651483993 0.02881531766693872 0 -0.0010981502182766075 0.028750818716941972 0 -0.0010408849421481962 0.028729769154414189 0 -0.011055957573184885 0.060173338667289106 0 -0.012568525682322964 0.067079313728707679 0 -0.0067513284492703336 0.066009992216894978 0 -0.0026969140585593838 0.073956570400632124 0 -0.0029268867575925834 0.07308847900398284 0 -0.0019856938272597912 0.072096250438148282 0 -0.0024140345720702057 0.071873402238837508 0 -0.0022887713128709433 0.071747760458210741 0 -0.0024140345720702057 0.071873402238837508 0 -0.0022887713128709433 0.071747760458210741 0 -0.0023998813141501507 0.071689484829507155 0 -0.0022887713128709433 0.071747760458210741 0 -0.0022918747693548265 0.071727177229479563 0 -0.0022960341080565986 0.071740302076815352 0 -0.0022887713128709433 0.071747760458210741 0 -0.0022918747693548265 0.071727177229479563 0 -0.0023157665673464805 0.071698800116681366 0 -0.0022918747693548265 0.071727177229479563 0 -0.0023157665673464805 0.071698800116681366 0 -0.0022820037623722113 0.071723858847940691 0 -0.0023157665673464805 0.071698800116681366 0 -0.0023998813141501507 0.071689484829507155 0 -0.0023974869772172627 0.071639527987205437 0 -0.0022887713128709433 0.071747760458210741 0 -0.0023157665673464805 0.071698800116681366 0 -0.0023998813141501507 0.071689484829507155 0 -0.0025349675511080584 0.071613244992452182 0 -0.0024140345720702057 0.071873402238837508 0 -0.0023998813141501507 0.071689484829507155 0 -0.0048969300734340356 0.051087568539196535 0 -0.0023173222996950341 0.064684616547855747 0 -0.0023998813141501507 0.071689484829507155 0 -0.0024861100889664832 0.071602927720195705 0 -0.0023974869772172627 0.071639527987205437 0 -0.0025349675511080584 0.071613244992452182 0 -0.0023998813141501507 0.071689484829507155 0 -0.0024861100889664832 0.071602927720195705 0 -0.0048969300734340356 0.051087568539196535 0 -0.0047064572455956053 0.052844855290584955 0 -0.0023588108511136208 0.071759506986499175 0 -0.0023215401448139759 0.071704468626420825 0 -0.0023531248811683235 0.071665354899347833 0 -0.0023588108511136208 0.071759506986499175 0 -0.0023215401448139759 0.071704468626420825 0 -0.0023230339094496831 0.071752222860054504 0 -0.00229488564064624 0.071700669356414823 0 -0.0022887713128709433 0.071747760458210741 0 -0.0023003695025255221 0.071729337250563879 0 -0.0023215401448139759 0.071704468626420825 0 -0.0023003695025255221 0.071729337250563879 0 -0.0023230339094496831 0.071752222860054504 0 -0.00229488564064624 0.071700669356414823 0 -0.0023215401448139759 0.071704468626420825 0 -0.0023003695025255221 0.071729337250563879 0 -0.0022887713128709433 0.071747760458210741 0 -0.0023003695025255221 0.071729337250563879 0 -0.0022960341080565986 0.071740302076815352 0 -0.0022918747693548265 0.071727177229479563 0 -0.0023055071584127495 0.071750515883812566 0 -0.0022820037623722113 0.071723858847940691 0 -0.0022918747693548265 0.071727177229479563 0 -0.0022960341080565986 0.071740302076815352 0 -0.0023055071584127495 0.071750515883812566 0 -0.0023055071584127495 0.071750515883812566 0 -0.0023431357442854983 0.071774864025156829 0 -0.0023365191680931739 0.071783083303885595 0 -0.0023055071584127495 0.071750515883812566 0 -0.0023230339094496831 0.071752222860054504 0 -0.0023431357442854983 0.071774864025156829 0 -0.0022960341080565986 0.071740302076815352 0 -0.0023055071584127495 0.071750515883812566 0 -0.0023230339094496831 0.071752222860054504 0 -0.0023003695025255221 0.071729337250563879 0 -0.0022960341080565986 0.071740302076815352 0 -0.0023230339094496831 0.071752222860054504 0 -0.0023230339094496831 0.071752222860054504 0 -0.0023431357442854983 0.071774864025156829 0 -0.002372228458447674 0.071788071292330155 0 -0.0023431357442854983 0.071774864025156829 0 -0.002372228458447674 0.071788071292330155 0 -0.0023785682495160465 0.071804375476482635 0 -0.002372228458447674 0.071788071292330155 0 -0.0023785682495160465 0.071804375476482635 0 -0.0024181549343090906 0.071811805888084029 0 -0.0023588108511136208 0.071759506986499175 0 -0.002372228458447674 0.071788071292330155 0 -0.0023965282586979157 0.071798940558623028 0 -0.0023588108511136208 0.071759506986499175 0 -0.0023230339094496831 0.071752222860054504 0 -0.002372228458447674 0.071788071292330155 0 -0.0023785682495160465 0.071804375476482635 0 -0.0023555590337277599 0.071822184154456736 0 -0.0023938881451964723 0.071840390893855896 0 -0.0023431357442854983 0.071774864025156829 0 -0.0023785682495160465 0.071804375476482635 0 -0.0023365191680931739 0.071783083303885595 0 -0.0023365191680931739 0.071783083303885595 0 -0.0023555590337277599 0.071822184154456736 0 -0.002312841998125563 0.071774736897897887 0 -0.0023785682495160465 0.071804375476482635 0 -0.0023365191680931739 0.071783083303885595 0 -0.0023555590337277599 0.071822184154456736 0 -0.0033036945950793862 0.066814817523143985 0 -0.0031559620096641545 0.062977622958426405 0 -0.002312841998125563 0.071774736897897887 0 -0.0023240870014968633 0.071840051907597541 0 -0.0022459972047323769 0.071761757126760375 0 -0.0023555590337277599 0.071822184154456736 0 -0.002312841998125563 0.071774736897897887 0 -0.0023240870014968633 0.071840051907597541 0 -0.0023055071584127495 0.071750515883812566 0 -0.0023365191680931739 0.071783083303885595 0 -0.002312841998125563 0.071774736897897887 0 -0.002312841998125563 0.071774736897897887 0 -0.0022820037623722113 0.071723858847940691 0 -0.0022459972047323769 0.071761757126760375 0 -0.0023055071584127495 0.071750515883812566 0 -0.002312841998125563 0.071774736897897887 0 -0.0022820037623722113 0.071723858847940691 0 -0.00082762355288694899 0.071447437274513984 0 -0.0012377989085145637 0.071375044784565064 0 -0.00060161076547883433 0.071073541911310267 0 -0.00082762355288694899 0.071447437274513984 0 -0.0010606984371058907 0.07177637461112249 0 -0.00056041938991038083 0.071740325713419525 0 -0.00082762355288694899 0.071447437274513984 0 -0.0010606984371058907 0.07177637461112249 0 -0.0012377989085145637 0.071375044784565064 0 -0.0023555590337277599 0.071822184154456736 0 -0.0023938881451964723 0.071840390893855896 0 -0.002384863431727946 0.071912003843993988 0 -0.0010606984371058907 0.07177637461112249 0 -0.0012377989085145637 0.071375044784565064 0 -0.0018745767887388158 0.071683898702606108 0 -0.0033036945950793862 0.066814817523143985 0 -0.003262389408297399 0.068640035909929259 0 -0.0023555590337277599 0.071822184154456736 0 -0.0023240870014968633 0.071840051907597541 0 -0.002384863431727946 0.071912003843993988 0 -0.0047064572455956053 0.052844855290584955 0 -0.0031559620096641545 0.062977622958426405 0 -0.0053434521099793549 0.059176899851967113 0 -0.0058088803652224094 0.059402003031890825 0 -0.005324036222501537 0.059500761843069044 0 -0.0024507102287524246 0.071606410905335788 0 -0.0023974869772172627 0.071639527987205437 0 -0.0023109919764050055 0.071640210106933069 0 -0.0049085961265952112 0.051473954623412886 0 -0.0048331091498114466 0.058108219757703646 0 -0.0052544916229843829 0.059178351661245583 0 -0.0053434521099793549 0.059176899851967113 0 -0.005324036222501537 0.059500761843069044 0 -0.0049085961265952112 0.051473954623412886 0 -0.0047064572455956053 0.052844855290584955 0 -0.0052515834430367937 0.052699804784613481 0 -0.0053776679492603821 0.053246547516916119 0 -0.0042736190282621758 0.052744101459790395 0 -0.0047064572455956053 0.052844855290584955 0 -0.0043691695470473154 0.053438675247369741 0 -0.0023157665673464805 0.071698800116681366 0 -0.0023974869772172627 0.071639527987205437 0 -0.0023109919764050055 0.071640210106933069 0 -0.0023157665673464805 0.071698800116681366 0 -0.0022820037623722113 0.071723858847940691 0 -0.0023109919764050055 0.071640210106933069 0 -0.0026556425395592139 0.063754523648857933 0 -0.0031559620096641545 0.062977622958426405 0 -0.00082762355288694899 0.071447437274513984 0 -0.00060161076547883433 0.071073541911310267 0 -0.00056041938991038083 0.071740325713419525 0 -0.0031559620096641545 0.062977622958426405 0 -0.0039339534927577248 0.064129521401576642 0 -0.00060161076547883433 0.071073541911310267 0 -0.00056041938991038083 0.071740325713419525 0 8.3705637285229619e-05 0.071752112712974034 0 -0.0058088803652224094 0.059402003031890825 0 -0.005324036222501537 0.059500761843069044 0 -0.0053931437345524228 0.059820056595899465 0 -0.0048331091498114466 0.058108219757703646 0 -0.0039339534927577248 0.064129521401576642 0 -0.010322830252657705 0.057971360832872014 0 -0.011659871531101464 0.056987593783464685 0 -0.012287100117551896 0.059804400186713541 0 8.3705637285229619e-05 0.071752112712974034 0 -0.00030658930165624817 0.07206576823604445 0 -6.3699697541190608e-05 0.072449216783764897 0 8.4100561268871791e-05 0.071688535493432667 0 0.00027533132347520427 0.072310477522903982 0 -6.3699697541190608e-05 0.072449216783764897 0 -0.0039339534927577248 0.064129521401576642 0 -0.0038152825422869655 0.067523387217134981 0 -0.00056041938991038083 0.071740325713419525 0 8.3705637285229619e-05 0.071752112712974034 0 -0.00030658930165624817 0.07206576823604445 0 -0.00068791666755313669 0.072321588733540096 0 -0.00030658930165624817 0.07206576823604445 0 -6.3699697541190608e-05 0.072449216783764897 0 -0.0010606984371058907 0.07177637461112249 0 -0.00056041938991038083 0.071740325713419525 0 -0.00068791666755313669 0.072321588733540096 0 -0.00056041938991038083 0.071740325713419525 0 -0.00068791666755313669 0.072321588733540096 0 -0.00030658930165624817 0.07206576823604445 0 -0.00068791666755313669 0.072321588733540096 0 -0.00077899132340254165 0.072933218670598696 0 -0.00023149420578174107 0.072885417740433611 0 -0.00068791666755313669 0.072321588733540096 0 -6.3699697541190608e-05 0.072449216783764897 0 -0.00023149420578174107 0.072885417740433611 0 -6.3699697541190608e-05 0.072449216783764897 0 -0.00023149420578174107 0.072885417740433611 0 0.00032735718378372247 0.072722658527320336 0 0.00027533132347520427 0.072310477522903982 0 -6.3699697541190608e-05 0.072449216783764897 0 0.00032735718378372247 0.072722658527320336 0 -0.0010606984371058907 0.07177637461112249 0 -0.0012700930050648146 0.072173082410038836 0 -0.0018745767887388158 0.071683898702606108 0 -0.0012700930050648146 0.072173082410038836 0 -0.0016395068274685514 0.072398653272747554 0 -0.0018745767887388158 0.071683898702606108 0 -0.0016395068274685514 0.072398653272747554 0 -0.0018745767887388158 0.071683898702606108 0 -0.0020243561077824572 0.072289384228726286 0 -0.0010606984371058907 0.07177637461112249 0 -0.00068791666755313669 0.072321588733540096 0 -0.0012700930050648146 0.072173082410038836 0 -0.00068791666755313669 0.072321588733540096 0 -0.0012700930050648146 0.072173082410038836 0 -0.0011747883005876949 0.07265888430440437 0 -0.00068791666755313669 0.072321588733540096 0 -0.0011747883005876949 0.07265888430440437 0 -0.00077899132340254165 0.072933218670598696 0 -0.0012700930050648146 0.072173082410038836 0 -0.0011747883005876949 0.07265888430440437 0 -0.0016395068274685514 0.072398653272747554 0 -0.0011747883005876949 0.07265888430440437 0 -0.0016216783046946761 0.072865715175338464 0 -0.0016395068274685514 0.072398653272747554 0 -0.0016216783046946761 0.072865715175338464 0 -0.0016395068274685514 0.072398653272747554 0 -0.001933814212645219 0.072656424293855645 0 -0.0016136929656691424 0.073272170186942806 0 -0.0012144282063431368 0.073360278235063039 0 -0.0017849251271299432 0.073630317699618919 0 -0.0011747883005876949 0.07265888430440437 0 -0.0016216783046946761 0.072865715175338464 0 -0.0012144282063431368 0.073360278235063039 0 -0.0016136929656691424 0.073272170186942806 0 -0.0017849251271299432 0.073630317699618919 0 -0.0020538066190140879 0.07312592628913786 0 -0.0016216783046946761 0.072865715175338464 0 -0.0016136929656691424 0.073272170186942806 0 -0.0020538066190140879 0.07312592628913786 0 -0.0016216783046946761 0.072865715175338464 0 -0.0016136929656691424 0.073272170186942806 0 -0.0012144282063431368 0.073360278235063039 0 -0.00077899132340254165 0.072933218670598696 0 -0.0012144282063431368 0.073360278235063039 0 -0.00056584684441856551 0.073359038141785751 0 -0.0011747883005876949 0.07265888430440437 0 -0.00077899132340254165 0.072933218670598696 0 -0.0012144282063431368 0.073360278235063039 0 -0.00089873542920045361 0.073642091812209348 0 -0.0014400471391294958 0.073884419880519719 0 -0.001031342606317453 0.074015048408258802 0 -0.0012144282063431368 0.073360278235063039 0 -0.00089873542920045361 0.073642091812209348 0 -0.00056584684441856551 0.073359038141785751 0 -0.0012144282063431368 0.073360278235063039 0 -0.00089873542920045361 0.073642091812209348 0 -0.0014400471391294958 0.073884419880519719 0 -0.00089873542920045361 0.073642091812209348 0 -0.00053358573539078998 0.073775748636520991 0 -0.001031342606317453 0.074015048408258802 0 -0.0012144282063431368 0.073360278235063039 0 -0.0014400471391294958 0.073884419880519719 0 -0.0017849251271299432 0.073630317699618919 0 -0.0014400471391294958 0.073884419880519719 0 -0.0017849251271299432 0.073630317699618919 0 -0.002159904203591201 0.073956522006110914 0 0.00024436818263481142 0.073139007355612878 0 -0.00023149420578174107 0.072885417740433611 0 0.00032735718378372247 0.072722658527320336 0 -6.8788174061419743e-05 0.073282258644241718 0 0.00024436818263481142 0.073139007355612878 0 0.00028704788282037238 0.073484408062314863 0 -6.8788174061419743e-05 0.073282258644241718 0 0.00024436818263481142 0.073139007355612878 0 -0.00023149420578174107 0.072885417740433611 0 -0.00077899132340254165 0.072933218670598696 0 -0.00023149420578174107 0.072885417740433611 0 -0.00056584684441856551 0.073359038141785751 0 -6.8788174061419743e-05 0.073282258644241718 0 -0.00023149420578174107 0.072885417740433611 0 -0.00056584684441856551 0.073359038141785751 0 -6.8788174061419743e-05 0.073282258644241718 0 -0.00056584684441856551 0.073359038141785751 0 -0.00012151808364768867 0.073709847528472552 0 -0.00056584684441856551 0.073359038141785751 0 -0.00053358573539078998 0.073775748636520991 0 -0.00012151808364768867 0.073709847528472552 0 -0.00089873542920045361 0.073642091812209348 0 -0.00056584684441856551 0.073359038141785751 0 -0.00053358573539078998 0.073775748636520991 0 -0.00053358573539078998 0.073775748636520991 0 -0.00012151808364768867 0.073709847528472552 0 -0.00032434460416095825 0.074035095198204851 0 -6.8788174061419743e-05 0.073282258644241718 0 -0.00012151808364768867 0.073709847528472552 0 0.00028704788282037238 0.073484408062314863 0 -0.00012151808364768867 0.073709847528472552 0 0.00032510802301272324 0.073904756661689219 0 -3.6960330103724166e-05 0.074145968207409832 0 -0.00012151808364768867 0.073709847528472552 0 0.00028704788282037238 0.073484408062314863 0 0.00032510802301272324 0.073904756661689219 0 0.00032510802301272324 0.073904756661689219 0 0.00074788330926306684 0.073680649858809177 0 0.00074184809988359828 0.074141696638183208 0 0.00074788330926306684 0.073680649858809177 0 0.0010668622380078545 0.074003297346852903 0 0.00074184809988359828 0.074141696638183208 0 0.00028704788282037238 0.073484408062314863 0 0.00032510802301272324 0.073904756661689219 0 0.00074788330926306684 0.073680649858809177 0 0.00028704788282037238 0.073484408062314863 0 0.00074788330926306684 0.073680649858809177 0 0.00059657136181164483 0.073187019597903274 0 0.00024436818263481142 0.073139007355612878 0 0.00028704788282037238 0.073484408062314863 0 0.00059657136181164483 0.073187019597903274 0 0.00059657136181164483 0.073187019597903274 0 0.00080482707470719869 0.072934726594187635 0 0.00095302603683308383 0.073332162657241629 0 0.00074788330926306684 0.073680649858809177 0 0.00059657136181164483 0.073187019597903274 0 0.00095302603683308383 0.073332162657241629 0 0.00059657136181164483 0.073187019597903274 0 0.00080482707470719869 0.072934726594187635 0 0.00032735718378372247 0.072722658527320336 0 0.00024436818263481142 0.073139007355612878 0 0.00059657136181164483 0.073187019597903274 0 0.00032735718378372247 0.072722658527320336 0 0.00080482707470719869 0.072934726594187635 0 0.0013946612790440222 0.073030020328440345 0 0.00095302603683308383 0.073332162657241629 0 0.0013946612790440222 0.073030020328440345 0 0.00095302603683308383 0.073332162657241629 0 0.0012591278501247537 0.073581984602727343 0 0.00074788330926306684 0.073680649858809177 0 0.00095302603683308383 0.073332162657241629 0 0.0012591278501247537 0.073581984602727343 0 0.00074788330926306684 0.073680649858809177 0 0.0012591278501247537 0.073581984602727343 0 0.0010668622380078545 0.074003297346852903 0 0.0012591278501247537 0.073581984602727343 0 0.0014130026229475785 0.074050752912156209 0 0.0010668622380078545 0.074003297346852903 0 0.0013946612790440222 0.073030020328440345 0 0.0012591278501247537 0.073581984602727343 0 0.001739075957583 0.073788490189855546 0 0.0013294929227545015 0.073365964546249246 0 0.0016742396944914679 0.074021029487427878 0 0.0018189051617653149 0.073864260713447927 0 0.0012591278501247537 0.073581984602727343 0 0.001739075957583 0.073788490189855546 0 0.0014130026229475785 0.074050752912156209 0 0.0016742396944914679 0.074021029487427878 0 0.0018189051617653149 0.073864260713447927 0 0.0021910196971192367 0.074296746124708046 0 -0.002758076196166347 0.069464487655174406 0 -0.00071075434179712215 0.070239894741517164 0 -5.2995688869706107e-05 0.072172299491796002 0 -0.00041349271495269552 0.071176280199164776 0 0.00084486433078728533 0.07262020568442365 0 -0.002758076196166347 0.069464487655174406 0 -0.00071075434179712215 0.070239894741517164 0 -0.0015487659434872743 0.068316921501544711 0 -0.00071075434179712215 0.070239894741517164 0 8.1507085643609152e-05 0.068317373196349507 0 -0.0015487659434872743 0.068316921501544711 0 -0.001217546329054179 0.05459461315869174 0 -0.0024595786753252593 0.051415145761510336 0 8.1507085643609152e-05 0.068317373196349507 0 -0.0021559041361007901 0.066719757296699614 0 -0.0029175056359718242 0.063994843686194583 0 -0.0015038679627639724 0.040630907037801409 0 -0.0017973892044164798 0.040215855349798685 0 -0.0015152445414174747 0.040312445402144112 0 8.1507085643609152e-05 0.068317373196349507 0 -0.0015487659434872743 0.068316921501544711 0 -0.0021559041361007901 0.066719757296699614 0 -0.002758076196166347 0.069464487655174406 0 -0.0015487659434872743 0.068316921501544711 0 -0.0021559041361007901 0.066719757296699614 0 -0.0055954890404794214 0.06657456338162486 0 -0.002758076196166347 0.069464487655174406 0 -0.0021559041361007901 0.066719757296699614 0 -0.0055954890404794214 0.06657456338162486 0 -0.0021559041361007901 0.066719757296699614 0 -0.0033559952943830792 0.065489370056614746 0 -0.0019617088651146695 0.069226720425930213 0 0.00039325335920161033 0.072922996100125342 0 -0.0019617088651146695 0.069226720425930213 0 -0.00041349271495269552 0.071176280199164776 0 -0.0055954890404794214 0.06657456338162486 0 -0.0042748849739029622 0.064661944009838601 0 -0.0057742253574510861 0.063935243499454494 0 -0.0055954890404794214 0.06657456338162486 0 -0.0042748849739029622 0.064661944009838601 0 -0.0033559952943830792 0.065489370056614746 0 -0.0042748849739029622 0.064661944009838601 0 -0.0033559952943830792 0.065489370056614746 0 -0.0029175056359718242 0.063994843686194583 0 -0.0021559041361007901 0.066719757296699614 0 -0.0033559952943830792 0.065489370056614746 0 -0.0029175056359718242 0.063994843686194583 0 -0.0042748849739029622 0.064661944009838601 0 -0.0029175056359718242 0.063994843686194583 0 -0.0040617074628695711 0.063286395699257911 0 -0.0042748849739029622 0.064661944009838601 0 -0.0040617074628695711 0.063286395699257911 0 -0.0057742253574510861 0.063935243499454494 0 -0.0040617074628695711 0.063286395699257911 0 -0.0054780209277750357 0.062982964854773532 0 -0.0057742253574510861 0.063935243499454494 0 -0.0017973892044164798 0.040215855349798685 0 -0.0015152445414174747 0.040312445402144112 0 -0.0016473494874028763 0.040135853408285328 0 -0.0017973892044164798 0.040215855349798685 0 -0.0016473494874028763 0.040135853408285328 0 -0.0017874399031221845 0.04002418593848818 0 -0.0015152445414174747 0.040312445402144112 0 -0.0016473494874028763 0.040135853408285328 0 -0.0015052401752728083 0.040132110426373456 0 -0.0016172313780025537 0.040009663602695686 0 -0.0014119031121000171 0.040011440104727819 0 -0.0014818745721660248 0.039872527810450982 0 -0.0015052401752728083 0.040132110426373456 0 -0.0016172313780025537 0.040009663602695686 0 -0.0014119031121000171 0.040011440104727819 0 -0.0016473494874028763 0.040135853408285328 0 -0.0015052401752728083 0.040132110426373456 0 -0.0016172313780025537 0.040009663602695686 0 -0.0016473494874028763 0.040135853408285328 0 -0.0016172313780025537 0.040009663602695686 0 -0.0017874399031221845 0.04002418593848818 0 -0.0016172313780025537 0.040009663602695686 0 -0.0017874399031221845 0.04002418593848818 0 -0.0017799878271059768 0.039873656211444272 0 -0.0016172313780025537 0.040009663602695686 0 -0.0016211813655678717 0.039821742202654713 0 -0.0017799878271059768 0.039873656211444272 0 -0.0016172313780025537 0.040009663602695686 0 -0.0016211813655678717 0.039821742202654713 0 -0.0014818745721660248 0.039872527810450982 0 -0.0021089861488676961 0.039813047507013963 0 -0.0017874399031221845 0.04002418593848818 0 -0.0017799878271059768 0.039873656211444272 0 -0.0049815691966752056 0.046125002072051849 0 -0.0024595786753252593 0.051415145761510336 0 -0.0021089861488676961 0.039813047507013963 0 -0.0017973892044164798 0.040215855349798685 0 -0.0017874399031221845 0.04002418593848818 0 -0.0040617074628695711 0.063286395699257911 0 -0.0064730155482168039 0.060015952423239503 0 -0.0058186971303688757 0.062070158949997151 0 -0.0062880599041107606 0.059307932458361828 0 -0.0029175056359718242 0.063994843686194583 0 -0.0040617074628695711 0.063286395699257911 0 -0.0033422766330121964 0.054020662874716074 0 -0.0060834469967331424 0.048069510479641253 0 -0.0040617074628695711 0.063286395699257911 0 -0.0054780209277750357 0.062982964854773532 0 -0.0058186971303688757 0.062070158949997151 0 -0.0064730155482168039 0.060015952423239503 0 -0.0067237136887286063 0.061226877291743073 0 -0.0058186971303688757 0.062070158949997151 0 -0.0062880599041107606 0.059307932458361828 0 -0.0040617074628695711 0.063286395699257911 0 -0.0067455426511184814 0.059517360486719108 0 -0.0064730155482168039 0.060015952423239503 0 -0.0067237136887286063 0.061226877291743073 0 -0.0072227714443014873 0.060801380630273537 0 -0.0062573846731415507 0.062643859928317627 0 -0.0078953953124093826 0.061581762461179225 0 -0.0057742253574510861 0.063935243499454494 0 -0.0067237136887286063 0.061226877291743073 0 -0.0058186971303688757 0.062070158949997151 0 -0.0067416314996395221 0.061942275209711566 0 -0.0058186971303688757 0.062070158949997151 0 -0.0067416314996395221 0.061942275209711566 0 -0.0062573846731415507 0.062643859928317627 0 -0.0054780209277750357 0.062982964854773532 0 -0.0058186971303688757 0.062070158949997151 0 -0.0062573846731415507 0.062643859928317627 0 -0.0067416314996395221 0.061942275209711566 0 -0.0062573846731415507 0.062643859928317627 0 -0.0078953953124093826 0.061581762461179225 0 -0.0067416314996395221 0.061942275209711566 0 -0.0071764879124741592 0.061510666832476302 0 -0.0078953953124093826 0.061581762461179225 0 -0.0067237136887286063 0.061226877291743073 0 -0.0067416314996395221 0.061942275209711566 0 -0.0071764879124741592 0.061510666832476302 0 -0.0071764879124741592 0.061510666832476302 0 -0.0078953953124093826 0.061581762461179225 0 -0.007412315839519421 0.061136064953697646 0 -0.0063232809226093549 0.059899794659691509 0 -0.0078990744428289184 0.059935722376427719 0 -0.0082847779145934948 0.060824856896012705 0 -0.0064730155482168039 0.060015952423239503 0 -0.0072227714443014873 0.060801380630273537 0 -0.0082847779145934948 0.060824856896012705 0 -0.007412315839519421 0.061136064953697646 0 -0.0072227714443014873 0.060801380630273537 0 -0.0082847779145934948 0.060824856896012705 0 -0.0078953953124093826 0.061581762461179225 0 -0.007412315839519421 0.061136064953697646 0 -0.0082847779145934948 0.060824856896012705 0 -0.0060834469967331424 0.048069510479641253 0 -0.0069451050422852561 0.049041728186587336 0 -0.0067237136887286063 0.061226877291743073 0 -0.007412315839519421 0.061136064953697646 0 -0.0072227714443014873 0.060801380630273537 0 -0.0067237136887286063 0.061226877291743073 0 -0.0071764879124741592 0.061510666832476302 0 -0.007412315839519421 0.061136064953697646 0 -0.012287100117551896 0.059804400186713541 0 -0.0097006650155681828 0.06091904403657393 0 -0.0088490492298949515 0.063280884365448181 0 -0.0088662571682071086 0.059801230135178803 0 -0.0078990744428289184 0.059935722376427719 0 -0.0082847779145934948 0.060824856896012705 0 -0.010038824911103706 0.059411706033444492 0 -0.0088662571682071086 0.059801230135178803 0 -0.0097006650155681828 0.06091904403657393 0 8.4100561268871791e-05 0.071688535493432667 0 0.00027533132347520427 0.072310477522903982 0 0.00075267689908140273 0.072371598269810183 0 -0.0088662571682071086 0.059801230135178803 0 -0.0097006650155681828 0.06091904403657393 0 -0.0082847779145934948 0.060824856896012705 0 -0.0039339534927577248 0.064129521401576642 0 -0.0031826438588503374 0.066949764533783665 0 -0.0078953953124093826 0.061581762461179225 0 -0.0082847779145934948 0.060824856896012705 0 -0.0086801738298401213 0.061647992995351175 0 -0.0097006650155681828 0.06091904403657393 0 -0.0082847779145934948 0.060824856896012705 0 -0.0086801738298401213 0.061647992995351175 0 -0.010038824911103706 0.059411706033444492 0 -0.012287100117551896 0.059804400186713541 0 -0.0097006650155681828 0.06091904403657393 0 -0.0097006650155681828 0.06091904403657393 0 -0.0086801738298401213 0.061647992995351175 0 -0.0088490492298949515 0.063280884365448181 0 -0.0078953953124093826 0.061581762461179225 0 -0.0086801738298401213 0.061647992995351175 0 -0.0088490492298949515 0.063280884365448181 0 0.00027533132347520427 0.072310477522903982 0 0.00075267689908140273 0.072371598269810183 0 0.00032735718378372247 0.072722658527320336 0 0.00080482707470719869 0.072934726594187635 0 0.00075267689908140273 0.072371598269810183 0 0.00032735718378372247 0.072722658527320336 0 -0.0052395195806287428 0.066839644555913305 0 -0.0078953953124093826 0.061581762461179225 0 -0.0088490492298949515 0.063280884365448181 0 -0.0019617088651146695 0.069226720425930213 0 -0.0031826438588503374 0.066949764533783665 0 0.00080482707470719869 0.072934726594187635 0 0.0013946612790440222 0.073030020328440345 0 0.00075267689908140273 0.072371598269810183 0 -0.0019617088651146695 0.069226720425930213 0 -0.0049264860512165179 0.064509121872216746 0 -0.0055954890404794214 0.06657456338162486 0 -0.0078953953124093826 0.061581762461179225 0 -0.0057742253574510861 0.063935243499454494 0 -0.0054780209277750357 0.062982964854773532 0 -0.0062573846731415507 0.062643859928317627 0 -0.0057742253574510861 0.063935243499454494 0 1.5879994452685318e-09 0.084999998756914621 0 9.5993843743676142e-07 0.084994336185720346 0 -1.456910988279079e-09 0.084999987037173722 0 1.6869350763393867e-07 0.084994092219523421 0 9.5993843743676142e-07 0.084994336185720346 0 -1.456910988279079e-09 0.084999987037173722 0 1.6869350763393867e-07 0.084994092219523421 0 -1.4923263775793152e-06 0.084988199802744066 0 -5.9407897240104189e-06 0.084981231024319301 0 1.6869350763393867e-07 0.084994092219523421 0 -1.4923263775793152e-06 0.084988199802744066 0 9.5993843743676142e-07 0.084994336185720346 0 1.1679198583771849e-06 0.084990144494474451 0 9.5993843743676142e-07 0.084994336185720346 0 4.0628048154737376e-06 0.08499524923466753 0 -1.4923263775793152e-06 0.084988199802744066 0 1.1679198583771849e-06 0.084990144494474451 0 9.5993843743676142e-07 0.084994336185720346 0 1.5879994452685318e-09 0.084999998756914621 0 9.5993843743676142e-07 0.084994336185720346 0 4.0628048154737376e-06 0.08499524923466753 0 1.5879994452685318e-09 0.084999998756914621 0 4.4485794713086146e-06 0.084989348298942086 0 1.0791685861320727e-09 0.084999969866585118 0 1.5879994452685318e-09 0.084999998756914621 0 4.4485794713086146e-06 0.084989348298942086 0 4.0628048154737376e-06 0.08499524923466753 0 7.872458483677976e-06 0.084973017081120442 0 4.4485794713086146e-06 0.084989348298942086 0 1.0791685861320727e-09 0.084999969866585118 0 7.872458483677976e-06 0.084973017081120442 0 4.4485794713086146e-06 0.084989348298942086 0 1.8530946281728415e-05 0.084972651862566487 0 1.8530946281728415e-05 0.084972651862566487 0 4.0628048154737376e-06 0.08499524923466753 0 4.1674009873986687e-05 0.084987701935427082 0 1.1679198583771849e-06 0.084990144494474451 0 4.0628048154737376e-06 0.08499524923466753 0 -5.4646624645025438e-07 0.084985786265093538 0 4.4485794713086146e-06 0.084989348298942086 0 1.8530946281728415e-05 0.084972651862566487 0 4.0628048154737376e-06 0.08499524923466753 0 8.2452517099055364e-06 0.084904447118756499 0 1.4343725740096347e-05 0.084882089667385321 0 1.1679198583771849e-06 0.084990144494474451 0 -5.4646624645025438e-07 0.084985786265093538 0 -3.4005740083899679e-06 0.08497919523469892 0 3.2692813374744637e-05 0.08493094001258486 0 1.8530946281728415e-05 0.084972651862566487 0 3.9869470893000727e-05 0.084956290397834131 0 4.1674009873986687e-05 0.084987701935427082 0 3.9869470893000727e-05 0.084956290397834131 0 6.4768916120805411e-05 0.084932504497052808 0 3.2692813374744637e-05 0.08493094001258486 0 3.9869470893000727e-05 0.084956290397834131 0 6.4768916120805411e-05 0.084932504497052808 0 1.8530946281728415e-05 0.084972651862566487 0 4.1674009873986687e-05 0.084987701935427082 0 3.9869470893000727e-05 0.084956290397834131 0 6.4768916120805411e-05 0.084932504497052808 0 0.00010456832569658315 0.084969416687648291 0 0.00011796953876239128 0.084918996464262264 0 0.0001163876200422611 0.084872313524040052 0 6.4768916120805411e-05 0.084932504497052808 0 0.00011796953876239128 0.084918996464262264 0 1.4343725740096347e-05 0.084882089667385321 0 2.2593201646195057e-05 0.084807800619195059 0 -3.4005740083899679e-06 0.08497919523469892 0 -9.707191601136509e-06 0.084972175888322815 0 -7.2412935640262652e-06 0.084980319468624999 0 -5.4646624645025438e-07 0.084985786265093538 0 -3.4005740083899679e-06 0.08497919523469892 0 -7.2412935640262652e-06 0.084980319468624999 0 4.1674009873986687e-05 0.084987701935427082 0 6.4768916120805411e-05 0.084932504497052808 0 0.00010456832569658315 0.084969416687648291 0 -3.0730231428506129e-06 0.084969738922004642 0 -3.4005740083899679e-06 0.08497919523469892 0 -9.707191601136509e-06 0.084972175888322815 0 0.0003587261044347759 0.084122360102386995 0 0.00037951756490487988 0.083724506419624881 0 1.1679198583771849e-06 0.084990144494474451 0 -3.0730231428506129e-06 0.084969738922004642 0 -3.4005740083899679e-06 0.08497919523469892 0 -1.4923263775793152e-06 0.084988199802744066 0 1.1679198583771849e-06 0.084990144494474451 0 -1.6841017373533558e-05 0.084983393904289994 0 -1.4923263775793152e-06 0.084988199802744066 0 -1.6841017373533558e-05 0.084983393904289994 0 -5.9407897240104189e-06 0.084981231024319301 0 -1.6841017373533558e-05 0.084983393904289994 0 -3.1293703957308183e-05 0.084961201023465022 0 -2.1989563701512029e-05 0.084965917688694631 0 -1.6841017373533558e-05 0.084983393904289994 0 -1.4903066443416068e-05 0.084972488571419189 0 -2.1989563701512029e-05 0.084965917688694631 0 -1.6841017373533558e-05 0.084983393904289994 0 -5.9407897240104189e-06 0.084981231024319301 0 -1.4903066443416068e-05 0.084972488571419189 0 -3.0730231428506129e-06 0.084969738922004642 0 -1.6225189049768442e-05 0.084953279002440166 0 -1.1551807048270762e-05 0.0849661068529836 0 0.00037951756490487988 0.083724506419624881 0 -0.00011843315649684434 0.081933215060945391 0 -1.6841017373533558e-05 0.084983393904289994 0 -4.2490202474725708e-05 0.08496418779001555 0 -3.1293703957308183e-05 0.084961201023465022 0 -1.6225189049768442e-05 0.084953279002440166 0 -1.7770062515480796e-05 0.084969395531776903 0 -1.1551807048270762e-05 0.0849661068529836 0 -0.0007892962704375429 0.080270758227070943 0 -0.00086615287791925305 0.079150132513917337 0 -0.00011843315649684434 0.081933215060945391 0 -0.00010172768944271436 0.083983982039178201 0 0.00034923602993496434 0.084679628295065507 0 0.00031476327474530015 0.084662319581485679 0 0.00033070259913938946 0.08481367750026314 0 0.00031476327474530015 0.084662319581485679 0 0.00033070259913938946 0.08481367750026314 0 0.00024909149310259945 0.084806742139235142 0 -0.00011843315649684434 0.081933215060945391 0 -0.0007892962704375429 0.080270758227070943 0 0.00033070259913938946 0.08481367750026314 0 0.00027259773432326281 0.084869359964097085 0 0.00024909149310259945 0.084806742139235142 0 -1.7770062515480796e-05 0.084969395531776903 0 -1.1551807048270762e-05 0.0849661068529836 0 -9.707191601136509e-06 0.084972175888322815 0 -1.7770062515480796e-05 0.084969395531776903 0 -9.707191601136509e-06 0.084972175888322815 0 -1.3378851556031625e-05 0.084975028506936126 0 -3.0730231428506129e-06 0.084969738922004642 0 -1.1551807048270762e-05 0.0849661068529836 0 -9.707191601136509e-06 0.084972175888322815 0 -9.707191601136509e-06 0.084972175888322815 0 -1.3378851556031625e-05 0.084975028506936126 0 -7.2412935640262652e-06 0.084980319468624999 0 0.00010456832569658315 0.084969416687648291 0 0.00015413894572824686 0.084930452566365042 0 0.00020697438660000785 0.084947620021550416 0 2.2593201646195057e-05 0.084807800619195059 0 -1.2467485092326295e-06 0.084653102492359647 0 -1.3378851556031625e-05 0.084975028506936126 0 -7.2412935640262652e-06 0.084980319468624999 0 -1.87063014527896e-05 0.084979994707178222 0 0.00010456832569658315 0.084969416687648291 0 0.00011796953876239128 0.084918996464262264 0 0.00015413894572824686 0.084930452566365042 0 0.00011796953876239128 0.084918996464262264 0 0.00015413894572824686 0.084930452566365042 0 0.00016235654744430392 0.084891265732400176 0 0.0001163876200422611 0.084872313524040052 0 0.00011796953876239128 0.084918996464262264 0 0.00016235654744430392 0.084891265732400176 0 0.00018661846467933098 0.0848383378694718 0 0.00016235654744430392 0.084891265732400176 0 0.00021411531037522917 0.084875492862781052 0 0.00016235654744430392 0.084891265732400176 0 0.00021411531037522917 0.084875492862781052 0 0.00021452977025600349 0.084912030796671645 0 0.00015413894572824686 0.084930452566365042 0 0.00021452977025600349 0.084912030796671645 0 0.00020697438660000785 0.084947620021550416 0 0.00015413894572824686 0.084930452566365042 0 0.00016235654744430392 0.084891265732400176 0 0.00021452977025600349 0.084912030796671645 0 0.00021411531037522917 0.084875492862781052 0 0.00021452977025600349 0.084912030796671645 0 0.00025070140288677189 0.084884506959615538 0 -0.00010172768944271436 0.083983982039178201 0 -1.2467485092326295e-06 0.084653102492359647 0 0.00021452977025600349 0.084912030796671645 0 0.00021412119614939651 0.084930351799077444 0 0.00026012948896850675 0.084910512895301896 0 0.00030566290048338523 0.084910333494492229 0 0.00027259773432326281 0.084869359964097085 0 0.00026012948896850675 0.084910512895301896 0 -1.2467485092326295e-06 0.084653102492359647 0 2.6309045528777751e-05 0.08465925375907124 0 0.00033070259913938946 0.08481367750026314 0 0.00030566290048338523 0.084910333494492229 0 0.00027259773432326281 0.084869359964097085 0 -1.7770062515480796e-05 0.084969395531776903 0 -1.3378851556031625e-05 0.084975028506936126 0 -1.87063014527896e-05 0.084979994707178222 0 4.101587001851045e-07 0.084666447629006103 0 -1.2467485092326295e-06 0.084653102492359647 0 0.00027259773432326281 0.084869359964097085 0 0.00026821794874004693 0.084906722040324345 0 0.00024909149310259945 0.084806742139235142 0 0.00027259773432326281 0.084869359964097085 0 0.00026012948896850675 0.084910512895301896 0 0.00026821794874004693 0.084906722040324345 0 -0.00093440559164414906 0.078624689910314474 0 -0.00086615287791925305 0.079150132513917337 0 0.00026012948896850675 0.084910512895301896 0 0.00028144609711450218 0.084878745521818427 0 0.00025070140288677189 0.084884506959615538 0 0.00021452977025600349 0.084912030796671645 0 0.00026012948896850675 0.084910512895301896 0 0.00025070140288677189 0.084884506959615538 0 0.00026012948896850675 0.084910512895301896 0 0.00028144609711450218 0.084878745521818427 0 0.00026821794874004693 0.084906722040324345 0 0.00025486002706578926 0.084849438831773247 0 0.00021411531037522917 0.084875492862781052 0 0.00025070140288677189 0.084884506959615538 0 0.00025486002706578926 0.084849438831773247 0 0.00028144609711450218 0.084878745521818427 0 0.00025070140288677189 0.084884506959615538 0 -0.00097845621790799151 0.078328087449090616 0 -0.00093440559164414906 0.078624689910314474 0 0.00028144609711450218 0.084878745521818427 0 0.00038340376982455267 0.084850762096173427 0 0.00026821794874004693 0.084906722040324345 0 -0.0023531248811683235 0.071665354899347833 0 -0.0024235301794671869 0.071817889271240443 0 -0.0025557075809452281 0.071933305550009777 0 0.00031124745799886291 0.0848147192457233 0 0.00028144609711450218 0.084878745521818427 0 0.00038340376982455267 0.084850762096173427 0 -0.0023588108511136208 0.071759506986499175 0 -0.0023531248811683235 0.071665354899347833 0 -0.0024235301794671869 0.071817889271240443 0 -0.0024235301794671869 0.071817889271240443 0 -0.0023965282586979157 0.071798940558623028 0 -0.0024181549343090906 0.071811805888084029 0 -0.0024235301794671869 0.071817889271240443 0 -0.0024181549343090906 0.071811805888084029 0 -0.0024625013096362227 0.071821541797316688 0 -0.0024235301794671869 0.071817889271240443 0 -0.0025557075809452281 0.071933305550009777 0 -0.0026447144723975857 0.072483876539412295 0 -0.0023588108511136208 0.071759506986499175 0 -0.0024235301794671869 0.071817889271240443 0 -0.0023965282586979157 0.071798940558623028 0 -0.0012214909406100581 0.072970348054368334 0 -0.001066798687566849 0.073907023168386252 0 -0.002372228458447674 0.071788071292330155 0 -0.0023965282586979157 0.071798940558623028 0 -0.0024181549343090906 0.071811805888084029 0 -0.0023785682495160465 0.071804375476482635 0 -0.0024181549343090906 0.071811805888084029 0 -0.0024186657951461013 0.071825490835735986 0 -0.0023785682495160465 0.071804375476482635 0 -0.0024186657951461013 0.071825490835735986 0 -0.0023938881451964723 0.071840390893855896 0 -0.0024186657951461013 0.071825490835735986 0 -0.0023938881451964723 0.071840390893855896 0 -0.0024354642138144475 0.071862468165200283 0 -0.0024186657951461013 0.071825490835735986 0 -0.0024625013096362227 0.071821541797316688 0 -0.0024354642138144475 0.071862468165200283 0 -0.0024181549343090906 0.071811805888084029 0 -0.0024186657951461013 0.071825490835735986 0 -0.0024625013096362227 0.071821541797316688 0 -0.0025557075809452281 0.071933305550009777 0 -0.0028889128221421881 0.072513646094414547 0 -0.0026447144723975857 0.072483876539412295 0 -0.001066798687566849 0.073907023168386252 0 -0.0012079228352909186 0.078806653839738644 0 -0.0024625013096362227 0.071821541797316688 0 -0.0025306183217555771 0.071941020186433863 0 -0.0024354642138144475 0.071862468165200283 0 -0.0033141342895466781 0.073255701813339708 0 -0.0026447144723975857 0.072483876539412295 0 -0.0030391101752606669 0.07339658611292893 0 -0.0025306183217555771 0.071941020186433863 0 -0.0024508718559369488 0.071920831967139442 0 -0.0024354642138144475 0.071862468165200283 0 -0.0024625013096362227 0.071821541797316688 0 -0.0025306183217555771 0.071941020186433863 0 -0.0025835951995476056 0.072002088165055669 0 -0.0033141342895466781 0.073255701813339708 0 -0.0028889128221421881 0.072513646094414547 0 -0.0026447144723975857 0.072483876539412295 0 -0.0025306183217555771 0.071941020186433863 0 -0.002490160545341959 0.071953111058442557 0 -0.0024508718559369488 0.071920831967139442 0 -0.0025306183217555771 0.071941020186433863 0 -0.002490160545341959 0.071953111058442557 0 -0.0025737236244115108 0.072022657333968815 0 -0.002490160545341959 0.071953111058442557 0 -0.0024508718559369488 0.071920831967139442 0 -0.0024932241200345214 0.072007992797716552 0 -0.0024508718559369488 0.071920831967139442 0 -0.002384863431727946 0.071912003843993988 0 -0.0024932241200345214 0.072007992797716552 0 -0.0023938881451964723 0.071840390893855896 0 -0.002384863431727946 0.071912003843993988 0 -0.0024354642138144475 0.071862468165200283 0 -0.0024508718559369488 0.071920831967139442 0 -0.002384863431727946 0.071912003843993988 0 -0.0024354642138144475 0.071862468165200283 0 -0.0018745767887388158 0.071683898702606108 0 -0.0022520754343826155 0.07213815757134362 0 -0.0020243561077824572 0.072289384228726286 0 -0.003262389408297399 0.068640035909929259 0 -0.003283123358694069 0.069202504593695077 0 -0.0018745767887388158 0.071683898702606108 0 -0.0022520754343826155 0.07213815757134362 0 -0.0024932241200345214 0.072007992797716552 0 -0.0022520754343826155 0.07213815757134362 0 -0.0025227295839668385 0.072102570418472497 0 -0.0023283644228273919 0.072606647926748716 0 -0.0022520754343826155 0.07213815757134362 0 -0.0020243561077824572 0.072289384228726286 0 -0.0023283644228273919 0.072606647926748716 0 -0.0022520754343826155 0.07213815757134362 0 -0.0024932241200345214 0.072007992797716552 0 -0.0025227295839668385 0.072102570418472497 0 -0.002738928073519737 0.071997073227887939 0 -0.0025227295839668385 0.072102570418472497 0 -0.0028746574360008549 0.072846147069795586 0 -0.002490160545341959 0.071953111058442557 0 -0.0024932241200345214 0.072007992797716552 0 -0.0025737236244115108 0.072022657333968815 0 -0.0024932241200345214 0.072007992797716552 0 -0.0025737236244115108 0.072022657333968815 0 -0.0025227295839668385 0.072102570418472497 0 -0.0010243794606389642 0.078520660647840523 0 -0.0012562876129839009 0.078296642568239261 0 -0.00098967543188416642 0.077525357479960186 0 -0.0010243794606389642 0.078520660647840523 0 -0.0025306183217555771 0.071941020186433863 0 -0.0025835951995476056 0.072002088165055669 0 -0.0025452050566278244 0.072025138449381479 0 -0.0012079228352909186 0.078806653839738644 0 -0.0010243794606389642 0.078520660647840523 0 -0.0025227295839668385 0.072102570418472497 0 -0.0028746574360008549 0.072846147069795586 0 -0.0023283644228273919 0.072606647926748716 0 -0.0010243794606389642 0.078520660647840523 0 -0.001195020903660365 0.07897156543596609 0 -0.0028746574360008549 0.072846147069795586 0 -0.0023283644228273919 0.072606647926748716 0 -0.0025242865169474576 0.073228740714664994 0 -0.0020243561077824572 0.072289384228726286 0 -0.0023283644228273919 0.072606647926748716 0 -0.001933814212645219 0.072656424293855645 0 -0.0016395068274685514 0.072398653272747554 0 -0.0020243561077824572 0.072289384228726286 0 -0.001933814212645219 0.072656424293855645 0 -0.0016216783046946761 0.072865715175338464 0 -0.001933814212645219 0.072656424293855645 0 -0.0020538066190140879 0.07312592628913786 0 -0.0023283644228273919 0.072606647926748716 0 -0.001933814212645219 0.072656424293855645 0 -0.0020538066190140879 0.07312592628913786 0 -0.0023283644228273919 0.072606647926748716 0 -0.0020538066190140879 0.07312592628913786 0 -0.0025242865169474576 0.073228740714664994 0 -0.0020538066190140879 0.07312592628913786 0 -0.0021906242985371138 0.073556611127518115 0 -0.0025242865169474576 0.073228740714664994 0 -0.0017849251271299432 0.073630317699618919 0 -0.0020538066190140879 0.07312592628913786 0 -0.0021906242985371138 0.073556611127518115 0 -0.0017849251271299432 0.073630317699618919 0 -0.0021906242985371138 0.073556611127518115 0 -0.002159904203591201 0.073956522006110914 0 -0.0021906242985371138 0.073556611127518115 0 -0.002159904203591201 0.073956522006110914 0 -0.0025676588153665802 0.073632062856834032 0 -0.0026118724387295565 0.073951907823349455 0 -0.0025676588153665802 0.073632062856834032 0 -0.0029833027656597016 0.073704050150589603 0 -0.0026118724387295565 0.073951907823349455 0 -0.0029833027656597016 0.073704050150589603 0 -0.0030250184547997243 0.074007245084564133 0 -0.002159904203591201 0.073956522006110914 0 -0.0026118724387295565 0.073951907823349455 0 -0.0025676588153665802 0.073632062856834032 0 -0.0021906242985371138 0.073556611127518115 0 -0.0025676588153665802 0.073632062856834032 0 -0.0025242865169474576 0.073228740714664994 0 -0.0025676588153665802 0.073632062856834032 0 -0.0025242865169474576 0.073228740714664994 0 -0.0029963109267317398 0.073702623815359983 0 -0.0015971266013617808 0.079975838376796157 0 -0.0014916003835785121 0.080364314783302734 0 -0.0028746574360008549 0.072846147069795586 0 -0.0025242865169474576 0.073228740714664994 0 -0.0029963109267317398 0.073702623815359983 0 -0.001195020903660365 0.07897156543596609 0 -0.0014916003835785121 0.080364314783302734 0 0.00055771392904746726 0.084463859747781908 0 0.00028484983177746081 0.084577572995256575 0 0.00027563916447795789 0.084814560261748051 0 0.00055771392904746726 0.084463859747781908 0 0.00027563916447795789 0.084814560261748051 0 0.00040290104335846753 0.085071316847626463 0 0.00028484983177746081 0.084577572995256575 0 0.0001478238110854227 0.084679771515636923 0 0.00027563916447795789 0.084814560261748051 0 0.0001478238110854227 0.084679771515636923 0 -3.3690649716940409e-05 0.084369743433915151 0 0.00014726008463556328 0.084504009488275703 0 0.00028484983177746081 0.084577572995256575 0 0.0001478238110854227 0.084679771515636923 0 0.00014726008463556328 0.084504009488275703 0 0.0001478238110854227 0.084679771515636923 0 0.00027563916447795789 0.084814560261748051 0 2.3508342459072645e-05 0.084925516936491169 0 0.00027563916447795789 0.084814560261748051 0 0.00040290104335846753 0.085071316847626463 0 9.9790101887027073e-05 0.085065177745969708 0 0.00027563916447795789 0.084814560261748051 0 9.9790101887027073e-05 0.085065177745969708 0 2.3508342459072645e-05 0.084925516936491169 0 -0.0014916003835785121 0.080364314783302734 0 -0.00060700610305537228 0.08172724851554658 0 1.8040033628750287e-05 0.084292284752659569 0 -0.00013681155081294262 0.084208249601629773 0 -4.7868237298683168e-05 0.084111732667684153 0 -0.00060700610305537228 0.08172724851554658 0 -0.0015637731624693204 0.080745399532737447 0 -0.0016164075824318318 0.081151850350196827 0 -0.0017304586066467372 0.081169974362115566 0 -0.0016285074684373559 0.081236598357344481 0 -0.0014916003835785121 0.080364314783302734 0 -0.0015637731624693204 0.080745399532737447 0 9.9790101887027073e-05 0.085065177745969708 0 2.3508342459072645e-05 0.084925516936491169 0 -4.6997921408394269e-05 0.084929374091577262 0 -0.00060700610305537228 0.08172724851554658 0 -0.00011224354853341119 0.083395532605498437 0 1.8040033628750287e-05 0.084292284752659569 0 0.00029063371614938192 0.084267992984875306 0 0.00018392445665123586 0.084124297266225612 0 -0.00060700610305537228 0.08172724851554658 0 0.00026743913650311915 0.082927650901850794 0 -5.1392967252247974e-05 0.084918110573479089 0 -4.6997921408394269e-05 0.084929374091577262 0 -3.8067715546953043e-05 0.084930583722722885 0 0.0001478238110854227 0.084679771515636923 0 2.3508342459072645e-05 0.084925516936491169 0 -3.3690649716940409e-05 0.084369743433915151 0 -0.00060771476446141797 0.083971750256011377 0 -0.00063285408943960153 0.083599139259951563 0 2.3508342459072645e-05 0.084925516936491169 0 -2.3398126166822556e-05 0.084926202384710603 0 -4.6997921408394269e-05 0.084929374091577262 0 2.3508342459072645e-05 0.084925516936491169 0 -2.3398126166822556e-05 0.084926202384710603 0 -2.823509112728138e-05 0.084929435087831462 0 -2.3398126166822556e-05 0.084926202384710603 0 -2.5992397338353454e-05 0.084934417896910808 0 -2.2672451069050068e-05 0.084946805630275915 0 -3.5600434670987265e-05 0.084943571625786737 0 -2.823509112728138e-05 0.084929435087831462 0 -4.2698699320317641e-05 0.084948235636132116 0 -2.3398126166822556e-05 0.084926202384710603 0 -2.5992397338353454e-05 0.084934417896910808 0 -2.823509112728138e-05 0.084929435087831462 0 -0.00063285408943960153 0.083599139259951563 0 -0.00068635039029279565 0.082297626588973827 0 -2.8002319272660336e-05 0.084940214511152648 0 -2.7632043661750806e-05 0.084951914985358326 0 -2.2672451069050068e-05 0.084946805630275915 0 -2.5992397338353454e-05 0.084934417896910808 0 -2.8002319272660336e-05 0.084940214511152648 0 -2.2672451069050068e-05 0.084946805630275915 0 -2.8002319272660336e-05 0.084940214511152648 0 -3.5600434670987265e-05 0.084943571625786737 0 -2.7632043661750806e-05 0.084951914985358326 0 -2.8002319272660336e-05 0.084940214511152648 0 -3.5600434670987265e-05 0.084943571625786737 0 -2.823509112728138e-05 0.084929435087831462 0 -2.5992397338353454e-05 0.084934417896910808 0 -2.8002319272660336e-05 0.084940214511152648 0 -2.823509112728138e-05 0.084929435087831462 0 0.00014726008463556328 0.084504009488275703 0 0.00032446993664808253 0.084340822577968474 0 0.00031557682445708575 0.084070724024200419 0 0.00068196728102276638 0.083679518850683227 0 0.00055771392904746726 0.084463859747781908 0 0.00031557682445708575 0.084070724024200419 0 -3.3690649716940409e-05 0.084369743433915151 0 0.00014726008463556328 0.084504009488275703 0 0.00048296474561745694 0.083858462944074383 0 -0.0014631163009495294 0.081856183345673753 0 -0.001413192509266101 0.081152060953482499 0 -3.3690649716940409e-05 0.084369743433915151 0 0.00048296474561745694 0.083858462944074383 0 6.3501858980947326e-05 0.083585699926408671 0 0.00028484983177746081 0.084577572995256575 0 0.00014726008463556328 0.084504009488275703 0 0.00032446993664808253 0.084340822577968474 0 0.00055771392904746726 0.084463859747781908 0 0.00028484983177746081 0.084577572995256575 0 0.00032446993664808253 0.084340822577968474 0 0.00055771392904746726 0.084463859747781908 0 0.00032446993664808253 0.084340822577968474 0 0.00031557682445708575 0.084070724024200419 0 0.00048296474561745694 0.083858462944074383 0 6.3501858980947326e-05 0.083585699926408671 0 0.0004495265924290192 0.083392763729468813 0 -0.0012079228352909186 0.078806653839738644 0 -0.001413192509266101 0.081152060953482499 0 0.00053441292973170856 0.083603516646666917 0 0.00068196728102276638 0.083679518850683227 0 0.00031557682445708575 0.084070724024200419 0 0.00082299292525811571 0.083160686685612689 0 0.00048296474561745694 0.083858462944074383 0 0.0004495265924290192 0.083392763729468813 0 -0.0007892962704375429 0.080270758227070943 0 -0.0012079228352909186 0.078806653839738644 0 0.00043105252402261964 0.082964311394641901 0 0.00082299292525811571 0.083160686685612689 0 0.0004495265924290192 0.083392763729468813 0 -0.0007892962704375429 0.080270758227070943 0 -0.00068635039029279565 0.082297626588973827 0 -0.00011843315649684434 0.081933215060945391 0 -0.00068635039029279565 0.082297626588973827 0 0.00043105252402261964 0.082964311394641901 0 6.3501858980947326e-05 0.083585699926408671 0 0.0004495265924290192 0.083392763729468813 0 -0.00091296415422590944 0.079825459144413288 0 -0.00018849064389823714 0.080191122425224179 0 -0.0012446512409328026 0.081909593875941447 0 -4.2490202474725708e-05 0.08496418779001555 0 -4.0037224267745843e-05 0.084949619021305919 0 -3.1293703957308183e-05 0.084961201023465022 0 -3.1293703957308183e-05 0.084961201023465022 0 -2.7632043661750806e-05 0.084951914985358326 0 -2.1989563701512029e-05 0.084965917688694631 0 -3.1293703957308183e-05 0.084961201023465022 0 -2.7632043661750806e-05 0.084951914985358326 0 -3.3350633848986851e-05 0.084951463100753466 0 -3.5600434670987265e-05 0.084943571625786737 0 -2.7632043661750806e-05 0.084951914985358326 0 -3.3350633848986851e-05 0.084951463100753466 0 -4.0037224267745843e-05 0.084949619021305919 0 -3.1293703957308183e-05 0.084961201023465022 0 -3.3350633848986851e-05 0.084951463100753466 0 -3.5600434670987265e-05 0.084943571625786737 0 -4.0037224267745843e-05 0.084949619021305919 0 -3.3350633848986851e-05 0.084951463100753466 0 -0.00071292256519788248 0.082384407089839573 0 -0.00068635039029279565 0.082297626588973827 0 -1.9487843633971006e-05 0.08496084728645005 0 -1.221584375004008e-05 0.084966705871627191 0 -2.2672451069050068e-05 0.084946805630275915 0 -2.7632043661750806e-05 0.084951914985358326 0 -1.9487843633971006e-05 0.08496084728645005 0 -2.1989563701512029e-05 0.084965917688694631 0 -2.7632043661750806e-05 0.084951914985358326 0 -1.9487843633971006e-05 0.08496084728645005 0 -2.2672451069050068e-05 0.084946805630275915 0 -1.4903066443416068e-05 0.084972488571419189 0 -1.9487843633971006e-05 0.08496084728645005 0 -2.1989563701512029e-05 0.084965917688694631 0 -1.4903066443416068e-05 0.084972488571419189 0 -1.9487843633971006e-05 0.08496084728645005 0 -1.221584375004008e-05 0.084966705871627191 0 -5.9407897240104189e-06 0.084981231024319301 0 -1.4903066443416068e-05 0.084972488571419189 0 -1.221584375004008e-05 0.084966705871627191 0 -5.9407897240104189e-06 0.084981231024319301 0 -1.221584375004008e-05 0.084966705871627191 0 -4.3285976538093114e-06 0.084977127905307814 0 -1.221584375004008e-05 0.084966705871627191 0 -2.580459339545201e-05 0.084950936243491121 0 -1.2297195689308509e-05 0.08496690521945989 0 -1.221584375004008e-05 0.084966705871627191 0 -2.2672451069050068e-05 0.084946805630275915 0 -2.580459339545201e-05 0.084950936243491121 0 -2.3398126166822556e-05 0.084926202384710603 0 -2.2672451069050068e-05 0.084946805630275915 0 -2.580459339545201e-05 0.084950936243491121 0 -2.3398126166822556e-05 0.084926202384710603 0 -2.580459339545201e-05 0.084950936243491121 0 -4.6997921408394269e-05 0.084929374091577262 0 -2.580459339545201e-05 0.084950936243491121 0 -4.6997921408394269e-05 0.084929374091577262 0 -2.517162016584678e-05 0.084948012741138598 0 -4.6997921408394269e-05 0.084929374091577262 0 -3.8067715546953043e-05 0.084930583722722885 0 -2.517162016584678e-05 0.084948012741138598 0 -0.00011224354853341119 0.083395532605498437 0 7.6811652225513527e-05 0.084309984345057501 0 -3.8067715546953043e-05 0.084930583722722885 0 -2.517162016584678e-05 0.084948012741138598 0 -1.0158401356794349e-05 0.084963384457110963 0 -1.2297195689308509e-05 0.08496690521945989 0 -2.517162016584678e-05 0.084948012741138598 0 -1.0158401356794349e-05 0.084963384457110963 0 -2.580459339545201e-05 0.084950936243491121 0 -1.2297195689308509e-05 0.08496690521945989 0 -2.517162016584678e-05 0.084948012741138598 0 -1.2297195689308509e-05 0.08496690521945989 0 -5.0004277871926006e-06 0.084983778465117135 0 -1.0158401356794349e-05 0.084963384457110963 0 1.6461086095079661e-09 0.084999986516090517 0 -5.0004277871926006e-06 0.084983778465117135 0 -1.0158401356794349e-05 0.084963384457110963 0 1.6461086095079661e-09 0.084999986516090517 0 -5.3142851881667764e-09 0.084999965207521649 0 -1.0158401356794349e-05 0.084963384457110963 0 1.6461086095079661e-09 0.084999986516090517 0 -5.0004277871926006e-06 0.084983778465117135 0 -1.1638312654935728e-08 0.084999949710747646 0 -3.2244720512860809e-10 0.084999985064002512 0 -9.0680620063752068e-08 0.084993190430796089 0 -5.0004277871926006e-06 0.084983778465117135 0 -1.1638312654935728e-08 0.084999949710747646 0 -4.3285976538093114e-06 0.084977127905307814 0 -1.221584375004008e-05 0.084966705871627191 0 -1.2297195689308509e-05 0.08496690521945989 0 -4.3285976538093114e-06 0.084977127905307814 0 -1.2297195689308509e-05 0.08496690521945989 0 -5.0004277871926006e-06 0.084983778465117135 0 -4.3285976538093114e-06 0.084977127905307814 0 -2.008261500615092e-06 0.084991921740145013 0 -9.0680620063752068e-08 0.084993190430796089 0 1.6869350763393867e-07 0.084994092219523421 0 -5.9407897240104189e-06 0.084981231024319301 0 1.1689627737731768e-07 0.084996488542973481 0 7.6685778284885233e-10 0.085000003613341951 0 1.1689627737731768e-07 0.084996488542973481 0 -1.456910988279079e-09 0.084999987037173722 0 1.6869350763393867e-07 0.084994092219523421 0 1.1689627737731768e-07 0.084996488542973481 0 -1.456910988279079e-09 0.084999987037173722 0 -8.168441616554045e-05 0.084927941887128627 0 -4.4244898479678825e-08 0.084999821874275377 0 -5.3979067411746933e-05 0.084997475429467187 0 -8.168441616554045e-05 0.084927941887128627 0 -0.0001728460672152888 0.084978756100075797 0 -5.3979067411746933e-05 0.084997475429467187 0 -8.168441616554045e-05 0.084927941887128627 0 -6.5297276655241286e-05 0.084904625698831712 0 -0.00012748752268742353 0.084830068386709173 0 -8.168441616554045e-05 0.084927941887128627 0 -4.4244898479678825e-08 0.084999821874275377 0 -6.5297276655241286e-05 0.084904625698831712 0 -0.0003575317797197623 0.084865374647913869 0 -0.0001728460672152888 0.084978756100075797 0 -0.0005639942305120906 0.085098072378186715 0 -0.00083730029984692357 0.084502901090102125 0 -0.00014266175234680891 0.084664483436683771 0 -0.00017036780945561968 0.084729034599468567 0 -8.168441616554045e-05 0.084927941887128627 0 -0.00012748752268742353 0.084830068386709173 0 -0.00017615609612053955 0.084864614484686351 0 -0.00012748752268742353 0.084830068386709173 0 -0.0001889136585312248 0.084794481532996679 0 -0.00017036780945561968 0.084729034599468567 0 -0.00012748752268742353 0.084830068386709173 0 -0.0001889136585312248 0.084794481532996679 0 -0.00017615609612053955 0.084864614484686351 0 -0.0001889136585312248 0.084794481532996679 0 -0.00031293877609518461 0.084766148827626231 0 -0.00017036780945561968 0.084729034599468567 0 -0.0001889136585312248 0.084794481532996679 0 -0.00031293877609518461 0.084766148827626231 0 -0.00017615609612053955 0.084864614484686351 0 -0.00031293877609518461 0.084766148827626231 0 -0.0003575317797197623 0.084865374647913869 0 -0.00017615609612053955 0.084864614484686351 0 -0.0003575317797197623 0.084865374647913869 0 -0.00017615609612053955 0.084864614484686351 0 -0.0001728460672152888 0.084978756100075797 0 -8.168441616554045e-05 0.084927941887128627 0 -0.00017615609612053955 0.084864614484686351 0 -0.0001728460672152888 0.084978756100075797 0 -0.00010469107677557028 0.084614623322750382 0 -0.0002418829182214126 0.084218298486003207 0 0.00036298682637624774 0.084362016457305539 0 0.0003780900876984269 0.084116855176949099 0 0.00044145154992686841 0.083831788751503433 0 -0.0001728460672152888 0.084978756100075797 0 -5.3979067411746933e-05 0.084997475429467187 0 -0.00010128220218408288 0.085106174023725042 0 -0.0001728460672152888 0.084978756100075797 0 -0.00010128220218408288 0.085106174023725042 0 -0.0005639942305120906 0.085098072378186715 0 -4.11162337293672e-08 0.085000110177428048 0 -5.3979067411746933e-05 0.084997475429467187 0 -0.00010128220218408288 0.085106174023725042 0 -4.4244898479678825e-08 0.084999821874275377 0 -4.11162337293672e-08 0.085000110177428048 0 -5.3979067411746933e-05 0.084997475429467187 0 3.6559371184529229e-07 0.084999662634034509 0 0.00023215169599185743 0.084620772255054738 0 0.00036298682637624774 0.084362016457305539 0 -4.11162337293672e-08 0.085000110177428048 0 -3.548621351504664e-09 0.08500007092933469 0 -0.00010128220218408288 0.085106174023725042 0 -5.4858053003444037e-08 0.084999335427390757 0 -0.00010469107677557028 0.084614623322750382 0 3.6559371184529229e-07 0.084999662634034509 0 -1.1685038522386552e-09 0.084999467167233708 0 0.00023215169599185743 0.084620772255054738 0 -1.1685038522386552e-09 0.084999467167233708 0 0.00023215169599185743 0.084620772255054738 0 0.0003279782443489266 0.08438716389506265 0 1.2940982240681585e-07 0.084998788102676276 0 7.6811652225513527e-05 0.084309984345057501 0 0.00023215169599185743 0.084620772255054738 0 0.0003279782443489266 0.08438716389506265 0 0.00034808580720527933 0.084270059005722889 0 0.00036298682637624774 0.084362016457305539 0 0.0003780900876984269 0.084116855176949099 0 0.00034808580720527933 0.084270059005722889 0 0.00023215169599185743 0.084620772255054738 0 0.00036298682637624774 0.084362016457305539 0 0.00034808580720527933 0.084270059005722889 0 0.0003780900876984269 0.084116855176949099 0 0.00034808580720527933 0.084270059005722889 0 0.00031246823017468323 0.083976333853689897 0 0.00029063371614938192 0.084267992984875306 0 0.0003279782443489266 0.08438716389506265 0 0.00034808580720527933 0.084270059005722889 0 0.00029063371614938192 0.084267992984875306 0 0.00025568223451474754 0.084078441056549311 0 0.00018392445665123586 0.084124297266225612 0 0.00029063371614938192 0.084267992984875306 0 0.00034808580720527933 0.084270059005722889 0 0.00025568223451474754 0.084078441056549311 0 0.00034808580720527933 0.084270059005722889 0 0.00025568223451474754 0.084078441056549311 0 0.00031246823017468323 0.083976333853689897 0 0.00025568223451474754 0.084078441056549311 0 0.00022393313268613655 0.083812404224263504 0 0.00016332192328599723 0.083865163465567411 0 0.00025568223451474754 0.084078441056549311 0 0.00031246823017468323 0.083976333853689897 0 0.00022393313268613655 0.083812404224263504 0 0.00031246823017468323 0.083976333853689897 0 0.00022393313268613655 0.083812404224263504 0 0.00029641801811812653 0.083703019183665989 0 0.00031246823017468323 0.083976333853689897 0 0.00029641801811812653 0.083703019183665989 0 0.00044145154992686841 0.083831788751503433 0 0.00022393313268613655 0.083812404224263504 0 0.00029641801811812653 0.083703019183665989 0 0.00018632794517389336 0.083522239773733478 0 0.0003780900876984269 0.084116855176949099 0 0.00031246823017468323 0.083976333853689897 0 0.00044145154992686841 0.083831788751503433 0 -0.00083730029984692357 0.084502901090102125 0 -0.001637499722638606 0.084400982010930214 0 -0.00072758002748877658 0.083857540755310683 0 -0.00034064022556232361 0.08467299422022849 0 -7.307821788851121e-05 0.084616506816858825 0 -0.00031293877609518461 0.084766148827626231 0 -0.00083730029984692357 0.084502901090102125 0 -0.00017036780945561968 0.084729034599468567 0 -0.0005639942305120906 0.085098072378186715 0 -0.00083730029984692357 0.084502901090102125 0 -0.001637499722638606 0.084400982010930214 0 -0.0003575317797197623 0.084865374647913869 0 -0.0005639942305120906 0.085098072378186715 0 -0.00083730029984692357 0.084502901090102125 0 -0.00031293877609518461 0.084766148827626231 0 -0.0003575317797197623 0.084865374647913869 0 -0.00083730029984692357 0.084502901090102125 0 -0.0002418829182214126 0.084218298486003207 0 -0.00048525458991916908 0.083682363446537053 0 0.00029641801811812653 0.083703019183665989 0 0.00044145154992686841 0.083831788751503433 0 0.00031130047433284625 0.083341270657828231 0 0.00029641801811812653 0.083703019183665989 0 0.00031130047433284625 0.083341270657828231 0 0.00018632794517389336 0.083522239773733478 0 0.00013593601339635127 0.08325445497049494 0 5.746763342240565e-05 0.083334847091868461 0 0.00018632794517389336 0.083522239773733478 0 0.00031130047433284625 0.083341270657828231 0 0.00013593601339635127 0.08325445497049494 0 0.00018632794517389336 0.083522239773733478 0 5.746763342240565e-05 0.083334847091868461 0 -7.4622777468050773e-05 0.083116847806159841 0 3.3414393612856504e-05 0.083099663874914104 0 0.00013593601339635127 0.08325445497049494 0 5.746763342240565e-05 0.083334847091868461 0 3.3414393612856504e-05 0.083099663874914104 0 5.746763342240565e-05 0.083334847091868461 0 -4.2086088944490861e-05 0.08349195030349657 0 -7.4622777468050773e-05 0.083116847806159841 0 5.746763342240565e-05 0.083334847091868461 0 -4.2086088944490861e-05 0.08349195030349657 0 9.634956046284872e-05 0.083641333279815419 0 -4.2086088944490861e-05 0.08349195030349657 0 1.0619495404726405e-05 0.083665452404434459 0 -5.7212298705447652e-05 0.083726475627670133 0 -4.2086088944490861e-05 0.08349195030349657 0 9.634956046284872e-05 0.083641333279815419 0 1.0619495404726405e-05 0.083665452404434459 0 9.634956046284872e-05 0.083641333279815419 0 8.202661886175804e-05 0.083788726104116043 0 1.0619495404726405e-05 0.083665452404434459 0 5.746763342240565e-05 0.083334847091868461 0 9.634956046284872e-05 0.083641333279815419 0 0.00018632794517389336 0.083522239773733478 0 0.00022393313268613655 0.083812404224263504 0 9.634956046284872e-05 0.083641333279815419 0 0.00018632794517389336 0.083522239773733478 0 0.00022393313268613655 0.083812404224263504 0 9.634956046284872e-05 0.083641333279815419 0 0.00016332192328599723 0.083865163465567411 0 0.00016332192328599723 0.083865163465567411 0 8.202661886175804e-05 0.083788726104116043 0 0.00013990526002394409 0.083973721223224732 0 9.634956046284872e-05 0.083641333279815419 0 0.00016332192328599723 0.083865163465567411 0 8.202661886175804e-05 0.083788726104116043 0 0.00013990526002394409 0.083973721223224732 0 8.4686170013721453e-05 0.084032750971585926 0 3.3315933978810438e-05 0.083888751773661063 0 8.202661886175804e-05 0.083788726104116043 0 0.00013990526002394409 0.083973721223224732 0 3.3315933978810438e-05 0.083888751773661063 0 0.00025568223451474754 0.084078441056549311 0 0.00016332192328599723 0.083865163465567411 0 0.00013990526002394409 0.083973721223224732 0 0.00013990526002394409 0.083973721223224732 0 0.00018392445665123586 0.084124297266225612 0 8.4686170013721453e-05 0.084032750971585926 0 1.8040033628750287e-05 0.084292284752659569 0 0.00018392445665123586 0.084124297266225612 0 4.6732972932958366e-05 0.084128919429315371 0 0.00025568223451474754 0.084078441056549311 0 0.00013990526002394409 0.083973721223224732 0 0.00018392445665123586 0.084124297266225612 0 0.00018392445665123586 0.084124297266225612 0 8.4686170013721453e-05 0.084032750971585926 0 4.6732972932958366e-05 0.084128919429315371 0 8.4686170013721453e-05 0.084032750971585926 0 4.6732972932958366e-05 0.084128919429315371 0 1.9676051504801444e-07 0.084029676208897397 0 -0.00013681155081294262 0.084208249601629773 0 -4.7868237298683168e-05 0.084111732667684153 0 -0.00012519300060303559 0.083980930946603471 0 -0.0015637731624693204 0.080745399532737447 0 -0.0015544050843368635 0.08150829404301134 0 1.8040033628750287e-05 0.084292284752659569 0 4.6732972932958366e-05 0.084128919429315371 0 -4.7868237298683168e-05 0.084111732667684153 0 -4.7868237298683168e-05 0.084111732667684153 0 1.9676051504801444e-07 0.084029676208897397 0 -0.00012519300060303559 0.083980930946603471 0 4.6732972932958366e-05 0.084128919429315371 0 -4.7868237298683168e-05 0.084111732667684153 0 1.9676051504801444e-07 0.084029676208897397 0 8.4686170013721453e-05 0.084032750971585926 0 1.9676051504801444e-07 0.084029676208897397 0 3.3315933978810438e-05 0.083888751773661063 0 1.9676051504801444e-07 0.084029676208897397 0 -0.00012519300060303559 0.083980930946603471 0 -3.102068388931036e-05 0.08391167711267962 0 -0.00012519300060303559 0.083980930946603471 0 -3.102068388931036e-05 0.08391167711267962 0 -5.7212298705447652e-05 0.083726475627670133 0 -0.0015544050843368635 0.08150829404301134 0 -0.0015267956758037119 0.081814719967865907 0 -5.1492411217865018e-05 0.083772809305501211 0 -5.7212298705447652e-05 0.083726475627670133 0 -0.00013854848993536574 0.083712284659707495 0 1.9676051504801444e-07 0.084029676208897397 0 -3.102068388931036e-05 0.08391167711267962 0 3.3315933978810438e-05 0.083888751773661063 0 -3.102068388931036e-05 0.08391167711267962 0 3.3315933978810438e-05 0.083888751773661063 0 -5.7212298705447652e-05 0.083726475627670133 0 3.3315933978810438e-05 0.083888751773661063 0 1.0619495404726405e-05 0.083665452404434459 0 -5.7212298705447652e-05 0.083726475627670133 0 8.202661886175804e-05 0.083788726104116043 0 3.3315933978810438e-05 0.083888751773661063 0 1.0619495404726405e-05 0.083665452404434459 0 -4.2086088944490861e-05 0.08349195030349657 0 -5.7212298705447652e-05 0.083726475627670133 0 -0.00017754346506523237 0.083575367558211155 0 -0.00017754346506523237 0.083575367558211155 0 -0.00013854848993536574 0.083712284659707495 0 -0.00031811931523342585 0.083810244768986089 0 -5.7212298705447652e-05 0.083726475627670133 0 -0.00017754346506523237 0.083575367558211155 0 -0.00013854848993536574 0.083712284659707495 0 -5.1492411217865018e-05 0.083772809305501211 0 -0.00013854848993536574 0.083712284659707495 0 -0.00031811931523342585 0.083810244768986089 0 -0.0015637731624693204 0.080745399532737447 0 -0.0013739680835812068 0.081051380966733935 0 -0.0015544050843368635 0.08150829404301134 0 -0.0013739680835812068 0.081051380966733935 0 -0.0012685533637921196 0.081256708144679807 0 -0.001238832078218976 0.081044659328608604 0 -0.0015532072268345176 0.081071370281365476 0 -0.0026118724387295565 0.073951907823349455 0 -0.0030250184547997243 0.074007245084564133 0 -0.0023200310107268128 0.074462814534793559 0 -0.002159904203591201 0.073956522006110914 0 -0.0023200310107268128 0.074462814534793559 0 -0.001445831920367052 0.074377712566408863 0 -0.0013739680835812068 0.081051380966733935 0 -0.00087746800179471754 0.079472847317124826 0 -0.002159904203591201 0.073956522006110914 0 -0.0026118724387295565 0.073951907823349455 0 -0.0023200310107268128 0.074462814534793559 0 -0.0013739680835812068 0.081051380966733935 0 -0.0004505365588900978 0.082184382064838551 0 -0.00031811931523342585 0.083810244768986089 0 -0.00038908055754335272 0.083412373247125596 0 -0.00075947365853780316 0.083521311472822074 0 -0.00017754346506523237 0.083575367558211155 0 -0.00031811931523342585 0.083810244768986089 0 -0.00038908055754335272 0.083412373247125596 0 -0.00038908055754335272 0.083412373247125596 0 -0.00018393757571243254 0.083328915540723247 0 -0.00029453130139074066 0.083044252058672968 0 -0.00038908055754335272 0.083412373247125596 0 -0.00029453130139074066 0.083044252058672968 0 -0.00057466748108023799 0.083045311620458306 0 -0.00017754346506523237 0.083575367558211155 0 -0.00038908055754335272 0.083412373247125596 0 -0.00018393757571243254 0.083328915540723247 0 -4.2086088944490861e-05 0.08349195030349657 0 -0.00018393757571243254 0.083328915540723247 0 -7.4622777468050773e-05 0.083116847806159841 0 -4.2086088944490861e-05 0.08349195030349657 0 -0.00017754346506523237 0.083575367558211155 0 -0.00018393757571243254 0.083328915540723247 0 -7.4622777468050773e-05 0.083116847806159841 0 -0.00029453130139074066 0.083044252058672968 0 -0.00019602715606802649 0.082657516364969583 0 -0.00018393757571243254 0.083328915540723247 0 -7.4622777468050773e-05 0.083116847806159841 0 -0.00029453130139074066 0.083044252058672968 0 -0.00029453130139074066 0.083044252058672968 0 -0.00043964999712469582 0.082588678842374197 0 -0.00019602715606802649 0.082657516364969583 0 -0.00029453130139074066 0.083044252058672968 0 -0.00043964999712469582 0.082588678842374197 0 -0.00057466748108023799 0.083045311620458306 0 -0.00043964999712469582 0.082588678842374197 0 -0.00022950064410441883 0.082114382736576216 0 -0.00044612275633348377 0.081826116802014778 0 -0.00043964999712469582 0.082588678842374197 0 -0.00019602715606802649 0.082657516364969583 0 -0.00022950064410441883 0.082114382736576216 0 -0.00019602715606802649 0.082657516364969583 0 -6.1687865837281843e-05 0.082261524704350192 0 6.4354011097701399e-05 0.082376433816521002 0 -7.4622777468050773e-05 0.083116847806159841 0 -0.00019602715606802649 0.082657516364969583 0 -6.1242481460320092e-05 0.082934553897134777 0 -0.0002463936855558975 0.083012806126803229 0 -0.00024111384009036592 0.08305114819550366 0 -6.1687865837281843e-05 0.082261524704350192 0 2.9148429565972714e-05 0.08222353466307275 0 6.4354011097701399e-05 0.082376433816521002 0 -0.00019602715606802649 0.082657516364969583 0 -6.1687865837281843e-05 0.082261524704350192 0 -0.00022950064410441883 0.082114382736576216 0 -6.1687865837281843e-05 0.082261524704350192 0 -9.0681467233951163e-05 0.082023497334505938 0 -0.00022950064410441883 0.082114382736576216 0 -6.1687865837281843e-05 0.082261524704350192 0 -9.0681467233951163e-05 0.082023497334505938 0 2.9148429565972714e-05 0.08222353466307275 0 -9.0681467233951163e-05 0.082023497334505938 0 -0.00022950064410441883 0.082114382736576216 0 -0.00023534289179297777 0.081765229292746627 0 -0.00022950064410441883 0.082114382736576216 0 -0.00023534289179297777 0.081765229292746627 0 -0.00044612275633348377 0.081826116802014778 0 -0.00023534289179297777 0.081765229292746627 0 -0.00020668866982804889 0.081915033014807861 0 -0.00043287299579889988 0.08124963215015979 0 -0.00027964025427409744 0.081803610648470623 0 -0.00020668866982804889 0.081915033014807861 0 -0.00043287299579889988 0.08124963215015979 0 -9.0681467233951163e-05 0.082023497334505938 0 -0.00020668866982804889 0.081915033014807861 0 4.7828412164090913e-05 0.082185803382393466 0 -9.0681467233951163e-05 0.082023497334505938 0 -0.00023534289179297777 0.081765229292746627 0 -0.00020668866982804889 0.081915033014807861 0 -0.00020668866982804889 0.081915033014807861 0 4.7828412164090913e-05 0.082185803382393466 0 7.1741728765724135e-05 0.082139040639881505 0 -0.00021027442585406429 0.082410410817597687 0 -0.00020668866982804889 0.081915033014807861 0 -0.00013037646820037287 0.082667006899872289 0 -3.7308494782106978e-05 0.082338133352631876 0 -7.7061487889511817e-06 0.082435721702689244 0 -7.7061487889511817e-06 0.082435721702689244 0 -5.1966380020819111e-05 0.082570114874478281 0 4.7828412164090913e-05 0.082185803382393466 0 7.1741728765724135e-05 0.082139040639881505 0 0.00010835359640300093 0.082343193569079293 0 7.1741728765724135e-05 0.082139040639881505 0 0.00010835359640300093 0.082343193569079293 0 0.00010712311779169717 0.082462145095240441 0 4.7828412164090913e-05 0.082185803382393466 0 0.00010835359640300093 0.082343193569079293 0 9.9830783837841433e-05 0.082309377907238301 0 9.9830783837841433e-05 0.082309377907238301 0 9.8957973229061788e-05 0.082294279750774732 0 8.3691344000593224e-05 0.082389598411975587 0 9.9830783837841433e-05 0.082309377907238301 0 9.5993231921473997e-05 0.082290119246422128 0 9.8957973229061788e-05 0.082294279750774732 0 -9.0681467233951163e-05 0.082023497334505938 0 4.7828412164090913e-05 0.082185803382393466 0 2.9148429565972714e-05 0.08222353466307275 0 4.7828412164090913e-05 0.082185803382393466 0 9.9830783837841433e-05 0.082309377907238301 0 9.5993231921473997e-05 0.082290119246422128 0 4.7828412164090913e-05 0.082185803382393466 0 2.9148429565972714e-05 0.08222353466307275 0 9.5993231921473997e-05 0.082290119246422128 0 -0.00024111384009036592 0.08305114819550366 0 -0.00042203636032584868 0.083216388344019468 0 9.5993231921473997e-05 0.082290119246422128 0 6.4354011097701399e-05 0.082376433816521002 0 0.00011750339289274781 0.082305605331915041 0 -6.1242481460320092e-05 0.082934553897134777 0 3.3414393612856504e-05 0.083099663874914104 0 0.00010221287728919445 0.082989891199236193 0 -0.00041982599581575768 0.083197390878446562 0 -0.00042203636032584868 0.083216388344019468 0 2.9148429565972714e-05 0.08222353466307275 0 9.5993231921473997e-05 0.082290119246422128 0 6.4354011097701399e-05 0.082376433816521002 0 -7.4622777468050773e-05 0.083116847806159841 0 -6.1242481460320092e-05 0.082934553897134777 0 3.3414393612856504e-05 0.083099663874914104 0 -0.00042203636032584868 0.083216388344019468 0 -0.00043178154369141676 0.082992784719394447 0 -0.00048525458991916908 0.083682363446537053 0 -0.00042203636032584868 0.083216388344019468 0 0.00031130047433284625 0.083341270657828231 0 0.00013593601339635127 0.08325445497049494 0 0.00010221287728919445 0.082989891199236193 0 0.00013593601339635127 0.08325445497049494 0 3.3414393612856504e-05 0.083099663874914104 0 0.00010221287728919445 0.082989891199236193 0 -0.001637499722638606 0.084400982010930214 0 -0.0027012739390073681 0.08353925218982966 0 -0.0012347752887738007 0.083173826567621983 0 -0.001637499722638606 0.084400982010930214 0 -0.00072758002748877658 0.083857540755310683 0 -0.0012347752887738007 0.083173826567621983 0 -0.00072758002748877658 0.083857540755310683 0 -0.00044172243611445615 0.083317414034353804 0 -0.0012347752887738007 0.083173826567621983 0 -0.00083730029984692357 0.084502901090102125 0 -0.00072758002748877658 0.083857540755310683 0 0.00010622369918513088 0.083863556948853515 0 -0.00072758002748877658 0.083857540755310683 0 -0.00044172243611445615 0.083317414034353804 0 -0.00022031208010646127 0.083558808891953287 0 -0.00043178154369141676 0.082992784719394447 0 -0.00018280579976234621 0.082876642096045297 0 -0.00044172243611445615 0.083317414034353804 0 -0.0012347752887738007 0.083173826567621983 0 -5.2975631430150396e-06 0.082680272625463555 0 8.3691344000593224e-05 0.082389598411975587 0 5.6486304798136858e-05 0.082495670511756714 0 -5.2975631430150396e-06 0.082680272625463555 0 0.00010835359640300093 0.082343193569079293 0 9.9830783837841433e-05 0.082309377907238301 0 8.3691344000593224e-05 0.082389598411975587 0 0.00010835359640300093 0.082343193569079293 0 8.3691344000593224e-05 0.082389598411975587 0 5.6486304798136858e-05 0.082495670511756714 0 0.00010835359640300093 0.082343193569079293 0 0.00010712311779169717 0.082462145095240441 0 5.6486304798136858e-05 0.082495670511756714 0 -2.9384969481095286e-05 0.083109472712546248 0 -0.00013037646820037287 0.082667006899872289 0 -3.4194156247308808e-06 0.082985724364615918 0 -3.4194156247308808e-06 0.082985724364615918 0 -0.00013450678234907084 0.082799893408787711 0 -9.7071950525943646e-05 0.083000279822519937 0 -3.9264500957186211e-05 0.083197152949060937 0 -3.4194156247308808e-06 0.082985724364615918 0 -9.7071950525943646e-05 0.083000279822519937 0 -2.9384969481095286e-05 0.083109472712546248 0 -3.9264500957186211e-05 0.083197152949060937 0 -3.4194156247308808e-06 0.082985724364615918 0 -5.1966380020819111e-05 0.082570114874478281 0 -0.00013947293704314834 0.082619036916238883 0 0.00010712311779169717 0.082462145095240441 0 5.6486304798136858e-05 0.082495670511756714 0 -2.1412757718675013e-05 0.082637434712760305 0 0.00010712311779169717 0.082462145095240441 0 -2.1412757718675013e-05 0.082637434712760305 0 -0.00013450678234907084 0.082799893408787711 0 -0.00013450678234907084 0.082799893408787711 0 -0.00028243740401083029 0.082873061021262628 0 8.0621411825579443e-05 0.082594107339182585 0 -9.4106447870765211e-05 0.084096656814382956 0 -4.3802329921037083e-05 0.084159416286395533 0 -2.1412757718675013e-05 0.082637434712760305 0 -0.00013450678234907084 0.082799893408787711 0 8.0621411825579443e-05 0.082594107339182585 0 -0.00013450678234907084 0.082799893408787711 0 -9.7071950525943646e-05 0.083000279822519937 0 -0.00028243740401083029 0.082873061021262628 0 -0.0002145220883921182 0.083206253415455525 0 -9.7071950525943646e-05 0.083000279822519937 0 -0.00028243740401083029 0.082873061021262628 0 -3.9264500957186211e-05 0.083197152949060937 0 -0.0002145220883921182 0.083206253415455525 0 -9.7071950525943646e-05 0.083000279822519937 0 -0.00051568473737954466 0.083485788210533554 0 -0.0002145220883921182 0.083206253415455525 0 -0.00028243740401083029 0.082873061021262628 0 -0.00014516976395151222 0.084207807350884706 0 -9.4106447870765211e-05 0.084096656814382956 0 1.0935989865129389e-09 0.085000138626640923 0 -1.1946620693270707e-05 0.085004359864335952 0 -1.3611301250597278e-08 0.084999973337097148 0 -1.3611301250597278e-08 0.084999973337097148 0 -4.4738081352270876e-06 0.085001684534346131 0 8.5932305410014599e-11 0.085000015512510102 0 -1.1946620693270707e-05 0.085004359864335952 0 -4.4738081352270876e-06 0.085001684534346131 0 -9.1069640809131938e-07 0.084999620916183113 0 -1.1946620693270707e-05 0.085004359864335952 0 -1.3611301250597278e-08 0.084999973337097148 0 -4.4738081352270876e-06 0.085001684534346131 0 -4.4738081352270876e-06 0.085001684534346131 0 -9.1069640809131938e-07 0.084999620916183113 0 8.5932305410014599e-11 0.085000015512510102 0 5.6486304798136858e-05 0.082495670511756714 0 -2.1412757718675013e-05 0.082637434712760305 0 -5.2975631430150396e-06 0.082680272625463555 0 -2.1412757718675013e-05 0.082637434712760305 0 -5.2975631430150396e-06 0.082680272625463555 0 8.0621411825579443e-05 0.082594107339182585 0 -0.00044172243611445615 0.083317414034353804 0 -5.2975631430150396e-06 0.082680272625463555 0 -7.3119827136305522e-05 0.083188145308768585 0 8.0621411825579443e-05 0.082594107339182585 0 -7.3119827136305522e-05 0.083188145308768585 0 -6.3850087638235129e-06 0.083377311984754857 0 -5.2975631430150396e-06 0.082680272625463555 0 8.0621411825579443e-05 0.082594107339182585 0 -7.3119827136305522e-05 0.083188145308768585 0 -0.00072758002748877658 0.083857540755310683 0 -0.00022031208010646127 0.083558808891953287 0 0.00010622369918513088 0.083863556948853515 0 8.0621411825579443e-05 0.082594107339182585 0 -6.3850087638235129e-06 0.083377311984754857 0 0.00010622369918513088 0.083863556948853515 0 -4.3802329921037083e-05 0.084159416286395533 0 -7.307821788851121e-05 0.084616506816858825 0 -0.00044172243611445615 0.083317414034353804 0 -7.3119827136305522e-05 0.083188145308768585 0 -0.00022031208010646127 0.083558808891953287 0 -6.3850087638235129e-06 0.083377311984754857 0 -0.00022031208010646127 0.083558808891953287 0 0.00010622369918513088 0.083863556948853515 0 -7.3119827136305522e-05 0.083188145308768585 0 -6.3850087638235129e-06 0.083377311984754857 0 -0.00022031208010646127 0.083558808891953287 0 -7.307821788851121e-05 0.084616506816858825 0 -7.3818138112139838e-05 0.084618797831301523 0 -6.5297276655241286e-05 0.084904625698831712 0 -0.00012748752268742353 0.084830068386709173 0 -0.00015534764082865583 0.084769984376968352 0 -0.00012748752268742353 0.084830068386709173 0 -0.00015534764082865583 0.084769984376968352 0 -0.00017036780945561968 0.084729034599468567 0 -4.4244898479678825e-08 0.084999821874275377 0 -6.5297276655241286e-05 0.084904625698831712 0 -1.8588282494297489e-08 0.084999830199228313 0 -7.307821788851121e-05 0.084616506816858825 0 -3.0408439798977321e-07 0.08499938627358361 0 -9.1069640809131938e-07 0.084999620916183113 0 4.2584098291314745e-08 0.084998539677837368 0 8.5932305410014599e-11 0.085000015512510102 0 -6.5297276655241286e-05 0.084904625698831712 0 -0.00015534764082865583 0.084769984376968352 0 -1.8588282494297489e-08 0.084999830199228313 0 0.00097822280327311225 0.075174731559556326 0 0.00074302264248709844 0.075962330026157515 0 0.0013227047738168358 0.07566746119990489 0 0.00097822280327311225 0.075174731559556326 0 0.0016046027393688165 0.075186124929569068 0 0.0013311922592754875 0.074760028946288623 0 0.00097822280327311225 0.075174731559556326 0 0.0013227047738168358 0.07566746119990489 0 0.0016046027393688165 0.075186124929569068 0 0.00097822280327311225 0.075174731559556326 0 0.00039514865316217241 0.075321125580990841 0 0.00074302264248709844 0.075962330026157515 0 0.00097822280327311225 0.075174731559556326 0 0.00039514865316217241 0.075321125580990841 0 0.00041350792509895482 0.074798508673621728 0 0.00074302264248709844 0.075962330026157515 0 0.0013227047738168358 0.07566746119990489 0 0.001362384330804018 0.076278523193033118 0 0.0013227047738168358 0.07566746119990489 0 0.0018442362093389426 0.07590815625795494 0 0.001362384330804018 0.076278523193033118 0 0.0018442362093389426 0.07590815625795494 0 0.0016891530683611148 0.075537048820435465 0 0.0019601737692033746 0.075384449111204468 0 0.0013227047738168358 0.07566746119990489 0 0.0018442362093389426 0.07590815625795494 0 0.0016891530683611148 0.075537048820435465 0 0.0018442362093389426 0.07590815625795494 0 0.0021187438856067669 0.075639679127328344 0 0.0019601737692033746 0.075384449111204468 0 0.0021187438856067669 0.075639679127328344 0 0.0022255188251780107 0.075776065165153672 0 0.002309774842501684 0.075546491388094536 0 0.0018442362093389426 0.07590815625795494 0 0.0021187438856067669 0.075639679127328344 0 0.0020742674581235927 0.075909373618524498 0 0.0021187438856067669 0.075639679127328344 0 0.0022255188251780107 0.075776065165153672 0 0.0020742674581235927 0.075909373618524498 0 0.0021187438856067669 0.075639679127328344 0 0.0022366675547562435 0.075359539164491979 0 0.0019601737692033746 0.075384449111204468 0 0.0021187438856067669 0.075639679127328344 0 0.0022366675547562435 0.075359539164491979 0 0.002309774842501684 0.075546491388094536 0 0.0022366675547562435 0.075359539164491979 0 0.0019601737692033746 0.075384449111204468 0 0.0021803478909769984 0.075084593995737026 0 0.0019601737692033746 0.075384449111204468 0 0.0021803478909769984 0.075084593995737026 0 0.0019551756327005078 0.07495936271263566 0 0.0013227047738168358 0.07566746119990489 0 0.0016891530683611148 0.075537048820435465 0 0.0016046027393688165 0.075186124929569068 0 0.0016891530683611148 0.075537048820435465 0 0.0019601737692033746 0.075384449111204468 0 0.0016046027393688165 0.075186124929569068 0 0.0019601737692033746 0.075384449111204468 0 0.0016046027393688165 0.075186124929569068 0 0.0019551756327005078 0.07495936271263566 0 0.0016046027393688165 0.075186124929569068 0 0.0016955620219354598 0.074768131032957583 0 0.0013311922592754875 0.074760028946288623 0 0.0016046027393688165 0.075186124929569068 0 0.0016955620219354598 0.074768131032957583 0 0.0019551756327005078 0.07495936271263566 0 0.0016955620219354598 0.074768131032957583 0 0.0019754546163330078 0.074513803059548536 0 0.0015669762915954367 0.074418613410294279 0 0.0016955620219354598 0.074768131032957583 0 0.0015669762915954367 0.074418613410294279 0 0.0013311922592754875 0.074760028946288623 0 0.0021803478909769984 0.075084593995737026 0 0.0021417802395106589 0.074808164280126502 0 0.0019551756327005078 0.07495936271263566 0 0.0016955620219354598 0.074768131032957583 0 0.0019551756327005078 0.07495936271263566 0 0.0019754546163330078 0.074513803059548536 0 0.0021417802395106589 0.074808164280126502 0 0.0019551756327005078 0.07495936271263566 0 0.0019754546163330078 0.074513803059548536 0 0.0021417802395106589 0.074808164280126502 0 0.0019754546163330078 0.074513803059548536 0 0.0022118463640566867 0.074537645116347209 0 0.0016742396944914679 0.074021029487427878 0 0.0019754546163330078 0.074513803059548536 0 0.0021910196971192367 0.074296746124708046 0 0.0019754546163330078 0.074513803059548536 0 0.0021910196971192367 0.074296746124708046 0 0.0022118463640566867 0.074537645116347209 0 0.00039325335920161033 0.072922996100125342 0 0.00096130249235950433 0.073768109318570044 0 0.001739075957583 0.073788490189855546 0 0.0019754546163330078 0.074513803059548536 0 0.0016789811402721877 0.074196082796411239 0 0.0019754546163330078 0.074513803059548536 0 0.0015669762915954367 0.074418613410294279 0 0.0016789811402721877 0.074196082796411239 0 0.0015669762915954367 0.074418613410294279 0 0.0016789811402721877 0.074196082796411239 0 0.0014130026229475785 0.074050752912156209 0 0.001739075957583 0.073788490189855546 0 0.0016789811402721877 0.074196082796411239 0 0.0014130026229475785 0.074050752912156209 0 0.0014130026229475785 0.074050752912156209 0 0.0010668622380078545 0.074003297346852903 0 0.0011673316130556008 0.074350411680860429 0 0.0010668622380078545 0.074003297346852903 0 0.0011673316130556008 0.074350411680860429 0 0.00074184809988359828 0.074141696638183208 0 0.0011673316130556008 0.074350411680860429 0 0.00083652206967822643 0.074606997989574958 0 0.00074184809988359828 0.074141696638183208 0 0.0015669762915954367 0.074418613410294279 0 0.0014130026229475785 0.074050752912156209 0 0.0011673316130556008 0.074350411680860429 0 0.0015669762915954367 0.074418613410294279 0 0.0011673316130556008 0.074350411680860429 0 0.0013311922592754875 0.074760028946288623 0 0.00097822280327311225 0.075174731559556326 0 0.0013311922592754875 0.074760028946288623 0 0.00083652206967822643 0.074606997989574958 0 0.0011673316130556008 0.074350411680860429 0 0.0013311922592754875 0.074760028946288623 0 0.00083652206967822643 0.074606997989574958 0 0.00097822280327311225 0.075174731559556326 0 0.00041350792509895482 0.074798508673621728 0 0.00083652206967822643 0.074606997989574958 0 0.00041350792509895482 0.074798508673621728 0 0.00083652206967822643 0.074606997989574958 0 0.00039297454476512904 0.07435145352126897 0 0.00083652206967822643 0.074606997989574958 0 0.00039297454476512904 0.07435145352126897 0 0.00074184809988359828 0.074141696638183208 0 0.00032510802301272324 0.073904756661689219 0 0.00039297454476512904 0.07435145352126897 0 0.00074184809988359828 0.074141696638183208 0 0.00032510802301272324 0.073904756661689219 0 0.00039297454476512904 0.07435145352126897 0 -3.6960330103724166e-05 0.074145968207409832 0 0.00039297454476512904 0.07435145352126897 0 -3.6960330103724166e-05 0.074145968207409832 0 7.8422768383594791e-05 0.074524368054427234 0 -3.6960330103724166e-05 0.074145968207409832 0 -0.00030999758151875986 0.074479584375912636 0 7.8422768383594791e-05 0.074524368054427234 0 -3.6960330103724166e-05 0.074145968207409832 0 -0.00029110557253268939 0.074227367841549513 0 -0.00030999758151875986 0.074479584375912636 0 -3.6960330103724166e-05 0.074145968207409832 0 -0.00032434460416095825 0.074035095198204851 0 -0.00029110557253268939 0.074227367841549513 0 -0.00012151808364768867 0.073709847528472552 0 -3.6960330103724166e-05 0.074145968207409832 0 -0.00032434460416095825 0.074035095198204851 0 -0.00053358573539078998 0.073775748636520991 0 -0.00032434460416095825 0.074035095198204851 0 -0.00056684060183899735 0.074257843426270745 0 -0.00032434460416095825 0.074035095198204851 0 -0.00056684060183899735 0.074257843426270745 0 -0.00048947962984434662 0.074249429684232399 0 -0.00032434460416095825 0.074035095198204851 0 -0.00029110557253268939 0.074227367841549513 0 -0.00048947962984434662 0.074249429684232399 0 0.00033712355513878069 0.076907246779314486 0 0.00036740185426483801 0.07803202538300659 0 -0.00053358573539078998 0.073775748636520991 0 -0.00055798477775973355 0.074299033055186911 0 -0.001031342606317453 0.074015048408258802 0 0.00036740185426483801 0.07803202538300659 0 0.00036162144877313477 0.078023898619596369 0 -0.00029110557253268939 0.074227367841549513 0 -0.00048947962984434662 0.074249429684232399 0 -0.00030999758151875986 0.074479584375912636 0 -0.00057306804963156051 0.074254320030193763 0 -0.00048947962984434662 0.074249429684232399 0 -0.00030999758151875986 0.074479584375912636 0 0.00036740185426483801 0.07803202538300659 0 -0.00037868905242231451 0.079065726757983817 0 -0.00057306804963156051 0.074254320030193763 0 -0.00030999758151875986 0.074479584375912636 0 -0.00071116948887501978 0.075080861614395714 0 -0.00030999758151875986 0.074479584375912636 0 -0.00011346054281796877 0.074941598433235099 0 -0.00071116948887501978 0.075080861614395714 0 -0.0014062489738140905 0.083959432584074289 0 -0.0011013096122689319 0.083648843595458516 0 -0.0013982189573346585 0.083420847510476653 0 0.00039514865316217241 0.075321125580990841 0 0.00041350792509895482 0.074798508673621728 0 -0.00011346054281796877 0.074941598433235099 0 0.00041350792509895482 0.074798508673621728 0 0.00039297454476512904 0.07435145352126897 0 7.8422768383594791e-05 0.074524368054427234 0 0.00041350792509895482 0.074798508673621728 0 -0.00011346054281796877 0.074941598433235099 0 7.8422768383594791e-05 0.074524368054427234 0 -0.00030999758151875986 0.074479584375912636 0 -0.00011346054281796877 0.074941598433235099 0 7.8422768383594791e-05 0.074524368054427234 0 -0.0014400471391294958 0.073884419880519719 0 -0.002159904203591201 0.073956522006110914 0 -0.001445831920367052 0.074377712566408863 0 -0.00055798477775973355 0.074299033055186911 0 -0.001445831920367052 0.074377712566408863 0 -0.001031342606317453 0.074015048408258802 0 0.00036740185426483801 0.07803202538300659 0 -0.00087746800179471754 0.079472847317124826 0 -0.0014062489738140905 0.083959432584074289 0 -0.00081478960387401363 0.083908152152733964 0 -0.0011013096122689319 0.083648843595458516 0 -0.0014400471391294958 0.073884419880519719 0 -0.001445831920367052 0.074377712566408863 0 -0.001031342606317453 0.074015048408258802 0 -0.00025359196781408945 0.083848284394370975 0 -0.00081478960387401363 0.083908152152733964 0 -0.00075947365853780316 0.083521311472822074 0 -0.00081478960387401363 0.083908152152733964 0 -0.0011013096122689319 0.083648843595458516 0 -0.00075947365853780316 0.083521311472822074 0 -0.00038908055754335272 0.083412373247125596 0 -0.00075947365853780316 0.083521311472822074 0 -0.00057466748108023799 0.083045311620458306 0 -0.00075947365853780316 0.083521311472822074 0 -0.0010086642523416767 0.083178344561207193 0 -0.00057466748108023799 0.083045311620458306 0 -0.0011013096122689319 0.083648843595458516 0 -0.00075947365853780316 0.083521311472822074 0 -0.0010086642523416767 0.083178344561207193 0 -0.0010086642523416767 0.083178344561207193 0 -0.0013982189573346585 0.083420847510476653 0 -0.0014219473999556721 0.082795711445675504 0 -0.0011013096122689319 0.083648843595458516 0 -0.0010086642523416767 0.083178344561207193 0 -0.0013982189573346585 0.083420847510476653 0 -0.0010086642523416767 0.083178344561207193 0 -0.0014219473999556721 0.082795711445675504 0 -0.00080414007170257645 0.082447756679478137 0 -0.0010086642523416767 0.083178344561207193 0 -0.00057466748108023799 0.083045311620458306 0 -0.00080414007170257645 0.082447756679478137 0 -0.00043964999712469582 0.082588678842374197 0 -0.00057466748108023799 0.083045311620458306 0 -0.00080414007170257645 0.082447756679478137 0 0.00039514865316217241 0.075321125580990841 0 -0.00011346054281796877 0.074941598433235099 0 -0.00012546485657500823 0.075655858657350181 0 -0.00071116948887501978 0.075080861614395714 0 -0.00094353600635101967 0.076089398566622418 0 -0.00012546485657500823 0.075655858657350181 0 -0.00037868905242231451 0.079065726757983817 0 -0.00076430715634220794 0.07946864834768437 0 -0.00011346054281796877 0.074941598433235099 0 -0.00071116948887501978 0.075080861614395714 0 -0.00012546485657500823 0.075655858657350181 0 -0.00094353600635101967 0.076089398566622418 0 -0.00012546485657500823 0.075655858657350181 0 -2.9957626516954264e-05 0.076876929846892914 0 0.00074302264248709844 0.075962330026157515 0 -0.00012546485657500823 0.075655858657350181 0 -2.9957626516954264e-05 0.076876929846892914 0 0.00039514865316217241 0.075321125580990841 0 0.00074302264248709844 0.075962330026157515 0 -0.00012546485657500823 0.075655858657350181 0 -0.00076430715634220794 0.07946864834768437 0 -0.00094061305220603862 0.079752228495965319 0 -0.00094353600635101967 0.076089398566622418 0 -2.9957626516954264e-05 0.076876929846892914 0 -0.0012274735039411594 0.077529957675048333 0 -2.9957626516954264e-05 0.076876929846892914 0 -0.00031704384759006371 0.078426539568678622 0 -0.0012274735039411594 0.077529957675048333 0 -0.00031704384759006371 0.078426539568678622 0 -0.0012274735039411594 0.077529957675048333 0 -0.00093436425799509548 0.080236640015756214 0 -0.00094061305220603862 0.079752228495965319 0 -0.00097033845585277833 0.079923297826043571 0 -2.9957626516954264e-05 0.076876929846892914 0 -0.00031704384759006371 0.078426539568678622 0 0.00034029597154206859 0.07798578012157148 0 -2.9957626516954264e-05 0.076876929846892914 0 0.00034029597154206859 0.07798578012157148 0 0.00084746789270927182 0.076968338380120391 0 -0.00043964999712469582 0.082588678842374197 0 -0.00080414007170257645 0.082447756679478137 0 -0.00044612275633348377 0.081826116802014778 0 -0.0014219473999556721 0.082795711445675504 0 -0.0014120240441123743 0.081936902729442082 0 -0.00080414007170257645 0.082447756679478137 0 -0.0014120240441123743 0.081936902729442082 0 -0.00072562310762080983 0.081384484947655461 0 -0.00093436425799509548 0.080236640015756214 0 -0.0014120240441123743 0.081936902729442082 0 -0.00080414007170257645 0.082447756679478137 0 -0.00072562310762080983 0.081384484947655461 0 -0.00080414007170257645 0.082447756679478137 0 -0.00072562310762080983 0.081384484947655461 0 -0.00044612275633348377 0.081826116802014778 0 -0.00023534289179297777 0.081765229292746627 0 -0.00044612275633348377 0.081826116802014778 0 -0.00043287299579889988 0.08124963215015979 0 -0.00072562310762080983 0.081384484947655461 0 -0.00044612275633348377 0.081826116802014778 0 -0.00043287299579889988 0.08124963215015979 0 -0.00072562310762080983 0.081384484947655461 0 -0.00043287299579889988 0.08124963215015979 0 -0.00093436425799509548 0.080236640015756214 0 -0.00038997339422252285 0.081189702470440162 0 -0.00043287299579889988 0.08124963215015979 0 -0.00093436425799509548 0.080236640015756214 0 -0.00015419200100025353 0.080664488871423079 0 -0.00038997339422252285 0.081189702470440162 0 -0.00093436425799509548 0.080236640015756214 0 -0.00038997339422252285 0.081189702470440162 0 -0.00027964025427409744 0.081803610648470623 0 -0.00043287299579889988 0.08124963215015979 0 0.00034029597154206859 0.07798578012157148 0 -1.1021087433849069e-05 0.079389355595225058 0 0.00090432228687383116 0.078024667959608218 0 -0.00031704384759006371 0.078426539568678622 0 0.00034029597154206859 0.07798578012157148 0 -1.1021087433849069e-05 0.079389355595225058 0 -1.1021087433849069e-05 0.079389355595225058 0 0.0005180870520416855 0.07940940850070087 0 0.00090432228687383116 0.078024667959608218 0 -0.00031704384759006371 0.078426539568678622 0 -1.1021087433849069e-05 0.079389355595225058 0 -0.00093436425799509548 0.080236640015756214 0 -0.00015419200100025353 0.080664488871423079 0 -1.1021087433849069e-05 0.079389355595225058 0 -0.00093436425799509548 0.080236640015756214 0 -0.00015419200100025353 0.080664488871423079 0 -1.1021087433849069e-05 0.079389355595225058 0 0.0005180870520416855 0.07940940850070087 0 0.00052100761646139688 0.080371705033298185 0 0.0005180870520416855 0.07940940850070087 0 0.00093685492937298502 0.07948041185009401 0 0.0005180870520416855 0.07940940850070087 0 0.00093685492937298502 0.07948041185009401 0 0.0012912412458703281 0.078293204577229339 0 0.00093685492937298502 0.07948041185009401 0 0.0015613515139822477 0.078689331170876231 0 0.0012912412458703281 0.078293204577229339 0 0.0012904745299782857 0.079934092081972066 0 0.00093685492937298502 0.07948041185009401 0 0.0015613515139822477 0.078689331170876231 0 0.0015613515139822477 0.078689331170876231 0 0.0012912412458703281 0.078293204577229339 0 0.0018970085175265138 0.077658316885808487 0 0.0012912412458703281 0.078293204577229339 0 0.0015783970076152668 0.077469876346448141 0 0.00090432228687383116 0.078024667959608218 0 0.0012912412458703281 0.078293204577229339 0 0.0015783970076152668 0.077469876346448141 0 0.0018970085175265138 0.077658316885808487 0 0.0005180870520416855 0.07940940850070087 0 0.0012912412458703281 0.078293204577229339 0 0.00090432228687383116 0.078024667959608218 0 0.00034029597154206859 0.07798578012157148 0 0.00090432228687383116 0.078024667959608218 0 0.00084746789270927182 0.076968338380120391 0 0.00090432228687383116 0.078024667959608218 0 0.0014361532502948731 0.076950749639723079 0 0.00084746789270927182 0.076968338380120391 0 0.0015783970076152668 0.077469876346448141 0 0.00090432228687383116 0.078024667959608218 0 0.0014361532502948731 0.076950749639723079 0 0.0015783970076152668 0.077469876346448141 0 0.0014361532502948731 0.076950749639723079 0 0.0017758951846644443 0.076908761450852528 0 0.0014361532502948731 0.076950749639723079 0 0.001741936988220656 0.076407988334443608 0 0.0017758951846644443 0.076908761450852528 0 0.0014361532502948731 0.076950749639723079 0 0.001362384330804018 0.076278523193033118 0 0.001741936988220656 0.076407988334443608 0 0.0014361532502948731 0.076950749639723079 0 0.001362384330804018 0.076278523193033118 0 0.00084746789270927182 0.076968338380120391 0 0.00074302264248709844 0.075962330026157515 0 0.001362384330804018 0.076278523193033118 0 0.00084746789270927182 0.076968338380120391 0 0.00074302264248709844 0.075962330026157515 0 -2.9957626516954264e-05 0.076876929846892914 0 0.00084746789270927182 0.076968338380120391 0 0.0021574787951921743 0.076028519516797941 0 0.0021125990130448418 0.07633152567162986 0 0.0022276853465858486 0.076114575521731287 0 0.0021574787951921743 0.076028519516797941 0 0.0019923704456585012 0.076193491704528715 0 0.0021125990130448418 0.07633152567162986 0 0.0021574787951921743 0.076028519516797941 0 0.0022276853465858486 0.076114575521731287 0 0.0022908118812392671 0.075865358766114582 0 0.0021574787951921743 0.076028519516797941 0 0.0022255188251780107 0.075776065165153672 0 0.0022908118812392671 0.075865358766114582 0 0.0021574787951921743 0.076028519516797941 0 0.0020742674581235927 0.075909373618524498 0 0.0019923704456585012 0.076193491704528715 0 0.0021574787951921743 0.076028519516797941 0 0.0022255188251780107 0.075776065165153672 0 0.0020742674581235927 0.075909373618524498 0 0.0018442362093389426 0.07590815625795494 0 0.0020742674581235927 0.075909373618524498 0 0.0019923704456585012 0.076193491704528715 0 0.0018442362093389426 0.07590815625795494 0 0.001362384330804018 0.076278523193033118 0 0.001741936988220656 0.076407988334443608 0 0.0018442362093389426 0.07590815625795494 0 0.001741936988220656 0.076407988334443608 0 0.0019923704456585012 0.076193491704528715 0 0.0019923704456585012 0.076193491704528715 0 0.0019386313137607278 0.076542060955004348 0 0.0021125990130448418 0.07633152567162986 0 0.001741936988220656 0.076407988334443608 0 0.0019923704456585012 0.076193491704528715 0 0.0019386313137607278 0.076542060955004348 0 0.0019386313137607278 0.076542060955004348 0 0.0021412746794326116 0.076717340294420511 0 0.0021125990130448418 0.07633152567162986 0 0.001741936988220656 0.076407988334443608 0 0.0019386313137607278 0.076542060955004348 0 0.0017758951846644443 0.076908761450852528 0 0.0019386313137607278 0.076542060955004348 0 0.0017758951846644443 0.076908761450852528 0 0.0019769415106433794 0.077078615445525037 0 0.0015783970076152668 0.077469876346448141 0 0.0017758951846644443 0.076908761450852528 0 0.0019769415106433794 0.077078615445525037 0 0.0019386313137607278 0.076542060955004348 0 0.0021412746794326116 0.076717340294420511 0 0.0019769415106433794 0.077078615445525037 0 0.0021834731289720162 0.076399675806351444 0 0.0021412746794326116 0.076717340294420511 0 0.0021125990130448418 0.07633152567162986 0 0.0021834731289720162 0.076399675806351444 0 0.0021412746794326116 0.076717340294420511 0 0.0022212982050537726 0.076327315227415385 0 0.0021834731289720162 0.076399675806351444 0 0.0021125990130448418 0.07633152567162986 0 0.0022276853465858486 0.076114575521731287 0 0.0022276853465858486 0.076114575521731287 0 0.0022212982050537726 0.076327315227415385 0 0.0023008246911350194 0.075929366397683384 0 0.0021834731289720162 0.076399675806351444 0 0.0022276853465858486 0.076114575521731287 0 0.0022212982050537726 0.076327315227415385 0 0.0021412746794326116 0.076717340294420511 0 0.0021748363427764399 0.076820499928905078 0 0.0021972774227123418 0.07726539774911044 0 0.0021412746794326116 0.076717340294420511 0 0.0022212982050537726 0.076327315227415385 0 0.0021748363427764399 0.076820499928905078 0 0.0022212982050537726 0.076327315227415385 0 0.0021748363427764399 0.076820499928905078 0 0.0021511436702399381 0.076486579889110728 0 0.0015783970076152668 0.077469876346448141 0 0.0019769415106433794 0.077078615445525037 0 0.0018970085175265138 0.077658316885808487 0 0.0021412746794326116 0.076717340294420511 0 0.0019769415106433794 0.077078615445525037 0 0.0021972774227123418 0.07726539774911044 0 0.0021972774227123418 0.07726539774911044 0 0.0018970085175265138 0.077658316885808487 0 0.0023232971323676709 0.077682680134657484 0 0.0019769415106433794 0.077078615445525037 0 0.0021972774227123418 0.07726539774911044 0 0.0018970085175265138 0.077658316885808487 0 0.0023351306357747965 0.075883241555972702 0 0.0023232971323676709 0.077682680134657484 0 0.0021452967399233614 0.076913002784545451 0 0.0015613515139822477 0.078689331170876231 0 0.0018970085175265138 0.077658316885808487 0 0.0023232971323676709 0.077682680134657484 0 0.0021972774227123418 0.07726539774911044 0 0.0023232971323676709 0.077682680134657484 0 0.0021452967399233614 0.076913002784545451 0 0.0020171107741080207 0.079337029692546981 0 0.0015613515139822477 0.078689331170876231 0 0.0023232971323676709 0.077682680134657484 0 0.0021511436702399381 0.076486579889110728 0 0.0021452967399233614 0.076913002784545451 0 0.0020971864648326143 0.076385357077647084 0 0.0021748363427764399 0.076820499928905078 0 0.0021972774227123418 0.07726539774911044 0 0.0021452967399233614 0.076913002784545451 0 0.0021748363427764399 0.076820499928905078 0 0.0021511436702399381 0.076486579889110728 0 0.0021452967399233614 0.076913002784545451 0 0.0021077896957280599 0.076382309290534828 0 0.0021452967399233614 0.076913002784545451 0 0.0020971864648326143 0.076385357077647084 0 0.0021077896957280599 0.076382309290534828 0 0.0020603827537233202 0.076175280088283712 0 0.0020971864648326143 0.076385357077647084 0 0.0020971864648326143 0.076385357077647084 0 0.0020510193796658164 0.076126392964785045 0 0.002100745627250082 0.07610623231095362 0 0.0020603827537233202 0.076175280088283712 0 0.0020971864648326143 0.076385357077647084 0 0.0020510193796658164 0.076126392964785045 0 0.0021511436702399381 0.076486579889110728 0 0.0020971864648326143 0.076385357077647084 0 0.002100745627250082 0.07610623231095362 0 0.002100745627250082 0.07610623231095362 0 0.002087168353054455 0.07568861322771854 0 0.0021710371534558468 0.075863481439395197 0 0.0020510193796658164 0.076126392964785045 0 0.002100745627250082 0.07610623231095362 0 0.002022991346002844 0.075893628259476403 0 0.0020319981410481724 0.075623154136514589 0 0.002087168353054455 0.07568861322771854 0 0.0021154624059776931 0.075199617829588034 0 0.0020319981410481724 0.075623154136514589 0 0.002022991346002844 0.075893628259476403 0 0.002087168353054455 0.07568861322771854 0 0.002087168353054455 0.07568861322771854 0 0.0021845185202809133 0.075397143902301414 0 0.0021154624059776931 0.075199617829588034 0 0.002100745627250082 0.07610623231095362 0 0.002022991346002844 0.075893628259476403 0 0.002087168353054455 0.07568861322771854 0 0.002087168353054455 0.07568861322771854 0 0.0021845185202809133 0.075397143902301414 0 0.0021710371534558468 0.075863481439395197 0 0.0021845185202809133 0.075397143902301414 0 0.0022494092690653455 0.075616325187360667 0 0.0023372629453667728 0.075344803614708147 0 0.0021845185202809133 0.075397143902301414 0 0.0022494092690653455 0.075616325187360667 0 0.0021710371534558468 0.075863481439395197 0 0.0022494092690653455 0.075616325187360667 0 0.0021710371534558468 0.075863481439395197 0 0.002260252758633625 0.075943766322184372 0 0.0021857912389414954 0.076166408561775117 0 0.0021710371534558468 0.075863481439395197 0 0.002260252758633625 0.075943766322184372 0 0.0022212982050537726 0.076327315227415385 0 0.0021857912389414954 0.076166408561775117 0 0.002260252758633625 0.075943766322184372 0 0.0022212982050537726 0.076327315227415385 0 0.0021511436702399381 0.076486579889110728 0 0.0021857912389414954 0.076166408561775117 0 0.0021511436702399381 0.076486579889110728 0 0.002100745627250082 0.07610623231095362 0 0.0021857912389414954 0.076166408561775117 0 0.002100745627250082 0.07610623231095362 0 0.0021857912389414954 0.076166408561775117 0 0.0021710371534558468 0.075863481439395197 0 0.0024146855038545936 0.075416196333669291 0 0.0023305924613310383 0.074867408265202273 0 0.0021154624059776931 0.075199617829588034 0 0.0023305924613310383 0.074867408265202273 0 0.0021154624059776931 0.075199617829588034 0 0.0021883867178367445 0.074698487276617251 0 0.0021845185202809133 0.075397143902301414 0 0.0021154624059776931 0.075199617829588034 0 0.0022886671014450809 0.074818101539612977 0 0.0021154624059776931 0.075199617829588034 0 0.0022886671014450809 0.074818101539612977 0 0.0021883867178367445 0.074698487276617251 0 0.0021845185202809133 0.075397143902301414 0 0.0022886671014450809 0.074818101539612977 0 0.0023372629453667728 0.075344803614708147 0 0.0022886671014450809 0.074818101539612977 0 0.0021883867178367445 0.074698487276617251 0 0.0022124465136821401 0.074042364167332175 0 0.0023305924613310383 0.074867408265202273 0 0.0021883867178367445 0.074698487276617251 0 0.0022124465136821401 0.074042364167332175 0 0.0023305924613310383 0.074867408265202273 0 0.0022124465136821401 0.074042364167332175 0 0.0026297540402517327 0.074359463602492529 0 0.0022124465136821401 0.074042364167332175 0 0.0024173707860104723 0.074401431738227386 0 0.0020600215210907114 0.072702856034660604 0 0.0022886671014450809 0.074818101539612977 0 0.0022124465136821401 0.074042364167332175 0 0.0024173707860104723 0.074401431738227386 0 0.0024173707860104723 0.074401431738227386 0 0.0024009083330798825 0.075040463986036199 0 0.0024673843348517739 0.075038249613633395 0 0.0022886671014450809 0.074818101539612977 0 0.0024173707860104723 0.074401431738227386 0 0.0024009083330798825 0.075040463986036199 0 0.0022886671014450809 0.074818101539612977 0 0.0024009083330798825 0.075040463986036199 0 0.0023372629453667728 0.075344803614708147 0 0.0024009083330798825 0.075040463986036199 0 0.0024673843348517739 0.075038249613633395 0 0.002469552813898756 0.075247329169786353 0 0.002515146708452435 0.075229764683369935 0 0.0024673843348517739 0.075038249613633395 0 0.002469552813898756 0.075247329169786353 0 0.002515146708452435 0.075229764683369935 0 0.0024673843348517739 0.075038249613633395 0 0.002442693305827851 0.075134913223024138 0 0.0024673843348517739 0.075038249613633395 0 0.002321910872450839 0.074874213116537122 0 0.002442693305827851 0.075134913223024138 0 0.0024173707860104723 0.074401431738227386 0 0.002321910872450839 0.074874213116537122 0 0.0017581358440665927 0.074595943749229898 0 0.0024173707860104723 0.074401431738227386 0 0.0024673843348517739 0.075038249613633395 0 0.002321910872450839 0.074874213116537122 0 0.0023373385716270677 0.075700766286063897 0 0.0023008246911350194 0.075929366397683384 0 0.0023869593474949219 0.075661054180396092 0 0.0023373385716270677 0.075700766286063897 0 0.0024027058643360977 0.075479656982995955 0 0.0023869593474949219 0.075661054180396092 0 0.0022212982050537726 0.076327315227415385 0 0.0023008246911350194 0.075929366397683384 0 0.002260252758633625 0.075943766322184372 0 0.0023373385716270677 0.075700766286063897 0 0.0023008246911350194 0.075929366397683384 0 0.002260252758633625 0.075943766322184372 0 0.0022494092690653455 0.075616325187360667 0 0.0023373385716270677 0.075700766286063897 0 0.002260252758633625 0.075943766322184372 0 0.0022494092690653455 0.075616325187360667 0 0.0023373385716270677 0.075700766286063897 0 0.0023372629453667728 0.075344803614708147 0 0.0024009083330798825 0.075040463986036199 0 0.0023372629453667728 0.075344803614708147 0 0.0024027058643360977 0.075479656982995955 0 0.0023373385716270677 0.075700766286063897 0 0.0023372629453667728 0.075344803614708147 0 0.0024027058643360977 0.075479656982995955 0 0.0024027058643360977 0.075479656982995955 0 0.0024751032960272147 0.07542438534409461 0 0.0023869593474949219 0.075661054180396092 0 0.0024027058643360977 0.075479656982995955 0 0.002469552813898756 0.075247329169786353 0 0.0024751032960272147 0.07542438534409461 0 0.0024009083330798825 0.075040463986036199 0 0.0024027058643360977 0.075479656982995955 0 0.002469552813898756 0.075247329169786353 0 0.002515146708452435 0.075229764683369935 0 0.0024751032960272147 0.07542438534409461 0 0.0025224449978866427 0.075323913790264749 0 0.002515146708452435 0.075229764683369935 0 0.002469552813898756 0.075247329169786353 0 0.0024751032960272147 0.07542438534409461 0 0.0024751032960272147 0.07542438534409461 0 0.0024363144444209521 0.075520106278376548 0 0.0023869593474949219 0.075661054180396092 0 0.0024363144444209521 0.075520106278376548 0 0.0023869593474949219 0.075661054180396092 0 0.0023562990304825514 0.075648617753341627 0 0.0022276853465858486 0.076114575521731287 0 0.0023008246911350194 0.075929366397683384 0 0.0022908118812392671 0.075865358766114582 0 0.0023008246911350194 0.075929366397683384 0 0.0023869593474949219 0.075661054180396092 0 0.0022908118812392671 0.075865358766114582 0 0.0022255188251780107 0.075776065165153672 0 0.0022908118812392671 0.075865358766114582 0 0.0023562990304825514 0.075648617753341627 0 0.0023869593474949219 0.075661054180396092 0 0.0022908118812392671 0.075865358766114582 0 0.0023562990304825514 0.075648617753341627 0 0.0022255188251780107 0.075776065165153672 0 0.0023562990304825514 0.075648617753341627 0 0.002309774842501684 0.075546491388094536 0 0.0023562990304825514 0.075648617753341627 0 0.002309774842501684 0.075546491388094536 0 0.0024373327143693015 0.075460797050152753 0 0.0024363144444209521 0.075520106278376548 0 0.0023562990304825514 0.075648617753341627 0 0.0024373327143693015 0.075460797050152753 0 0.0024363144444209521 0.075520106278376548 0 0.0024373327143693015 0.075460797050152753 0 0.002500010834340094 0.075402392614177818 0 0.0024373327143693015 0.075460797050152753 0 0.0024121406076331679 0.075371103123465358 0 0.0025404076622894877 0.075332584751323567 0 0.0022366675547562435 0.075359539164491979 0 0.002309774842501684 0.075546491388094536 0 0.0024121406076331679 0.075371103123465358 0 0.002309774842501684 0.075546491388094536 0 0.0024373327143693015 0.075460797050152753 0 0.0024121406076331679 0.075371103123465358 0 0.0022366675547562435 0.075359539164491979 0 0.0021803478909769984 0.075084593995737026 0 0.0023693502554787971 0.075221682792680364 0 0.0022366675547562435 0.075359539164491979 0 0.0024121406076331679 0.075371103123465358 0 0.0023693502554787971 0.075221682792680364 0 0.0024121406076331679 0.075371103123465358 0 0.0023693502554787971 0.075221682792680364 0 0.0025159341355256229 0.075276771801288639 0 0.0024121406076331679 0.075371103123465358 0 0.0025159341355256229 0.075276771801288639 0 0.0025404076622894877 0.075332584751323567 0 0.0023693502554787971 0.075221682792680364 0 0.002502536904527754 0.075167954950337221 0 0.0023281676379796443 0.075014168017840596 0 0.0023693502554787971 0.075221682792680364 0 0.0025159341355256229 0.075276771801288639 0 0.002502536904527754 0.075167954950337221 0 0.0025159341355256229 0.075276771801288639 0 0.002502536904527754 0.075167954950337221 0 0.0026606054794875481 0.075209145908233813 0 0.002502536904527754 0.075167954950337221 0 0.0026606054794875481 0.075209145908233813 0 0.0025014312201188721 0.075037196521338473 0 0.002502536904527754 0.075167954950337221 0 0.0023281676379796443 0.075014168017840596 0 0.0025014312201188721 0.075037196521338473 0 0.0021803478909769984 0.075084593995737026 0 0.0023693502554787971 0.075221682792680364 0 0.0023281676379796443 0.075014168017840596 0 0.0026399506917866556 0.075245689999407991 0 0.0026832636903006868 0.075224278543975856 0 0.0026606054794875481 0.075209145908233813 0 0.0026399506917866556 0.075245689999407991 0 0.0026832636903006868 0.075224278543975856 0 0.0026078378936089711 0.075255286671344152 0 0.0026832636903006868 0.075224278543975856 0 0.0026078378936089711 0.075255286671344152 0 0.002622769596762805 0.075262263250330891 0 0.0026832636903006868 0.075224278543975856 0 0.002622769596762805 0.075262263250330891 0 0.0026729390243353428 0.075248303167364292 0 0.0026832636903006868 0.075224278543975856 0 0.0026606054794875481 0.075209145908233813 0 0.0028706448798119398 0.075103155496652793 0 0.0026399506917866556 0.075245689999407991 0 0.0026606054794875481 0.075209145908233813 0 0.0026113515601595806 0.075266023641268123 0 0.0025159341355256229 0.075276771801288639 0 0.0026113515601595806 0.075266023641268123 0 0.0025404076622894877 0.075332584751323567 0 0.0025159341355256229 0.075276771801288639 0 0.0026606054794875481 0.075209145908233813 0 0.0026113515601595806 0.075266023641268123 0 0.0026113515601595806 0.075266023641268123 0 0.0025813904610761705 0.075286840324574986 0 0.0025404076622894877 0.075332584751323567 0 0.0026113515601595806 0.075266023641268123 0 0.002592637084496897 0.075261169591001986 0 0.0025813904610761705 0.075286840324574986 0 0.0026399506917866556 0.075245689999407991 0 0.0026113515601595806 0.075266023641268123 0 0.002592637084496897 0.075261169591001986 0 0.0026399506917866556 0.075245689999407991 0 0.002592637084496897 0.075261169591001986 0 0.0026078378936089711 0.075255286671344152 0 0.002592637084496897 0.075261169591001986 0 0.0025813904610761705 0.075286840324574986 0 0.0025508356822827398 0.075254073836178673 0 0.0025501705066477052 0.075316687983355501 0 0.0025224449978866427 0.075323913790264749 0 0.0025508356822827398 0.075254073836178673 0 0.0025813904610761705 0.075286840324574986 0 0.0025501705066477052 0.075316687983355501 0 0.0025508356822827398 0.075254073836178673 0 0.0024373327143693015 0.075460797050152753 0 0.0025404076622894877 0.075332584751323567 0 0.002500010834340094 0.075402392614177818 0 0.0025501705066477052 0.075316687983355501 0 0.0025404076622894877 0.075332584751323567 0 0.002500010834340094 0.075402392614177818 0 0.0025813904610761705 0.075286840324574986 0 0.0025501705066477052 0.075316687983355501 0 0.0025404076622894877 0.075332584751323567 0 0.0024751032960272147 0.07542438534409461 0 0.0024363144444209521 0.075520106278376548 0 0.002500010834340094 0.075402392614177818 0 0.0024751032960272147 0.07542438534409461 0 0.002500010834340094 0.075402392614177818 0 0.0025224449978866427 0.075323913790264749 0 0.0025501705066477052 0.075316687983355501 0 0.002500010834340094 0.075402392614177818 0 0.0025224449978866427 0.075323913790264749 0 0.002515146708452435 0.075229764683369935 0 0.0025224449978866427 0.075323913790264749 0 0.0025508356822827398 0.075254073836178673 0 0.002515146708452435 0.075229764683369935 0 0.002442693305827851 0.075134913223024138 0 0.0025508356822827398 0.075254073836178673 0 0.002442693305827851 0.075134913223024138 0 0.0025508356822827398 0.075254073836178673 0 0.0024895101213322219 0.075236979424255446 0 0.002442693305827851 0.075134913223024138 0 0.0022886714943138619 0.075257568975285544 0 0.0024895101213322219 0.075236979424255446 0 0.002321910872450839 0.074874213116537122 0 0.002442693305827851 0.075134913223024138 0 0.0021791190184754301 0.075039049911075711 0 0.002442693305827851 0.075134913223024138 0 0.0021791190184754301 0.075039049911075711 0 0.0022886714943138619 0.075257568975285544 0 0.0022886714943138619 0.075257568975285544 0 0.002275834201452468 0.075433528726980989 0 0.0019054799891530757 0.075418238984344285 0 0.0022886714943138619 0.075257568975285544 0 0.0025099576974484277 0.075292176625849944 0 0.002275834201452468 0.075433528726980989 0 0.0025099576974484277 0.075292176625849944 0 0.00258291762052874 0.075353702462972738 0 0.002275834201452468 0.075433528726980989 0 0.002592637084496897 0.075261169591001986 0 0.0025508356822827398 0.075254073836178673 0 0.0025561976741575857 0.075255348473607542 0 0.0025561976741575857 0.075255348473607542 0 0.0024895101213322219 0.075236979424255446 0 0.0025099576974484277 0.075292176625849944 0 0.0025508356822827398 0.075254073836178673 0 0.0025561976741575857 0.075255348473607542 0 0.0024895101213322219 0.075236979424255446 0 0.002592637084496897 0.075261169591001986 0 0.0025561976741575857 0.075255348473607542 0 0.0026078378936089711 0.075255286671344152 0 0.0022886714943138619 0.075257568975285544 0 0.0024895101213322219 0.075236979424255446 0 0.0025099576974484277 0.075292176625849944 0 0.0025561976741575857 0.075255348473607542 0 0.0025099576974484277 0.075292176625849944 0 0.0026078378936089711 0.075255286671344152 0 0.0025099576974484277 0.075292176625849944 0 0.0026078378936089711 0.075255286671344152 0 0.002622769596762805 0.075262263250330891 0 0.0025099576974484277 0.075292176625849944 0 0.002622769596762805 0.075262263250330891 0 0.0025793808005296218 0.07529627069241733 0 0.0025099576974484277 0.075292176625849944 0 0.0025793808005296218 0.07529627069241733 0 0.00258291762052874 0.075353702462972738 0 0.002622769596762805 0.075262263250330891 0 0.0026022431143220659 0.075304291197072104 0 0.0026729390243353428 0.075248303167364292 0 0.002622769596762805 0.075262263250330891 0 0.0025793808005296218 0.07529627069241733 0 0.0026022431143220659 0.075304291197072104 0 0.0026022431143220659 0.075304291197072104 0 0.00258291762052874 0.075353702462972738 0 0.0026729390243353428 0.075248303167364292 0 0.0025793808005296218 0.07529627069241733 0 0.0026022431143220659 0.075304291197072104 0 0.00258291762052874 0.075353702462972738 0 -0.00095127557734173227 0.060988626680391997 0 0.0015207510749685779 0.058273494961711164 0 -0.00089451733489773417 0.041651577146286971 0 -0.00062049803846644784 0.041442879111585687 0 -0.00037735444310633807 0.041738871121156068 0 -0.00089451733489773417 0.041651577146286971 0 -0.00081883957067763972 0.041363386314330432 0 -0.0009576936671116177 0.041223589024089506 0 -0.00089451733489773417 0.041651577146286971 0 -0.00062049803846644784 0.041442879111585687 0 -0.00081883957067763972 0.041363386314330432 0 -0.00037735444310633807 0.041738871121156068 0 -0.00034365385724935486 0.041269846603749286 0 1.2741646146245696e-05 0.041448081076206837 0 -0.00062049803846644784 0.041442879111585687 0 -0.00037735444310633807 0.041738871121156068 0 -0.00034365385724935486 0.041269846603749286 0 -0.00034365385724935486 0.041269846603749286 0 -0.00044735084368166669 0.040948501750150586 0 -0.00071822422360500035 0.041131114418784087 0 -0.00062049803846644784 0.041442879111585687 0 -0.00034365385724935486 0.041269846603749286 0 -0.00071822422360500035 0.041131114418784087 0 -0.00034365385724935486 0.041269846603749286 0 -0.00044735084368166669 0.040948501750150586 0 -0.00011831272454653273 0.040890786016900528 0 -0.00081883957067763972 0.041363386314330432 0 -0.00071822422360500035 0.041131114418784087 0 -0.0009576936671116177 0.041223589024089506 0 -0.00062049803846644784 0.041442879111585687 0 -0.00081883957067763972 0.041363386314330432 0 -0.00071822422360500035 0.041131114418784087 0 -0.00071822422360500035 0.041131114418784087 0 -0.0009576936671116177 0.041223589024089506 0 -0.00098607151150087468 0.040892177578143243 0 -0.0009576936671116177 0.041223589024089506 0 -0.0012227086066205729 0.041089776078645293 0 -0.00098607151150087468 0.040892177578143243 0 -0.00089451733489773417 0.041651577146286971 0 -0.0009576936671116177 0.041223589024089506 0 -0.0012227086066205729 0.041089776078645293 0 -5.2995688869706107e-05 0.072172299491796002 0 0.0027481473607049137 0.072446633471309765 0 0.0023912955678179965 0.074425089199866096 0 -0.00071075434179712215 0.070239894741517164 0 -5.2995688869706107e-05 0.072172299491796002 0 0.0027481473607049137 0.072446633471309765 0 0.0021910196971192367 0.074296746124708046 0 0.0023912955678179965 0.074425089199866096 0 0.0022118463640566867 0.074537645116347209 0 0.00084486433078728533 0.07262020568442365 0 0.001446353505414863 0.07326762226263922 0 0.0021417802395106589 0.074808164280126502 0 0.0022118463640566867 0.074537645116347209 0 0.0022987899539834117 0.074734619167034153 0 0.0023912955678179965 0.074425089199866096 0 0.0022118463640566867 0.074537645116347209 0 0.0022987899539834117 0.074734619167034153 0 0.0021417802395106589 0.074808164280126502 0 0.0022987899539834117 0.074734619167034153 0 0.0023281676379796443 0.075014168017840596 0 0.0021803478909769984 0.075084593995737026 0 0.0021417802395106589 0.074808164280126502 0 0.0023281676379796443 0.075014168017840596 0 0.0023912955678179965 0.074425089199866096 0 0.0022987899539834117 0.074734619167034153 0 0.0025014312201188721 0.075037196521338473 0 0.0022987899539834117 0.074734619167034153 0 0.0023281676379796443 0.075014168017840596 0 0.0025014312201188721 0.075037196521338473 0 0.0023912955678179965 0.074425089199866096 0 0.0025014312201188721 0.075037196521338473 0 0.0028706448798119398 0.075103155496652793 0 0.0026606054794875481 0.075209145908233813 0 0.0025014312201188721 0.075037196521338473 0 0.0028706448798119398 0.075103155496652793 0 -0.00095127557734173227 0.060988626680391997 0 -0.00059649382596387609 0.057511582429060772 0 0.004404231075905588 0.075323706968008275 0 0.0027481473607049137 0.072446633471309765 0 0.0023912955678179965 0.074425089199866096 0 0.004404231075905588 0.075323706968008275 0 0.0023912955678179965 0.074425089199866096 0 0.0028706448798119398 0.075103155496652793 0 0.0026832636903006868 0.075224278543975856 0 0.0028706448798119398 0.075103155496652793 0 0.0026729390243353428 0.075248303167364292 0 0.00258291762052874 0.075353702462972738 0 0.0028706448798119398 0.075103155496652793 0 0.0026729390243353428 0.075248303167364292 0 -0.00095127557734173227 0.060988626680391997 0 0.00028989058115335445 0.062119782415458846 0 0.0081122644795035698 0.043630638059542932 0 0.0048691946411935976 0.045065537281179749 0 0.0098945898006728584 0.046862807803201262 0 0.0081122644795035698 0.043630638059542932 0 0.0048691946411935976 0.045065537281179749 0 0.0060221990289995664 0.041669403444648041 0 0.0048691946411935976 0.045065537281179749 0 0.0098945898006728584 0.046862807803201262 0 0.0053671783315323678 0.049214441050669848 0 0.0098945898006728584 0.046862807803201262 0 0.013009107540207987 0.046765772241022498 0 0.014260421772544718 0.050874584413354421 0 0.013009107540207987 0.046765772241022498 0 0.015690674307852887 0.046810270413349418 0 0.014260421772544718 0.050874584413354421 0 0.015690674307852887 0.046810270413349418 0 0.012209612509157522 0.04269848930350835 0 0.01714493633135444 0.041782559504747963 0 0.013009107540207987 0.046765772241022498 0 0.015690674307852887 0.046810270413349418 0 0.012209612509157522 0.04269848930350835 0 0.0098945898006728584 0.046862807803201262 0 0.013009107540207987 0.046765772241022498 0 0.012209612509157522 0.04269848930350835 0 0.0081122644795035698 0.043630638059542932 0 0.0098945898006728584 0.046862807803201262 0 0.012209612509157522 0.04269848930350835 0 0.012209612509157522 0.04269848930350835 0 0.007948311035595278 0.040419573306380539 0 0.01090055021349557 0.036630127871688581 0 0.012209612509157522 0.04269848930350835 0 0.014634193528916326 0.038688857076929775 0 0.01090055021349557 0.036630127871688581 0 0.012209612509157522 0.04269848930350835 0 0.014634193528916326 0.038688857076929775 0 0.01714493633135444 0.041782559504747963 0 0.0064863889524234414 0.038102454158262938 0 0.007948311035595278 0.040419573306380539 0 0.01090055021349557 0.036630127871688581 0 0.0064863889524234414 0.038102454158262938 0 0.007948311035595278 0.040419573306380539 0 0.0056075745131506085 0.039488173664335137 0 0.0081122644795035698 0.043630638059542932 0 0.007948311035595278 0.040419573306380539 0 0.0060221990289995664 0.041669403444648041 0 0.0081122644795035698 0.043630638059542932 0 0.012209612509157522 0.04269848930350835 0 0.007948311035595278 0.040419573306380539 0 0.0048691946411935976 0.045065537281179749 0 0.0060221990289995664 0.041669403444648041 0 0.0041916591506247821 0.039837417909223551 0 0.007948311035595278 0.040419573306380539 0 0.0060221990289995664 0.041669403444648041 0 0.0056075745131506085 0.039488173664335137 0 0.0060221990289995664 0.041669403444648041 0 0.0041916591506247821 0.039837417909223551 0 0.0056075745131506085 0.039488173664335137 0 0.0041916591506247821 0.039837417909223551 0 0.0056075745131506085 0.039488173664335137 0 0.0044699015540698135 0.037520870281943043 0 0.0064863889524234414 0.038102454158262938 0 0.0056075745131506085 0.039488173664335137 0 0.0044699015540698135 0.037520870281943043 0 0.0064863889524234414 0.038102454158262938 0 0.0044699015540698135 0.037520870281943043 0 0.0057432488990700687 0.035683129272615702 0 0.0031364784313159251 0.04189075245875095 0 0.001372404483944372 0.039550790251188128 0 0.0033821291704839215 0.037713219795034142 0 0.0025543161035319092 0.038240033511632451 0 0.0027352638688181818 0.035852201043384893 0 0.0048691946411935976 0.045065537281179749 0 0.00027094160420695754 0.04053392569564053 0 0.00029479141614668274 0.041171791516115115 0 0.0048691946411935976 0.045065537281179749 0 0.0025543161035319092 0.038240033511632451 0 0.00015499290179401726 0.036719715570803453 0 0.0048691946411935976 0.045065537281179749 0 0.0041916591506247821 0.039837417909223551 0 0.0025543161035319092 0.038240033511632451 0 0.0041916591506247821 0.039837417909223551 0 0.0033821291704839215 0.037713219795034142 0 0.0025543161035319092 0.038240033511632451 0 0.0041916591506247821 0.039837417909223551 0 0.0044699015540698135 0.037520870281943043 0 0.0033821291704839215 0.037713219795034142 0 0.0025543161035319092 0.038240033511632451 0 0.00015499290179401726 0.036719715570803453 0 0.0014969102181507299 0.036283757433201599 0 -0.00034365385724935486 0.041269846603749286 0 -0.00011831272454653273 0.040890786016900528 0 -1.6033935748104342e-05 0.041217872435270399 0 0.00029479141614668274 0.041171791516115115 0 -0.00011831272454653273 0.040890786016900528 0 -1.6033935748104342e-05 0.041217872435270399 0 0.00027094160420695754 0.04053392569564053 0 0.00029479141614668274 0.041171791516115115 0 -0.00011831272454653273 0.040890786016900528 0 0.00029479141614668274 0.041171791516115115 0 -1.6033935748104342e-05 0.041217872435270399 0 1.2741646146245696e-05 0.041448081076206837 0 -0.00034365385724935486 0.041269846603749286 0 -1.6033935748104342e-05 0.041217872435270399 0 1.2741646146245696e-05 0.041448081076206837 0 -0.00037735444310633807 0.041738871121156068 0 1.2741646146245696e-05 0.041448081076206837 0 0.00016486174833870351 0.041807558418405444 0 0.0042253779712917777 0.047010025873144394 0 0.0050794375781152579 0.055518502978435358 0 0.0015207510749685779 0.058273494961711164 0 0.0050794375781152579 0.055518502978435358 0 0.00029479141614668274 0.041171791516115115 0 1.2741646146245696e-05 0.041448081076206837 0 0.00016486174833870351 0.041807558418405444 0 0.0048691946411935976 0.045065537281179749 0 -0.00060599614656172676 0.04804331158624997 0 0.0053671783315323678 0.049214441050669848 0 0.0048691946411935976 0.045065537281179749 0 0.00029479141614668274 0.041171791516115115 0 -0.00060599614656172676 0.04804331158624997 0 0.0071267385631397671 0.055064302539691939 0 0.0021707448187012375 0.050371082877035449 0 0.0086780103915290018 0.051025666332740666 0 0.0071267385631397671 0.055064302539691939 0 0.0021707448187012375 0.050371082877035449 0 0.0016067674866148782 0.056923091792324555 0 0.0050794375781152579 0.055518502978435358 0 0.0072950295729408803 0.053733852489045948 0 0.0022886714943138619 0.075257568975285544 0 0.0019054799891530757 0.075418238984344285 0 0.0018831030502182956 0.075122329736188848 0 0.0050794375781152579 0.055518502978435358 0 0.0034369250171678279 0.063829623541965155 0 0.0021791190184754301 0.075039049911075711 0 0.0018831030502182956 0.075122329736188848 0 0.0017581358440665927 0.074595943749229898 0 0.0021791190184754301 0.075039049911075711 0 0.0022886714943138619 0.075257568975285544 0 0.0018831030502182956 0.075122329736188848 0 0.0071267385631397671 0.055064302539691939 0 0.0016067674866148782 0.056923091792324555 0 0.0051077625460650934 0.059769578723953769 0 0.0016067674866148782 0.056923091792324555 0 0.0051077625460650934 0.059769578723953769 0 0.0011736313340336309 0.064145695153660282 0 0.0071267385631397671 0.055064302539691939 0 0.0051077625460650934 0.059769578723953769 0 0.0085209607180663314 0.059213017280862354 0 0.0085209607180663314 0.059213017280862354 0 0.011816370068882125 0.057749792998035128 0 0.010398274905592159 0.055863472600590734 0 0.0085209607180663314 0.059213017280862354 0 0.011816370068882125 0.057749792998035128 0 0.0099938193086606224 0.061715442435442622 0 0.011816370068882125 0.057749792998035128 0 0.010398274905592159 0.055863472600590734 0 0.012624567722336983 0.054346839998967111 0 0.0071267385631397671 0.055064302539691939 0 0.0085209607180663314 0.059213017280862354 0 0.010398274905592159 0.055863472600590734 0 0.0098945898006728584 0.046862807803201262 0 0.0053671783315323678 0.049214441050669848 0 0.014260421772544718 0.050874584413354421 0 0.0071267385631397671 0.055064302539691939 0 0.010689438388405801 0.053203001569614952 0 0.0086780103915290018 0.051025666332740666 0 0.0072950295729408803 0.053733852489045948 0 0.0096423324935266102 0.053373924410549861 0 0.0071267385631397671 0.055064302539691939 0 0.010398274905592159 0.055863472600590734 0 0.010689438388405801 0.053203001569614952 0 0.010689438388405801 0.053203001569614952 0 0.0086780103915290018 0.051025666332740666 0 0.014260421772544718 0.050874584413354421 0 0.010398274905592159 0.055863472600590734 0 0.010689438388405801 0.053203001569614952 0 0.012624567722336983 0.054346839998967111 0 0.015690674307852887 0.046810270413349418 0 0.014260421772544718 0.050874584413354421 0 0.016085453930675574 0.053645750096942224 0 0.010689438388405801 0.053203001569614952 0 0.014260421772544718 0.050874584413354421 0 0.012624567722336983 0.054346839998967111 0 0.014260421772544718 0.050874584413354421 0 0.012624567722336983 0.054346839998967111 0 0.016085453930675574 0.053645750096942224 0 -0.041553551121374592 -0.036127158742622317 0 -0.043275253794073529 -0.030747670854131361 0 -0.046138811683512929 -0.028172543571430526 0 -0.01086005967383614 0.01022258034702672 0 -0.016698964368062355 0.016457051253584504 0 0.011816370068882125 0.057749792998035128 0 0.016085453930675574 0.053645750096942224 0 0.012886953412821908 0.061403036020511365 0 -0.041553551121374592 -0.036127158742622317 0 -0.041610825215575499 -0.031631279676077678 0 -0.043275253794073529 -0.030747670854131361 0 0.011816370068882125 0.057749792998035128 0 0.012624567722336983 0.054346839998967111 0 0.016085453930675574 0.053645750096942224 0 -0.041610825215575499 -0.031631279676077678 0 -0.043275253794073529 -0.030747670854131361 0 -0.043888175911071983 -0.027164316703647294 0 -0.043888175911071983 -0.027164316703647294 0 -0.046138811683512929 -0.028172543571430526 0 -0.04947442919640125 -0.023075329126703792 0 -0.042576199167997479 -0.030205282368762985 0 -0.041072498420617776 -0.02730651454017461 0 -0.037999020319509642 -0.029485878510090165 0 -0.043275253794073529 -0.030747670854131361 0 -0.043888175911071983 -0.027164316703647294 0 -0.046138811683512929 -0.028172543571430526 0 0.011816370068882125 0.057749792998035128 0 0.012886953412821908 0.061403036020511365 0 0.0099938193086606224 0.061715442435442622 0 0.0085209607180663314 0.059213017280862354 0 0.0099938193086606224 0.061715442435442622 0 0.0069518438530705448 0.063792528039517737 0 0.0096780128197859073 0.065482290710146454 0 0.0069518438530705448 0.063792528039517737 0 0.0075732152171582344 0.066980257401437149 0 0.0099938193086606224 0.061715442435442622 0 0.0096780128197859073 0.065482290710146454 0 0.0069518438530705448 0.063792528039517737 0 0.012886953412821908 0.061403036020511365 0 0.0099938193086606224 0.061715442435442622 0 0.0096780128197859073 0.065482290710146454 0 0.012886953412821908 0.061403036020511365 0 0.0096780128197859073 0.065482290710146454 0 0.0088374603812293954 0.070003426594745469 0 -0.046138811683512929 -0.028172543571430526 0 -0.04947442919640125 -0.023075329126703792 0 -0.050282857513118596 -0.022831628688558207 0 -0.042576199167997479 -0.030205282368762985 0 -0.04947442919640125 -0.023075329126703792 0 -0.045724383056116313 -0.024653355205860341 0 -0.042630356994196081 -0.02922109332050099 0 -0.045484317168465883 -0.026412643510047663 0 -0.016698964368062355 0.016457051253584504 0 -0.021935784825561848 0.02158127981062433 0 0.0096780128197859073 0.065482290710146454 0 0.0083394764874271058 0.067870016177272521 0 0.0088374603812293954 0.070003426594745469 0 0.0096780128197859073 0.065482290710146454 0 0.0083394764874271058 0.067870016177272521 0 0.0075732152171582344 0.066980257401437149 0 0.0083394764874271058 0.067870016177272521 0 0.0088374603812293954 0.070003426594745469 0 0.0072840819663564579 0.069009038885776391 0 -0.04947442919640125 -0.023075329126703792 0 -0.047626051127091479 -0.022228309353047766 0 -0.04935683129145782 -0.02160111505189934 0 -0.04947442919640125 -0.023075329126703792 0 -0.050282857513118596 -0.022831628688558207 0 -0.04935683129145782 -0.02160111505189934 0 -0.04947442919640125 -0.023075329126703792 0 -0.047626051127091479 -0.022228309353047766 0 -0.045724383056116313 -0.024653355205860341 0 -0.047626051127091479 -0.022228309353047766 0 -0.045724383056116313 -0.024653355205860341 0 -0.045263875114158532 -0.022070470390274551 0 -0.042576199167997479 -0.030205282368762985 0 -0.045724383056116313 -0.024653355205860341 0 -0.043492145657492667 -0.025542506502047545 0 -0.045724383056116313 -0.024653355205860341 0 -0.043492145657492667 -0.025542506502047545 0 -0.045263875114158532 -0.022070470390274551 0 -0.040438474308616072 -0.023993144608163066 0 -0.043492145657492667 -0.025542506502047545 0 -0.045263875114158532 -0.022070470390274551 0 -0.040438474308616072 -0.023993144608163066 0 -0.041072498420617776 -0.02730651454017461 0 -0.043492145657492667 -0.025542506502047545 0 -0.042576199167997479 -0.030205282368762985 0 -0.041072498420617776 -0.02730651454017461 0 -0.043492145657492667 -0.025542506502047545 0 0.0034369250171678279 0.063829623541965155 0 0.0026858129854854676 0.0678787773686549 0 0.002321910872450839 0.074874213116537122 0 0.0021791190184754301 0.075039049911075711 0 0.0017581358440665927 0.074595943749229898 0 0.0051077625460650934 0.059769578723953769 0 0.0011736313340336309 0.064145695153660282 0 0.0069518438530705448 0.063792528039517737 0 0.0011736313340336309 0.064145695153660282 0 0.0069518438530705448 0.063792528039517737 0 0.0048623067469767732 0.068184708475085176 0 0.0051077625460650934 0.059769578723953769 0 0.0085209607180663314 0.059213017280862354 0 0.0069518438530705448 0.063792528039517737 0 0.0075732152171582344 0.066980257401437149 0 0.0072840819663564579 0.069009038885776391 0 0.0048623067469767732 0.068184708475085176 0 0.0069518438530705448 0.063792528039517737 0 0.0075732152171582344 0.066980257401437149 0 0.0048623067469767732 0.068184708475085176 0 0.0083394764874271058 0.067870016177272521 0 0.0075732152171582344 0.066980257401437149 0 0.0072840819663564579 0.069009038885776391 0 0.0088374603812293954 0.070003426594745469 0 0.0071608574130180265 0.070148727034355776 0 0.0059005575711589733 0.07174132901932212 0 0.0072840819663564579 0.069009038885776391 0 0.0060971874620782468 0.070131411683413455 0 0.0048623067469767732 0.068184708475085176 0 0.0088374603812293954 0.070003426594745469 0 0.0072840819663564579 0.069009038885776391 0 0.0071608574130180265 0.070148727034355776 0 0.0072840819663564579 0.069009038885776391 0 0.0071608574130180265 0.070148727034355776 0 0.0060971874620782468 0.070131411683413455 0 0.0071608574130180265 0.070148727034355776 0 0.0060971874620782468 0.070131411683413455 0 0.0059005575711589733 0.07174132901932212 0 0.0042084036386987817 0.07134663123877108 0 0.0048623067469767732 0.068184708475085176 0 0.0020600215210907114 0.072702856034660604 0 0.0060971874620782468 0.070131411683413455 0 0.0042084036386987817 0.07134663123877108 0 0.0048623067469767732 0.068184708475085176 0 0.0011736313340336309 0.064145695153660282 0 0.0048623067469767732 0.068184708475085176 0 0.0020600215210907114 0.072702856034660604 0 0.0024173707860104723 0.074401431738227386 0 0.0017581358440665927 0.074595943749229898 0 0.0020600215210907114 0.072702856034660604 0 0.0026858129854854676 0.0678787773686549 0 0.0024793693674631185 0.069490657437645459 0 0.0022124465136821401 0.074042364167332175 0 0.0026297540402517327 0.074359463602492529 0 0.0020600215210907114 0.072702856034660604 0 0.0042084036386987817 0.07134663123877108 0 0.0020600215210907114 0.072702856034660604 0 0.0032536238355908072 0.073553307387207376 0 0.0026297540402517327 0.074359463602492529 0 0.0032536238355908072 0.073553307387207376 0 0.0038135702114539048 0.074782231863302157 0 0.0026297540402517327 0.074359463602492529 0 0.0020600215210907114 0.072702856034660604 0 0.0032536238355908072 0.073553307387207376 0 -0.050282857513118596 -0.022831628688558207 0 -0.055316840955682373 -0.014499009302471503 0 -0.050772601894999693 -0.019136491004070874 0 0.0088374603812293954 0.070003426594745469 0 0.0059005575711589733 0.07174132901932212 0 0.0043825217316623213 0.075460372532269199 0 0.0044864353220638534 0.073523653234993172 0 0.0059005575711589733 0.07174132901932212 0 0.0043825217316623213 0.075460372532269199 0 -0.021935784825561848 0.02158127981062433 0 -0.025733914186026489 0.021512160764019239 0 0.0032536238355908072 0.073553307387207376 0 0.0044864353220638534 0.073523653234993172 0 0.0038135702114539048 0.074782231863302157 0 0.0032536238355908072 0.073553307387207376 0 0.0044864353220638534 0.073523653234993172 0 0.0045567990556733239 0.072436636691797271 0 0.0042084036386987817 0.07134663123877108 0 0.0032536238355908072 0.073553307387207376 0 0.0045567990556733239 0.072436636691797271 0 0.0044864353220638534 0.073523653234993172 0 0.0045567990556733239 0.072436636691797271 0 0.0059005575711589733 0.07174132901932212 0 0.0060971874620782468 0.070131411683413455 0 0.0042084036386987817 0.07134663123877108 0 0.0059005575711589733 0.07174132901932212 0 0.0042084036386987817 0.07134663123877108 0 0.0045567990556733239 0.072436636691797271 0 0.0059005575711589733 0.07174132901932212 0 -0.055316840955682373 -0.014499009302471503 0 -0.05072310229463782 -0.016964627960749802 0 -0.050772601894999693 -0.019136491004070874 0 -0.055316840955682373 -0.014499009302471503 0 -0.05072310229463782 -0.016964627960749802 0 -0.050507890184275817 -0.013689143283625379 0 0.0044864353220638534 0.073523653234993172 0 0.0043825217316623213 0.075460372532269199 0 0.0038135702114539048 0.074782231863302157 0 0.0038331680374264327 0.07489149224391696 0 0.0038135702114539048 0.074782231863302157 0 0.0030338474665363097 0.075136924245246497 0 -0.025733914186026489 0.021512160764019239 0 -0.024962341880251305 0.022497768035726187 0 -0.024965879392387449 0.03297327774536455 0 -0.025733914186026489 0.021512160764019239 0 0.0028479015566233883 0.075549717483334777 0 0.0038331680374264327 0.07489149224391696 0 0.0030338474665363097 0.075136924245246497 0 0.0026297540402517327 0.074359463602492529 0 0.0038135702114539048 0.074782231863302157 0 0.0030338474665363097 0.075136924245246497 0 0.0024146855038545936 0.075416196333669291 0 0.0023305924613310383 0.074867408265202273 0 0.0030338474665363097 0.075136924245246497 0 0.0023305924613310383 0.074867408265202273 0 0.0026297540402517327 0.074359463602492529 0 0.0030338474665363097 0.075136924245246497 0 -0.045685293806060151 -0.019041468377595423 0 -0.042082884323473006 -0.018492422773921782 0 -0.047315340880021352 -0.015782270637710899 0 -0.040438474308616072 -0.023993144608163066 0 -0.042082884323473006 -0.018492422773921782 0 -0.045263875114158532 -0.022070470390274551 0 -0.045685293806060151 -0.019041468377595423 0 -0.042082884323473006 -0.018492422773921782 0 -0.045263875114158532 -0.022070470390274551 0 -0.047626051127091479 -0.022228309353047766 0 -0.045263875114158532 -0.022070470390274551 0 -0.04824656187145298 -0.019768796345521852 0 -0.045685293806060151 -0.019041468377595423 0 -0.045263875114158532 -0.022070470390274551 0 -0.04824656187145298 -0.019768796345521852 0 -0.047626051127091479 -0.022228309353047766 0 -0.04824656187145298 -0.019768796345521852 0 -0.04935683129145782 -0.02160111505189934 0 -0.050282857513118596 -0.022831628688558207 0 -0.04935683129145782 -0.02160111505189934 0 -0.050772601894999693 -0.019136491004070874 0 -0.04824656187145298 -0.019768796345521852 0 -0.04935683129145782 -0.02160111505189934 0 -0.050772601894999693 -0.019136491004070874 0 -0.04824656187145298 -0.019768796345521852 0 -0.05072310229463782 -0.016964627960749802 0 -0.047315340880021352 -0.015782270637710899 0 -0.04824656187145298 -0.019768796345521852 0 -0.05072310229463782 -0.016964627960749802 0 -0.050772601894999693 -0.019136491004070874 0 -0.045685293806060151 -0.019041468377595423 0 -0.04824656187145298 -0.019768796345521852 0 -0.047315340880021352 -0.015782270637710899 0 -0.048679495704557818 -0.0074874077273328231 0 -0.047315340880021352 -0.015782270637710899 0 -0.050507890184275817 -0.013689143283625379 0 -0.048679495704557818 -0.0074874077273328231 0 -0.055316840955682373 -0.014499009302471503 0 -0.050507890184275817 -0.013689143283625379 0 -0.048679495704557818 -0.0074874077273328231 0 -0.047315340880021352 -0.015782270637710899 0 -0.042784314879126026 -0.012675004501550022 0 -0.05072310229463782 -0.016964627960749802 0 -0.047315340880021352 -0.015782270637710899 0 -0.050507890184275817 -0.013689143283625379 0 -0.042082884323473006 -0.018492422773921782 0 -0.047315340880021352 -0.015782270637710899 0 -0.042784314879126026 -0.012675004501550022 0 -0.042082884323473006 -0.018492422773921782 0 -0.042784314879126026 -0.012675004501550022 0 -0.036753627748774748 -0.013921426024618714 0 -0.042082884323473006 -0.018492422773921782 0 -0.036753627748774748 -0.013921426024618714 0 -0.034649088519850338 -0.020702403901263489 0 -0.040438474308616072 -0.023993144608163066 0 -0.042082884323473006 -0.018492422773921782 0 -0.034649088519850338 -0.020702403901263489 0 -0.034649088519850338 -0.020702403901263489 0 -0.029530152438876349 -0.017608874899145286 0 -0.026713250111350707 -0.023828555438156238 0 -0.031669891388421238 -0.012253791005215571 0 -0.036753627748774748 -0.013921426024618714 0 -0.029530152438876349 -0.017608874899145286 0 -0.036753627748774748 -0.013921426024618714 0 -0.034649088519850338 -0.020702403901263489 0 -0.029530152438876349 -0.017608874899145286 0 -0.029530152438876349 -0.017608874899145286 0 -0.025060230270339101 -0.014396692527392453 0 -0.022677727755859765 -0.021048604961784286 0 -0.031669891388421238 -0.012253791005215571 0 -0.029530152438876349 -0.017608874899145286 0 -0.025060230270339101 -0.014396692527392453 0 -0.025060230270339101 -0.014396692527392453 0 -0.019133887625925654 -0.014864013183727237 0 -0.022677727755859765 -0.021048604961784286 0 -0.02172100477581361 -0.011358593079868811 0 -0.025060230270339101 -0.014396692527392453 0 -0.019133887625925654 -0.014864013183727237 0 -0.01919899491164569 -0.016416422481703143 0 -0.019945616157796449 -0.017675019266565898 0 -0.021362811102471513 -0.019526142878515174 0 -0.022677727755859765 -0.021048604961784286 0 -0.020386246104478454 -0.021605117192534315 0 -0.022677727755859765 -0.021048604961784286 0 -0.020386246104478454 -0.021605117192534315 0 -0.020713153282391653 -0.025456474334948763 0 -0.022677727755859765 -0.021048604961784286 0 -0.026713250111350707 -0.023828555438156238 0 -0.020713153282391653 -0.025456474334948763 0 -0.029530152438876349 -0.017608874899145286 0 -0.022677727755859765 -0.021048604961784286 0 -0.026713250111350707 -0.023828555438156238 0 -0.026713250111350707 -0.023828555438156238 0 -0.02410267794387037 -0.029159150216351001 0 -0.031397706614391965 -0.027193590156833512 0 -0.025875585340603035 -0.029231920450575013 0 -0.031977087372817813 -0.027167836193903866 0 -0.026713250111350707 -0.023828555438156238 0 -0.02410267794387037 -0.029159150216351001 0 -0.020713153282391653 -0.025456474334948763 0 -0.026724788495101598 -0.029323832060728913 0 -0.020489835386602206 -0.03166507503711511 0 -0.024706922295124698 -0.034993341716708072 0 -0.026724788495101598 -0.029323832060728913 0 -0.033223596915166492 -0.026878242847283799 0 -0.030506057683628292 -0.034232388582597063 0 -0.034610579707669703 -0.03150795006827143 0 -0.037999020319509642 -0.029485878510090165 0 -0.033223596915166492 -0.026878242847283799 0 -0.034610579707669703 -0.03150795006827143 0 -0.033223596915166492 -0.026878242847283799 0 -0.030506057683628292 -0.034232388582597063 0 -0.042576199167997479 -0.030205282368762985 0 -0.037999020319509642 -0.029485878510090165 0 -0.036785770438477791 -0.035357194931837956 0 -0.034610579707669703 -0.03150795006827143 0 -0.037999020319509642 -0.029485878510090165 0 -0.036785770438477791 -0.035357194931837956 0 -0.040438474308616072 -0.023993144608163066 0 -0.041072498420617776 -0.02730651454017461 0 -0.037999020319509642 -0.029485878510090165 0 -0.040438474308616072 -0.023993144608163066 0 -0.037999020319509642 -0.029485878510090165 0 -0.033223596915166492 -0.026878242847283799 0 -0.040438474308616072 -0.023993144608163066 0 -0.034649088519850338 -0.020702403901263489 0 -0.031397706614391965 -0.027193590156833512 0 -0.035721265792062695 -0.025907741325637095 0 -0.031977087372817813 -0.027167836193903866 0 -0.034649088519850338 -0.020702403901263489 0 -0.026713250111350707 -0.023828555438156238 0 -0.031397706614391965 -0.027193590156833512 0 -0.0073390395875089602 -0.026896596726593718 0 -0.010714998859732261 -0.021727717633917076 0 -0.011256809825970507 -0.028378408138770725 0 -0.011200433302240877 -0.019078856301738299 0 -0.0087237190781643287 -0.019543734869089762 0 -0.010714998859732261 -0.021727717633917076 0 -0.010714998859732261 -0.021727717633917076 0 -0.014304279208852043 -0.023935831364050066 0 -0.015632651876496262 -0.019011354317628185 0 -0.012848149767570097 -0.018777139576585333 0 -0.01480272404533769 -0.017307011511068952 0 -0.011200433302240877 -0.019078856301738299 0 -0.010714998859732261 -0.021727717633917076 0 -0.014857426597181603 -0.019523450859012907 0 -0.010714998859732261 -0.021727717633917076 0 -0.014304279208852043 -0.023935831364050066 0 -0.011256809825970507 -0.028378408138770725 0 -0.014304279208852043 -0.023935831364050066 0 -0.017741921342597583 -0.023002127371383917 0 -0.016071890436442731 -0.027737754061607823 0 -0.014304279208852043 -0.023935831364050066 0 -0.017741921342597583 -0.023002127371383917 0 -0.015632651876496262 -0.019011354317628185 0 -0.017741921342597583 -0.023002127371383917 0 -0.015632651876496262 -0.019011354317628185 0 -0.019114548126018857 -0.019973541442252281 0 -0.020057224990260625 -0.01684834584514857 0 -0.021362811102471513 -0.019526142878515174 0 -0.019114548126018857 -0.019973541442252281 0 -0.021362811102471513 -0.019526142878515174 0 -0.019114548126018857 -0.019973541442252281 0 -0.020386246104478454 -0.021605117192534315 0 -0.017741921342597583 -0.023002127371383917 0 -0.020386246104478454 -0.021605117192534315 0 -0.020713153282391653 -0.025456474334948763 0 -0.017741921342597583 -0.023002127371383917 0 -0.019114548126018857 -0.019973541442252281 0 -0.020386246104478454 -0.021605117192534315 0 -0.020713153282391653 -0.025456474334948763 0 -0.018885025540689309 -0.03114472247414253 0 -0.016071890436442731 -0.027737754061607823 0 -0.025875585340603035 -0.029231920450575013 0 -0.020354000975995521 -0.031163279153294494 0 -0.02410267794387037 -0.029159150216351001 0 -0.020713153282391653 -0.025456474334948763 0 -0.018885025540689309 -0.03114472247414253 0 -0.020354000975995521 -0.031163279153294494 0 -0.017436773671879461 -0.032212013691279365 0 -0.018885025540689309 -0.03114472247414253 0 -0.016071890436442731 -0.027737754061607823 0 -0.014309281638336821 -0.03388806921184527 0 -0.017741921342597583 -0.023002127371383917 0 -0.020713153282391653 -0.025456474334948763 0 -0.016071890436442731 -0.027737754061607823 0 -0.014304279208852043 -0.023935831364050066 0 -0.016071890436442731 -0.027737754061607823 0 -0.011256809825970507 -0.028378408138770725 0 -0.016071890436442731 -0.027737754061607823 0 -0.011256809825970507 -0.028378408138770725 0 -0.014309281638336821 -0.03388806921184527 0 -0.0068118599406232936 -0.031265365343715941 0 -0.011256809825970507 -0.028378408138770725 0 -0.0093674580962269573 -0.034661140129420717 0 -0.011256809825970507 -0.028378408138770725 0 -0.0093674580962269573 -0.034661140129420717 0 -0.014309281638336821 -0.03388806921184527 0 -0.011221123980127428 -0.039465445323252496 0 -0.014309281638336821 -0.03388806921184527 0 -0.015489267508352604 -0.041916596464338415 0 -0.0077566964368140324 -0.038986117219730297 0 -0.011221123980127428 -0.039465445323252496 0 -0.0093674580962269573 -0.034661140129420717 0 -0.0077566964368140324 -0.038986117219730297 0 -0.008620319385371833 -0.042572001894000171 0 -0.011221123980127428 -0.039465445323252496 0 -0.011221123980127428 -0.039465445323252496 0 -0.0093674580962269573 -0.034661140129420717 0 -0.014309281638336821 -0.03388806921184527 0 -0.014309281638336821 -0.03388806921184527 0 -0.018825052498647792 -0.03736660082161565 0 -0.015489267508352604 -0.041916596464338415 0 -0.018825052498647792 -0.03736660082161565 0 -0.019362161721545954 -0.041933894484900237 0 -0.015489267508352604 -0.041916596464338415 0 -0.020489835386602206 -0.03166507503711511 0 -0.014309281638336821 -0.03388806921184527 0 -0.018825052498647792 -0.03736660082161565 0 -0.020489835386602206 -0.03166507503711511 0 -0.018825052498647792 -0.03736660082161565 0 -0.024706922295124698 -0.034993341716708072 0 -0.018825052498647792 -0.03736660082161565 0 -0.022886930241952177 -0.040012770985160005 0 -0.024706922295124698 -0.034993341716708072 0 -0.018825052498647792 -0.03736660082161565 0 -0.022886930241952177 -0.040012770985160005 0 -0.019362161721545954 -0.041933894484900237 0 -0.022886930241952177 -0.040012770985160005 0 -0.022099779611300878 -0.044306542568521387 0 -0.019362161721545954 -0.041933894484900237 0 -0.022099779611300878 -0.044306542568521387 0 -0.025092528608166794 -0.046225997965954876 0 -0.02152519397880303 -0.048351071072678234 0 -0.022099779611300878 -0.044306542568521387 0 -0.017645751913293869 -0.045863341850815365 0 -0.02152519397880303 -0.048351071072678234 0 -0.017645751913293869 -0.045863341850815365 0 -0.018391079068525065 -0.04889309353678549 0 -0.02152519397880303 -0.048351071072678234 0 -0.017645751913293869 -0.045863341850815365 0 -0.014331442663975713 -0.048935899420542515 0 -0.018391079068525065 -0.04889309353678549 0 -0.022099779611300878 -0.044306542568521387 0 -0.017645751913293869 -0.045863341850815365 0 -0.019362161721545954 -0.041933894484900237 0 -0.017645751913293869 -0.045863341850815365 0 -0.019362161721545954 -0.041933894484900237 0 -0.015489267508352604 -0.041916596464338415 0 -0.017645751913293869 -0.045863341850815365 0 -0.015489267508352604 -0.041916596464338415 0 -0.011984126929964818 -0.045329829058662154 0 -0.011221123980127428 -0.039465445323252496 0 -0.015489267508352604 -0.041916596464338415 0 -0.011984126929964818 -0.045329829058662154 0 -0.017645751913293869 -0.045863341850815365 0 -0.011984126929964818 -0.045329829058662154 0 -0.014331442663975713 -0.048935899420542515 0 -0.0082050263622170314 -0.046854102224301211 0 -0.0094879728739458383 -0.050150083812469583 0 -0.011984126929964818 -0.045329829058662154 0 -0.008620319385371833 -0.042572001894000171 0 -0.011221123980127428 -0.039465445323252496 0 -0.011984126929964818 -0.045329829058662154 0 -0.0082050263622170314 -0.046854102224301211 0 -0.008620319385371833 -0.042572001894000171 0 -0.011984126929964818 -0.045329829058662154 0 -0.031755065775976261 -0.039990398403612321 0 -0.036793899921318415 -0.038341960146914739 0 -0.037328871923844285 -0.033453895944273275 0 -0.031755065775976261 -0.039990398403612321 0 -0.036785770438477791 -0.035357194931837956 0 -0.030506057683628292 -0.034232388582597063 0 -0.035211840410925462 -0.036628384867184852 0 -0.037925820422992813 -0.03388160123030156 0 -0.041553551121374592 -0.036127158742622317 0 -0.036793899921318415 -0.038341960146914739 0 -0.03732025081086332 -0.039845370840278969 0 -0.041553551121374592 -0.036127158742622317 0 -0.03893544841833841 -0.035466327824076993 0 -0.040062533313684028 -0.033912745734430379 0 -0.041553551121374592 -0.036127158742622317 0 -0.036793899921318415 -0.038341960146914739 0 -0.03893544841833841 -0.035466327824076993 0 -0.036793899921318415 -0.038341960146914739 0 -0.03893544841833841 -0.035466327824076993 0 -0.037328871923844285 -0.033453895944273275 0 -0.041610825215575499 -0.031631279676077678 0 -0.043888175911071983 -0.027164316703647294 0 -0.037328871923844285 -0.033453895944273275 0 -0.042630356994196081 -0.02922109332050099 0 -0.037925820422992813 -0.03388160123030156 0 -0.041610825215575499 -0.031631279676077678 0 -0.037328871923844285 -0.033453895944273275 0 -0.040062533313684028 -0.033912745734430379 0 -0.03893544841833841 -0.035466327824076993 0 -0.037328871923844285 -0.033453895944273275 0 -0.040062533313684028 -0.033912745734430379 0 -0.041553551121374592 -0.036127158742622317 0 -0.041610825215575499 -0.031631279676077678 0 -0.040062533313684028 -0.033912745734430379 0 -0.034610579707669703 -0.03150795006827143 0 -0.036785770438477791 -0.035357194931837956 0 -0.030506057683628292 -0.034232388582597063 0 -0.026724788495101598 -0.029323832060728913 0 -0.030506057683628292 -0.034232388582597063 0 -0.024706922295124698 -0.034993341716708072 0 -0.030506057683628292 -0.034232388582597063 0 -0.024706922295124698 -0.034993341716708072 0 -0.027612569009589156 -0.039273235657207264 0 -0.022886930241952177 -0.040012770985160005 0 -0.024706922295124698 -0.034993341716708072 0 -0.027612569009589156 -0.039273235657207264 0 -0.031755065775976261 -0.039990398403612321 0 -0.030506057683628292 -0.034232388582597063 0 -0.027612569009589156 -0.039273235657207264 0 -0.031755065775976261 -0.039990398403612321 0 -0.027612569009589156 -0.039273235657207264 0 -0.030503342692550242 -0.043038702618737983 0 -0.027612569009589156 -0.039273235657207264 0 -0.030503342692550242 -0.043038702618737983 0 -0.026108309991372397 -0.04331659844099589 0 -0.030503342692550242 -0.043038702618737983 0 -0.026108309991372397 -0.04331659844099589 0 -0.028149284744714467 -0.045825287838511572 0 -0.022886930241952177 -0.040012770985160005 0 -0.027612569009589156 -0.039273235657207264 0 -0.026108309991372397 -0.04331659844099589 0 -0.022886930241952177 -0.040012770985160005 0 -0.022099779611300878 -0.044306542568521387 0 -0.026108309991372397 -0.04331659844099589 0 -0.025092528608166794 -0.046225997965954876 0 -0.027671301807755788 -0.049106788155183961 0 -0.02152519397880303 -0.048351071072678234 0 -0.022099779611300878 -0.044306542568521387 0 -0.026108309991372397 -0.04331659844099589 0 -0.025092528608166794 -0.046225997965954876 0 -0.026108309991372397 -0.04331659844099589 0 -0.025092528608166794 -0.046225997965954876 0 -0.028149284744714467 -0.045825287838511572 0 -0.025092528608166794 -0.046225997965954876 0 -0.028149284744714467 -0.045825287838511572 0 -0.027671301807755788 -0.049106788155183961 0 -0.030503342692550242 -0.043038702618737983 0 -0.028149284744714467 -0.045825287838511572 0 -0.031263022573630186 -0.046786207301408068 0 -0.019117991994619863 -0.025474442982748369 0 -0.0159763565435126 -0.018075441229190244 0 -0.028149284744714467 -0.045825287838511572 0 -0.031263022573630186 -0.046786207301408068 0 -0.027671301807755788 -0.049106788155183961 0 0.020887944555250948 0.044271505337288256 0 0.021311844269561932 0.038529420737806436 0 0.026323564908894641 0.034619574323245333 0 -0.0041800624404573234 0.0056087632591991466 0 0.0011164220358276121 0.011365995656580372 0 -0.030503342692550242 -0.043038702618737983 0 -0.031263022573630186 -0.046786207301408068 0 -0.035031428494380353 -0.044342238507347254 0 -0.035031428494380353 -0.044342238507347254 0 -0.036754688632481401 -0.043382245565019073 0 -0.032894367855961698 -0.049243593184543057 0 -0.031397934592858175 -0.046549851378628403 0 -0.035031428494380353 -0.044342238507347254 0 -0.032894367855961698 -0.049243593184543057 0 -0.019117991994619863 -0.025474442982748369 0 -0.020764895846134886 -0.027318109082682281 0 -0.031755065775976261 -0.039990398403612321 0 -0.036793899921318415 -0.038341960146914739 0 -0.034363263737442369 -0.041514090825238124 0 -0.030503342692550242 -0.043038702618737983 0 -0.035031428494380353 -0.044342238507347254 0 -0.034363263737442369 -0.041514090825238124 0 -0.035031428494380353 -0.044342238507347254 0 -0.034363263737442369 -0.041514090825238124 0 -0.036754688632481401 -0.043382245565019073 0 -0.036793899921318415 -0.038341960146914739 0 -0.034363263737442369 -0.041514090825238124 0 -0.03732025081086332 -0.039845370840278969 0 -0.031755065775976261 -0.039990398403612321 0 -0.030503342692550242 -0.043038702618737983 0 -0.034363263737442369 -0.041514090825238124 0 -0.01086005967383614 0.01022258034702672 0 -0.0041800624404573234 0.0056087632591991466 0 0.015690674307852887 0.046810270413349418 0 0.016085453930675574 0.053645750096942224 0 0.020887944555250948 0.044271505337288256 0 -0.041553551121374592 -0.036127158742622317 0 -0.03732025081086332 -0.039845370840278969 0 -0.036754688632481401 -0.043382245565019073 0 -0.034363263737442369 -0.041514090825238124 0 -0.03732025081086332 -0.039845370840278969 0 -0.036754688632481401 -0.043382245565019073 0 0.015690674307852887 0.046810270413349418 0 0.020887944555250948 0.044271505337288256 0 0.01714493633135444 0.041782559504747963 0 0.020887944555250948 0.044271505337288256 0 0.01714493633135444 0.041782559504747963 0 0.021311844269561932 0.038529420737806436 0 0.014634193528916326 0.038688857076929775 0 0.017117040047719554 0.038219305384390174 0 0.015371859357743637 0.033846757980767049 0 0.021311844269561932 0.038529420737806436 0 0.017117040047719554 0.038219305384390174 0 0.015371859357743637 0.033846757980767049 0 0.014634193528916326 0.038688857076929775 0 0.01714493633135444 0.041782559504747963 0 0.017117040047719554 0.038219305384390174 0 0.01714493633135444 0.041782559504747963 0 0.021311844269561932 0.038529420737806436 0 0.017117040047719554 0.038219305384390174 0 0.021311844269561932 0.038529420737806436 0 0.026323564908894641 0.034619574323245333 0 0.015371859357743637 0.033846757980767049 0 0.0011164220358276121 0.011365995656580372 0 0.008761567379445211 0.02220632777937618 0 0.005900297027282282 0.031874136200534246 0 0.0060427116846324073 0.032111176455836138 0 0.0052161277844166238 0.032938824011221057 0 0.0053015656141174325 0.032329051362508944 0 0.005900297027282282 0.031874136200534246 0 0.0052161277844166238 0.032938824011221057 0 0.005900297027282282 0.031874136200534246 0 0.0055201886433909105 0.031840814036480633 0 0.0059264678486455925 0.03150460876620928 0 0.0053015656141174325 0.032329051362508944 0 0.0055201886433909105 0.031840814036480633 0 0.0050295477805445913 0.031965050085239519 0 0.0053015656141174325 0.032329051362508944 0 0.005900297027282282 0.031874136200534246 0 0.0055201886433909105 0.031840814036480633 0 0.005900297027282282 0.031874136200534246 0 0.0064050113481263311 0.031362501392921044 0 0.0063747681754470435 0.031386500334114283 0 0.0062217469060248361 0.030230247088060158 0 0.0061289581575653986 0.029747446464786085 0 0.005900297027282282 0.031874136200534246 0 0.0060427116846324073 0.032111176455836138 0 0.0064050113481263311 0.031362501392921044 0 0.0060427116846324073 0.032111176455836138 0 0.0062759853210521167 0.032862283792116871 0 0.0052161277844166238 0.032938824011221057 0 0.0060427116846324073 0.032111176455836138 0 0.0062759853210521167 0.032862283792116871 0 0.0064050113481263311 0.031362501392921044 0 0.006123731537329361 0.030883503749078545 0 0.0069713545335090303 0.031007838248689298 0 0.0071006995714618677 0.030343735974349587 0 -0.031397934592858175 -0.046549851378628403 0 -0.032894367855961698 -0.049243593184543057 0 -0.027948492841193526 -0.048831340747560889 0 0.0011164220358276121 0.011365995656580372 0 -0.0159763565435126 -0.018075441229190244 0 -0.0159763565435126 -0.018075441229190244 0 -0.02090896941860183 -0.024163127805184002 0 -0.026183793065615815 -0.048601490649248597 0 -0.02152519397880303 -0.048351071072678234 0 -0.021285207836669758 -0.051991889928330898 0 0.0069713545335090303 0.031007838248689298 0 0.0071006995714618677 0.030343735974349587 0 0.0083879816614713509 0.030289859744447763 0 -0.0159763565435126 -0.018075441229190244 0 -0.008970480419429187 -0.01516518018357082 0 0.0071006995714618677 0.030343735974349587 0 0.0077077318062468963 0.029297922661918462 0 0.0083879816614713509 0.030289859744447763 0 0.0071006995714618677 0.030343735974349587 0 0.0067779187206744827 0.029942353301054755 0 0.0077077318062468963 0.029297922661918462 0 0.0011164220358276121 0.011365995656580372 0 -0.00048172234953166551 0.021809035349887096 0 0.0062759853210521167 0.032862283792116871 0 0.0064050113481263311 0.031362501392921044 0 0.0067779187206744827 0.029942353301054755 0 0.0064050113481263311 0.031362501392921044 0 0.0067779187206744827 0.029942353301054755 0 0.0055890357096973937 0.029240231575931329 0 0.006123731537329361 0.030883503749078545 0 0.0071006995714618677 0.030343735974349587 0 0.0067779187206744827 0.029942353301054755 0 0.0067779187206744827 0.029942353301054755 0 0.0063068528534648291 0.028767642343247475 0 0.0055890357096973937 0.029240231575931329 0 0.0067779187206744827 0.029942353301054755 0 0.0063068528534648291 0.028767642343247475 0 0.0071945183540511812 0.028981306335113127 0 0.0063068528534648291 0.028767642343247475 0 0.0071945183540511812 0.028981306335113127 0 0.0066433623524827425 0.02809050861820957 0 0.0067779187206744827 0.029942353301054755 0 0.0077077318062468963 0.029297922661918462 0 0.0071945183540511812 0.028981306335113127 0 0.0071945183540511812 0.028981306335113127 0 0.0077723923626968165 0.028279595486397174 0 0.0066433623524827425 0.02809050861820957 0 0.0077077318062468963 0.029297922661918462 0 0.0071945183540511812 0.028981306335113127 0 0.0077723923626968165 0.028279595486397174 0 0.0077077318062468963 0.029297922661918462 0 0.0077723923626968165 0.028279595486397174 0 0.0085726824508632737 0.028184002392358177 0 0.0066755260179660368 0.028113417390484306 0 0.0063404788803974842 0.02834369062298155 0 0.0069976534176649187 0.027267794828369999 0 0.0072465600384153204 0.025801160349992351 0 0.0048107158653993287 0.026012966953901869 0 0.0072465600384153204 0.025801160349992351 0 0.0048107158653993287 0.026012966953901869 0 0.0068068395187269141 0.024354632717945857 0 0.0066755260179660368 0.028113417390484306 0 0.0058262651701578164 0.027535640489316848 0 0.0069976534176649187 0.027267794828369999 0 0.0072465600384153204 0.025801160349992351 0 0.0081988294496296125 0.02693410946256912 0 0.0062468208986122447 0.027986969497443493 0 0.0062520543673888771 0.02800920035332884 0 0.0061823632458888975 0.027989299621610952 0 0.0063404788803974842 0.02834369062298155 0 0.0059611152661646358 0.028650822295459431 0 0.0063068528534648291 0.028767642343247475 0 0.0066433623524827425 0.02809050861820957 0 0.0052598665592419429 0.027707772456980174 0 0.0063253146252083593 0.028030156599451232 0 0.0062468208986122447 0.027986969497443493 0 0.0062520543673888771 0.02800920035332884 0 0.0058262651701578164 0.027535640489316848 0 0.005678934675556295 0.027463638943679959 0 0.0062468208986122447 0.027986969497443493 0 0.0061823632458888975 0.027989299621610952 0 0.0061723816274751441 0.027945969224732053 0 0.0063701422305063272 0.030484696699013124 0 0.0056092318919184472 0.030715687285669334 0 0.0060133593412318095 0.031070445119956699 0 0.0059611152661646358 0.028650822295459431 0 0.005678934675556295 0.027463638943679959 0 0.0063701422305063272 0.030484696699013124 0 0.0052079309727330724 0.029938927398053851 0 0.0056092318919184472 0.030715687285669334 0 0.0070687850287365385 0.030312431909156948 0 0.0052511703050858805 0.029860918900403325 0 0.0068680398807987614 0.029461627458623591 0 0.0059611152661646358 0.028650822295459431 0 0.0052908142214693624 0.029044474514545914 0 0.0052079309727330724 0.029938927398053851 0 0.0056092318919184472 0.030715687285669334 0 0.0047070249641386081 0.030809510658395812 0 0.0056092318919184472 0.030715687285669334 0 0.005432435906420373 0.031331801831029869 0 0.0060133593412318095 0.031070445119956699 0 0.005432435906420373 0.031331801831029869 0 0.0059264678486455925 0.03150460876620928 0 0.0060133593412318095 0.031070445119956699 0 0.0056092318919184472 0.030715687285669334 0 0.005432435906420373 0.031331801831029869 0 0.0047070249641386081 0.030809510658395812 0 0.0055201886433909105 0.031840814036480633 0 0.005432435906420373 0.031331801831029869 0 0.0050295477805445913 0.031965050085239519 0 0.0055201886433909105 0.031840814036480633 0 0.005432435906420373 0.031331801831029869 0 0.0059264678486455925 0.03150460876620928 0 0.0059611152661646358 0.028650822295459431 0 0.0061289581575653986 0.029747446464786085 0 0.0063068528534648291 0.028767642343247475 0 0.0052598665592419429 0.027707772456980174 0 0.0055890357096973937 0.029240231575931329 0 0.005900297027282282 0.031874136200534246 0 0.0059264678486455925 0.03150460876620928 0 0.0063747681754470435 0.031386500334114283 0 0.0059264678486455925 0.03150460876620928 0 0.0063747681754470435 0.031386500334114283 0 0.0060133593412318095 0.031070445119956699 0 0.0063701422305063272 0.030484696699013124 0 0.0063747681754470435 0.031386500334114283 0 0.0060133593412318095 0.031070445119956699 0 -0.0094879728739458383 -0.050150083812469583 0 -0.010006182085565724 -0.053674166270506259 0 -0.013241446632808799 -0.052718069326074271 0 -0.0094879728739458383 -0.050150083812469583 0 -0.014331442663975713 -0.048935899420542515 0 -0.013241446632808799 -0.052718069326074271 0 -0.0094879728739458383 -0.050150083812469583 0 -0.011984126929964818 -0.045329829058662154 0 -0.014331442663975713 -0.048935899420542515 0 -0.014331442663975713 -0.048935899420542515 0 -0.013241446632808799 -0.052718069326074271 0 -0.017155530125056072 -0.05153339116190149 0 -0.013241446632808799 -0.052718069326074271 0 -0.017155530125056072 -0.05153339116190149 0 -0.015926905232398168 -0.055024460352198649 0 -0.017155530125056072 -0.05153339116190149 0 -0.021285207836669758 -0.051991889928330898 0 -0.015926905232398168 -0.055024460352198649 0 0.0083879816614713509 0.030289859744447763 0 0.0089213977600273078 0.02909787037099474 0 0.011789844586133488 0.028400337044534069 0 -0.008970480419429187 -0.01516518018357082 0 -0.0035045167454286147 -0.015730431128379869 0 -0.017155530125056072 -0.05153339116190149 0 -0.018391079068525065 -0.04889309353678549 0 -0.021285207836669758 -0.051991889928330898 0 -0.014331442663975713 -0.048935899420542515 0 -0.017155530125056072 -0.05153339116190149 0 -0.018391079068525065 -0.04889309353678549 0 -0.018391079068525065 -0.04889309353678549 0 -0.02152519397880303 -0.048351071072678234 0 -0.021285207836669758 -0.051991889928330898 0 0.0077077318062468963 0.029297922661918462 0 0.0083879816614713509 0.030289859744447763 0 0.0089213977600273078 0.02909787037099474 0 0.0077077318062468963 0.029297922661918462 0 0.0089213977600273078 0.02909787037099474 0 0.0085726824508632737 0.028184002392358177 0 0.0089213977600273078 0.02909787037099474 0 0.0085726824508632737 0.028184002392358177 0 0.009906151212230525 0.028302134860001528 0 0.0085726824508632737 0.028184002392358177 0 0.0081988294496296125 0.02693410946256912 0 0.009906151212230525 0.028302134860001528 0 0.0066755260179660368 0.028113417390484306 0 0.0070606326425216304 0.028249237905844583 0 0.0069976534176649187 0.027267794828369999 0 0.0085726824508632737 0.028184002392358177 0 0.0081988294496296125 0.02693410946256912 0 0.0081988294496296125 0.02693410946256912 0 0.0090559121962448252 0.025900687158591194 0 0.009906151212230525 0.028302134860001528 0 0.0072465600384153204 0.025801160349992351 0 0.0081988294496296125 0.02693410946256912 0 0.0090559121962448252 0.025900687158591194 0 0.0072465600384153204 0.025801160349992351 0 0.0090559121962448252 0.025900687158591194 0 0.0082420591053760043 0.02476082349418772 0 0.0077419404342376399 0.02424244119350959 0 0.0076026152040130773 0.021117999054710682 0 0.0090559121962448252 0.025900687158591194 0 0.009906151212230525 0.028302134860001528 0 0.011067453669680901 0.0252033325317149 0 0.0089213977600273078 0.02909787037099474 0 0.011789844586133488 0.028400337044534069 0 0.009906151212230525 0.028302134860001528 0 0.011789844586133488 0.028400337044534069 0 0.009906151212230525 0.028302134860001528 0 0.011202795941789646 0.022011910095396044 0 -0.0035045167454286147 -0.015730431128379869 0 0.0012916052887053382 -0.018324002257816104 0 -0.013241446632808799 -0.052718069326074271 0 -0.015926905232398168 -0.055024460352198649 0 -0.011170788637044697 -0.057527509941275444 0 0.011789844586133488 0.028400337044534069 0 0.017160951185465571 0.024491198654495307 0 0.011202795941789646 0.022011910095396044 0 -0.0083700901464592893 -0.055456750776776385 0 -0.010006182085565724 -0.053674166270506259 0 -0.011170788637044697 -0.057527509941275444 0 -0.010006182085565724 -0.053674166270506259 0 -0.013241446632808799 -0.052718069326074271 0 -0.011170788637044697 -0.057527509941275444 0 0.018481953148481091 0.015846096080993684 0 0.016010970393079148 0.016473166138091362 0 0.016785909051534022 0.013645811110139253 0 0.016010970393079148 0.016473166138091362 0 0.015287987382651254 0.014541614976285273 0 0.016785909051534022 0.013645811110139253 0 0.018481953148481091 0.015846096080993684 0 0.016010970393079148 0.016473166138091362 0 0.016627136249632128 0.019495254891589431 0 0.019775177293273914 0.019078743010426794 0 0.018481953148481091 0.015846096080993684 0 0.016627136249632128 0.019495254891589431 0 0.019775177293273914 0.019078743010426794 0 0.017160951185465571 0.024491198654495307 0 0.016627136249632128 0.019495254891589431 0 0.017160951185465571 0.024491198654495307 0 0.016627136249632128 0.019495254891589431 0 0.011202795941789646 0.022011910095396044 0 0.016010970393079148 0.016473166138091362 0 0.016627136249632128 0.019495254891589431 0 0.011202795941789646 0.022011910095396044 0 0.0060340879301299475 0.012918607283494142 0 0.0076026152040130773 0.021117999054710682 0 0.016010970393079148 0.016473166138091362 0 0.013273937853431608 0.015466598852329528 0 0.011202795941789646 0.022011910095396044 0 0.012381147054675998 0.021774199753406383 0 0.011409221768248075 0.022604208687921117 0 0.011067453669680901 0.0252033325317149 0 0.016010970393079148 0.016473166138091362 0 0.013273937853431608 0.015466598852329528 0 0.015287987382651254 0.014541614976285273 0 0.012381147054675998 0.021774199753406383 0 0.011979499880037728 0.021702913826904861 0 0.011803859654534028 0.02199006487440994 0 0.012381147054675998 0.021774199753406383 0 0.011979499880037728 0.021702913826904861 0 0.011716646556972195 0.021149962743789195 0 0.011979499880037728 0.021702913826904861 0 0.011498498488338381 0.021804560776887381 0 0.011716646556972195 0.021149962743789195 0 0.011979499880037728 0.021702913826904861 0 0.011498498488338381 0.021804560776887381 0 0.011803859654534028 0.02199006487440994 0 0.012381147054675998 0.021774199753406383 0 0.011803859654534028 0.02199006487440994 0 0.011409221768248075 0.022604208687921117 0 0.011498498488338381 0.021804560776887381 0 0.011803859654534028 0.02199006487440994 0 0.011409221768248075 0.022604208687921117 0 0.010948028323510692 0.022098738523357184 0 0.010942237966817869 0.021414574724580689 0 0.0097942649728885462 0.021608049133230368 0 0.011498498488338381 0.021804560776887381 0 0.010948028323510692 0.022098738523357184 0 0.011409221768248075 0.022604208687921117 0 0.011498498488338381 0.021804560776887381 0 0.010948028323510692 0.022098738523357184 0 0.010942237966817869 0.021414574724580689 0 0.011498498488338381 0.021804560776887381 0 0.010942237966817869 0.021414574724580689 0 0.011716646556972195 0.021149962743789195 0 0.0097942649728885462 0.021608049133230368 0 0.010219757613165938 0.02261067191186393 0 0.009011050829002925 0.022618349659493199 0 0.010948028323510692 0.022098738523357184 0 0.0097942649728885462 0.021608049133230368 0 0.010219757613165938 0.02261067191186393 0 0.010219757613165938 0.02261067191186393 0 0.0098278700908192348 0.024190431956559427 0 0.009011050829002925 0.022618349659493199 0 0.010948028323510692 0.022098738523357184 0 0.010219757613165938 0.02261067191186393 0 0.011409221768248075 0.022604208687921117 0 0.010219757613165938 0.02261067191186393 0 0.011409221768248075 0.022604208687921117 0 0.0098278700908192348 0.024190431956559427 0 0.0090559121962448252 0.025900687158591194 0 0.011067453669680901 0.0252033325317149 0 0.0098278700908192348 0.024190431956559427 0 0.011409221768248075 0.022604208687921117 0 0.011067453669680901 0.0252033325317149 0 0.0098278700908192348 0.024190431956559427 0 0.0098278700908192348 0.024190431956559427 0 0.0083171231405254394 0.023563945760577378 0 0.009011050829002925 0.022618349659493199 0 0.0098278700908192348 0.024190431956559427 0 0.0082420591053760043 0.02476082349418772 0 0.0083171231405254394 0.023563945760577378 0 0.0090559121962448252 0.025900687158591194 0 0.0098278700908192348 0.024190431956559427 0 0.0082420591053760043 0.02476082349418772 0 0.0082420591053760043 0.02476082349418772 0 0.0083171231405254394 0.023563945760577378 0 0.0068068395187269141 0.024354632717945857 0 0.0075079675788471698 0.021906317095703294 0 0.0068549879641751138 0.020481234881992782 0 0.0083171231405254394 0.023563945760577378 0 0.0081454066599994709 0.02179189261793902 0 0.0068857315520021306 0.020519368814795852 0 0.0083171231405254394 0.023563945760577378 0 0.009011050829002925 0.022618349659493199 0 0.0081454066599994709 0.02179189261793902 0 0.0097942649728885462 0.021608049133230368 0 0.009011050829002925 0.022618349659493199 0 0.0081454066599994709 0.02179189261793902 0 0.0081454066599994709 0.02179189261793902 0 0.0074740914928752194 0.019450296627798146 0 0.0068857315520021306 0.020519368814795852 0 0.0081454066599994709 0.02179189261793902 0 0.0090789689467519613 0.020303400194326769 0 0.007381720933506225 0.018858896574056469 0 0.0073841019237739728 0.019692291352919184 0 0.0070480823220304802 0.018412273372724663 0 0.0097942649728885462 0.021608049133230368 0 0.0081454066599994709 0.02179189261793902 0 0.0090789689467519613 0.020303400194326769 0 0.0090789689467519613 0.020303400194326769 0 0.007381720933506225 0.018858896574056469 0 0.0094755498513924442 0.018827787218944396 0 0.0066865632833997832 0.015893482075496637 0 0.007381720933506225 0.018858896574056469 0 0.0085489371766826368 0.017218705831243863 0 0.007381720933506225 0.018858896574056469 0 0.0085489371766826368 0.017218705831243863 0 0.0094755498513924442 0.018827787218944396 0 0.0085489371766826368 0.017218705831243863 0 0.0094755498513924442 0.018827787218944396 0 0.01086662816371106 0.017429923476542701 0 0.0094755498513924442 0.018827787218944396 0 0.01086662816371106 0.017429923476542701 0 0.011206772177351084 0.019332066900146824 0 0.011206772177351084 0.019332066900146824 0 0.010536489511739352 0.02037340407587938 0 0.011966700187791165 0.020405855645779649 0 0.0090789689467519613 0.020303400194326769 0 0.0094755498513924442 0.018827787218944396 0 0.010536489511739352 0.02037340407587938 0 0.0094755498513924442 0.018827787218944396 0 0.011206772177351084 0.019332066900146824 0 0.010536489511739352 0.02037340407587938 0 0.010942237966817869 0.021414574724580689 0 0.0097942649728885462 0.021608049133230368 0 0.010536489511739352 0.02037340407587938 0 0.0097942649728885462 0.021608049133230368 0 0.0090789689467519613 0.020303400194326769 0 0.010536489511739352 0.02037340407587938 0 0.010942237966817869 0.021414574724580689 0 0.010536489511739352 0.02037340407587938 0 0.011716646556972195 0.021149962743789195 0 0.010536489511739352 0.02037340407587938 0 0.011966700187791165 0.020405855645779649 0 0.011716646556972195 0.021149962743789195 0 0.0056657934695990321 0.011081762401471219 0 0.0056788787866638279 0.011034297561905279 0 0.0056873899179235082 0.011042539129395425 0 0.0060340879301299475 0.012918607283494142 0 0.0048052796903333061 0.0090362132362277296 0 0.012381147054675998 0.021774199753406383 0 0.011966700187791165 0.020405855645779649 0 0.013175011659735069 0.019613452852966017 0 0.012381147054675998 0.021774199753406383 0 0.011966700187791165 0.020405855645779649 0 0.011716646556972195 0.021149962743789195 0 0.0060340879301299475 0.012918607283494142 0 0.0055142182244317566 0.0095989013937460097 0 0.013273937853431608 0.015466598852329528 0 0.015287987382651254 0.014541614976285273 0 0.015381342925603062 0.012362245140681172 0 0.0048052796903333061 0.0090362132362277296 0 0.0055142182244317566 0.0095989013937460097 0 0.011206772177351084 0.019332066900146824 0 0.011966700187791165 0.020405855645779649 0 0.013175011659735069 0.019613452852966017 0 -0.005173135610985851 -0.0023253983004349918 0 -0.0045097839943229372 -0.0045487186574586069 0 -0.004234230265313995 -0.0030737464907420356 0 -0.0029843505297112846 -0.0033142832238867558 0 -0.0045097839943229372 -0.0045487186574586069 0 -0.004234230265313995 -0.0030737464907420356 0 0.01086662816371106 0.017429923476542701 0 0.011206772177351084 0.019332066900146824 0 0.013175011659735069 0.019613452852966017 0 0.0039127743495686353 0.0080034325027794288 0 0.0048052796903333061 0.0090362132362277296 0 -0.005173135610985851 -0.0023253983004349918 0 -0.004708886126491508 -0.003522356001796941 0 -0.0053668607845928935 -0.0030300282301183568 0 0.0037218639493424074 0.0035040506844410324 0 0.0048052796903333061 0.0090362132362277296 0 0.0062578977122209022 0.0030077411044766417 0 0.0055142182244317566 0.0095989013937460097 0 -0.0059935802883722246 -0.0022765424249073267 0 -0.0055502694530822645 -0.0023001869179616751 0 -0.0053668607845928935 -0.0030300282301183568 0 0.0071376873614796606 -0.0037362952646673255 0 0.0062578977122209022 0.0030077411044766417 0 0.019849204399931049 0.011918275836740069 0 0.017486643106838069 0.0092185840256294831 0 0.017431833309294913 0.011475251249915087 0 0.019849204399931049 0.011918275836740069 0 0.017431833309294913 0.011475251249915087 0 0.016785909051534022 0.013645811110139253 0 0.019849204399931049 0.011918275836740069 0 0.018481953148481091 0.015846096080993684 0 0.016785909051534022 0.013645811110139253 0 0.017431833309294913 0.011475251249915087 0 0.015343074767582055 0.012332902538536167 0 0.016785909051534022 0.013645811110139253 0 -0.004708886126491508 -0.003522356001796941 0 -0.0053668607845928935 -0.0030300282301183568 0 -0.0048770177983196083 -0.0036751041149121755 0 0.017486643106838069 0.0092185840256294831 0 0.017431833309294913 0.011475251249915087 0 0.015343074767582055 0.012332902538536167 0 0.015287987382651254 0.014541614976285273 0 0.015381342925603062 0.012362245140681172 0 0.016785909051534022 0.013645811110139253 0 0.0055142182244317566 0.0095989013937460097 0 0.0063471215431214496 0.010200056785231634 0 0.0034591061588652096 0.022931232475025303 0 0.0021169925608972872 0.021953288818700269 0 0.0031743202255829295 0.020851662718380987 0 0.0047851322730432799 0.024265525617785645 0 0.005678934675556295 0.027463638943679959 0 0.0034591061588652096 0.022931232475025303 0 0.0049438594044200184 0.022591975913592632 0 0.0031743202255829295 0.020851662718380987 0 0.0034591061588652096 0.022931232475025303 0 0.0021169925608972872 0.021953288818700269 0 0.002762371976861406 0.02487308437642502 0 0.0082734575852691297 0.02687997410293412 0 0.0061654145126204376 0.027518700321169622 0 0.0066114033074789504 0.029328426378209753 0 0.0082734575852691297 0.02687997410293412 0 0.0061654145126204376 0.027518700321169622 0 0.0057691132337871686 0.025957226561968413 0 0.0052511703050858805 0.029860918900403325 0 0.0054099177488915627 0.028698503993280979 0 0.0068680398807987614 0.029461627458623591 0 0.0082734575852691297 0.02687997410293412 0 0.0066114033074789504 0.029328426378209753 0 0.0091368267103502966 0.03063708774412504 0 0.0058989903538515832 0.028024458149275303 0 0.005678934675556295 0.027463638943679959 0 0.0034591061588652096 0.022931232475025303 0 0.002762371976861406 0.02487308437642502 0 0.004422233655984425 0.024287702507034162 0 0.0048107158653993287 0.026012966953901869 0 0.002762371976861406 0.02487308437642502 0 0.004422233655984425 0.024287702507034162 0 0.004422233655984425 0.024287702507034162 0 0.0068068395187269141 0.024354632717945857 0 0.0049438594044200184 0.022591975913592632 0 0.0048107158653993287 0.026012966953901869 0 0.004422233655984425 0.024287702507034162 0 0.0068068395187269141 0.024354632717945857 0 0.0083171231405254394 0.023563945760577378 0 0.0068068395187269141 0.024354632717945857 0 0.00653932528743694 0.022396650614440818 0 0.0072465600384153204 0.025801160349992351 0 0.0082420591053760043 0.02476082349418772 0 0.0068068395187269141 0.024354632717945857 0 0.0056849691698069122 0.022999277179711113 0 0.0049505073699095212 0.022211130085527213 0 0.0083171231405254394 0.023563945760577378 0 0.00653932528743694 0.022396650614440818 0 0.006948209866225079 0.020669897020708546 0 0.0068068395187269141 0.024354632717945857 0 0.00653932528743694 0.022396650614440818 0 0.0050204986947568111 0.022371818901055343 0 0.0034591061588652096 0.022931232475025303 0 0.004422233655984425 0.024287702507034162 0 0.0049438594044200184 0.022591975913592632 0 0.00653932528743694 0.022396650614440818 0 0.0050204986947568111 0.022371818901055343 0 0.0056363220913675178 0.021114086245304999 0 0.0049505073699095212 0.022211130085527213 0 0.0037996900109850337 0.020899198963611476 0 0.0056363220913675178 0.021114086245304999 0 0.0051535822926997207 0.019850444404055666 0 0.0033861783612056163 0.02054536157823569 0 0.0050204986947568111 0.022371818901055343 0 0.0056363220913675178 0.021114086245304999 0 0.0033861783612056163 0.02054536157823569 0 0.0056363220913675178 0.021114086245304999 0 0.006948209866225079 0.020669897020708546 0 0.0051535822926997207 0.019850444404055666 0 0.00653932528743694 0.022396650614440818 0 0.0056363220913675178 0.021114086245304999 0 0.006948209866225079 0.020669897020708546 0 0.0057698378370905721 0.017983057621877522 0 0.0069817287159821689 0.017386922010192967 0 0.0074740914928752194 0.019450296627798146 0 0.0058263942998377774 0.0182416257354014 0 0.0068549879641751138 0.020481234881992782 0 0.0056665275164987684 0.018041481071435564 0 0.006948209866225079 0.020669897020708546 0 0.0051535822926997207 0.019850444404055666 0 0.0057698378370905721 0.017983057621877522 0 0.0074740914928752194 0.019450296627798146 0 0.0068857315520021306 0.020519368814795852 0 0.0062573102945960909 0.015509988887488979 0 0.0070480823220304802 0.018412273372724663 0 0.0056665275164987684 0.018041481071435564 0 0.0051535822926997207 0.019850444404055666 0 0.0048058850356894993 0.018631178397433317 0 0.0051535822926997207 0.019850444404055666 0 0.0038169951164139255 0.01895240270477223 0 0.0033861783612056163 0.02054536157823569 0 0.0051535822926997207 0.019850444404055666 0 0.0048058850356894993 0.018631178397433317 0 0.0038169951164139255 0.01895240270477223 0 0.0044024861853702553 0.017943116351579764 0 0.0048058850356894993 0.018631178397433317 0 0.0038169951164139255 0.01895240270477223 0 0.0037996900109850337 0.020899198963611476 0 0.0034487318036221957 0.020252711884570337 0 0.0038169951164139255 0.01895240270477223 0 0.0033861783612056163 0.02054536157823569 0 0.0018667592747457946 0.018806652952703732 0 0.0035116570735112757 0.017466825417066501 0 0.0038169951164139255 0.01895240270477223 0 0.0018667592747457946 0.018806652952703732 0 0.0021169925608972872 0.021953288818700269 0 0.0031743202255829295 0.020851662718380987 0 0.001466712725704083 0.019122734986637639 0 0.0082734575852691297 0.02687997410293412 0 0.0075121941542996692 0.023036322504162071 0 0.0057691132337871686 0.025957226561968413 0 0.0047851322730432799 0.024265525617785645 0 0.0034487318036221957 0.020252711884570337 0 0.0075121941542996692 0.023036322504162071 0 0.0041047191317483663 0.024371904218516222 0 0.0033973198398798516 0.02211231599261378 0 0.0041047191317483663 0.024371904218516222 0 0.0033973198398798516 0.02211231599261378 0 0.0014769084270522756 0.024250268500721071 0 0.00045206004625419585 0.021205258089378214 0 0.0033973198398798516 0.02211231599261378 0 0.0014769084270522756 0.024250268500721071 0 0.0041047191317483663 0.024371904218516222 0 0.0029895528153673339 0.02638968199587757 0 0.0014769084270522756 0.024250268500721071 0 0.0075121941542996692 0.023036322504162071 0 0.0041047191317483663 0.024371904218516222 0 0.0057691132337871686 0.025957226561968413 0 0.0041047191317483663 0.024371904218516222 0 0.0029895528153673339 0.02638968199587757 0 0.0057691132337871686 0.025957226561968413 0 0.0058989903538515832 0.028024458149275303 0 0.0054558455882387892 0.027926231894566896 0 0.0029895528153673339 0.02638968199587757 0 0.0057691132337871686 0.025957226561968413 0 0.0039841950141484726 0.027930291162040315 0 0.0061654145126204376 0.027518700321169622 0 0.0066114033074789504 0.029328426378209753 0 0.0039841950141484726 0.027930291162040315 0 0.0061654145126204376 0.027518700321169622 0 0.0057691132337871686 0.025957226561968413 0 0.0039841950141484726 0.027930291162040315 0 0.0029895528153673339 0.02638968199587757 0 0.0039841950141484726 0.027930291162040315 0 0.0023449461879424555 0.02816339048328553 0 0.0039841950141484726 0.027930291162040315 0 0.0023449461879424555 0.02816339048328553 0 0.0033228238466582105 0.029393179843310312 0 0.0023449461879424555 0.02816339048328553 0 0.0033228238466582105 0.029393179843310312 0 0.0015731312952177862 0.029315869973678112 0 0.0052511703050858805 0.029860918900403325 0 0.0033228238466582105 0.029393179843310312 0 0.0044558997667576237 0.028949679686828354 0 0.0054099177488915627 0.028698503993280979 0 0.0039841950141484726 0.027930291162040315 0 0.0044558997667576237 0.028949679686828354 0 0.0039841950141484726 0.027930291162040315 0 0.0033228238466582105 0.029393179843310312 0 0.0044558997667576237 0.028949679686828354 0 0.0052908142214693624 0.029044474514545914 0 0.0046294739477590399 0.029035136168789017 0 0.0052511703050858805 0.029860918900403325 0 0.0054099177488915627 0.028698503993280979 0 0.0044558997667576237 0.028949679686828354 0 0.00011252946858477742 0.02900291295957198 0 0.0015731312952177862 0.029315869973678112 0 0.00075058044773174452 0.03015213158539887 0 0.00011252946858477742 0.02900291295957198 0 0.0015731312952177862 0.029315869973678112 0 0.00040903922936898934 0.027146339898085708 0 0.0023449461879424555 0.02816339048328553 0 0.0015731312952177862 0.029315869973678112 0 0.00040903922936898934 0.027146339898085708 0 0.0029895528153673339 0.02638968199587757 0 0.0023449461879424555 0.02816339048328553 0 0.00040903922936898934 0.027146339898085708 0 0.00011252946858477742 0.02900291295957198 0 0.00040903922936898934 0.027146339898085708 0 -0.00047562242984520168 0.028077058909660262 0 -0.00090007140756623294 0.02669070799131066 0 -0.0017088774627964471 0.025980163764025902 0 0.00040903922936898934 0.027146339898085708 0 -0.0006843819458724514 0.027645146355108698 0 -0.00047562242984520168 0.028077058909660262 0 0.00040903922936898934 0.027146339898085708 0 0.0014769084270522756 0.024250268500721071 0 -0.0025558880972460169 0.023550799339534537 0 0.0029895528153673339 0.02638968199587757 0 0.00040903922936898934 0.027146339898085708 0 0.0014769084270522756 0.024250268500721071 0 0.00045206004625419585 0.021205258089378214 0 0.0014769084270522756 0.024250268500721071 0 -0.0025558880972460169 0.023550799339534537 0 -0.0030432893355256557 0.024981850981463431 0 -0.0017088774627964471 0.025980163764025902 0 -0.0012672314735988036 0.028119070439836854 0 -0.0006843819458724514 0.027645146355108698 0 -0.0012842231293627017 0.028116066031685878 0 -0.0012842231293627017 0.028116066031685878 0 -0.0010296173718877793 0.02809141990725128 0 -0.0015542122496259182 0.028332611062522165 0 -0.0006843819458724514 0.027645146355108698 0 -0.0010296173718877793 0.02809141990725128 0 -0.00047562242984520168 0.028077058909660262 0 -0.0006843819458724514 0.027645146355108698 0 -0.0012842231293627017 0.028116066031685878 0 -0.0010296173718877793 0.02809141990725128 0 -0.0013085405488076876 0.028500529345752902 0 -0.0014015304455270931 0.028386347079310002 0 -0.0013056155634283391 0.028499081120400043 0 -0.0013579242985420263 0.028355259173100025 0 -0.0012842231293627017 0.028116066031685878 0 -0.0013459836800750213 0.028326736393334061 0 -0.0013085405488076876 0.028500529345752902 0 -0.0013459836800750213 0.028326736393334061 0 -0.0014015304455270931 0.028386347079310002 0 -0.0012842231293627017 0.028116066031685878 0 -0.0013459836800750213 0.028326736393334061 0 -0.0014015304455270931 0.028386347079310002 0 -0.0012842231293627017 0.028116066031685878 0 -0.0014015304455270931 0.028386347079310002 0 -0.0015542122496259182 0.028332611062522165 0 -0.0014015304455270931 0.028386347079310002 0 -0.0014125265959187478 0.028420173594905725 0 -0.0015542122496259182 0.028332611062522165 0 -0.0014015304455270931 0.028386347079310002 0 -0.0013651865996174518 0.028445359364381789 0 -0.0013056155634283391 0.028499081120400043 0 -0.0014125265959187478 0.028420173594905725 0 -0.0013651865996174518 0.028445359364381789 0 -0.0013768939003257824 0.028461958673915776 0 -0.0014015304455270931 0.028386347079310002 0 -0.0014125265959187478 0.028420173594905725 0 -0.0013651865996174518 0.028445359364381789 0 -0.0013005652267413853 0.028487378545445759 0 -0.0013651865996174518 0.028445359364381789 0 -0.0013768939003257824 0.028461958673915776 0 -0.0013005652267413853 0.028487378545445759 0 -0.0013651865996174518 0.028445359364381789 0 -0.0013056155634283391 0.028499081120400043 0 -0.0022478494870299169 0.029073029506059191 0 -0.0013025140944426157 0.029047389604259087 0 -0.0016593766866358727 0.028595887467913805 0 -0.00076674355195499957 0.033458463648283504 0 -0.00094180039863902935 0.033179282189085398 0 -0.0013705076709888922 0.028516731552432041 0 -0.0016593766866358727 0.028595887467913805 0 -0.0013768939003257824 0.028461958673915776 0 -0.0014125265959187478 0.028420173594905725 0 -0.0013705076709888922 0.028516731552432041 0 -0.0013768939003257824 0.028461958673915776 0 -0.0015542122496259182 0.028332611062522165 0 -0.0018805606255796116 0.028895891197741448 0 -0.001525371797985081 0.029008537847664117 0 -0.00076674355195499957 0.033458463648283504 0 -0.00057315780125033174 0.032448459316825849 0 -0.0014125265959187478 0.028420173594905725 0 -0.0013705076709888922 0.028516731552432041 0 -0.0015542122496259182 0.028332611062522165 0 -0.0025025213026120528 0.028672357993658561 0 -0.0015542122496259182 0.028332611062522165 0 -0.0018805606255796116 0.028895891197741448 0 -0.00076674355195499957 0.033458463648283504 0 -0.0010470437310115769 0.034516585665683282 0 -0.0025025213026120528 0.028672357993658561 0 -0.0018805606255796116 0.028895891197741448 0 -0.0019672766625499793 0.029540651977739224 0 -0.0018805606255796116 0.028895891197741448 0 -0.001525371797985081 0.029008537847664117 0 -0.0019672766625499793 0.029540651977739224 0 -0.0013470607329026812 0.039428691943322797 0 -0.0014776162839277055 0.039716538884377102 0 -0.0013008632340412965 0.039817215700306628 0 -0.0013470607329026812 0.039428691943322797 0 -0.0013008632340412965 0.039817215700306628 0 -0.0010265690871584727 0.039800305508876907 0 -0.0014776162839277055 0.039716538884377102 0 -0.0014818745721660248 0.039872527810450982 0 -0.0013008632340412965 0.039817215700306628 0 -0.00047562242984520168 0.028077058909660262 0 -0.0010946662850954375 0.028516024539686897 0 -0.00083923845923484944 0.02915028107391043 0 -0.0010296173718877793 0.02809141990725128 0 -0.00047562242984520168 0.028077058909660262 0 -0.0010946662850954375 0.028516024539686897 0 -0.0010296173718877793 0.02809141990725128 0 -0.0015542122496259182 0.028332611062522165 0 -0.0010946662850954375 0.028516024539686897 0 -0.0015542122496259182 0.028332611062522165 0 -0.0010946662850954375 0.028516024539686897 0 -0.001525371797985081 0.029008537847664117 0 -0.001525371797985081 0.029008537847664117 0 -0.00083923845923484944 0.02915028107391043 0 -0.001464511879658546 0.029830960205325534 0 -0.0010946662850954375 0.028516024539686897 0 -0.001525371797985081 0.029008537847664117 0 -0.00083923845923484944 0.02915028107391043 0 -0.001525371797985081 0.029008537847664117 0 -0.001464511879658546 0.029830960205325534 0 -0.0019672766625499793 0.029540651977739224 0 0.00011252946858477742 0.02900291295957198 0 -0.00083923845923484944 0.02915028107391043 0 -0.00031810076292151002 0.029826912441115377 0 0.00011252946858477742 0.02900291295957198 0 -0.00047562242984520168 0.028077058909660262 0 -0.00083923845923484944 0.02915028107391043 0 -0.00083923845923484944 0.02915028107391043 0 -0.00031810076292151002 0.029826912441115377 0 -0.001464511879658546 0.029830960205325534 0 -0.00031810076292151002 0.029826912441115377 0 -0.001464511879658546 0.029830960205325534 0 -9.3710990217173309e-05 0.031243147850929145 0 -0.00080890403450696493 0.03056886585381801 0 -7.8423720954159604e-05 0.03126019878718235 0 -0.001464511879658546 0.029830960205325534 0 -0.0017222518331741373 0.030702476836023715 0 -0.0019672766625499793 0.029540651977739224 0 -0.00085462203810193586 0.035636313191898007 0 -0.0010470437310115769 0.034516585665683282 0 -0.00069207687215981281 0.040159520838174707 0 -0.0010265690871584727 0.039800305508876907 0 -0.00097508642855852451 0.040115772410371148 0 -0.00069207687215981281 0.040159520838174707 0 -0.00088603974986862296 0.040340230453471584 0 -0.00068196273436880138 0.04046201430506121 0 -0.00069207687215981281 0.040159520838174707 0 -0.00088603974986862296 0.040340230453471584 0 -0.00097508642855852451 0.040115772410371148 0 -0.001464511879658546 0.029830960205325534 0 -0.0017222518331741373 0.030702476836023715 0 -0.00096151854425529639 0.03090013972086186 0 -0.0017222518331741373 0.030702476836023715 0 -0.00096151854425529639 0.03090013972086186 0 -0.0013395575591898922 0.032637940455840023 0 -0.0014119031121000171 0.040011440104727819 0 -0.0014818745721660248 0.039872527810450982 0 -0.0013008632340412965 0.039817215700306628 0 -0.0014119031121000171 0.040011440104727819 0 -0.0011734646028216469 0.040031913217613478 0 -0.001333625058983993 0.040192108367126264 0 -0.0014119031121000171 0.040011440104727819 0 -0.0013008632340412965 0.039817215700306628 0 -0.0011734646028216469 0.040031913217613478 0 -0.0011734646028216469 0.040031913217613478 0 -0.0010265690871584727 0.039800305508876907 0 -0.00097508642855852451 0.040115772410371148 0 -0.0013008632340412965 0.039817215700306628 0 -0.0011734646028216469 0.040031913217613478 0 -0.0010265690871584727 0.039800305508876907 0 -0.00088603974986862296 0.040340230453471584 0 -0.0010974384733222304 0.040248735507832659 0 -0.0010692338306664548 0.040458674427684256 0 -0.00088603974986862296 0.040340230453471584 0 -0.00097508642855852451 0.040115772410371148 0 -0.0010974384733222304 0.040248735507832659 0 -0.0011734646028216469 0.040031913217613478 0 -0.0010974384733222304 0.040248735507832659 0 -0.001333625058983993 0.040192108367126264 0 -0.0011734646028216469 0.040031913217613478 0 -0.00097508642855852451 0.040115772410371148 0 -0.0010974384733222304 0.040248735507832659 0 -0.0010974384733222304 0.040248735507832659 0 -0.001333625058983993 0.040192108367126264 0 -0.0012830231729309214 0.040435588094283097 0 -0.0015152445414174747 0.040312445402144112 0 -0.001333625058983993 0.040192108367126264 0 -0.0012830231729309214 0.040435588094283097 0 -0.0015052401752728083 0.040132110426373456 0 -0.0014119031121000171 0.040011440104727819 0 -0.001333625058983993 0.040192108367126264 0 -0.0015152445414174747 0.040312445402144112 0 -0.0015052401752728083 0.040132110426373456 0 -0.001333625058983993 0.040192108367126264 0 -0.0015038679627639724 0.040630907037801409 0 -0.0015152445414174747 0.040312445402144112 0 -0.0012830231729309214 0.040435588094283097 0 -0.0015038679627639724 0.040630907037801409 0 -0.0012830231729309214 0.040435588094283097 0 -0.0011665662519331067 0.040678503868587901 0 -0.0012830231729309214 0.040435588094283097 0 -0.0010692338306664548 0.040458674427684256 0 -0.0011665662519331067 0.040678503868587901 0 -0.0010974384733222304 0.040248735507832659 0 -0.0012830231729309214 0.040435588094283097 0 -0.0010692338306664548 0.040458674427684256 0 -0.00088603974986862296 0.040340230453471584 0 -0.0010692338306664548 0.040458674427684256 0 -0.00091306681713835929 0.040598882494611646 0 -0.0010692338306664548 0.040458674427684256 0 -0.0011665662519331067 0.040678503868587901 0 -0.00091306681713835929 0.040598882494611646 0 -0.0012227086066205729 0.041089776078645293 0 -0.00098607151150087468 0.040892177578143243 0 -0.0011665662519331067 0.040678503868587901 0 -0.00098607151150087468 0.040892177578143243 0 -0.0011665662519331067 0.040678503868587901 0 -0.00091306681713835929 0.040598882494611646 0 -0.001217546329054179 0.05459461315869174 0 -0.00059649382596387609 0.057511582429060772 0 -0.0015038679627639724 0.040630907037801409 0 -0.0012227086066205729 0.041089776078645293 0 -0.0011665662519331067 0.040678503868587901 0 -0.00071075434179712215 0.070239894741517164 0 8.1507085643609152e-05 0.068317373196349507 0 0.0027481473607049137 0.072446633471309765 0 -0.00085462203810193586 0.035636313191898007 0 -0.0001943970493967439 0.037132675704311308 0 -0.00069207687215981281 0.040159520838174707 0 -0.00033101569020067611 0.040498404497560259 0 -0.00068196273436880138 0.04046201430506121 0 -0.00033101569020067611 0.040498404497560259 0 -0.00068196273436880138 0.04046201430506121 0 -0.0006080255847843879 0.040723071511994446 0 -0.00088603974986862296 0.040340230453471584 0 -0.00068196273436880138 0.04046201430506121 0 -0.00091306681713835929 0.040598882494611646 0 -0.00068196273436880138 0.04046201430506121 0 -0.00091306681713835929 0.040598882494611646 0 -0.0006080255847843879 0.040723071511994446 0 -0.00071822422360500035 0.041131114418784087 0 -0.00098607151150087468 0.040892177578143243 0 -0.0006080255847843879 0.040723071511994446 0 -0.00098607151150087468 0.040892177578143243 0 -0.00091306681713835929 0.040598882494611646 0 -0.0006080255847843879 0.040723071511994446 0 -0.00033101569020067611 0.040498404497560259 0 -0.0006080255847843879 0.040723071511994446 0 -0.00026894540275034998 0.040706048282960754 0 -0.00044735084368166669 0.040948501750150586 0 -0.00071822422360500035 0.041131114418784087 0 -0.0006080255847843879 0.040723071511994446 0 -0.00044735084368166669 0.040948501750150586 0 -0.0006080255847843879 0.040723071511994446 0 -0.00026894540275034998 0.040706048282960754 0 -0.00044735084368166669 0.040948501750150586 0 -0.00011831272454653273 0.040890786016900528 0 -0.00026894540275034998 0.040706048282960754 0 0.001372404483944372 0.039550790251188128 0 -0.0001943970493967439 0.037132675704311308 0 0.00027094160420695754 0.04053392569564053 0 -0.00011831272454653273 0.040890786016900528 0 -0.00026894540275034998 0.040706048282960754 0 0.00027094160420695754 0.04053392569564053 0 -0.00033101569020067611 0.040498404497560259 0 -0.00026894540275034998 0.040706048282960754 0 0.00015499290179401726 0.036719715570803453 0 -0.0013395575591898922 0.032637940455840023 0 0.00096242976345659926 0.034588506992680436 0 -0.0013395575591898922 0.032637940455840023 0 0.00096151019676391435 0.032567565535948258 0 0.00096242976345659926 0.034588506992680436 0 -7.8423720954159604e-05 0.03126019878718235 0 0.0016570231278063134 0.032801476080216017 0 -0.00096151854425529639 0.03090013972086186 0 -0.0013395575591898922 0.032637940455840023 0 0.00096151019676391435 0.032567565535948258 0 0.0013843247434007179 0.032612469305854166 0 0.004732160697106344 0.034451100876433743 0 0.003618133713208327 0.032509446393179153 0 0.0013843247434007179 0.032612469305854166 0 0.003618133713208327 0.032509446393179153 0 0.0026760709576218807 0.031452256115042633 0 0.0013843247434007179 0.032612469305854166 0 0.004732160697106344 0.034451100876433743 0 0.0057432488990700687 0.035683129272615702 0 0.0016570231278063134 0.032801476080216017 0 0.0032210476459063717 0.034145196302919949 0 0.00096151019676391435 0.032567565535948258 0 0.00096242976345659926 0.034588506992680436 0 0.0027352638688181818 0.035852201043384893 0 0.00096151019676391435 0.032567565535948258 0 0.0027352638688181818 0.035852201043384893 0 0.0057432488990700687 0.035683129272615702 0 0.00096242976345659926 0.034588506992680436 0 0.0014969102181507299 0.036283757433201599 0 0.0027352638688181818 0.035852201043384893 0 0.00015499290179401726 0.036719715570803453 0 0.00096242976345659926 0.034588506992680436 0 0.0014969102181507299 0.036283757433201599 0 0.0025543161035319092 0.038240033511632451 0 0.0014969102181507299 0.036283757433201599 0 0.0027352638688181818 0.035852201043384893 0 0.0044699015540698135 0.037520870281943043 0 0.0033821291704839215 0.037713219795034142 0 0.0027352638688181818 0.035852201043384893 0 0.004732160697106344 0.034451100876433743 0 0.0057432488990700687 0.035683129272615702 0 0.01090055021349557 0.036630127871688581 0 0.0044699015540698135 0.037520870281943043 0 0.0027352638688181818 0.035852201043384893 0 0.0057432488990700687 0.035683129272615702 0 0.0064863889524234414 0.038102454158262938 0 0.0057432488990700687 0.035683129272615702 0 0.01090055021349557 0.036630127871688581 0 0.007681079301074735 0.025073968507177687 0 0.008761567379445211 0.02220632777937618 0 0.004732160697106344 0.034451100876433743 0 0.0052161277844166238 0.032938824011221057 0 0.0048612938818884252 0.032894099802738976 0 0.004732160697106344 0.034451100876433743 0 0.015371859357743637 0.033846757980767049 0 0.01090055021349557 0.036630127871688581 0 0.014634193528916326 0.038688857076929775 0 0.015371859357743637 0.033846757980767049 0 0.01090055021349557 0.036630127871688581 0 0.0048612938818884252 0.032894099802738976 0 0.0050295477805445913 0.031965050085239519 0 0.0041325440521529739 0.031539654757087685 0 0.0053015656141174325 0.032329051362508944 0 0.0052161277844166238 0.032938824011221057 0 0.0048612938818884252 0.032894099802738976 0 0.0053015656141174325 0.032329051362508944 0 0.0048612938818884252 0.032894099802738976 0 0.0050295477805445913 0.031965050085239519 0 0.004732160697106344 0.034451100876433743 0 0.0048612938818884252 0.032894099802738976 0 0.003618133713208327 0.032509446393179153 0 0.0048612938818884252 0.032894099802738976 0 0.003618133713208327 0.032509446393179153 0 0.0041325440521529739 0.031539654757087685 0 0.0041325440521529739 0.031539654757087685 0 0.0047070249641386081 0.030809510658395812 0 0.0032941972861415215 0.030493010495370822 0 0.003618133713208327 0.032509446393179153 0 0.0041325440521529739 0.031539654757087685 0 0.0026760709576218807 0.031452256115042633 0 0.0041325440521529739 0.031539654757087685 0 0.0032941972861415215 0.030493010495370822 0 0.0026760709576218807 0.031452256115042633 0 0.005432435906420373 0.031331801831029869 0 0.0050295477805445913 0.031965050085239519 0 0.0048429301224733618 0.031407905908173127 0 0.0050295477805445913 0.031965050085239519 0 0.0041325440521529739 0.031539654757087685 0 0.0048429301224733618 0.031407905908173127 0 0.0041325440521529739 0.031539654757087685 0 0.0048429301224733618 0.031407905908173127 0 0.0047070249641386081 0.030809510658395812 0 0.005432435906420373 0.031331801831029869 0 0.0048429301224733618 0.031407905908173127 0 0.0047070249641386081 0.030809510658395812 0 0.0052079309727330724 0.029938927398053851 0 0.0033228238466582105 0.029393179843310312 0 0.0047070249641386081 0.030809510658395812 0 0.0033228238466582105 0.029393179843310312 0 0.0047070249641386081 0.030809510658395812 0 0.0032941972861415215 0.030493010495370822 0 0.0033228238466582105 0.029393179843310312 0 0.0015731312952177862 0.029315869973678112 0 0.0032941972861415215 0.030493010495370822 0 0.0015731312952177862 0.029315869973678112 0 0.0019599623209183552 0.03050753157657031 0 0.00075058044773174452 0.03015213158539887 0 0.0015731312952177862 0.029315869973678112 0 0.0032941972861415215 0.030493010495370822 0 0.0019599623209183552 0.03050753157657031 0 0.0019599623209183552 0.03050753157657031 0 0.00075058044773174452 0.03015213158539887 0 0.0013087546000792299 0.031140439474539768 0 -0.00031810076292151002 0.029826912441115377 0 -9.3710990217173309e-05 0.031243147850929145 0 0.00075058044773174452 0.03015213158539887 0 0.00011252946858477742 0.02900291295957198 0 -0.00031810076292151002 0.029826912441115377 0 0.00075058044773174452 0.03015213158539887 0 -9.3710990217173309e-05 0.031243147850929145 0 0.0013843247434007179 0.032612469305854166 0 0.0013087546000792299 0.031140439474539768 0 -9.3710990217173309e-05 0.031243147850929145 0 0.00075058044773174452 0.03015213158539887 0 0.0013087546000792299 0.031140439474539768 0 0.0013843247434007179 0.032612469305854166 0 0.0026760709576218807 0.031452256115042633 0 0.0013087546000792299 0.031140439474539768 0 0.0019599623209183552 0.03050753157657031 0 0.0026760709576218807 0.031452256115042633 0 0.0013087546000792299 0.031140439474539768 0 0.0032941972861415215 0.030493010495370822 0 0.0019599623209183552 0.03050753157657031 0 0.0026760709576218807 0.031452256115042633 0 
</DataArray>
</PointData>
<CellData Scalars="region_id,cross_section_updated," Vectors="" Tensors="stress,">
<DataArray type="Float64" Name="region_id" format="ascii">
5 5 5 5 5 6 5 5 5 5 5 5 5 6 5 5 5 5 6 5 5 6 5 5 5 5 6 5 5 5 5 6 5 5 5 5 5 5 5 5 5 5 5 5 5 6 5 5 6 5 5 5 5 5 6 5 5 5 5 5 5 5 6 5 5 5 5 6 5 5 5 5 5 5 5 5 5 6 5 5 6 5 5 6 5 5 5 5 6 5 5 5 5 5 5 5 6 6 6 5 5 6 5 5 5 5 5 6 5 5 5 5 5 5 5 5 5 5 5 5 5 6 5 5 5 6 5 5 5 5 5 5 6 5 5 5 5 5 5 5 5 5 5 5 5 5 5 5 5 5 5 5 5 5 5 5 5 5 6 5 5 5 6 5 5 6 5 5 5 5 5 5 5 5 5 5 5 6 5 5 5 5 5 5 5 5 6 5 5 5 5 5 5 5 5 6 5 5 5 5 5 5 5 5 5 6 5 5 5 5 5 5 5 5 5 5 5 5 5 5 5 5 5 5 5 5 5 5 5 6 5 5 5 6 5 6 5 6 5 5 6 5 5 5 6 5 6 5 6 5 6 6 5 6 5 5 6 5 6 5 5 5 6 5 6 6 5 5 6 5 5 5 6 5 6 6 6 5 6 5 5 5 6 5 6 6 6 5 5 6 6 5 5 5 5 6 5 6 5 5 6 5 5 5 6 5 6 6 6 5 5 5 6 5 6 6 6 6 5 5 5 6 6 5 5 6 6 6 5 6 5 5 5 5 6 5 5 5 5 5 5 5 6 5 5 5 5 5 5 6 6 5 5 5 6 5 5 5 6 5 6 5 6 6 5 5 5 5 6 5 5 6 5 5 5 5 6 5 6 5 5 5 5 5 6 6 5 5 5 5 5 5 5 5 6 5 5 5 6 5 5 6 5 6 5 5 5 5 5 5 5 5 5 5 5 6 5 6 5 6 5 5 5 6 5 6 5 6 5 5 5 5 5 5 6 5 6 5 5 5 6 5 5 5 6 5 6 6 5 5 5 5 6 5 5 5 5 6 6 5 5 6 5 6 5 6 6 5 5 5 6 5 5 5 5 6 5 5 5 5 5 5 5 5 5 5 5 6 5 5 5 5 6 5 5 5 6 5 6 6 6 5 5 5 6 6 5 6 5 5 6 5 5 5 5 6 5 5 5 5 5 5 5 5 5 5 5 6 6 5 5 6 5 5 5 6 5 5 5 5 5 5 6 5 5 5 6 5 5 5 6 5 5 5 5 5 5 5 5 5 5 5 6 5 5 5 6 5 5 5 5 5 5 5 6 5 5 5 5 5 6 5 5 5 5 5 5 5 5 5 5 5 5 5 5 5 5 5 5 5 6 5 5 5 5 6 5 5 6 5 5 5 5 5 5 5 6 5 5 5 5 5 5 5 5 6 5 6 5 5 6 5 5 5 6 5 5 6 5 5 5 6 5 6 5 5 6 5 6 5 5 5 5 5 5 5 5 5 5 5 5 5 5 5 5 5 5 5 5 5 5 6 5 6 5 6 5 5 5 5 5 5 5 5 5 5 5 5 5 5 5 6 5 5 5 5 5 5 5 5 5 6 5 5 5 5 5 5 5 5 5 5 5 5 5 5 5 5 5 5 5 5 5 5 5 5 5 5 5 5 5 6 5 5 6 5 5 5 6 6 5 6 5 5 5 5 5 6 5 5 5 5 5 6 5 5 5 5 5 5 5 5 5 5 5 5 5 5 5 5 5 5 5 5 5 5 5 5 5 5 5 5 5 5 5 5 5 5 5 5 5 5 5 5 5 5 5 5 5 5 5 5 5 6 5 5 5 5 5 5 5 5 5 5 5 5 5 5 5 6 5 5 5 5 6 5 5 5 5 5 5 5 5 5 5 5 5 5 5 5 5 5 5 5 5 5 5 5 5 5 5 5 6 5 5 6 5 6 6 6 6 5 5 6 5 5 5 5 5 5 5 5 5 5 5 5 5 5 5 5 5 6 5 5 6 5 6 5 5 5 5 6 5 6 5 5 5 5 6 5 5 5 6 5 5 5 5 5 6 5 6 5 5 6 6 5 6 5 5 5 5 5 5 5 5 5 5 5 6 5 5 5 6 5 5 5 6 5 5 6 6 6 5 5 5 5 5 5 5 5 5 5 5 6 5 5 5 5 5 5 5 5 6 6 6 5 5 5 5 5 5 5 5 6 6 5 5 5 6 5 5 6 5 5 5 5 5 5 5 5 5 5 5 6 5 5 5 5 5 5 5 5 6 5 5 5 5 5 5 5 5 5 5 6 5 6 6 6 5 5 5 5 5 5 5 6 6 5 6 5 5 5 5 5 6 5 6 6 5 5 5 6 5 6 5 5 5 5 6 5 5 5 5 5 5 5 5 5 5 5 5 5 5 5 5 5 6 5 5 5 6 5 5 5 5 5 6 5 5 5 5 5 5 6 5 6 5 5 5 5 5 5 5 5 6 5 5 5 6 5 5 5 5 5 5 5 5 5 5 5 5 5 5 5 5 5 5 5 5 5 5 5 5 5 6 6 6 5 5 5 5 6 5 5 5 5 6 5 5 5 5 5 5 5 6 5 5 5 5 5 5 5 5 6 5 5 5 5 5 5 5 5 5 5 5 5 6 5 5 5 5 5 5 6 5 5 5 5 5 5 5 5 6 5 5 5 6 5 5 5 5 5 5 5 5 5 5 5 5 6 5 5 5 5 5 5 5 5 5 5 5 5 5 5 5 5 5 5 5 5 5 5 5 5 5 5 5 5 5 5 5 5 5 5 5 5 5 5 5 5 5 5 5 5 5 5 5 6 5 5 5 5 5 5 5 5 5 5 5 5 5 5 5 5 5 5 5 5 5 5 5 5 6 5 5 5 5 5 5 5 5 5 5 6 5 5 6 5 5 5 5 5 5 5 5 5 6 5 6 5 5 5 5 6 5 5 6 5 6 5 5 5 5 5 6 5 5 5 5 5 5 5 5 6 5 5 5 5 5 5 5 5 5 5 5 5 5 5 6 5 6 6 5 5 5 5 5 6 5 5 5 5 5 5 5 5 5 5 5 5 5 5 5 6 5 5 5 5 5 5 5 5 5 5 5 5 5 5 5 5 6 5 5 5 5 5 6 6 5 5 6 5 5 5 5 5 5 5 5 5 5 6 5 5 5 5 5 5 5 5 5 6 5 6 5 5 5 5 5 6 5 5 5 5 6 5 5 5 6 5 5 5 6 5 5 6 5 5 5 5 5 5 5 5 5 5 5 5 5 5 5 5 6 5 5 5 5 5 5 5 6 5 5 5 5 5 5 5 5 5 5 5 5 5 5 5 5 5 5 5 5 5 5 5 5 5 5 5 6 5 5 5 5 6 5 5 5 6 5 5 5 5 5 5 5 5 5 6 5 6 5 5 5 5 5 5 5 5 5 5 5 5 5 5 5 5 5 5 6 6 5 5 5 6 5 5 6 5 5 6 5 5 5 6 5 5 6 5 5 5 5 5 5 5 5 5 5 5 5 5 5 5 5 5 5 5 5 6 5 6 5 5 5 5 5 5 5 5 5 5 5 6 5 6 5 5 5 6 5 5 5 5 5 6 5 5 5 5 5 5 6 5 5 5 5 5 5 5 5 5 5 5 6 5 5 5 5 5 5 5 5 6 5 5 5 6 5 5 6 5 5 5 5 5 6 5 5 5 5 5 5 5 5 5 6 5 5 6 5 6 5 6 6 6 5 6 5 5 5 5 5 5 6 5 5 5 5 5 5 6 5 5 5 5 5 5 5 6 5 5 5 5 6 5 5 5 5 5 6 5 6 5 5 5 5 5 5 5 5 5 5 6 5 5 5 5 5 5 5 6 5 5 5 5 5 5 5 6 5 6 5 5 5 5 5 5 5 5 6 5 5 5 6 6 5 5 5 5 5 6 6 5 6 5 5 6 5 5 6 5 5 5 5 5 5 5 5 6 5 5 5 5 5 6 5 5 5 5 6 5 5 6 5 5 5 5 5 5 5 5 5 5 5 5 5 5 5 5 5 5 5 5 5 5 5 5 5 5 5 5 5 5 5 5 5 5 5 5 5 5 5 5 5 6 5 5 6 5 5 5 5 5 6 5 5 5 5 6 5 5 5 5 5 5 5 5 5 5 5 5 5 5 5 5 5 5 5 5 5 5 5 5 6 5 5 5 6 5 5 5 5 5 5 6 5 5 5 5 5 5 5 5 5 5 5 6 5 6 6 5 5 6 5 5 5 5 5 5 5 5 5 5 5 6 5 5 6 5 5 5 5 5 5 5 5 5 5 5 5 5 5 5 6 5 5 5 5 5 5 5 6 5 6 5 5 5 5 6 5 6 5 5 5 5 5 5 5 5 5 6 5 5 5 5 5 5 5 5 5 5 5 5 5 5 5 5 5 6 5 5 5 5 5 5 5 5 5 5 5 5 5 5 5 5 5 5 5 5 5 5 5 5 5 6 6 5 5 5 5 5 5 5 5 5 5 5 6 5 5 5 5 6 5 5 5 5 6 5 5 5 5 5 5 5 5 6 5 5 5 5 5 5 5 5 5 6 5 5 5 5 5 5 5 5 5 5 5 5 5 5 5 5 5 5 5 5 6 5 5 5 5 5 5 5 5 5 5 5 5 5 5 6 5 6 5 5 5 5 5 5 5 5 6 5 5 6 5 5 5 5 5 5 5 5 5 5 5 5 5 5 5 5 5 5 5 5 5 5 5 5 5 5 5 5 5 5 5 5 5 5 5 5 6 5 5 6 5 5 5 5 6 5 6 5 5 6 5 6 5 5 5 5 5 6 5 5 5 5 5 5 5 5 5 5 5 5 6 5 5 5 6 5 5 5 5 5 5 5 5 5 6 5 5 5 5 6 6 5 5 5 5 5 5 5 5 6 5 5 5 5 5 6 5 5 5 6 5 5 5 6 5 5 5 5 6 5 5 5 5 5 5 5 5 5 5 5 5 5 5 6 5 5 5 5 5 5 6 5 6 6 5 6 5 6 5 5 5 5 6 5 5 5 5 6 5 5 5 5 5 5 5 5 5 6 5 5 5 5 5 5 5 5 5 5 5 5 5 5 6 5 5 5 6 5 5 5 6 5 6 5 5 5 5 5 5 5 5 5 5 5 5 5 5 5 5 6 5 5 5 5 5 5 6 5 5 5 5 5 5 5 5 5 5 5 5 5 5 5 5 5 5 6 5 5 5 5 5 5 5 5 5 5 5 5 5 5 5 5 5 5 5 5 5 5 5 5 5 5 5 5 5 5 5 5 5 5 6 5 5 5 5 6 5 5 5 5 5 5 5 6 5 5 5 5 5 5 5 5 5 6 5 5 6 5 5 5 5 5 6 5 5 5 6 5 5 6 5 5 5 5 5 5 5 5 5 5 5 5 5 5 5 5 5 5 5 5 6 5 5 5 5 5 5 5 5 5 5 6 6 5 6 5 5 5 5 5 6 5 5 5 5 6 5 5 5 5 5 6 5 6 5 5 6 5 5 5 5 5 5 5 5 6 5 5 5 5 5 5 6 5 5 5 5 5 5 6 5 5 5 5 6 5 5 6 5 6 5 5 6 5 5 5 5 5 5 6 5 5 5 5 6 5 5 5 5 5 5 5 5 6 6 5 5 5 5 5 5 5 5 6 5 5 5 5 5 5 6 5 5 5 5 5 5 5 6 5 5 5 6 5 5 5 5 5 5 5 5 5 5 5 5 6 5 5 5 5 6 5 5 6 5 5 5 5 6 5 5 5 6 6 5 5 5 6 5 5 5 6 5 5 5 5 5 5 5 5 5 6 5 5 5 6 5 5 5 5 5 5 5 5 5 5 5 5 6 5 6 5 5 6 5 5 6 5 5 5 5 5 5 5 6 5 5 5 5 5 6 5 6 5 5 5 6 6 5 6 6 5 6 5 5 5 5 5 5 6 5 6 5 5 5 5 5 5 5 5 5 5 5 5 5 6 5 5 6 5 6 5 5 6 5 5 5 6 6 5 5 6 5 5 5 5 5 5 5 5 5 5 5 5 5 5 5 5 5 5 5 5 5 5 5 6 6 5 6 5 6 5 5 6 6 5 5 6 5 5 6 5 5 6 5 6 5 5 5 5 6 5 5 5 5 6 5 6 6 5 6 5 5 6 6 5 5 5 6 5 5 5 5 6 6 5 5 5 5 5 6 5 5 5 5 5 5 5 5 5 5 5 6 5 6 5 6 5 5 6 5 6 5 5 5 5 5 5 5 5 6 5 5 6 5 5 5 5 6 5 5 5 5 5 5 5 5 5 5 5 5 6 5 5 5 5 5 5 5 5 5 5 5 6 5 5 5 5 5 5 6 5 6 5 5 6 5 5 5 5 5 5 5 5 5 5 5 5 5 5 5 5 5 6 6 5 5 5 6 5 5 6 5 5 5 5 5 5 5 5 5 5 5 5 5 5 5 5 5 5 5 5 5 5 5 5 5 6 6 5 5 5 5 5 5 5 5 5 5 5 6 5 5 5 5 5 5 5 5 5 5 5 5 5 5 5 5 5 5 5 5 5 5 5 5 5 5 5 5 5 5 5 5 5 6 5 5 5 5 5 6 5 5 6 5 5 6 6 5 5 5 5 5 5 5 5 5 5 5 5 5 6 5 5 6 5 5 5 5 5 5 6 5 5 6 5 5 5 5 5 5 5 5 5 5 5 5 5 6 5 5 5 5 5 5 5 6 5 5 5 5 5 5 5 5 5 5 5 5 6 5 5 6 5 5 5 5 5 5 5 5 5 5 5 5 5 5 5 5 5 5 5 5 6 5 5 6 5 6 5 5 5 6 5 5 6 5 6 5 5 5 6 5 5 5 5 6 5 5 5 5 5 5 5 6 5 5 5 6 5 5 5 5 5 5 5 5 5 5 5 5 6 5 5 5 5 5 5 5 5 6 5 5 5 5 5 5 5 5 5 5 5 6 5 5 5 5 5 5 5 5 5 5 5 5 5 5 5 5 5 5 5 6 6 5 5 5 6 5 5 5 5 5 5 5 5 5 5 5 5 6 5 5 5 5 5 5 5 5 5 6 5 5 5 5 5 5 5 5 5 5 5 5 5 5 5 5 6 5 6 5 5 5 5 5 6 5 5 5 5 6 5 5 5 6 5 5 5 6 5 5 5 5 5 5 5 5 5 6 5 5 5 6 5 5 6 5 5 5 5 5 5 6 5 5 5 5 5 5 5 5 6 5 5 5 6 5 5 5 5 5 5 5 5 5 5 5 5 5 5 5 5 5 5 5 5 5 5 5 5 5 5 5 6 5 5 5 5 5 5 5 6 5 5 5 5 5 5 5 5 5 5 5 5 5 5 5 5 5 5 5 5 5 5 5 5 5 6 5 6 5 5 5 5 5 5 6 5 5 5 6 5 5 6 5 5 5 5 5 5 5 5 5 5 5 5 6 5 5 5 5 5 6 5 5 5 5 5 5 5 5 5 5 5 5 5 6 5 5 5 6 5 5 5 5 5 5 5 5 5 5 5 5 6 6 5 5 5 5 6 5 5 5 5 5 5 5 5 5 6 6 5 5 5 5 5 6 5 5 5 5 5 6 5 5 5 5 5 6 5 6 5 5 5 5 6 5 6 5 6 6 5 5 5 5 5 5 5 6 6 5 5 5 5 5 5 6 6 6 5 6 6 5 5 5 6 5 5 5 5 5 6 6 6 5 6 5 5 5 6 5 6 6 5 5 5 5 5 5 5 6 6 5 5 6 6 6 5 5 5 5 5 5 5 5 5 5 5 5 5 5 5 5 5 5 5 5 5 5 5 5 5 5 5 5 5 5 5 5 5 5 5 5 5 5 5 5 6 5 5 5 5 5 5 5 5 5 5 6 5 5 5 5 5 5 6 5 5 6 5 5 5 5 5 5 5 5 5 5 5 5 5 6 5 6 5 5 5 5 6 5 5 5 6 5 5 6 5 5 5 6 5 5 6 5 5 5 5 5 6 5 5 5 5 5 5 5 6 5 5 5 5 5 5 5 6 5 5 6 5 5 5 5 6 5 6 5 5 5 5 5 6 5 5 5 5 6 5 5 5 5 5 5 6 6 5 5 5 5 5 6 5 5 6 5 5 5 5 5 5 5 5 5 5 6 5 5 5 5 5 5 5 5 5 5 5 5 5 5 5 5 5 5 6 5 5 5 5 5 5 6 5 5 5 5 5 5 5 6 6 5 5 5 5 6 5 5 5 5 5 5 5 6 5 5 6 5 6 6 6 5 5 5 5 5 5 6 5 5 5 5 5 6 5 5 5 5 6 5 5 5 6 5 5 5 6 5 5 5 5 5 5 5 5 5 5 5 5 5 5 5 5 5 5 5 5 5 5 5 5 5 6 5 5 5 5 5 5 5 6 5 6 5 5 5 5 5 5 6 5 5 6 5 5 5 6 5 5 6 5 5 5 5 5 6 5 5 5 6 6 5 5 5 5 5 5 5 5 5 5 5 5 6 5 5 5 5 5 5 5 5 5 6 5 5 5 5 5 6 6 5 5 5 5 5 5 5 5 5 6 5 5 5 5 5 5 5 5 6 5 5 5 5 5 5 5 5 5 5 5 5 5 5 5 5 5 5 6 5 5 5 5 6 5 6 5 6 5 5 5 5 5 5 5 5 5 5 5 5 5 5 5 5 5 6 5 5 5 5 5 6 5 5 5 6 6 5 5 5 5 5 6 5 5 5 5 6 5 5 5 5 5 5 5 5 6 5 5 5 5 5 5 5 6 5 5 5 5 5 5 5 5 5 6 5 5 5 5 5 5 5 5 5 5 5 5 5 5 5 5 5 5 6 5 5 5 5 5 5 5 5 5 5 5 5 5 6 5 5 5 5 5 5 6 5 5 6 5 5 6 5 5 5 5 5 5 5 5 5 5 5 5 5 5 5 5 5 5 5 5 5 5 5 5 5 5 6 5 6 5 6 6 5 5 5 6 5 5 5 5 5 5 5 5 5 6 6 5 6 5 5 5 5 5 5 5 5 5 5 5 5 5 5 6 5 6 6 5 6 5 5 5 5 5 5 5 5 5 6 6 5 5 5 5 5 5 5 5 5 5 5 5 5 5 5 5 5 5 5 5 5 5 6 5 5 5 5 5 6 5 5 5 5 5 6 5 5 5 6 5 5 5 5 5 5 5 5 5 6 5 5 5 5 6 5 5 5 5 5 5 6 5 5 5 5 5 5 5 6 5 5 5 5 6 5 5 5 5 5 5 5 5 5 5 6 5 5 5 5 6 5 5 5 6 5 5 5 5 5 6 5 5 5 5 5 5 5 5 5 5 5 5 5 5 6 6 5 5 6 5 5 5 5 5 5 5 6 5 5 5 5 5 5 6 5 5 5 5 5 5 5 5 5 5 5 5 5 5 5 5 5 5 5 5 5 5 5 6 5 5 5 5 5 5 5 5 6 5 5 5 5 6 5 5 5 5 5 6 5 6 5 6 5 5 5 5 5 5 5 6 5 5 5 6 5 5 5 5 5 6 5 5 5 5 5 6 5 6 5 5 6 5 6 5 5 5 5 5 6 5 5 5 6 5 5 5 5 5 5 5 5 5 5 6 5 5 5 5 5 5 5 5 5 5 5 5 5 5 5 5 5 5 5 5 5 5 6 5 5 5 5 5 5 5 5 5 5 5 5 5 5 5 5 5 5 6 5 5 5 6 5 5 5 5 5 5 6 5 5 5 6 6 5 6 5 6 6 5 6 5 5 6 5 5 6 6 5 5 5 5 5 5 5 5 6 5 6 5 5 5 5 5 5 5 5 5 5 5 5 5 5 5 5 5 5 5 5 5 5 6 5 5 5 5 5 5 5 5 6 5 5 6 5 5 6 6 5 5 6 5 5 5 5 5 5 5 5 5 5 5 5 5 5 5 5 5 5 5 5 5 5 5 5 5 5 5 5 5 5 5 5 5 5 5 5 5 5 5 6 5 6 5 5 5 5 5 5 5 5 5 5 5 5 5 5 5 5 5 5 5 5 5 5 5 5 5 5 5 5 5 5 5 5 5 5 5 5 5 5 5 5 6 5 5 6 5 5 5 5 5 6 5 6 5 5 6 5 5 5 5 5 5 6 5 5 5 5 5 5 5 5 5 5 5 6 5 5 6 6 5 6 5 5 6 5 5 5 5 6 5 5 5 5 5 5 5 5 5 6 5 6 5 5 5 5 5 5 5 6 5 6 5 5 5 5 5 5 5 5 5 6 5 6 5 5 5 5 5 5 5 5 5 5 6 5 5 5 6 5 5 6 5 5 6 5 5 5 5 6 5 5 5 6 5 5 5 5 5 5 5 5 5 5 5 5 5 5 6 5 5 5 5 5 5 6 5 6 5 6 5 5 5 6 5 5 5 5 5 5 5 5 6 5 5 5 5 5 6 5 5 6 5 5 5 5 5 5 5 5 5 6 5 5 5 6 5 5 5 5 5 5 6 5 5 5 5 5 5 5 5 5 5 5 5 5 5 5 5 5 5 5 5 5 5 5 5 5 5 5 5 5 5 5 6 5 5 5 5 5 6 5 5 6 6 5 5 5 5 6 5 5 5 5 5 6 5 5 5 5 5 5 5 5 5 5 5 5 5 5 5 5 6 5 5 5 5 5 5 5 5 6 6 5 5 5 5 5 5 6 5 5 5 5 6 5 5 5 5 5 5 5 5 5 5 5 5 5 5 5 5 5 5 5 5 5 5 5 5 6 5 5 6 5 5 5 5 5 5 5 5 5 5 5 5 5 5 5 5 5 5 5 5 5 5 5 5 5 5 5 6 5 6 5 5 5 5 5 6 5 5 5 5 5 5 5 5 5 5 5 5 5 5 5 5 5 5 5 5 6 6 5 6 5 5 5 5 5 5 5 5 5 5 5 5 5 5 5 5 6 5 5 5 6 5 5 5 5 5 5 5 5 5 5 5 5 5 6 5 5 5 5 5 5 5 5 5 5 5 5 5 5 5 5 5 5 5 5 5 5 6 5 5 5 5 5 5 5 5 5 5 5 5 5 6 5 6 5 5 6 6 5 5 5 5 5 5 5 5 5 5 5 5 5 5 5 5 5 5 5 5 6 5 5 6 5 5 5 6 5 5 5 5 5 5 6 5 5 5 6 5 5 5 5 5 5 5 5 6 5 5 6 5 5 6 5 6 5 5 5 5 6 6 5 5 6 6 5 5 6 5 5 5 5 6 5 5 6 6 5 6 5 5 5 5 5 5 5 5 5 5 5 5 5 5 5 5 5 5 5 5 6 5 5 5 5 6 5 5 5 5 6 6 5 5 5 5 5 5 5 5 5 5 5 5 6 5 5 5 6 5 5 5 5 5 5 5 6 5 5 5 6 5 5 6 6 5 5 5 6 5 5 5 6 5 5 5 5 5 5 5 5 5 5 5 5 5 5 5 5 5 5 6 5 5 5 5 5 5 5 5 5 5 5 5 5 5 5 5 5 5 6 6 5 5 5 5 5 6 6 5 6 5 5 5 5 5 5 5 5 5 6 5 5 5 6 5 5 5 5 5 5 5 5 5 5 5 5 5 5 6 5 5 5 5 5 5 5 6 5 5 6 5 5 5 5 5 5 6 5 5 5 5 6 5 5 5 5 5 5 6 5 5 5 5 5 5 5 5 6 6 5 5 5 6 6 5 5 5 5 5 6 5 5 5 5 5 5 6 5 5 5 5 6 5 5 5 5 5 6 5 5 5 5 6 5 5 5 5 5 5 5 5 5 5 5 5 5 5 5 5 5 5 5 5 5 5 5 5 5 6 5 5 5 5 6 5 6 5 6 5 5 6 5 5 6 5 5 6 5 5 5 5 5 5 6 5 5 6 5 6 6 6 5 5 6 5 6 6 5 5 5 6 5 6 5 5 5 5 5 5 6 5 5 5 6 5 5 5 5 5 5 5 6 5 5 5 6 5 6 6 5 5 5 5 5 5 5 6 5 5 5 5 5 5 5 5 6 6 5 5 5 5 6 5 5 6 5 5 5 6 5 5 5 6 6 5 5 5 5 6 5 5 5 5 5 6 6 5 5 5 5 5 5 5 5 5 5 5 5 5 5 5 5 5 5 5 5 5 5 5 5 5 5 5 5 5 5 5 6 5 5 5 6 5 5 5 5 5 5 5 5 5 5 5 5 5 5 5 6 5 6 6 5 5 6 5 5 5 5 5 5 5 5 5 5 5 5 5 5 5 5 5 5 5 5 5 5 5 6 5 5 6 6 5 5 5 5 5 5 5 6 5 5 5 6 5 5 5 5 6 6 5 5 5 5 5 5 5 6 5 5 5 5 6 5 5 5 5 6 5 5 5 5 5 5 5 5 5 5 5 5 5 5 5 5 5 5 5 6 5 5 5 5 5 5 5 5 5 5 5 5 5 5 5 5 6 5 5 5 6 5 5 5 5 5 5 5 5 5 6 5 5 5 5 5 5 5 5 5 5 5 5 5 5 5 5 5 5 5 5 5 6 5 5 5 5 5 5 5 5 5 5 5 5 5 5 5 5 5 6 5 5 5 5 5 6 5 5 5 5 5 5 5 5 5 5 5 5 5 5 5 5 5 5 5 5 5 5 5 5 5 5 5 6 5 5 6 5 5 5 6 5 5 5 5 5 5 5 5 5 5 5 5 5 5 5 6 5 6 5 5 5 5 5 5 5 5 5 6 5 5 5 5 5 5 5 5 5 6 6 5 5 5 5 5 5 5 5 5 5 5 5 5 5 5 5 5 5 5 5 5 5 5 5 5 5 5 5 5 5 5 5 5 5 5 5 5 5 5 5 5 5 5 5 5 5 5 5 5 5 5 5 5 5 5 5 5 5 5 5 5 5 5 5 5 5 5 5 5 5 5 6 5 5 5 5 5 5 6 5 5 5 5 5 5 5 5 5 6 5 6 5 5 5 5 5 5 5 5 5 5 5 5 5 5 5 5 5 5 5 5 5 5 5 5 5 5 5 5 5 5 5 5 5 5 6 5 5 5 6 6 5 5 5 5 5 5 5 5 5 5 5 5 5 5 5 5 5 5 5 5 5 5 6 6 5 5 5 5 5 5 5 5 6 5 5 5 5 5 5 6 5 5 5 5 5 6 5 5 5 5 6 5 5 5 6 5 5 5 6 5 5 6 5 5 5 5 5 5 5 5 5 5 5 5 5 6 5 5 5 5 5 5 5 5 6 5 5 5 5 5 5 5 5 5 5 5 6 5 5 5 6 5 5 5 5 6 5 5 5 5 5 5 5 5 6 5 6 5 5 6 5 5 5 5 5 6 5 5 5 5 5 5 5 5 5 5 5 5 6 5 5 5 5 5 5 5 5 5 6 5 5 5 5 5 5 6 5 5 5 5 5 5 5 6 5 5 5 5 5 6 5 5 5 5 5 5 5 5 5 5 5 5 5 5 5 5 5 5 5 5 5 5 5 5 5 5 5 5 5 5 5 5 5 5 5 5 5 5 5 5 5 5 5 5 5 5 5 6 5 6 5 5 5 5 5 5 5 5 5 5 5 5 5 5 6 5 5 5 5 5 5 5 5 5 5 5 5 5 5 5 6 5 5 6 5 6 5 5 5 5 5 6 5 5 5 5 5 5 5 5 5 5 5 5 5 5 5 5 5 5 5 5 6 5 5 5 5 5 5 5 5 5 5 5 6 5 6 5 5 6 5 6 5 5 5 5 5 5 5 6 5 6 5 5 5 5 6 5 5 5 5 6 6 5 5 6 5 5 5 5 5 5 5 5 5 5 5 5 5 5 5 5 6 5 5 5 5 5 5 5 5 5 5 5 5 5 5 6 5 6 5 5 5 5 5 5 5 6 5 6 5 5 5 5 5 5 5 5 5 6 6 5 5 5 6 5 5 5 5 6 5 6 5 5 6 5 6 6 6 5 5 6 5 5 5 6 6 6 5 5 5 5 5 5 5 5 5 5 5 6 5 5 5 5 5 5 6 5 5 5 6 5 5 5 5 5 5 5 5 6 5 5 5 6 5 5 5 5 5 5 5 5 5 5 5 5 5 5 5 5 5 5 5 5 5 5 5 5 5 5 5 5 5 5 5 5 5 5 5 5 5 5 5 5 5 5 5 5 5 5 5 5 5 5 5 5 5 5 5 5 5 5 5 5 6 5 5 5 5 5 6 5 5 5 5 6 5 5 5 6 5 5 5 5 5 5 5 5 5 5 5 5 5 5 5 5 5 5 5 5 5 5 5 5 5 5 5 5 5 5 5 5 5 5 5 5 5 5 5 5 6 5 5 6 5 5 5 5 5 5 5 6 5 5 5 5 5 5 5 5 5 5 5 6 5 5 6 5 6 5 5 5 6 5 5 5 5 5 5 5 5 6 5 5 5 5 6 5 5 5 5 6 5 6 5 5 5 5 5 5 5 5 5 5 5 5 6 5 6 5 5 5 5 5 5 5 5 5 5 5 5 5 6 5 5 5 5 5 5 5 5 5 6 5 5 5 6 5 5 5 5 5 5 5 5 5 5 5 5 5 5 5 5 5 5 5 5 5 5 5 5 5 5 5 5 5 5 5 5 5 5 5 6 5 5 6 5 5 5 5 6 5 5 5 5 5 5 5 5 5 5 5 5 5 5 5 6 5 5 5 5 5 5 5 5 5 6 5 6 5 5 5 5 5 5 5 6 5 5 5 5 5 5 5 5 5 5 5 5 5 5 6 5 5 5 5 5 5 5 5 5 5 5 6 5 5 5 5 5 5 5 5 5 5 5 5 5 5 5 5 5 5 5 5 5 5 5 6 5 6 5 5 5 5 5 5 6 5 6 5 5 5 6 5 5 5 6 5 5 5 6 5 5 6 5 5 5 5 5 5 5 6 5 5 5 5 5 5 5 6 5 5 5 5 5 5 5 5 5 5 5 5 5 6 5 5 5 5 5 5 5 5 6 5 5 5 5 5 5 5 5 5 5 5 5 5 5 5 5 5 5 5 5 6 5 5 5 5 5 5 5 5 5 5 5 5 5 5 5 5 5 5 5 5 5 5 5 5 5 5 5 5 5 5 5 5 5 5 5 5 5 5 5 5 5 5 5 5 5 5 5 5 5 5 6 5 6 5 5 5 6 5 5 6 6 5 6 5 5 5 5 5 5 5 5 5 5 5 5 5 5 5 5 5 5 5 5 5 5 5 5 5 5 5 5 5 5 5 5 5 5 5 6 5 5 5 5 6 5 5 6 5 5 5 6 5 5 5 5 6 5 6 6 5 5 5 5 6 5 5 5 6 5 5 5 6 5 5 5 5 5 5 6 5 5 5 5 5 5 5 5 5 5 5 5 5 5 5 5 5 5 5 5 6 5 5 5 5 5 5 5 5 5 5 5 5 5 5 5 5 5 5 6 5 5 6 5 5 6 5 5 5 5 5 5 5 5 5 5 5 6 5 5 5 5 6 5 5 5 5 6 5 5 5 6 5 5 5 5 5 5 5 5 5 5 5 5 5 5 5 5 5 5 5 5 5 5 5 5 5 6 5 5 5 5 5 5 5 5 6 5 5 5 6 5 5 5 5 5 5 5 5 5 5 5 5 5 5 5 5 5 5 5 5 5 5 5 5 6 5 5 5 6 5 5 5 5 5 5 5 5 6 5 5 6 5 5 5 5 6 5 5 5 5 5 5 5 6 5 6 5 5 6 5 5 6 6 5 5 5 5 5 5 5 5 5 5 5 5 5 5 5 5 5 5 5 5 5 6 5 5 5 5 6 5 5 5 5 5 5 5 5 5 5 5 5 5 6 5 5 6 5 5 5 5 5 5 5 5 5 5 5 5 5 5 5 5 5 5 5 5 5 5 5 5 5 5 5 5 5 5 5 5 5 5 5 5 5 5 5 5 5 5 5 5 5 5 5 5 5 5 5 5 5 5 5 5 5 5 5 5 5 5 5 5 5 5 5 5 5 5 5 5 5 5 5 5 5 5 5 5 5 5 5 5 5 5 5 5 5 5 5 5 5 5 5 5 5 5 5 5 5 5 5 5 5 5 5 5 5 5 5 5 5 5 5 5 5 5 5 5 5 5 5 5 5 5 5 5 6 5 5 5 5 5 5 5 6 5 5 5 5 5 5 5 5 5 6 5 6 5 5 5 6 5 5 6 5 5 5 5 5 5 5 5 5 5 5 5 5 5 5 5 5 5 5 5 5 5 5 5 5 5 5 5 5 5 5 5 5 5 5 5 5 6 5 5 6 6 5 5 6 5 5 6 5 5 5 6 5 5 5 5 5 5 5 5 5 6 5 5 5 5 5 5 6 5 5 5 5 5 5 5 5 5 5 5 5 5 5 5 5 5 5 5 5 5 5 5 5 5 5 5 5 5 5 5 6 5 5 5 5 5 5 5 5 5 5 5 5 5 5 5 5 5 5 5 5 5 5 5 5 5 5 5 5 5 5 5 5 5 5 5 5 5 5 5 5 5 5 5 5 5 5 6 5 6 5 5 5 5 6 5 5 5 5 6 5 5 5 5 6 5 5 5 5 5 5 5 5 6 5 5 6 5 6 5 5 5 5 6 5 5 6 6 5 5 5 5 5 5 6 5 5 5 5 5 5 5 5 5 5 6 6 5 5 5 5 5 6 5 5 6 5 5 5 5 6 5 5 6 5 5 5 5 5 5 5 5 5 5 5 5 5 5 5 5 5 5 5 5 5 5 5 5 5 5 5 5 5 6 5 6 5 5 5 5 5 5 5 5 5 5 5 5 5 6 5 5 5 5 6 6 5 5 5 5 5 5 5 5 5 5 5 5 5 5 5 5 5 5 5 5 5 5 5 5 5 5 5 5 5 5 5 5 5 5 5 5 5 5 5 5 5 5 6 5 5 5 6 5 5 5 5 5 5 5 5 5 5 5 5 5 5 5 5 5 5 5 5 6 5 5 6 5 5 5 5 5 5 5 5 5 6 5 5 5 5 5 6 5 5 5 5 5 6 5 6 5 5 5 5 5 5 5 5 5 5 5 5 5 6 5 5 5 6 6 5 5 5 5 5 5 5 5 6 5 5 6 5 5 6 6 5 5 5 5 5 6 5 5 5 5 5 5 5 6 5 5 6 6 5 5 5 5 5 5 6 6 5 5 5 6 5 5 5 5 5 5 5 6 5 5 5 5 5 5 5 5 5 5 5 5 5 5 5 5 5 5 5 5 5 5 5 5 5 5 6 5 5 5 5 5 5 5 6 5 5 5 5 5 5 5 5 5 5 5 6 5 5 5 5 5 5 5 5 6 5 5 5 5 5 5 5 5 5 5 5 5 5 5 5 5 6 5 5 5 6 5 5 5 5 5 6 5 5 5 5 5 5 5 5 5 5 5 5 5 5 6 5 5 5 5 6 5 5 6 5 5 5 5 5 6 5 5 5 5 5 5 5 5 5 5 5 5 5 5 6 5 6 5 5 5 6 5 6 5 6 5 5 5 5 5 5 6 6 5 5 5 5 5 5 6 5 6 5 5 5 5 5 5 5 5 5 5 5 5 5 5 5 5 5 6 5 5 5 6 6 5 5 5 5 5 6 5 5 6 6 5 5 5 5 5 5 5 5 5 5 5 5 5 5 5 5 5 5 5 5 5 5 5 5 5 5 5 5 5 5 5 5 5 5 5 5 5 5 5 5 5 5 5 5 6 5 5 6 6 6 5 5 5 5 5 5 6 5 5 5 5 5 5 5 5 5 6 5 5 5 6 5 5 5 5 5 5 5 5 5 5 5 5 5 5 5 5 5 5 5 5 6 5 5 5 5 6 5 5 5 5 5 5 5 5 5 5 5 5 5 5 5 5 5 5 5 5 5 5 5 5 5 5 5 5 5 5 5 5 5 5 6 5 6 5 5 5 5 5 5 5 5 6 5 5 5 6 5 6 5 5 5 5 5 5 5 5 6 5 5 5 5 6 5 5 5 5 6 5 5 5 5 5 5 5 6 5 5 5 5 6 5 5 5 5 5 5 5 5 5 5 5 5 5 5 5 5 5 5 5 5 5 5 5 5 5 5 5 5 5 5 5 5 5 5 5 5 5 5 5 5 5 5 5 5 5 5 6 5 5 5 5 6 6 5 5 6 6 5 5 5 5 5 5 5 5 5 5 5 5 5 5 5 5 5 5 5 6 5 5 5 6 6 5 5 5 5 5 5 5 5 5 5 5 5 5 5 5 5 5 5 5 5 5 5 5 5 5 5 5 6 5 5 5 5 5 5 5 6 5 5 5 5 5 5 5 5 5 5 5 5 5 5 5 6 5 5 5 5 5 5 5 5 6 5 6 6 5 5 5 5 5 5 5 5 5 5 5 5 6 5 5 5 5 5 5 5 5 5 5 5 5 5 5 5 5 5 5 6 5 5 5 6 5 5 5 5 5 5 5 5 6 5 5 5 5 5 5 5 5 5 5 5 5 5 5 5 6 5 5 5 6 5 5 5 5 5 5 5 5 5 5 5 5 5 5 5 5 5 5 5 5 5 5 5 5 5 5 5 5 5 5 5 5 5 6 5 6 5 5 5 5 5 5 5 5 6 5 5 5 5 5 5 5 5 5 6 5 5 6 5 5 5 5 5 6 5 5 5 5 6 5 5 5 5 6 5 5 5 6 5 6 5 5 6 5 5 5 5 5 5 5 5 5 5 5 5 5 5 6 5 5 6 5 6 5 5 5 6 5 5 6 5 5 5 5 6 5 6 5 5 5 5 5 5 6 5 6 5 5 5 5 5 6 5 5 5 5 6 5 5 5 5 5 5 6 5 5 5 5 5 5 5 5 5 5 5 5 5 5 5 5 5 5 5 5 5 5 5 5 5 5 5 5 5 5 5 5 5 6 6 5 5 5 5 5 5 5 5 5 5 6 5 5 6 6 5 6 5 5 5 5 5 5 5 6 5 5 5 5 5 5 5 5 5 5 5 5 6 5 5 5 5 6 5 5 5 5 5 5 5 5 5 5 5 5 6 5 5 5 5 5 5 5 5 5 5 5 5 5 5 5 5 5 6 5 5 5 5 5 6 5 5 5 6 5 5 5 5 5 5 6 5 6 5 5 5 6 5 5 5 5 5 5 5 5 5 6 5 5 6 5 5 5 5 5 5 5 6 5 5 5 5 5 5 5 5 5 5 5 5 5 6 5 5 6 5 5 5 5 5 5 6 5 5 5 5 5 5 6 5 5 5 5 5 5 5 6 5 5 5 5 5 5 5 5 5 5 5 5 5 5 5 5 5 5 5 5 5 5 6 5 5 5 5 5 5 5 5 5 5 6 5 5 5 5 6 6 5 5 5 5 6 5 5 5 5 5 5 5 5 5 6 5 5 5 5 5 5 5 5 5 5 5 6 5 5 5 6 5 5 5 6 5 5 5 5 5 5 5 5 5 5 5 5 6 5 5 5 5 5 6 5 5 6 5 5 5 5 5 5 5 5 5 5 5 5 5 5 6 5 5 5 5 5 5 5 6 5 5 5 6 5 5 5 5 5 6 5 5 5 5 5 5 5 5 5 6 5 5 5 5 5 5 5 5 6 5 5 5 5 5 6 5 5 5 5 5 5 5 6 5 5 5 5 5 5 5 5 5 5 5 5 5 5 5 5 5 5 5 5 5 5 5 5 5 5 5 5 5 5 5 5 5 5 5 5 5 5 5 5 5 5 5 5 5 5 5 5 6 5 5 5 5 5 5 5 6 5 5 5 5 5 5 5 5 5 5 5 5 5 5 5 5 5 5 5 5 5 5 6 6 5 5 6 6 5 5 5 5 5 5 5 6 5 5 5 5 5 5 5 5 5 5 5 5 5 5 6 5 5 5 5 5 5 5 5 6 5 5 6 5 5 5 6 5 5 5 5 5 5 5 5 5 5 5 5 5 5 5 5 5 5 5 5 5 5 5 5 5 5 5 5 6 5 5 5 5 5 5 5 5 6 5 5 5 5 5 5 6 6 5 5 5 5 6 5 5 6 5 5 6 5 5 5 5 5 5 6 5 5 5 5 5 5 5 5 6 5 5 5 5 5 5 5 5 5 5 5 6 5 5 6 5 5 5 5 5 5 5 6 5 5 5 6 5 6 5 6 5 5 5 5 5 5 5 5 5 5 5 5 5 5 5 5 5 6 5 6 5 5 5 5 5 5 5 5 5 5 6 5 5 5 5 5 5 5 6 5 5 5 6 5 6 6 5 5 6 5 5 5 5 6 5 5 5 6 5 5 5 6 5 6 6 5 5 5 5 5 5 6 5 5 5 5 5 5 5 5 6 6 6 5 6 5 5 6 6 5 5 6 5 5 5 5 5 5 5 5 5 5 5 6 5 5 5 5 5 5 5 5 5 5 5 5 5 6 6 5 5 5 5 6 5 5 5 6 5 5 5 5 5 6 6 5 5 5 6 5 5 5 5 5 5 5 5 5 5 5 5 5 5 5 6 5 5 5 6 5 5 5 6 5 5 5 5 5 5 6 5 5 5 5 5 6 5 5 5 5 5 5 5 5 6 5 5 5 5 5 5 5 5 5 6 5 5 5 5 6 5 6 5 5 6 5 6 5 5 5 5 5 5 6 5 6 6 5 5 5 5 5 5 5 5 6 5 6 5 6 5 6 5 5 5 5 5 5 5 5 5 5 5 6 5 5 5 6 5 5 5 5 5 5 5 5 6 5 5 5 5 5 5 5 5 5 6 5 5 5 5 6 5 5 6 5 5 5 5 5 5 5 5 5 6 5 5 5 6 5 5 5 5 5 5 5 5 5 5 5 5 5 5 5 5 5 5 5 6 5 5 5 5 5 5 5 5 5 5 6 5 5 5 5 5 5 5 5 5 5 5 5 5 5 5 5 5 5 5 5 5 5 5 5 5 5 5 5 5 5 5 5 5 5 5 5 5 5 5 5 5 5 5 5 5 6 6 5 5 5 5 5 5 5 5 5 5 5 5 5 6 6 5 5 5 6 5 5 6 5 5 5 6 5 5 5 6 5 5 5 5 5 5 5 5 6 5 5 6 5 6 6 5 5 5 5 5 5 6 5 6 6 6 5 5 6 5 5 6 6 5 5 5 5 5 5 5 5 5 5 5 5 5 5 5 5 5 5 5 5 5 6 5 5 5 5 5 5 5 5 5 6 5 5 5 5 5 5 5 6 6 5 5 5 5 5 5 5 5 5 5 5 5 5 5 5 5 5 5 5 5 5 5 5 6 5 6 5 5 5 5 5 5 5 6 5 5 5 6 6 5 5 6 5 5 5 5 6 5 5 5 6 5 5 5 6 5 5 5 5 5 5 5 5 5 6 6 5 5 5 5 5 6 5 5 6 6 6 5 5 5 5 5 6 5 5 5 5 5 5 5 5 5 6 5 6 5 5 5 5 5 5 5 5 5 5 5 5 5 5 5 5 5 5 5 5 5 5 5 5 6 5 5 5 5 6 6 5 5 5 6 5 5 5 5 5 5 5 5 5 5 5 5 5 5 5 5 6 5 5 5 6 5 5 6 5 5 5 5 5 5 5 5 5 5 5 5 5 6 5 5 6 5 5 5 6 5 6 5 6 5 6 6 6 5 5 5 5 5 5 5 5 6 5 5 5 5 5 5 5 5 6 5 5 6 5 5 5 5 5 5 5 5 5 5 5 5 5 5 5 5 5 5 5 5 5 6 5 5 5 5 5 5 5 5 5 5 6 5 6 5 5 6 5 6 5 6 5 5 6 5 6 5 5 6 5 5 5 6 5 5 5 5 5 5 5 5 5 5 5 5 5 5 5 5 5 5 5 5 5 5 5 5 5 5 5 5 5 5 5 5 5 5 5 5 5 5 5 5 5 5 5 5 5 5 5 5 5 5 5 5 5 5 5 5 5 5 5 5 5 6 5 5 6 5 5 5 5 5 5 6 6 5 5 5 5 5 5 5 5 5 5 5 5 5 5 5 5 5 5 6 5 5 5 6 5 5 5 5 5 5 5 5 5 5 5 5 5 5 5 5 6 5 5 5 5 5 5 5 6 5 5 5 5 5 5 5 5 6 5 6 5 5 5 5 5 5 5 5 5 5 5 5 5 5 5 5 6 5 5 5 5 5 5 5 6 5 5 5 5 6 5 5 5 5 5 5 5 6 5 5 6 6 5 5 6 5 5 5 5 5 5 6 5 5 5 5 5 5 5 5 5 6 5 5 6 5 5 6 5 5 6 5 5 5 5 5 6 5 5 5 5 5 5 5 5 6 5 5 5 5 5 5 5 6 5 5 5 5 5 5 5 5 5 5 5 5 6 5 5 5 5 5 5 5 6 6 5 6 5 6 5 5 5 5 5 5 5 5 5 5 5 5 5 5 5 6 5 6 5 5 5 5 5 5 5 5 6 5 6 5 6 5 6 5 6 5 5 6 5 5 5 5 5 6 5 5 5 5 5 5 5 5 6 5 5 5 5 5 6 5 5 6 5 6 6 5 5 5 5 5 5 5 5 6 5 5 5 5 5 5 5 5 5 5 5 5 5 6 5 5 5 5 5 5 5 6 5 5 5 6 5 5 5 5 5 5 5 5 5 5 5 5 5 5 5 5 5 6 5 5 5 5 5 5 5 6 5 5 6 5 5 5 5 5 5 5 5 5 5 5 5 5 5 5 6 5 5 5 5 6 5 5 5 5 5 5 5 5 5 5 5 5 5 5 5 5 5 5 5 5 5 5 5 5 5 6 5 5 5 5 5 5 6 5 5 5 5 5 5 5 5 5 6 6 5 5 5 6 5 6 5 5 5 5 5 5 5 5 5 5 5 5 5 5 5 6 5 5 5 5 5 5 5 5 5 5 5 5 6 6 5 5 5 5 5 5 5 5 6 5 5 6 5 5 6 6 5 5 5 5 5 5 5 6 5 5 5 5 5 5 5 5 5 6 5 5 5 6 5 5 5 5 5 6 5 5 5 5 5 5 5 5 5 5 5 5 6 5 5 5 6 5 5 5 6 5 5 5 5 5 5 5 5 5 5 5 5 5 5 5 5 5 5 5 5 5 5 5 5 5 5 5 5 5 5 5 5 6 5 5 5 5 5 5 5 5 5 5 5 5 5 5 5 5 5 5 5 5 5 5 5 5 6 5 6 5 5 6 5 5 5 5 5 5 5 5 5 6 5 5 5 5 5 5 5 5 5 5 5 5 5 5 6 5 5 5 5 6 5 5 5 6 5 5 5 5 5 5 5 5 5 5 5 5 5 5 5 5 5 5 5 5 5 5 5 5 5 5 5 5 5 5 5 5 5 5 5 5 5 5 5 5 5 5 5 5 5 5 5 5 5 5 5 5 5 5 5 5 5 5 5 5 5 5 5 5 5 5 5 5 5 5 5 5 5 5 5 5 5 5 5 5 5 5 5 5 5 5 5 5 5 5 5 5 5 5 5 5 5 5 5 5 5 5 5 5 5 5 5 5 5 5 5 5 5 5 5 5 5 5 5 5 5 5 5 5 5 5 5 5 5 5 5 5 5 5 5 5 5 5 5 5 5 5 5 5 5 5 5 5 5 5 5 5 5 5 5 5 5 5 5 5 5 5 5 5 5 5 5 5 5 5 5 5 5 5 5 5 5 5 5 5 5 5 5 5 5 5 5 5 5 6 5 5 5 5 5 5 5 5 5 5 5 5 5 5 5 5 6 5 5 5 5 5 5 5 5 6 5 5 5 5 6 5 5 5 5 5 5 5 5 5 5 5 5 5 5 5 5 5 5 5 5 5 5 6 5 5 5 5 5 5 5 5 5 5 5 5 5 6 6 5 5 5 5 5 6 5 6 5 5 5 5 5 5 5 5 5 5 5 6 5 5 5 5 5 5 5 6 5 5 5 5 5 5 5 5 5 5 5 5 5 5 5 6 6 5 5 5 5 5 5 5 5 5 5 5 5 6 5 5 5 5 5 5 5 5 5 5 5 5 5 5 5 5 6 5 5 5 5 5 5 5 6 5 5 5 5 5 5 5 5 5 5 6 6 5 5 5 5 5 5 5 5 5 5 5 5 5 5 5 5 5 5 5 5 5 5 5 5 5 5 5 5 5 5 6 5 5 5 5 5 6 5 5 5 5 5 5 5 5 5 5 6 5 5 5 5 6 5 5 5 5 5 5 5 5 5 5 6 5 6 5 5 5 5 5 5 5 5 5 5 5 5 5 5 5 5 5 5 5 5 5 5 5 5 5 5 5 5 5 5 5 6 5 5 5 5 5 6 5 5 5 5 5 5 5 5 5 5 5 5 5 5 5 5 5 5 6 5 5 6 5 5 5 6 5 5 5 5 5 6 5 5 5 5 5 5 5 5 5 5 6 5 5 5 5 5 5 6 5 5 5 5 5 6 6 5 5 6 5 5 6 5 5 5 5 5 5 5 5 5 5 6 5 5 6 5 5 6 5 5 6 5 5 6 5 5 6 5 5 5 5 5 5 6 5 5 5 5 5 5 5 5 5 5 5 6 5 5 5 5 5 5 5 6 5 5 5 5 6 5 5 5 6 5 5 5 5 5 5 5 5 5 5 5 6 5 5 5 5 5 5 5 5 5 5 5 5 5 5 5 5 5 5 5 5 5 5 5 5 6 5 5 5 5 5 6 5 5 5 5 5 5 5 5 5 5 5 5 5 5 6 5 5 6 5 6 5 5 5 5 6 5 6 6 5 6 5 5 5 5 5 5 5 6 5 6 5 5 5 5 5 5 6 5 5 5 5 5 5 6 5 5 5 5 6 5 5 5 5 5 6 5 5 6 5 5 5 5 6 5 5 5 5 6 5 5 5 5 5 5 6 5 5 5 5 5 5 5 5 5 6 5 5 5 5 5 5 6 5 5 5 5 6 5 5 5 5 5 5 5 5 5 5 5 5 5 5 5 5 6 5 5 5 6 5 5 6 5 5 5 5 5 5 5 5 5 5 5 5 5 5 5 5 6 5 6 5 5 5 5 5 5 5 5 5 5 5 5 5 5 5 5 5 5 5 5 5 5 5 5 5 5 6 5 5 6 5 5 5 5 5 5 5 5 5 5 6 5 5 5 5 6 5 5 5 5 6 5 5 5 5 5 5 5 5 5 6 5 5 5 5 5 5 5 5 5 5 5 5 5 5 5 5 5 5 5 5 5 5 5 5 5 5 5 5 
</DataArray>
<DataArray type="Float64" Name="stress" NumberOfComponents="9" format="ascii">
554050416.42362988 1980271347.5828362 0 1980271347.5828362 -5343954519.8845253 0 0 0 0 354133240.23587233 330759504.78110504 0 330759504.78110504 -3735997253.9575043 0 0 0 0 -2539508.702811263 291867811.37655258 0 291867811.37655258 -2953970862.6246719 0 0 0 0 -383333258.04848075 757746002.04950333 0 757746002.04950333 -1442037917.1327972 0 0 0 0 84909675.819201767 441364646.43904877 0 441364646.43904877 -1449337124.6506367 0 0 0 0 694891.72550524527 369593.54940865189 0 369593.54940865189 -4296063.7132034414 0 0 0 0 8615642.1911282539 -196612990.37216187 0 -196612990.37216187 119211075.22288132 0 0 0 0 -172096628.10293186 61190314.130111694 0 61190314.130111694 -33290897.225898743 0 0 0 0 -235103668.87420332 1568545556.9047699 0 1568545556.9047699 -3336670935.3274994 0 0 0 0 -875376874.21839046 848073322.0572319 0 848073322.0572319 -1329240941.8033905 0 0 0 0 -13287694.138372898 575435280.32572174 0 575435280.32572174 -1646473512.8270798 0 0 0 0 -3448493211.0535846 2891209264.0186691 0 2891209264.0186691 -1025448356.1784515 0 0 0 0 -1210232624.0261142 -3124659862.2888412 0 -3124659862.2888412 -5346539163.8627472 0 0 0 0 -3888870.8342733779 -129507.08468203247 0 -129507.08468203247 -7721076.2748921365 0 0 0 0 198822429.79222953 -1346422738.8618393 0 -1346422738.8618393 -3886819917.0673065 0 0 0 0 811345315.25665987 -508669132.97274017 0 -508669132.97274017 -5355649318.9783106 0 0 0 0 14413517.654727072 -1027947156.2395782 0 -1027947156.2395782 -2172813963.808075 0 0 0 0 -104376642.01806557 -603127417.62795258 0 -603127417.62795258 -2271441735.8792953 0 0 0 0 -3618202.4368835585 2442421.743407663 0 2442421.743407663 -18296903.946558565 0 0 0 0 -339664767.40387487 -448577815.2518158 0 -448577815.2518158 -1169204144.5491791 0 0 0 0 318993280.93095458 279127302.29833221 0 279127302.29833221 -2898600891.1604156 0 0 0 0 -1648707.8421030622 -6125254.9085805267 0 -6125254.9085805267 -19676983.010121398 0 0 0 0 84985319.023822486 -45552186.262748718 0 -45552186.262748718 -28688388.854202271 0 0 0 0 184772073.61244106 -17292471.905693054 0 -17292471.905693054 -86810649.377716064 0 0 0 0 48820142.173187494 -21148742.672973633 0 -21148742.672973633 -42591321.383346558 0 0 0 0 209358238.61375332 190470079.03327179 0 190470079.03327179 73216124.677474976 0 0 0 0 340888.67880434089 9838302.7119837813 0 9838302.7119837813 -36985059.78858193 0 0 0 0 -155895352.75788689 158837441.29968262 0 158837441.29968262 103958950.83069611 0 0 0 0 35402069.942977905 56851406.686439514 0 56851406.686439514 -40991007.95149231 0 0 0 0 72166856.553685904 31932728.402423859 0 31932728.402423859 -102347045.72480774 0 0 0 0 -207264881.84194279 -9538054.8350982666 0 -9538054.8350982666 296395836.36003876 0 0 0 0 3402487.4239435373 1926499.5555507541 0 1926499.5555507541 -15474627.219992008 0 0 0 0 -717820258.99051702 531528372.07624054 0 531528372.07624054 -424840573.07695007 0 0 0 0 -238127693.18912888 -125266992.85385132 0 -125266992.85385132 -143364479.95767212 0 0 0 0 -45231295.619274378 152023576.36437225 0 152023576.36437225 -242485499.14901733 0 0 0 0 -75686566.587481022 160377516.67192078 0 160377516.67192078 114388357.3184967 0 0 0 0 116402372.82583989 -72237.072195291519 0 -72237.072195291519 -312011999.88262939 0 0 0 0 38314334.877017885 43180382.022060394 0 43180382.022060394 -309249163.14718628 0 0 0 0 44190351.31059742 162646477.92102051 0 162646477.92102051 -367945602.85370636 0 0 0 0 20439821.091472626 121181937.43548584 0 121181937.43548584 -360143219.38476562 0 0 0 0 116599624.07273325 46611486.907961845 0 46611486.907961845 -469308226.01519775 0 0 0 0 -105389905.969841 20272531.549743652 0 20272531.549743652 -189929197.74377441 0 0 0 0 -399786005.40219116 -329478165.12030029 0 -329478165.12030029 -604640732.74615479 0 0 0 0 -575374720.52344966 160296130.00037003 0 160296130.00037003 -226096047.84259033 0 0 0 0 -62033608.564480305 -62766281.847732544 0 -62766281.847732544 -719310432.43920898 0 0 0 0 -184817.60132586834 -679696.43728229031 0 -679696.43728229031 -870368.70314370096 0 0 0 0 -341254478.40043736 282117283.07133484 0 282117283.07133484 -270969331.49475098 0 0 0 0 -551160307.7172358 -366626938.92492676 0 -366626938.92492676 -294171493.31219482 0 0 0 0 54685.883514789515 -455427.69634582847 0 -455427.69634582847 -404235.10811707377 0 0 0 0 -109202743.59307384 255709312.80613708 0 255709312.80613708 -68767307.730865479 0 0 0 0 6047834.7495203018 89051216.621810913 0 89051216.621810913 -411596093.47094727 0 0 0 0 160697952.70137787 263816565.50524902 0 263816565.50524902 -1005825632.7921448 0 0 0 0 39301129.357843399 137253245.49462891 0 137253245.49462891 -409713409.97937012 0 0 0 0 2981061.6032338142 -8032969.92237854 0 -8032969.92237854 -22970033.684532166 0 0 0 0 1853632.0350219558 -1626615.0797530916 0 -1626615.0797530916 -5833283.9574852586 0 0 0 0 71498318.113534689 9068900.3196182251 0 9068900.3196182251 -81925275.255004883 0 0 0 0 -7162526.7563033104 -15385102.455535889 0 -15385102.455535889 -68126360.99887085 0 0 0 0 -9960248.5243297964 14394827.423791885 0 14394827.423791885 -152297901.82873535 0 0 0 0 -15334682.039341152 74638626.574642181 0 74638626.574642181 -165358453.93121338 0 0 0 0 47304090.70777607 76330867.554946899 0 76330867.554946899 -190222921.63638306 0 0 0 0 361297816.55640292 208400246.91822815 0 208400246.91822815 -131825677.36697388 0 0 0 0 39717812.521255493 59204213.059608459 0 59204213.059608459 -41215691.899765015 0 0 0 0 -39612.014759062673 8994734.3766622134 0 8994734.3766622134 -35101089.621657759 0 0 0 0 89253473.40155983 -45274065.663909912 0 -45274065.663909912 -29423055.793479919 0 0 0 0 226283112.47956157 -53017629.293411255 0 -53017629.293411255 -219673697.58816528 0 0 0 0 -61446014.776980877 45886099.643798828 0 45886099.643798828 -180922831.05770874 0 0 0 0 -158309004.7299304 -188687159.4467926 0 -188687159.4467926 -61021275.401504517 0 0 0 0 -1491875.0321184797 -2505072.9088668302 0 -2505072.9088668302 -35188.549786835909 0 0 0 0 -47634258.135986805 -209717771.16014099 0 -209717771.16014099 -246075589.78794098 0 0 0 0 -181585253.28824854 -116295192.84710693 0 -116295192.84710693 -126453312.45388794 0 0 0 0 69389735.671986341 -13184435.303413391 0 -13184435.303413391 -81261176.730041504 0 0 0 0 124414998.67178822 -54030030.468795776 0 -54030030.468795776 -113582515.9404068 0 0 0 0 150108754.48410222 -18851738.560903549 0 -18851738.560903549 -57008986.409606934 0 0 0 0 134282543.7607646 -70856427.00958252 0 -70856427.00958252 -85363990.728530884 0 0 0 0 42199052.096083283 -102159490.23829269 0 -102159490.23829269 -84458152.717773438 0 0 0 0 96485254.912612736 -20104184.832038879 0 -20104184.832038879 -77780883.868713379 0 0 0 0 -141489557.65913868 -57484112.776809692 0 -57484112.776809692 -29366526.17098999 0 0 0 0 -10101.015354650095 -5794460.7239552028 0 -5794460.7239552028 -2069685.5709260404 0 0 0 0 419489.63196599483 -5809475.4005432129 0 -5809475.4005432129 -8921449.6107330322 0 0 0 0 1989854.6122837067 -2564532.9682846069 0 -2564532.9682846069 -6014689.8173522949 0 0 0 0 1208293.0989588131 -2974342.8280766606 0 -2974342.8280766606 -16894891.623587754 0 0 0 0 4095146.122030884 -14751384.884544373 0 -14751384.884544373 -72831328.423400879 0 0 0 0 -30445418.462730668 -36261472.66336441 0 -36261472.66336441 -71040540.484069824 0 0 0 0 -1391959.139394779 -6491717.3663292378 0 -6491717.3663292378 -16796346.558101878 0 0 0 0 -39403800.056634188 -108373952.71440125 0 -108373952.71440125 -64611038.713783264 0 0 0 0 -843949.093791008 -5188095.0110626221 0 -5188095.0110626221 -6090073.954284668 0 0 0 0 1812309.4645748138 11087771.5779953 0 11087771.5779953 -6403543.2460327148 0 0 0 0 20507911.25843668 -22946078.104095459 0 -22946078.104095459 -12071164.539703369 0 0 0 0 2588514.923391392 -3368703.6158790272 0 -3368703.6158790272 -9883546.4009106159 0 0 0 0 -11150105.95058465 -17161990.55381012 0 -17161990.55381012 2355550.0272369385 0 0 0 0 1097085.3601965904 232400.23880767822 0 232400.23880767822 -12568012.235851288 0 0 0 0 -8120119.9726700783 1208051.3734512329 0 1208051.3734512329 9299345.9140319824 0 0 0 0 -30937613.41489625 -34106275.841964722 0 -34106275.841964722 -22970372.536876678 0 0 0 0 -20498379.512075901 -738157.79742431641 0 -738157.79742431641 7267652.5696563721 0 0 0 0 -168591722.60717908 33306132.012908936 0 33306132.012908936 -80337031.509765625 0 0 0 0 1098450.0802931881 190756.32685852051 0 190756.32685852051 -2899457.1315307617 0 0 0 0 202800.76778092273 60586.674754224718 0 60586.674754224718 -253201.1084093973 0 0 0 0 3214.1235579873755 14801.093223558739 0 14801.093223558739 12335.008778214455 0 0 0 0 -56641.435158807275 -249190.01668990217 0 -249190.01668990217 -114778.58722163737 0 0 0 0 6927464.3607987817 -7497782.4082641602 0 -7497782.4082641602 -6538506.0316467285 0 0 0 0 5520746.8710061312 2584710.2634277344 0 2584710.2634277344 -1209351.8533401489 0 0 0 0 -411011.95454524976 -693551.74459946714 0 -693551.74459946714 709192.29782375693 0 0 0 0 344547.73047568277 -1847611.8291625977 0 -1847611.8291625977 -980340.59701538086 0 0 0 0 1936341.3139286414 -2715681.5304718018 0 -2715681.5304718018 -1382369.0721435547 0 0 0 0 972862.43337105168 3405569.4164352417 0 3405569.4164352417 538848.45413208008 0 0 0 0 1009841.2978629656 -2890903.0934066772 0 -2890903.0934066772 655645.76266479492 0 0 0 0 1743821.946516199 -2371958.0830993652 0 -2371958.0830993652 -1932134.2351379395 0 0 0 0 -14861.33045323254 63632.11703966558 0 63632.11703966558 -171135.87801188231 0 0 0 0 523217.99568336457 1235210.2536621094 0 1235210.2536621094 -5885261.6833648682 0 0 0 0 -520608.91066854697 39826040.649230957 0 39826040.649230957 -174553156.35560608 0 0 0 0 24328476.756901156 156562642.52238083 0 156562642.52238083 -384059331.69673157 0 0 0 0 -229270869.46456593 281256384.17478943 0 281256384.17478943 -365915256.08153725 0 0 0 0 290444.87509788747 119010921.57874061 0 119010921.57874061 -807010922.99971008 0 0 0 0 -56049693.099818125 168012659.95571899 0 168012659.95571899 -577142845.86169434 0 0 0 0 -318496918.61123598 597268269.6934433 0 597268269.6934433 -696269870.95184326 0 0 0 0 -377374822.17493862 299802612.04799843 0 299802612.04799843 -291613902.18435669 0 0 0 0 -36119839.680378675 -13087044.002868652 0 -13087044.002868652 -293674657.84428298 0 0 0 0 -13582083.187533367 6093045.6600790024 0 6093045.6600790024 -277354636.76586914 0 0 0 0 -15884951.925911903 -15712663.492156982 0 -15712663.492156982 -168346929.29211426 0 0 0 0 -21748243.067902803 57961254.02355957 0 57961254.02355957 -152017493.59570312 0 0 0 0 -49356421.664594173 -42528247.589599609 0 -42528247.589599609 -224515809.91540527 0 0 0 0 128237.00511206721 -101626.29647369683 0 -101626.29647369683 -207435.42800144851 0 0 0 0 48623387.005956352 127956854.92053223 0 127956854.92053223 -274555446.94172668 0 0 0 0 86450899.886830091 18609312.872009277 0 18609312.872009277 -183461472.46520996 0 0 0 0 -234368414.04309994 126502539.47892761 0 126502539.47892761 -250592259.55072021 0 0 0 0 -3403108.2041781489 -3533392.3172272872 0 -3533392.3172272872 -7433230.189548336 0 0 0 0 -386470110.96965456 -345591157.76547241 0 -345591157.76547241 -192522801.12858582 0 0 0 0 314249013.30657709 -262864841.56606293 0 -262864841.56606293 -18553966.63155365 0 0 0 0 -168790090.59302002 -247393734.99942589 0 -247393734.99942589 228071593.53817749 0 0 0 0 -206278646.04464585 115814846.3113327 0 115814846.3113327 332866569.33784485 0 0 0 0 -104683432.11894378 62140180.894676208 0 62140180.894676208 -1846000183.1988373 0 0 0 0 -482392860.43454289 57059700.861270905 0 57059700.861270905 301550368.95594788 0 0 0 0 -1118582.1726136636 -722874.78783523198 0 -722874.78783523198 -3091210.2402824089 0 0 0 0 126272997.41538769 987448567.83088303 0 987448567.83088303 -1798915372.0953598 0 0 0 0 -1320828244.6157446 -1190487289.238627 0 -1190487289.238627 -1482244818.2151031 0 0 0 0 -634680976.00118828 247901256.02718639 0 247901256.02718639 -4149237940.2135315 0 0 0 0 -511391109.3866809 1058937549.7967181 0 1058937549.7967181 -3631554856.0768127 0 0 0 0 557246399.64133739 156874615.42408752 0 156874615.42408752 -5355675695.283371 0 0 0 0 441316330.757846 142610176.27798843 0 142610176.27798843 -4184445510.2388611 0 0 0 0 73717745.584971845 268160254.44966888 0 268160254.44966888 -1906769595.9649353 0 0 0 0 75358365.792378873 -446731321.5149231 0 -446731321.5149231 -2154584800.5847473 0 0 0 0 398937650.04579771 -199940883.69991302 0 -199940883.69991302 -4283090732.3851013 0 0 0 0 409967141.80104005 -443806980.62346077 0 -443806980.62346077 -5354635911.7629852 0 0 0 0 479611423.33324176 -93525062.38331604 0 -93525062.38331604 -4310721318.7082977 0 0 0 0 -970504629.41829848 -488015134.80405426 0 -488015134.80405426 -4569744478.7032013 0 0 0 0 -612920408.74379039 -1386784426.6934471 0 -1386784426.6934471 -969485301.68704224 0 0 0 0 310684651.81836855 -807082683.33670807 0 -807082683.33670807 -4750551789.8051224 0 0 0 0 62936021.360760927 93409302.543540955 0 93409302.543540955 -1039866093.7726593 0 0 0 0 -83338132.407782435 235609955.31510544 0 235609955.31510544 -82003705.8828125 0 0 0 0 8059318.6568346024 89344559.430160522 0 89344559.430160522 -628763677.4601059 0 0 0 0 -438921944.58929759 -24137420.051841736 0 -24137420.051841736 -520221437.90054321 0 0 0 0 -372717684.72510493 130799356.39941788 0 130799356.39941788 -508432175.80184937 0 0 0 0 2862095.632874012 -321883552.23094177 0 -321883552.23094177 -2193798839.2893639 0 0 0 0 -45470081.849710405 -359945702.32899475 0 -359945702.32899475 -176967211.17180634 0 0 0 0 -60384636.880441263 440651945.11323619 0 440651945.11323619 37755949.949066162 0 0 0 0 -155395520.61106443 49048209.419258118 0 49048209.419258118 499494660.20454407 0 0 0 0 -142615425.31096005 150825489.8691864 0 150825489.8691864 148119288.62026978 0 0 0 0 94786996.136158943 79466663.191413879 0 79466663.191413879 25020817.862136841 0 0 0 0 -195579.72322199075 -481384.21299385279 0 -481384.21299385279 -108212.02819331735 0 0 0 0 -3254982.0544948578 -34827940.768974304 0 -34827940.768974304 16586855.107016563 0 0 0 0 255073518.09032726 271591221.3522377 0 271591221.3522377 -116423086.79315186 0 0 0 0 -163660334.32069564 147027696.45707512 0 147027696.45707512 -117113966.19006348 0 0 0 0 -1681606.514180928 662783.66940847412 0 662783.66940847412 -1671194.6507014558 0 0 0 0 -112095186.42015076 57038128.513687134 0 57038128.513687134 -137374090.31549072 0 0 0 0 -38202574.410018921 265212246.21502686 0 265212246.21502686 -133362116.04620361 0 0 0 0 -683785.67053620168 -210194.73164651915 0 -210194.73164651915 -1782967.631780915 0 0 0 0 113026367.14902639 48192041.964080811 0 48192041.964080811 -86787778.553039551 0 0 0 0 -45037888.551302433 50802018.337669373 0 50802018.337669373 -238455345.08642578 0 0 0 0 -81056165.327477455 140446653.85035706 0 140446653.85035706 -196156954.24169922 0 0 0 0 163900320.18895054 50306383.102279663 0 50306383.102279663 -256801501.50753784 0 0 0 0 56683132.692439079 197232874.46917725 0 197232874.46917725 -260268967.7696228 0 0 0 0 195615550.2257185 -47265079.725860596 0 -47265079.725860596 -491602069.28678894 0 0 0 0 193090525.57244313 -135672290.50045395 0 -135672290.50045395 -380363091.05737305 0 0 0 0 149802041.15802288 162683077.88604736 0 162683077.88604736 -563226257.1494751 0 0 0 0 93894092.546875954 117748969.59274292 0 117748969.59274292 12107436.189224243 0 0 0 0 129992371.3341198 -150979011.02574158 0 -150979011.02574158 -501649564.63117409 0 0 0 0 -363677651.855093 -497156341.43019485 0 -497156341.43019485 824278677.43876648 0 0 0 0 -1717444.1440093708 -1625643.319629401 0 -1625643.319629401 -2851513.5658562891 0 0 0 0 -19049099.391530991 415256228.07646179 0 415256228.07646179 -7665290289.868927 0 0 0 0 174633172.46064949 632214090.01693726 0 632214090.01693726 -141900794.72341919 0 0 0 0 -454465670.51718289 130580766.59855652 0 130580766.59855652 -5355729858.7141066 0 0 0 0 -765804504.39588761 -333704401.39711761 0 -333704401.39711761 -5759045848.8878479 0 0 0 0 -654514008.34808743 -622536961.41274643 0 -622536961.41274643 -6875760110.7636719 0 0 0 0 -146601409.58748525 909892872.96632385 0 909892872.96632385 -6536778505.0864563 0 0 0 0 -147333865.85550982 812747977.53356361 0 812747977.53356361 -5088089781.1372833 0 0 0 0 48060290.158782959 -87610009.495491028 0 -87610009.495491028 -5428387711.9252472 0 0 0 0 -3624949.356890752 -4842858.1126252189 0 -4842858.1126252189 -7640044.9339383841 0 0 0 0 25211379.197495103 412035173.70610046 0 412035173.70610046 -4723040296.771759 0 0 0 0 -3702567.7465362549 -131396885.08985901 0 -131396885.08985901 373680898.3145752 0 0 0 0 369720305.98638821 -299100495.00212097 0 -299100495.00212097 -1051470510.3866425 0 0 0 0 208185783.79437828 -274038787.09745789 0 -274038787.09745789 -138472215.98545837 0 0 0 0 139743235.32700992 656620170.79483414 0 656620170.79483414 -4255671867.0478973 0 0 0 0 400815214.89552355 192652741.98350143 0 192652741.98350143 -5354021232.6666641 0 0 0 0 738967774.58209848 -502093065.71469879 0 -502093065.71469879 -4548301881.7731171 0 0 0 0 87993783.04022789 -138797100.92376709 0 -138797100.92376709 -3206053481.6704674 0 0 0 0 -3508865.2787127485 -6481052.5806430802 0 -6481052.5806430802 -12356335.007633891 0 0 0 0 131872952.29615593 163247693.65603638 0 163247693.65603638 -205402271.63812256 0 0 0 0 -465748544.21246147 -226955447.9284668 0 -226955447.9284668 151202861.11035919 0 0 0 0 -171576219.12609768 160695991.72947693 0 160695991.72947693 -62357457.355422974 0 0 0 0 347136220.18207932 -94647907.445732117 0 -94647907.445732117 -497519580.5459137 0 0 0 0 247954504.73799706 152159480.70272827 0 152159480.70272827 -166116604.05496216 0 0 0 0 87048826.144426346 -53025830.928024292 0 -53025830.928024292 -302052423.71931458 0 0 0 0 -42812086.588790894 -50247017.569030762 0 -50247017.569030762 -234832789.7350769 0 0 0 0 -192613631.52573681 4919144.9866485596 0 4919144.9866485596 7925435.5928344727 0 0 0 0 64927948.001674652 -310163327.26312256 0 -310163327.26312256 -459744914.35340118 0 0 0 0 -769555.35991482297 201120.10535305738 0 201120.10535305738 -370822.62991094589 0 0 0 0 -40706899.217242241 -19965367.271972656 0 -19965367.271972656 10428469.866867065 0 0 0 0 -32751435.226886749 -9752141.35597229 0 -9752141.35597229 -124230890.16848755 0 0 0 0 23350057.947730064 -26993547.858341217 0 -26993547.858341217 -27457818.999511719 0 0 0 0 -8908033.2093238831 37234077.416046143 0 37234077.416046143 -31419112.582305908 0 0 0 0 -14582573.421756744 6195242.6461334229 0 6195242.6461334229 -22981621.297912598 0 0 0 0 -22604085.043029785 -2249381.5389709473 0 -2249381.5389709473 -31654555.431335449 0 0 0 0 -40877076.551499367 7121041.5181655884 0 7121041.5181655884 -8967078.9951171875 0 0 0 0 -18789390.586472511 36305766.808502197 0 36305766.808502197 -3893031.9217300415 0 0 0 0 4814294.310883522 108214584.59318161 0 108214584.59318161 -48143337.353210449 0 0 0 0 -131707555.88049126 36365773.386672974 0 36365773.386672974 3351735.3139877319 0 0 0 0 6910757.0174150467 24672248.549900055 0 24672248.549900055 -9913073.5102386475 0 0 0 0 -3966194.4701967239 26353062.8019104 0 26353062.8019104 -3946619.1179199219 0 0 0 0 -5917262.8238763809 16688646.373695374 0 16688646.373695374 -1270714.8571777344 0 0 0 0 -15967765.703960896 5426796.402961731 0 5426796.402961731 -6199651.693939209 0 0 0 0 -29154411.914186478 17363170.426254272 0 17363170.426254272 -543322.74621582031 0 0 0 0 -17479096.852119446 9357248.3418426514 0 9357248.3418426514 614207.22387695312 0 0 0 0 -6985865.0114717484 -848193.5168838501 0 -848193.5168838501 -1958592.358795166 0 0 0 0 -8649183.721124649 18458238.437393188 0 18458238.437393188 -1130757.9659996033 0 0 0 0 -3391599.3466682434 16430870.228363037 0 16430870.228363037 -1812492.7963256836 0 0 0 0 4304368.1965341568 10992976.103462219 0 10992976.103462219 -12849212.620681763 0 0 0 0 -4936559.7279167175 11563467.896759033 0 11563467.896759033 1929440.07862854 0 0 0 0 1636814.645362854 10104360.716766357 0 10104360.716766357 628292.50663375854 0 0 0 0 -2620171.0118112564 802587.64120483398 0 802587.64120483398 -4036237.4492492676 0 0 0 0 44760.802821492776 -77730.332491893321 0 -77730.332491893321 -301080.15675412863 0 0 0 0 1126315.0422306061 7125655.5467758179 0 7125655.5467758179 -5009914.0643844604 0 0 0 0 -1364724.2167015076 11023351.355758667 0 11023351.355758667 -340027.10955810547 0 0 0 0 11239392.655496597 26631234.774772644 0 26631234.774772644 -5582142.0139503479 0 0 0 0 1338367.9288091483 6461842.1175218076 0 6461842.1175218076 -34830038.47658132 0 0 0 0 6285368.7719397545 15640487.804672241 0 15640487.804672241 -6780883.6740264893 0 0 0 0 97970.612244876858 -426301.50053578615 0 -426301.50053578615 -5741662.4865392726 0 0 0 0 33210755.050995946 34192089.195968628 0 34192089.195968628 -33288001.219537735 0 0 0 0 -1609114.7292049276 6347339.0226778761 0 6347339.0226778761 -19382713.351018786 0 0 0 0 9764754.1730106473 8770038.0079803467 0 8770038.0079803467 -48768781.992797852 0 0 0 0 -6088784.5757819414 -6051501.6623840332 0 -6051501.6623840332 -47435327.788276672 0 0 0 0 -3384069.7142992918 -8136735.3818560541 0 -8136735.3818560541 -21546373.007521253 0 0 0 0 435119.31172323227 -6593912.1250991821 0 -6593912.1250991821 -63428299.082519531 0 0 0 0 5642244.3742575645 4649929.6146392822 0 4649929.6146392822 -8822873.5524291992 0 0 0 0 3176563.7045850754 2423035.4463920593 0 2423035.4463920593 -13786131.100982666 0 0 0 0 2634547.1249868167 3605369.3191675013 0 3605369.3191675013 -10888867.677839816 0 0 0 0 3871253.8436050415 -5010002.5762329102 0 -5010002.5762329102 -7568048.3068752289 0 0 0 0 3264548.4958335473 -889234.70117913187 0 -889234.70117913187 -26229833.336104769 0 0 0 0 5288200.8762640953 -1351341.9439086914 0 -1351341.9439086914 -4349677.9212284088 0 0 0 0 1780460.0420021219 -1077648.4166306183 0 -1077648.4166306183 -32554648.054532602 0 0 0 0 7489534.7436542511 2755800.5779418945 0 2755800.5779418945 -7258415.7241210938 0 0 0 0 2457849.2935792846 576115.42600216717 0 576115.42600216717 -26539780.384442091 0 0 0 0 2106856.0557072284 2472865.372285001 0 2472865.372285001 -23542204.651492037 0 0 0 0 5210108.0796256065 2154943.5071334839 0 2154943.5071334839 -12727505.445068359 0 0 0 0 1084121.712015246 -236885.091145657 0 -236885.091145657 -18553099.941442423 0 0 0 0 905553.27485656738 38777.227272033691 0 38777.227272033691 -13462949.64289856 0 0 0 0 2028518.5828418732 2503478.2519683838 0 2503478.2519683838 -8226892.3815608025 0 0 0 0 1573294.0399099928 -509702.2658746466 0 -509702.2658746466 -23267335.509566054 0 0 0 0 3637353.8594956398 1664005.5381240845 0 1664005.5381240845 -14468529.463867188 0 0 0 0 1795669.6109562302 912834.99180920422 0 912834.99180920422 -20083042.262233011 0 0 0 0 3946235.6999874115 1905727.8330841064 0 1905727.8330841064 -15538198.917358398 0 0 0 0 2201244.3003425598 -1425614.2831878662 0 -1425614.2831878662 -21566910.927180767 0 0 0 0 875281.71003866196 -1464212.8699588776 0 -1464212.8699588776 -14325841.890487671 0 0 0 0 452411.77313639456 -2240625.0263657533 0 -2240625.0263657533 -13000577.719600856 0 0 0 0 393523.38952255249 227155.77299499512 0 227155.77299499512 -10617627.240036011 0 0 0 0 -330911.10037577245 599074.58892530389 0 599074.58892530389 -8435075.1302315071 0 0 0 0 -253776.207663971 -17898.026579990983 0 -17898.026579990983 -13162768.126012847 0 0 0 0 -1015738.0047416687 650625.53034591675 0 650625.53034591675 -7804747.495803833 0 0 0 0 -1878724.8305301666 835993.78238677979 0 835993.78238677979 -5720366.3104782104 0 0 0 0 -872913.74319527671 1461682.0263517499 0 1461682.0263517499 -9339636.599240398 0 0 0 0 -1842976.0910563469 913414.03275680542 0 913414.03275680542 -5956843.3512573242 0 0 0 0 2219083.14112854 5940271.3514709473 0 5940271.3514709473 -3379124.7713012695 0 0 0 0 1096480.5243301392 4393495.5443496704 0 4393495.5443496704 -4672522.8747739792 0 0 0 0 -1360152.8061502222 3083660.3364628591 0 3083660.3364628591 -3262395.7550084218 0 0 0 0 -1468644.2315778732 1403430.1204299927 0 1403430.1204299927 -6189732.5044555664 0 0 0 0 840507.23285637563 8783603.3613063693 0 8783603.3613063693 -4342785.1113833338 0 0 0 0 401527.90733238403 2162673.9252410661 0 2162673.9252410661 -3196819.8201104701 0 0 0 0 -1329206.068311031 214966.40012148395 0 214966.40012148395 -2204338.0784771293 0 0 0 0 1293824.547252655 970561.91247558594 0 970561.91247558594 -1007361.0109405518 0 0 0 0 -521582.76507245749 1535993.0835580826 0 1535993.0835580826 -7509722.5541989598 0 0 0 0 2042361.5651655197 -8215620.9169235229 0 -8215620.9169235229 3379543.7102050781 0 0 0 0 574192.65693736076 1115364.6996955872 0 1115364.6996955872 -4204881.2082214355 0 0 0 0 866529.50927066803 1511191.204782486 0 1511191.204782486 -4255388.8935241699 0 0 0 0 114713.0586711287 -297743.37851879373 0 -297743.37851879373 -348252.00401800126 0 0 0 0 2279538.9430274963 -1702940.6372528076 0 -1702940.6372528076 -2879500.6460876465 0 0 0 0 -1092129.3898197392 2808147.6201873152 0 2808147.6201873152 -4532189.4068474323 0 0 0 0 -1943704.3038804487 1144456.1431766264 0 1144456.1431766264 -5682473.2700701877 0 0 0 0 -2041572.0604635077 -471537.12824380398 0 -471537.12824380398 1067821.7715841606 0 0 0 0 -12901590.781399727 16277056.379096985 0 16277056.379096985 22336325.477367401 0 0 0 0 -5726619.934212327 -6282890.0342750549 0 -6282890.0342750549 4071729.8727416992 0 0 0 0 -3426373.7321725157 2245159.3903854452 0 2245159.3903854452 -7738320.0392987859 0 0 0 0 -4246407.9186569564 -19900.364407964051 0 -19900.364407964051 -5239458.2494117487 0 0 0 0 13904358.466149569 69145248.724319458 0 69145248.724319458 186104424.22636414 0 0 0 0 -386686.28126144409 -200032.12437438965 0 -200032.12437438965 -2149954.113658905 0 0 0 0 913933.43632051349 8075749.1458282471 0 8075749.1458282471 15429175.282363892 0 0 0 0 49914258.155016631 -149220923.88774872 0 -149220923.88774872 235143825.74868774 0 0 0 0 -6796110.5486558666 -3334650.4618770778 0 -3334650.4618770778 -6647926.0886838958 0 0 0 0 -3514782.0945558548 -2653301.189617157 0 -2653301.189617157 -8863787.4145050049 0 0 0 0 -1472204.3213381823 -1047162.1750570643 0 -1047162.1750570643 948301.20360715687 0 0 0 0 58477972.871802345 125781338.0301528 0 125781338.0301528 234192571.95852661 0 0 0 0 -2440830.7498273849 -2156426.2370529175 0 -2156426.2370529175 -10819856.904388428 0 0 0 0 -2227375.4361315453 -638400.74505759054 0 -638400.74505759054 -5421715.2390212044 0 0 0 0 -2664016.2716639042 -2688453.730178833 0 -2688453.730178833 -11558939.669158936 0 0 0 0 -758789.12213516235 -1289769.4057846069 0 -1289769.4057846069 -2444531.0545654297 0 0 0 0 -442210.79764938354 -146722.12049102783 0 -146722.12049102783 -2008102.6452178955 0 0 0 0 -1639184.9895118601 -2015096.9600793384 0 -2015096.9600793384 -3839168.8411894739 0 0 0 0 -1227161.7087135315 -237556.50176239014 0 -237556.50176239014 -6634583.0250930786 0 0 0 0 -1904856.7874891041 -1032915.1552872527 0 -1032915.1552872527 -4111386.4272231087 0 0 0 0 -2029389.482732533 -1152800.3442697003 0 -1152800.3442697003 -4861645.2257224172 0 0 0 0 -2661701.5630534668 -1037171.6858520173 0 -1037171.6858520173 -1635974.5185772851 0 0 0 0 -426809.88882446289 -362042.25134277344 0 -362042.25134277344 -1336290.1866607666 0 0 0 0 -34164.977453231812 96926.977523803711 0 96926.977523803711 -10537659.994522095 0 0 0 0 -1177458.9458389282 -893375.16348266602 0 -893375.16348266602 -1324941.4882068634 0 0 0 0 901350.47355653066 -720671.96890645474 0 -720671.96890645474 -14779553.621700045 0 0 0 0 1618667.5928821564 857538.98086547852 0 857538.98086547852 -1388047.271484375 0 0 0 0 -1580610.8848502678 -560248.77698053047 0 -560248.77698053047 -4983303.710835062 0 0 0 0 -1173990.2309630197 787296.41406764067 0 787296.41406764067 -8795974.6400281191 0 0 0 0 1826337.6251073005 -1188431.2201851644 0 -1188431.2201851644 -26268484.165772844 0 0 0 0 -707201.30165009946 908692.65768769756 0 908692.65768769756 -14465502.637302406 0 0 0 0 1352352.8790855408 -5970128.7103881836 0 -5970128.7103881836 -14221451.926086426 0 0 0 0 2582354.2493476868 -2498888.4243774414 0 -2498888.4243774414 -15615359.593353271 0 0 0 0 -309221.37293815613 -7988794.9216918945 0 -7988794.9216918945 -12951817.108520508 0 0 0 0 -2234932.4604806835 -7512133.7282515019 0 -7512133.7282515019 -7837243.3170059323 0 0 0 0 677151.50608010497 -767903.81940985098 0 -767903.81940985098 -898167.88878649473 0 0 0 0 109480.89122772217 1286899.6259460449 0 1286899.6259460449 -11431686.49206543 0 0 0 0 4474134.2981929779 -1893648.3044967651 0 -1893648.3044967651 -3082273.7951660156 0 0 0 0 242644.86986167077 -4963978.8427629359 0 -4963978.8427629359 -8549805.2181551456 0 0 0 0 1267134.4276995671 -1000228.2410252437 0 -1000228.2410252437 -6977370.0817944407 0 0 0 0 1520076.3359974883 -1511497.6029948741 0 -1511497.6029948741 -27013216.253502183 0 0 0 0 1191430.9893493652 -8581666.3574981689 0 -8581666.3574981689 -23449954.072570801 0 0 0 0 2177984.8267094828 -3008168.3408990167 0 -3008168.3408990167 -21988474.560953163 0 0 0 0 -7428020.4430122375 1799655.3125839233 0 1799655.3125839233 -11139458.656967163 0 0 0 0 11218345.211000443 5109747.3973922729 0 5109747.3973922729 7096595.7711791992 0 0 0 0 634970.48307800293 -17806850.383544922 0 -17806850.383544922 -40000217.455932617 0 0 0 0 4021123.8553042412 -22665971.218328476 0 -22665971.218328476 -37066246.679199219 0 0 0 0 1203289.129229161 -2093029.0343513526 0 -2093029.0343513526 -2211384.3465197384 0 0 0 0 19913407.435596466 8080034.6095352173 0 8080034.6095352173 -25128860.588867188 0 0 0 0 15816794.927471161 1957245.0770721436 0 1957245.0770721436 -30733410.363769531 0 0 0 0 11848599.13212204 8719405.8975448608 0 8719405.8975448608 -38737221.426727295 0 0 0 0 -2454088.5105895996 12598796.628982544 0 12598796.628982544 -43195517.02545166 0 0 0 0 1052190.7741394043 5540343.7965545654 0 5540343.7965545654 -29000889.532318115 0 0 0 0 -9192481.1857795715 -21441013.320510864 0 -21441013.320510864 2260498.725189209 0 0 0 0 9780424.2905406952 -2979232.2393569946 0 -2979232.2393569946 -69148800.468444824 0 0 0 0 -1222953.051228472 -3742210.4368284866 0 -3742210.4368284866 -15292820.131159309 0 0 0 0 -1456974.6322135925 -2094339.9659423828 0 -2094339.9659423828 -16905296.19178772 0 0 0 0 9888761.0812568665 -8253716.5431060791 0 -8253716.5431060791 -28613527.741607666 0 0 0 0 11628785.702274323 -3434776.660987854 0 -3434776.660987854 -21555033.281173706 0 0 0 0 11767967.646816254 -5469916.4637145996 0 -5469916.4637145996 -16205683.316581726 0 0 0 0 -1354541.9209213257 3965706.5244140625 0 3965706.5244140625 -10734135.575119019 0 0 0 0 929088.97061920166 -7143105.7595825195 0 -7143105.7595825195 -21052628.481552124 0 0 0 0 -4920810.2625033567 -2003138.0795437298 0 -2003138.0795437298 -4267266.7770965919 0 0 0 0 253122.82411688566 -93514.273470237851 0 -93514.273470237851 -578390.89076725394 0 0 0 0 -800648.58891677856 -2497429.0170440674 0 -2497429.0170440674 -16808385.225708008 0 0 0 0 2948578.7361383438 -18127505.231060028 0 -18127505.231060028 -23909642.222679138 0 0 0 0 -8749185.7044739127 21565849.264890432 0 21565849.264890432 4761419.0739440918 0 0 0 0 -474363.8600848401 -3863251.0259617083 0 -3863251.0259617083 -15392023.003497031 0 0 0 0 -1623435.0789890289 -4754678.4595489502 0 -4754678.4595489502 -14498822.021120071 0 0 0 0 -16295635.902900696 -54398052.507659912 0 -54398052.507659912 -41425299.108032227 0 0 0 0 -11434976.403255463 -8699323.4467010498 0 -8699323.4467010498 8917547.4891357422 0 0 0 0 719427.22541791783 -3256513.9812219264 0 -3256513.9812219264 -1314322.4798031151 0 0 0 0 -6143800.4370107651 8085932.4677124023 0 8085932.4677124023 -30075749.232635498 0 0 0 0 1422583.5229089893 -4377662.8671236783 0 -4377662.8671236783 -18475855.687404063 0 0 0 0 10556277.378047943 -7452672.702583313 0 -7452672.702583313 -35854013.678016663 0 0 0 0 6155560.569568296 -469559.14804684743 0 -469559.14804684743 -10018060.371169209 0 0 0 0 -2572270.732072413 -11027239.390829602 0 -11027239.390829602 -11129485.612354156 0 0 0 0 38905052.783855438 -18617094.052593231 0 -18617094.052593231 -62137297.585712433 0 0 0 0 51074349.203268051 -30736542.722270966 0 -30736542.722270966 -51915960.369239807 0 0 0 0 13141038.595352173 -24085680.121059418 0 -24085680.121059418 5746143.6851577759 0 0 0 0 1375266.647026062 32680573.689910889 0 32680573.689910889 29978401.735298157 0 0 0 0 1589889.6173633523 -474830.56737524271 0 -474830.56737524271 -7581194.3336093798 0 0 0 0 -1113171.4820480347 -78046396.244255066 0 -78046396.244255066 95052438.045188904 0 0 0 0 -16144185.48600769 -45232668.295509338 0 -45232668.295509338 -13250092.301277161 0 0 0 0 -4638995.2463216064 -8187292.4977847412 0 -8187292.4977847412 -11557425.285017632 0 0 0 0 -2239102.097568512 -6030699.7709579468 0 -6030699.7709579468 -10823057.641601562 0 0 0 0 -2659002.8720474243 -4229246.688583374 0 -4229246.688583374 -10732845.213795185 0 0 0 0 160565172.22295189 10128088.356334686 0 10128088.356334686 -13835197.036193848 0 0 0 0 181549434.59452438 82239639.293273926 0 82239639.293273926 -71100853.793945312 0 0 0 0 -917019.36421385175 -3232295.9532267116 0 -3232295.9532267116 -560025.27346555889 0 0 0 0 395281613.35258484 25232095.672775269 0 25232095.672775269 -60001455.66619873 0 0 0 0 933880.53657489456 535035.59202170372 0 535035.59202170372 -718294.08216114342 0 0 0 0 -3755778.7154426575 -3390164.0990371704 0 -3390164.0990371704 -10546382.577854156 0 0 0 0 -1602691.4117717743 -4327846.8623275757 0 -4327846.8623275757 -13153244.834716797 0 0 0 0 -2600500.1776573658 -2388662.6221666336 0 -2388662.6221666336 -11154467.008102417 0 0 0 0 -3649084.9090261459 -3893699.7408084869 0 -3893699.7408084869 -8173591.3414306641 0 0 0 0 -3975814.7798290253 -5026209.5257797241 0 -5026209.5257797241 -6486427.4687805176 0 0 0 0 -6118492.1774582304 -10395855.844694383 0 -10395855.844694383 -9562654.4512878507 0 0 0 0 -6583798.229805842 -5220665.9350706413 0 -5220665.9350706413 -8092829.8649597093 0 0 0 0 -2962627.883146286 -5195290.3452377319 0 -5195290.3452377319 -8723359.6090545654 0 0 0 0 188901256.51906204 -66333234.769573212 0 -66333234.769573212 -65115198.310119629 0 0 0 0 824422126.63234711 188741622.06072235 0 188741622.06072235 -430425467.79553223 0 0 0 0 301817392.2034111 41973986.597400665 0 41973986.597400665 -328607597.43653488 0 0 0 0 573324359.61241913 61913196.268053055 0 61913196.268053055 -395676948.37709045 0 0 0 0 293143472.82723045 43227882.123748779 0 43227882.123748779 -358316049.92871094 0 0 0 0 767640979.23812103 -95673094.674877167 0 -95673094.674877167 -498965336.46168518 0 0 0 0 -42703250.65868187 -32305775.304113388 0 -32305775.304113388 -38542177.436637878 0 0 0 0 333155.74024797184 -1594953.4176915959 0 -1594953.4176915959 -1501254.5138923824 0 0 0 0 528973499.52933121 -36454823.491226196 0 -36454823.491226196 -937059926.65307617 0 0 0 0 -41780679.135805354 -138817543.9168216 0 -138817543.9168216 -85645458.650657654 0 0 0 0 9556823.1614513397 -3947446.6475391388 0 -3947446.6475391388 232479745.52257824 0 0 0 0 2865925.5963941021 -6643091.7986669298 0 -6643091.7986669298 -5372636.8542467952 0 0 0 0 -45257455.963922977 48981342.990951538 0 48981342.990951538 226843395.2502594 0 0 0 0 130444874.27078152 44682954.859710693 0 44682954.859710693 -146444572.47254944 0 0 0 0 3680548.4759434429 1877220.2242609337 0 1877220.2242609337 -17798973.778119616 0 0 0 0 105147041.78258514 123690104.81017303 0 123690104.81017303 84701990.120262146 0 0 0 0 150306.64972916991 -311099.66444249265 0 -311099.66444249265 -616472.06433693692 0 0 0 0 345576644.85193253 140817282.05802536 0 140817282.05802536 254777766.07059479 0 0 0 0 637394923.74752998 325348470.52590179 0 325348470.52590179 -77672112.908615112 0 0 0 0 602370879.77612734 190047668.76473141 0 190047668.76473141 -301867287.57789612 0 0 0 0 251962550.55133057 -48696122.223060608 0 -48696122.223060608 -52748464.909645081 0 0 0 0 199435236.53286266 46286644.864904404 0 46286644.864904404 -191019421.60875702 0 0 0 0 307287087.27944946 -220623761.08889771 0 -220623761.08889771 52748164.748458862 0 0 0 0 135354807.7284565 -294799767.9940567 0 -294799767.9940567 -160409238.20336151 0 0 0 0 255022034.7498827 -139773852.74224854 0 -139773852.74224854 -33580856.265037537 0 0 0 0 117093668.22088909 -168764130.62526321 0 -168764130.62526321 234894603.88008118 0 0 0 0 104884359.41272736 -260951556.89377975 0 -260951556.89377975 131250123.39144897 0 0 0 0 239052290.93689728 -227946510.20228577 0 -227946510.20228577 -53592820.014819145 0 0 0 0 3055308.1472267834 -3545181.0345218349 0 -3545181.0345218349 -15419164.0627134 0 0 0 0 3319262.9680366516 -7418112.6385345459 0 -7418112.6385345459 -632654.11200332642 0 0 0 0 2167438.4416556386 -11076221.675759932 0 -11076221.675759932 -7641324.9995510951 0 0 0 0 -23505862.697845459 11074037.265472412 0 11074037.265472412 29929878.143562317 0 0 0 0 1081809.4454595102 -8795893.4666808136 0 -8795893.4666808136 -7784791.0272107944 0 0 0 0 276821440.24339771 -116680547.93783474 0 -116680547.93783474 67031513.103401184 0 0 0 0 381192549.98149586 -136507715.89126205 0 -136507715.89126205 -32872359.822471619 0 0 0 0 -12247878.278522491 -53084060.470593452 0 -53084060.470593452 -8528034.0987167358 0 0 0 0 1770686.217470739 -8506590.3985310514 0 -8506590.3985310514 -5482774.5928825364 0 0 0 0 3718776.1550178528 -2053392.519203186 0 -2053392.519203186 -11964467.616371155 0 0 0 0 719133.4024452772 1145496.3027225127 0 1145496.3027225127 -1315225.0353527591 0 0 0 0 7430199.1436061859 -6613043.8858146667 0 -6613043.8858146667 -12674787.958557129 0 0 0 0 1544414.8526402339 -6312211.3005900607 0 -6312211.3005900607 -10695106.970619921 0 0 0 0 7254020.7081413269 -2843891.934173584 0 -2843891.934173584 -14570316.114870548 0 0 0 0 7389819.8754796982 -6533208.8872756958 0 -6533208.8872756958 -8252523.4010467529 0 0 0 0 8741565.9860515594 -2654265.9364852905 0 -2654265.9364852905 -7940538.7286081314 0 0 0 0 5701401.3471336365 -1213888.5741424561 0 -1213888.5741424561 -12565281.679820538 0 0 0 0 3117345.4387798309 -1699964.7221221924 0 -1699964.7221221924 -10745035.840866089 0 0 0 0 6723188.5558309555 -218346.93444824219 0 -218346.93444824219 -11699685.615875244 0 0 0 0 822119.12944900361 -1943543.3495023083 0 -1943543.3495023083 -9062269.832427606 0 0 0 0 4753164.3199567795 740413.51507568359 0 740413.51507568359 -7773077.415802002 0 0 0 0 1266878.2028004429 -5774386.0558699556 0 -5774386.0558699556 -19355163.29371763 0 0 0 0 40509206.112562656 10136326.672286987 0 10136326.672286987 -58903341.76776123 0 0 0 0 18952357.152788401 -10240838.210489273 0 -10240838.210489273 -22749665.642028809 0 0 0 0 10153533.493191719 -3049154.1283798218 0 -3049154.1283798218 -7883955.5097837448 0 0 0 0 667715.30845614441 -921735.42933581606 0 -921735.42933581606 -9659842.0264188871 0 0 0 0 -2002039.5397310257 -14506577.804946899 0 -14506577.804946899 -20390602.179138184 0 0 0 0 2418552.4515714645 -30884471.173324585 0 -30884471.173324585 -31553814.804840088 0 0 0 0 -37075966.96333313 -12387209.541137695 0 -12387209.541137695 -14648780.822387695 0 0 0 0 2091625.2670470185 -6003268.5628488362 0 -6003268.5628488362 -18304137.515604168 0 0 0 0 7391016.4444999695 -5522522.6092910767 0 -5522522.6092910767 -6964914.0871582031 0 0 0 0 370923.70052181557 -8999951.3606964108 0 -8999951.3606964108 -13471827.150083289 0 0 0 0 -107403.72060134262 -6387149.1564503908 0 -6387149.1564503908 -22077300.167859137 0 0 0 0 -6027846.1946601868 -644217.72066497803 0 -644217.72066497803 -6541826.2599830627 0 0 0 0 6167616.8544778824 8845373.676738739 0 8845373.676738739 -22603661.681991577 0 0 0 0 17698215.807973862 10373708.369930267 0 10373708.369930267 -21374953.83605957 0 0 0 0 17220560.11113739 -13154522.113853455 0 -13154522.113853455 -56154564.662261963 0 0 0 0 7412567.5988525907 -5805297.3841973692 0 -5805297.3841973692 -29878916.101220652 0 0 0 0 -8376460.2725429535 -10049960.583698273 0 -10049960.583698273 -49729033.615856171 0 0 0 0 10510587.794622421 297566.53757858276 0 297566.53757858276 -25594174.930725098 0 0 0 0 20358156.459900856 -41125240.004446983 0 -41125240.004446983 -77569140.703384399 0 0 0 0 4056304.6167955399 2642940.2496948242 0 2642940.2496948242 -32252875.278137207 0 0 0 0 3446987.8691362208 -5414665.4341630116 0 -5414665.4341630116 -27540531.342885658 0 0 0 0 -1909851.6791969733 -2094021.3061753139 0 -2094021.3061753139 -31285236.628350988 0 0 0 0 5780970.9392051697 -2396667.0202331543 0 -2396667.0202331543 -8535322.311920166 0 0 0 0 10652567.712946892 -3408101.030380249 0 -3408101.030380249 -16109037.027038574 0 0 0 0 3065645.2426391589 1338046.7990870886 0 1338046.7990870886 -35574930.006748758 0 0 0 0 1903017.2639427185 -5166249.4794311523 0 -5166249.4794311523 -7415050.0990600586 0 0 0 0 -683897.43952636549 -3939805.3920088182 0 -3939805.3920088182 -6625092.7057524398 0 0 0 0 15837937.178551197 5101241.7645149231 0 5101241.7645149231 -49742128.644500732 0 0 0 0 1851501.9390576223 1055669.4764737263 0 1055669.4764737263 -30717107.544961922 0 0 0 0 1923197.6220671367 1470242.8845030889 0 1470242.8845030889 -31790254.267712492 0 0 0 0 1724699.1702799797 3485814.4377212524 0 3485814.4377212524 -34430589.868179321 0 0 0 0 -278253.21986198425 15120207.253768921 0 15120207.253768921 -66761873.675811768 0 0 0 0 -20473222.463877916 -59630088.551179886 0 -59630088.551179886 -49423388.462234497 0 0 0 0 2478956.0738030663 -3063300.3051666841 0 -3063300.3051666841 -7340329.7901271358 0 0 0 0 -9224337.3387827873 -5446649.5408401489 0 -5446649.5408401489 -32750778.268127441 0 0 0 0 9294110.2603337765 -42613094.171857834 0 -42613094.171857834 -80756244.514434814 0 0 0 0 32056661.811411619 -14928587.363351822 0 -14928587.363351822 -84706064.869873047 0 0 0 0 -56111969.567038536 -4815296.9368972778 0 -4815296.9368972778 -24142232.44317627 0 0 0 0 208613.46931932727 -1459645.7263450697 0 -1459645.7263450697 -15255058.59194386 0 0 0 0 17273326.5058918 5812549.108921051 0 5812549.108921051 -22649162.554077148 0 0 0 0 -8701494.5169610977 10907655.855880737 0 10907655.855880737 -21699175.612884521 0 0 0 0 -14933961.742368698 -395380.15837097168 0 -395380.15837097168 -12234188.535193443 0 0 0 0 7004663.0957155228 -2906338.4595890045 0 -2906338.4595890045 -20726345.658050537 0 0 0 0 -27970583.422327042 -25508352.783706665 0 -25508352.783706665 -37437737.907653809 0 0 0 0 4833395.0251083374 -143864.59036254883 0 -143864.59036254883 -21402996.311950684 0 0 0 0 -3100721.2386307716 -32055930.877109528 0 -32055930.877109528 -73656856.150146484 0 0 0 0 3188383.1811151505 -17659597.326530457 0 -17659597.326530457 -52991227.304084778 0 0 0 0 3193050.3369088173 -17222408.719659805 0 -17222408.719659805 -46757859.217041016 0 0 0 0 4020955.4457149506 -8447638.5679473877 0 -8447638.5679473877 -47883610.841514587 0 0 0 0 -1533035.084821701 -12504044.42880249 0 -12504044.42880249 -38611825.165161133 0 0 0 0 641174.22921597073 -1343085.1088291295 0 -1343085.1088291295 -2122017.0817502663 0 0 0 0 -6155051.1661376953 -25209596.312850952 0 -25209596.312850952 -50183058.222099304 0 0 0 0 -617342.45179367065 2365680.5223388672 0 2365680.5223388672 -20576662.759303093 0 0 0 0 -6571056.3664703369 -19296944.142868042 0 -19296944.142868042 -44681503.581130981 0 0 0 0 5790723.4968137741 -6360389.9209308624 0 -6360389.9209308624 -15288615.844848633 0 0 0 0 -551083.53263337305 -1177074.6011517942 0 -1177074.6011517942 -19606829.905615136 0 0 0 0 3905245.1287727356 -3774902.0543212891 0 -3774902.0543212891 -6961187.5936889648 0 0 0 0 2441716.7184066772 -5663436.3914794922 0 -5663436.3914794922 -15463893.695556641 0 0 0 0 4300574.4405531883 -3701595.6372442245 0 -3701595.6372442245 -17258612.453918457 0 0 0 0 -2863110.7651278023 -4810730.9286633879 0 -4810730.9286633879 -12743438.828068927 0 0 0 0 -31979150.431297302 -29199170.599304199 0 -29199170.599304199 -11708992.202880859 0 0 0 0 2344382.4950065552 1233479.8225063086 0 1233479.8225063086 -5883482.9970955253 0 0 0 0 -5181480.1255616713 -9537400.2211185731 0 -9537400.2211185731 -4592453.4735417962 0 0 0 0 -352991.45589355193 -567227.46743244119 0 -567227.46743244119 286318.86406502128 0 0 0 0 -409976.69489336014 -1048574.4750213623 0 -1048574.4750213623 -19285518.998569489 0 0 0 0 -2873455.6201729774 -12275177.047039032 0 -12275177.047039032 -31390475.38420105 0 0 0 0 -6840775.3285460472 -7895749.978058815 0 -7895749.978058815 -28020083.258163452 0 0 0 0 -3597050.3241760023 -3393663.6222446039 0 -3393663.6222446039 -20853663.050611917 0 0 0 0 3250585.2192371581 5407057.2838578671 0 5407057.2838578671 -31267272.979285836 0 0 0 0 6486087.3429570198 -3485836.8457450867 0 -3485836.8457450867 -38122087.374816895 0 0 0 0 4389175.2585189296 4914361.0912301093 0 4914361.0912301093 -34366096.585524201 0 0 0 0 6074426.3332824409 -3849803.4532699585 0 -3849803.4532699585 -52984651.634765625 0 0 0 0 6768384.4726791382 11970134.818084717 0 11970134.818084717 -37106862.906700134 0 0 0 0 1736072.9430834753 -1077467.9936211929 0 -1077467.9936211929 -21816225.241072562 0 0 0 0 2395670.6642325222 -817061.56948852539 0 -817061.56948852539 -55078854.486282349 0 0 0 0 380834.05671462417 19084261.343582153 0 19084261.343582153 -38408082.97328186 0 0 0 0 7845323.5532481074 14518399.953567505 0 14518399.953567505 -37865792.554389954 0 0 0 0 8620025.4648983777 14794608.714954376 0 14794608.714954376 -40995825.545883179 0 0 0 0 856686.00905526581 7338391.4634668417 0 7338391.4634668417 -32511043.948346078 0 0 0 0 9980877.6552399993 16439882.620513916 0 16439882.620513916 -41967601.231521606 0 0 0 0 12675584.723874018 22538757.427310944 0 22538757.427310944 -37456155.869766235 0 0 0 0 35441762.613767266 11100572.515731812 0 11100572.515731812 -58767006.975708008 0 0 0 0 31439104.397610754 27784606.948741913 0 27784606.948741913 -84662697.846343994 0 0 0 0 92751905.618917823 32329509.991500854 0 32329509.991500854 -97183880.05368042 0 0 0 0 74364741.770416498 28445343.596099854 0 28445343.596099854 -84816721.198150635 0 0 0 0 28940878.862608671 -7349917.4294281006 0 -7349917.4294281006 -75605391.646011353 0 0 0 0 24227506.04097724 -5455512.1667900085 0 -5455512.1667900085 -43653862.095672607 0 0 0 0 19518291.022472918 10580649.216148376 0 10580649.216148376 -52095890.782730103 0 0 0 0 8410722.2669370174 11123931.166137695 0 11123931.166137695 -44487350.741081238 0 0 0 0 12611685.919827342 355859.87465667725 0 355859.87465667725 -51261130.475099564 0 0 0 0 1628812.4721354954 4656716.6612613611 0 4656716.6612613611 -37640312.345400706 0 0 0 0 3149274.8945753877 -6520138.1179668158 0 -6520138.1179668158 -33825889.318119824 0 0 0 0 21911580.629769087 -1115390.9480438232 0 -1115390.9480438232 -51673027.202713013 0 0 0 0 18036350.729843616 -11680862.903640747 0 -11680862.903640747 -24298298.902420044 0 0 0 0 4592386.0699690962 -16297258.400837984 0 -16297258.400837984 -28764911.084772363 0 0 0 0 45645770.214027643 -20093332.356140137 0 -20093332.356140137 -26608210.888418198 0 0 0 0 16841399.298519775 -1074763.4545068741 0 -1074763.4545068741 -28651423.450897217 0 0 0 0 535488.75216221809 -4567949.6435089111 0 -4567949.6435089111 -22673350.349136353 0 0 0 0 2425250.35534498 1978323.8125199527 0 1978323.8125199527 -3935029.5869823545 0 0 0 0 17058772.14412877 -4156971.2929606438 0 -4156971.2929606438 -25848105.961410522 0 0 0 0 16386448.607318461 871202.30552101135 0 871202.30552101135 -32517500.073562622 0 0 0 0 -1332171.483227253 91995.235149383545 0 91995.235149383545 -35121769.622917175 0 0 0 0 623525.07919406891 3106058.1565513611 0 3106058.1565513611 -40230156.193861008 0 0 0 0 11207712.270561457 8065661.2180204391 0 8065661.2180204391 -31537492.208984375 0 0 0 0 9915150.2148036957 3694490.1558980942 0 3694490.1558980942 -25001147.414825439 0 0 0 0 2020132.3391614179 -6988482.4916630965 0 -6988482.4916630965 -39577913.956406564 0 0 0 0 23773377.622514009 -1932298.7106323242 0 -1932298.7106323242 -41372637.403411865 0 0 0 0 34342487.368303299 -79173683.985771179 0 -79173683.985771179 -50817126.232475281 0 0 0 0 27124133.026521206 -77153746.651656151 0 -77153746.651656151 -33410992.189331055 0 0 0 0 2516656.7067197324 -12292092.436415244 0 -12292092.436415244 -5142845.6248347349 0 0 0 0 27310856.619495392 -70729328.375553131 0 -70729328.375553131 -57664085.212081909 0 0 0 0 9258581.632794857 -5295420.8209915161 0 -5295420.8209915161 -13863466.410339355 0 0 0 0 51143055.537981033 10293229.2865448 0 10293229.2865448 -45079799.661361694 0 0 0 0 4839937.5099771116 -2369235.3827407025 0 -2369235.3827407025 -20382741.742625568 0 0 0 0 45852314.085077286 -4669051.1461677551 0 -4669051.1461677551 -22522345.141662598 0 0 0 0 23502433.872913361 -65720182.904785156 0 -65720182.904785156 -68624867.872955322 0 0 0 0 6907322.6420669556 -52785507.415039062 0 -52785507.415039062 -72539016.626815796 0 0 0 0 -8786072.3332672119 -51205579.307830811 0 -51205579.307830811 -47544956.515350342 0 0 0 0 -24593978.432239532 -23704140.874603271 0 -23704140.874603271 -80294253.28314209 0 0 0 0 -61513464.009069443 -53045572.872379303 0 -53045572.872379303 -41246851.859069824 0 0 0 0 10590283.289859772 -38520372.610038757 0 -38520372.610038757 -74155708.495315552 0 0 0 0 -101769170.61172867 -16011704.273006439 0 -16011704.273006439 -41388779.042427063 0 0 0 0 36378547.446905136 -53795804.698883057 0 -53795804.698883057 -79830850.216308594 0 0 0 0 41726233.074325562 11791696.563217163 0 11791696.563217163 -36925963.734891891 0 0 0 0 156861735.01468825 -38233935.615857601 0 -38233935.615857601 -92259544.149848938 0 0 0 0 2167691.1157304049 -3531761.5579571794 0 -3531761.5579571794 -38901772.186962008 0 0 0 0 9498025.1123726368 -36750051.187888145 0 -36750051.187888145 -8839330.8119049072 0 0 0 0 65091505.000878811 17959936.260971069 0 17959936.260971069 -67089463.215118408 0 0 0 0 44223154.91152668 -23158346.453006744 0 -23158346.453006744 -13791165.055511475 0 0 0 0 4227520.6799305324 3222645.1834489936 0 3222645.1834489936 -38523837.319612615 0 0 0 0 139244001.52104378 21150319.41381073 0 21150319.41381073 -94670658.179908752 0 0 0 0 -16671750.924489975 -46944537.866407394 0 -46944537.866407394 -91339776.561439514 0 0 0 0 71566984.925681114 14007144.339977264 0 14007144.339977264 -157260711.45960045 0 0 0 0 45406228.34327507 -25771137.198179245 0 -25771137.198179245 -114337633.62456512 0 0 0 0 -37053229.349567413 -45918970.146841049 0 -45918970.146841049 -38878968.704910278 0 0 0 0 -31380001.842149734 -26291953.721950531 0 -26291953.721950531 -110386114.03464508 0 0 0 0 -22092660.854207754 -82035315.827428818 0 -82035315.827428818 -146346872.63192749 0 0 0 0 -1196984.1243161997 -852800.72371401638 0 -852800.72371401638 -1544387.8077505119 0 0 0 0 -108523555.49306202 -169387154.04862785 0 -169387154.04862785 -296569118.950634 0 0 0 0 -16994816.187840462 260595842.03621674 0 260595842.03621674 39020974.552150726 0 0 0 0 -21090351.942901611 82928299.596961975 0 82928299.596961975 82517634.953449249 0 0 0 0 254664038.57883453 135398232.6817131 0 135398232.6817131 -65992520.198097229 0 0 0 0 -113555389.09237683 -130010931.96994233 0 -130010931.96994233 -72045178.157279968 0 0 0 0 -1406412.6378432517 -4097869.0772278924 0 -4097869.0772278924 -8137707.1387738697 0 0 0 0 214444765.72935343 46500705.675264359 0 46500705.675264359 -57912698.979553223 0 0 0 0 189748224.7865696 83513161.233337402 0 83513161.233337402 6862978.220161438 0 0 0 0 263505235.30443954 20412401.617630005 0 20412401.617630005 -44365816.772842407 0 0 0 0 177280215.02159119 -22352280.683837891 0 -22352280.683837891 -71171911.788375854 0 0 0 0 156697344.8830986 -27374292.859886169 0 -27374292.859886169 -64973873.050689697 0 0 0 0 280211133.35334778 -65641533.242977142 0 -65641533.242977142 -162381072.77416992 0 0 0 0 59505352.382938385 11277863.168685913 0 11277863.168685913 -4755825.1682052612 0 0 0 0 131429544.94263172 17002073.152893066 0 17002073.152893066 -41355981.961715698 0 0 0 0 59609294.546092987 -4558167.5357398987 0 -4558167.5357398987 -56907627.162643433 0 0 0 0 51124474.994884491 -12795183.647834778 0 -12795183.647834778 -46943181.432100296 0 0 0 0 79304638.725624084 -76991410.418140411 0 -76991410.418140411 -100839303.91146851 0 0 0 0 179661786.41067886 -101265966.16398621 0 -101265966.16398621 -165545048.98002625 0 0 0 0 459878242.37817192 -178410984.58606339 0 -178410984.58606339 -451563076.12477112 0 0 0 0 123191367.76208496 31392875.795215607 0 31392875.795215607 27164403.43891716 0 0 0 0 444253097.07550645 -673535394.66253281 0 -673535394.66253281 -66911506.376922607 0 0 0 0 345689492.02043343 -10794188.28301239 0 -10794188.28301239 -124229141.09222412 0 0 0 0 300861262.34942794 295769872.32038021 0 295769872.32038021 418621816.21626282 0 0 0 0 15258022.842202425 15293503.00629425 0 15293503.00629425 -30827531.947036743 0 0 0 0 -4040663.6229221299 -38890807.223716736 0 -38890807.223716736 23056233.449790955 0 0 0 0 751533.33664452133 932710.46299873292 0 932710.46299873292 -3371674.4758389816 0 0 0 0 10356759.636866957 -1405166.3866491318 0 -1405166.3866491318 -16109627.169403076 0 0 0 0 -51450972.79308635 76894036.458698273 0 76894036.458698273 -116669667.46871948 0 0 0 0 -22718560.661216941 20896219.274959564 0 20896219.274959564 -173011355.37435913 0 0 0 0 -923060.642117396 73121436.641937256 0 73121436.641937256 -122885367.7694397 0 0 0 0 268257.01520048216 399778.35040370375 0 399778.35040370375 -1773061.1454721913 0 0 0 0 -6113608.846833244 50767127.657875061 0 50767127.657875061 -123185857.42955017 0 0 0 0 -49061970.949408829 131663414.52374268 0 131663414.52374268 -49357885.318359375 0 0 0 0 -21475.043857784327 257475.05552529544 0 257475.05552529544 -1090129.7544767112 0 0 0 0 52938.580558463116 -237756.62756347656 0 -237756.62756347656 -27270560.700027466 0 0 0 0 -36564721.727254078 11343603.282218933 0 11343603.282218933 80557517.90561676 0 0 0 0 11429078.349431314 -3014955.917760849 0 -3014955.917760849 -27525104.107849121 0 0 0 0 -44885773.959424227 47683440.4140625 0 47683440.4140625 -19863351.67956543 0 0 0 0 -20813746.623457387 -24153746.345932007 0 -24153746.345932007 -20342423.239730835 0 0 0 0 9076463.634599641 -20653321.183578491 0 -20653321.183578491 -105932271.62536621 0 0 0 0 58616359.360657208 -56578518.762130737 0 -56578518.762130737 -180624372.06213379 0 0 0 0 100698.88872411071 92340.510926852003 0 92340.510926852003 -386473.94080087543 0 0 0 0 -7821989.1699179905 328100.77886962891 0 328100.77886962891 2961891.39894104 0 0 0 0 -9954242.8260355946 -11813409.601303101 0 -11813409.601303101 -7721994.8258972168 0 0 0 0 -4298.2367993363732 -7417812.3664474487 0 -7417812.3664474487 -27960836.786834717 0 0 0 0 -13196.52818245581 -1034381.7407822686 0 -1034381.7407822686 -1729584.0548400879 0 0 0 0 -522937.16237412021 -2517137.4416656494 0 -2517137.4416656494 -4975076.7853126526 0 0 0 0 6126617.7099655317 2616081.3390655518 0 2616081.3390655518 -4599753.591293335 0 0 0 0 6580707.9431173075 1380459.5437698364 0 1380459.5437698364 -1913309.401763916 0 0 0 0 -836572.79769208329 -2776208.9636077881 0 -2776208.9636077881 -1135621.784362793 0 0 0 0 9967.6927086618671 -143692.40051110089 0 -143692.40051110089 -222797.15317256562 0 0 0 0 -4216352.034676522 8576634.2922611237 0 8576634.2922611237 -14142844.760314941 0 0 0 0 335174.14976953843 285506.48855688795 0 285506.48855688795 -1142817.5612651259 0 0 0 0 -12066054.517096341 11410460.250366211 0 11410460.250366211 -13834369.910842896 0 0 0 0 766451.37691438198 4617308.6603851318 0 4617308.6603851318 -11817462.195068359 0 0 0 0 -194797.24375482538 -1349983.8490791172 0 -1349983.8490791172 -3622384.79537901 0 0 0 0 827799.3840007782 3179752.7792739868 0 3179752.7792739868 -17035370.035552979 0 0 0 0 1300684.2810664177 2202914.6921386719 0 2202914.6921386719 -15644315.349121094 0 0 0 0 1189624.0207290649 1670379.3647994995 0 1670379.3647994995 -16572119.362014771 0 0 0 0 182454.52586306818 -1663697.276777707 0 -1663697.276777707 -7473279.3624805305 0 0 0 0 1832362.4755973816 1753532.3940353394 0 1753532.3940353394 -16836276.964767456 0 0 0 0 -8025710.7855500057 36268141.384995461 0 36268141.384995461 -101814042.47166443 0 0 0 0 1571824.1282049457 1566837.5142558739 0 1566837.5142558739 -7344478.8772313818 0 0 0 0 2230783.5670964718 2259164.6229248047 0 2259164.6229248047 -17660527.201942444 0 0 0 0 3646498.7364432812 -3564380.7519950867 0 -3564380.7519950867 -14362966.375320435 0 0 0 0 1839272.9492616653 457607.32287597656 0 457607.32287597656 -20323120.436288357 0 0 0 0 326285.95295200578 -3830245.8275286593 0 -3830245.8275286593 -14141341.63114737 0 0 0 0 4255214.3134093285 -2522399.2118377686 0 -2522399.2118377686 -12591434.03295517 0 0 0 0 4273677.7653733622 890650.25229534879 0 890650.25229534879 -11807526.175954908 0 0 0 0 1033002.9536029398 15021518.391357422 0 15021518.391357422 -46697515.647827148 0 0 0 0 16691801.532364745 36558463.716030121 0 36558463.716030121 -104912240.77758789 0 0 0 0 -182142.60623359942 820394.47592632659 0 820394.47592632659 236348.71007364988 0 0 0 0 13230287.224671677 16788890.541313171 0 16788890.541313171 -46541592.558654785 0 0 0 0 4318854.585686367 7239047.0979157314 0 7239047.0979157314 -15255187.05282332 0 0 0 0 7055319.1758498549 10913194.141586304 0 10913194.141586304 -44852186.596588135 0 0 0 0 1836855.5545490384 798848.19416046143 0 798848.19416046143 -33362981.377288818 0 0 0 0 8647295.7424401641 1089590.2932510376 0 1089590.2932510376 -53956576.973693848 0 0 0 0 8540584.8484223671 291674.18023300171 0 291674.18023300171 -59326090.45880127 0 0 0 0 -4518323.6144700497 17942638.016609192 0 17942638.016609192 -71289455.185302734 0 0 0 0 7387317.7003956921 3793446.6996536255 0 3793446.6996536255 -69827380.828735352 0 0 0 0 13839421.824026484 -8459956.0959014893 0 -8459956.0959014893 -58351648.300140381 0 0 0 0 666811.84743443131 3007441.0116424561 0 3007441.0116424561 -54102259.060150146 0 0 0 0 15249990.478889111 4422372.4852514267 0 4422372.4852514267 -86035492.194946289 0 0 0 0 6245501.6570583582 -10741580.089401245 0 -10741580.089401245 -58645914.685592651 0 0 0 0 9181606.9118207768 -21744847.696762085 0 -21744847.696762085 -17685124.836730957 0 0 0 0 6575026.0676651709 -9977598.415222168 0 -9977598.415222168 -56981008.959320068 0 0 0 0 2378416.8888806449 -10010180.267354369 0 -10010180.267354369 -51910226.641571045 0 0 0 0 -19569469.656160682 26372332.699615479 0 26372332.699615479 -83838220.762741089 0 0 0 0 3725302.4959136993 64448049.698806763 0 64448049.698806763 -119094764.21640778 0 0 0 0 17775026.360905364 27559706.737808228 0 27559706.737808228 -108977878.80775452 0 0 0 0 58976428.276871994 21944541.812210083 0 21944541.812210083 -102887902.63556671 0 0 0 0 38374630.099968836 -27387686.377281189 0 -27387686.377281189 -61362692.874855042 0 0 0 0 4032543.7556377128 -7489638.9654541016 0 -7489638.9654541016 1217678.9834442139 0 0 0 0 38245240.136656061 21044444.170361519 0 21044444.170361519 -21133931.931854248 0 0 0 0 42694701.67234984 -6149491.9722385406 0 -6149491.9722385406 -6074012.5335388184 0 0 0 0 32301871.563582271 10605297.72882843 0 10605297.72882843 -17955482.760871887 0 0 0 0 10081.115132653529 79283.203923508525 0 79283.203923508525 -304049.74338445067 0 0 0 0 48230751.167549208 14480123.586479187 0 14480123.586479187 -35215372.384429932 0 0 0 0 519213.91398381547 517336.15512487292 0 517336.15512487292 -10051947.910837349 0 0 0 0 -21915.385255396366 18991645.219352722 0 18991645.219352722 -35962484.217258453 0 0 0 0 124680.52542427302 275429.13321399689 0 275429.13321399689 -2925006.5275576413 0 0 0 0 3352514.9133293033 28512894.552108765 0 28512894.552108765 -13887173.345924377 0 0 0 0 -5130101.7337721884 16471949.924945831 0 16471949.924945831 -19040556.422012329 0 0 0 0 -329066.9024553895 20999084.512161255 0 20999084.512161255 -7174647.0532226562 0 0 0 0 -8995882.4625708461 37421708.941040039 0 37421708.941040039 -25824545.779239655 0 0 0 0 7255027.4322673082 33415872.167793274 0 33415872.167793274 -53413164.379196167 0 0 0 0 7634999.0143320058 39248453.040538311 0 39248453.040538311 -33815581.503570557 0 0 0 0 32486951.797721565 35846976.819503784 0 35846976.819503784 -56408728.286178589 0 0 0 0 -21626225.044591069 42152175.233665466 0 42152175.233665466 -18986062.588447571 0 0 0 0 -5421799.2887395024 57672144.957176208 0 57672144.957176208 -55977004.131088257 0 0 0 0 -24903263.597901851 83271073.566207886 0 83271073.566207886 -81938133.805450439 0 0 0 0 -7648129.7277524471 48861324.715232849 0 48861324.715232849 -145699780.51721191 0 0 0 0 15072144.766788125 53835262.689941406 0 53835262.689941406 -60266769.899299622 0 0 0 0 15895240.47134915 56808659.109800339 0 56808659.109800339 -81759821.422729492 0 0 0 0 54583203.722242355 61695242.331222534 0 61695242.331222534 -100308355.71182251 0 0 0 0 9951647.3035772443 4788632.9755477905 0 4788632.9755477905 5556203.9497070312 0 0 0 0 10163.34744445129 29148.497977580875 0 29148.497977580875 -164169.9260237962 0 0 0 0 -40056688.874279112 70233665.807632446 0 70233665.807632446 -34089606.571334839 0 0 0 0 2623931.933955729 -61251296.163375854 0 -61251296.163375854 -110058331.32836914 0 0 0 0 -6310089.9553692192 -14677644.243278503 0 -14677644.243278503 -86470531.922988892 0 0 0 0 -4778955.8825982325 -36277243.060935974 0 -36277243.060935974 -46691758.091369629 0 0 0 0 -6263508.3655456435 -509161.60139465332 0 -509161.60139465332 -16720362.336639404 0 0 0 0 399331.82822122052 -16688788.386966705 0 -16688788.386966705 8105514.7218170166 0 0 0 0 -22808422.792796567 13532844.440422058 0 13532844.440422058 -31171462.009933472 0 0 0 0 -15445557.247984968 49085963.549537659 0 49085963.549537659 -40472336.28314209 0 0 0 0 -12684786.54007861 43015759.450302124 0 43015759.450302124 -118538392.50017548 0 0 0 0 -3534.4944882520231 48376.993060849607 0 48376.993060849607 -140763.86653499305 0 0 0 0 10615480.738056302 -6267364.9324417114 0 -6267364.9324417114 -117323172.73490036 0 0 0 0 -1723294.8858626783 75838070.771209717 0 75838070.771209717 -48676660.38079834 0 0 0 0 -23493273.058179006 65581165.289306641 0 65581165.289306641 -15888279.497772217 0 0 0 0 -15011965.837198954 46937849.443641663 0 46937849.443641663 -126807023.67488098 0 0 0 0 -25304897.000024296 34333736.528190613 0 34333736.528190613 -61148085.960205078 0 0 0 0 -21329833.090640787 13346571.268957138 0 13346571.268957138 -73052968.952453613 0 0 0 0 -16049045.233821461 13915009.310585022 0 13915009.310585022 -79418024.751739502 0 0 0 0 -72974.86125200479 16072531.379440308 0 16072531.379440308 -83349233.467803955 0 0 0 0 612.53345659475895 4508498.0259246826 0 4508498.0259246826 -74547538.952941895 0 0 0 0 -18264420.041565076 5020350.5538101196 0 5020350.5538101196 -57760546.213165283 0 0 0 0 -5185599.3128994284 -10171508.566055298 0 -10171508.566055298 -68622214.875663757 0 0 0 0 -4397301.3813262805 -3921255.5645294189 0 -3921255.5645294189 -87215834.767974854 0 0 0 0 6885.5019604339268 3982668.0689239502 0 3982668.0689239502 -97415661.319946289 0 0 0 0 3228242.9392124517 -2356935.879524231 0 -2356935.879524231 -87279216.028238773 0 0 0 0 3117542.8685288657 -6147138.1134757996 0 -6147138.1134757996 -111864485.35400391 0 0 0 0 8021509.3597073983 9676858.4491882324 0 9676858.4491882324 -106480755.62553406 0 0 0 0 6960236.4080843925 10713633.802879333 0 10713633.802879333 -94669396.553276062 0 0 0 0 17095741.246405482 -19782861.38130188 0 -19782861.38130188 -137970521.68870544 0 0 0 0 4043333.6736833211 -15591155.259880066 0 -15591155.259880066 -86779402.310302734 0 0 0 0 10109325.003576249 10634026.421028137 0 10634026.421028137 -110042078.46307373 0 0 0 0 101908.93725535646 30944395.754516602 0 30944395.754516602 -150802824.5958252 0 0 0 0 -15085663.576640187 42290755.582704067 0 42290755.582704067 -121225522.08686829 0 0 0 0 -14856516.573923882 39533298.039700508 0 39533298.039700508 -89518241.449874878 0 0 0 0 -8039718.5484398846 20967060.727607727 0 20967060.727607727 -72324453.925086975 0 0 0 0 8855.39097975806 7318362.5200042725 0 7318362.5200042725 -86146304.989593506 0 0 0 0 -8060821.5793143492 18750233.230178833 0 18750233.230178833 -45131953.044128418 0 0 0 0 192139.30896614864 19488233.639701843 0 19488233.639701843 -77615822.706642151 0 0 0 0 -4416.6033012037387 7472146.7655181885 0 7472146.7655181885 -47612416.530685425 0 0 0 0 -2497639.1943741515 13287895.130859375 0 13287895.130859375 -36313041.332824707 0 0 0 0 -522304.30451157712 -898814.21951580793 0 -898814.21951580793 -1519521.9430054203 0 0 0 0 1231.5736299533053 -19933.095550537109 0 -19933.095550537109 -1390129.8395385742 0 0 0 0 1198345.5512313494 -2608140.3001861572 0 -2608140.3001861572 6528889.0846252441 0 0 0 0 517496.50874107942 135976.20857425034 0 135976.20857425034 -1547735.777296558 0 0 0 0 930468.63687515259 -5205359.0911712646 0 -5205359.0911712646 -4256852.6253199577 0 0 0 0 -738958.92593622208 -5627414.6426391602 0 -5627414.6426391602 -4271368.723649025 0 0 0 0 424813.30055600242 4227595.8947162628 0 4227595.8947162628 4829122.8497467041 0 0 0 0 1429229.6739254796 -134467.33705108613 0 -134467.33705108613 -2219163.9995917454 0 0 0 0 -1225298.5732992801 -1636391.8104879856 0 -1636391.8104879856 -1794925.3824845105 0 0 0 0 -6748485.1357574165 4880449.7293357849 0 4880449.7293357849 -41088709.894744873 0 0 0 0 -1450283.5990300223 -987297.12470614165 0 -987297.12470614165 -794855.14911177754 0 0 0 0 4641993.6645927429 -7350039.8913726807 0 -7350039.8913726807 2900617.3120117188 0 0 0 0 6681477.4384874701 -4418790.2412033081 0 -4418790.2412033081 -4313655.6950378418 0 0 0 0 9931009.1161067486 -4720775.8932037354 0 -4720775.8932037354 -5364613.5694351196 0 0 0 0 -1005963.9941520691 -2974548.2068481445 0 -2974548.2068481445 -3852458.5004816055 0 0 0 0 1778209.6896633506 -2485265.3344516754 0 -2485265.3344516754 -3827958.155456543 0 0 0 0 1459327.5065710081 582287.33443170041 0 582287.33443170041 -2247592.3387624621 0 0 0 0 2586370.8259444125 8072726.5375518799 0 8072726.5375518799 -301037.61636352539 0 0 0 0 4336777.7438546419 -3380149.7387695312 0 -3380149.7387695312 -9294060.3113708496 0 0 0 0 9093613.1577534676 2360932.2548828125 0 2360932.2548828125 -7428560.2639808655 0 0 0 0 3677417.5521416068 -1395792.2872714996 0 -1395792.2872714996 -7064788.1581420898 0 0 0 0 6368661.1182456017 3518222.7521514893 0 3518222.7521514893 -7222114.5807991028 0 0 0 0 1223712.1353472075 1093909.4528847039 0 1093909.4528847039 -2261260.5102961883 0 0 0 0 -4817784.170638524 -4337168.1611785889 0 -4337168.1611785889 -2885261.3712539673 0 0 0 0 -4800261.5310067181 4128855.5014953613 0 4128855.5014953613 -9000736.9059295654 0 0 0 0 4840809.7794581093 -4220330.4666976929 0 -4220330.4666976929 -20990758.454833984 0 0 0 0 -2097618.9648001175 -7351656.6536712646 0 -7351656.6536712646 -23158221.740539551 0 0 0 0 50000.783090336772 1070488.4769793854 0 1070488.4769793854 -4304915.4857788086 0 0 0 0 -2451080.1470406824 -973902.45745849609 0 -973902.45745849609 5800231.2484741211 0 0 0 0 -4347532.1708771139 5489036.9947681427 0 5489036.9947681427 4522656.4327087402 0 0 0 0 1300303.7931941897 -3312120.118850708 0 -3312120.118850708 -2500332.9442749023 0 0 0 0 15345792.12505576 26245855.43586731 0 26245855.43586731 -48798597.523384094 0 0 0 0 -301445.59591473639 32609132.022605896 0 32609132.022605896 -8946621.2515258789 0 0 0 0 18421801.413187206 15330875.755363464 0 15330875.755363464 -15059555.362945557 0 0 0 0 1909281.6295964122 24064615.344127655 0 24064615.344127655 -1951923.9979858398 0 0 0 0 -15726469.30901885 52391845.86151886 0 52391845.86151886 -32583284.423950195 0 0 0 0 5356983.4905817509 25433293.245758057 0 25433293.245758057 -1570896.8746643066 0 0 0 0 -553605.61551472545 25196763.517036438 0 25196763.517036438 17420166.638214111 0 0 0 0 2996305.8955850303 19227013.491470337 0 19227013.491470337 -2172392.9262695312 0 0 0 0 6891664.0902327895 20159417.869903564 0 20159417.869903564 -15039303.576599121 0 0 0 0 1977951.0943995565 20295477.362785339 0 20295477.362785339 3812810.8192749023 0 0 0 0 1761495.6544083357 12983936.115905762 0 12983936.115905762 7607408.8062286377 0 0 0 0 4232532.0235284567 13231891.18572998 0 13231891.18572998 -983787.84556317329 0 0 0 0 5056199.1563120484 11173435.88394165 0 11173435.88394165 3587593.723449707 0 0 0 0 9034193.9341585636 8981052.7171173096 0 8981052.7171173096 -1385403.5919189453 0 0 0 0 4788621.5253288746 9668267.6592712402 0 9668267.6592712402 -1280164.4357872009 0 0 0 0 8507384.0349830985 12482431.681549072 0 12482431.681549072 -9114609.5655517578 0 0 0 0 8842428.8852187991 14373118.920227051 0 14373118.920227051 -992257.41603446007 0 0 0 0 5890981.1582763195 4595679.4067993164 0 4595679.4067993164 -1953531.6718444824 0 0 0 0 8591263.4937278032 7171590.8106002808 0 7171590.8106002808 -8761360.2859802246 0 0 0 0 9468119.6520094872 1927013.711517334 0 1927013.711517334 -15197638.635665894 0 0 0 0 12016857.959598422 6726279.2182312012 0 6726279.2182312012 -8710385.8067436218 0 0 0 0 15721254.993099093 10905578.755439758 0 10905578.755439758 -19985892.958557129 0 0 0 0 12117132.613888621 8511117.3906707764 0 8511117.3906707764 -11569404.459747314 0 0 0 0 18112202.025102556 -993232.68984985352 0 -993232.68984985352 -27058021.139328003 0 0 0 0 16819615.920078963 -3021664.3400878906 0 -3021664.3400878906 -12014704.997344971 0 0 0 0 9930393.7162823677 -4928114.613861084 0 -4928114.613861084 -11673823.532958984 0 0 0 0 5299609.1656098366 -6735262.3621826172 0 -6735262.3621826172 5690316.4716186523 0 0 0 0 5899812.7723859549 -12163321.143417358 0 -12163321.143417358 -7129708.5210113525 0 0 0 0 9646236.8365100026 -20044536.51651001 0 -20044536.51651001 4688932.8969268799 0 0 0 0 32895209.237657785 -43599581.504905701 0 -43599581.504905701 -21453374.262176514 0 0 0 0 21802056.042159468 -29620675.012992859 0 -29620675.012992859 -29775485.848770142 0 0 0 0 45598420.536089063 -62321930.415466309 0 -62321930.415466309 -12617953.017211914 0 0 0 0 24142462.400289088 -3653004.1074676514 0 -3653004.1074676514 -33198206.966064453 0 0 0 0 38815909.248791754 2398508.2058105469 0 2398508.2058105469 -42710788.632045746 0 0 0 0 41159052.315248966 22693998.960857391 0 22693998.960857391 -205180177.93774414 0 0 0 0 53048163.297831774 -21290526.413787842 0 -21290526.413787842 -67754526.629119873 0 0 0 0 35295897.603313029 17573382.503303528 0 17573382.503303528 -107893174.2359314 0 0 0 0 40859481.708732367 -57719362.656463623 0 -57719362.656463623 -67291650.122406006 0 0 0 0 45869951.442644715 -29365765.16859436 0 -29365765.16859436 -75117077.914031982 0 0 0 0 44432503.418287992 -63435106.716217041 0 -63435106.716217041 -19979554.235290527 0 0 0 0 56108476.389318049 -20456448.681770325 0 -20456448.681770325 -135238.82220458984 0 0 0 0 1013722.6413490586 1631425.9194294922 0 1631425.9194294922 -2735382.8607088625 0 0 0 0 34635157.713606119 93336150.450088501 0 93336150.450088501 -97189905.743469238 0 0 0 0 208391251.14031523 -165967830.72898865 0 -165967830.72898865 39660099.259429932 0 0 0 0 110505426.30339959 -103013780.73142624 0 -103013780.73142624 72649186.868469238 0 0 0 0 17059147.678453147 -72875542.582489014 0 -72875542.582489014 43364132.603118896 0 0 0 0 168510163.57204062 -63059804.301677704 0 -63059804.301677704 3307381.9270935059 0 0 0 0 39152157.746250391 -41253718.388336182 0 -41253718.388336182 9887948.1951141357 0 0 0 0 -5222408.6468701065 -54664012.327796936 0 -54664012.327796936 29966682.976425171 0 0 0 0 14994215.180730864 -46859044.166372299 0 -46859044.166372299 15841828.430664062 0 0 0 0 9426208.1410246789 -119287626.30574036 0 -119287626.30574036 -110952266.21658325 0 0 0 0 -99247036.51701194 -76890884.285949707 0 -76890884.285949707 7951256.845123291 0 0 0 0 123284745.34557521 -97503232.354019165 0 -97503232.354019165 -34838860.903015137 0 0 0 0 91089138.00602001 -23889785.620895386 0 -23889785.620895386 -52745866.476409912 0 0 0 0 157896383.21397781 -58156778.849838257 0 -58156778.849838257 9223088.3536376953 0 0 0 0 49779379.438497066 -52308815.967514038 0 -52308815.967514038 806.54412841796875 0 0 0 0 116816279.52331805 -78592440.904052734 0 -78592440.904052734 -4082377.458770752 0 0 0 0 -1070335.2013008348 -553165.52999628335 0 -553165.52999628335 -374485.91709469259 0 0 0 0 6016203.8573830128 -15244763.853927612 0 -15244763.853927612 8951365.7443809509 0 0 0 0 2818432.3653550148 -5929400.0110473633 0 -5929400.0110473633 10635191.29296875 0 0 0 0 -25358688.958755255 -20431260.070709229 0 -20431260.070709229 6094071.9608535767 0 0 0 0 -73699492.530468404 1262648.7010574341 0 1262648.7010574341 16340288.004043579 0 0 0 0 -440658.18904512888 -160929.82772769034 0 -160929.82772769034 -84217.606822282076 0 0 0 0 -19357778.939132132 35622673.398506165 0 35622673.398506165 -116991525.20796204 0 0 0 0 -23811672.447387055 66305371.597644806 0 66305371.597644806 -244079117.67950439 0 0 0 0 -77152706.337229654 -33022638.335975647 0 -33022638.335975647 -189161549.99708557 0 0 0 0 -10972349.678183205 13857243.88199234 0 13857243.88199234 -156432494.84664917 0 0 0 0 94072942.296303689 -14639068.914741516 0 -14639068.914741516 -88509353.985443115 0 0 0 0 149727490.99400473 -59631897.114837646 0 -59631897.114837646 -71191434.376373291 0 0 0 0 143752878.12467623 -3746088.8575744629 0 -3746088.8575744629 -92718690.667327881 0 0 0 0 -77880385.049824044 80258574.655395508 0 80258574.655395508 -118084142.03765869 0 0 0 0 91774450.956577256 -55229934.339855194 0 -55229934.339855194 -201419564.4744873 0 0 0 0 46441539.971879721 64962706.023971558 0 64962706.023971558 -197996617.73223782 0 0 0 0 -119576037.94606389 -8612070.7767868042 0 -8612070.7767868042 -120863066.57836914 0 0 0 0 36878380.236045182 46702370.225265503 0 46702370.225265503 -131792569.25384521 0 0 0 0 39435293.762541816 60424552.074272156 0 60424552.074272156 -86665752.466918945 0 0 0 0 99471804.382939935 37006309.679718018 0 37006309.679718018 -131500719.69300842 0 0 0 0 72093991.071952701 41103728.966033936 0 41103728.966033936 -93807551.168823242 0 0 0 0 112685431.34352422 16134060.283355713 0 16134060.283355713 -87623116.549468994 0 0 0 0 87626639.738256812 53779345.242736816 0 53779345.242736816 -94869918.579162598 0 0 0 0 84260119.388900176 -35705590.86971283 0 -35705590.86971283 -117403866.7991333 0 0 0 0 188779277.16233492 1533159.5188293457 0 1533159.5188293457 -108763309.96026611 0 0 0 0 127277268.34807491 730967.27188110352 0 730967.27188110352 -62131970.284851074 0 0 0 0 168284197.63661885 42271271.393341064 0 42271271.393341064 -20053062.400024414 0 0 0 0 121689381.1978927 36352780.215175629 0 36352780.215175629 -47528291.71295166 0 0 0 0 140398901.02712059 -6417601.8762207031 0 -6417601.8762207031 -59295417.916954041 0 0 0 0 142181990.93559778 -21494968.361854553 0 -21494968.361854553 33052393.624755859 0 0 0 0 124721410.74229383 -5509689.7763366699 0 -5509689.7763366699 -71202892.430366516 0 0 0 0 192563641.24972975 -28186551.428489685 0 -28186551.428489685 -58282034.040008545 0 0 0 0 171915057.21180367 -51559479.373840332 0 -51559479.373840332 -77009818.444335938 0 0 0 0 4712792.9316590959 -823461.38467552699 0 -823461.38467552699 -14476714.242056027 0 0 0 0 114954363.87474561 -9925384.068145752 0 -9925384.068145752 -29886761.439880371 0 0 0 0 199226611.62472689 -64686750.59703064 0 -64686750.59703064 -44646407.434432983 0 0 0 0 2167502.8970554583 2016335.5400950462 0 2016335.5400950462 -5648731.5930485427 0 0 0 0 16059675.858368397 -1406268.9005203247 0 -1406268.9005203247 -8050215.5487823486 0 0 0 0 2110578.7773146518 187588.07837735116 0 187588.07837735116 -20121771.128430843 0 0 0 0 2070815.1876759168 6136710.3230587021 0 6136710.3230587021 -10161206.763084143 0 0 0 0 4277734.7333655618 -14285378.248086549 0 -14285378.248086549 -6351799.5283158273 0 0 0 0 -388493.09295286727 -10222145.837499067 0 -10222145.837499067 -29558161.17248363 0 0 0 0 -11596231.129714966 -13452706.081039429 0 -13452706.081039429 16305584.687255859 0 0 0 0 14964568.199943185 -49834807.576339722 0 -49834807.576339722 -54544031.909942627 0 0 0 0 -1119552.6716225757 -3892762.588531822 0 -3892762.588531822 1270585.6360297799 0 0 0 0 210154891.11673069 23295795.887329102 0 23295795.887329102 -86869384.53527832 0 0 0 0 5278032.4065485001 -7718722.1748962402 0 -7718722.1748962402 -34929119.60244751 0 0 0 0 3071312.5216054916 -3920361.2846374512 0 -3920361.2846374512 -27747361.67829895 0 0 0 0 10094826.916208982 -716188.07209777832 0 -716188.07209777832 -32889100.550140381 0 0 0 0 9823466.9142934084 -237788.05307769775 0 -237788.05307769775 -32345806.877380371 0 0 0 0 8591094.520206213 -4002432.6653175354 0 -4002432.6653175354 -34328933.739135742 0 0 0 0 8152143.077529192 -35289.11400604248 0 -35289.11400604248 -28574930.73538208 0 0 0 0 1193846.5258970261 -4502924.1446075439 0 -4502924.1446075439 -42686827.641784668 0 0 0 0 8460426.9854912758 1246257.2903060913 0 1246257.2903060913 -35075475.0597229 0 0 0 0 6519252.1551947594 -5466142.7745285034 0 -5466142.7745285034 -34959151.157440186 0 0 0 0 4075221.3179950714 -2471662.5359802246 0 -2471662.5359802246 -32958137.027801514 0 0 0 0 4931137.2406334877 -4998660.8865737915 0 -4998660.8865737915 -41330327.558990479 0 0 0 0 1552827.4727649689 -1393698.5693206787 0 -1393698.5693206787 -34846543.780056953 0 0 0 0 -3341713.9407272339 -10712526.274337769 0 -10712526.274337769 -35770544.141242981 0 0 0 0 -1636243.9557762146 -3346523.2035827637 0 -3346523.2035827637 -10067658.347106934 0 0 0 0 1085400.9457035065 -4090319.1741638184 0 -4090319.1741638184 -35236594.79624939 0 0 0 0 2787633.5891561508 -4131635.0831375122 0 -4131635.0831375122 -40911352.803375244 0 0 0 0 1556277.3742359763 809898.9416208379 0 809898.9416208379 -15242755.629577659 0 0 0 0 721324.75109767914 -6830230.4654541016 0 -6830230.4654541016 -41891318.935012817 0 0 0 0 -1394532.3547067642 -3349370.0218811035 0 -3349370.0218811035 -11837704.586242676 0 0 0 0 6458733.4108870467 4159249.4206744656 0 4159249.4206744656 -41075507.083127074 0 0 0 0 -4998728.3838090897 -6526450.6681137085 0 -6526450.6681137085 -38116107.123422623 0 0 0 0 -2312108.6678337827 -2940309.5456682816 0 -2940309.5456682816 -37518971.852911614 0 0 0 0 33352726.259501457 29816653.208648682 0 29816653.208648682 33726885.756320953 0 0 0 0 4007904.4002583027 -2328107.8141708374 0 -2328107.8141708374 -48592489.959411621 0 0 0 0 -293806.67532062531 -2222454.3028259277 0 -2222454.3028259277 -42528117.415023804 0 0 0 0 25411110.969482422 86331098.784790039 0 86331098.784790039 4972510.3586425781 0 0 0 0 4504699.0072013214 6543339.5462649763 0 6543339.5462649763 -22392898.61537157 0 0 0 0 8471952.8156766891 54386206.426383972 0 54386206.426383972 54400358.233337402 0 0 0 0 -3378571.5565733169 5097826.3098156527 0 5097826.3098156527 12571598.384652972 0 0 0 0 -23770301.876100063 8211997.1044311523 0 8211997.1044311523 -5959889.2700500488 0 0 0 0 83657512.420497417 -13401889.604858398 0 -13401889.604858398 104030969.95135498 0 0 0 0 452928.28343951702 4600982.3021316528 0 4600982.3021316528 -10097311.756713867 0 0 0 0 -2565519.0442929268 -5836193.6059188843 0 -5836193.6059188843 -23070508.233276367 0 0 0 0 -2441295.2465624255 2575956.5107640177 0 2575956.5107640177 5415128.9380997419 0 0 0 0 10141818.515897751 13481430.755279541 0 13481430.755279541 -23858872.154470444 0 0 0 0 -1058758.3185873032 5516932.6558761597 0 5516932.6558761597 2295821.1798095703 0 0 0 0 3768363.6434297562 5612159.3914489746 0 5612159.3914489746 -10269120.273857117 0 0 0 0 1989425.5063536481 4704673.53720426 0 4704673.53720426 -11884991.638933301 0 0 0 0 544537.3873963356 4580457.7865142822 0 4580457.7865142822 -8351680.3470153809 0 0 0 0 2959329.115457058 5232297.1161422729 0 5232297.1161422729 -13431305.154602051 0 0 0 0 4623630.2269158363 3561081.5624771118 0 3561081.5624771118 -28273165.660247803 0 0 0 0 -5642647.9437046051 15064187.971252441 0 15064187.971252441 -1735263.1823730469 0 0 0 0 2618318.1979951859 1016428.5316772461 0 1016428.5316772461 -2343259.6694588661 0 0 0 0 -430917.54276905092 2387553.9700419679 0 2387553.9700419679 -5789025.621131679 0 0 0 0 197332538.07127786 -126849155.90328979 0 -126849155.90328979 38397787.230712891 0 0 0 0 3388422.6637799516 4552440.4504373148 0 4552440.4504373148 -7858812.7067790776 0 0 0 0 187539085.75177765 -96634786.282562256 0 -96634786.282562256 3494979.2647094727 0 0 0 0 144732302.29783237 -44885562.729217529 0 -44885562.729217529 11058547.817382812 0 0 0 0 357385.87374386587 1072705.6920776796 0 1072705.6920776796 -4998550.9601849318 0 0 0 0 3032695.9278915855 -760670.38699924573 0 -760670.38699924573 -12067587.497617647 0 0 0 0 2637977.9220490456 4948062.297958374 0 4948062.297958374 -11285888.84942627 0 0 0 0 1729900.6704308176 1879123.4967632964 0 1879123.4967632964 -12815878.722855419 0 0 0 0 3223189.2612028718 1937764.7066345215 0 1937764.7066345215 -9203084.422039032 0 0 0 0 3237455.8553811461 2116117.9932022095 0 2116117.9932022095 -9264107.7245941162 0 0 0 0 -5704903.6361346245 -30951100.788299084 0 -30951100.788299084 -10231817.198345184 0 0 0 0 -56854295.15953064 86735489.818593979 0 86735489.818593979 138447768.39792633 0 0 0 0 -16776440.425973892 105182091.43094826 0 105182091.43094826 -269497851.92576599 0 0 0 0 -23219873.122250557 30776604.148195267 0 30776604.148195267 -55152117.778255463 0 0 0 0 20856339.094386101 73441474.268180847 0 73441474.268180847 -45828383.185559273 0 0 0 0 11913138.995693207 63315056.24937439 0 63315056.24937439 39932802.627868652 0 0 0 0 53364201.166478157 40719626.989650726 0 40719626.989650726 -27321405.393253326 0 0 0 0 38979397.227758408 71935492.554641724 0 71935492.554641724 -19056194.561813354 0 0 0 0 19110387.759607315 83012538.822120667 0 83012538.822120667 -78869059.086959839 0 0 0 0 476274.43769564788 5227830.6675871611 0 5227830.6675871611 -40935853.363177046 0 0 0 0 86357414.019479752 66586785.946323395 0 66586785.946323395 -50826557.815826893 0 0 0 0 71741736.710730433 19835112.70091033 0 19835112.70091033 -45327780.009536743 0 0 0 0 11893086.398043908 8121229.1524524689 0 8121229.1524524689 -32855443.443847656 0 0 0 0 -1352960.7823751569 8059829.6484431811 0 8059829.6484431811 -34694256.635755628 0 0 0 0 -1428708.2165145874 2026956.7231369019 0 2026956.7231369019 -33443938.832959175 0 0 0 0 -1169803.7549988627 581237.77570724487 0 581237.77570724487 -40952636.076889038 0 0 0 0 -7358539.7733724117 -2592594.3488445282 0 -2592594.3488445282 -32711448.846038818 0 0 0 0 -2967164.0015619453 -2179914.017360501 0 -2179914.017360501 -37852609.335808523 0 0 0 0 -2847965.41304636 2083266.5891494751 0 2083266.5891494751 -29362978.180099487 0 0 0 0 10153086.710514069 -2246285.9648075104 0 -2246285.9648075104 -72286485.44682312 0 0 0 0 802686.61235830188 4180754.6274830643 0 4180754.6274830643 -36819279.757206865 0 0 0 0 999276.79545362759 -2487531.8977203388 0 -2487531.8977203388 -20643086.689225819 0 0 0 0 301133.25329755899 -648929.38690399565 0 -648929.38690399565 -6284984.1482682433 0 0 0 0 -459253.65731430054 -12695897.377385139 0 -12695897.377385139 -57396554.090423584 0 0 0 0 35932097.342885971 13135138.532043457 0 13135138.532043457 -51918188.267733574 0 0 0 0 -21685678.501081467 1336968.3160705566 0 1336968.3160705566 -63399864.056335449 0 0 0 0 9196143.0180673599 18273450.383810043 0 18273450.383810043 -90543674.309043884 0 0 0 0 45879002.83729887 28561480.386883736 0 28561480.386883736 -52912607.361724854 0 0 0 0 24664491.892719269 -16431226.405212402 0 -16431226.405212402 -88729594.13066864 0 0 0 0 48949959.534078598 76011533.250476837 0 76011533.250476837 -96175154.572052002 0 0 0 0 27218629.501602173 17885217.772010803 0 17885217.772010803 -68133006.764755249 0 0 0 0 6912231.9670791626 50017610.730941772 0 50017610.730941772 -100071522.3584137 0 0 0 0 1907485.6191773415 31550597.261231422 0 31550597.261231422 -50924950.539291382 0 0 0 0 -59674145.757181168 12903736.04057312 0 12903736.04057312 112485827.80409241 0 0 0 0 -3388437.9170484985 7772197.3258900754 0 7772197.3258900754 3387870.0594234318 0 0 0 0 -8599267.6509548426 64145597.385424852 0 64145597.385424852 -24563087.735359192 0 0 0 0 -9100745.057975769 70225471.978927612 0 70225471.978927612 -76597055.872917175 0 0 0 0 -14054049.92773962 55470743.588657379 0 55470743.588657379 -48574718.82862854 0 0 0 0 20138860.808425426 -2552797.8548049927 0 -2552797.8548049927 -52988578.486297607 0 0 0 0 -6936744.4389801025 29452582.098468781 0 29452582.098468781 -65775227.030784607 0 0 0 0 -12452299.68180275 31270290.973402023 0 31270290.973402023 -14151569.111595154 0 0 0 0 -16700781.450897217 34006264.612766266 0 34006264.612766266 -63881184.598434448 0 0 0 0 -5614696.5966787338 4745051.7624053955 0 4745051.7624053955 -20822054.185852051 0 0 0 0 -1860794.391817308 6859601.062564496 0 6859601.062564496 -30400046.250108972 0 0 0 0 -1154421.5530576902 1763397.5388284177 0 1763397.5388284177 -44316104.100678213 0 0 0 0 -7735509.8719987571 10427786.394309446 0 10427786.394309446 -21799330.846044838 0 0 0 0 -7561743.5715813637 9203.9206695556641 0 9203.9206695556641 -21413929.113586426 0 0 0 0 -6498906.7630186081 389148046.32289124 0 389148046.32289124 125355117.87246704 0 0 0 0 -322359552.09857464 10320808.239456177 0 10320808.239456177 -15343118.649490356 0 0 0 0 -91108859.37706852 -122594146.26956177 0 -122594146.26956177 -122448254.19478607 0 0 0 0 -56085837.293054581 -128872167.35699463 0 -128872167.35699463 162969060.24462891 0 0 0 0 275751575.17430115 47438314.133361816 0 47438314.133361816 -52104127.580162048 0 0 0 0 -6255093.0468330383 -2209125.695640564 0 -2209125.695640564 -29892847.519986153 0 0 0 0 -82729499.313964844 172056780.18968201 0 172056780.18968201 227352858.39205933 0 0 0 0 920410.87047562795 5875276.4626801834 0 5875276.4626801834 -28912193.718652137 0 0 0 0 116610.2133268551 698459.06638227403 0 698459.06638227403 402730.68199983425 0 0 0 0 75191529.51415062 -3659045.6205291748 0 -3659045.6205291748 53328284.520765781 0 0 0 0 57061690.046777725 99112043.71786499 0 99112043.71786499 63999639.415344238 0 0 0 0 -14557771.69312191 98589839.026184082 0 98589839.026184082 -18007575.512695312 0 0 0 0 -3005862.1656315066 2693807.4582242481 0 2693807.4582242481 10164439.364318714 0 0 0 0 -32108757.108581871 -57548563.444842339 0 -57548563.444842339 -120006822.59231567 0 0 0 0 -32032641.31870985 -56159958.432861328 0 -56159958.432861328 -96708839.418121338 0 0 0 0 -1483112.1362628397 2849850.8204330429 0 2849850.8204330429 2174985.080611065 0 0 0 0 -98601083.439676762 -11111786.604530334 0 -11111786.604530334 6750651.7648925781 0 0 0 0 25110748.967429638 11217491.102310181 0 11217491.102310181 -162933586.17617798 0 0 0 0 2529084.5347746611 -29380839.310600281 0 -29380839.310600281 -111574327.3873291 0 0 0 0 10257214.355404019 -37428551.786643982 0 -37428551.786643982 -287860561.45010376 0 0 0 0 -30126439.093619943 65024116.654075623 0 65024116.654075623 -10606429.751678467 0 0 0 0 -39730126.946659088 98208250.347900391 0 98208250.347900391 -20918533.366390228 0 0 0 0 32814022.862598419 126370834.31942749 0 126370834.31942749 -84194233.472305298 0 0 0 0 -8570011.6544390917 10842607.339956284 0 10842607.339956284 -182167361.6656189 0 0 0 0 -213419355.31514072 160709019.00932312 0 160709019.00932312 -429266926.51904297 0 0 0 0 -136734303.07843399 14812335.828704834 0 14812335.828704834 -158300751.57514954 0 0 0 0 -90970003.565330654 -128203838.08503008 0 -128203838.08503008 -352109079.63543701 0 0 0 0 -455540.20730235055 883735.75936800987 0 883735.75936800987 600866.63662037253 0 0 0 0 -24985760.394458771 131073581.02871704 0 131073581.02871704 195610365.37758636 0 0 0 0 -129056633.18257523 371235234.5098114 0 371235234.5098114 -280509271.30395508 0 0 0 0 453705740.79244041 30116348.145065308 0 30116348.145065308 -217316072.60510254 0 0 0 0 100345436.21082282 -54127483.08681488 0 -54127483.08681488 -86916418.059753418 0 0 0 0 78768576.788607121 14021264.286010742 0 14021264.286010742 -302044419.65863037 0 0 0 0 -136064975.52364349 -222335140.55554199 0 -222335140.55554199 -402114320.87356949 0 0 0 0 -410389543.10653543 -28115296.649734497 0 -28115296.649734497 -208968447.31451416 0 0 0 0 -165614008.36429024 -98570959.947952271 0 -98570959.947952271 -330445670.4473877 0 0 0 0 -720337.98205496836 -976255.75819028914 0 -976255.75819028914 -1338402.8802542984 0 0 0 0 -285043882.39860344 -324066664.87358093 0 -324066664.87358093 -172874179.22332001 0 0 0 0 84430897.341942787 -149439024.29412842 0 -149439024.29412842 -150532552.16562653 0 0 0 0 -254842346.94556618 -101419320.83067322 0 -101419320.83067322 -25137220.846343994 0 0 0 0 45234303.458706379 -22632795.693023682 0 -22632795.693023682 -110312474.62359619 0 0 0 0 -81470068.533378124 -215024190.30502319 0 -215024190.30502319 -183675682.91217041 0 0 0 0 136956854.82449913 -68577772.508636475 0 -68577772.508636475 -153214975.09725952 0 0 0 0 339201441.49834728 82812157.580810547 0 82812157.580810547 -79555882.078704834 0 0 0 0 199893179.27400112 -135977087.58276367 0 -135977087.58276367 -134478254.0289917 0 0 0 0 62642982.896511316 -54930179.17124176 0 -54930179.17124176 54665298.603759766 0 0 0 0 271784939.20679665 132202930.32223511 0 132202930.32223511 -13786707.112838745 0 0 0 0 2704102.4953731801 -2286655.8613092676 0 -2286655.8613092676 -5434490.3289799243 0 0 0 0 5294156.9772357941 -2763234.3180007935 0 -2763234.3180007935 -7118612.0495605469 0 0 0 0 7596933.6941892579 -410750.70425691456 0 -410750.70425691456 -46110479.385025412 0 0 0 0 23011912.570468172 -5243410.2587829717 0 -5243410.2587829717 -60612306.377205245 0 0 0 0 -9893805.8985441905 -10420637.938137148 0 -10420637.938137148 -10845431.037484467 0 0 0 0 357484665.42675161 33674612.324447632 0 33674612.324447632 -149172552.26376343 0 0 0 0 462753090.33603382 -56502307.726303101 0 -56502307.726303101 -71978706.491333008 0 0 0 0 -4438655.613278389 -3133172.7724075317 0 -3133172.7724075317 -8557331.0032501221 0 0 0 0 310111777.24644852 61317249.695709229 0 61317249.695709229 -206521736.65533447 0 0 0 0 311084577.15711355 22308148.650695801 0 22308148.650695801 -27138397.220581055 0 0 0 0 15864129.773582458 14850643.118927002 0 14850643.118927002 5190819.8150634766 0 0 0 0 507214580.78807306 252240538.84164429 0 252240538.84164429 -93402679.74798584 0 0 0 0 -2986618.4667129172 4234844.9604306445 0 4234844.9604306445 -39160809.037856519 0 0 0 0 -8159168.1512304973 -2613841.718401704 0 -2613841.718401704 -40449037.712340131 0 0 0 0 -7915775.3836517334 14111216.961181641 0 14111216.961181641 -15839001.407730103 0 0 0 0 -8066597.0816325275 9634036.6520744655 0 9634036.6520744655 2559462.5615330711 0 0 0 0 13150452.7628479 17438951.942207336 0 17438951.942207336 -94215309.778198242 0 0 0 0 32124660.270637035 22731314.797302246 0 22731314.797302246 -133555976.02679443 0 0 0 0 16651187.209060192 11989059.8956604 0 11989059.8956604 -192617284.06863403 0 0 0 0 -96354941.980161428 52725405.455718994 0 52725405.455718994 -62431957.838287354 0 0 0 0 -53853632.761514664 83568212.414428711 0 83568212.414428711 -118385155.33525085 0 0 0 0 -65230.385096693179 2213298.3416531049 0 2213298.3416531049 -965500.67366880178 0 0 0 0 15252736.377913415 7137160.9351882935 0 7137160.9351882935 -8737614.2233886719 0 0 0 0 211937.28136832861 506643.04669245332 0 506643.04669245332 -786865.32826142013 0 0 0 0 -1598480.3448621067 3803674.8706249595 0 3803674.8706249595 -2037021.0440938603 0 0 0 0 1868181.3498325348 7343938.6589126587 0 7343938.6589126587 -5203252.8738098145 0 0 0 0 -20650140.149264574 41040098.515319824 0 41040098.515319824 -65810504.901977539 0 0 0 0 32239118.746144772 -1453469.7429351807 0 -1453469.7429351807 -149251244.48786163 0 0 0 0 -471395.59974199114 3946428.2098823562 0 3946428.2098823562 -2200949.7834818102 0 0 0 0 4496143.156537056 20484081.155395508 0 20484081.155395508 12619366.130508423 0 0 0 0 604181.84070606204 3769071.9501599818 0 3769071.9501599818 -2617057.2299122196 0 0 0 0 -97417460.12516737 92405698.278778076 0 92405698.278778076 21693853.030151367 0 0 0 0 -1718829.7535448074 -42802229.363327026 0 -42802229.363327026 -115497071.87448883 0 0 0 0 -16418527.838522434 -42659107.243942261 0 -42659107.243942261 12463011.995239258 0 0 0 0 2509236.8452291489 -47344501.592193604 0 -47344501.592193604 12603440.924987793 0 0 0 0 -601720.41876226896 744882.79648829997 0 744882.79648829997 1506842.0254773051 0 0 0 0 44256582.53541851 -6650975.6704101562 0 -6650975.6704101562 -3205397.9775390625 0 0 0 0 69726.802077531815 -41800059.027168274 0 -41800059.027168274 -122081260.97592163 0 0 0 0 19471747.902835369 -24221574.595016479 0 -24221574.595016479 -115827909.18022919 0 0 0 0 17310975.555499077 -50341916.442428589 0 -50341916.442428589 -141455568.3608551 0 0 0 0 29649029.509148657 -10285521.010887623 0 -10285521.010887623 -124103151.48092651 0 0 0 0 71705042.332648754 22791377.792831421 0 22791377.792831421 -107923262.83753967 0 0 0 0 21619146.812570095 20901755.857315063 0 20901755.857315063 -48789140.442832947 0 0 0 0 54299781.183177412 -41570429.414894104 0 -41570429.414894104 -109416854.75616455 0 0 0 0 77968998.671525717 -37018683.310791016 0 -37018683.310791016 4751921.4830169678 0 0 0 0 124565627.07641208 76632433.090719223 0 76632433.090719223 -14390900.93157959 0 0 0 0 -1339803.6760675907 25618857.414657593 0 25618857.414657593 178726821.24969482 0 0 0 0 58786315.004188299 25737527.366271973 0 25737527.366271973 -92724493.934906006 0 0 0 0 41949072.724740028 2571233.463684082 0 2571233.463684082 -48510590.104125977 0 0 0 0 -22697435.021833181 39749571.925361633 0 39749571.925361633 24427128.381454468 0 0 0 0 -425140.33383727074 28792866.232650757 0 28792866.232650757 -56612126.0831604 0 0 0 0 -16451224.936787844 26904583.029380798 0 26904583.029380798 50060554.280685425 0 0 0 0 12562622.195576191 15552420.811134338 0 15552420.811134338 22410106.088288307 0 0 0 0 604963.99816312711 779630.84724076092 0 779630.84724076092 -437648.32804110646 0 0 0 0 -3559426.0629764795 14509855.292232513 0 14509855.292232513 -16554138.344146729 0 0 0 0 -4243338.8072149754 -8548583.6830291748 0 -8548583.6830291748 67981667.816886902 0 0 0 0 -11585502.393629074 6780546.4343719482 0 6780546.4343719482 7399374.4396362305 0 0 0 0 -1567855.8420375106 791413.69411663711 0 791413.69411663711 -670114.47815841436 0 0 0 0 -14637342.342886925 19629735.911621094 0 19629735.911621094 -22826395.531814575 0 0 0 0 31717925.840940237 22985637.571922302 0 22985637.571922302 20872727.99597168 0 0 0 0 2482909.9630832672 -2099585.8063812256 0 -2099585.8063812256 5169192.6321411133 0 0 0 0 -15287903.151874423 4955576.0853157043 0 4955576.0853157043 6074814.7793884277 0 0 0 0 56602591.406661987 446010.18466186523 0 446010.18466186523 -26583715.777763367 0 0 0 0 186764.90777093242 289704.40265887976 0 289704.40265887976 -78499.244544610381 0 0 0 0 106261632.8477869 59549258.987503052 0 59549258.987503052 4011105.8680419922 0 0 0 0 1977018.2131242752 102629610.38613892 0 102629610.38613892 85813208.78061676 0 0 0 0 -26719109.37908268 66678607.937652588 0 66678607.937652588 55190725.790679932 0 0 0 0 -72314620.034761906 70648902.866241455 0 70648902.866241455 60007083.664169312 0 0 0 0 27675281.170793295 37030168.09274292 0 37030168.09274292 43338336.467590332 0 0 0 0 28295790.279799938 33071678.963424683 0 33071678.963424683 81546.552598953247 0 0 0 0 -1100817.5411844051 689633.41864448786 0 689633.41864448786 -447322.40931983292 0 0 0 0 -56041548.913253665 5398103.5173034668 0 5398103.5173034668 -59384267.074966431 0 0 0 0 -386657.80580068077 335875.11954703927 0 335875.11954703927 -201715.41007408872 0 0 0 0 9648692.5199177861 75305924.214624405 0 75305924.214624405 -314055909.15991211 0 0 0 0 -96806694.960801125 29340331.703262329 0 29340331.703262329 83305080.670516968 0 0 0 0 -87230524.37093544 131779925.57745361 0 131779925.57745361 -254538723.2935791 0 0 0 0 -125203288.92276829 7559483.3532562256 0 7559483.3532562256 -176141946.72724152 0 0 0 0 -28390109.838876873 -82556248.706851959 0 -82556248.706851959 -273359742.64672852 0 0 0 0 -56212269.260824025 -37667086.062644958 0 -37667086.062644958 -191554357.80828857 0 0 0 0 -29372995.379244968 -96241894.531547546 0 -96241894.531547546 -140481949.88470459 0 0 0 0 11409135.00471577 17430971.46055603 0 17430971.46055603 -182700215.68141174 0 0 0 0 -2086029.9470596146 -3537461.3786370121 0 -3537461.3786370121 -5036165.3533876985 0 0 0 0 -32635389.385135859 374005.34966230392 0 374005.34966230392 50086954.657440186 0 0 0 0 208623342.77010274 22104029.455429077 0 22104029.455429077 -171452005.1789856 0 0 0 0 -35897622.150787801 -174599258.96826935 0 -174599258.96826935 -168551442.63793945 0 0 0 0 8259123.0392238926 17822777.27984738 0 17822777.27984738 -28750165.733974129 0 0 0 0 42705121.463895798 -18258979.423942566 0 -18258979.423942566 -136910833.35440063 0 0 0 0 191056009.1123395 178814815.91725922 0 178814815.91725922 80837693.303466797 0 0 0 0 195341136.34748149 130857114.93024445 0 130857114.93024445 -49936214.168212891 0 0 0 0 -97627842.222855091 208127440.42142487 0 208127440.42142487 -30177538.613044739 0 0 0 0 14374888.000820875 138695507.83336639 0 138695507.83336639 9321432.6531677246 0 0 0 0 64671185.776133299 211112510.16710663 0 211112510.16710663 97188733.385345459 0 0 0 0 57075213.775048018 58437465.219932556 0 58437465.219932556 96378948.690826416 0 0 0 0 -71378486.486448288 85967479.965118408 0 85967479.965118408 78473673.552631378 0 0 0 0 -43493672.254183292 123784923.91439819 0 123784923.91439819 85218763.031616211 0 0 0 0 -180916604.42849302 116277557.39955139 0 116277557.39955139 79134145.43939209 0 0 0 0 -62871655.639414072 83901341.024810791 0 83901341.024810791 67534938.022949219 0 0 0 0 -99457038.838628411 -8196422.9622077942 0 -8196422.9622077942 -123235876.87133789 0 0 0 0 -157369629.03259712 118850020.12827492 0 118850020.12827492 -144502656.3440094 0 0 0 0 42972406.763933182 38191848.177467346 0 38191848.177467346 -154518801.67640686 0 0 0 0 45084392.561657429 15964357.082206726 0 15964357.082206726 -79755799.349304199 0 0 0 0 59058308.628265858 82759727.532348633 0 82759727.532348633 -211559702.36802673 0 0 0 0 63832154.034663677 115068802.34886932 0 115068802.34886932 -10724542.734069824 0 0 0 0 170027316.40641642 67502944.950576782 0 67502944.950576782 -134358817.00782776 0 0 0 0 171933046.93325257 81204826.351263046 0 81204826.351263046 -47185028.33001709 0 0 0 0 184727293.57914543 7339383.8030548096 0 7339383.8030548096 -64630803.58807373 0 0 0 0 219732764.83762836 55255473.246398926 0 55255473.246398926 -108907190.26341248 0 0 0 0 224937302.73405707 29976588.861961365 0 29976588.861961365 -16012451.09854126 0 0 0 0 228029299.94103718 10964383.00415802 0 10964383.00415802 -46054648.970062256 0 0 0 0 219255570.57711637 82922638.508575439 0 82922638.508575439 -37205453.702270508 0 0 0 0 213333692.93014479 63477682.532913208 0 63477682.532913208 -50609835.667404175 0 0 0 0 -1936140.7399655809 -8895566.2302164771 0 -8895566.2302164771 -13574208.842907071 0 0 0 0 2737769.4857339649 -816787.05936418101 0 -816787.05936418101 -12322024.426314503 0 0 0 0 4983514.3553187642 1850568.4713035785 0 1850568.4713035785 -13952089.669692621 0 0 0 0 71361638.981534004 -14752484.658401489 0 -14752484.658401489 9702763.0828552246 0 0 0 0 121880116.07454395 -27249363.470123291 0 -27249363.470123291 -249189.16845703125 0 0 0 0 422702967.18733054 -121727900.48331642 0 -121727900.48331642 -88468607.950927734 0 0 0 0 67593449.781755924 -40216436.830032349 0 -40216436.830032349 -50705444.764282227 0 0 0 0 -1723060.2432361469 -6040541.1688951524 0 -6040541.1688951524 -4985989.050304547 0 0 0 0 251085846.36876965 -210837541.78205872 0 -210837541.78205872 267404929.31594849 0 0 0 0 395718055.26453257 -86327352.724517822 0 -86327352.724517822 -119273302.20690918 0 0 0 0 415944974.2682848 -43086077.125488281 0 -43086077.125488281 -33863606.237686157 0 0 0 0 320467179.97469169 -115600549.73558998 0 -115600549.73558998 13916775.651275635 0 0 0 0 -696851.12907213368 -4802912.8055493897 0 -4802912.8055493897 -4420268.4210194498 0 0 0 0 244997303.59662223 -26768534.534833908 0 -26768534.534833908 12351850.472167969 0 0 0 0 238162441.05091059 41572090.463356972 0 41572090.463356972 -62036771.504333496 0 0 0 0 312134367.240183 -41085127.504603386 0 -41085127.504603386 -85110918.217346191 0 0 0 0 269739111.34447098 -23920492.071044922 0 -23920492.071044922 -87502665.642150879 0 0 0 0 230458233.93783283 57123931.707168579 0 57123931.707168579 -129371428.52166748 0 0 0 0 129479903.32926869 -9795281.9403152466 0 -9795281.9403152466 -97350352.449157715 0 0 0 0 156796092.79744375 64180289.527614594 0 64180289.527614594 -108390559.64572144 0 0 0 0 -249264.30578674609 457462.24971242249 0 457462.24971242249 52002.813942532986 0 0 0 0 391901803.40228462 -84275256.429092407 0 -84275256.429092407 34450485.40668869 0 0 0 0 174259910.51801729 53732677.881477356 0 53732677.881477356 -169404504.34162903 0 0 0 0 337241508.99787903 -8451745.5091247559 0 -8451745.5091247559 -153059594.95788574 0 0 0 0 -5424625.813305378 48528528.070228577 0 48528528.070228577 -78418154.693115234 0 0 0 0 -20258381.347198963 -23660635.434201241 0 -23660635.434201241 -114887690.21728516 0 0 0 0 -44097053.916508764 45491560.978860855 0 45491560.978860855 -191602080.71646118 0 0 0 0 -58893756.245716095 10618847.025665283 0 10618847.025665283 -80855066.904266357 0 0 0 0 -38987633.85533607 -13534972.654975891 0 -13534972.654975891 -115558618.31863403 0 0 0 0 -736678.5077141067 638542.90268235654 0 638542.90268235654 34954.38895281218 0 0 0 0 -123886500.49326387 -76597029.379402161 0 -76597029.379402161 -66648530.3177948 0 0 0 0 -79392791.596174717 23206704.951499939 0 23206704.951499939 -198702324.63287354 0 0 0 0 -8838640.0463376045 -171714724.43971252 0 -171714724.43971252 -556191086.45988464 0 0 0 0 -47598300.355586529 -306600275.52441406 0 -306600275.52441406 -527189097.43667221 0 0 0 0 -132145926.33754516 -184566066.30348206 0 -184566066.30348206 -25285347.406402588 0 0 0 0 -19350345.291430473 -424721186.21478271 0 -424721186.21478271 -410112915.24000549 0 0 0 0 28413770.772462368 -391625622.64015198 0 -391625622.64015198 -442058038.98539734 0 0 0 0 17031524.336807013 35622288.263519287 0 35622288.263519287 -107303012.67279053 0 0 0 0 70842844.412029266 -63740803.695968628 0 -63740803.695968628 75826687.067871094 0 0 0 0 679949139.03972244 136389659.77067566 0 136389659.77067566 62788350.736328125 0 0 0 0 546132066.29859924 -22331868.841720581 0 -22331868.841720581 -50806943.172546387 0 0 0 0 -13295875.001447678 -302073769.9082489 0 -302073769.9082489 294572120.24746704 0 0 0 0 170030.82720429217 -580226.69708132371 0 -580226.69708132371 -2585181.2276756912 0 0 0 0 205742597.71586132 -666449210.15985107 0 -666449210.15985107 -428044569.79777527 0 0 0 0 196141569.65411758 -246206142.22253418 0 -246206142.22253418 27655470.841598511 0 0 0 0 91786517.794171333 -159765474.55502319 0 -159765474.55502319 387407623.6628418 0 0 0 0 407783317.54705715 48137904.984954834 0 48137904.984954834 366497234.73724365 0 0 0 0 -342150702.28565621 494187699.38737869 0 494187699.38737869 -582580378.7164917 0 0 0 0 -13312807.832051754 -136732930.7485199 0 -136732930.7485199 -79964454.141204834 0 0 0 0 2492621.390345878 3992000.1461352669 0 3992000.1461352669 -2116794.9533058703 0 0 0 0 -207789673.2344408 501452708.51972961 0 501452708.51972961 -948445694.09124756 0 0 0 0 -14526786.278659821 186275647.81936646 0 186275647.81936646 -390824168.88726807 0 0 0 0 -88543727.709677219 380290168.9879303 0 380290168.9879303 -702831784.28283691 0 0 0 0 -146447696.96902847 329259336.18942261 0 329259336.18942261 -501553298.28814697 0 0 0 0 -281367689.11225891 405424142.26293945 0 405424142.26293945 -393239937.76617432 0 0 0 0 -247131679.99635983 258927658.62879944 0 258927658.62879944 -76981907.759094238 0 0 0 0 -355449893.61940002 355249572.73168945 0 355249572.73168945 -23895145.251586914 0 0 0 0 -331905871.81586409 426561626.78315735 0 426561626.78315735 -160254466.45739746 0 0 0 0 3215397.2072243309 -4428156.1914765984 0 -4428156.1914765984 -17079838.028314188 0 0 0 0 26492684.185450077 22891712.066162109 0 22891712.066162109 21469895.096679688 0 0 0 0 33043010.213002682 20266520.849021912 0 20266520.849021912 -37462992.912841797 0 0 0 0 724516132.33966923 -147056166.15652466 0 -147056166.15652466 -52585273.138031006 0 0 0 0 1350554.7106615158 -784840.96954564005 0 -784840.96954564005 -7653908.8444037139 0 0 0 0 119044812.9142189 69613399.924987793 0 69613399.924987793 -15527690.038227081 0 0 0 0 -388740231.91142797 -201750982.58481598 0 -201750982.58481598 -280708423.5187149 0 0 0 0 -170845158.60470939 -226827661.94581604 0 -226827661.94581604 -536669915.13879395 0 0 0 0 -189442721.97415942 -217656209.47639465 0 -217656209.47639465 -401351858.83972168 0 0 0 0 -75480778.768609613 -158446842.40464783 0 -158446842.40464783 -401318981.99966431 0 0 0 0 -198135573.36666262 -127464136.73873901 0 -127464136.73873901 -259350788.03805542 0 0 0 0 -125659768.74540097 -31507193.773414612 0 -31507193.773414612 -231971883.72821045 0 0 0 0 -138699073.39856875 -32581810.515136719 0 -32581810.515136719 -218231023.56903076 0 0 0 0 -102679947.43463165 99885808.037303925 0 99885808.037303925 -179915114.54013062 0 0 0 0 -42965806.896950603 74754071.241104126 0 74754071.241104126 -235598045.519104 0 0 0 0 -14409462.29551053 -5015723.0124206543 0 -5015723.0124206543 -143726135.52749634 0 0 0 0 -257649127.06828466 86331533.193832397 0 86331533.193832397 -104266832.35258484 0 0 0 0 -515365.25540307618 316731.77693739533 0 316731.77693739533 -13195.701069103554 0 0 0 0 -362475180.08719152 -294060084.00222778 0 -294060084.00222778 -476963347.81182861 0 0 0 0 1516425.2815607414 -29002921.523706436 0 -29002921.523706436 -705353340.27560425 0 0 0 0 5059908.1225794554 -297486420.00762939 0 -297486420.00762939 -856834417.60414886 0 0 0 0 -366920214.00077391 -241780020.36952972 0 -241780020.36952972 -673760050.23615336 0 0 0 0 -385984522.19329619 -227550418.40067673 0 -227550418.40067673 -534689521.3053894 0 0 0 0 -160953690.48775664 -372364322.87094879 0 -372364322.87094879 -745649197.7771759 0 0 0 0 -9819301.9631307721 -273128830.25256348 0 -273128830.25256348 -720848718.20773506 0 0 0 0 73148161.235821962 -215139603.36750793 0 -215139603.36750793 -728419114.65359116 0 0 0 0 -4578316.4113799334 -226855964.67794037 0 -226855964.67794037 -606775031.87718201 0 0 0 0 -71352178.070199668 -254711821.10762024 0 -254711821.10762024 -602856918.72180176 0 0 0 0 -47807325.93625769 -224189086.50276184 0 -224189086.50276184 -479828781.1761322 0 0 0 0 -77875469.4037503 -288035605.46303558 0 -288035605.46303558 -602638517.95667481 0 0 0 0 -12430905.36937964 -281417635.62621307 0 -281417635.62621307 -588346338.56108093 0 0 0 0 -19945472.519851327 -187316391.80808258 0 -187316391.80808258 -406454092.54037476 0 0 0 0 -19708796.546735644 -202950325.35705566 0 -202950325.35705566 -482764609.43811226 0 0 0 0 -95606124.937039897 -190490938.23804474 0 -190490938.23804474 -345714670.97024536 0 0 0 0 51744550.186953798 -243676161.59663773 0 -243676161.59663773 -589753729.05267334 0 0 0 0 42053502.384871006 -197257594.0880127 0 -197257594.0880127 -601769077.05619812 0 0 0 0 49666325.783002049 -148088159.21026611 0 -148088159.21026611 -631919389.61455154 0 0 0 0 29849879.478229105 -181108767.51265717 0 -181108767.51265717 -466751496.41018677 0 0 0 0 24929212.073498189 -207268842.93928528 0 -207268842.93928528 -534040214.86067104 0 0 0 0 20316942.355676055 -239137053.83860779 0 -239137053.83860779 -533811586.55344617 0 0 0 0 36919903.16335237 -264929070.3777771 0 -264929070.3777771 -602760949.3624115 0 0 0 0 53992824.000936091 -237633160.43049622 0 -237633160.43049622 -573782013.19678497 0 0 0 0 51874139.162880197 -278646762.30184937 0 -278646762.30184937 -579958466.83822632 0 0 0 0 47429542.323323667 -268620080.62565231 0 -268620080.62565231 -601473347.97517395 0 0 0 0 12931621.521980226 -263434799.74506378 0 -263434799.74506378 -563701155.2071228 0 0 0 0 15423420.104542196 -132956679.21266174 0 -132956679.21266174 -675690259.84486389 0 0 0 0 15658030.629966915 -154649061.78888702 0 -154649061.78888702 -423706195.95430756 0 0 0 0 4364795.52607584 -351652093.54559326 0 -351652093.54559326 -372023810.75894928 0 0 0 0 51196761.228474721 -243331901.74406052 0 -243331901.74406052 -371934362.13168335 0 0 0 0 44481721.624277227 -274373474.66325378 0 -274373474.66325378 -458092061.15722656 0 0 0 0 50360723.200672172 -277322113.51149368 0 -277322113.51149368 -723580288.03656006 0 0 0 0 66542833.732531831 -330875737.7051506 0 -330875737.7051506 -659970397.8145752 0 0 0 0 67578251.883492857 -269354235.65409851 0 -269354235.65409851 -616709459.5422821 0 0 0 0 58728737.767393351 -303283823.42472839 0 -303283823.42472839 -560855340.10928345 0 0 0 0 74051737.528529346 -293485567.78424835 0 -293485567.78424835 -595488571.23632812 0 0 0 0 68668231.019347087 -61076931.323112488 0 -61076931.323112488 -14822501.320991516 0 0 0 0 -8554545.3916989565 -12150760.520935059 0 -12150760.520935059 -6568467.580078125 0 0 0 0 -446360234.69039607 -346004185.16172791 0 -346004185.16172791 -126119391.91447449 0 0 0 0 -117181811.85900301 -269677171.37390137 0 -269677171.37390137 -134138469.89182663 0 0 0 0 -60042801.003564626 -419676055.53372192 0 -419676055.53372192 -450937160.60559082 0 0 0 0 -173864766.42291075 -397966884.0922699 0 -397966884.0922699 -684122211.79212952 0 0 0 0 -56548825.046053998 -365322092.80746651 0 -365322092.80746651 -676242958.2543335 0 0 0 0 174203609.671864 65497823.793380737 0 65497823.793380737 -48716964.842769623 0 0 0 0 -594592981.95884991 -612326314.56278229 0 -612326314.56278229 -575287055.65261841 0 0 0 0 398104.07378682756 -373666105.83102417 0 -373666105.83102417 -1012115361.9050293 0 0 0 0 97166.777540606985 -203313.37096816301 0 -203313.37096816301 -991277.26561193168 0 0 0 0 -173929968.96467859 -521155155.11203003 0 -521155155.11203003 -1229573823.7068481 0 0 0 0 -84072648.030601233 -213042294.88298035 0 -213042294.88298035 -930998169.32973099 0 0 0 0 -343434082.81194723 -185495867.74758911 0 -185495867.74758911 -932487615.09005737 0 0 0 0 -120015683.60102415 -120675284.16781616 0 -120675284.16781616 -1253826158.8641663 0 0 0 0 -99244896.089937121 -49747248.158401489 0 -49747248.158401489 -881853802.74617434 0 0 0 0 -107671129.60650229 -245155293.85708618 0 -245155293.85708618 -884084787.82788754 0 0 0 0 21668.765267901123 -257554284.17992401 0 -257554284.17992401 -1046702127.3803101 0 0 0 0 2104528.7856174409 -283795622.95475769 0 -283795622.95475769 -718880531.31370544 0 0 0 0 -34128784.236184761 -103069071.51403046 0 -103069071.51403046 -798081509.18630981 0 0 0 0 -64821048.728883274 -131573971.88105774 0 -131573971.88105774 -736611026.26898193 0 0 0 0 -72505951.260098115 -87291432.359893799 0 -87291432.359893799 -735260157.30091 0 0 0 0 -375151.81300795806 -100972821.56829071 0 -100972821.56829071 -781230289.74821472 0 0 0 0 54941841.044866413 -275720115.85136414 0 -275720115.85136414 -619797906.21792603 0 0 0 0 45024336.973942935 -219075794.34048462 0 -219075794.34048462 -660989686.5243988 0 0 0 0 77354852.738496199 -255869548.59012222 0 -255869548.59012222 -717493830.01831055 0 0 0 0 45341952.930036008 -238156158.26712036 0 -238156158.26712036 -691274950.84516907 0 0 0 0 52575185.708768457 -243533771.3175354 0 -243533771.3175354 -826119899.57739258 0 0 0 0 14357396.354888946 -171958153.48342896 0 -171958153.48342896 -711414802.65266323 0 0 0 0 -17634072.988562107 -109410846.92648315 0 -109410846.92648315 -713580472.5723629 0 0 0 0 13306719.947721496 -171214915.83616638 0 -171214915.83616638 -701027927.14477539 0 0 0 0 -17387709.5747163 -140333776.8707428 0 -140333776.8707428 -648684978.10375404 0 0 0 0 49436239.62678802 -214577662.57546997 0 -214577662.57546997 -663681505.95855713 0 0 0 0 33090874.295334578 -171915174.58034515 0 -171915174.58034515 -644315599.40211487 0 0 0 0 875586.72614742815 -34961438.91242981 0 -34961438.91242981 -908275736.59178162 0 0 0 0 -308553.48897792434 -178184.52757289261 0 -178184.52757289261 -287821.50511696935 0 0 0 0 1749816.7144188136 10640863.829854965 0 10640863.829854965 -545009736.51086426 0 0 0 0 4093739.8046638966 -31366086.469535828 0 -31366086.469535828 -465734521.96763611 0 0 0 0 -100281804.27035989 -72369935.684677124 0 -72369935.684677124 -665953950.2094574 0 0 0 0 -53268891.805735901 -118060877.93933868 0 -118060877.93933868 -686099061.64071655 0 0 0 0 -91829494.670996249 -114077574.83177185 0 -114077574.83177185 -683692764.37400055 0 0 0 0 -90557510.52186501 -108454453.43849945 0 -108454453.43849945 -658872287.15573692 0 0 0 0 104848.84437543378 -1572639.0384750366 0 -1572639.0384750366 -557348755.43428802 0 0 0 0 -61816325.450789936 -227861935.78961182 0 -227861935.78961182 -325201655.16978455 0 0 0 0 -118683907.69074664 -92216609.934329987 0 -92216609.934329987 -14867103.240692139 0 0 0 0 -66394428.308646604 26189756.204860687 0 26189756.204860687 36295655.506256104 0 0 0 0 126360.31039197456 27718.387952156365 0 27718.387952156365 -205390.03078708053 0 0 0 0 29738197.692779746 -9920202.6789016724 0 -9920202.6789016724 -184547300.61853027 0 0 0 0 -159125.14975916751 -875474.60725402832 0 -875474.60725402832 -26792692.127677917 0 0 0 0 -828063.50318236183 -513019.15739581734 0 -513019.15739581734 -730228.51958505437 0 0 0 0 -4626704.7425301075 1591647.1426391602 0 1591647.1426391602 -2336835.2962646484 0 0 0 0 23135562.303380579 -12806848.39925766 0 -12806848.39925766 4031768.8965606689 0 0 0 0 -56118751.701341748 -25660891.009597778 0 -25660891.009597778 45883893.046211243 0 0 0 0 29795615.311132684 -6275389.8871803284 0 -6275389.8871803284 -34282578.319061279 0 0 0 0 15125362.916030705 -19870468.158859253 0 -19870468.158859253 -79995807.514099121 0 0 0 0 24608787.242164731 19184725.292556763 0 19184725.292556763 -22805871.863311768 0 0 0 0 5630514.2113516629 -162312.80001449585 0 -162312.80001449585 -14440877.593490601 0 0 0 0 22021788.025135398 10567342.603492737 0 10567342.603492737 -1456864.2295074463 0 0 0 0 -2762671.6216440797 1102064.992477417 0 1102064.992477417 543184.68493652344 0 0 0 0 412232.03759848134 -19351.20980232209 0 -19351.20980232209 -692196.73670809343 0 0 0 0 2687564.0895893425 1293551.6256370544 0 1293551.6256370544 -11541149.475082397 0 0 0 0 688829.03632673551 -228702.33821991831 0 -228702.33821991831 -1520813.4319723845 0 0 0 0 4772134.8712084293 7530967.8456420898 0 7530967.8456420898 3855606.938659668 0 0 0 0 1601116.6766857505 -4517025.5905799866 0 -4517025.5905799866 -7677368.3363037109 0 0 0 0 -29994394.574158967 -45680437.875747681 0 -45680437.875747681 -166996654.93356323 0 0 0 0 -1788987.6086864471 -621456.08435058594 0 -621456.08435058594 -3902170.6065063477 0 0 0 0 -1164993.8405104429 -768889.60410150141 0 -768889.60410150141 -1166558.04178904 0 0 0 0 12555456.262535393 -33818128.041946411 0 -33818128.041946411 -225687945.39871216 0 0 0 0 5919913.5611052513 1605269.0739135742 0 1605269.0739135742 2108247.3181152344 0 0 0 0 505199.16566148598 1093176.602632761 0 1093176.602632761 -1958588.6726403385 0 0 0 0 149957.00667953491 272956.16088867188 0 272956.16088867188 -500251.59130859375 0 0 0 0 673054.45234085689 223679.61785759032 0 223679.61785759032 -1732799.6446547359 0 0 0 0 3571550.1242909431 9107299.0540771484 0 9107299.0540771484 3999207.9289245605 0 0 0 0 4245143.6981323361 5853125.3281784058 0 5853125.3281784058 8374329.1384277344 0 0 0 0 2110547.0133630037 5272541.9248046875 0 5272541.9248046875 8948050.3505859375 0 0 0 0 3079647.9194719791 7867851.5830688477 0 7867851.5830688477 5008312.6672363281 0 0 0 0 3936506.1989972591 4964512.2796173096 0 4964512.2796173096 8012139.8165283203 0 0 0 0 948812.13992503774 1554031.3380019367 0 1554031.3380019367 -2271021.360569261 0 0 0 0 3293054.6405843496 5805817.5032653809 0 5805817.5032653809 9104448.0122070312 0 0 0 0 2357231.6760029793 9404021.4155273438 0 9404021.4155273438 7571230.668258667 0 0 0 0 2090680.7387740761 9640045.5796508789 0 9640045.5796508789 7625049.0573120117 0 0 0 0 3163007.4202118516 9500432.9118347168 0 9500432.9118347168 3858673.2169189453 0 0 0 0 526654.43696272373 13526416.050567627 0 13526416.050567627 8864114.1544799805 0 0 0 0 -2270816.754540652 1061107.459564209 0 1061107.459564209 26770053.165626526 0 0 0 0 1566838.4923602045 14329108.953765869 0 14329108.953765869 6554749.583984375 0 0 0 0 -3800084.1614210606 8153310.1171875 0 8153310.1171875 27442146.862548828 0 0 0 0 1042833.4059771542 1258730.7529169172 0 1258730.7529169172 -1231881.2503868639 0 0 0 0 1413025.8402027488 8350632.3926391602 0 8350632.3926391602 14963039.781433105 0 0 0 0 -1736866.9542685151 12782779.882659912 0 12782779.882659912 17954251.868591309 0 0 0 0 455006.39504086971 5034748.3462219238 0 5034748.3462219238 19738364.544776917 0 0 0 0 6239208.1120804548 -575803.66278076172 0 -575803.66278076172 8478676.5023803711 0 0 0 0 1594878.6264314651 4524710.9863891602 0 4524710.9863891602 12297394.622406006 0 0 0 0 2950629.2916784286 2076812.2916870117 0 2076812.2916870117 16688947.329803467 0 0 0 0 5627895.4365311265 -1723650.5227661133 0 -1723650.5227661133 14055406.755157471 0 0 0 0 114836.06937598065 7346077.572347641 0 7346077.572347641 14198760.432128906 0 0 0 0 -3470737.0747942924 12984686.159576416 0 12984686.159576416 23213968.988525391 0 0 0 0 -998552.1187800169 11522339.064971924 0 11522339.064971924 19534310.473922729 0 0 0 0 -1923955.1276522279 8512204.1290302277 0 8512204.1290302277 -3738060.3441009521 0 0 0 0 -1993545.2144453526 -8747306.4339599609 0 -8747306.4339599609 -5417604.3410186768 0 0 0 0 2706118.7447514534 -5054385.4947967529 0 -5054385.4947967529 -5342762.6025085449 0 0 0 0 -5095612.7656807899 -785812.83810424805 0 -785812.83810424805 3344326.7703704834 0 0 0 0 -1771202.0035120621 1000075.4744005799 0 1000075.4744005799 -1170425.9855552837 0 0 0 0 841105.39075320959 -724257.8404083252 0 -724257.8404083252 -1188894.4190292358 0 0 0 0 -1000885.6474188417 456038.38769835234 0 456038.38769835234 -1897420.0139804184 0 0 0 0 -202156.92618601152 -304422.54501648992 0 -304422.54501648992 -357881.06568744034 0 0 0 0 -6787348.019068718 10886806.51335144 0 10886806.51335144 -130718114.22473145 0 0 0 0 18757683.653008699 -80892831.368751526 0 -80892831.368751526 -329455271.69915771 0 0 0 0 -34814167.483068943 -104102836.54550171 0 -104102836.54550171 -171577029.88980103 0 0 0 0 -22397490.590687588 -96809034.010540009 0 -96809034.010540009 -268571897.94909668 0 0 0 0 -41154904.611523449 -122245446.96905518 0 -122245446.96905518 -277293450.94140625 0 0 0 0 732.99487276075524 -60927.348773658276 0 -60927.348773658276 -203089.20122079551 0 0 0 0 -31878387.150678575 -104905002.45121765 0 -104905002.45121765 -301531682.28936768 0 0 0 0 -29360080.672956899 -126380876.10633087 0 -126380876.10633087 -310801569.73535156 0 0 0 0 -21206265.959087253 -111410771.18963623 0 -111410771.18963623 -341030401.16715431 0 0 0 0 646417.58141463995 -116571864.56384277 0 -116571864.56384277 -325859398.20101929 0 0 0 0 1601973.8228092492 -139345159.59883118 0 -139345159.59883118 -405845341.23721313 0 0 0 0 37846520.257316917 -105586096.74838638 0 -105586096.74838638 -373620460.56442261 0 0 0 0 32680214.586716473 -135589667.29618835 0 -135589667.29618835 -469373428.77473831 0 0 0 0 47386586.264659762 -126201120.09031677 0 -126201120.09031677 -541527023.99461365 0 0 0 0 45543496.80808571 -158284850.38050842 0 -158284850.38050842 -487697363.33192444 0 0 0 0 16338870.858101755 5282644.7214202881 0 5282644.7214202881 -368872076.65911865 0 0 0 0 -8392270.1284410954 4331444.6960754395 0 4331444.6960754395 -216365062.88096619 0 0 0 0 15884745.67743367 -55641770.926712036 0 -55641770.926712036 -394777081.14089966 0 0 0 0 683067.45469665527 -62827155.257781982 0 -62827155.257781982 -223036884.21134186 0 0 0 0 295564578.50606728 80546773.193078041 0 80546773.193078041 823875459.15789032 0 0 0 0 510852304.1451416 14037496.444511414 0 14037496.444511414 -470330023.11872482 0 0 0 0 -1620239.0778883249 3539605.4121092483 0 3539605.4121092483 -4113666.294854695 0 0 0 0 811167021.58228302 118478818.00187683 0 118478818.00187683 59140506.31200695 0 0 0 0 575630449.76594162 633075431.16977644 0 633075431.16977644 169534718.56951904 0 0 0 0 156169045.18339539 195198195.44298935 0 195198195.44298935 58189256.260166168 0 0 0 0 195382597.14506531 173671913.38060188 0 173671913.38060188 5237422.4348430634 0 0 0 0 224064175.27813911 439905361.95843542 0 439905361.95843542 -2065531.5261459351 0 0 0 0 -118065708.46279907 474698716.12644386 0 474698716.12644386 141388604.87672186 0 0 0 0 -156814629.70309448 381677900.90708733 0 381677900.90708733 -1147666.4788856506 0 0 0 0 190080279.52950287 215863468.25427532 0 215863468.25427532 -70056325.68970108 0 0 0 0 24976380.635269165 180330270.65560055 0 180330270.65560055 -74502820.022465706 0 0 0 0 288598914.83388329 2142819.7456688881 0 2142819.7456688881 -101042530.386446 0 0 0 0 169919056.88887024 210578078.4002161 0 210578078.4002161 15637427.527050018 0 0 0 0 -598931759.11402893 727466585.64895248 0 727466585.64895248 555016776.06846714 0 0 0 0 -2075120006.4091339 -113120154.61726761 0 -113120154.61726761 1058018576.9006662 0 0 0 0 -443391517.62754822 -219582039.1820364 0 -219582039.1820364 107100232.50755882 0 0 0 0 -409481530.64542437 194523610.14723575 0 194523610.14723575 -195685112.74348068 0 0 0 0 -995241314.90785217 52899552.105024338 0 52899552.105024338 10706049.522232056 0 0 0 0 1359309.6865351666 -3211399.0549340062 0 -3211399.0549340062 -4434825.1894306578 0 0 0 0 -177211454.20724869 -151592783.06327915 0 -151592783.06327915 79828041.440872192 0 0 0 0 -620583151.1378479 -351418332.29067039 0 -351418332.29067039 514990835.66798592 0 0 0 0 678951680.62364578 1132988814.1029234 0 1132988814.1029234 -266069261.32389069 0 0 0 0 -207238251.55328369 69091458.384048462 0 69091458.384048462 -212389498.88938951 0 0 0 0 -31870452.277076721 458574918.21714973 0 458574918.21714973 831640556.64887905 0 0 0 0 -11057236.435479052 10442537.731608607 0 10442537.731608607 -8862034.6453779154 0 0 0 0 768179.51916162297 -83023.69430876337 0 -83023.69430876337 -2086528.4623717181 0 0 0 0 -6853989.0284385681 -289034112.66689301 0 -289034112.66689301 -31539161.485850282 0 0 0 0 -460927316.33457947 458472252.52622223 0 458472252.52622223 -36186649.430603027 0 0 0 0 -7127533.219120834 8553858.2007850818 0 8553858.2007850818 -7878855.5139877312 0 0 0 0 436630666.88559341 1215606035.7485189 0 1215606035.7485189 710596740.67324829 0 0 0 0 -260106808.93111801 -444243711.83003426 0 -444243711.83003426 -123558087.55562401 0 0 0 0 -540989662.80720139 -685701333.54579544 0 -685701333.54579544 -330438181.16706848 0 0 0 0 -377984340.84452438 -342849415.41980553 0 -342849415.41980553 -210715519.02497101 0 0 0 0 -885396956.93894958 -499158699.30447006 0 -499158699.30447006 -252581778.6155057 0 0 0 0 -465320759.12799835 173978574.33501053 0 173978574.33501053 40500435.36288023 0 0 0 0 -882789334.79471588 -611104465.82276917 0 -611104465.82276917 126165448.94277191 0 0 0 0 -63305801.653738022 -26030681.545183241 0 -26030681.545183241 -338860608.13579559 0 0 0 0 -679607925.66740799 -1156393820.1774197 0 -1156393820.1774197 -1016601288.5775681 0 0 0 0 -154271626.13780069 -1289052464.7009177 0 -1289052464.7009177 1942890937.1064262 0 0 0 0 -1417129.8696413394 1459152.9586675903 0 1459152.9586675903 -1979694.5267695077 0 0 0 0 -64944715.118881226 -14051866.596628189 0 -14051866.596628189 -211798490.98970032 0 0 0 0 348813720.66558075 -161307669.74012375 0 -161307669.74012375 -1946584463.844492 0 0 0 0 -813602350.25949478 1061574384.8173542 0 1061574384.8173542 -4284647094.2240143 0 0 0 0 -1372707485.3492737 974927724.64480972 0 974927724.64480972 -871197110.32374001 0 0 0 0 -135874626.13168764 -483847328.13372844 0 -483847328.13372844 549056871.91355896 0 0 0 0 -55846184.95999527 967786681.84313393 0 967786681.84313393 -813546672.53012276 0 0 0 0 -307785839.31563759 -205379649.72899437 0 -205379649.72899437 2920522.2968902588 0 0 0 0 -481873848.50566101 18657637.516069412 0 18657637.516069412 357262075.60951996 0 0 0 0 -680283776.69200134 -372736724.35701752 0 -372736724.35701752 516045372.29281425 0 0 0 0 -1309954.5551853906 2196203.9448758215 0 2196203.9448758215 -3195228.1653942652 0 0 0 0 -866143558.61048126 -452698249.55866241 0 -452698249.55866241 235159668.64281654 0 0 0 0 7000424.5303843711 -6854383.2103996556 0 -6854383.2103996556 -54069264.917831898 0 0 0 0 121958078.92110443 18070121.852456093 0 18070121.852456093 -143470782.66165924 0 0 0 0 184073459.92997265 -110857147.67194843 0 -110857147.67194843 -98686874.942724228 0 0 0 0 40078051.947124481 -63308013.549627304 0 -63308013.549627304 -170661610.84286118 0 0 0 0 -33540199.791694641 -88717253.431612015 0 -88717253.431612015 -328782380.98507309 0 0 0 0 -17577165.831264496 -11364840.33862114 0 -11364840.33862114 -130951340.37181854 0 0 0 0 1011107.9053862775 -4894182.386397195 0 -4894182.386397195 -2516640.9488398824 0 0 0 0 -86295046.501298904 -55959846.131482124 0 -55959846.131482124 47068233.67067337 0 0 0 0 -165204286.40078735 -198846400.79135323 0 -198846400.79135323 -134807112.37729263 0 0 0 0 -162831009.08790207 -167230799.27827644 0 -167230799.27827644 -96707672.509799004 0 0 0 0 86427088.862703562 -14181075.96609211 0 -14181075.96609211 -77443045.947021484 0 0 0 0 3698404.1874272074 -11053073.943747662 0 -11053073.943747662 -59758269.1718086 0 0 0 0 78294222.770186722 11966358.468475342 0 11966358.468475342 -85842772.777893066 0 0 0 0 52490823.537103891 34309475.096515656 0 34309475.096515656 -96502429.859039307 0 0 0 0 38326038.895746231 -6791454.4613876343 0 -6791454.4613876343 -58286586.436782837 0 0 0 0 9689296.4818081185 -24031409.065089785 0 -24031409.065089785 -14230831.324443683 0 0 0 0 -1243030676.5130539 1064128355.4676609 0 1064128355.4676609 891257416.43119812 0 0 0 0 59693550.04719162 -134250133.35873032 0 -134250133.35873032 -9754060.6340246201 0 0 0 0 44269012.519909859 -86419467.503108978 0 -86419467.503108978 -114065857.35083008 0 0 0 0 -4080075.6201067735 -9646098.3394668996 0 -9646098.3394668996 -55203255.676006079 0 0 0 0 136753691.89722061 14353053.938309669 0 14353053.938309669 67874178.302387714 0 0 0 0 -569142520.6815033 -937532479.20451069 0 -937532479.20451069 -338061460.22256422 0 0 0 0 13788761.291810021 -22841839.725181866 0 -22841839.725181866 -24028545.504297011 0 0 0 0 -29388039.058177948 10027309.521057129 0 10027309.521057129 -61731702.362342834 0 0 0 0 8572686.3308317661 53848696.462810516 0 53848696.462810516 -83005406.192642212 0 0 0 0 60528886.999897003 44517107.352737427 0 44517107.352737427 -87201705.291412354 0 0 0 0 -1129089805.8571243 -906152773.84817123 0 -906152773.84817123 -140599062.30868721 0 0 0 0 58978909.519081116 851816010.96297264 0 851816010.96297264 456472131.98222733 0 0 0 0 -1896850926.2766571 -408640737.74404907 0 -408640737.74404907 198645881.12535095 0 0 0 0 -1864034753.5159378 290214569.86899185 0 290214569.86899185 -173334920.5358429 0 0 0 0 -763264222.07192993 161408104.43719101 0 161408104.43719101 -573047877.50218201 0 0 0 0 -1836227348.5675964 1342932099.0344086 0 1342932099.0344086 -1345534449.8220978 0 0 0 0 -2502232111.0009766 648011441.57194138 0 648011441.57194138 -216047922.08283997 0 0 0 0 -548404449.12282181 -28435865.946111679 0 -28435865.946111679 -96608993.26940155 0 0 0 0 -1560879529.6265564 -553046134.38257599 0 -553046134.38257599 184662628.07335663 0 0 0 0 -673974721.34140778 -260256180.12046242 0 -260256180.12046242 205917553.90569305 0 0 0 0 527897465.05473518 429205664.08680058 0 429205664.08680058 -402045882.36820984 0 0 0 0 -653667208.53282356 -459820963.29219437 0 -459820963.29219437 552348673.21565795 0 0 0 0 321110942.54132843 640378568.33759689 0 640378568.33759689 -131631207.98789215 0 0 0 0 -697405.40834378637 1199188.9615913481 0 1199188.9615913481 -1694791.3339081332 0 0 0 0 -592278619.6720047 23502054.138957977 0 23502054.138957977 -73291342.519481659 0 0 0 0 339230429.39271545 -204288785.35425949 0 -204288785.35425949 -48569561.45174408 0 0 0 0 95577408.003746033 307508964.94067001 0 307508964.94067001 219128383.88853073 0 0 0 0 69033769.692085266 210997056.3259201 0 210997056.3259201 -461224997.81695318 0 0 0 0 -49065180.003936768 644045040.35459518 0 644045040.35459518 -388928551.42221069 0 0 0 0 -79586888.587340355 355058736.5065639 0 355058736.5065639 -561940153.08585358 0 0 0 0 -71833893.772583008 449888434.32344818 0 449888434.32344818 -1256871755.2796021 0 0 0 0 10012168.307454413 -8671266.7852146551 0 -8671266.7852146551 -14726415.948514048 0 0 0 0 -363392008.06655884 -42632185.337409973 0 -42632185.337409973 -34959638.940795898 0 0 0 0 135508758.61609268 -15312633.212447166 0 -15312633.212447166 -93209126.167910576 0 0 0 0 -661595963.38623953 -119737503.47649682 0 -119737503.47649682 29598646.062994003 0 0 0 0 57684632.036151886 87125512.580098152 0 87125512.580098152 -54986620.155516624 0 0 0 0 119597418.98530579 355426352.72192955 0 355426352.72192955 -53628905.074005127 0 0 0 0 -722421813.24007416 63247336.30198431 0 63247336.30198431 193766018.00018692 0 0 0 0 -889822228.08269167 362287142.02990758 0 362287142.02990758 300099272.78056335 0 0 0 0 -868360241.77590752 -124425364.61334217 0 -124425364.61334217 306340523.73840332 0 0 0 0 -649967470.05511475 504200434.38832855 0 504200434.38832855 348218342.51834106 0 0 0 0 -1617628610.5808411 409111918.01396561 0 409111918.01396561 472592495.97265625 0 0 0 0 32428109.431274414 382473457.03237152 0 382473457.03237152 -3280361239.324585 0 0 0 0 -2559807643.8541107 -1124944985.7695312 0 -1124944985.7695312 -204183884.3767395 0 0 0 0 -240004664.16914368 -464958928.56047821 0 -464958928.56047821 -794432079.34819412 0 0 0 0 -135295697.21134949 603163883.93894005 0 603163883.93894005 149096984.97574997 0 0 0 0 -825030791.58642578 700884145.57044983 0 700884145.57044983 514486890.35218811 0 0 0 0 -618366016.59352112 443945506.79254532 0 443945506.79254532 159376808.65571594 0 0 0 0 -187363156.61244202 345216909.36648941 0 345216909.36648941 22949966.303421021 0 0 0 0 -394037692.56140137 492265515.56349945 0 492265515.56349945 149762776.19144487 0 0 0 0 -591249588.84796906 247499996.3652935 0 247499996.3652935 73721017.788551331 0 0 0 0 -352974305.2417202 301938173.38240433 0 301938173.38240433 22534396.183708191 0 0 0 0 -360852840.38713837 321935365.73987389 0 321935365.73987389 96375085.529644012 0 0 0 0 -221326899.39867687 271016914.93091553 0 271016914.93091553 -45372929.936034203 0 0 0 0 -239384645.16634369 191513432.30606663 0 191513432.30606663 -41143233.935695291 0 0 0 0 -347906375.02916718 191782072.19431973 0 191782072.19431973 29771608.701213837 0 0 0 0 -517856059.51395035 116080922.79364681 0 116080922.79364681 -1937985.3927688599 0 0 0 0 -428912019.92187357 -40605259.480329037 0 -40605259.480329037 -97124574.16576767 0 0 0 0 -158386174.58885956 39192513.50064373 0 39192513.50064373 -74358997.036944628 0 0 0 0 -7455281.4388290485 -1026834.0314392876 0 -1026834.0314392876 -16878723.16652789 0 0 0 0 -4274470.0011310577 26300800.305339813 0 26300800.305339813 161037.36082458496 0 0 0 0 -218211928.73228455 179164659.0703167 0 179164659.0703167 -81107747.173379183 0 0 0 0 -127583874.79476929 118188935.76228619 0 118188935.76228619 -40083985.990447998 0 0 0 0 -33950108.728021145 63889617.685997009 0 63889617.685997009 -69898006.256613016 0 0 0 0 3148683.9168535303 -5609603.4806401394 0 -5609603.4806401394 -6387965.991447933 0 0 0 0 41687531.765164852 74340854.949241638 0 74340854.949241638 -70324475.354248047 0 0 0 0 162054119.60674763 55640625.065116882 0 55640625.065116882 -71376328.5572052 0 0 0 0 -4584698.5649452209 27770401.108564377 0 27770401.108564377 8463719.3001365662 0 0 0 0 4789143.996454671 8294753.1508313119 0 8294753.1508313119 -51473948.82694415 0 0 0 0 -81497299.956972599 -509609125.50814438 0 -509609125.50814438 -242394881.99609375 0 0 0 0 -342099441.9052012 233968173.23431778 0 233968173.23431778 -154258484.18032837 0 0 0 0 -737067930.81617355 711541552.48641968 0 711541552.48641968 111778535.67799759 0 0 0 0 -706396022.99273682 -124255772.75093079 0 -124255772.75093079 -29418276.960968018 0 0 0 0 -124094447.04881287 -335911347.93278503 0 -335911347.93278503 -482066752.59927368 0 0 0 0 80993198.004964828 -69161550.868759155 0 -69161550.868759155 -604040146.48133087 0 0 0 0 94809031.284484863 84101024.707519531 0 84101024.707519531 7529802.9750366211 0 0 0 0 -3601699.2029895782 595774049.94081116 0 595774049.94081116 -2797743.3513793945 0 0 0 0 37390738.698707581 102122277.47392845 0 102122277.47392845 71553696.685188293 0 0 0 0 578122.54121892434 12978547.627252094 0 12978547.627252094 -42865401.92941615 0 0 0 0 126308094.68491364 213978400.75843811 0 213978400.75843811 270267839.39505768 0 0 0 0 801111.01713856123 387818.94100146461 0 387818.94100146461 -1267595.3545828518 0 0 0 0 153342393.35359359 -207094120.68202209 0 -207094120.68202209 85584133.171295166 0 0 0 0 -37485877.573529243 -144876385.11205292 0 -144876385.11205292 79550666.80645752 0 0 0 0 234995499.84276962 -71997243.430343628 0 -71997243.430343628 -19157611.249084473 0 0 0 0 104698606.99688053 129950.21502685547 0 129950.21502685547 -16357301.109313965 0 0 0 0 -22360446.86756134 43071790.142066956 0 43071790.142066956 83199893.534563065 0 0 0 0 14887670.142649651 23894343.743066788 0 23894343.743066788 2053538.046333313 0 0 0 0 -20835106.143074036 28276058.325120926 0 28276058.325120926 42575384.886474609 0 0 0 0 -24945891.354122162 -38358228.818267822 0 -38358228.818267822 -82405866.06344223 0 0 0 0 -49794934.494934082 -8010668.4626502991 0 -8010668.4626502991 -10147991.723438263 0 0 0 0 -58883538.171748638 -28007114.173835516 0 -28007114.173835516 17853346.804092407 0 0 0 0 -43393709.251128674 43662449.844833851 0 43662449.844833851 95429646.857780457 0 0 0 0 -65797906.264205933 90356003.775634766 0 90356003.775634766 91537834.717025757 0 0 0 0 -154918201.11250305 -81550526.455059052 0 -81550526.455059052 36395568.999610901 0 0 0 0 40181837.233108521 47237138.140254974 0 47237138.140254974 -5767617.1521148682 0 0 0 0 8633716.3808822632 144082784.20050812 0 144082784.20050812 313793489.02656555 0 0 0 0 96843346.109596252 59764316.54019165 0 59764316.54019165 77470507.242202759 0 0 0 0 127385293.9261322 208637177.46816254 0 208637177.46816254 224888194.66744995 0 0 0 0 196589471.20385361 335477567.4805336 0 335477567.4805336 323802286.7792511 0 0 0 0 -2896792.4022302255 1177224.9627564517 0 1177224.9627564517 3504314.1843001097 0 0 0 0 -10564226.822828118 -5307963.9003411904 0 -5307963.9003411904 -6489512.7518533207 0 0 0 0 -44750297.396724701 46168723.181282043 0 46168723.181282043 -101594031.30097103 0 0 0 0 -38633439.420906067 -3883614.3732891083 0 -3883614.3732891083 5364961.3102946281 0 0 0 0 -31851469.55497551 -7115186.6890287399 0 -7115186.6890287399 -7081598.6499252319 0 0 0 0 2038746.4532120675 2096556.3819768047 0 2096556.3819768047 -7421494.7769391388 0 0 0 0 -40750722.772449493 -33211110.926645279 0 -33211110.926645279 -22819762.836111069 0 0 0 0 -109937203.78898621 132235607.08750534 0 132235607.08750534 -166764481.59381866 0 0 0 0 -6596513.9032851309 -5962576.1063799802 0 -5962576.1063799802 -2610891.3425878622 0 0 0 0 152205444.39887238 -223695121.15816498 0 -223695121.15816498 -286935485.59710503 0 0 0 0 27185032.760452271 -322212394.90093803 0 -322212394.90093803 -757667831.58389568 0 0 0 0 4607057.7804101594 3486674.5314397877 0 3486674.5314397877 -9189649.5459377095 0 0 0 0 88530566.113105774 252378404.84937477 0 252378404.84937477 52020862.857758522 0 0 0 0 -1609910881.7857056 -322136012.82773972 0 -322136012.82773972 -716280907.18510056 0 0 0 0 -1229285403.4163437 -752975961.51519012 0 -752975961.51519012 -402166983.51452446 0 0 0 0 1768102.7378084268 -4582882.5738000181 0 -4582882.5738000181 -4668238.8620333187 0 0 0 0 -676656085.05757523 489848753.42020321 0 489848753.42020321 29291389.887054443 0 0 0 0 -733293263.56771278 316591101.04956943 0 316591101.04956943 -391280421.53294897 0 0 0 0 2114398.290466696 1913488.9299843432 0 1913488.9299843432 -3811145.8529474884 0 0 0 0 -28215712.023696899 293033320.70653439 0 293033320.70653439 -770114896.46568203 0 0 0 0 -27558616.449424744 97001789.410927057 0 97001789.410927057 -138087565.93078327 0 0 0 0 -60908818.233438492 86840344.176845312 0 86840344.176845312 -126103878.0586319 0 0 0 0 -96938182.76146698 196230658.3093977 0 196230658.3093977 -247094458.61363125 0 0 0 0 -167662207.84593964 297080951.49806118 0 297080951.49806118 -131303410.58619642 0 0 0 0 -204594983.28865814 231030075.68992043 0 231030075.68992043 -47259846.676289558 0 0 0 0 -581428901.82287598 471735914.47164822 0 471735914.47164822 -124576829.36409569 0 0 0 0 -715536811.25794983 146984393.91964972 0 146984393.91964972 121022384.79660177 0 0 0 0 -334204247.67150116 -71294834.888191879 0 -71294834.888191879 172722903.81403685 0 0 0 0 -236294573.14172363 266033397.04454851 0 266033397.04454851 -83528564.311944962 0 0 0 0 -548565.47799682617 -13073703.808028221 0 -13073703.808028221 -93062812.407960296 0 0 0 0 15515065.637969971 -45953394.222270608 0 -45953394.222270608 -45499618.948646545 0 0 0 0 12298360.266620159 192395338.7358954 0 192395338.7358954 -85429211.839836121 0 0 0 0 -157742356.04695129 295392350.50360441 0 295392350.50360441 -38550759.289184093 0 0 0 0 -164616175.38402557 280533323.95004797 0 280533323.95004797 -52181791.32058239 0 0 0 0 76560527.760116577 300228192.87526846 0 300228192.87526846 -66021717.230175018 0 0 0 0 -35345822.133781433 180045957.21332455 0 180045957.21332455 -52887662.651797295 0 0 0 0 -1560174024.6561909 -1251814640.2973869 0 -1251814640.2973869 -738869394.93498611 0 0 0 0 -70762807.143127441 -51916493.288319588 0 -51916493.288319588 -1423045828.6216755 0 0 0 0 832181948.56348801 -237043466.17512512 0 -237043466.17512512 -2435492033.564218 0 0 0 0 2756617.2892838353 -6477719.2570804805 0 -6477719.2570804805 -8578943.5427164882 0 0 0 0 -1628443210.7950287 -409953498.01801443 0 -409953498.01801443 436726083.77760649 0 0 0 0 -6331228.3171588555 -3347136.4193837568 0 -3347136.4193837568 -387905.08312005457 0 0 0 0 -1590833535.2235398 137670577.39308196 0 137670577.39308196 256234641.52063525 0 0 0 0 -44363511.605773926 -65747455.233610272 0 -65747455.233610272 -434851134.15701199 0 0 0 0 -1017415026.5843468 -38519439.057121255 0 -38519439.057121255 190491265.53881347 0 0 0 0 -871757220.99728012 -848198428.26077986 0 -848198428.26077986 -386340000.56287384 0 0 0 0 -999351165.4629364 -597521609.91425848 0 -597521609.91425848 385091825.95280576 0 0 0 0 -396693631.80674744 -249148651.12499809 0 -249148651.12499809 -921015955.06005478 0 0 0 0 -517465213.62364197 -126676007.6106472 0 -126676007.6106472 -978586611.71632004 0 0 0 0 -319448349.92004395 13090786.329437256 0 13090786.329437256 -368284626.84493256 0 0 0 0 -118600368.51899719 -4056599.1412301064 0 -4056599.1412301064 -718851338.76663589 0 0 0 0 -10366265.817325592 62933302.042987347 0 62933302.042987347 -138938678.22555256 0 0 0 0 -125167959.26509094 52754506.094669342 0 52754506.094669342 -149857343.45603251 0 0 0 0 -10058167.476880811 -8333393.8456300497 0 -8333393.8456300497 -8405329.1880371105 0 0 0 0 -16052973.368942261 -264720818.87807494 0 -264720818.87807494 -193857211.27989566 0 0 0 0 12025491.016701065 -8640547.8785457239 0 -8640547.8785457239 -40783707.846620515 0 0 0 0 50721113.717315674 48551788.135561943 0 48551788.135561943 -47588625.236348152 0 0 0 0 145674535.37072515 226296106.72382355 0 226296106.72382355 106461384.38616943 0 0 0 0 450551159.4402132 16485762.08555603 0 16485762.08555603 -71648433.541511536 0 0 0 0 25025626.372179721 -8087541.468868617 0 -8087541.468868617 -81861990.813937709 0 0 0 0 94067714.029712677 65292761.813204765 0 65292761.813204765 -112966685.70691109 0 0 0 0 20189890.446472168 11419194.930747986 0 11419194.930747986 -54658166.515329719 0 0 0 0 117682123.36950684 -17905886.248634338 0 -17905886.248634338 -160694414.25288391 0 0 0 0 146136724.55553436 -69386722.333909035 0 -69386722.333909035 -118006860.51703358 0 0 0 0 101574399.31137085 -100431729.46684647 0 -100431729.46684647 -43971698.994731903 0 0 0 0 15911185.14322868 -7299583.5883355234 0 -7299583.5883355234 -25287583.153055567 0 0 0 0 111647851.20052719 23398160.005740643 0 23398160.005740643 -355632086.47134972 0 0 0 0 38837171.343666077 -135383103.62220764 0 -135383103.62220764 -229113179.49643421 0 0 0 0 40615935.044906616 -206542066.05213928 0 -206542066.05213928 -716755680.06002426 0 0 0 0 -56694896.400375366 14464830.575932026 0 14464830.575932026 -136702068.01347542 0 0 0 0 -86587121.0078125 165144961.54964447 0 165144961.54964447 -397264743.74898911 0 0 0 0 29970891.243522644 -23624690.95791626 0 -23624690.95791626 -25889916.236919403 0 0 0 0 12899944.08213282 10614558.609761003 0 10614558.609761003 -4320757.1231341213 0 0 0 0 -171720073.82375526 -31519581.367980957 0 -31519581.367980957 117915032.60134888 0 0 0 0 107126361.6872896 96428755.731277466 0 96428755.731277466 -392877828.60870361 0 0 0 0 86956774.697731972 -14653040.707672119 0 -14653040.707672119 -246340873.26501465 0 0 0 0 -17490964.302893758 239288411.34354401 0 239288411.34354401 -459542356.77154541 0 0 0 0 114923709.92980003 84023946.434020996 0 84023946.434020996 -623730628.82901001 0 0 0 0 144243871.56067276 105389643.68978119 0 105389643.68978119 -762678301.81237793 0 0 0 0 114742894.85061455 6279961.9037017822 0 6279961.9037017822 -434880151.93516541 0 0 0 0 22129899.09179306 -74396405.441711426 0 -74396405.441711426 -384721149.8764801 0 0 0 0 145213563.2706871 18943719.761520386 0 18943719.761520386 -617703093.49777222 0 0 0 0 5943612.5431928635 92401969.076347351 0 92401969.076347351 -73836850.209442139 0 0 0 0 6159751.7357592583 -30847419.504898071 0 -30847419.504898071 -4892299.9954452515 0 0 0 0 17595124.506345809 11529099.280799504 0 11529099.280799504 -10494918.487763517 0 0 0 0 19237771.758348942 68543961.378326416 0 68543961.378326416 -14368723.239318848 0 0 0 0 14925137.475893974 -33113883.751373291 0 -33113883.751373291 -133720936.34147644 0 0 0 0 25803208.718381301 15800718.692320108 0 15800718.692320108 -190682889.23129272 0 0 0 0 -34129433.504709244 -223473097.69637299 0 -223473097.69637299 -501038086.7401886 0 0 0 0 8450949.0304236412 -63339561.503768921 0 -63339561.503768921 -141431422.24932098 0 0 0 0 67448161.313309193 -42455518.830116272 0 -42455518.830116272 -177265646.34130096 0 0 0 0 23331996.198272318 42913111.825541973 0 42913111.825541973 14762090.252716064 0 0 0 0 66360886.386306763 -45337901.636612892 0 -45337901.636612892 -66771006.226942062 0 0 0 0 27341779.333572004 -3784562.6093966402 0 -3784562.6093966402 -74409899.840064824 0 0 0 0 105747972.18459654 111286117.16645813 0 111286117.16645813 14774075.916347638 0 0 0 0 59863823.474075317 42414705.824690819 0 42414705.824690819 -97062837.953063965 0 0 0 0 50931428.743530273 10727254.811687469 0 10727254.811687469 -206205948.84881973 0 0 0 0 21198041.774205133 -1606928.0438995846 0 -1606928.0438995846 -51259131.724786162 0 0 0 0 -26176783.382038116 -25736051.838951111 0 -25736051.838951111 -43236380.34046936 0 0 0 0 -94443.40517616272 11003955.565567017 0 11003955.565567017 -77832829.093978882 0 0 0 0 37924032.523988597 4442531.1275935769 0 4442531.1275935769 -38146782.770009339 0 0 0 0 51292082.093368769 32230993.996910095 0 32230993.996910095 16016126.3046875 0 0 0 0 2281201.6277694702 -4941292.2698974609 0 -4941292.2698974609 -41515220.123573303 0 0 0 0 26515436.00538826 21840785.015686035 0 21840785.015686035 -89269806.775474548 0 0 0 0 45061662.088029861 2949188.468421936 0 2949188.468421936 -58885519.847427368 0 0 0 0 22508272.84280014 -47667346.938995361 0 -47667346.938995361 -13950069.712112427 0 0 0 0 -1879756.4851225773 -7025532.233341584 0 -7025532.233341584 -11324472.555461079 0 0 0 0 113972091.96486336 -30692891.566979408 0 -30692891.566979408 -684585.07269287109 0 0 0 0 47098751.77312535 -38782561.551371813 0 -38782561.551371813 -13635670.746383667 0 0 0 0 114270586.33312225 -35805034.696350098 0 -35805034.696350098 7436163.1000976562 0 0 0 0 46602128.317993164 4302451.1148834229 0 4302451.1148834229 -45798203.441383362 0 0 0 0 9783654.0394334793 2797540.759853363 0 2797540.759853363 -28454325.834716797 0 0 0 0 64515869.715288162 -19769025.668354034 0 -19769025.668354034 -45955256.044647217 0 0 0 0 -27776776.515013695 -52142246.511795044 0 -52142246.511795044 -20507585.105407715 0 0 0 0 107446751.87419128 -195627753.77342987 0 -195627753.77342987 -130222388.47782516 0 0 0 0 34819898.964724541 -29540332.415708542 0 -29540332.415708542 -38208867.145141602 0 0 0 0 3989441.6500093881 5875619.5437873593 0 5875619.5437873593 -3658587.0988220721 0 0 0 0 -52732692.080429077 57365576.074295044 0 57365576.074295044 8901763.8606567383 0 0 0 0 125964266.16963577 192096084.74395752 0 192096084.74395752 -42153720.670291901 0 0 0 0 9743384.5700963046 -564738.44275214663 0 -564738.44275214663 -34152344.392992735 0 0 0 0 25406425.383238792 -1405599.9998779297 0 -1405599.9998779297 -4420747.0368652344 0 0 0 0 4368859.261778661 -765294.5638618907 0 -765294.5638618907 -17607114.850508735 0 0 0 0 24743687.669845581 -66483.844604492188 0 -66483.844604492188 -4712155.3068847656 0 0 0 0 1958700.9374379818 -11380375.282227509 0 -11380375.282227509 -27513187.349342942 0 0 0 0 1318844.9408435365 -3570389.9693706902 0 -3570389.9693706902 -14465342.97908324 0 0 0 0 6828344.0641122675 6548193.6437470838 0 6548193.6437470838 -8405906.0765200108 0 0 0 0 -31506316.427650452 -28720575.886138916 0 -28720575.886138916 3821679.7087402344 0 0 0 0 486978.02091834228 -2831685.3466616794 0 -2831685.3466616794 -4110098.4402979612 0 0 0 0 27188843.125839233 -48392205.699274063 0 -48392205.699274063 -36728186.583175659 0 0 0 0 42477234.465885162 -48220232.294052124 0 -48220232.294052124 -3857792.2324142456 0 0 0 0 17528215.225482941 -3102197.4841270447 0 -3102197.4841270447 -69246040.78704834 0 0 0 0 100516029.87923813 12211402.022361755 0 12211402.022361755 -42359102.995056152 0 0 0 0 43765348.646564484 -19773172.247833252 0 -19773172.247833252 -77581435.268615723 0 0 0 0 55844933.521572113 37467350.403503418 0 37467350.403503418 -64166426.61318779 0 0 0 0 19881802.370672546 -7231976.9798595197 0 -7231976.9798595197 -47792320.196504287 0 0 0 0 -95531078.348876953 48224509.228128433 0 48224509.228128433 -66651220.519546509 0 0 0 0 49704363.79486084 47817546.59072113 0 47817546.59072113 -84062756.517784119 0 0 0 0 -13918750.241207123 -87242840.050278187 0 -87242840.050278187 -42408962.031707764 0 0 0 0 8452237.8966064453 -67955452.44226265 0 -67955452.44226265 -26541967.751900673 0 0 0 0 -88810709.992427826 -212360003.34672499 0 -212360003.34672499 -128781268.67518997 0 0 0 0 -205606974.80648804 -77419012.70195961 0 -77419012.70195961 -28093270.426101685 0 0 0 0 -3048670.1381260082 399964.62012640201 0 399964.62012640201 1491091.0188256614 0 0 0 0 -68961037.863006592 20512461.684192657 0 20512461.684192657 -21250164.141288757 0 0 0 0 -336343606.11293411 76406092.660612106 0 76406092.660612106 -32750583.942485809 0 0 0 0 -75816719.048736572 -80623150.879444122 0 -80623150.879444122 -48614218.781959534 0 0 0 0 -55010423.492630005 -81857118.177314758 0 -81857118.177314758 -48912026.665038109 0 0 0 0 4123397.1931915283 -123921927.23118973 0 -123921927.23118973 -229759857.0099678 0 0 0 0 -226991191.54512405 -189831364.41816616 0 -189831364.41816616 -107200743.38010406 0 0 0 0 53111818.027524948 25539713.317207336 0 25539713.317207336 -47126809.036865234 0 0 0 0 16742888.173181336 -13316007.730787255 0 -13316007.730787255 -43871896.679665036 0 0 0 0 60655447.944725037 -20971876.712856293 0 -20971876.712856293 -136800679.48133087 0 0 0 0 -27777777.877914429 -87509948.804115295 0 -87509948.804115295 -67670606.544532776 0 0 0 0 -53489829.533550262 -113529112.57627583 0 -113529112.57627583 -88633331.572994232 0 0 0 0 54687715.468677521 16401589.822418213 0 16401589.822418213 -4244835.5823059082 0 0 0 0 8685516.1265395917 -21286868.915430319 0 -21286868.915430319 -40176668.023546889 0 0 0 0 44577578.538333893 10351440.211395264 0 10351440.211395264 -457291.63690185547 0 0 0 0 -31466233.076255798 -88529544.03632164 0 -88529544.03632164 -48769336.927497864 0 0 0 0 52353817.187761307 7671662.9824142456 0 7671662.9824142456 -2798666.1341705322 0 0 0 0 69842255.297959328 -9322330.2132873535 0 -9322330.2132873535 -116589920.29522705 0 0 0 0 58516999.981645584 44263281.177871704 0 44263281.177871704 -52979421.980285645 0 0 0 0 7670191.8415910732 3953376.7411846556 0 3953376.7411846556 -30361505.077891484 0 0 0 0 47857314.846305847 26394921.904571533 0 26394921.904571533 3127678.6509017944 0 0 0 0 2773755.3460696097 6107430.6905554803 0 6107430.6905554803 -2577029.1163577363 0 0 0 0 -114841913.51280975 -247679335.29068851 0 -247679335.29068851 -96675606.190887451 0 0 0 0 -454641033.90400696 -123573993.70044637 0 -123573993.70044637 -34501264.55973053 0 0 0 0 -90411643.648590088 -219419292.72667503 0 -219419292.72667503 -208287794.45851135 0 0 0 0 -496629533.29030228 -358862559.95021152 0 -358862559.95021152 -248364948.36380386 0 0 0 0 128095224.01490784 -184593521.95495129 0 -184593521.95495129 -307116920.04892731 0 0 0 0 126831381.32965088 -172324599.38740063 0 -172324599.38740063 -140610580.3325119 0 0 0 0 6209980.3207244873 -95323822.038265228 0 -95323822.038265228 -181689222.31996393 0 0 0 0 52873746.540660858 -160523920.5398035 0 -160523920.5398035 -66750256.696357727 0 0 0 0 155868571.79971313 -244401530.23394585 0 -244401530.23394585 -136738481.1043663 0 0 0 0 38382507.467041016 -117946643.61756134 0 -117946643.61756134 124998832.63415527 0 0 0 0 -7250318.5405799747 1338148.4156250404 0 1338148.4156250404 2404566.8939882927 0 0 0 0 48270903.296600342 -230825986.51469803 0 -230825986.51469803 176165044.06902027 0 0 0 0 18583137.706916809 -106164212.86337852 0 -106164212.86337852 219823261.59513474 0 0 0 0 -127539474.26217651 -217181690.9169426 0 -217181690.9169426 141335875.31698227 0 0 0 0 -132434599.41770935 -103760120.48282242 0 -103760120.48282242 238775416.4172287 0 0 0 0 -136599790.56820011 -294401101.82258058 0 -294401101.82258058 7255855.069694519 0 0 0 0 -180323395.62195587 -111652351.17097664 0 -111652351.17097664 275557107.82618713 0 0 0 0 -50529026.293456078 25938074.404255152 0 25938074.404255152 373277845.27750015 0 0 0 0 -11426018.80445059 10925128.550406978 0 10925128.550406978 -10699133.800241206 0 0 0 0 11757526.959472656 41103362.755079269 0 41103362.755079269 17072506.290412903 0 0 0 0 27746961.430908203 43164833.358765602 0 43164833.358765602 -609283.42869663239 0 0 0 0 -250849.23922729492 6865373.1162796021 0 6865373.1162796021 -18941334.770576477 0 0 0 0 -16855769.030942917 11425423.030161858 0 11425423.030161858 -1570424.4021453857 0 0 0 0 6319503.6573829651 15520279.229585648 0 15520279.229585648 -13024833.242218018 0 0 0 0 4314452.3561248779 22424674.987785339 0 22424674.987785339 -6741484.8020477295 0 0 0 0 -21819015.971557617 28928828.309753418 0 28928828.309753418 22812466.458435059 0 0 0 0 -849879.57893358171 438815.03472346766 0 438815.03472346766 120818.33524022251 0 0 0 0 -39700463.702079296 -73548525.066105127 0 -73548525.066105127 201571419.51499176 0 0 0 0 -12672295.566389754 3464720.6567536574 0 3464720.6567536574 3167892.1287877224 0 0 0 0 -36541281.901763916 20523511.711963654 0 20523511.711963654 -10277941.56678009 0 0 0 0 -84513928.028862 41586241.162063599 0 41586241.162063599 -14570973.50692749 0 0 0 0 -47515482.088249207 2283068.8812065125 0 2283068.8812065125 35364468.988212585 0 0 0 0 -58566284.043197632 24426816.331613541 0 24426816.331613541 18983159.256885529 0 0 0 0 -32315458.165939331 8931356.4515724182 0 8931356.4515724182 4347351.8162693977 0 0 0 0 -38644017.098098755 19748467.482521057 0 19748467.482521057 -557801.07376098633 0 0 0 0 -34118560.667282104 13667601.788963318 0 13667601.788963318 -451607.28332525492 0 0 0 0 -38633861.508300781 15247675.329475403 0 15247675.329475403 5401608.6142272949 0 0 0 0 -20080272.758518361 1055481.8628359064 0 1055481.8628359064 -3264594.7108525559 0 0 0 0 -10617881.747421265 6365240.217414856 0 6365240.217414856 -3215811.869972229 0 0 0 0 -82036352.969322205 40141302.919483185 0 40141302.919483185 -42135786.633110046 0 0 0 0 -34076664.085948944 -38196653.381881714 0 -38196653.381881714 -22273519.546859741 0 0 0 0 -38178796.707118876 -4025844.0784546006 0 -4025844.0784546006 -7857699.1334754191 0 0 0 0 -7234483.0663122796 -3499188.1583787613 0 -3499188.1583787613 3010424.5645278692 0 0 0 0 -60494617.684171677 52220493.699035645 0 52220493.699035645 -117105341.9669075 0 0 0 0 -33921574.125743866 30928449.713047028 0 30928449.713047028 -140833617.43312073 0 0 0 0 -42721693.907919884 8895050.5801830292 0 8895050.5801830292 -26282469.875823975 0 0 0 0 -27714833.558805466 66541546.337020874 0 66541546.337020874 -130115664.34508896 0 0 0 0 -74871920.2436409 -958306.92860794067 0 -958306.92860794067 -4896652.8158454895 0 0 0 0 -13959732.3238778 -1735808.4692383818 0 -1735808.4692383818 -4853737.2690099254 0 0 0 0 -2306898.3500572219 -954319.89575378969 0 -954319.89575378969 21294.17111761868 0 0 0 0 -84790847.91202879 -153282185.62603951 0 -153282185.62603951 -384900112.73893738 0 0 0 0 -10393296.28017075 -2483498.9758707481 0 -2483498.9758707481 172406.49816242605 0 0 0 0 27538430.021224976 -2224735.6641235352 0 -2224735.6641235352 -47228277.644130707 0 0 0 0 -11495851.708179474 -18299535.937196732 0 -18299535.937196732 -31333352.081573486 0 0 0 0 1079350.3318380956 -3612561.5333273038 0 -3612561.5333273038 -4978643.4919386059 0 0 0 0 -7917728.1605377197 2234221.3698997498 0 2234221.3698997498 -16384993.227416992 0 0 0 0 -6213763.0189666748 8614061.9194116592 0 8614061.9194116592 -12733445.858062744 0 0 0 0 -23983322.457677126 3310158.280176837 0 3310158.280176837 -8139364.8331430275 0 0 0 0 -11917580.381286621 9153681.3958282471 0 9153681.3958282471 -5395551.5945739746 0 0 0 0 -2152707.1326751709 9975426.1590042114 0 9975426.1590042114 -15972916.18901825 0 0 0 0 -7436699.7718048096 15535924.14037323 0 15535924.14037323 -10267799.764022827 0 0 0 0 -7953298.058347702 13094774.100610256 0 13094774.100610256 -8511702.2790222168 0 0 0 0 -10584925.477767944 6827028.3152809143 0 6827028.3152809143 -9717959.4154148102 0 0 0 0 -4493585.7632160187 819850.26856946945 0 819850.26856946945 -11723202.223403931 0 0 0 0 -7170261.7879638672 5585783.3331069946 0 5585783.3331069946 -16497363.775272369 0 0 0 0 -22295606.234912872 33506292.510765076 0 33506292.510765076 -17846301.821133614 0 0 0 0 -16479657.003427112 498500.68730537966 0 498500.68730537966 -22009076.766479976 0 0 0 0 -17003700.398427486 15626468.467842579 0 15626468.467842579 -16886185.196777344 0 0 0 0 -24370890.789569855 29483811.655387878 0 29483811.655387878 -22781628.044353485 0 0 0 0 -19158433.525562286 32133738.54958725 0 32133738.54958725 -22404710.078735828 0 0 0 0 -8406.4948120117188 -3819644.6445388794 0 -3819644.6445388794 -8855056.0269775391 0 0 0 0 -34644152.307220459 -69142835.364463806 0 -69142835.364463806 -60648084.752868652 0 0 0 0 -39173500.321805254 -22440504.656338748 0 -22440504.656338748 -30965261.489598915 0 0 0 0 37011389.183418274 29754712.907745361 0 29754712.907745361 -832309.28430175781 0 0 0 0 -10570044.57359314 -83416676.764453888 0 -83416676.764453888 -24526911.798225403 0 0 0 0 -37735889.20349884 -99465331.777975082 0 -99465331.777975082 18116588.001262665 0 0 0 0 -65578335.890319824 -92132716.097900391 0 -92132716.097900391 -25499453.134651184 0 0 0 0 -37811416.439383462 -19527763.732060324 0 -19527763.732060324 -27555172.634111986 0 0 0 0 -26495685.377952576 15666168.149103165 0 15666168.149103165 -24120632.701286316 0 0 0 0 -40554399.996767044 10077795.559574127 0 10077795.559574127 26704678.393352509 0 0 0 0 -41826597.122620791 -9161913.7489043809 0 -9161913.7489043809 -12309859.149362331 0 0 0 0 -97639600.744407654 -56395149.861207962 0 -56395149.861207962 77845319.346679688 0 0 0 0 -65019216.458400726 -35613162.148712158 0 -35613162.148712158 15516819.604862213 0 0 0 0 -51106452.621658325 -25674381.849658966 0 -25674381.849658966 41652830.84601593 0 0 0 0 -141216252.40112424 -81416493.437467515 0 -81416493.437467515 7608857.1908035278 0 0 0 0 -143166686.71999145 10947755.693844914 0 10947755.693844914 16323208.828887939 0 0 0 0 -33483653.195747375 -23951076.999794006 0 -23951076.999794006 23884153.399475098 0 0 0 0 -44040529.096072197 -16920547.689653397 0 -16920547.689653397 -67380032.433135986 0 0 0 0 -18182545.271886587 27296311.63851738 0 27296311.63851738 -49390143.475006104 0 0 0 0 13107896.329849243 -24363132.478115082 0 -24363132.478115082 -138113020.87107086 0 0 0 0 -16648869.022384644 -18874708.43170166 0 -18874708.43170166 -139111792.54033089 0 0 0 0 -71866342.773025513 -53886127.747108459 0 -53886127.747108459 -115817478.00414276 0 0 0 0 8395949.7547206879 -43221250.989421844 0 -43221250.989421844 -202500710.11357117 0 0 0 0 -58277049.907497406 -37695864.602775574 0 -37695864.602775574 -112722140.78234386 0 0 0 0 -144617845.33490658 -128877806.45612812 0 -128877806.45612812 -203168426.01382446 0 0 0 0 -58223106.515497208 -1048833.6399421692 0 -1048833.6399421692 -31303542.56337738 0 0 0 0 -44394035.926084518 39106414.437699318 0 39106414.437699318 -42240958.963592529 0 0 0 0 -43995303.184749603 27044705.161376953 0 27044705.161376953 -15061927.735959053 0 0 0 0 -74797393.826354027 22207286.257854462 0 22207286.257854462 -51627842.378005981 0 0 0 0 -93773220.237925053 24897606.637326241 0 24897606.637326241 -47294453.767654419 0 0 0 0 -64390076.076881409 23735468.243572235 0 23735468.243572235 -85922524.469352722 0 0 0 0 -208067276.47571754 11690991.070964813 0 11690991.070964813 -86684716.811814785 0 0 0 0 -62360946.834835052 16711660.760456085 0 16711660.760456085 -90361342.588809967 0 0 0 0 -29855879.903615952 38422050.190002441 0 38422050.190002441 -104098391.47284698 0 0 0 0 -21018598.061431885 22053354.280151367 0 22053354.280151367 -92469847.308391571 0 0 0 0 -27071973.820968628 49601726.104248047 0 49601726.104248047 -69242886.930305481 0 0 0 0 -16421104.105347633 45702035.022312164 0 45702035.022312164 -71781839.046920776 0 0 0 0 -18644496.019065857 50894351.713485718 0 50894351.713485718 -68714047.815948486 0 0 0 0 -49937586.181779861 56728010.830581665 0 56728010.830581665 -69908510.866798401 0 0 0 0 -28501173.136713028 34812100.298171997 0 34812100.298171997 -48053783.877067566 0 0 0 0 -29991889.930758476 42192096.131559372 0 42192096.131559372 -43285239.848495483 0 0 0 0 -20894582.87845993 36644796.745079041 0 36644796.745079041 -49525001.187362671 0 0 0 0 -111290659.5212822 -26726079.759302139 0 -26726079.759302139 5687778.4018325806 0 0 0 0 -104336187.95910931 -12672983.427589417 0 -12672983.427589417 64579863.306217194 0 0 0 0 -116840802.61151886 -47944972.952819824 0 -47944972.952819824 -12160537.5747509 0 0 0 0 -25425822.500916481 -14617914.893475533 0 -14617914.893475533 -131460910.90216827 0 0 0 0 -40748540.905405998 34611050.430856705 0 34611050.430856705 -91277566.215286255 0 0 0 0 -69204302.760044575 49598364.733123302 0 49598364.733123302 -204153074.70574951 0 0 0 0 -193738111.70941544 -128350269.73403549 0 -128350269.73403549 -138790359.88228035 0 0 0 0 -121214929.48970222 -51378010.28004837 0 -51378010.28004837 -6830137.8053855896 0 0 0 0 -112195548.31399632 -34027313.100831985 0 -34027313.100831985 -41374715.392974854 0 0 0 0 1846125.848783493 8381361.2345600128 0 8381361.2345600128 25144233.550209045 0 0 0 0 -913782.96438842546 890783.07940184325 0 890783.07940184325 353397.90365434065 0 0 0 0 -69271352.688591003 23824789.407943726 0 23824789.407943726 -13348555.161320686 0 0 0 0 -198935689.0744226 -3035902.7433236837 0 -3035902.7433236837 6133372.0947952271 0 0 0 0 -10935.07666881755 -135974.92627553642 0 -135974.92627553642 -457916.47919489443 0 0 0 0 7971082.9553642273 7449301.813999176 0 7449301.813999176 -280910755.69526482 0 0 0 0 14610261.30216074 49796521.701509953 0 49796521.701509953 -134656157.7775116 0 0 0 0 20767607.716935158 -639363.72428607941 0 -639363.72428607941 -131122132.14231873 0 0 0 0 1361274.3912811279 8769910.9506874084 0 8769910.9506874084 -28882647.092842102 0 0 0 0 26546702.041307449 12603068.282218933 0 12603068.282218933 -134510836.18619537 0 0 0 0 196064.16327099688 -1170130.6111406516 0 -1170130.6111406516 -1351026.0903629214 0 0 0 0 65276776.23073101 3410464.2422180176 0 3410464.2422180176 -80147206.334602356 0 0 0 0 27506116.921726227 -44042646.656467438 0 -44042646.656467438 -31444253.81212306 0 0 0 0 -39778543.081063271 24569442.344475746 0 24569442.344475746 19259721.484329224 0 0 0 0 -37234263.15435791 71357173.212718964 0 71357173.212718964 -16874158.491359711 0 0 0 0 -825916.50879015005 1365045.3681766447 0 1365045.3681766447 -9545.0173544660211 0 0 0 0 59425767.556972504 28708999.734230042 0 28708999.734230042 -7230978.0312709808 0 0 0 0 -120374791.49518776 -47645015.096237183 0 -47645015.096237183 -1055521.1117019653 0 0 0 0 -70684110.844488144 -18292203.731311798 0 -18292203.731311798 -6149051.6520218849 0 0 0 0 -118577291.96816158 -75315249.611665726 0 -75315249.611665726 -73626366.177658081 0 0 0 0 -205809876.74092007 23175312.911931992 0 23175312.911931992 -24461737.128817558 0 0 0 0 -253087262.07823455 -195983748.14960527 0 -195983748.14960527 -189527899.6958847 0 0 0 0 -209038044.33489227 -157357749.94834137 0 -157357749.94834137 -156682914.76478577 0 0 0 0 -193267387.66255784 -246097477.25638509 0 -246097477.25638509 -324949706.58099747 0 0 0 0 -48575201.878866673 -36247031.370047569 0 -36247031.370047569 -241379969.73046112 0 0 0 0 -150017095.52953243 -29100353.809503555 0 -29100353.809503555 -133361764.84068298 0 0 0 0 -118643668.15640259 -70664323.840698242 0 -70664323.840698242 -257148082.09680176 0 0 0 0 -107436669.98728561 18572522.903867722 0 18572522.903867722 -103952314.89070129 0 0 0 0 -64602228.365848541 9057457.8936386108 0 9057457.8936386108 -169203114.72986984 0 0 0 0 -25549426.728643417 49929530.717615128 0 49929530.717615128 -149891426.91137695 0 0 0 0 -21697067.154445648 37810740.091067314 0 37810740.091067314 -111826696.05599976 0 0 0 0 792086.44873428345 43069172.396591187 0 43069172.396591187 -112908450.55558014 0 0 0 0 -14914990.135145187 8154058.9818267822 0 8154058.9818267822 -76974238.849029541 0 0 0 0 -11656901.877828598 35733066.840991974 0 35733066.840991974 -20273396.296096802 0 0 0 0 -41977662.897907257 -4558387.6650314331 0 -4558387.6650314331 -65367764.973384857 0 0 0 0 -264676694.18159485 -52538909.846160889 0 -52538909.846160889 -39484755.395837784 0 0 0 0 -41262413.846614838 19015790.753410339 0 19015790.753410339 -116417483.30239487 0 0 0 0 -509042424.69923401 -115231120.74581909 0 -115231120.74581909 41606424.113494873 0 0 0 0 -52314313.758318901 42149009.907292366 0 42149009.907292366 -13908178.16015625 0 0 0 0 2692697.2959365845 -88245582.491535187 0 -88245582.491535187 3923157.0769395828 0 0 0 0 265369.00635426864 -1041407.1136079971 0 -1041407.1136079971 -1507953.8194609582 0 0 0 0 -2026905.5141720772 -42744002.921207428 0 -42744002.921207428 44444225.127098083 0 0 0 0 -133779246.23799133 -26368398.704195023 0 -26368398.704195023 44510476.04750061 0 0 0 0 -35989544.391605377 -53880563.551971436 0 -53880563.551971436 -134057731.28684235 0 0 0 0 198310.34467876703 -479056.33663107641 0 -479056.33663107641 -795657.84752758592 0 0 0 0 -142585120.20703697 -389347322.70317841 0 -389347322.70317841 -344137548.32882309 0 0 0 0 -362851444.24972439 -379497722.38441896 0 -379497722.38441896 -302403954.01888275 0 0 0 0 -260253983.97643852 -249866522.01411819 0 -249866522.01411819 -147090201.86706161 0 0 0 0 -260402468.15277493 -247652948.28385353 0 -247652948.28385353 -147610980.47333527 0 0 0 0 -292448704.52948761 -204450500.56930923 0 -204450500.56930923 -197076153.53575516 0 0 0 0 -200065994.80028248 -75732380.578525543 0 -75732380.578525543 -60100919.263771057 0 0 0 0 557566.64705912955 86335.493595677894 0 86335.493595677894 -777757.69916617498 0 0 0 0 -227117710.47393703 -41932993.432858467 0 -41932993.432858467 -35824680.460910797 0 0 0 0 -463982774.38118744 -72874155.235063553 0 -72874155.235063553 227066877.97648621 0 0 0 0 -533983182.81288147 39919851.498210907 0 39919851.498210907 186213016.3456192 0 0 0 0 -531335730.79336929 -227818155.56351852 0 -227818155.56351852 -63551761.393780291 0 0 0 0 -382957292.28874016 -343400626.00570679 0 -343400626.00570679 -222385472.52506256 0 0 0 0 18528970.335567474 36904.552772521973 0 36904.552772521973 -50573338.080657959 0 0 0 0 18870515.80717659 4347612.5098552704 0 4347612.5098552704 -31091201.593887329 0 0 0 0 -15702795.409889221 66988404.364200592 0 66988404.364200592 -94998473.276148319 0 0 0 0 42652258.99041748 18099703.888982773 0 18099703.888982773 -107057088.55920792 0 0 0 0 41835104.976417542 41015204.590065002 0 41015204.590065002 -39476265.496147156 0 0 0 0 5461381.8548717499 -8353688.2647399902 0 -8353688.2647399902 -55848591.406860352 0 0 0 0 4476984.2765825633 -5511133.8004832435 0 -5511133.8004832435 -38316702.03320834 0 0 0 0 71550460.157182693 -59580085.365203857 0 -59580085.365203857 -30701451.714492798 0 0 0 0 -2032294.8090392817 13780121.893516503 0 13780121.893516503 -8642383.3017459624 0 0 0 0 3900225.3783484176 -9110711.8482289519 0 -9110711.8482289519 -9586425.1598807164 0 0 0 0 -214950.85157680511 2847571.1917245388 0 2847571.1917245388 -2084243.234375 0 0 0 0 142682567.44480515 -35257069.523597717 0 -35257069.523597717 -52149340.506912231 0 0 0 0 -1242026.7522954885 5809457.6884209588 0 5809457.6884209588 -14606455.940664548 0 0 0 0 -45481177.548330784 43539802.094513893 0 43539802.094513893 16813494.908630371 0 0 0 0 146472411.37505722 862197673.9736557 0 862197673.9736557 333741845.05984116 0 0 0 0 362851942.86184692 73457521.248298645 0 73457521.248298645 -42902835.34286499 0 0 0 0 159030224.90749931 430483041.8622303 0 430483041.8622303 406026381.16989136 0 0 0 0 410449456.11243916 -112731714.31544781 0 -112731714.31544781 17875594.371246338 0 0 0 0 -983440654.91870117 82376945.259284973 0 82376945.259284973 820956360.2292366 0 0 0 0 21246875.968558788 29969118.051928043 0 29969118.051928043 11126296.377082825 0 0 0 0 -187778075.14276505 -762103187.87519836 0 -762103187.87519836 -2070175119.8650627 0 0 0 0 -1262577520.9930191 740836644.72496796 0 740836644.72496796 -372433085.29610443 0 0 0 0 647727145.62474442 -138937568.68557358 0 -138937568.68557358 -415223632.87703323 0 0 0 0 32079609.511677742 -15927556.734093547 0 -15927556.734093547 -35008985.927036285 0 0 0 0 3869833.9257954345 7423755.9954732247 0 7423755.9954732247 -34676822.736622348 0 0 0 0 -684145112.91455841 -362729071.40462875 0 -362729071.40462875 16278168.21529007 0 0 0 0 -1530474590.1776314 -643439841.80544281 0 -643439841.80544281 300838507.22037125 0 0 0 0 -3867193.2415934149 -731902.08371967077 0 -731902.08371967077 99670.027688229457 0 0 0 0 -357254714.16832161 -762352131.0188961 0 -762352131.0188961 -1498747536.4210434 0 0 0 0 -140264321.33175659 -193365309.52366638 0 -193365309.52366638 -283878372.73264694 0 0 0 0 7612355.8826446533 -30192541.7909832 0 -30192541.7909832 -108241692.37150574 0 0 0 0 7258451.4833297729 -15786496.460605621 0 -15786496.460605621 -3996950.8321809769 0 0 0 0 -544167880.25372744 -323439040.34173203 0 -323439040.34173203 42708147.192436218 0 0 0 0 -674652709.8052597 -547463303.80931473 0 -547463303.80931473 -48558129.495979309 0 0 0 0 -535380226.40329647 -387041139.70017791 0 -387041139.70017791 112196917.28977203 0 0 0 0 -797937806.98865891 -406385160.76133347 0 -406385160.76133347 250449682.23402023 0 0 0 0 -1071393605.1823883 264688921.95177841 0 264688921.95177841 69150240.618261337 0 0 0 0 -1562896800.2057018 -653245567.06184673 0 -653245567.06184673 198578427.75933075 0 0 0 0 -147883314.68449783 -746945597.09784317 0 -746945597.09784317 -273179407.58237553 0 0 0 0 -786695578.84169579 -368818508.27831173 0 -368818508.27831173 365657564.9586792 0 0 0 0 46860957.309357166 2027877.0987175703 0 2027877.0987175703 -31433864.487800598 0 0 0 0 365759059.88331223 -205291951.42285919 0 -205291951.42285919 79876332.235183716 0 0 0 0 17119076.261655807 6043035.3145360947 0 6043035.3145360947 -23458810.835316658 0 0 0 0 940358.19595396332 5341835.7406919058 0 5341835.7406919058 -25780420.130159687 0 0 0 0 45207699.178689957 6537940.6531506255 0 6537940.6531506255 -43710171.292177677 0 0 0 0 45595248.708566666 49087857.159680367 0 49087857.159680367 -19247960.014590263 0 0 0 0 25351236.218866348 28909376.575688913 0 28909376.575688913 -35555999.883881569 0 0 0 0 31095904.706647873 15637454.19690609 0 15637454.19690609 -5072879.2283935547 0 0 0 0 -1909517667.164463 -174345597.50802422 0 -174345597.50802422 97017164.098321915 0 0 0 0 -1014663313.0379791 -623484754.53198242 0 -623484754.53198242 286208320.73968697 0 0 0 0 -750599650.68740845 -313670424.39430618 0 -313670424.39430618 -178363219.73384857 0 0 0 0 2369256.1023363657 -877310.25368786976 0 -877310.25368786976 -2848040.5629255474 0 0 0 0 -673302637.35354614 -551028693.8348465 0 -551028693.8348465 -98554816.394020081 0 0 0 0 -437687.38628047192 2952136.2860552808 0 2952136.2860552808 -2205963.0096138529 0 0 0 0 -1232783252.8313856 -353167965.87728977 0 -353167965.87728977 -431185244.76563263 0 0 0 0 -737059815.42432404 -945236460.31986237 0 -945236460.31986237 -386148812.73707581 0 0 0 0 -1570986254.9230804 -766559374.38918114 0 -766559374.38918114 -2227654.9102478027 0 0 0 0 -11082024.416670799 -3378912.2224574089 0 -3378912.2224574089 -294822711.02880096 0 0 0 0 -5363322.3880337849 9204196.231968224 0 9204196.231968224 -13427595.001923248 0 0 0 0 -1251526040.2613702 -314954537.95990181 0 -314954537.95990181 -209412693.12961578 0 0 0 0 -231095.42664769106 934551.80455858447 0 934551.80455858447 -1960407.9053292647 0 0 0 0 122227728.93976593 -186511466.40297508 0 -186511466.40297508 -619390387.78699112 0 0 0 0 -140566578.15724945 -208207623.99278259 0 -208207623.99278259 -594991450.00214195 0 0 0 0 -1048444567.4091558 415263808.04203045 0 415263808.04203045 -153936404.77732468 0 0 0 0 -182072273.53481674 -914742788.43097115 0 -914742788.43097115 -242203782.75577855 0 0 0 0 61582650.329681635 169743242.01355767 0 169743242.01355767 -1258766.7929763794 0 0 0 0 3005000.5442314148 -70939562.122367859 0 -70939562.122367859 -72443141.042330265 0 0 0 0 42349252.357534409 28858299.693060875 0 28858299.693060875 -38255215.740600586 0 0 0 0 164639789.56591797 230383908.15166092 0 230383908.15166092 -271760449.68151855 0 0 0 0 -442006253.22919083 -207562053.09872627 0 -207562053.09872627 102386960.03876495 0 0 0 0 1880171.5325176641 -1036766.9272138029 0 -1036766.9272138029 -4654190.2242211215 0 0 0 0 -213804704.208992 -311322971.93680573 0 -311322971.93680573 -256148635.66674995 0 0 0 0 -74388348.581230164 112075736.09717631 0 112075736.09717631 -73232651.347661972 0 0 0 0 -94665950.769252777 124747082.73560286 0 124747082.73560286 -81150200.172994614 0 0 0 0 -66436739.660640717 89516020.286818743 0 89516020.286818743 -57918972.476384163 0 0 0 0 5241113.2646007538 44563220.451322317 0 44563220.451322317 -58088840.034090042 0 0 0 0 12954229.866903305 56039103.043446541 0 56039103.043446541 -77129569.661360741 0 0 0 0 -25180432.791992188 98314718.535504818 0 98314718.535504818 -89580410.93287468 0 0 0 0 39181087.413780212 34751869.92986393 0 34751869.92986393 -32188062.914382935 0 0 0 0 87068815.517940521 35836737.541712761 0 35836737.541712761 -98054058.698270798 0 0 0 0 53145946.837356567 38575243.930124283 0 38575243.930124283 -141680125.37104034 0 0 0 0 1930380.4344711304 76905491.563538551 0 76905491.563538551 -134842438.32427835 0 0 0 0 -20878459.008773804 75246747.671628952 0 75246747.671628952 -76416936.148005486 0 0 0 0 -26248568.266222477 118441866.00280416 0 118441866.00280416 -166395836.75011063 0 0 0 0 -18229423.413803101 76300375.43778801 0 76300375.43778801 -281491320.70211411 0 0 0 0 -17507393.958934784 49419308.709382534 0 49419308.709382534 -161605015.20335388 0 0 0 0 -26574443.686728477 48075789.311051846 0 48075789.311051846 -372521971.01918221 0 0 0 0 -125680998.66133499 209421663.59450102 0 209421663.59450102 -228591298.83575392 0 0 0 0 -3900054.242154059 5173895.7282006983 0 5173895.7282006983 -7059561.9870439488 0 0 0 0 -198825691.89433861 111579070.92890549 0 111579070.92890549 2667486.6758489609 0 0 0 0 -131273775.36917114 -494463747.33482361 0 -494463747.33482361 -642836831.71011353 0 0 0 0 198132906.97440815 -475397976.14960957 0 -475397976.14960957 -666865597.54753113 0 0 0 0 -33412122.505023956 2203919.29170084 0 2203919.29170084 -1186427.8080171645 0 0 0 0 48683441.295336246 27134209.043495566 0 27134209.043495566 -47860823.341734886 0 0 0 0 -101294666.49843407 112048491.45334232 0 112048491.45334232 -65565619.287559152 0 0 0 0 -94610560.754255444 113868479.61966927 0 113868479.61966927 -65301761.623773575 0 0 0 0 -114458975.40539956 47755921.070856273 0 47755921.070856273 -4325801.5871353149 0 0 0 0 -92160379.490259171 104407028.23308158 0 104407028.23308158 -61204896.061845303 0 0 0 0 -54035409.522533417 79527787.962208748 0 79527787.962208748 -54125365.825566292 0 0 0 0 -12121367.442611694 35330275.529715821 0 35330275.529715821 -57774316.389595047 0 0 0 0 2896327.6712799072 8994946.0228015184 0 8994946.0228015184 -27755841.119346872 0 0 0 0 -26161039.589921951 18314912.622376919 0 18314912.622376919 -38906922.578656435 0 0 0 0 17166642.342216492 9120336.6162853241 0 9120336.6162853241 -69924214.224228382 0 0 0 0 -39955493.910526276 18006023.531664848 0 18006023.531664848 -71344617.655221462 0 0 0 0 -35699348.274487019 56184940.819691136 0 56184940.819691136 -114357675.21252871 0 0 0 0 -30125738.472118378 12171498.166956425 0 12171498.166956425 -187037928.95547366 0 0 0 0 -126394118.02560425 126195649.00682282 0 126195649.00682282 -53403645.092124641 0 0 0 0 -74991234.11964798 128099504.0323872 0 128099504.0323872 -165673940.15839529 0 0 0 0 -55476588.556152344 92417855.448640108 0 92417855.448640108 -68993216.463754177 0 0 0 0 -13416749.339786768 39950466.355579302 0 39950466.355579302 -57972516.914339066 0 0 0 0 -12714832.296562195 48755056.798847318 0 48755056.798847318 -54522175.579195976 0 0 0 0 -61995871.791465759 65037049.260126591 0 65037049.260126591 -55438348.699235678 0 0 0 0 -106601309.87490463 68725420.36226511 0 68725420.36226511 -25331312.267192245 0 0 0 0 70940968.83493042 48405645.719960213 0 48405645.719960213 -462667757.53182268 0 0 0 0 -1906565.3879684489 -1660960.8311213772 0 -1660960.8311213772 73755.424112706911 0 0 0 0 83555.149363018572 -241916.76709929074 0 -241916.76709929074 -5391454.2588867005 0 0 0 0 -434260840.46811676 140417804.07517147 0 140417804.07517147 -218978612.57432342 0 0 0 0 -47952702.442562103 31425072.613788724 0 31425072.613788724 -1952586.5727052689 0 0 0 0 -222390971.0195359 106014257.84861887 0 106014257.84861887 272220548.26895523 0 0 0 0 -239088406.65286016 262742315.90749103 0 262742315.90749103 -86827647.598089218 0 0 0 0 -109128947.07076168 -55142015.564235449 0 -55142015.564235449 248526137.34536362 0 0 0 0 -176922032.49232101 70446044.78631258 0 70446044.78631258 21226211.399654388 0 0 0 0 -59142932.57510376 -63773997.725221634 0 -63773997.725221634 100513967.42658043 0 0 0 0 -52851510.1049366 -146753609.72592545 0 -146753609.72592545 57994754.570457458 0 0 0 0 -74865857.587997437 -149741330.11166 0 -149741330.11166 129661434.41426277 0 0 0 0 -31162702.480930328 -121719622.4033165 0 -121719622.4033165 -15591835.292577744 0 0 0 0 237902179.70561218 292072352.16388702 0 292072352.16388702 -926178381.12400246 0 0 0 0 -684305.6512115784 -1586819.8005325049 0 -1586819.8005325049 -1575016.5367266247 0 0 0 0 -726224995.11094666 413463857.2152338 0 413463857.2152338 29872728.23783493 0 0 0 0 -13607410.480812073 -52641686.047876358 0 -52641686.047876358 -44418332.236825943 0 0 0 0 -83979210.603046417 -19422219.712058067 0 -19422219.712058067 22310927.53925705 0 0 0 0 10244274.045467377 -11690559.0998106 0 -11690559.0998106 22667314.8748703 0 0 0 0 662065.19179128204 1434080.1826284812 0 1434080.1826284812 -11158086.85743602 0 0 0 0 15659987.431962967 -5469653.1580753326 0 -5469653.1580753326 -26347461.756637573 0 0 0 0 98175910.53187561 63369942.663045883 0 63369942.663045883 17860108.495199203 0 0 0 0 -2375865.4474773407 -20750452.354802132 0 -20750452.354802132 -39276075.082794189 0 0 0 0 -10750386.06637764 5046233.8882069588 0 5046233.8882069588 -87567790.179655552 0 0 0 0 -2960073.4550863896 -2330565.511719658 0 -2330565.511719658 -2600798.6389266732 0 0 0 0 -199193830.69976473 325684479.18113899 0 325684479.18113899 193635067.58374882 0 0 0 0 292312265.09112549 -186987416.30314064 0 -186987416.30314064 -299176724.45690131 0 0 0 0 200818229.73650932 108088208.72307873 0 108088208.72307873 -334468787.50248146 0 0 0 0 123792662.20021248 -122591065.34498596 0 -122591065.34498596 21167719.271144867 0 0 0 0 85211707.083641052 4745963.6343173981 0 4745963.6343173981 -43140877.924604416 0 0 0 0 211952306.3459115 37027904.534614801 0 37027904.534614801 -40498599.064208984 0 0 0 0 21369122.295017242 1112337.1103725433 0 1112337.1103725433 -56763369.643665314 0 0 0 0 19708758.793655396 -1342503.0967912674 0 -1342503.0967912674 -60061299.992258072 0 0 0 0 7167859.78115121 1363020.1439368874 0 1363020.1439368874 -13177336.892340727 0 0 0 0 6653437.9192352295 -6349214.1347007751 0 -6349214.1347007751 -54997807.486217499 0 0 0 0 -7908506.3266973495 12092706.51034832 0 12092706.51034832 -46185317.479930878 0 0 0 0 19694852.195472717 1259836.8429908752 0 1259836.8429908752 -50260636.814627171 0 0 0 0 12078574.850233078 -12578863.292789459 0 -12578863.292789459 -29300756.920666695 0 0 0 0 16711472.768083572 5037522.5011129379 0 5037522.5011129379 -42244893.004955292 0 0 0 0 -42362985.825054169 -114960173.66985893 0 -114960173.66985893 68286941.43860364 0 0 0 0 -141324682.91646385 574402243.91061783 0 574402243.91061783 -18002803.258247375 0 0 0 0 521978601.78307343 -229624562.02733612 0 -229624562.02733612 -765424774.33275223 0 0 0 0 -269093929.60141754 -219267924.98959732 0 -219267924.98959732 244506460.52167797 0 0 0 0 2235117.1084856912 18401.354281645268 0 18401.354281645268 -3647581.0729711307 0 0 0 0 45403903.816112518 55820152.213478088 0 55820152.213478088 -60664499.697568893 0 0 0 0 171024965.68751144 42686872.588375092 0 42686872.588375092 -100561707.34836578 0 0 0 0 42520076.536338806 -22829890.177560806 0 -22829890.177560806 -116777090.77225733 0 0 0 0 240907678.73236179 -98850081.556520939 0 -98850081.556520939 -246462710.37139511 0 0 0 0 -49258940.688163757 -188342219.72382545 0 -188342219.72382545 -171329181.2759552 0 0 0 0 -40797028.123847961 -87221665.475152969 0 -87221665.475152969 -31673560.445176125 0 0 0 0 77400215.267944336 -73422189.639375687 0 -73422189.639375687 -69608805.640890121 0 0 0 0 10687229.32383728 -25043290.924712181 0 -25043290.924712181 -46574921.412067413 0 0 0 0 37647755.327629089 -12882555.651218414 0 -12882555.651218414 -44279026.904747009 0 0 0 0 -3676311.2520084381 -22281471.372704506 0 -22281471.372704506 -18548010.196689606 0 0 0 0 288823.53388595581 -11207274.197486877 0 -11207274.197486877 -8509264.9497509003 0 0 0 0 -19734576.002008438 -3631554.5022745132 0 -3631554.5022745132 -579393.89711761475 0 0 0 0 -6117611.9025945663 -27162618.492898703 0 -27162618.492898703 23574243.728271484 0 0 0 0 -1910136.128944397 155075.5685377121 0 155075.5685377121 -9517007.4403553009 0 0 0 0 278431.62578105927 -2738540.4200282097 0 -2738540.4200282097 -14925568.574569702 0 0 0 0 6707581.7544174194 21270.941339492798 0 21270.941339492798 -14860711.125284195 0 0 0 0 1210734.0393910408 7111300.634308815 0 7111300.634308815 -21083619.30298996 0 0 0 0 11878805.635925293 9289658.1825752258 0 9289658.1825752258 -29169759.973536134 0 0 0 0 203818509.64690399 46648987.755565643 0 46648987.755565643 -110506861.17043304 0 0 0 0 1263818.0851745605 6229865.3885440826 0 6229865.3885440826 -10281005.912431002 0 0 0 0 1061067.83259679 10795870.283858461 0 10795870.283858461 -37781857.105885573 0 0 0 0 -48377280.487991333 -38339731.169067383 0 -38339731.169067383 133366008.44412994 0 0 0 0 -10893408.948158264 -37908877.937225342 0 -37908877.937225342 -88971865.383422852 0 0 0 0 5284283.2227325439 -556958.12666320801 0 -556958.12666320801 -10375292.59854126 0 0 0 0 -29109161.064538956 -104211774.32175589 0 -104211774.32175589 -96378892.422309875 0 0 0 0 33392712.354858398 40526804.472503662 0 40526804.472503662 -103277711.53859234 0 0 0 0 73063299.468284607 126770887.9306488 0 126770887.9306488 81969552.573253632 0 0 0 0 34571403.047714233 56215096.083152771 0 56215096.083152771 -41253321.226501465 0 0 0 0 17843068.235580444 28920773.563583374 0 28920773.563583374 -64926583.074272156 0 0 0 0 14954352.727985382 3207465.4420642853 0 3207465.4420642853 -26791047.025056839 0 0 0 0 13766841.431434631 1009090.6630020142 0 1009090.6630020142 -25874383.629084587 0 0 0 0 6969308.2938423157 -1940884.5821247101 0 -1940884.5821247101 -23492268.162708282 0 0 0 0 17518703.322898865 -787868.75441360474 0 -787868.75441360474 -27607642.227596283 0 0 0 0 12900334.397663116 -4584275.5998744965 0 -4584275.5998744965 -24415000.77293396 0 0 0 0 19788256.735496521 -5487005.23396492 0 -5487005.23396492 -29472132.097476959 0 0 0 0 1211855.8394411532 292387.24159093574 0 292387.24159093574 -37713102.366799727 0 0 0 0 53376116.896708965 -36963728.749854088 0 -36963728.749854088 2495387.4091873169 0 0 0 0 653683.54713413864 74186.068654097151 0 74186.068654097151 -884163.93641985953 0 0 0 0 45234679.181427002 -131985358.91005898 0 -131985358.91005898 -119963335.94846725 0 0 0 0 24669014.923114777 -76155918.882223129 0 -76155918.882223129 -108549636.95915413 0 0 0 0 17678349.966453552 -13838753.42316246 0 -13838753.42316246 -29442195.270512581 0 0 0 0 17598672.720066071 -10636758.467245102 0 -10636758.467245102 -32056377.474130839 0 0 0 0 13969731.921173096 -7864006.364233017 0 -7864006.364233017 -24348589.655310273 0 0 0 0 6234364.9602203369 -14735042.603556633 0 -14735042.603556633 -29191516.037181854 0 0 0 0 15676930.040805817 -8797676.2662963867 0 -8797676.2662963867 -32006472.388645172 0 0 0 0 -1594740.2554807663 1897970.3172101974 0 1897970.3172101974 -22522069.160049438 0 0 0 0 2530179.8498024251 -1964239.3677938608 0 -1964239.3677938608 -38273735.602690428 0 0 0 0 27814874.1543293 -13954072.675127268 0 -13954072.675127268 -37163052.422351837 0 0 0 0 16759746.687236786 -4209915.9543838501 0 -4209915.9543838501 -36279818.343812943 0 0 0 0 977521.08948668465 93729.490195513703 0 93729.490195513703 -1421419.7002663128 0 0 0 0 -31448730.214840174 34917355.177381158 0 34917355.177381158 -29502495.855895996 0 0 0 0 -138440717.13901138 84788816.241256714 0 84788816.241256714 8468397.7448387146 0 0 0 0 -38500616.272248983 -38355034.766057968 0 -38355034.766057968 41686845.116668701 0 0 0 0 18731767.909404755 18423268.005226135 0 18423268.005226135 -9290113.0069732666 0 0 0 0 -101893243.69666672 43538274.413452148 0 43538274.413452148 59865260.195241928 0 0 0 0 -132164034.41189194 -53556055.673427582 0 -53556055.673427582 -126749790.16791534 0 0 0 0 -194179344.00995255 -36373416.854230881 0 -36373416.854230881 -90695865.495132446 0 0 0 0 -111532201.76052856 69086843.610004425 0 69086843.610004425 -8789168.1137781143 0 0 0 0 -119249543.15442085 91396140.5280056 0 91396140.5280056 -18488824.350704193 0 0 0 0 -117445850.63989258 42849398.311441422 0 42849398.311441422 -40548800.791145325 0 0 0 0 -83665366.323770523 70206882.261411667 0 70206882.261411667 -55644241.567077637 0 0 0 0 51501096.498958588 34247134.093616486 0 34247134.093616486 -48376789.97453928 0 0 0 0 -170812260.75568771 113429624.62313843 0 113429624.62313843 -23731869.319538116 0 0 0 0 -177349640.17333221 190171473.45546722 0 190171473.45546722 -166501129.63256836 0 0 0 0 -340724203.22716141 -125768713.8928566 0 -125768713.8928566 -192115534.70712018 0 0 0 0 -15491443.30945015 80155936.042289734 0 80155936.042289734 -114998021.23834229 0 0 0 0 -45567347.304221153 64332550.294610977 0 64332550.294610977 15789246.154258728 0 0 0 0 35498100.385097504 -63544696.523756027 0 -63544696.523756027 -135809345.15026855 0 0 0 0 11343468.681453705 38142595.716879368 0 38142595.716879368 -47237646.954162598 0 0 0 0 -117975314.06604385 -75590759.523563385 0 -75590759.523563385 -124940517.01051331 0 0 0 0 -89150066.8573246 38902059.233665466 0 38902059.233665466 -8835386.0621643066 0 0 0 0 -143390730.24085426 73380747.882465363 0 73380747.882465363 -57048044.637588501 0 0 0 0 -178684678.60232544 64089959.869857788 0 64089959.869857788 -5620116.5108942986 0 0 0 0 -196303631.89746475 -154196308.94372368 0 -154196308.94372368 -274856169.8787384 0 0 0 0 -452973118.28207397 43706628.929180145 0 43706628.929180145 -59599115.628322601 0 0 0 0 -39816971.239547729 43035051.015571594 0 43035051.015571594 -329473806.80611992 0 0 0 0 -50342727.897148132 43583707.191913605 0 43583707.191913605 -123209212.10459137 0 0 0 0 -58454894.549545288 -24621248.211894989 0 -24621248.211894989 -157038808.23092842 0 0 0 0 -36400790.119749069 -63786209.039038658 0 -63786209.039038658 -171252401.02600861 0 0 0 0 -17274738.979568481 -27357323.544708252 0 -27357323.544708252 -102428295.48161697 0 0 0 0 -18555952.757087708 54500386.641105652 0 54500386.641105652 -156848908.71914387 0 0 0 0 1070964.5598926544 29752027.545894623 0 29752027.545894623 -127045852.12007141 0 0 0 0 -20269900.101196289 84368561.57692337 0 84368561.57692337 -87219249.936824799 0 0 0 0 4783952.7379226685 58292075.258022308 0 58292075.258022308 -67734576.789985657 0 0 0 0 -81946840.099960327 97632389.367698669 0 97632389.367698669 -57682661.473478317 0 0 0 0 -23052626.348684311 71437350.520853043 0 71437350.520853043 -142834180.89811707 0 0 0 0 -635140.14727831259 2990376.2555119917 0 2990376.2555119917 -1432566.8066642769 0 0 0 0 -353456093.76984406 -133748358.77338028 0 -133748358.77338028 -77251597.99016571 0 0 0 0 -130959090.80189514 125938306.97224045 0 125938306.97224045 -143119798.40007019 0 0 0 0 -114466.08482588828 504749.4655573573 0 504749.4655573573 -1337703.328738343 0 0 0 0 -99652514.372012138 51767015.456832886 0 51767015.456832886 -4739346.2261199951 0 0 0 0 -182105529.72283173 131396881.24822235 0 131396881.24822235 216341603.56120682 0 0 0 0 -10645020.677619934 -240738728.45802212 0 -240738728.45802212 -557048211.44665527 0 0 0 0 9866690.0626754761 2620422.4384174347 0 2620422.4384174347 -14841385.804815292 0 0 0 0 727482.57549086446 1968843.3432606468 0 1968843.3432606468 -10918789.780322967 0 0 0 0 3244173.745300293 31535437.922985077 0 31535437.922985077 -34765133.022262573 0 0 0 0 182319.89579979889 6534327.2119809836 0 6534327.2119809836 -9477835.540445067 0 0 0 0 -22234800.606132507 53500906.827092171 0 53500906.827092171 -38261794.278678894 0 0 0 0 -49395255.149597168 16831194.309597015 0 16831194.309597015 -3849603.3351125717 0 0 0 0 -1016806.7425600421 5481324.4265202442 0 5481324.4265202442 -4690287.3970854077 0 0 0 0 -22478934.967086792 53879452.002639771 0 53879452.002639771 -37685631.302993774 0 0 0 0 -142329.85800518468 -1568736.4440987715 0 -1568736.4440987715 -1960765.5709263049 0 0 0 0 121581553.93839169 -167788867.9446907 0 -167788867.9446907 36898650.676841736 0 0 0 0 32374292.898477554 -139819236.68052769 0 -139819236.68052769 151017945.83517075 0 0 0 0 -10335899.610448837 122487592.11546707 0 122487592.11546707 -18914294.473926544 0 0 0 0 95382329.606689453 -90193452.892539978 0 -90193452.892539978 -300767918.03800583 0 0 0 0 -307262144.70735264 -158408568.90519953 0 -158408568.90519953 171129095.66387177 0 0 0 0 41275.325516471639 -720135.48313474562 0 -720135.48313474562 -983093.36134574376 0 0 0 0 118286377.53171158 -18308239.50582695 0 -18308239.50582695 -214591986.13020325 0 0 0 0 52334548.329349518 86760018.915357113 0 86760018.915357113 -209889149.30865479 0 0 0 0 -1842725.5447349548 -52257549.877063751 0 -52257549.877063751 -88363783.666183472 0 0 0 0 84806513.712921143 -4423753.9277648926 0 -4423753.9277648926 -190882710.13955498 0 0 0 0 -2533842.7809053063 -83121705.369853616 0 -83121705.369853616 -51138164.350364685 0 0 0 0 -112118998.64780426 -261531471.63117218 0 -261531471.63117218 -249262133.85472584 0 0 0 0 -127955101.06401443 -61924995.847644806 0 -61924995.847644806 -9575163.8257751465 0 0 0 0 -36399758.792985916 -19250967.827816963 0 -19250967.827816963 -11186751.551399231 0 0 0 0 -28336506.792831421 542678.0882062912 0 542678.0882062912 6946879.4164047241 0 0 0 0 -20291077.046361923 -7798131.7932796478 0 -7798131.7932796478 -13050101.90512085 0 0 0 0 -17091093.127643585 -4511191.1896934509 0 -4511191.1896934509 -57275595.255403519 0 0 0 0 6066865.9570121765 -4920548.363743782 0 -4920548.363743782 -10603488.788186073 0 0 0 0 -5816469.936402929 -5531314.7746633189 0 -5531314.7746633189 -12621264.955708802 0 0 0 0 5134552.8081045151 -3065251.0462064743 0 -3065251.0462064743 -13086860.974506378 0 0 0 0 1689086.083206892 4551823.674844861 0 4551823.674844861 -14933964.965854645 0 0 0 0 2012216.4456198215 1817595.6520135403 0 1817595.6520135403 -5192904.6485099792 0 0 0 0 -393022.46325876052 3855408.6730179293 0 3855408.6730179293 -11648636.608039755 0 0 0 0 77124581.489742279 46353682.73402977 0 46353682.73402977 4194023.4483795166 0 0 0 0 -462225589.04074478 -159161277.55786705 0 -159161277.55786705 309629592.95212555 0 0 0 0 -70220989.97743988 92931879.014656067 0 92931879.014656067 146548111.40561295 0 0 0 0 -30898619.440525055 7273275.862783432 0 7273275.862783432 -5752827.6044082642 0 0 0 0 -7565083.3917388916 7229274.9086990356 0 7229274.9086990356 -4936924.6080021858 0 0 0 0 -7635083.0333900452 1225213.2017202377 0 1225213.2017202377 -4818320.9454689026 0 0 0 0 -9348758.0166313648 -11453941.599851429 0 -11453941.599851429 9151139.8589458466 0 0 0 0 -52866312.531105042 -14575067.564673424 0 -14575067.564673424 -4410983.0782794952 0 0 0 0 867187.43922805786 -4032275.0277252197 0 -4032275.0277252197 -4661508.4434432983 0 0 0 0 -4931274.2739874274 -1738186.4902655282 0 -1738186.4902655282 -11316557.147658279 0 0 0 0 3493376.975566864 -6108200.8066689074 0 -6108200.8066689074 -15865817.940564632 0 0 0 0 8405406.9409828186 2504679.9636039734 0 2504679.9636039734 -9486976.1967720985 0 0 0 0 5291956.4469718933 -11000260.649222612 0 -11000260.649222612 -12826102.396320343 0 0 0 0 3354864.6237678528 -6811151.851888299 0 -6811151.851888299 -5052308.4212207198 0 0 0 0 -2582138.2821489628 -958703.1464796525 0 -958703.1464796525 -12490039.172853867 0 0 0 0 -2364395.5738887028 -6367620.6113202712 0 -6367620.6113202712 -5682492.3890186334 0 0 0 0 5054253.0067844391 -7772811.4254237264 0 -7772811.4254237264 -4635826.5761421621 0 0 0 0 1508402.3136694729 -36194045.872118443 0 -36194045.872118443 -2961944.6311779022 0 0 0 0 513336.37860107422 -45295268.814098358 0 -45295268.814098358 9690895.7710008621 0 0 0 0 29716697.595588684 -3407183.8993453979 0 -3407183.8993453979 -29174322.368445396 0 0 0 0 -41007857.97533226 -47927541.972110271 0 -47927541.972110271 -16655671.058873177 0 0 0 0 33679365.257606506 -10878684.343573093 0 -10878684.343573093 -15205419.356105804 0 0 0 0 -31384143.234796524 -19971015.755596638 0 -19971015.755596638 12287859.776685715 0 0 0 0 18626331.5729599 -33693135.40735817 0 -33693135.40735817 -97485494.041740417 0 0 0 0 1036365.7127364175 -1784633.9135801787 0 -1784633.9135801787 -1334242.7207386438 0 0 0 0 -92922952.643706322 -42974236.741304874 0 -42974236.741304874 -5908077.0299339294 0 0 0 0 2008700.7084999084 -20838374.260267258 0 -20838374.260267258 -28360952.869441986 0 0 0 0 -69595130.528022766 18687433.090865135 0 18687433.090865135 -6085328.3418502808 0 0 0 0 -45819569.61059761 -41219626.6536026 0 -41219626.6536026 5139524.1260719299 0 0 0 0 -50126091.093173981 -92820557.740442276 0 -92820557.740442276 -113274485.09738922 0 0 0 0 -9848910.4486961402 -12734483.087969743 0 -12734483.087969743 -21106700.159050692 0 0 0 0 2114979.9950046539 11602073.083005905 0 11602073.083005905 24679013.150109291 0 0 0 0 26207559.763156891 50276649.859929085 0 50276649.859929085 -56849575.281890869 0 0 0 0 20591054.802686691 -18299409.797843933 0 -18299409.797843933 -87922520.847244263 0 0 0 0 -5557976.4119749311 -12851565.943748999 0 -12851565.943748999 -35228995.886650167 0 0 0 0 12692786.511730194 -40923790.553394318 0 -40923790.553394318 -35633481.96736145 0 0 0 0 9981560.666601181 -26237154.083526611 0 -26237154.083526611 -85750622.208503723 0 0 0 0 37766840.114788055 -42546064.241043091 0 -42546064.241043091 -112715466.28835297 0 0 0 0 7732467.134880133 3758540.0059968065 0 3758540.0059968065 -49379574.926772594 0 0 0 0 31370489.770064354 -32254628.552488327 0 -32254628.552488327 -84702547.078765869 0 0 0 0 27154202.002415657 -18225451.347477913 0 -18225451.347477913 -90866793.072341919 0 0 0 0 20729567.123476028 3364042.3002996445 0 3364042.3002996445 -29777828.096063614 0 0 0 0 153686019.22730827 53713044.250320435 0 53713044.250320435 -87802484.18731308 0 0 0 0 2338188.367899402 9338959.4377699699 0 9338959.4377699699 -39817979.666914657 0 0 0 0 18719785.494358063 6989240.990029335 0 6989240.990029335 -29286211.4603827 0 0 0 0 119841704.10526538 15176893.065252066 0 15176893.065252066 -89151500.058609009 0 0 0 0 117268865.52005911 72011111.950140834 0 72011111.950140834 -84727632.662567139 0 0 0 0 52054372.393569946 56760137.283203125 0 56760137.283203125 -81779701.040267944 0 0 0 0 25386336.936035156 72430022.103393555 0 72430022.103393555 -80565689.205101013 0 0 0 0 5156819.4108047485 44653450.576414108 0 44653450.576414108 -76468540.57699585 0 0 0 0 56319260.285858154 59582708.053512573 0 59582708.053512573 -94413535.682868958 0 0 0 0 89561028.277498722 2809379.5203359127 0 2809379.5203359127 -62646544.720550537 0 0 0 0 53790915.945785522 46447740.061248779 0 46447740.061248779 -72014467.349197388 0 0 0 0 82747600.701393127 58499167.264083862 0 58499167.264083862 -87247140.48154068 0 0 0 0 42683833.691452026 52670410.829269409 0 52670410.829269409 -72547010.287872314 0 0 0 0 72050795.20426178 36552191.43535614 0 36552191.43535614 -78674354.424804688 0 0 0 0 4540570.8639602661 -10861358.363245845 0 -10861358.363245845 -12977369.685136914 0 0 0 0 28371728.564361572 24502462.871391296 0 24502462.871391296 -56628707.72227478 0 0 0 0 -3081365.5525064357 -3165244.7288134284 0 -3165244.7288134284 -37908139.11739485 0 0 0 0 32178952.841171265 36042477.227466583 0 36042477.227466583 -72923503.08713913 0 0 0 0 3096366.0563870668 26698459.878557056 0 26698459.878557056 -56287083.395633698 0 0 0 0 9750553.3424530029 65293474.323669434 0 65293474.323669434 -66450212.461088181 0 0 0 0 11186146.358757019 50312345.269340515 0 50312345.269340515 -64153291.370380402 0 0 0 0 3617451.7675476074 -9426785.1883802414 0 -9426785.1883802414 -12667766.473901749 0 0 0 0 -28638550.512054443 -2840787.8470458984 0 -2840787.8470458984 -92238368.351238251 0 0 0 0 -2604230.0132979546 -6876861.7999198809 0 -6876861.7999198809 -8425745.5171917398 0 0 0 0 35837100.532836914 13425078.177696228 0 13425078.177696228 -23482212.923522949 0 0 0 0 -2304829.7102475688 4303134.1700844271 0 4303134.1700844271 -36464660.577892967 0 0 0 0 1478751.6240320802 -126288.93179152068 0 -126288.93179152068 -5208682.8470356651 0 0 0 0 -7201323.3231811523 47022105.856903076 0 47022105.856903076 -8420466.445930481 0 0 0 0 8842139.4846151937 -4200290.4795157639 0 -4200290.4795157639 -45172757.44802165 0 0 0 0 10254203.717704773 -479961.62634468079 0 -479961.62634468079 -8351855.3052368164 0 0 0 0 5734905.292993769 95376.376502900384 0 95376.376502900384 -30614099.869919982 0 0 0 0 68377030.376918316 236108456.51540279 0 236108456.51540279 -129530132.40474701 0 0 0 0 -444464762.84756279 9821562.6069869995 0 9821562.6069869995 -80937611.742723465 0 0 0 0 -63264921.801243782 85951171.494888306 0 85951171.494888306 -218053461.58960724 0 0 0 0 108556863.02357864 -92929853.355445862 0 -92929853.355445862 -68219531.740083694 0 0 0 0 -320237.66703186091 597038.01841763593 0 597038.01841763593 -100351.8196791485 0 0 0 0 -518230876.28484058 52493502.609334946 0 52493502.609334946 29631494.774017334 0 0 0 0 25466710.282403469 -24532774.720769882 0 -24532774.720769882 -137728517.36138153 0 0 0 0 -233659279.229702 300413473.98769379 0 300413473.98769379 -23091345.318386078 0 0 0 0 -80717445.301143646 141495350.85245657 0 141495350.85245657 -119899030.31217575 0 0 0 0 -665571.99852334731 1265599.552465586 0 1265599.552465586 -232463.86639266834 0 0 0 0 -170805737.71273804 95827220.475292206 0 95827220.475292206 34997777.914645195 0 0 0 0 43996519.140759468 25638416.705094337 0 25638416.705094337 -48617583.495887756 0 0 0 0 -164255692.80037498 -117402203.73881531 0 -117402203.73881531 -56195794.00814867 0 0 0 0 -230965580.38232803 -234594651.98776054 0 -234594651.98776054 -106608766.52882767 0 0 0 0 -643923642.86732864 -369656230.77402306 0 -369656230.77402306 -148958535.5633831 0 0 0 0 -729789127.65990353 71404149.916282654 0 71404149.916282654 -123255695.29469776 0 0 0 0 -267841536.68471718 -215069777.6362648 0 -215069777.6362648 -74082679.188951015 0 0 0 0 -233660370.88339996 -153142149.04076385 0 -153142149.04076385 -38844414.808455467 0 0 0 0 25588294.757232666 10868622.542715073 0 10868622.542715073 -118476481.18954849 0 0 0 0 24539.585653550923 -728842.85835783556 0 -728842.85835783556 -995698.72906272858 0 0 0 0 -372218717.57585025 -66530452.881994247 0 -66530452.881994247 230698445.7142868 0 0 0 0 -294066976.24626827 -368010802.65145588 0 -368010802.65145588 -267968750.91685867 0 0 0 0 -426843262.58797169 -343393944.01837921 0 -343393944.01837921 -111572220.71305561 0 0 0 0 -157498878.83880711 -80737766.312132835 0 -80737766.312132835 -264449418.81450272 0 0 0 0 -447886270.51115036 -251862073.99472046 0 -251862073.99472046 -176273562.52322292 0 0 0 0 -396859821.53186989 -347715688.31201363 0 -347715688.31201363 -160543433.13599777 0 0 0 0 4224355.5638580322 -262109964.94211006 0 -262109964.94211006 -445812042.2504406 0 0 0 0 -403370313.38528633 -412089324.34840989 0 -412089324.34840989 -224907482.02745438 0 0 0 0 -241171010.82127762 -127911340.33588219 0 -127911340.33588219 -309495805.23367625 0 0 0 0 -230186160.36978245 -169459228.71926308 0 -169459228.71926308 -199859983.38473511 0 0 0 0 -9379217.9376449585 -34222294.331693649 0 -34222294.331693649 -222298476.5649004 0 0 0 0 6294191.6049690247 -114632765.36008263 0 -114632765.36008263 83639371.866481781 0 0 0 0 -36421310.525575638 29882135.027606964 0 29882135.027606964 -48921508.068000793 0 0 0 0 32838830.000734329 -146003552.55610466 0 -146003552.55610466 173750850.23253632 0 0 0 0 -187334.80805544555 -1568921.2283068486 0 -1568921.2283068486 -1945431.3753567021 0 0 0 0 59575727.394627571 -170778648.31760406 0 -170778648.31760406 -169812377.05754852 0 0 0 0 -20178114.129055023 83777222.294254303 0 83777222.294254303 -61508886.751684189 0 0 0 0 19634339.837968826 8259577.3864459991 0 8259577.3864459991 -235276291.08074188 0 0 0 0 -1838882.0284811785 -477490.450396006 0 -477490.450396006 -638100.37762114406 0 0 0 0 -53392907.227312088 62432785.421691895 0 62432785.421691895 -57035339.339073181 0 0 0 0 -5028484.8768310547 -22672728.982608795 0 -22672728.982608795 -8796158.3343677521 0 0 0 0 17805744.801317215 -10769825.009515762 0 -10769825.009515762 -20115680.555713654 0 0 0 0 -5059735.5835180897 -3471183.5731912982 0 -3471183.5731912982 -3004087.5958418995 0 0 0 0 -24602044.058660507 -20161917.456148148 0 -20161917.456148148 -15423519.19355011 0 0 0 0 -4553094.0552237239 -628975.55496780481 0 -628975.55496780481 3990786.4604097009 0 0 0 0 -51802524.958499432 -1977149.918243885 0 -1977149.918243885 11825568.49420929 0 0 0 0 -78585242.58322382 -96474372.659763336 0 -96474372.659763336 -150769442.59672928 0 0 0 0 -49935922.596822739 -14599069.035011292 0 -14599069.035011292 -16266348.49634552 0 0 0 0 -45094279.148481369 -29848963.03440094 0 -29848963.03440094 -67710112.061603546 0 0 0 0 -43989518.455493927 -17760142.534973145 0 -17760142.534973145 7221051.3531265259 0 0 0 0 -57229370.684214592 -8235060.1311798096 0 -8235060.1311798096 1095196.7503662109 0 0 0 0 -49275739.549009323 -13397366.59340477 0 -13397366.59340477 24437877.380432129 0 0 0 0 -41099127.48345089 -24373137.006780624 0 -24373137.006780624 -50333332.559864044 0 0 0 0 -59419459.005655289 1892319.2795810699 0 1892319.2795810699 -47818260.282783747 0 0 0 0 -18461709.441047668 8203653.1726989746 0 8203653.1726989746 -149662373.48457718 0 0 0 0 -131432597.57853127 -40471533.194480896 0 -40471533.194480896 -135573942.28399277 0 0 0 0 12490434.763278484 30724616.023162842 0 30724616.023162842 -149534545.93972015 0 0 0 0 -43726704.151567459 22069962.887557983 0 22069962.887557983 -141598621.86045074 0 0 0 0 -108633880.98785305 -3884307.8184623718 0 -3884307.8184623718 -55735244.519458771 0 0 0 0 -85872055.461350203 -81869627.029791355 0 -81869627.029791355 -235930208.16451263 0 0 0 0 -328400057.14973092 -446864924.37458229 0 -446864924.37458229 -398377808.80934525 0 0 0 0 -480921.17040189687 -862568.43748072325 0 -862568.43748072325 -1457134.1260765791 0 0 0 0 203940867.4925251 70899719.504835129 0 70899719.504835129 -298511214.72701073 0 0 0 0 -2126596141.6857929 -218293288.0902307 0 -218293288.0902307 -93063727.658836365 0 0 0 0 43159262.992090225 -191129494.47031784 0 -191129494.47031784 -530911454.26503563 0 0 0 0 23801627.324943542 -85951589.483233452 0 -85951589.483233452 3212690.4138450623 0 0 0 0 -83493318.487007141 -7342560.6474552155 0 -7342560.6474552155 17536252.779792786 0 0 0 0 134923071.46892071 -34274988.778131485 0 -34274988.778131485 -14575048.945479393 0 0 0 0 -1078889.6881496133 -3118894.2316229604 0 -3118894.2316229604 -4604835.8979791477 0 0 0 0 -2091036306.1700211 472343198.27040386 0 472343198.27040386 251093007.33357239 0 0 0 0 -502735932.39501572 449046092.68793488 0 449046092.68793488 -522632358.93959045 0 0 0 0 -744214689.61705685 79358586.606212616 0 79358586.606212616 -323673865.73558235 0 0 0 0 -1199323888.0945225 -200242477.21415329 0 -200242477.21415329 -67749016.106239319 0 0 0 0 -362337553.54556084 17763654.910682678 0 17763654.910682678 -132580191.84950256 0 0 0 0 -515269068.55974388 -557651453.78747177 0 -557651453.78747177 347074758.48025894 0 0 0 0 -401972039.38930368 22429952.999544144 0 22429952.999544144 544360194.90213776 0 0 0 0 166502251.05578613 -187431766.34621048 0 -187431766.34621048 -52137656.8541646 0 0 0 0 -612275690.29062462 -342148837.60212135 0 -342148837.60212135 -177436185.89237976 0 0 0 0 -142972891.06212044 -22223961.519973755 0 -22223961.519973755 -64767264.308903217 0 0 0 0 -46569862.684345245 -107681429.61509323 0 -107681429.61509323 -230441981.36975861 0 0 0 0 228072250.32155418 154086459.31600952 0 154086459.31600952 -330141055.98474121 0 0 0 0 -68545973.075372219 -24927413.336791992 0 -24927413.336791992 -524500930.5771637 0 0 0 0 -622534151.27823734 -294685313.12340546 0 -294685313.12340546 -662756388.0359726 0 0 0 0 -409469042.11548805 124747962.43721771 0 124747962.43721771 -286564266.26381683 0 0 0 0 -519293836.63811111 177730432.82607841 0 177730432.82607841 -402573459.27913666 0 0 0 0 -80023837.052929878 170265306.06015587 0 170265306.06015587 -320290069.70815277 0 0 0 0 -95451156.763300896 -75941821.063299179 0 -75941821.063299179 -333995635.76348114 0 0 0 0 -10631393.366755685 -1373345.2231531814 0 -1373345.2231531814 -1902641.1955440883 0 0 0 0 117808021.56830406 -231716215.08588409 0 -231716215.08588409 213398879.14903259 0 0 0 0 14449970.985778809 117126498.45874023 0 117126498.45874023 -247089834.29567051 0 0 0 0 184535194.20166016 -62447640.878982544 0 -62447640.878982544 -64136342.443328857 0 0 0 0 283800327.8764267 -225444579.27765656 0 -225444579.27765656 -211823481.76098347 0 0 0 0 134148878.58493614 261860526.90473175 0 261860526.90473175 -448953309.46943665 0 0 0 0 -1160032111.7971802 360142063.55701447 0 360142063.55701447 316109583.907547 0 0 0 0 -2150166095.9391308 -328085970.86096191 0 -328085970.86096191 -80925062.632850647 0 0 0 0 -1925809216.718502 -118635765.02768707 0 -118635765.02768707 106318918.03552246 0 0 0 0 -1008345291.6442661 513620201.7991333 0 513620201.7991333 6317726.8994655609 0 0 0 0 -735925385.15451622 64965326.685390472 0 64965326.685390472 -139373689.55795288 0 0 0 0 -333963494.57510376 205428903.94665527 0 205428903.94665527 -233890283.96577454 0 0 0 0 -799131405.33643341 104601031.49290466 0 104601031.49290466 -13133005.063491821 0 0 0 0 -277374607.59640694 138514619.53814697 0 138514619.53814697 -114473588.92810059 0 0 0 0 -797644657.32690501 -91420316.651118517 0 -91420316.651118517 -56869552.604217529 0 0 0 0 -1405690203.8356934 82593217.751831055 0 82593217.751831055 103759730.14630127 0 0 0 0 -650093373.07849216 30361565.809429169 0 30361565.809429169 91532492.707294464 0 0 0 0 -1074927059.8751278 -79360841.748161316 0 -79360841.748161316 72705239.911811829 0 0 0 0 -593927354.6371448 -92974031.64956665 0 -92974031.64956665 -19932184.182785034 0 0 0 0 -343414766.98657227 -44523644.831184387 0 -44523644.831184387 -68139469.058700562 0 0 0 0 -68383892.004341125 -28372312.927261353 0 -28372312.927261353 -78446148.234603882 0 0 0 0 -212613297.07745743 -22764250.510494232 0 -22764250.510494232 -128407625.23326111 0 0 0 0 41766637.418411255 127684583.63063431 0 127684583.63063431 -116558074.52505493 0 0 0 0 162079853.30197906 -57812386.138694763 0 -57812386.138694763 -56395978.320579529 0 0 0 0 166614078.82543182 -69835560.081645966 0 -69835560.081645966 -154131829.50840759 0 0 0 0 174184441.01871109 -78098857.199073792 0 -78098857.199073792 -37824930.726135254 0 0 0 0 167324559.65285492 56625774.645675659 0 56625774.645675659 -7743767.1355361938 0 0 0 0 164889504.94054413 42194938.114105225 0 42194938.114105225 -92901647.118865967 0 0 0 0 141282677.41761208 82936092.53420639 0 82936092.53420639 -259766.69000244141 0 0 0 0 106173533.59778976 128929227.07606506 0 128929227.07606506 -60189272.789930344 0 0 0 0 113300156.34999847 29352970.471099854 0 29352970.471099854 -110697744.66201782 0 0 0 0 67248818.720833302 -89799135.227067709 0 -89799135.227067709 -142120936.56626892 0 0 0 0 64380219.561092377 -132994813.81459808 0 -132994813.81459808 -8166555.463104248 0 0 0 0 44065394.13891983 -12942166.381004333 0 -12942166.381004333 -94954065.298686981 0 0 0 0 69225059.289589882 12502039.546800613 0 12502039.546800613 -198630511.76071167 0 0 0 0 1791956.9655429414 1286415.5030494891 0 1286415.5030494891 -2685532.5243101418 0 0 0 0 -189955798.97804642 -109628173.56564331 0 -109628173.56564331 -235320592.95311046 0 0 0 0 -643839116.92115116 -285812063.0684166 0 -285812063.0684166 885904263.66749191 0 0 0 0 -721684372.30918598 -2939417.0259437561 0 -2939417.0259437561 -69998250.858146667 0 0 0 0 -335401284.80804253 -87447066.680622101 0 -87447066.680622101 81959835.016784668 0 0 0 0 455155.44481270388 1385752.3227985837 0 1385752.3227985837 -2370021.0435984647 0 0 0 0 -538436873.59038162 -216339793.73436356 0 -216339793.73436356 -75073193.10861969 0 0 0 0 -315516722.33099079 36334874.366420746 0 36334874.366420746 206663865.49736023 0 0 0 0 -950641492.26038837 -298893501.20030212 0 -298893501.20030212 72594536.619901657 0 0 0 0 -896742595.71073437 173390232.84282684 0 173390232.84282684 -72152800.736988068 0 0 0 0 -1085615070.6277108 -248297686.67070007 0 -248297686.67070007 118589435.71862793 0 0 0 0 68733087.740772009 -37945315.406604767 0 -37945315.406604767 -17473941.928855896 0 0 0 0 -2005361259.73595 -15981470.234758377 0 -15981470.234758377 411768819.79702759 0 0 0 0 -1117069.6965094483 -6179533.5254532304 0 -6179533.5254532304 -9667350.9896137863 0 0 0 0 -1099760920.444232 -749537306.82804871 0 -749537306.82804871 439598445.23928452 0 0 0 0 5986058.1669607162 -27090175.246904373 0 -27090175.246904373 3712313.3246231079 0 0 0 0 18924420.656562805 -48528639.049800873 0 -48528639.049800873 5720330.5304965973 0 0 0 0 952893.81067466736 -39487593.252567291 0 -39487593.252567291 5094944.5268325806 0 0 0 0 29513157.164649963 -10137619.024633408 0 -10137619.024633408 -8796703.9899291992 0 0 0 0 146917.13417434692 -22476658.82365036 0 -22476658.82365036 -5111300.7250032425 0 0 0 0 -465120.48006343842 -16839086.372369766 0 -16839086.372369766 -27377285.040435791 0 0 0 0 6084517.4264860153 -30348216.931600571 0 -30348216.931600571 -23023897.757892609 0 0 0 0 -2947174193.8266392 2413819375.9790344 0 2413819375.9790344 -670968947.20090437 0 0 0 0 -8763075.4885442667 -5311452.869194746 0 -5311452.869194746 7828817.7352875732 0 0 0 0 7274479.248459816 -29534877.633911133 0 -29534877.633911133 -31631838.210426331 0 0 0 0 -1023884854.6792548 -312958762.93928909 0 -312958762.93928909 -65800536.973526001 0 0 0 0 -493888.38934483577 -10171808.879416853 0 -10171808.879416853 -16920913.607152373 0 0 0 0 -992884976.34041595 -300875197.04027557 0 -300875197.04027557 -77476479.986984253 0 0 0 0 -1229969730.6742525 -317072780.18153381 0 -317072780.18153381 22478558.947677612 0 0 0 0 -1209438127.4450293 -398865293.10209656 0 -398865293.10209656 -180999645.03591919 0 0 0 0 -1090439014.914268 -503186877.09215355 0 -503186877.09215355 -394887321.52923584 0 0 0 0 501269745.50450516 -608269036.57282257 0 -608269036.57282257 -878221544.85124207 0 0 0 0 -999048.4863647403 -1523043.9883657284 0 -1523043.9883657284 374540.55383378267 0 0 0 0 -24266768.109752655 -33539915.879684448 0 -33539915.879684448 -54143272.684631348 0 0 0 0 -565311346.48852348 -137370980.76029968 0 -137370980.76029968 109609128.74769592 0 0 0 0 -1874779880.9552078 -512938874.86375427 0 -512938874.86375427 -28937960.347503662 0 0 0 0 -819450.86009000312 -905283.18820840493 0 -905283.18820840493 -3914750.5147707686 0 0 0 0 -1452120406.5570955 -771901503.67235184 0 -771901503.67235184 -355360295.54507446 0 0 0 0 -2298119771.0207052 -556188356.9318161 0 -556188356.9318161 8382590.6847953796 0 0 0 0 143535.67824421776 2444656.1273895279 0 2444656.1273895279 -6306374.4052903578 0 0 0 0 -968978520.63866234 1007474019.5406723 0 1007474019.5406723 -574103655.32247925 0 0 0 0 330664655.53749084 -2304315538.0084381 0 -2304315538.0084381 -109514173.25062943 0 0 0 0 -1086028243.824307 368452227.62904978 0 368452227.62904978 -142535626.0921936 0 0 0 0 4019202412.8162956 -2947669856.1921692 0 -2947669856.1921692 -285245723.66675377 0 0 0 0 444145610.94260025 87536419.30921936 0 87536419.30921936 -526414193.81491852 0 0 0 0 230296501.77713013 1026709071.7326355 0 1026709071.7326355 -2033233093.1960449 0 0 0 0 -283632727.02936363 647502003.80805206 0 647502003.80805206 -512814164.41526794 0 0 0 0 81638795.893594742 432939842.38977051 0 432939842.38977051 -799134073.78064728 0 0 0 0 150640815.43343425 173598924.44623375 0 173598924.44623375 -241710099.82667542 0 0 0 0 -30867462.103565216 538491968.21465302 0 538491968.21465302 -521635089.93735504 0 0 0 0 3121213.9902420044 312384035.74282074 0 312384035.74282074 4631550.8653413057 0 0 0 0 321004223.54939145 -180522894.77384186 0 -180522894.77384186 -4665461.6678924561 0 0 0 0 161811089.82921267 85809414.240402222 0 85809414.240402222 -417926065.81556702 0 0 0 0 298670589.30607224 -239527543.75536346 0 -239527543.75536346 -198948299.8591423 0 0 0 0 299235073.07090914 -167329609.8692379 0 -167329609.8692379 102118839.9932785 0 0 0 0 634807503.19373512 -1042219245.4293518 0 -1042219245.4293518 180142060.55452728 0 0 0 0 254466828.57979584 -83824724.407333374 0 -83824724.407333374 -680970461.04443359 0 0 0 0 1061492006.4013901 -294708864.16754913 0 -294708864.16754913 -1590536918.8208523 0 0 0 0 -32410858.400764465 -32510252.913585663 0 -32510252.913585663 -2022639.8370437622 0 0 0 0 -26351876.588484764 -41230144.055690765 0 -41230144.055690765 -5163730.215965271 0 0 0 0 -11718750.597274579 -7238434.8501142859 0 -7238434.8501142859 10864032.536361409 0 0 0 0 -5795748.1188526154 -42630417.659526825 0 -42630417.659526825 6404414.3560619354 0 0 0 0 -31008628.395179749 -37967710.959724426 0 -37967710.959724426 12171919.287811279 0 0 0 0 -35922998.459411144 -27169212.111431122 0 -27169212.111431122 -2826443.9235153198 0 0 0 0 -4947423.608505249 -29772826.519218445 0 -29772826.519218445 -4521742.2799415588 0 0 0 0 -27383093.099710464 -15881184.156341553 0 -15881184.156341553 6649602.6744422913 0 0 0 0 -35885880.920592308 -1920719.2877426147 0 -1920719.2877426147 11547641.618385315 0 0 0 0 -42960695.414196976 -16014900.392929077 0 -16014900.392929077 47661152.320655823 0 0 0 0 5118958.1474118233 -214728020.60598755 0 -214728020.60598755 581870021.51044464 0 0 0 0 31233429.812747121 -43064483.115283966 0 -43064483.115283966 -53269335.825344086 0 0 0 0 -15617766.387358904 -18483156.997150421 0 -18483156.997150421 -8585202.9507369995 0 0 0 0 -3433392.8163250564 -4975334.3705522632 0 -4975334.3705522632 -16113978.933451854 0 0 0 0 -8114431.2852145834 -8882468.9091745839 0 -8882468.9091745839 8072992.264865797 0 0 0 0 -933268.5315246582 -16560735.004997253 0 -16560735.004997253 -10832157.538477898 0 0 0 0 -5758185.9171629203 -6416389.1048130477 0 -6416389.1048130477 -12607274.683271687 0 0 0 0 -1971220.5385513306 -19536660.68952179 0 -19536660.68952179 -16835377.452376366 0 0 0 0 -250254.58471679688 -11603752.017326355 0 -11603752.017326355 -9351268.0036048889 0 0 0 0 -3045622.6331210136 -11038045.106126785 0 -11038045.106126785 -7766554.2216567993 0 0 0 0 4385898.0057293773 -8145045.1680681705 0 -8145045.1680681705 -27315797.262657166 0 0 0 0 2930920.9867112637 -17943088.716236591 0 -17943088.716236591 -21383994.511077881 0 0 0 0 -6558464.7552044876 -7379053.9018367929 0 -7379053.9018367929 -14156890.549872993 0 0 0 0 4620909.1325721741 -7867080.9514846802 0 -7867080.9514846802 -16131968.625289917 0 0 0 0 -18636895.786866665 -10587092.894378662 0 -10587092.894378662 -25604594.640403748 0 0 0 0 -16764139.451807737 -1609210.8233108521 0 -1609210.8233108521 -26031168.447845459 0 0 0 0 4548743.616804719 -9609840.4242610931 0 -9609840.4242610931 -27730450.403198242 0 0 0 0 -2684504.5300342022 1249960.9349556626 0 1249960.9349556626 -8438404.126643829 0 0 0 0 421136675.4153682 -144613230.60978699 0 -144613230.60978699 -116010284.71059418 0 0 0 0 -25864980.5292418 -2395542.6030960083 0 -2395542.6030960083 -20736628.686187744 0 0 0 0 -69600783.133503318 -87555072.799480438 0 -87555072.799480438 -27018700.680534363 0 0 0 0 -320879222.18469238 50688966.932380676 0 50688966.932380676 15202112.484989166 0 0 0 0 24760813.486368656 -41682756.898468018 0 -41682756.898468018 -76639923.472457886 0 0 0 0 -546869.92001590319 -2093275.3891154211 0 -2093275.3891154211 -3266024.4381471314 0 0 0 0 25656771.692567348 -31881598.898551941 0 -31881598.898551941 -45827510.260765076 0 0 0 0 -1124677.0416466314 -1736287.5417737123 0 -1736287.5417737123 -2201902.7683769874 0 0 0 0 -23973527.539665222 -58316922.567550659 0 -58316922.567550659 -29109629.66116333 0 0 0 0 -40155835.6137712 -36050932.725563049 0 -36050932.725563049 -44982410.602127075 0 0 0 0 122575.22464964283 -7310465.0265768841 0 -7310465.0265768841 -6461075.4944245666 0 0 0 0 -32203245.690410614 -27339812.554214478 0 -27339812.554214478 233437.84470748901 0 0 0 0 -40156023.362934634 -55223868.515066385 0 -55223868.515066385 -243523452.5018692 0 0 0 0 -11234081.143799305 20898739.18006897 0 20898739.18006897 -109252986.39048767 0 0 0 0 1647191.074719429 -35324778.388816833 0 -35324778.388816833 -119849397.79561424 0 0 0 0 -42185618.867557973 -62967146.596690655 0 -62967146.596690655 -42870204.54057312 0 0 0 0 39268199.868499994 14536674.79656601 0 14536674.79656601 -51293520.139184952 0 0 0 0 109126023.3178792 -20681381.957290649 0 -20681381.957290649 -253950376.70223999 0 0 0 0 -94519188.014638186 159547538.56990051 0 159547538.56990051 -337693049.63515091 0 0 0 0 -659719.5884196877 -2062715.0944528989 0 -2062715.0944528989 -964948.96966912597 0 0 0 0 -53039142.147982717 -558666497.37838745 0 -558666497.37838745 -496375502.66236877 0 0 0 0 120105630.19665885 160580827.74621964 0 160580827.74621964 -361387920.57197952 0 0 0 0 231553758.97445619 667902949.71385288 0 667902949.71385288 -1528968187.6318665 0 0 0 0 -341441578.73202747 504804155.4406395 0 504804155.4406395 -517257820.36962128 0 0 0 0 -308588851.59885848 547187708.08993006 0 547187708.08993006 -1212074234.680748 0 0 0 0 -25592631.528262377 57670913.573566437 0 57670913.573566437 -113135651.53736019 0 0 0 0 221196.80470301036 964128.04456836544 0 964128.04456836544 -1940476.1662077047 0 0 0 0 -12356098.533026934 13074856.033168793 0 13074856.033168793 -128654666.42020416 0 0 0 0 -53676252.964855164 63090165.36395216 0 63090165.36395216 -1554593352.6293564 0 0 0 0 941934045.51843357 64518000.218914032 0 64518000.218914032 -5359435803.6671677 0 0 0 0 -349033772.64998448 1076664019.5151615 0 1076664019.5151615 -2448461906.4357948 0 0 0 0 865603164.28076351 -435717040.62253189 0 -435717040.62253189 -3795382280.4562645 0 0 0 0 -25416021.633465648 -63613517.777317047 0 -63613517.777317047 -1018649032.1110382 0 0 0 0 712226.04633120541 -467366.54132175632 0 -467366.54132175632 -1866433.0088370051 0 0 0 0 -164719316.88668609 86795445.647203445 0 86795445.647203445 277829977.90392303 0 0 0 0 -20866860.52793026 -332774446.49289322 0 -332774446.49289322 -275153699.60441589 0 0 0 0 14536334.854629993 262892214.62363815 0 262892214.62363815 -540385217.21348572 0 0 0 0 -146252534.03766346 -205417842.20965576 0 -205417842.20965576 396533188.72436523 0 0 0 0 4186011.7063793307 -553890.17458668351 0 -553890.17458668351 -5235938.0228822064 0 0 0 0 817918734.97262597 -855388601.40073204 0 -855388601.40073204 -5342537483.1421051 0 0 0 0 -1419091200.3454561 -1087062616.613203 0 -1087062616.613203 -835482121.24260712 0 0 0 0 3866531.0243054698 -1476178.2425301215 0 -1476178.2425301215 -5164096.3193609118 0 0 0 0 -1246302804.9006104 1738324043.5094728 0 1738324043.5094728 -2351553478.9298706 0 0 0 0 6359561.2024459084 -3499133.6446284838 0 -3499133.6446284838 -12672400.407014562 0 0 0 0 7338958.6618058681 -4126478.3678870201 0 -4126478.3678870201 23341993.50769043 0 0 0 0 9433082.8510313034 109146956.70580292 0 109146956.70580292 52782803.404327393 0 0 0 0 1731091.6457399116 -2237064.3974644542 0 -2237064.3974644542 459657.24680139869 0 0 0 0 512149755.70163059 -168230567.61827374 0 -168230567.61827374 -397332580.38748169 0 0 0 0 -863195495.765131 -5111576.3293304443 0 -5111576.3293304443 -97463516.065540314 0 0 0 0 -759074651.71402073 672856889.76143646 0 672856889.76143646 -552431926.64052224 0 0 0 0 22919754.799066544 53427832.031158447 0 53427832.031158447 -1106941820.6412201 0 0 0 0 4488953.5060682297 645112557.69036102 0 645112557.69036102 -698126689.90901184 0 0 0 0 -133517924.2043879 583548496.29750252 0 583548496.29750252 -352785160.45184326 0 0 0 0 -1142387.2926414628 1160123.8583191708 0 1160123.8583191708 -2638346.180769138 0 0 0 0 -474139462.41253448 -361164924.91863918 0 -361164924.91863918 -93765900.572265625 0 0 0 0 -85265496.614048004 523346790.4826622 0 523346790.4826622 -495319696.86865234 0 0 0 0 -287859772.95950288 493041133.02148402 0 493041133.02148402 -204953658.97724915 0 0 0 0 23647229.120803356 -14886912.928396225 0 -14886912.928396225 -21759302.612281799 0 0 0 0 789595.87645059533 55144.792353091761 0 55144.792353091761 -269270.33130007982 0 0 0 0 14798241.921522141 529375806.40340042 0 529375806.40340042 -577606882.33452606 0 0 0 0 29720323.431808472 577098572.36324883 0 577098572.36324883 -514790104.70744324 0 0 0 0 -339838737.27423668 354800992.67175674 0 354800992.67175674 -386090635.12425232 0 0 0 0 -153616172.35240936 -160802609.21893692 0 -160802609.21893692 95476793.240463257 0 0 0 0 139298489.60639477 -1648733.0785217285 0 -1648733.0785217285 -70586853.777900696 0 0 0 0 842366343.73639834 285966037.50780106 0 285966037.50780106 -668773480.57194519 0 0 0 0 -343997523.64313293 -1193434567.4316406 0 -1193434567.4316406 -1049413880.5879211 0 0 0 0 -1650197705.2480602 1377656829.4334564 0 1377656829.4334564 -981901762.71983624 0 0 0 0 1365912.1383649174 6994511.1887681587 0 6994511.1887681587 -16892195.075025253 0 0 0 0 7957039.3019028511 -1071153.4961701632 0 -1071153.4961701632 -13696329.134430408 0 0 0 0 -807563.77520561218 -43035823.595424652 0 -43035823.595424652 10919462.247615814 0 0 0 0 -8721433.2120380402 13672349.420833588 0 13672349.420833588 7080908.2109985352 0 0 0 0 -568798228.26551747 -105054016.65982056 0 -105054016.65982056 286918034.46895599 0 0 0 0 -12290433.724804014 829384089.99752235 0 829384089.99752235 -1635262912.3804169 0 0 0 0 504725130.81181705 -45364500.423744202 0 -45364500.423744202 -2513489985.5812531 0 0 0 0 721072013.43388259 830433956.93960571 0 830433956.93960571 -5348175892.1567869 0 0 0 0 137195180.14047837 -2032673041.3800774 0 -2032673041.3800774 -5509911692.5936813 0 0 0 0 517838987.14358479 62498299.613544941 0 62498299.613544941 -1627618680.2530975 0 0 0 0 2320024.4896103358 215873.81906500272 0 215873.81906500272 -12316661.365123414 0 0 0 0 113802430.64143296 -122052846.73231506 0 -122052846.73231506 -1593454051.9112167 0 0 0 0 -48428543.580294371 131591749.30461884 0 131591749.30461884 121159554.33661652 0 0 0 0 978768418.02778602 80417086.517929077 0 80417086.517929077 -221521424.89598083 0 0 0 0 -1094818966.0632339 443135532.68933868 0 443135532.68933868 543438990.08768463 0 0 0 0 748803348.85584307 -356066417.4622879 0 -356066417.4622879 -886687901.94892883 0 0 0 0 -1277620562.3914773 2443309289.998703 0 2443309289.998703 -1833216771.7314072 0 0 0 0 119493.76184107031 850424.56876770034 0 850424.56876770034 -4836796.1842467189 0 0 0 0 -756525429.03542256 3208235056.6024857 0 3208235056.6024857 -2849121385.812027 0 0 0 0 33880953.702947177 1882269247.5628204 0 1882269247.5628204 -5486345417.5213594 0 0 0 0 -324166174.39804053 709808848.27577972 0 709808848.27577972 -3033515137.6686249 0 0 0 0 -611184277.64087296 1274820205.5991974 0 1274820205.5991974 -3361517815.8415451 0 0 0 0 -756154213.93986809 -194692553.40396118 0 -194692553.40396118 -252460341.65979004 0 0 0 0 -989567225.72068036 -599009535.26181412 0 -599009535.26181412 197006231.90638733 0 0 0 0 222335438.36907101 -592346350.84444427 0 -592346350.84444427 462410891.06127167 0 0 0 0 1189659.1635464146 981479.85837017 0 981479.85837017 -3437839.0567230061 0 0 0 0 -153570714.48800015 -1202551645.0805969 0 -1202551645.0805969 -478229392.33191299 0 0 0 0 -1287254855.480957 -1011268668.2977066 0 -1011268668.2977066 66767400.943435669 0 0 0 0 188164534.25192547 -186602998.13596725 0 -186602998.13596725 -682748533.09535217 0 0 0 0 -4261218.4403089853 597667.57819148153 0 597667.57819148153 -249442.46218700148 0 0 0 0 -179484889.87331182 -1281925071.0279455 0 -1281925071.0279455 -2413817706.444252 0 0 0 0 -119737579.25121737 -731983984.39798737 0 -731983984.39798737 -206890187.24389648 0 0 0 0 -338642168.18036246 -446632024.42433929 0 -446632024.42433929 -565843471.53276062 0 0 0 0 -22607529.206192017 18575838.866528511 0 18575838.866528511 -19693150.739091873 0 0 0 0 -16641792.768096924 660786.60422229767 0 660786.60422229767 -26632491.284326077 0 0 0 0 3213944.0132141113 -5919876.5579586029 0 -5919876.5579586029 -3473701.2100038528 0 0 0 0 -21414510.610652924 16003709.230431318 0 16003709.230431318 -52137968.600122452 0 0 0 0 -16246238.169455528 6893063.2204164267 0 6893063.2204164267 -61648502.471531868 0 0 0 0 -40554852.264858246 69232618.040751934 0 69232618.040751934 -64274996.202908218 0 0 0 0 95609508.787494659 101999725.55899215 0 101999725.55899215 -149352531.00586033 0 0 0 0 885044.2124710083 2420147.6881353855 0 2420147.6881353855 -37167825.626598358 0 0 0 0 -38317802.296443939 35172916.524855614 0 35172916.524855614 -5968490.4522078037 0 0 0 0 5359291.5168583505 -2905359.5172174703 0 -2905359.5172174703 -17003615.232055955 0 0 0 0 -25086419.638671875 -14029530.026422739 0 -14029530.026422739 -9420884.7375068665 0 0 0 0 75963057.117105484 -67850395.763986349 0 -67850395.763986349 -390996332.27945423 0 0 0 0 17205523.068880081 187324647.92837894 0 187324647.92837894 -97158345.862624049 0 0 0 0 -6571613.6968383789 -18138661.344616413 0 -18138661.344616413 -16181436.792934418 0 0 0 0 -2549269.388559958 -26343.09490736993 0 -26343.09490736993 -19247097.430816393 0 0 0 0 48725943.00186491 5068521.5324710608 0 5068521.5324710608 -78534945.777467728 0 0 0 0 -16166376.810416222 -765769.30522727966 0 -765769.30522727966 -6000571.0214385986 0 0 0 0 1893913.5206744764 -1872525.6106251394 0 -1872525.6106251394 -2185387.6485594176 0 0 0 0 -14515632.892110825 -9543566.7549877167 0 -9543566.7549877167 -4934324.5812950134 0 0 0 0 -20343764.113285065 -36117.914144515991 0 -36117.914144515991 -20264721.86239624 0 0 0 0 -6285768.7776908875 -12730825.100185394 0 -12730825.100185394 -38015373.427127838 0 0 0 0 -6316797.9175970554 -12687152.66365099 0 -12687152.66365099 -17035353.277931213 0 0 0 0 47706.232319446746 -357704.60586247779 0 -357704.60586247779 -6066777.9750702949 0 0 0 0 10610534.229812622 16052065.493904114 0 16052065.493904114 -22657543.987151146 0 0 0 0 -81689023.300605774 -51889316.780465126 0 -51889316.780465126 -40687751.399691582 0 0 0 0 -438000371.45166016 -51282141.431371212 0 -51282141.431371212 143565210.30370903 0 0 0 0 -74520.128235110547 321801.3772572875 0 321801.3772572875 -249126.80960068619 0 0 0 0 -1656501.1467770319 151923.35787886102 0 151923.35787886102 -8645863.5207985677 0 0 0 0 5452788.4110565186 -9564632.0895161629 0 -9564632.0895161629 -3597035.3904666901 0 0 0 0 29868659.176220894 -7361667.1906175613 0 -7361667.1906175613 -18666838.504299164 0 0 0 0 -143455239.32733727 -79162056.951692581 0 -79162056.951692581 13411955.325133324 0 0 0 0 2203357.0462252158 -3760428.646920356 0 -3760428.646920356 -3222810.0079691713 0 0 0 0 58477153.622058868 -149011225.93586969 0 -149011225.93586969 -53276469.491697311 0 0 0 0 -8255992.8369216919 -23942067.104991913 0 -23942067.104991913 -23667086.770004272 0 0 0 0 65704357.816164196 22559253.755156398 0 22559253.755156398 -48692790.126155853 0 0 0 0 5303675.978058611 -2431198.030716259 0 -2431198.030716259 -21699129.554656938 0 0 0 0 -8139685.5665893555 -24730571.593400955 0 -24730571.593400955 -18457308.592849731 0 0 0 0 -51445812.395951271 12533471.247848034 0 12533471.247848034 21294261.671405792 0 0 0 0 -56058793.350002289 28179591.49451828 0 28179591.49451828 -28432348.464691162 0 0 0 0 -20626897.805690765 -39656376.777668595 0 -39656376.777668595 -61086467.020605087 0 0 0 0 -40117809.600065231 -49894427.730588436 0 -49894427.730588436 -51800404.754211426 0 0 0 0 15752471.858264923 -53032260.694000244 0 -53032260.694000244 -9415242.6707839966 0 0 0 0 -15097623.56224823 -16049349.361688614 0 -16049349.361688614 -47282057.50643158 0 0 0 0 -50051353.739624023 -19007446.487300873 0 -19007446.487300873 -20959212.102971077 0 0 0 0 16283829.819782257 911629.87340641022 0 911629.87340641022 -29270259.414138794 0 0 0 0 -2452489.0083364178 -2209433.3288571313 0 -2209433.3288571313 -12176492.85878446 0 0 0 0 14421455.052101135 980076.44879150391 0 980076.44879150391 -21270050.316904068 0 0 0 0 25394193.305252075 7437677.7041511536 0 7437677.7041511536 -17515390.057006836 0 0 0 0 7291572.0815124512 -54782882.530694962 0 -54782882.530694962 5639453.6733551025 0 0 0 0 710193.23299445584 437458.68365426548 0 437458.68365426548 -1880005.2135869581 0 0 0 0 -21573212.709360123 21029257.506819248 0 21029257.506819248 -28652482.356712341 0 0 0 0 11775146.576187134 -4141995.7338342667 0 -4141995.7338342667 -8738580.2139074802 0 0 0 0 34640064.704714775 -16152569.76716733 0 -16152569.76716733 -29874505.217290878 0 0 0 0 2243516.4464645386 -24365555.50007534 0 -24365555.50007534 -51099743.497207642 0 0 0 0 1147281.6001644135 -5542077.417555809 0 -5542077.417555809 -15151682.203062057 0 0 0 0 7735268.5955162048 6680859.5333080292 0 6680859.5333080292 -2400536.5061779022 0 0 0 0 -8086003.3123493195 12733684.851917744 0 12733684.851917744 -10686587.499006271 0 0 0 0 -38197251.863609314 523483.9549369812 0 523483.9549369812 -6771955.4856259823 0 0 0 0 -27746275.668348312 823518.63630485535 0 823518.63630485535 -17544135.771572113 0 0 0 0 -29564860.672662735 647489.80411434174 0 647489.80411434174 -7034820.4412059784 0 0 0 0 -21128360.95720005 20752163.367685318 0 20752163.367685318 -31504197.165611267 0 0 0 0 3857305.383556366 565966.81661987305 0 565966.81661987305 -37633898.729926109 0 0 0 0 -3213988.2873690976 -436506.05883985385 0 -436506.05883985385 -10594035.76551424 0 0 0 0 -26868246.867008209 -7127065.2084436417 0 -7127065.2084436417 -14238465.068161011 0 0 0 0 490015.7531034071 -87250.439700803719 0 -87250.439700803719 -2901635.1071063532 0 0 0 0 6374167.4339485168 -4085837.7423129082 0 -4085837.7423129082 -29040163.320338249 0 0 0 0 -6106271.2794518471 -6545106.0956885815 0 -6545106.0956885815 -10318967.55663681 0 0 0 0 -6959156.1959894262 -316531.33240059577 0 -316531.33240059577 -8322712.0335276145 0 0 0 0 -14575853.660827637 7478459.219707489 0 7478459.219707489 -6536696.9963531494 0 0 0 0 -8449481.5488891602 -28231762.577972412 0 -28231762.577972412 -14854907.420627594 0 0 0 0 -1669068.5942989634 721842.28666869551 0 721842.28666869551 -10955625.871621147 0 0 0 0 3599424.4615707397 6432061.3338088989 0 6432061.3338088989 -22081232.624897003 0 0 0 0 -11905038.074396133 10094856.144267082 0 10094856.144267082 82359613.870716095 0 0 0 0 372216.92876052856 12878539.748243332 0 12878539.748243332 30500918.259044647 0 0 0 0 5208535.5330200195 -7402405.9109668732 0 -7402405.9109668732 -18091934.683692932 0 0 0 0 -20751585.327354431 -9958248.0173568726 0 -9958248.0173568726 -934117.19377374649 0 0 0 0 7874547.1173934937 7835601.9856376648 0 7835601.9856376648 -8704050.5805072784 0 0 0 0 14490001.434947968 17647760.687643051 0 17647760.687643051 21963354.65366745 0 0 0 0 257894.57269687345 1486060.2014306607 0 1486060.2014306607 -436428.68293921463 0 0 0 0 -19098574.626459122 -16271550.6410923 0 -16271550.6410923 -7815288.7712440491 0 0 0 0 -18624430.736398697 -7763583.7784786224 0 -7763583.7784786224 -9195202.2100162506 0 0 0 0 -19520410.249324799 -8809445.5790157318 0 -8809445.5790157318 -6043715.9084587097 0 0 0 0 -18213655.887812138 -8207163.3427534103 0 -8207163.3427534103 -1483813.4439048767 0 0 0 0 -7885772.61237894 1183698.2004098147 0 1183698.2004098147 -33895849.684436798 0 0 0 0 -791189.60446309485 -761833.59833918884 0 -761833.59833918884 -833090.62879496254 0 0 0 0 -13454068.586027145 -10818726.780939102 0 -10818726.780939102 -6105504.1332378387 0 0 0 0 -8329584.6888316311 -2360955.3193165958 0 -2360955.3193165958 -5086987.6100364365 0 0 0 0 -13811799.995346069 -9280251.9029140472 0 -9280251.9029140472 -6025632.7998598218 0 0 0 0 -12689900.693161011 -12031771.020965576 0 -12031771.020965576 -10794633.782836914 0 0 0 0 -1008878.2544059753 -715234.04486846924 0 -715234.04486846924 -2396600.2266693115 0 0 0 0 767491.19788842089 -2907834.3669403885 0 -2907834.3669403885 -10404975.632520717 0 0 0 0 -6701270.6510888953 -6018074.9522354007 0 -6018074.9522354007 -4062521.7678833343 0 0 0 0 -1362469.2028656006 -4048879.7730407715 0 -4048879.7730407715 -6658436.7084503174 0 0 0 0 -7494566.7311087716 2721390.8138323333 0 2721390.8138323333 -8279444.9515333772 0 0 0 0 219028.12569172308 -3753506.4185802173 0 -3753506.4185802173 -25844187.308603976 0 0 0 0 502917162.75050926 -52023865.266888618 0 -52023865.266888618 -21536976.253458023 0 0 0 0 -1945928.9794887993 1304241.040939739 0 1304241.040939739 -15916347.802491661 0 0 0 0 -11979999.336261749 -347707951.05290508 0 -347707951.05290508 -4956644.2350554466 0 0 0 0 -397907959.89346313 227043014.57287025 0 227043014.57287025 87789557.301122665 0 0 0 0 36345524.402246475 158087463.7917881 0 158087463.7917881 -263705801.5650388 0 0 0 0 183358665.80546188 -7518747.9237132072 0 -7518747.9237132072 -237549346.42034912 0 0 0 0 27265859.112932205 -95852593.858055115 0 -95852593.858055115 42892441.478543133 0 0 0 0 -15833876.422463901 101637907.8774891 0 101637907.8774891 34987399.10720253 0 0 0 0 -686221.97873727512 -519482.10438537912 0 -519482.10438537912 -73198.756290960126 0 0 0 0 -3108619.6472153664 -37906014.113735199 0 -37906014.113735199 -1607108.6018066406 0 0 0 0 -2341700.3213587957 -9673242.7286803667 0 -9673242.7286803667 -26482400.843330611 0 0 0 0 -6792207.2118954659 -20864012.776203156 0 -20864012.776203156 -2247013.544883728 0 0 0 0 8568.4198408126831 -21821535.186012268 0 -21821535.186012268 -3855937.1718769073 0 0 0 0 -6362876.3386511803 -39505835.649898529 0 -39505835.649898529 -43212702.151809692 0 0 0 0 757722.99983978271 5495375.6545495987 0 5495375.6545495987 -82398234.654680967 0 0 0 0 9310806.5101737976 4639757.3231101036 0 4639757.3231101036 -119028225.91045856 0 0 0 0 -15321788.998054504 -14131936.088773727 0 -14131936.088773727 -33006275.091148376 0 0 0 0 -17482899.623848915 -9367440.8551864624 0 -9367440.8551864624 -16047161.778526306 0 0 0 0 19195904.818641663 -15955447.007022858 0 -15955447.007022858 -78378938.598445892 0 0 0 0 -22902745.513208389 32017617.066226006 0 32017617.066226006 -95170525.30214119 0 0 0 0 35151574.522651672 -15678572.722807407 0 -15678572.722807407 -113985769.41088486 0 0 0 0 15984798.553581238 -36347796.220769882 0 -36347796.220769882 -9333828.9611606598 0 0 0 0 68685535.839286804 -105680113.99314976 0 -105680113.99314976 64491929.414234161 0 0 0 0 4729737.6385383606 4226323.0838446617 0 4226323.0838446617 -96714883.893169403 0 0 0 0 -1062283.4248212129 -1333622.4051818196 0 -1333622.4051818196 -1232478.904523978 0 0 0 0 -9973044.8876037598 -17207565.846882105 0 -17207565.846882105 -81942993.929592609 0 0 0 0 -14154824.111448288 -33229505.438901186 0 -33229505.438901186 -112113524.72984934 0 0 0 0 -3233312.1459929789 -4432614.5460566739 0 -4432614.5460566739 -8134786.1720136143 0 0 0 0 3407052.5719604492 -24870884.479397774 0 -24870884.479397774 15058064.011387765 0 0 0 0 -3701230.6504702382 -1593235.369231418 0 -1593235.369231418 1429412.262871637 0 0 0 0 -24207440.939186096 3267160.5824065208 0 3267160.5824065208 14183039.111185074 0 0 0 0 15738792.679903209 -4983945.8171352148 0 -4983945.8171352148 -31021278.039604187 0 0 0 0 -748507.93474321906 -6886156.6713813506 0 -6886156.6713813506 -24581711.432869174 0 0 0 0 5138917.1651821136 5050470.1144599915 0 5050470.1144599915 -36797390.789264679 0 0 0 0 2369746.4717860222 -4959829.3292307854 0 -4959829.3292307854 -9363027.0783634186 0 0 0 0 1809828.0104146004 -2382215.377448082 0 -2382215.377448082 -10034836.238826752 0 0 0 0 -244114.11224152986 647822.69500307413 0 647822.69500307413 -8233993.7544974294 0 0 0 0 -2409623.3606613837 -10853395.643949077 0 -10853395.643949077 -6774859.6812097952 0 0 0 0 -691319.51191854477 -20242006.123046875 0 -20242006.123046875 -46256764.670608521 0 0 0 0 14483468.838823795 -28786253.859775543 0 -28786253.859775543 -58796092.136329651 0 0 0 0 -1938589.6198100871 -8712792.4850799665 0 -8712792.4850799665 -24854304.181779969 0 0 0 0 24611724.37145853 -34853607.434482574 0 -34853607.434482574 -22893587.101875305 0 0 0 0 23778787.985691547 -16083819.187950134 0 -16083819.187950134 -42206001.816497803 0 0 0 0 14074519.981333733 -2458602.9639129639 0 -2458602.9639129639 -37229463.272836685 0 0 0 0 15871868.437720671 70254.058485805988 0 70254.058485805988 -48758732.548309326 0 0 0 0 8623519.3894023895 11325979.720367432 0 11325979.720367432 -37011405.027442932 0 0 0 0 2369335.4010562897 24206403.919189453 0 24206403.919189453 -62854706.385441303 0 0 0 0 16257139.458487749 -329098.71148014069 0 -329098.71148014069 -60036581.755355835 0 0 0 0 -32980252.521472931 46858507.309700012 0 46858507.309700012 -66262707.64487648 0 0 0 0 5534488.9575338364 8336837.7978515625 0 8336837.7978515625 -62544329.510018826 0 0 0 0 6744955.3898797035 2422379.3665275574 0 2422379.3665275574 -92979270.217247009 0 0 0 0 -6925556.3138942719 15743919.941989899 0 15743919.941989899 -28653473.153423309 0 0 0 0 -14956600.899325371 20034455.182386398 0 20034455.182386398 -30098463.94090271 0 0 0 0 -2365109.1600570679 20597257.380935669 0 20597257.380935669 -31240028.490104675 0 0 0 0 8237806.4656066895 10988900.817253113 0 10988900.817253113 -35980830.828262329 0 0 0 0 12350542.484319687 9195524.8948364258 0 9195524.8948364258 -35835313.092033386 0 0 0 0 4663460.3114299774 14758760.636184692 0 14758760.636184692 -38496835.675392151 0 0 0 0 6705244.1359677315 8645531.096529007 0 8645531.096529007 -28111916.140106201 0 0 0 0 -1388743.2251200676 16800697.470678329 0 16800697.470678329 -27450765.597091675 0 0 0 0 10741814.840656281 8737339.3566665649 0 8737339.3566665649 -25017981.03793335 0 0 0 0 -7423361.4179563522 18519406.934391022 0 18519406.934391022 -26052107.023338318 0 0 0 0 423728.92011189461 13382921.56027317 0 13382921.56027317 -26464433.524215698 0 0 0 0 -4873351.1381969452 3020545.2914733887 0 3020545.2914733887 -971672.55444335938 0 0 0 0 -919868737.56899154 1723457796.4951172 0 1723457796.4951172 -3238584696.1547241 0 0 0 0 -3521013.6550620524 2794775.5056821778 0 2794775.5056821778 -8530852.6746468991 0 0 0 0 -11838464.595946079 -7329170.2817024309 0 -7329170.2817024309 -4710039.5758672766 0 0 0 0 -615448765.29371953 2024786013.6509924 0 2024786013.6509924 -5571520298.4836807 0 0 0 0 506359.33817542484 3545217.1864181329 0 3545217.1864181329 -4560353.3522705063 0 0 0 0 -4503133.4512996674 -1401414.8799591064 0 -1401414.8799591064 -13381833.646641731 0 0 0 0 -1414262.8447249685 -732441.31522848643 0 -732441.31522848643 -10158085.785965284 0 0 0 0 -8431554.9749507904 -5894042.1526145935 0 -5894042.1526145935 -17521226.608085632 0 0 0 0 -1165425.1611423492 719600.7340259552 0 719600.7340259552 -25072892.156242371 0 0 0 0 -339677.37388609629 53805.116406395566 0 53805.116406395566 128295.40379945189 0 0 0 0 -3658237.5411408148 705683.02991566248 0 705683.02991566248 -15795314.093095882 0 0 0 0 226306.33664894104 -1147425.4270915985 0 -1147425.4270915985 -4660830.977848053 0 0 0 0 10416059.87257576 14409693.625741959 0 14409693.625741959 -22978979.384811401 0 0 0 0 82921.854575711302 257509.18218543008 0 257509.18218543008 -1572304.9126313981 0 0 0 0 -4287050.3160581589 -3612402.9441337585 0 -3612402.9441337585 -16361425.915011883 0 0 0 0 -60260291.1108841 -671327461.57670021 0 -671327461.57670021 -5355118350.9840355 0 0 0 0 -3139444.6463635974 -2483185.9951496953 0 -2483185.9951496953 -9703413.3691667728 0 0 0 0 92051310.228027493 -369265864.77388763 0 -369265864.77388763 -5309780851.2505798 0 0 0 0 -4303914.1302075386 -3539751.2502908707 0 -3539751.2502908707 -16442590.389751434 0 0 0 0 -6739299.1257182993 -230275.44276696816 0 -230275.44276696816 -16582909.937217999 0 0 0 0 102348759.1957785 -359464028.68143463 0 -359464028.68143463 -5350645745.1173992 0 0 0 0 -3129873.0699198791 -804183.58106049057 0 -804183.58106049057 -8562302.4841674473 0 0 0 0 -7553811.3099155426 -3520875.2970237732 0 -3520875.2970237732 -14909093.165977478 0 0 0 0 -4290098.9447874874 -3707976.7931390703 0 -3707976.7931390703 -16651678.917617798 0 0 0 0 -114508608.08505712 752879466.973526 0 752879466.973526 -5012270235.5277576 0 0 0 0 -3687406.3000888824 -2207151.5382213593 0 -2207151.5382213593 -17028692.303829193 0 0 0 0 -7442805.1905057123 -2169849.2457507071 0 -2169849.2457507071 1878323.5371749923 0 0 0 0 58344889.541901909 156682958.29576492 0 156682958.29576492 -5311086855.8900995 0 0 0 0 -3408732.3255271912 -3463432.1666049957 0 -3463432.1666049957 -16859861.304252625 0 0 0 0 -31885758.938260853 -30475080.233918071 0 -30475080.233918071 -4533582.0921344757 0 0 0 0 -10306748.219571948 -12327673.939826012 0 -12327673.939826012 -21720373.259811401 0 0 0 0 -845107.43505735067 -1673061.507052436 0 -1673061.507052436 -9409704.0905395411 0 0 0 0 -1053968872.6668311 -2286586759.4005632 0 -2286586759.4005632 -5354235116.0638323 0 0 0 0 -6008123.830793147 -4390356.165984394 0 -4390356.165984394 -10542131.936293993 0 0 0 0 -7853404.6813288173 -1502022.9854103103 0 -1502022.9854103103 -5133150.9640588136 0 0 0 0 -3423452.9474682808 -4582831.5059623718 0 -4582831.5059623718 -15529389.805774689 0 0 0 0 -5808679.1785941822 -1503480.3845208322 0 -1503480.3845208322 -6984075.8568649087 0 0 0 0 -390713.52490997314 -1019843.7454595566 0 -1019843.7454595566 -5225430.8374576569 0 0 0 0 -811023275.55012512 269266696.55441236 0 269266696.55441236 716699569.48445082 0 0 0 0 -6188528.7516967403 -1733399.5686731667 0 -1733399.5686731667 -13987823.681571193 0 0 0 0 -6475378.104668051 -7821862.035605263 0 -7821862.035605263 -13729131.787727471 0 0 0 0 -5224767.2378091812 -1952396.8887939453 0 -1952396.8887939453 -6624058.7407550812 0 0 0 0 -7026736.1034655571 -6862494.6721458435 0 -6862494.6721458435 -15429152.446193695 0 0 0 0 -3710658.6313018799 -3188462.0288162231 0 -3188462.0288162231 -18376044.491924286 0 0 0 0 -2018509.5354981935 -2685096.7358995378 0 -2685096.7358995378 -14798897.361460289 0 0 0 0 -7804136.2955530286 -1632441.3854949474 0 -1632441.3854949474 -17619443.239387512 0 0 0 0 -388477.53223991394 -986059.09065437317 0 -986059.09065437317 -9896721.6625256538 0 0 0 0 162669054.03125381 68717064.43406868 0 68717064.43406868 -17617975.15137887 0 0 0 0 128628156.96490097 -395788337.74065638 0 -395788337.74065638 112035262.36606836 0 0 0 0 -5749266.0027336143 -3671173.9919315875 0 -3671173.9919315875 -6248071.4740938656 0 0 0 0 299190.65152430907 -2143394.2316740388 0 -2143394.2316740388 -3246176.6592479618 0 0 0 0 -256825382.93606997 806141549.92217875 0 806141549.92217875 -843806122.50062847 0 0 0 0 -105596006.1135025 -360073560.00887704 0 -360073560.00887704 -92233465.366004944 0 0 0 0 280345602.56934547 -74504337.117592812 0 -74504337.117592812 -81361775.397928715 0 0 0 0 408736600.90853119 -70563918.5769701 0 -70563918.5769701 -493274297.72631264 0 0 0 0 -188320684.32204056 -232649010.71066141 0 -232649010.71066141 30275846.480968952 0 0 0 0 -115417.22921088338 38290.190757794306 0 38290.190757794306 -1781500.6679716748 0 0 0 0 40157062.404384613 131112299.37117553 0 131112299.37117553 -474993847.73461914 0 0 0 0 -209891434.01730728 99218777.188984871 0 99218777.188984871 -15175103.12775135 0 0 0 0 47793638.682005286 -757470.79000712931 0 -757470.79000712931 -27537283.800264359 0 0 0 0 75057804.584699631 36319507.676261902 0 36319507.676261902 -16198935.070538521 0 0 0 0 168085739.33451843 -85487412.650215149 0 -85487412.650215149 -8044336.5054836273 0 0 0 0 4284840.8876924515 4904981.2527809143 0 4904981.2527809143 -30234065.006824493 0 0 0 0 -19181774.553544998 -15614301.295150757 0 -15614301.295150757 -48282948.184364319 0 0 0 0 -18924917.903101087 -12613352.628098607 0 -12613352.628098607 -40265112.950325012 0 0 0 0 -44160551.085349083 -90003061.359512866 0 -90003061.359512866 -17104189.378191352 0 0 0 0 -488113989.09092903 -269969803.01640964 0 -269969803.01640964 446201144.42052555 0 0 0 0 58523200.426849365 57634736.964056015 0 57634736.964056015 -95606486.976387858 0 0 0 0 -3011654.9199463092 -1001922.8075928567 0 -1001922.8075928567 142681.27126692887 0 0 0 0 -15046628.030830383 -6024616.000459671 0 -6024616.000459671 -19665235.98516655 0 0 0 0 4381975.4522740496 -2993533.6963471705 0 -2993533.6963471705 -12608572.239498664 0 0 0 0 254029022.54179382 -605266379.41378784 0 -605266379.41378784 302457623.59257317 0 0 0 0 -3214170.8145660684 -836676.08045971976 0 -836676.08045971976 -18567716.722826295 0 0 0 0 -9017313.4430427551 -12036877.502817154 0 -12036877.502817154 -47997520.207073212 0 0 0 0 -20890111.973815918 -14467688.205688477 0 -14467688.205688477 -47659196.874694824 0 0 0 0 1075937.7345052902 -857419.09689262626 0 -857419.09689262626 -2432697.5523523903 0 0 0 0 -127358118.10720754 -123467614.60603036 0 -123467614.60603036 24239675.5788908 0 0 0 0 -3040511.1804636568 -3656659.0592478923 0 -3656659.0592478923 -23600025.549488682 0 0 0 0 374213077.42359543 305542122.6117363 0 305542122.6117363 106615008.39995992 0 0 0 0 -19423922.887267113 -4101916.1671657562 0 -4101916.1671657562 -39205045.314874649 0 0 0 0 -14515726.93422699 -4636308.5562553406 0 -4636308.5562553406 -50043576.549659729 0 0 0 0 -14797492.70957303 -1941859.379963994 0 -1941859.379963994 -41255090.41368866 0 0 0 0 340987.4373370856 3534599.4070634544 0 3534599.4070634544 -14156770.152355909 0 0 0 0 -3393505.3220092058 -5480872.1948868632 0 -5480872.1948868632 -6791187.0214910507 0 0 0 0 -846760993.88455749 -2199771740.5958867 0 -2199771740.5958867 -4054105625.9525108 0 0 0 0 -2476868.4133262634 1458617.8203306198 0 1458617.8203306198 -6603495.6943351477 0 0 0 0 725874.09452443989 314831.65167068783 0 314831.65167068783 -11519718.796424977 0 0 0 0 -334492.42277145386 -1069861.0847139359 0 -1069861.0847139359 -14333543.933616519 0 0 0 0 -2254240468.4906259 -2553558667.3173866 0 -2553558667.3173866 -2908000844.9528246 0 0 0 0 -5261235.8090684693 -4269280.8163384516 0 -4269280.8163384516 -5939358.0008448418 0 0 0 0 -3296809.1664276123 2071573.44551754 0 2071573.44551754 -9854680.8439788818 0 0 0 0 373960.12588405609 -41358.538432121277 0 -41358.538432121277 -9122715.4593498707 0 0 0 0 -980043.26437664032 -3826529.7815895081 0 -3826529.7815895081 -6609510.3560888916 0 0 0 0 -1236096710.0503337 -2976069162.6105099 0 -2976069162.6105099 -6520396986.7861271 0 0 0 0 -104049.10054757295 -113290.03594909795 0 -113290.03594909795 -703932.81310462905 0 0 0 0 -1497380964.1310031 -2167859679.0622978 0 -2167859679.0622978 -4782289634.3365822 0 0 0 0 -324934687.10151374 -1731861595.3294697 0 -1731861595.3294697 -4936965113.8825073 0 0 0 0 -600821909.36470187 -2105655850.6533136 0 -2105655850.6533136 -5354399925.0858746 0 0 0 0 -858068648.12493241 -2107858508.5422652 0 -2107858508.5422652 -4783349804.0345383 0 0 0 0 -298998364.61057824 -1530528223.6156268 0 -1530528223.6156268 -4312111273.4090252 0 0 0 0 273186410.34522098 -881882342.14627552 0 -881882342.14627552 -4579184645.9973145 0 0 0 0 165727315.84775633 -1396969461.7743511 0 -1396969461.7743511 -5354090489.3109531 0 0 0 0 -534191691.19428915 -1161281734.4647837 0 -1161281734.4647837 -3271135603.8958817 0 0 0 0 -786262905.00897622 -1591741232.0397491 0 -1591741232.0397491 -3368936935.7979889 0 0 0 0 -846240874.09724915 -1808771103.5841112 0 -1808771103.5841112 -3688248034.9901996 0 0 0 0 -889408628.93180537 -1793619077.1838226 0 -1793619077.1838226 -3606485541.6801853 0 0 0 0 -804145990.8247714 -1623858285.6391821 0 -1623858285.6391821 -3288452111.9886818 0 0 0 0 -135831.30661194865 1253889.0527304146 0 1253889.0527304146 -10271000.772438368 0 0 0 0 -571488030.88474441 -1406649698.3923988 0 -1406649698.3923988 -4167693082.0251179 0 0 0 0 1338247022.4999914 805218115.3675127 0 805218115.3675127 -2916421498.8583355 0 0 0 0 520091002.57128054 -250629835.15206003 0 -250629835.15206003 -3446964235.7415562 0 0 0 0 1114018009.8939133 -249881470.01554203 0 -249881470.01554203 -5353243789.1325769 0 0 0 0 63942727.818778038 -811361787.90041733 0 -811361787.90041733 -3603927797.1647396 0 0 0 0 906977526.87573218 -528520947.86800528 0 -528520947.86800528 -3248628282.0168247 0 0 0 0 1023879295.4547374 761464916.4594841 0 761464916.4594841 56727626.910893917 0 0 0 0 517601938.26803827 -2924310731.2897897 0 -2924310731.2897897 134493225.03725433 0 0 0 0 436733407.58114666 -18991795.780808926 0 -18991795.780808926 -1944758594.6449127 0 0 0 0 -343489474.54256821 -2102966744.8623695 0 -2102966744.8623695 -851975222.10060787 0 0 0 0 -363192645.30472285 -1850487470.5365243 0 -1850487470.5365243 -3267216514.2798157 0 0 0 0 574961.20766856871 -448832.43767580949 0 -448832.43767580949 -2529375.9565272518 0 0 0 0 1175876687.611392 -1618455983.5102463 0 -1618455983.5102463 -1331136471.0235901 0 0 0 0 182473405.60137296 -1039765931.6264596 0 -1039765931.6264596 120714416.27794647 0 0 0 0 408252229.56342316 -968718631.55756187 0 -968718631.55756187 -1786833046.6271744 0 0 0 0 -1024388497.9006705 374507059.63056183 0 374507059.63056183 -1069484940.658865 0 0 0 0 -530240582.48964977 1550086284.847168 0 1550086284.847168 -3368608627.3476143 0 0 0 0 -199046361.51793194 -318737360.44301224 0 -318737360.44301224 -3359190888.3135386 0 0 0 0 23031.494642936392 -1448588.0352591854 0 -1448588.0352591854 -3240346.9610793926 0 0 0 0 19102480.783508778 -10182731.585410118 0 -10182731.585410118 -69480129.383512497 0 0 0 0 -3146408.0558081279 -3050841.6659765448 0 -3050841.6659765448 -2400279.2455340703 0 0 0 0 -23721533.661705017 -19853454.673891068 0 -19853454.673891068 -44229014.027720809 0 0 0 0 -832962669.0055809 -1564643373.6408319 0 -1564643373.6408319 -3225372065.6776886 0 0 0 0 781328.51642194809 -1362586.0111785051 0 -1362586.0111785051 -7209316.0357753057 0 0 0 0 -817037664.41090715 -1557593521.5471849 0 -1557593521.5471849 -3297758389.9253159 0 0 0 0 -758857665.04671383 -1032566965.0713882 0 -1032566965.0713882 -2349475742.2713013 0 0 0 0 6024331.4405169487 -67578841.057039261 0 -67578841.057039261 4845602.1604042053 0 0 0 0 -23948492.105267048 -96167707.52123642 0 -96167707.52123642 -6393486.5411806107 0 0 0 0 -40705561.587422371 -167829040.13775444 0 -167829040.13775444 710337053.2583828 0 0 0 0 400778307.72178841 -255330068.56863785 0 -255330068.56863785 -618150271.08987427 0 0 0 0 328585797.3328898 -149509944.81783104 0 -149509944.81783104 -180991980.77134323 0 0 0 0 92863267.136370659 9709784.9034481049 0 9709784.9034481049 -31376926.072864532 0 0 0 0 147962702.0456934 -119852413.64315033 0 -119852413.64315033 -34176167.708348274 0 0 0 0 9809400.0960187912 -100953438.33632851 0 -100953438.33632851 -36527813.577331543 0 0 0 0 98148177.161539078 -43071579.118057251 0 -43071579.118057251 -44959031.913895249 0 0 0 0 -12622945.703127861 -15671944.35991478 0 -15671944.35991478 6869573.5387153625 0 0 0 0 -2985420.2220411301 42462174.749570847 0 42462174.749570847 -15994165.47467804 0 0 0 0 130932153.79759645 84658734.01448822 0 84658734.01448822 -5033127.9452209473 0 0 0 0 -2731600.4974212646 -10650257.707065582 0 -10650257.707065582 -23489070.212600708 0 0 0 0 -18527053.558864594 -21459577.201641083 0 -21459577.201641083 -6015510.6477966309 0 0 0 0 -2907644.5769042969 -4787623.9161186218 0 -4787623.9161186218 -12133213.175926208 0 0 0 0 1915593.2372833043 -3523270.0997472038 0 -3523270.0997472038 -6434794.5646469817 0 0 0 0 -1060830.4527372262 1815469.0378791466 0 1815469.0378791466 -11065879.274388731 0 0 0 0 -13778372.803657532 -18440219.258651733 0 -18440219.258651733 -5985781.2264003754 0 0 0 0 -7783169.1059417725 -21734842.648597717 0 -21734842.648597717 -25407897.132980347 0 0 0 0 -25263317.719722271 -4672586.1251144409 0 -4672586.1251144409 12169172.348365784 0 0 0 0 -514128.03317069291 -913233.39446752146 0 -913233.39446752146 188511.40779968724 0 0 0 0 712147482.45303082 599108188.10428452 0 599108188.10428452 -160314008.25172424 0 0 0 0 -9539710.6317253113 18742744.087711334 0 18742744.087711334 -16756473.430764198 0 0 0 0 -1041770.9055864662 1100876.3740708595 0 1100876.3740708595 -8311030.9410688803 0 0 0 0 328723622.89389896 552245834.25172377 0 552245834.25172377 138013515.2353363 0 0 0 0 602277047.06409526 6804972.3139038086 0 6804972.3139038086 -186997200.18513107 0 0 0 0 238160589.98358011 -18084415.671401978 0 -18084415.671401978 166911420.82679462 0 0 0 0 323069488.69180238 62230774.776725769 0 62230774.776725769 -493617869.13310242 0 0 0 0 26254609.669469953 -269411807.53616905 0 -269411807.53616905 -766498615.17247009 0 0 0 0 44630111.442763329 246566090.37620926 0 246566090.37620926 -800529305.46536422 0 0 0 0 85100096.440161109 -76837970.800842285 0 -76837970.800842285 -358183931.60767365 0 0 0 0 -606896577.04016972 213835141.01949883 0 213835141.01949883 -249376232.65894699 0 0 0 0 56613020.090364218 95130368.696140289 0 95130368.696140289 -207745613.84893799 0 0 0 0 409942282.32617784 319249892.17372608 0 319249892.17372608 -437361021.90480042 0 0 0 0 -352962641.30708885 -84244088.653297424 0 -84244088.653297424 -1245976782.9227805 0 0 0 0 -1215799704.4498696 -998797913.13241768 0 -998797913.13241768 -1184756669.572403 0 0 0 0 -463916364.15384769 -289980284.16281509 0 -289980284.16281509 -773564069.88603973 0 0 0 0 -475519599.36887842 -466271311.81100416 0 -466271311.81100416 -1028879681.6875381 0 0 0 0 -604201242.67504787 61127842.481302261 0 61127842.481302261 -616852505.7092514 0 0 0 0 -434787919.12995887 66744582.121463776 0 66744582.121463776 233608312.56466675 0 0 0 0 -723246871.79981852 -109672013.99143982 0 -109672013.99143982 -151413698.79708862 0 0 0 0 -260121135.8848567 -43514924.297906876 0 -43514924.297906876 -176084944.28988266 0 0 0 0 130482358.85260773 425074717.7361412 0 425074717.7361412 -85509660.818950653 0 0 0 0 155217669.61567354 94929547.282913208 0 94929547.282913208 -354912795.59186935 0 0 0 0 133740490.79785538 166366094.8572464 0 166366094.8572464 174924049.83993912 0 0 0 0 -347742658.47315246 155281266.15292454 0 155281266.15292454 249613392.12742615 0 0 0 0 225432637.16578269 58493248.320146561 0 58493248.320146561 269680373.2162323 0 0 0 0 487348330.72382712 566527945.00180435 0 566527945.00180435 746194193.59690094 0 0 0 0 634274845.87381995 100100506.57788086 0 100100506.57788086 39073416.784637451 0 0 0 0 825481.61769650551 320826.10738695692 0 320826.10738695692 -308880.77574280091 0 0 0 0 -2036613.0846611448 -6166489.777539297 0 -6166489.777539297 -3138291.9335156642 0 0 0 0 -3460969.2636127472 24719985.523271561 0 24719985.523271561 -37481672.462890625 0 0 0 0 372070112.12586761 82672317.976577759 0 82672317.976577759 19927655.641513824 0 0 0 0 -1990905.1046299934 173800472.6554451 0 173800472.6554451 424706141.46512985 0 0 0 0 -82465805.511434078 292622186.70370865 0 292622186.70370865 303001511.62519455 0 0 0 0 259311942.15720797 309908055.38101959 0 309908055.38101959 221311222.55683517 0 0 0 0 -243751120.07469332 16962047.262022972 0 16962047.262022972 212881751.65552902 0 0 0 0 -83474123.852575541 132241957.15758896 0 132241957.15758896 240995929.03925705 0 0 0 0 -215385266.26109743 -6395425.9820785522 0 -6395425.9820785522 191664033.92204285 0 0 0 0 -7834346.4610242844 7528112.2861652374 0 7528112.2861652374 79490707.07964325 0 0 0 0 -15165256.658219814 -3008909.4127254486 0 -3008909.4127254486 191695868.41470933 0 0 0 0 18232424.547763288 -16406163.556399345 0 -16406163.556399345 -14627879.325408936 0 0 0 0 -103863.45999206451 -12619028.248348296 0 -12619028.248348296 -3406376.3155346811 0 0 0 0 38560195.052592993 69485129.554641724 0 69485129.554641724 117983299.89689159 0 0 0 0 -13777266.772863388 -41383419.914188385 0 -41383419.914188385 -1897667.2938842773 0 0 0 0 16677672.798834801 -29245457.792327881 0 -29245457.792327881 -20255669.868209839 0 0 0 0 8113500.8162376881 98305436.503406525 0 98305436.503406525 105040019.01119232 0 0 0 0 8228105.5173981488 -16277060.048667908 0 -16277060.048667908 -6775910.6113471985 0 0 0 0 -13112547.197896957 -32409064.393119812 0 -32409064.393119812 -8553865.4640808105 0 0 0 0 -6591010.242149353 -20315626.020477295 0 -20315626.020477295 -7602629.8775177002 0 0 0 0 -26638729.46439743 -22726512.473014832 0 -22726512.473014832 -10169514.829147339 0 0 0 0 -25713787.935606003 -26002785.397392273 0 -26002785.397392273 -26316129.027598858 0 0 0 0 -27562256.002590179 -30649323.83216095 0 -30649323.83216095 -5046089.4045181274 0 0 0 0 -32998045.669662476 -17805381.1121521 0 -17805381.1121521 -6324724.8657989502 0 0 0 0 -41234638.269895554 -8915474.7793769836 0 -8915474.7793769836 -14539311.110206604 0 0 0 0 -39991966.810993195 -23833658.87613678 0 -23833658.87613678 -1486080.5034255981 0 0 0 0 -30405175.851182938 -7157837.0980262756 0 -7157837.0980262756 -24510483.480537415 0 0 0 0 -32494175.296085358 -14843491.3644104 0 -14843491.3644104 -21714279.086784363 0 0 0 0 -23147430.831542969 -12698754.784629822 0 -12698754.784629822 -21244429.050125122 0 0 0 0 -22013766.127170563 -15432120.05223465 0 -15432120.05223465 -26814880.437637329 0 0 0 0 -33993747.673435211 8811350.1900405884 0 8811350.1900405884 -51647585.609359741 0 0 0 0 -22961387.908744812 -17827382.857654572 0 -17827382.857654572 -3281825.0267944336 0 0 0 0 -13466463.5209198 -28666020.777954102 0 -28666020.777954102 -12127943.533241272 0 0 0 0 -22277213.403702736 -12140811.496140003 0 -12140811.496140003 -18810947.514648438 0 0 0 0 -19440124.282546997 -13148694.022155762 0 -13148694.022155762 -25567934.689216614 0 0 0 0 -18481135.396949768 -22413494.878829956 0 -22413494.878829956 -13344040.406921387 0 0 0 0 -24238185.434383392 -15543433.060365677 0 -15543433.060365677 -19251695.971740723 0 0 0 0 -17625062.457126617 -21047314.157661438 0 -21047314.157661438 -17548765.872993469 0 0 0 0 -19396531.953533173 -16765510.344894409 0 -16765510.344894409 -21676477.528251648 0 0 0 0 -12126999.630744934 -24868564.298789978 0 -24868564.298789978 -16974942.85008049 0 0 0 0 -14437900.909389496 -20582800.695148468 0 -20582800.695148468 -18240679.991149902 0 0 0 0 -8484944.5077323914 -26683096.169677734 0 -26683096.169677734 -17442714.022262573 0 0 0 0 -14857895.72353363 -22532549.213439941 0 -22532549.213439941 -17568023.728591919 0 0 0 0 -7373235.3878116608 -19847506.359930992 0 -19847506.359930992 -16721179.96131897 0 0 0 0 -11460067.296951294 -24141614.272674561 0 -24141614.272674561 -17126976.432907104 0 0 0 0 -16160985.262382507 -23572284.427818298 0 -23572284.427818298 -13227289.447860718 0 0 0 0 1762223.461351403 -1452021.2146879942 0 -1452021.2146879942 -3103255.8212764636 0 0 0 0 -16509383.059417725 -32611337.187747955 0 -32611337.187747955 -3058509.622543335 0 0 0 0 -16729937.592147827 -19326365.482933044 0 -19326365.482933044 -20283802.381332397 0 0 0 0 -20989084.763195038 -13316344.950340271 0 -13316344.950340271 -25480749.037043571 0 0 0 0 -16468033.709741592 -14299603.590583801 0 -14299603.590583801 -18901247.527544022 0 0 0 0 3148003.2193851471 49500735.664573669 0 49500735.664573669 -36403156.426567078 0 0 0 0 154760.45643674303 345615.8162480928 0 345615.8162480928 -2944536.5732430723 0 0 0 0 -3374808.9921159744 -5816073.2342147827 0 -5816073.2342147827 -17814099.755554199 0 0 0 0 37871878.731645107 36173340.802902222 0 36173340.802902222 7353064.1846160889 0 0 0 0 890225.96304612467 2028003.9010793641 0 2028003.9010793641 -4289779.5006875619 0 0 0 0 46337126.838803291 -6268902.7722320557 0 -6268902.7722320557 -38686542.538513184 0 0 0 0 153574568.66620779 -277984246.38884163 0 -277984246.38884163 151225132.19928646 0 0 0 0 3502612.4334166134 1737122.5273131207 0 1737122.5273131207 -15652818.723452484 0 0 0 0 -2349019.9956691605 -14466326.107589018 0 -14466326.107589018 -31141748.906240344 0 0 0 0 -40592111.157868147 -46766233.241634369 0 -46766233.241634369 116889871.24346924 0 0 0 0 22561219.469638348 -82811486.393533707 0 -82811486.393533707 137247802.94031143 0 0 0 0 -187293146.57239199 -46102032.828134537 0 -46102032.828134537 162059901.23827267 0 0 0 0 -125634077.09815526 -128097703.51194763 0 -128097703.51194763 206646011.20792389 0 0 0 0 -161466970.8634336 -226975753.79313278 0 -226975753.79313278 224283522.43914604 0 0 0 0 184571012.37181664 -6778737.0040512085 0 -6778737.0040512085 -226611973.88241386 0 0 0 0 -256450425.23639917 -11831909.469062805 0 -11831909.469062805 -326545442.94716072 0 0 0 0 -343192093.45535886 -274805157.25448751 0 -274805157.25448751 -134394145.58305359 0 0 0 0 21995495.879313469 254844874.24708366 0 254844874.24708366 -863298383.96715975 0 0 0 0 -77283289.411346555 -366754205.28032017 0 -366754205.28032017 -718219486.83522415 0 0 0 0 -411562080.33276296 -14015609.086503029 0 -14015609.086503029 -1066438287.0749168 0 0 0 0 150420166.20938897 512087566.47040558 0 512087566.47040558 -364617159.11528826 0 0 0 0 173365656.59858084 -31918478.279630661 0 -31918478.279630661 -121377361.7897644 0 0 0 0 -657150.05485200649 -10538944.136605218 0 -10538944.136605218 -32806279.430751108 0 0 0 0 409845901.77782178 -468606999.74541903 0 -468606999.74541903 -116800307.35907364 0 0 0 0 -55796178.466521621 147756420.79949856 0 147756420.79949856 -179769827.85725403 0 0 0 0 -456477.76135338889 350426.21016444638 0 350426.21016444638 -549990.19820418954 0 0 0 0 21182355.908662796 -51120665.649433136 0 -51120665.649433136 -251396128.81147766 0 0 0 0 14091496.103555679 11475195.451797485 0 11475195.451797485 -13576260.608886719 0 0 0 0 -7764844.62312603 -123901167.28424072 0 -123901167.28424072 6341686.0443191528 0 0 0 0 -21152611.308233976 -35162937.008378983 0 -35162937.008378983 -10211395.201156616 0 0 0 0 17816749.025825977 -18252144.302841187 0 -18252144.302841187 35907650.573638916 0 0 0 0 109120774.7013855 -107516917.2766304 0 -107516917.2766304 -21439813.475242615 0 0 0 0 748336.75199452147 -462318.10704176873 0 -462318.10704176873 -1553303.0994090848 0 0 0 0 281140211.69057834 390792006.76087189 0 390792006.76087189 -862143545.873703 0 0 0 0 -9829590.2870402336 -7956515.7421760559 0 -7956515.7421760559 -35712785.46270752 0 0 0 0 614391.00526461354 -8267993.808903235 0 -8267993.808903235 -30738629.519189335 0 0 0 0 280422818.4931643 639369136.93596745 0 639369136.93596745 -1163151415.790741 0 0 0 0 261659885.51247561 692165990.96182919 0 692165990.96182919 -1239024657.0500183 0 0 0 0 -96637599.70289135 457828738.53509521 0 457828738.53509521 -562497959.46365356 0 0 0 0 -933363869.48281598 1396623667.6612015 0 1396623667.6612015 -735295404.72323418 0 0 0 0 -98712833.206681699 741043910.18443489 0 741043910.18443489 -1661853103.0889435 0 0 0 0 -13186068.48216188 943609787.95994568 0 943609787.95994568 -1345291956.9287567 0 0 0 0 -678921334.30963671 888282481.94914246 0 888282481.94914246 -1446848774.3899155 0 0 0 0 305835067.31162357 681091964.13062096 0 681091964.13062096 -1374319521.3016891 0 0 0 0 225894751.33884811 799640601.38237381 0 799640601.38237381 -1303803737.1629181 0 0 0 0 132725492.26225305 746167004.99085999 0 746167004.99085999 -1078149566.4745178 0 0 0 0 289385477.08986151 757707514.77650452 0 757707514.77650452 -1608078639.6163483 0 0 0 0 -148583690.87542886 844445564.8685112 0 844445564.8685112 -1396194368.6614532 0 0 0 0 -224972876.95942318 702281815.74455643 0 702281815.74455643 -1638423704.458313 0 0 0 0 -5056080.9885862097 -10427789.687554508 0 -10427789.687554508 -15766200.771654442 0 0 0 0 -656324490.48041689 947852622.25737381 0 947852622.25737381 -1658696253.1771011 0 0 0 0 -571001779.49593997 739154787.24656677 0 739154787.24656677 -1534761299.885025 0 0 0 0 -507770990.52081263 862927698.66838837 0 862927698.66838837 -1874487318.4438171 0 0 0 0 -256307499.86986777 693823520.92889595 0 693823520.92889595 -2052333776.1429596 0 0 0 0 -689550251.07948267 857682479.1032753 0 857682479.1032753 -1884659550.3514519 0 0 0 0 -961718496.56510866 1647167688.9267244 0 1647167688.9267244 -2007296314.221405 0 0 0 0 -1775583289.3637948 2127935723.3515625 0 2127935723.3515625 -2200688671.0952282 0 0 0 0 -1157750.4695593175 -1518587.0089201741 0 -1518587.0089201741 1117635.9602244794 0 0 0 0 -582194070.87475491 830565727.22194481 0 830565727.22194481 -2283210402.4105682 0 0 0 0 -687702673.70044279 1008083110.3870163 0 1008083110.3870163 -1508970660.4418926 0 0 0 0 22042213.929787636 142690134.64253807 0 142690134.64253807 -2266157519.1037827 0 0 0 0 243469216.94875693 325359978.9617424 0 325359978.9617424 -926956271.24761963 0 0 0 0 248966181.41647506 306229401.92791367 0 306229401.92791367 -1445959344.1923981 0 0 0 0 298523127.579566 760142930.92780304 0 760142930.92780304 -1427527326.1391113 0 0 0 0 279037668.59396791 728378275.03024292 0 728378275.03024292 -1209720670.0498123 0 0 0 0 296255255.33206129 733745755.61872292 0 733745755.61872292 -1293086185.0253983 0 0 0 0 286090228.03940296 696937467.28768349 0 696937467.28768349 -1253711892.0329819 0 0 0 0 443357604.81102908 385051148.43236923 0 385051148.43236923 -1123922726.6470184 0 0 0 0 -204130995.36510086 507694725.55883408 0 507694725.55883408 -1130811656.4468002 0 0 0 0 1092997170.5240686 -311505972.46194649 0 -311505972.46194649 -2218548598.4433479 0 0 0 0 871845.66876476817 -2807874.5660852194 0 -2807874.5660852194 -7386385.4901603442 0 0 0 0 469986114.39403296 796216917.89242172 0 796216917.89242172 -1201951037.631525 0 0 0 0 -743560028.93684292 1855923068.9588718 0 1855923068.9588718 -2533681673.4459496 0 0 0 0 649840.09342407796 -1282706.6519446764 0 -1282706.6519446764 -4088867.6528235562 0 0 0 0 -363015468.88683891 2140973403.870429 0 2140973403.870429 -6317652694.2140427 0 0 0 0 1395552267.5708892 877824791.15249658 0 877824791.15249658 -5354719986.4657841 0 0 0 0 -12663230.826314181 233973539.82285881 0 233973539.82285881 -3463956606.5289536 0 0 0 0 -39453298.713555932 8183958.9714584351 0 8183958.9714584351 -2420813238.499733 0 0 0 0 -469673278.26839489 881637849.24573135 0 881637849.24573135 -2796938277.5193024 0 0 0 0 -427887868.30459899 731471722.61315536 0 731471722.61315536 -1846274483.4820251 0 0 0 0 -172864707.94804275 605462469.21094513 0 605462469.21094513 -1808226687.4752121 0 0 0 0 -470423093.88656515 676961170.91426086 0 676961170.91426086 -1826756060.0466919 0 0 0 0 112501910.50293791 288263165.70254135 0 288263165.70254135 -1871227933.7765808 0 0 0 0 44424133.6902349 265062994.53961182 0 265062994.53961182 -58731487.849994659 0 0 0 0 -190823843.7941457 486717740.4593811 0 486717740.4593811 -1368649451.6228585 0 0 0 0 -94196324.108383 69762518.377391815 0 69762518.377391815 -1326509834.1490479 0 0 0 0 752554645.40168273 -1271593839.8831959 0 -1271593839.8831959 -3255016496.8100204 0 0 0 0 651196286.82040155 -1626689206.3158875 0 -1626689206.3158875 -596872796.68960857 0 0 0 0 -1169354214.4569705 -307566619.17486572 0 -307566619.17486572 -5356477253.3711853 0 0 0 0 792926590.76569259 -167257880.09378433 0 -167257880.09378433 -5369208296.5475445 0 0 0 0 587445357.73271251 25584410.099071503 0 25584410.099071503 -3400785176.1136894 0 0 0 0 486808029.04685527 912137781.06065559 0 912137781.06065559 -5355024091.7135315 0 0 0 0 -604455053.98611021 1037977715.0261078 0 1037977715.0261078 -2024357513.5858154 0 0 0 0 -407846225.42325532 707932282.60852051 0 707932282.60852051 -2435675454.172781 0 0 0 0 -1620898.5145817345 -9304273.0913039688 0 -9304273.0913039688 -16889505.742029432 0 0 0 0 -569227041.90223348 1508527629.7593346 0 1508527629.7593346 -2963579789.3535957 0 0 0 0 -1118892700.5850353 2653971665.0074921 0 2653971665.0074921 -5345731735.13692 0 0 0 0 -2005051.2624958931 -6537823.940249024 0 -6537823.940249024 -1190410.4907038324 0 0 0 0 -528461496.66304755 -146346857.09144449 0 -146346857.09144449 67774305.319625854 0 0 0 0 -6640976.8244302683 -5077969.6892044432 0 -5077969.6892044432 -2481705.091942586 0 0 0 0 901013965.20409071 -937340385.58568573 0 -937340385.58568573 -5346513141.9664383 0 0 0 0 -385875096.51227552 -450079067.49202347 0 -450079067.49202347 -1993674203.0217285 0 0 0 0 -6671360.3444668502 -2738441185.6020432 0 -2738441185.6020432 -2456222086.6847687 0 0 0 0 381894.62711503054 -2152318.8976959065 0 -2152318.8976959065 124996.40429198742 0 0 0 0 328560084.51236272 352698553.06019592 0 352698553.06019592 -1243611620.7063942 0 0 0 0 374474377.33662605 25817959.764484406 0 25817959.764484406 -214657123.72915649 0 0 0 0 1751529.4054682357 -8500852.6258636899 0 -8500852.6258636899 -4093890.074170433 0 0 0 0 -48914026.037440062 44647310.849914551 0 44647310.849914551 -55470717.451965332 0 0 0 0 2076777.3840530873 -2611513.2951440811 0 -2611513.2951440811 -10478345.333309621 0 0 0 0 2053135.7706913948 -10412269.894584656 0 -10412269.894584656 83429.019680023193 0 0 0 0 1325537.7971274853 -10927140.86566925 0 -10927140.86566925 1119308.5750656128 0 0 0 0 -2672278.6214135885 -5000782.2971420288 0 -5000782.2971420288 1485511.4356155396 0 0 0 0 2032476.1856711318 -4802659.594004754 0 -4802659.594004754 -4894568.8100464568 0 0 0 0 772314.67538169026 -2217959.6253204346 0 -2217959.6253204346 -108735.73949432373 0 0 0 0 965931.24911499023 -2045751.8535346985 0 -2045751.8535346985 -1245586.2738952637 0 0 0 0 10291248.639686584 -4095739.8459091187 0 -4095739.8459091187 8572185.8550796509 0 0 0 0 318106.45761537552 -1470323.3652248383 0 -1470323.3652248383 13769193.706680298 0 0 0 0 -963336.66147693899 -1183725.6857045162 0 -1183725.6857045162 1848165.6849830896 0 0 0 0 -59292948.592824936 -66682094.86466217 0 -66682094.86466217 24712464.33102417 0 0 0 0 12929367.041287214 -49368876.273682833 0 -49368876.273682833 12262863.322677612 0 0 0 0 -87936603.237071037 20441929.034805298 0 20441929.034805298 28400066.119976044 0 0 0 0 -20650591.505513668 -58057244.632522583 0 -58057244.632522583 61790305.454425812 0 0 0 0 24501548.099865675 -15656585.580657959 0 -15656585.580657959 -4618449.6013793945 0 0 0 0 3371320.217680335 -13911105.407794952 0 -13911105.407794952 9266949.151802063 0 0 0 0 -20046027.804318905 -15357980.812385559 0 -15357980.812385559 47570287.976882935 0 0 0 0 -3964414.2744357446 -4464157.959820535 0 -4464157.959820535 7062389.301620163 0 0 0 0 397520426.19047737 244943086.02637482 0 244943086.02637482 -3758472380.4726486 0 0 0 0 -162701980.14215755 308147938.20212555 0 308147938.20212555 -1827282904.0903854 0 0 0 0 65140959.468307614 -675251652.00341797 0 -675251652.00341797 -2957591076.5923767 0 0 0 0 928503.32819859183 -9027.6455393955112 0 -9027.6455393955112 -2217878.3578332625 0 0 0 0 672810145.89507008 -1541018761.5723152 0 -1541018761.5723152 -4031483337.7158051 0 0 0 0 830061209.2403872 -728230007.26999283 0 -728230007.26999283 -4647913991.9188309 0 0 0 0 1149264282.5362716 -2110996953.7915382 0 -2110996953.7915382 -5345441013.7473755 0 0 0 0 107191843.16640913 -1234702168.2308922 0 -1234702168.2308922 -1967255903.49823 0 0 0 0 51698946.053602546 -1459621377.523735 0 -1459621377.523735 -2774498900.3652344 0 0 0 0 165722860.34298795 -252923246.85993385 0 -252923246.85993385 -2258874209.3632507 0 0 0 0 -88041726.022617042 -764316715.66871643 0 -764316715.66871643 -1748424034.5804138 0 0 0 0 -197406059.00693679 -192332326.00173187 0 -192332326.00173187 -713291314.51242828 0 0 0 0 -403362851.73967981 186092103.00090981 0 186092103.00090981 -152267327.38967896 0 0 0 0 -1010672607.145992 -1162145372.4647522 0 -1162145372.4647522 -1365422499.7144775 0 0 0 0 -1676630119.6393366 -3387208995.8563461 0 -3387208995.8563461 -2965948421.5224609 0 0 0 0 -2013771647.1023965 -1474027876.6838369 0 -1474027876.6838369 720234738.95724487 0 0 0 0 -3054931.319670876 -1528318.010196656 0 -1528318.010196656 -1239021.1752452701 0 0 0 0 -11081510.469988884 1513984613.9440842 0 1513984613.9440842 -5354240808.5675297 0 0 0 0 74458651.784282401 1021269127.5805054 0 1021269127.5805054 -2523266352.3718491 0 0 0 0 364690538.95958614 -275747792.71310425 0 -275747792.71310425 179070319.92704391 0 0 0 0 383826606.39211845 -154211189.08381271 0 -154211189.08381271 -443736028.66712952 0 0 0 0 -19371576.10033226 348582000.34915161 0 348582000.34915161 -390404688.25522327 0 0 0 0 285741407.76802874 8412737.5539970398 0 8412737.5539970398 -30367326.125305176 0 0 0 0 121912622.36268806 124180322.38765335 0 124180322.38765335 127702368.62313843 0 0 0 0 458797.72112894058 236893648.33629608 0 236893648.33629608 23332344.171471596 0 0 0 0 804060.00102697895 829367.1548022218 0 829367.1548022218 15238.359434135258 0 0 0 0 -231877762.95566988 89373477.295585632 0 89373477.295585632 918611914.1565094 0 0 0 0 28451503.26418972 101722481.30970383 0 101722481.30970383 230310938.00447083 0 0 0 0 -77910984.588146552 36931185.942423582 0 36931185.942423582 -221746453.5406189 0 0 0 0 -57533458.338589191 379186611.05104065 0 379186611.05104065 -105327212.93356323 0 0 0 0 -288295787.38394701 27297936.916912079 0 27297936.916912079 -261660043.10449219 0 0 0 0 -61528685.52422148 -71592418.655216217 0 -71592418.655216217 -834163865.02072144 0 0 0 0 -282143961.11504221 229947618.98890686 0 229947618.98890686 -817455827.05483246 0 0 0 0 -73398684.084548265 -449292670.35107088 0 -449292670.35107088 -184804202.10620117 0 0 0 0 -189058770.90960753 196414678.09803772 0 196414678.09803772 -354536859.79457092 0 0 0 0 -61158329.330413818 366159548.33394623 0 366159548.33394623 159811496.60007477 0 0 0 0 -34897113.299168527 231289265.96481323 0 231289265.96481323 59424279.044643402 0 0 0 0 130840.10992318019 -75231.457429610193 0 -75231.457429610193 -138618.11079539359 0 0 0 0 -358717000.3867119 -743034389.39094448 0 -743034389.39094448 196386256.19235229 0 0 0 0 -233350149.34759545 -125201723.90066528 0 -125201723.90066528 316434620.151474 0 0 0 0 -10795293.074982643 -80891155.441238403 0 -80891155.441238403 3542847.515335083 0 0 0 0 -108036591.41343617 631417083.07274628 0 631417083.07274628 239407294.84584045 0 0 0 0 -82516783.517723083 50759247.588935852 0 50759247.588935852 -195145553.91322327 0 0 0 0 -504879152.26446867 354035629.99555969 0 354035629.99555969 -241581896.70339966 0 0 0 0 12664923.624395609 -117338849.20467377 0 -117338849.20467377 -1622840715.6299896 0 0 0 0 -72274767.889692038 34761510.92190361 0 34761510.92190361 -9985679.1040496826 0 0 0 0 -73224235.759065747 46036090.712547302 0 46036090.712547302 -58673633.701324463 0 0 0 0 -246914348.56842417 -24924093.488329887 0 -24924093.488329887 20390431.865509033 0 0 0 0 -206409713.92096207 171060264.95252419 0 171060264.95252419 81696787.769226074 0 0 0 0 -32535722.979658075 91039713.210407257 0 91039713.210407257 -22308102.277877808 0 0 0 0 155101970.73505583 145917063.44437408 0 145917063.44437408 -40804509.889389038 0 0 0 0 -33582742.407763235 85242346.1615448 0 85242346.1615448 -19944894.019855499 0 0 0 0 439922.72547976673 33000316.470695496 0 33000316.470695496 -67088815.492050171 0 0 0 0 -38285819.528191388 25419203.017318726 0 25419203.017318726 -10870759.532028198 0 0 0 0 100279327.78281283 -34356415.315815926 0 -34356415.315815926 4334914.7316436768 0 0 0 0 15992455.29314512 11855792.131225586 0 11855792.131225586 -15885646.372596741 0 0 0 0 1477841.6993863583 -11184576.667396545 0 -11184576.667396545 6247658.0338287354 0 0 0 0 3400798.6314713224 1537534.5779296868 0 1537534.5779296868 -1128964.9214939997 0 0 0 0 918269.39201322885 -899518.9367170278 0 -899518.9367170278 -1792733.8373597264 0 0 0 0 18298551.656490922 1302040.7553863525 0 1302040.7553863525 -12778286.541229248 0 0 0 0 -748363.79407209158 -12998819.039520264 0 -12998819.039520264 -16603394.885910034 0 0 0 0 -84072875.181765616 77384648.78604126 0 77384648.78604126 -39447434.064153671 0 0 0 0 282562.87567444169 -296880.3121287236 0 -296880.3121287236 -642862.44984325767 0 0 0 0 -96286765.596808434 -144714297.24834442 0 -144714297.24834442 -171816331.33505249 0 0 0 0 1559390.5187290013 -87446708.323734283 0 -87446708.323734283 -114814697.90407181 0 0 0 0 5917106.3811473548 -94737348.200115204 0 -94737348.200115204 -266595826.98963928 0 0 0 0 -16680959.54511876 53802751.817686081 0 53802751.817686081 -70862694.004806519 0 0 0 0 -12631899.434258342 71983202.254936218 0 71983202.254936218 -230918375.21940613 0 0 0 0 -39436122.07241182 26800150.172153473 0 26800150.172153473 -49954832.901794434 0 0 0 0 -29919558.088360168 -5225546.4137611389 0 -5225546.4137611389 -188130799.0984726 0 0 0 0 -19004119.701123416 17123375.628829956 0 17123375.628829956 -156611902.8859787 0 0 0 0 -113060780.55277812 -11437128.730697632 0 -11437128.730697632 -78522783.837905884 0 0 0 0 -50389046.965498149 10918966.409828186 0 10918966.409828186 -72811152.722669601 0 0 0 0 -56995209.058995068 1762369.5097007751 0 1762369.5097007751 -32245014.609054565 0 0 0 0 -58325842.613444924 -14679760.7479496 0 -14679760.7479496 13286373.223274231 0 0 0 0 -767085.30382269062 173103.18745853752 0 173103.18745853752 249661.39543498307 0 0 0 0 28880416.811396122 -33426556.561485291 0 -33426556.561485291 -319892616.22856903 0 0 0 0 64162409.607932091 -33575959.15927887 0 -33575959.15927887 -357752179.53147888 0 0 0 0 -98369189.45048666 -104399755.49810791 0 -104399755.49810791 -123589709.76231384 0 0 0 0 -94906369.550823808 -4454392.8758354187 0 -4454392.8758354187 -8258690.9837036133 0 0 0 0 -110361579.21234226 -106414808.89804077 0 -106414808.89804077 -63919982.144699097 0 0 0 0 -38116987.653422356 -47534913.335121155 0 -47534913.335121155 20692251.801635742 0 0 0 0 -37918057.420173645 5523114.3457489014 0 5523114.3457489014 10111229.403676987 0 0 0 0 3387230.4773243666 10773734.4112854 0 10773734.4112854 -14544672.187820435 0 0 0 0 9018563.1477609873 -1461546.8660011292 0 -1461546.8660011292 -1203405.260134697 0 0 0 0 -1249659.4750074157 -493978.11761252955 0 -493978.11761252955 -130929.05678273737 0 0 0 0 3828018.1660400629 -6905171.116104126 0 -6905171.116104126 543165.78354644775 0 0 0 0 -18155469.187915087 -42929157.204574585 0 -42929157.204574585 -53114522.02286911 0 0 0 0 -5965343.6691923141 -22773906.298157692 0 -22773906.298157692 -68093728.37286377 0 0 0 0 16609284.561607838 -55773010.13192749 0 -55773010.13192749 -183821157.55416489 0 0 0 0 14600746.622693121 -29934874.851039886 0 -29934874.851039886 -195462761.33939362 0 0 0 0 39990234.800721049 27805855.332950592 0 27805855.332950592 -83798936.756088257 0 0 0 0 42406824.756003499 -2929049.9912567139 0 -2929049.9912567139 -267002823.62914085 0 0 0 0 -40520762.834123611 38127371.403625488 0 38127371.403625488 29342327.572750092 0 0 0 0 -8695459.5598859787 -15526184.904903412 0 -15526184.904903412 -66083370.835849762 0 0 0 0 -14618010.682372451 -5142237.1020202637 0 -5142237.1020202637 -74474646.420791626 0 0 0 0 -76510398.397875786 -129199144.087883 0 -129199144.087883 -193602585.63434601 0 0 0 0 598486.42424964905 -28756855.327026367 0 -28756855.327026367 -72837953.96194458 0 0 0 0 79496541.703307152 -121634303.19929504 0 -121634303.19929504 -74970498.08682251 0 0 0 0 22173139.265795708 58638961.214485168 0 58638961.214485168 -21910632.137756348 0 0 0 0 -145436228.92604971 -8995839.836763382 0 -8995839.836763382 -42368075.409820557 0 0 0 0 27671039.200653076 30504986.745826721 0 30504986.745826721 -5750374.0215835571 0 0 0 0 -2077067.6941981912 1387542.2609440871 0 1387542.2609440871 -2743603.2713222783 0 0 0 0 -132852860.47603416 152387206.05393982 0 152387206.05393982 -16755425.879776001 0 0 0 0 460758.80199838709 253689.17130735517 0 253689.17130735517 -943121.55867426097 0 0 0 0 30728.238503456116 -64770100.395774841 0 -64770100.395774841 -184251185.43146515 0 0 0 0 -35694192.31690979 179372997.70582581 0 179372997.70582581 35706923.622756958 0 0 0 0 28040301.032373428 -17166111.100257874 0 -17166111.100257874 -206753449.4822731 0 0 0 0 42177708.408907175 13687827.364940643 0 13687827.364940643 -140766897.92210388 0 0 0 0 -28182336.831587791 3083693.1728248596 0 3083693.1728248596 56379461.89969635 0 0 0 0 -1786413.6660556644 1510436.75644226 0 1510436.75644226 -1309302.2872658372 0 0 0 0 -21807769.642502189 1147716.1535358429 0 1147716.1535358429 -88155831.808029175 0 0 0 0 26919432.156398773 25764600.617591858 0 25764600.617591858 -142219480.56981087 0 0 0 0 -2544398.9184167385 19217510.622675896 0 19217510.622675896 -33638968.977874756 0 0 0 0 12479533.20619154 29556122.349395752 0 29556122.349395752 -82324972.912190437 0 0 0 0 -831638.76042376226 1083979.5059049278 0 1083979.5059049278 310392.84105721489 0 0 0 0 -8922813.4991816282 -5344537.7242207527 0 -5344537.7242207527 -3870958.9326553345 0 0 0 0 -13463503.475479126 -8589871.3383636475 0 -8589871.3383636475 5546391.7995014191 0 0 0 0 -52847830.184680939 -29057034.472595215 0 -29057034.472595215 5129195.5284423828 0 0 0 0 -25428.01170092728 87937.09362424165 0 87937.09362424165 -2695.4365804791451 0 0 0 0 98911201.40222168 75500736.912578583 0 75500736.912578583 -256171666.28753662 0 0 0 0 91663738.433493614 121400455.89707947 0 121400455.89707947 -49762198.333465576 0 0 0 0 113470577.14604473 73846707.302001953 0 73846707.302001953 45158679.621482849 0 0 0 0 1041251.3883126914 605681.517626293 0 605681.517626293 -1968808.1995545626 0 0 0 0 -146555532.45327187 -104338968.73428345 0 -104338968.73428345 713937.44136047363 0 0 0 0 -62719007.849271774 -112100550.14780045 0 -112100550.14780045 -276082116.26797485 0 0 0 0 -122846588.38516808 72250859.740989685 0 72250859.740989685 108920265.41300201 0 0 0 0 -3653885.8007383347 -51132077.903915405 0 -51132077.903915405 -87626616.718509674 0 0 0 0 -138248611.29631615 -73859181.071942329 0 -73859181.071942329 -209946068.89091492 0 0 0 0 -16179116.812787354 44257287.151260376 0 44257287.151260376 -130662470.39874268 0 0 0 0 -92267497.582722753 80660123.712501526 0 80660123.712501526 -206988916.0776062 0 0 0 0 -153638230.48537502 13840829.37802887 0 13840829.37802887 -94148755.371795654 0 0 0 0 -89067441.765000895 -89712025.582828522 0 -89712025.582828522 -34061299.320617676 0 0 0 0 -465222.25849344308 520879.49372314289 0 520879.49372314289 -225559.38538649958 0 0 0 0 -180406709.85715145 96201602.179683685 0 96201602.179683685 -99013972.969749451 0 0 0 0 19967272.910031557 48629098.253421783 0 48629098.253421783 -317379963.37310028 0 0 0 0 -40863282.054402351 -13244306.72902298 0 -13244306.72902298 -138659820.33255005 0 0 0 0 -1260150.3330946411 1185818.73903713 0 1185818.73903713 -638906.62143587647 0 0 0 0 -126847112.32093355 17588407.853916168 0 17588407.853916168 84113801.293304443 0 0 0 0 34302472.075501442 18626429.567207336 0 18626429.567207336 -204361612.90647459 0 0 0 0 -974009.79392664449 930467.59924211353 0 930467.59924211353 533489.43084127456 0 0 0 0 -24838430.121320963 -9724635.7829227448 0 -9724635.7829227448 17167756.474822998 0 0 0 0 -40523732.790703773 49114108.849868774 0 49114108.849868774 -33760569.444156647 0 0 0 0 -11729299.344582081 33164581.576660156 0 33164581.576660156 -29297767.335128784 0 0 0 0 -38370768.638869047 49281825.769420624 0 49281825.769420624 -42016434.594657898 0 0 0 0 44366503.188171625 54625158.183624268 0 54625158.183624268 -118361601.62500381 0 0 0 0 -87351543.180682451 -55043164.749923706 0 -55043164.749923706 27265200.562957764 0 0 0 0 -515378.09921132494 464445.40650226548 0 464445.40650226548 315365.92833310366 0 0 0 0 -63737965.648809627 106379450.27191925 0 106379450.27191925 -135440811.59191895 0 0 0 0 -151687931.52374774 56101009.666000366 0 56101009.666000366 25910217.051214218 0 0 0 0 -29100694.349927783 -18331291.987876892 0 -18331291.987876892 988622.88563156128 0 0 0 0 -17528370.555868626 -43063231.089103699 0 -43063231.089103699 -106122778.51417542 0 0 0 0 -18942886.872931659 -33030765.09753418 0 -33030765.09753418 10310363.634674072 0 0 0 0 -30074228.20045507 -15817488.113742828 0 -15817488.113742828 9779091.2208251953 0 0 0 0 -30074431.807145715 -5320678.7551078796 0 -5320678.7551078796 -940148.0778427124 0 0 0 0 -61902149.033684731 -3499342.5566864014 0 -3499342.5566864014 8208110.8709945679 0 0 0 0 173891.25258959155 1012572.6947274022 0 1012572.6947274022 -325483.29518814757 0 0 0 0 -10870210.68873477 -2217267.9648208618 0 -2217267.9648208618 -45705731.472780228 0 0 0 0 -28165387.851669788 -76469920.809654236 0 -76469920.809654236 -99794845.821815491 0 0 0 0 -1190040.3000226021 33684301.762424469 0 33684301.762424469 -55956721.618240356 0 0 0 0 63578.915722047444 594697.53035001084 0 594697.53035001084 -191679.33620477468 0 0 0 0 -23129739.986776114 67776342.884307861 0 67776342.884307861 -107986714.67073059 0 0 0 0 -120816833.49796581 83828901.016799927 0 83828901.016799927 -29323069.1143707 0 0 0 0 -73227919.267250061 132602923.62997437 0 132602923.62997437 -215866946.5900116 0 0 0 0 -97761174.336485863 20899906.996322632 0 20899906.996322632 -4425837.0517120361 0 0 0 0 -128824200.31984329 -107347483.1545639 0 -107347483.1545639 -187807858.11967468 0 0 0 0 -111668142.436028 -86699405.329444885 0 -86699405.329444885 -121572011.2061615 0 0 0 0 -36995519.652866364 -47706557.908607483 0 -47706557.908607483 -161322993.09991455 0 0 0 0 -53799714.212975383 -62020829.008586884 0 -62020829.008586884 -112037884.9105835 0 0 0 0 -31442066.079497814 -69354750.73367691 0 -69354750.73367691 -110053795.34193039 0 0 0 0 -52298711.397549123 -64916398.78910923 0 -64916398.78910923 -122158395.02435303 0 0 0 0 26394140.008369446 -40732084.192653656 0 -40732084.192653656 -128688106.16326904 0 0 0 0 -4307041.5917277336 -24749120.864624023 0 -24749120.864624023 -95779536.278793335 0 0 0 0 -42100676.57082659 -47977193.072681427 0 -47977193.072681427 -81708680.692138672 0 0 0 0 -13253092.993296981 -62984436.31627655 0 -62984436.31627655 -170320257.579216 0 0 0 0 -14283808.702562213 -29726398.024650574 0 -29726398.024650574 -109646238.42440796 0 0 0 0 1929631.3813515902 -56020774.254173279 0 -56020774.254173279 -67046872.159423828 0 0 0 0 -738925.83718878031 -5351369.94597435 0 -5351369.94597435 -63189905.152740479 0 0 0 0 23630995.658071518 -69340647.365604401 0 -69340647.365604401 -176708221.2773819 0 0 0 0 12125306.422350883 -71030643.691177368 0 -71030643.691177368 -166691713.01672363 0 0 0 0 11430791.19195652 -71740793.750869751 0 -71740793.750869751 -93037313.148014069 0 0 0 0 -41187467.668313026 -39213196.632671356 0 -39213196.632671356 -102268821.8993988 0 0 0 0 -121247269.24459791 -133224290.84554863 0 -133224290.84554863 -117147737.19216919 0 0 0 0 40222154.70126915 -151273351.10258484 0 -151273351.10258484 -209591759.68569183 0 0 0 0 29402076.715482712 -110979707.77151489 0 -110979707.77151489 -95729198.750984192 0 0 0 0 -11081622.2844944 433429.2981262207 0 433429.2981262207 -10879196.690856934 0 0 0 0 20515931.697189331 -92822341.000854492 0 -92822341.000854492 -137806417.74085617 0 0 0 0 130915588.80193615 -75145518.861022949 0 -75145518.861022949 -135144336.42637634 0 0 0 0 344063.57035662699 266164.8670989722 0 266164.8670989722 -1307302.6840433329 0 0 0 0 30770620.067907333 11880504.163551331 0 11880504.163551331 -729057.10474014282 0 0 0 0 -1714047.8783688545 -27623434.465076447 0 -27623434.465076447 -75832766.094116211 0 0 0 0 -8269914.5287284851 -34474656.641693115 0 -34474656.641693115 -71703549.434860229 0 0 0 0 41624267.081524849 -89693767.652252197 0 -89693767.652252197 -190751187.52056885 0 0 0 0 14362162.554948807 -17897738.894004822 0 -17897738.894004822 -9732303.6871948242 0 0 0 0 -85120836.73690033 94432662.241744995 0 94432662.241744995 -43441637.220237732 0 0 0 0 -68826867.139287949 -36676618.381629944 0 -36676618.381629944 20586583.926147461 0 0 0 0 269985.70546615869 82733.627532355487 0 82733.627532355487 -638516.90061955899 0 0 0 0 -68689494.943638802 -142626685.92990112 0 -142626685.92990112 -325358860.81307983 0 0 0 0 -68488233.155632019 31535080.079811096 0 31535080.079811096 -346630035.18625164 0 0 0 0 -52611873.883485794 -17596414.276321411 0 -17596414.276321411 -194605739.6849823 0 0 0 0 -215152345.78185511 -2022873.5240821838 0 -2022873.5240821838 -153974720.11170959 0 0 0 0 14924364.883930206 -63779309.334358215 0 -63779309.334358215 -176669659.64356613 0 0 0 0 -68348270.403715253 -104396308.85607046 0 -104396308.85607046 -149343252.65866089 0 0 0 0 19411089.536007881 -58864874.345359802 0 -58864874.345359802 -287870779.24211121 0 0 0 0 -2044337.6494098902 -28362347.091976166 0 -28362347.091976166 -194483616.91607666 0 0 0 0 2581917.4993993044 -10706254.708014488 0 -10706254.708014488 -155129877.46591187 0 0 0 0 -84104734.311890602 -9581547.2908554077 0 -9581547.2908554077 -127985110.94948578 0 0 0 0 -61379437.48613739 -40470598.885765076 0 -40470598.885765076 -157507767.10368156 0 0 0 0 1214290.9312019348 -30668323.837371826 0 -30668323.837371826 -122910895.27317047 0 0 0 0 14345928.986293793 22188232.467720032 0 22188232.467720032 -93130185.193916321 0 0 0 0 9771812.9433479309 -20158155.744632721 0 -20158155.744632721 -145235005.62548828 0 0 0 0 7666101.2509980798 -3490781.4174618721 0 -3490781.4174618721 -84383112.151809692 0 0 0 0 11231266.103800774 -11796303.419864655 0 -11796303.419864655 -106992082.03208923 0 0 0 0 3790727.0362453461 1189046.8101654053 0 1189046.8101654053 -84721810.890402317 0 0 0 0 2394627.792552948 -21075211.090774536 0 -21075211.090774536 -83825727.60181427 0 0 0 0 -4689946.8623523712 -20657933.649608612 0 -20657933.649608612 -63692366.420440674 0 0 0 0 28639530.511247873 -15404260.788568497 0 -15404260.788568497 -139204588.24378967 0 0 0 0 24503350.951444626 -807585.49802780151 0 -807585.49802780151 -96274318.086647034 0 0 0 0 6634958.4789438248 -7342712.6625747681 0 -7342712.6625747681 -92690362.693321228 0 0 0 0 6018649.1040334702 4847255.4025878906 0 4847255.4025878906 -63046981.208175659 0 0 0 0 18041393.715576172 -209088.64628601074 0 -209088.64628601074 -96201460.064332962 0 0 0 0 18209572.202890396 4308212.3024215698 0 4308212.3024215698 -78273721.460083008 0 0 0 0 -2062018.9209175361 32208.820370476693 0 32208.820370476693 35295.913398403674 0 0 0 0 -85590981.363903761 -32867983.534561157 0 -32867983.534561157 -21480846.949813843 0 0 0 0 -816746.63220343925 192069.70908534527 0 192069.70908534527 97414.539751805365 0 0 0 0 123165312.73413658 22969509.538223267 0 22969509.538223267 -159914686.3331604 0 0 0 0 27450486.595229149 -27066729.301940918 0 -27066729.301940918 -91389955.768798828 0 0 0 0 -21279771.553419113 63360902.913726807 0 63360902.913726807 -203888367.18172836 0 0 0 0 -32973395.399650574 24360042.551239014 0 24360042.551239014 -114622014.18041992 0 0 0 0 53068152.133522034 18040573.825202942 0 18040573.825202942 -105724282.51113129 0 0 0 0 -643575396.25052643 5315637.7678833008 0 5315637.7678833008 -70117593.573547363 0 0 0 0 -3065576.8943077717 -338488.0297703445 0 -338488.0297703445 -91514.245692797005 0 0 0 0 186961144.36406708 -92384188.379905701 0 -92384188.379905701 -77790256.836618423 0 0 0 0 50971018.039143682 -61954985.632760823 0 -61954985.632760823 -290346674.2678833 0 0 0 0 -140825581.60036564 -143887449.09195709 0 -143887449.09195709 -136542204.06030273 0 0 0 0 555537.4753255127 456728.72678978881 0 456728.72678978881 -982615.86269786209 0 0 0 0 -3919642.3036899567 -17693522.007019043 0 -17693522.007019043 -52683397.327140808 0 0 0 0 -22268900.037630081 -55016422.895915985 0 -55016422.895915985 -94906782.967201233 0 0 0 0 1457471.8760435269 2978203.3330574189 0 2978203.3330574189 -2188334.4178076908 0 0 0 0 -22494115.339300156 -19880149.738037109 0 -19880149.738037109 -44780200.691574097 0 0 0 0 -20619778.789302826 -30671223.246142626 0 -30671223.246142626 -31009541.782394409 0 0 0 0 -42497953.61522007 -20435057.102069855 0 -20435057.102069855 162569734.29972839 0 0 0 0 -25561681.919067383 -23246695.096687317 0 -23246695.096687317 -34868069.451911926 0 0 0 0 141213622.17881775 2337979.6195664406 0 2337979.6195664406 -128711634.35079956 0 0 0 0 -99892374.2929039 -333870411.77452087 0 -333870411.77452087 -286564787.44520569 0 0 0 0 176702176.70108795 -9182452.8600234985 0 -9182452.8600234985 -574494970.86255264 0 0 0 0 -167745109.89959145 89873515.059577942 0 89873515.059577942 -124214300.17510223 0 0 0 0 -36998007.887913704 -66800625.739065647 0 -66800625.739065647 -16134432.160480499 0 0 0 0 -115308194.67881203 -59930436.85837841 0 -59930436.85837841 80921790.933872223 0 0 0 0 40732037.036716461 270743149.71608257 0 270743149.71608257 213251059.29673523 0 0 0 0 50456904.666696072 537873423.6980691 0 537873423.6980691 340557155.09043884 0 0 0 0 -1875651.268578711 16771546.404120103 0 16771546.404120103 -35132322.528715767 0 0 0 0 551831898.66902065 -49307742.693023682 0 -49307742.693023682 -657149724.75035095 0 0 0 0 -811948263.3482399 116577336.19852448 0 116577336.19852448 535047302.29244995 0 0 0 0 -19155027.817413762 56852908.975819916 0 56852908.975819916 113383625.85939217 0 0 0 0 511265491.98400497 463571994.11162567 0 463571994.11162567 -70649768.489898682 0 0 0 0 51276296.187961578 74544254.088150024 0 74544254.088150024 84975054.315731049 0 0 0 0 -882988.64048698358 14993326.892269185 0 14993326.892269185 -35738210.585127324 0 0 0 0 150294579.26952744 -101787030.05476379 0 -101787030.05476379 -217952286.0778656 0 0 0 0 -165581630.1833992 -235329549.39916229 0 -235329549.39916229 -196830256.46032715 0 0 0 0 -204048368.30303478 -130266229.04445648 0 -130266229.04445648 -272605001.5385437 0 0 0 0 -205941243.41090584 -244100781.39292145 0 -244100781.39292145 -139232499.3462677 0 0 0 0 -29448867.364517212 -83032758.161132812 0 -83032758.161132812 -253277717.68784332 0 0 0 0 -242276097.62939167 -177492331.41671753 0 -177492331.41671753 -140462323.37634277 0 0 0 0 57400481.35490799 -19546907.320716858 0 -19546907.320716858 -242179018.45291328 0 0 0 0 103230525.2746439 -101469887.05899048 0 -101469887.05899048 -108466696.99810791 0 0 0 0 350243666.8775444 421977282.04084778 0 421977282.04084778 -528371280.30264282 0 0 0 0 -9349320.318572998 837669310.89160156 0 837669310.89160156 -274672509.28979111 0 0 0 0 649819471.52124405 309610485.91993713 0 309610485.91993713 -353173847.79605103 0 0 0 0 545627752.82872391 -36724088.747467041 0 -36724088.747467041 -254263575.98635864 0 0 0 0 -1056149981.3966827 -78720605.928283691 0 -78720605.928283691 -56122142.560943604 0 0 0 0 -1860395.5970183918 -116752.79586973041 0 -116752.79586973041 -7517.8076901249588 0 0 0 0 -200456384.07517624 -156288790.58110428 0 -156288790.58110428 -396399300.95599365 0 0 0 0 -276897654.32122421 -304347263.23951721 0 -304347263.23951721 -309157570.94633102 0 0 0 0 -1001280614.0932579 242314227.11579895 0 242314227.11579895 105935750.40673828 0 0 0 0 80372.648178965319 -833917.06907386333 0 -833917.06907386333 -2183399.4439117759 0 0 0 0 -277666261.75690651 -281457912.68773651 0 -281457912.68773651 -156325659.48169708 0 0 0 0 -45004607.109033585 81968159.641372681 0 81968159.641372681 -64264456.565107346 0 0 0 0 64776656.849058151 128277878.53928375 0 128277878.53928375 -202222309.86101532 0 0 0 0 -319423908.64691544 137171476.39952087 0 137171476.39952087 -65749867.899526596 0 0 0 0 -4997196.6586914062 465597986.29239655 0 465597986.29239655 -327810599.09020996 0 0 0 0 261027852.54582214 92484740.98979187 0 92484740.98979187 -211032724.94920349 0 0 0 0 -28477732.925207138 41396861.028244019 0 41396861.028244019 -55354570.179641724 0 0 0 0 -2408632.4779510498 45249234.146255493 0 45249234.146255493 -79488137.670883179 0 0 0 0 -41195869.97784996 85373471.142223358 0 85373471.142223358 -83593187.709350586 0 0 0 0 -2574053.9154462814 42756232.718358994 0 42756232.718358994 -74591114.231903076 0 0 0 0 -23237044.432138443 -1502357.7796554565 0 -1502357.7796554565 -17540758.299598694 0 0 0 0 -103112160.91955662 38622069.533668518 0 38622069.533668518 -29671383.262969971 0 0 0 0 380643.74724017549 -2743548.4619097468 0 -2743548.4619097468 -6626873.3915740922 0 0 0 0 -6626942.8512811735 -8360514.451458957 0 -8360514.451458957 -6066821.8920552731 0 0 0 0 -9609072.0752677917 -8954720.6344833374 0 -8954720.6344833374 -2732051.9034614563 0 0 0 0 -3626245.6717777252 -12567094.905326843 0 -12567094.905326843 -1175105.136013031 0 0 0 0 -1448792.7210352421 -13397096.776752472 0 -13397096.776752472 -18478889.379760742 0 0 0 0 -4275817.9006507397 -21077727.908126831 0 -21077727.908126831 -13324759.343078613 0 0 0 0 -8695566.8444635775 -11254499.341169335 0 -11254499.341169335 -7611515.5591338649 0 0 0 0 -5808520.0813961029 -24905170.023933411 0 -24905170.023933411 -17682815.067957878 0 0 0 0 38561530.0051651 -29338834.552108765 0 -29338834.552108765 -69677786.150421143 0 0 0 0 -5566890.3964576721 -23631263.67653656 0 -23631263.67653656 -11044903.218948364 0 0 0 0 -287572.34429168701 24118854.82270813 0 24118854.82270813 -75218761.39263916 0 0 0 0 900408.27104187012 27045182.33833313 0 27045182.33833313 -85639280.965171814 0 0 0 0 -12850639.155727386 13632022.493804932 0 13632022.493804932 -13262129.550338745 0 0 0 0 -42535571.624500275 -200295102.18883514 0 -200295102.18883514 -212552695.42783451 0 0 0 0 68055280.717487335 -73726852.844020844 0 -73726852.844020844 -92485166.659912109 0 0 0 0 -241409533.52573013 -75320302.720493317 0 -75320302.720493317 16691596.642021179 0 0 0 0 -2488981.1275059544 -346786.67152627185 0 -346786.67152627185 2190479.4870654419 0 0 0 0 -638660.10859985789 -10017790.517426552 0 -10017790.517426552 47735.20050445199 0 0 0 0 -39021544.69707489 -45680995.569732666 0 -45680995.569732666 -23992748.733623505 0 0 0 0 -59741277.152442932 -60752409.101436615 0 -60752409.101436615 -12859808.305358887 0 0 0 0 -14559107.966068268 -80360611.770553589 0 -80360611.770553589 -89912563.653686523 0 0 0 0 -2854060.8600063324 -28143691.310348511 0 -28143691.310348511 -13013236.723840743 0 0 0 0 -16368892.378257751 -50833732.300666809 0 -50833732.300666809 -25740783.4164505 0 0 0 0 2520525.8068021582 -15956285.722199276 0 -15956285.722199276 -3351154.1649292223 0 0 0 0 -2526225.1607420444 -17887313.259263992 0 -17887313.259263992 -15483975.461502075 0 0 0 0 8260453.8027448654 -1842104.6419649124 0 -1842104.6419649124 -25274086.522033691 0 0 0 0 -29246040.870193481 -19016564.072311401 0 -19016564.072311401 -24292777.534439087 0 0 0 0 -60821185.048301697 2316197.2777099609 0 2316197.2777099609 -43626230.737060547 0 0 0 0 26072131.957832336 -34255209.258422852 0 -34255209.258422852 -74808941.181907654 0 0 0 0 2197668.9359499803 1025493.5185668953 0 1025493.5185668953 -4333020.9294623695 0 0 0 0 -26655719.688539505 14595171.196304321 0 14595171.196304321 -42037237.275924683 0 0 0 0 -10614477.13433075 -5156644.772102356 0 -5156644.772102356 -33187414.286071777 0 0 0 0 -13650573.158067703 11817018.089847565 0 11817018.089847565 -41503452.947845459 0 0 0 0 -44664339.667125702 4397855.3244934082 0 4397855.3244934082 -35708894.865959167 0 0 0 0 24215373.315589905 -19890540.679969788 0 -19890540.679969788 -17249995.379714966 0 0 0 0 341637.40782259032 64530.203372137621 0 64530.203372137621 -1479025.1736490987 0 0 0 0 -6674244.0627632141 -31959276.860401154 0 -31959276.860401154 -42060862.519042969 0 0 0 0 4968383.9725231268 -3151354.4108307716 0 -3151354.4108307716 -26582084.312983409 0 0 0 0 44532325.504236221 16527408.203901768 0 16527408.203901768 -46779751.352083206 0 0 0 0 -11798709.232178688 30596647.384876013 0 30596647.384876013 -22390378.636425018 0 0 0 0 -1820022.0177435875 -15974874.873790741 0 -15974874.873790741 -43568547.422531128 0 0 0 0 -851054.15515327454 -2224375.3322143555 0 -2224375.3322143555 -5428417.2730331421 0 0 0 0 -211361.658223829 -4456539.8617357314 0 -4456539.8617357314 -12069752.424321316 0 0 0 0 2966861.7831859589 -2568667.9217605591 0 -2568667.9217605591 -5566061.5869750977 0 0 0 0 1782746.9599928302 -7134245.5306390263 0 -7134245.5306390263 -13215750.431000516 0 0 0 0 -3708266.3235664368 -19777576.934898376 0 -19777576.934898376 -22634246.389984131 0 0 0 0 -2878602.0538216578 -7153118.6702932082 0 -7153118.6702932082 -9515886.3603596278 0 0 0 0 1187401.4095382611 -2499413.4171766918 0 -2499413.4171766918 -2591507.6161868498 0 0 0 0 42663898.486907959 -23020917.216873169 0 -23020917.216873169 -31397425.646606445 0 0 0 0 -7437155.3739650548 -2582991.8407554626 0 -2582991.8407554626 -10119554.975494385 0 0 0 0 -7218769.6992964745 -15914662.878250122 0 -15914662.878250122 -17112980.223949432 0 0 0 0 -9360548.6555833817 -28323916.0184021 0 -28323916.0184021 -41007246.265808105 0 0 0 0 -15602308.153388977 -9839796.2440567017 0 -9839796.2440567017 -20089944.805511475 0 0 0 0 -9967655.1256017685 -25028121.329826355 0 -25028121.329826355 -34797011.740844727 0 0 0 0 -10074219.099797249 -8732594.5501098633 0 -8732594.5501098633 -52973849.351303101 0 0 0 0 -36317.972685204353 310866.09780271724 0 310866.09780271724 -2334303.6899820329 0 0 0 0 2417840.8996674735 -189157.04395228438 0 -189157.04395228438 -10161252.686726023 0 0 0 0 8739763.2155261934 -14907278.177444458 0 -14907278.177444458 -83943778.928993225 0 0 0 0 -9766371.8408817649 -19379418.16917038 0 -19379418.16917038 -1193504.7724838257 0 0 0 0 -45978835.57055831 -14423804.741364002 0 -14423804.741364002 -25298516.188964844 0 0 0 0 -27490116.501960754 -26728718.504150391 0 -26728718.504150391 -29365194.886627197 0 0 0 0 71018450.737625599 -87133612.917751312 0 -87133612.917751312 -44765449.254882812 0 0 0 0 -18715611.149982929 8503135.0875396729 0 8503135.0875396729 -39033964.395050049 0 0 0 0 261792.13747959421 -583419.21543524787 0 -583419.21543524787 -1085185.7979514701 0 0 0 0 -3067281.8595308773 -7669224.1584514994 0 -7669224.1584514994 -10843696.41573769 0 0 0 0 -210511.7175270298 463209.69135634229 0 463209.69135634229 -7267501.4949802002 0 0 0 0 310429.55662345886 1482371.1972618103 0 1482371.1972618103 -9826469.6437683105 0 0 0 0 4390976.1202978622 -8529825.5293079801 0 -8529825.5293079801 -16746325.526436239 0 0 0 0 -273747.97464403859 -5459494.2517926311 0 -5459494.2517926311 -13121644.831941854 0 0 0 0 518967.37124061584 -2143792.5150642395 0 -2143792.5150642395 -7360534.6358947754 0 0 0 0 -6040848.3349299431 -17874763.992454529 0 -17874763.992454529 -39394624.558242798 0 0 0 0 7238.5424518585205 -1548556.7749481201 0 -1548556.7749481201 -7810450.4861297607 0 0 0 0 -556708.15044647828 -464822.9705697 0 -464822.9705697 -4152698.7260414921 0 0 0 0 -77424.436876773834 -1444635.8102207184 0 -1444635.8102207184 -7143871.8133926392 0 0 0 0 112920.13681030273 -1359864.762512207 0 -1359864.762512207 -8724513.6607246399 0 0 0 0 537839.8284778595 -983859.80271148682 0 -983859.80271148682 -1979346.2875976562 0 0 0 0 -637987.34035873413 -913668.70941162109 0 -913668.70941162109 -8688524.6737594604 0 0 0 0 -925605.24893087149 -1216659.4003341198 0 -1216659.4003341198 -6807593.408454895 0 0 0 0 -4342420.2483624397 -10313414.104413915 0 -10313414.104413915 -13310809.185378 0 0 0 0 -414456.11380284606 -1132141.9586159363 0 -1132141.9586159363 -14186955.129562726 0 0 0 0 -58575.049828025512 -49904.682713862509 0 -49904.682713862509 143621.18417298049 0 0 0 0 -19522905.97314167 -119091622.94533539 0 -119091622.94533539 -81987023.908683777 0 0 0 0 -580490.88512697886 -5342047.4905503877 0 -5342047.4905503877 -9448437.3239751756 0 0 0 0 805128.32721996307 -520508.6558265686 0 -520508.6558265686 -3469337.9715805054 0 0 0 0 -220478772.37052155 47271076.198913574 0 47271076.198913574 145910463.45062256 0 0 0 0 334260753.90773392 252437967.29992676 0 252437967.29992676 108819990.3474884 0 0 0 0 -54353.392571608536 -265143.21398944035 0 -265143.21398944035 -515759.18653283268 0 0 0 0 -10818206.927452087 -18546512.982788086 0 -18546512.982788086 463049.03723144531 0 0 0 0 -2335723.6495551122 -6617714.1076779366 0 -6617714.1076779366 -8001415.2743421867 0 0 0 0 -3120796.51317763 -1628618.9943037741 0 -1628618.9943037741 3305405.5741746724 0 0 0 0 17432992.016260147 -25153095.902763367 0 -25153095.902763367 -94131795.927200317 0 0 0 0 -33352513.458303452 -68723694.248802185 0 -68723694.248802185 -115026232.41687775 0 0 0 0 8152708.8480758667 -41681346.949707031 0 -41681346.949707031 -102253713.41467285 0 0 0 0 -143640234.51575851 -96513394.687637329 0 -96513394.687637329 -74479197.135116577 0 0 0 0 -64667.78494644165 -5555308.21484375 0 -5555308.21484375 -3227869.3061218262 0 0 0 0 277865.12418484688 3690048.7234663963 0 3690048.7234663963 16657553.233688354 0 0 0 0 -1146275.3529853821 -4929671.8610992432 0 -4929671.8610992432 1048310.3050537109 0 0 0 0 292029.00724119786 -1186884.1633027904 0 -1186884.1633027904 -18136066.576730561 0 0 0 0 -10708892.394471478 -5958609.8628127668 0 -5958609.8628127668 2070636.505719468 0 0 0 0 -7989884.6041889191 -333815.80836486816 0 -333815.80836486816 -2028592.8192596436 0 0 0 0 -872779.15561485291 -5902308.3967819214 0 -5902308.3967819214 -2631543.427520752 0 0 0 0 -3928353.0129455561 -7601957.2271723337 0 -7601957.2271723337 -17585185.294008281 0 0 0 0 -1899340.0358186672 335413.15109069273 0 335413.15109069273 -5987904.8749029152 0 0 0 0 466217.58117834665 -4061685.1692898292 0 -4061685.1692898292 -6845255.0488965064 0 0 0 0 19782326.032888412 32011270.242149353 0 32011270.242149353 -11716225.126960754 0 0 0 0 -45139255.966011047 -45931079.362922668 0 -45931079.362922668 108232209.6295166 0 0 0 0 2449481.5836453438 146224.97046279907 0 146224.97046279907 -25426881.571228027 0 0 0 0 24012959.485401154 -149571478.09724426 0 -149571478.09724426 -17186070.655609131 0 0 0 0 79630207.305600166 -130634272.7034874 0 -130634272.7034874 -180509399.97155762 0 0 0 0 72860089.613845825 12339747.469467163 0 12339747.469467163 -281177402.11457825 0 0 0 0 27906489.484649658 -6918888.1538085938 0 -6918888.1538085938 -67265361.874706268 0 0 0 0 -46785804.996839523 10962042.084396362 0 10962042.084396362 -97796827.238082886 0 0 0 0 -46666527.375207901 125215764.86125946 0 125215764.86125946 -165479649.16492462 0 0 0 0 1125021.1475372314 -26971236.085769653 0 -26971236.085769653 -72668672.672836304 0 0 0 0 27366959.889148712 10001951.437522888 0 10001951.437522888 -112695614.94082642 0 0 0 0 11333709.820743561 -7380087.7640075684 0 -7380087.7640075684 -103201223.82551575 0 0 0 0 -27501799.138631821 -12382115.847839355 0 -12382115.847839355 -103837882.25137711 0 0 0 0 -12073903.385549545 -3682954.6579437256 0 -3682954.6579437256 -112801244.36747742 0 0 0 0 -44234019.906898499 -9815666.6638946533 0 -9815666.6638946533 -113028783.22013378 0 0 0 0 -28174447.982225418 57509518.01473999 0 57509518.01473999 -51544123.916366577 0 0 0 0 -75531626.845035553 -5897306.2965087891 0 -5897306.2965087891 -90864616.026046753 0 0 0 0 -112140358.148206 -1713498.3428082466 0 -1713498.3428082466 -86557546.558410645 0 0 0 0 3052682.8666534424 24536920.846160889 0 24536920.846160889 -404428311.34649277 0 0 0 0 -35298495.069300652 38004540.502998352 0 38004540.502998352 -219835291.64122009 0 0 0 0 -52090128.23291111 -36255839.264724731 0 -36255839.264724731 -175538384.02102661 0 0 0 0 -30716602.094788551 19262518.164424896 0 19262518.164424896 -164175875.15666199 0 0 0 0 -11032061.107330322 12509426.246002197 0 12509426.246002197 -172774432.38673401 0 0 0 0 -13515140.528830528 -15267534.229976654 0 -15267534.229976654 -164107487.57136536 0 0 0 0 -8339501.0852737427 23238843.986419678 0 23238843.986419678 -144280673.13959503 0 0 0 0 819338.28345108032 3136957.6999816895 0 3136957.6999816895 -140161997.23962402 0 0 0 0 39908422.201808929 -4639776.2036590576 0 -4639776.2036590576 -146001644.1692276 0 0 0 0 38746200.790714264 38481507.434143066 0 38481507.434143066 -144657169.12786865 0 0 0 0 869963.76395225525 36586397.398590088 0 36586397.398590088 -143410595.855896 0 0 0 0 -3338270.8824839592 47358137.948368073 0 47358137.948368073 -100399974.28475952 0 0 0 0 16284975.014575958 16039004.090377808 0 16039004.090377808 -130480261.27772522 0 0 0 0 -36446090.94263947 -31921960.526147842 0 -31921960.526147842 -134276680.65039062 0 0 0 0 18782554.086929321 -550279.30764770508 0 -550279.30764770508 -126593770.30776215 0 0 0 0 -37910170.046264648 28112617.139968872 0 28112617.139968872 -90465170.164825439 0 0 0 0 1390124.7828674316 18332947.349739075 0 18332947.349739075 -105338365.31600952 0 0 0 0 13704290.419607162 14731971.199401855 0 14731971.199401855 -121075153.44009399 0 0 0 0 -9460469.1633605957 -66547581.783889771 0 -66547581.783889771 -57927211.969207764 0 0 0 0 -80053241.45911026 -38183637.829391479 0 -38183637.829391479 -2809915.8250770569 0 0 0 0 150762222.14356041 19646435.050415039 0 19646435.050415039 -157852363.27148438 0 0 0 0 -8959620.9189186096 -8115163.0597229004 0 -8115163.0597229004 -19587638.842453003 0 0 0 0 -2232981.1942555411 -2365219.5293626934 0 -2365219.5293626934 1990439.5470191762 0 0 0 0 72625192.857620239 151950101.98126221 0 151950101.98126221 13127572.781433105 0 0 0 0 -46319968.479415894 28409306.308670044 0 28409306.308670044 -94027956.148162842 0 0 0 0 -44471018.82466507 -15029429.386810303 0 -15029429.386810303 -21854491.579391479 0 0 0 0 -48762059.398792267 -41435807.26234436 0 -41435807.26234436 -102200185.61655807 0 0 0 0 -15231412.055932999 -27686861.619716644 0 -27686861.619716644 -105395037.18624878 0 0 0 0 -18599673.306689262 -2875634.4700393677 0 -2875634.4700393677 -112643174.32449341 0 0 0 0 -16397076.804338455 -3601388.3099594116 0 -3601388.3099594116 -127019506.56277466 0 0 0 0 -1223431.8181867599 18383320.213382721 0 18383320.213382721 -95815863.49407959 0 0 0 0 150814.8136448522 48706950.397781372 0 48706950.397781372 -98375745.849143982 0 0 0 0 53594537.663298652 15406979.979125977 0 15406979.979125977 -288422758.80322266 0 0 0 0 -24724.605440861833 -678490.5349107543 0 -678490.5349107543 -1280511.5566720963 0 0 0 0 131837463.78973906 154167134.08071899 0 154167134.08071899 -103937246.37957001 0 0 0 0 -413926898.21861798 -194838519.09594727 0 -194838519.09594727 77432804.141342163 0 0 0 0 -85032383.960184693 -19049383.321022034 0 -19049383.321022034 -80291550.721862793 0 0 0 0 32913644.564152747 -7187015.3363876343 0 -7187015.3363876343 18325830.56993103 0 0 0 0 265288728.0971348 57425344.997498512 0 57425344.997498512 -125447610.13816833 0 0 0 0 -15171862.593599319 -58320033.209114075 0 -58320033.209114075 -28379552.586200714 0 0 0 0 -109179.49310266913 -2119107.5222953567 0 -2119107.5222953567 -3778017.4534313828 0 0 0 0 -114856835.37947249 -103920705.58507919 0 -103920705.58507919 -11250739.552383423 0 0 0 0 181065457.48452175 -68586461.515846252 0 -68586461.515846252 -85113585.994049072 0 0 0 0 82423.822894984143 -6479789.4116469501 0 -6479789.4116469501 -6693005.1856568307 0 0 0 0 22055496.938582182 -30085608.619506836 0 -30085608.619506836 -40609704.305541992 0 0 0 0 54877861.71750021 -55414728.817703247 0 -55414728.817703247 -30469497.899688721 0 0 0 0 45219237.227037624 -109944337.12787628 0 -109944337.12787628 2536353.0460357666 0 0 0 0 -72431290.98040247 -269962803.89281464 0 -269962803.89281464 -320657999.50783157 0 0 0 0 -6224837.3334163278 -40097872.204956055 0 -40097872.204956055 -78260562.373931885 0 0 0 0 28085786.48961119 29104908.034130096 0 29104908.034130096 -212166539.71359253 0 0 0 0 -420811660.8272444 -296805413.16197205 0 -296805413.16197205 -113464676.32228851 0 0 0 0 -1515735.5606908088 -316775898.95532459 0 -316775898.95532459 -2363569090.3268127 0 0 0 0 -400357887.25379312 -40651320.995802879 0 -40651320.995802879 -160853559.17987061 0 0 0 0 678605886.3680861 -1593716123.3110886 0 -1593716123.3110886 -5341403854.0394592 0 0 0 0 277409750.39919114 -240749488.44923401 0 -240749488.44923401 -1959189313.9066658 0 0 0 0 -2012171714.5562367 -3009344902.0918655 0 -3009344902.0918655 -2525565190.9132156 0 0 0 0 -779461268.24914241 1118819873.4597187 0 1118819873.4597187 -1224896723.8331909 0 0 0 0 -77898.475272698444 -1394941.846376407 0 -1394941.846376407 -6532558.2097079009 0 0 0 0 -258528590.5827868 -381692463.91434479 0 -381692463.91434479 -989809590.52015686 0 0 0 0 902668.86725506524 547894.18162752129 0 547894.18162752129 -14719957.901111469 0 0 0 0 175489773.43924189 -139788734.63453865 0 -139788734.63453865 107535098.06365967 0 0 0 0 15464840.481040955 16956242.20892334 0 16956242.20892334 -35315107.71721673 0 0 0 0 40723607.473997772 106376263.23173523 0 106376263.23173523 -1360676212.2654572 0 0 0 0 -307633317.47987986 -42168021.248123169 0 -42168021.248123169 476564573.55444336 0 0 0 0 496810.34168590792 -479813.97751608491 0 -479813.97751608491 -2719467.4945825087 0 0 0 0 50726854.490251139 -96967380.793794632 0 -96967380.793794632 94934783.914245605 0 0 0 0 40800089.150254846 -191879723.52191162 0 -191879723.52191162 -174669754.78742218 0 0 0 0 3754468.0456600189 -12709574.446807861 0 -12709574.446807861 -3541200.6121826172 0 0 0 0 -98922.092535327771 -4202311.7243864089 0 -4202311.7243864089 -17672920.686456066 0 0 0 0 113943942.54355001 83178272.575683594 0 83178272.575683594 57429686.770202637 0 0 0 0 -801614753.53215885 -29875869.806884766 0 -29875869.806884766 123307575.91957092 0 0 0 0 2826574.8299069572 -9972822.5720981881 0 -9972822.5720981881 -4917107.4381011706 0 0 0 0 205428768.30938578 -352905896.41105652 0 -352905896.41105652 -207294928.34240723 0 0 0 0 206580016.32189858 -99910293.68655014 0 -99910293.68655014 -144525323.85028076 0 0 0 0 535699326.74031162 158851210.57788086 0 158851210.57788086 33192691.272644043 0 0 0 0 731383.69691472303 -522248.44557205215 0 -522248.44557205215 -1283273.1403286308 0 0 0 0 10877490.545724392 295330040.73182678 0 295330040.73182678 -164414792.91495514 0 0 0 0 52180200.931720018 -86691398.51991272 0 -86691398.51991272 -113042504.0496521 0 0 0 0 -463374.22420682199 2216177.1540775672 0 2216177.1540775672 -16873021.892610043 0 0 0 0 95668000.164254189 -22895096.120903015 0 -22895096.120903015 -40328984.402834028 0 0 0 0 15244411.375091672 15851869.830093384 0 15851869.830093384 302675107.89755249 0 0 0 0 -177332718.56498373 -406825944.98944092 0 -406825944.98944092 52417623.727142334 0 0 0 0 -510679203.86674923 -74453730.297866821 0 -74453730.297866821 365671228.60780716 0 0 0 0 290624494.75136542 112568410.76708603 0 112568410.76708603 -81881545.216781616 0 0 0 0 -3956512.7669928246 3075010.3442850783 0 3075010.3442850783 -9951647.6080508083 0 0 0 0 177393530.63388568 546097720.76698685 0 546097720.76698685 -1331286938.0045013 0 0 0 0 62570629.964160472 -1638262571.5698547 0 -1638262571.5698547 -5350360717.6817322 0 0 0 0 313894177.00150895 -278400538.74412537 0 -278400538.74412537 -1236124400.0712271 0 0 0 0 572069480.68625069 611808621.43976212 0 611808621.43976212 -5344094746.3477478 0 0 0 0 -187646436.87239236 1843206141.5917587 0 1843206141.5917587 -3554647566.931778 0 0 0 0 1155505936.9261684 833953686.81681824 0 833953686.81681824 -5343693621.4102325 0 0 0 0 -1395613313.0675678 1099550606.818264 0 1099550606.818264 -69165156.733169556 0 0 0 0 -2777464.6533192964 477569.15770456195 0 477569.15770456195 -4904862.1487892494 0 0 0 0 131838383.33373642 -202240362.75479126 0 -202240362.75479126 -667646666.39844513 0 0 0 0 20485075.705599546 918115630.93907928 0 918115630.93907928 -1798670059.6456757 0 0 0 0 -542361641.61427188 -213519283.5473156 0 -213519283.5473156 -27456389.32635498 0 0 0 0 -333583826.89422536 363441999.77427101 0 363441999.77427101 -128405671.84194946 0 0 0 0 -67697149.356345415 -125928467.969841 0 -125928467.969841 139651884.64794922 0 0 0 0 67856651.280239344 -31188194.299377441 0 -31188194.299377441 20625099.130020142 0 0 0 0 27075080.370420456 -13461206.476394653 0 -13461206.476394653 792985.7480687499 0 0 0 0 -195574.00902256696 -11914847.741714954 0 -11914847.741714954 -3487396.7886900692 0 0 0 0 104176431.99240386 -22487617.904769897 0 -22487617.904769897 -81715162.913208008 0 0 0 0 47735606.85106945 -198453098.89810181 0 -198453098.89810181 -153403811.777771 0 0 0 0 -2322462.9922854197 -11304736.882460825 0 -11304736.882460825 -3484171.9763304838 0 0 0 0 -703647572.08286285 246673607.18212891 0 246673607.18212891 -107412270.61778259 0 0 0 0 -74175505.182888031 -217457174.50790405 0 -217457174.50790405 -94231442.139663696 0 0 0 0 -242572621.16435289 48932622.051345825 0 48932622.051345825 274879706.15367126 0 0 0 0 57915836.99781777 38838106.804339774 0 38838106.804339774 73019926.851257324 0 0 0 0 -360870.23938430427 300370.70549990982 0 300370.70549990982 -633198.17763224244 0 0 0 0 -103986702.90760517 50785404.659667969 0 50785404.659667969 11498792.80960083 0 0 0 0 -6728.8067983104847 -1160375.0629436783 0 -1160375.0629436783 -1908844.5585419536 0 0 0 0 -35205778.148437977 -16118162.807449341 0 -16118162.807449341 71468475.737060547 0 0 0 0 -15336515.294777155 -437062085.64950562 0 -437062085.64950562 -36383081.162475586 0 0 0 0 -46151598.328641891 113907684.71920776 0 113907684.71920776 -54807206.300811768 0 0 0 0 -38590065.386919022 116278606.57392883 0 116278606.57392883 -170608233.11254883 0 0 0 0 83120361.441760123 128382065.49799204 0 128382065.49799204 -34087851.439910889 0 0 0 0 381351.95703142602 344809.2488312833 0 344809.2488312833 -3394067.204844594 0 0 0 0 90022220.710971832 55728201.472167969 0 55728201.472167969 -40188838.86807251 0 0 0 0 27089666.330668211 6243595.0155715942 0 6243595.0155715942 -83809820.798538208 0 0 0 0 -108593292.04715693 -58394271.370710373 0 -58394271.370710373 -52633670.402252197 0 0 0 0 86417536.725954056 -21597892.629226685 0 -21597892.629226685 -82966114.671768188 0 0 0 0 -277300.76324987249 -645685.61615163088 0 -645685.61615163088 -603082.42643007636 0 0 0 0 -298288739.56367922 -173247489.88615417 0 -173247489.88615417 38990516.906906128 0 0 0 0 -59861591.54976368 -78800431.133529663 0 -78800431.133529663 213275.52911376953 0 0 0 0 -21869209.877887249 -148613510.05490112 0 -148613510.05490112 -111547752.43915558 0 0 0 0 -14326293.767958879 -49559366.168106079 0 -49559366.168106079 3710970.5841932297 0 0 0 0 1199560.7883429527 -6459666.9002761841 0 -6459666.9002761841 -82312564.35368824 0 0 0 0 52858729.892741203 -68123487.497653961 0 -68123487.497653961 -45480218.023620605 0 0 0 0 -45131.804641576251 -1181365.3963065036 0 -1181365.3963065036 -2400096.002928257 0 0 0 0 2598921.1103801294 -2714645.1653243825 0 -2714645.1653243825 -2829084.7416245192 0 0 0 0 152436645.12187791 35396322.058494568 0 35396322.058494568 -28242329.659334183 0 0 0 0 49174048.377180338 -159249742.68371964 0 -159249742.68371964 -121297649.15734863 0 0 0 0 6448051.5234735012 -12412967.545288086 0 -12412967.545288086 -5672406.8825073242 0 0 0 0 32929389.43509531 -42488885.996749878 0 -42488885.996749878 45988563.05569458 0 0 0 0 101935644.88432837 -77395792.077392578 0 -77395792.077392578 -38988918.723968506 0 0 0 0 1665792.5115324929 286806.27599312738 0 286806.27599312738 -8610659.20801498 0 0 0 0 106604204.62957561 273833057.8061161 0 273833057.8061161 -55572241.241516113 0 0 0 0 27496356.113328934 -66426734.566177368 0 -66426734.566177368 -5103809.4830322266 0 0 0 0 2729003.7933801934 -3386760.8295489755 0 -3386760.8295489755 -18925378.097379372 0 0 0 0 171420188.06016302 -19071998.78578186 0 -19071998.78578186 -18819170.031097412 0 0 0 0 -180730428.5199976 -185015658.75073242 0 -185015658.75073242 -218481995.29663086 0 0 0 0 13642272.663889885 -8150971.3104400635 0 -8150971.3104400635 -57739813.276901245 0 0 0 0 -755260034.97158098 508796025.22912598 0 508796025.22912598 64894923.833374023 0 0 0 0 23007135.759666443 39644097.006774902 0 39644097.006774902 -304369227.10769653 0 0 0 0 17118371.582868576 9732320.7972412109 0 9732320.7972412109 -155366832.99703979 0 0 0 0 46734648.13684082 -92531880.33052063 0 -92531880.33052063 -28239499.812255859 0 0 0 0 30760189.781431198 59468516.69078064 0 59468516.69078064 20995544.778579712 0 0 0 0 -73249795.981285095 -93200002.947814941 0 -93200002.947814941 -135885432.05200195 0 0 0 0 7998255.4047803879 -18772814.455352783 0 -18772814.455352783 -32585699.334217072 0 0 0 0 2896515.1773665873 -2531579.9930174947 0 -2531579.9930174947 -9339434.8131795377 0 0 0 0 14155084.781600952 48464859.80430603 0 48464859.80430603 -59405054.657348633 0 0 0 0 -86696091.041681886 -118742476.88685608 0 -118742476.88685608 -75088437.087524414 0 0 0 0 2492166.3637714386 -11215211.702590942 0 -11215211.702590942 -34238985.52520752 0 0 0 0 -53257001.867194176 -16383082.144439697 0 -16383082.144439697 -47498176.998321533 0 0 0 0 -89714830.599753857 -63124644.964797974 0 -63124644.964797974 -22893878.459777832 0 0 0 0 27788252.543702126 -38939377.785552979 0 -38939377.785552979 -96570764.656097412 0 0 0 0 18765673.30346489 -48764017.609054565 0 -48764017.609054565 -37274710.754150391 0 0 0 0 169112135.21882629 12283308.22442627 0 12283308.22442627 -47753001.259057999 0 0 0 0 197834051.56007719 51383327.124259949 0 51383327.124259949 -62134266.161437988 0 0 0 0 118862243.43160176 49973051.022949219 0 49973051.022949219 -59463562.180236816 0 0 0 0 172950512.93382359 74418929.411010742 0 74418929.411010742 63510332.324035645 0 0 0 0 184032523.41154194 -1749212.7900543213 0 -1749212.7900543213 -15685707.820510864 0 0 0 0 186486912.28275681 4191395.0748901367 0 4191395.0748901367 -81150564.072937012 0 0 0 0 141541178.60494471 -5796558.776763916 0 -5796558.776763916 -68665233.945724487 0 0 0 0 141880754.58030653 18998975.09085083 0 18998975.09085083 -1321290.5144042969 0 0 0 0 161478314.96643353 -4877248.0661010742 0 -4877248.0661010742 -69225515.098703384 0 0 0 0 77513270.872971535 -94623436.180404663 0 -94623436.180404663 17754924.555667877 0 0 0 0 -11881467.510206282 -48106647.462219238 0 -48106647.462219238 25593594.010772705 0 0 0 0 1636548.0008859497 -647873.99803283811 0 -647873.99803283811 -3471492.2257164568 0 0 0 0 177227099.70815372 -24781532.564697266 0 -24781532.564697266 -51042625.110733032 0 0 0 0 180272247.68067455 -48048394.222976685 0 -48048394.222976685 35582118.37387085 0 0 0 0 -8197634.3935985565 -15356570.465431213 0 -15356570.465431213 319561.97789001465 0 0 0 0 -12271647.219072022 -7658512.3457792997 0 -7658512.3457792997 -11049391.389465332 0 0 0 0 -11501466.526485443 2203915.8179626465 0 2203915.8179626465 58972721.375935555 0 0 0 0 6991755.4917149544 -20573897.899620056 0 -20573897.899620056 -14932930.001251221 0 0 0 0 887648.002703103 1096243.2441732269 0 1096243.2441732269 -1009861.1860876679 0 0 0 0 -46730512.884039879 107790968.25852203 0 107790968.25852203 104061435.58612061 0 0 0 0 186015997.00731277 72258560.743209839 0 72258560.743209839 10984296.608108521 0 0 0 0 126641548.62911367 141143384.59516907 0 141143384.59516907 153043202.29937744 0 0 0 0 877595.14590954781 16601084.826114655 0 16601084.826114655 -2030535.2947235107 0 0 0 0 131479729.11083078 18244432.158718109 0 18244432.158718109 -29060500.838226318 0 0 0 0 13558526.298099518 2196172.3896942139 0 2196172.3896942139 8884188.2746429443 0 0 0 0 66951004.658864975 10174564.402114868 0 10174564.402114868 -5430894.9528503418 0 0 0 0 97232.545868630608 -4857593.9628033824 0 -4857593.9628033824 -19764478.262232736 0 0 0 0 3849407.3671353599 4483429.7242585942 0 4483429.7242585942 -4438203.7837305889 0 0 0 0 13239662.244527817 3788187.9546203613 0 3788187.9546203613 9025628.1514892578 0 0 0 0 44087284.837199688 15641028.426113129 0 15641028.426113129 -43363803.86756897 0 0 0 0 11015322.09924984 -16087647.443397522 0 -16087647.443397522 -27240676.532623291 0 0 0 0 -9990654.4330329895 -245615.61001586914 0 -245615.61001586914 -6047309.3159179688 0 0 0 0 137646.77134706452 -386660.17924467847 0 -386660.17924467847 -1625991.1439683139 0 0 0 0 -75297383.41793251 -71524187.858337402 0 -71524187.858337402 -64882187.484375 0 0 0 0 -88070381.604995728 -38849603.136474609 0 -38849603.136474609 -30540014.057617188 0 0 0 0 -42073009.526016235 -33414252.425598145 0 -33414252.425598145 -35133185.229003906 0 0 0 0 -83247331.094557762 -44418523.713546753 0 -44418523.713546753 -24327944.841064453 0 0 0 0 -87505871.291973114 21772372.969543457 0 21772372.969543457 -88285976.690673828 0 0 0 0 -94741379.642450213 -27583622.017288208 0 -27583622.017288208 -2528613.2177124023 0 0 0 0 -30898615.966850281 -16911372.638977051 0 -16911372.638977051 -69604150.662658691 0 0 0 0 1733375.763055183 -2567695.993342082 0 -2567695.993342082 -9474224.7120674998 0 0 0 0 -23732198.491249084 -30430192.027923584 0 -30430192.027923584 -46702049.553527832 0 0 0 0 8592387.480619669 314582.81046295166 0 314582.81046295166 -2551828.4736328125 0 0 0 0 1162092.1398317935 -6460750.2277482264 0 -6460750.2277482264 -20778939.794669636 0 0 0 0 -36058720.207223892 2126262.0002822876 0 2126262.0002822876 -14241404.912963867 0 0 0 0 3453029.8402160844 -4977221.4582248703 0 -4977221.4582248703 -16316680.640587687 0 0 0 0 2964115.4122511973 2475733.6281540357 0 2475733.6281540357 -8515031.1845441759 0 0 0 0 491990.13500884699 -3678101.9485156126 0 -3678101.9485156126 -2735919.2855966762 0 0 0 0 20023230.304607145 -16124537.829105377 0 -16124537.829105377 -286647.97036743164 0 0 0 0 253159.34903943539 12299337.41153717 0 12299337.41153717 5890394.4272766113 0 0 0 0 -125118567.89955902 57872225.891876221 0 57872225.891876221 -60951911.807067871 0 0 0 0 -149540390.0209713 22383562.914161682 0 22383562.914161682 -16948036.735412598 0 0 0 0 -1120886.2746391296 -4923466.4397583008 0 -4923466.4397583008 -24694784.469726562 0 0 0 0 5913374.1569643021 -15618417.6875 0 -15618417.6875 -15073547.699539185 0 0 0 0 361123.3649738885 -1051874.2930354029 0 -1051874.2930354029 -8715450.9931416214 0 0 0 0 -4890194.7200229764 -8173276.0015258789 0 -8173276.0015258789 -10298102.383056641 0 0 0 0 35303473.484474182 7459196.4714660645 0 7459196.4714660645 -4840893.7520141602 0 0 0 0 10197213.585377455 14612766.227725983 0 14612766.227725983 6368038.0883789062 0 0 0 0 16864120.361294746 -2625649.4966278076 0 -2625649.4966278076 -18589751.958023071 0 0 0 0 -15553089.196343422 24073582.233413696 0 24073582.233413696 -4533971.1448669434 0 0 0 0 -105283.46203746786 153418.34524692968 0 153418.34524692968 281521.65598524362 0 0 0 0 -22782427.006272316 -14550210.935394287 0 -14550210.935394287 -35614587.579376221 0 0 0 0 -25612628.224640578 -27252997.359185696 0 -27252997.359185696 105132428.07188416 0 0 0 0 -24277339.969906062 -37582795.318984985 0 -37582795.318984985 12795927.959716797 0 0 0 0 -4186552.0866464376 -5756602.051071167 0 -5756602.051071167 -11260798.391288757 0 0 0 0 -1611413.8254749516 -2579601.8870244995 0 -2579601.8870244995 -1895820.6974635124 0 0 0 0 9472969.6893256903 -13246609.213943481 0 -13246609.213943481 25815.17013168335 0 0 0 0 7864822.0243342519 -53613173.366455078 0 -53613173.366455078 -1450819.7334899902 0 0 0 0 15580018.784788609 6589211.8719787598 0 6589211.8719787598 129555894.35420227 0 0 0 0 487022.57730571757 -587378.15459036967 0 -587378.15459036967 -6314832.869481273 0 0 0 0 41258542.226047516 -43791673.223892212 0 -43791673.223892212 -13055550.060333252 0 0 0 0 -239949172.06531048 35187131.305480957 0 35187131.305480957 27151569.039001465 0 0 0 0 52250543.474197268 -19722355.180473328 0 -19722355.180473328 -15207201.174255371 0 0 0 0 903095.77848812158 -413355.84623505734 0 -413355.84623505734 -6235210.0739042759 0 0 0 0 10798463.114093512 8663579.8043413162 0 8663579.8043413162 11706980.272491455 0 0 0 0 -131645956.69141388 -197475297.11184692 0 -197475297.11184692 -183794067.21047974 0 0 0 0 437184979.47022724 102831506.88818359 0 102831506.88818359 -353277850.89717102 0 0 0 0 375246074.59415591 109850714.36839294 0 109850714.36839294 -229334438.1133728 0 0 0 0 186561762.11604023 -68508513.994659424 0 -68508513.994659424 -393636514.88401031 0 0 0 0 59441714.47283411 -13654621.930976868 0 -13654621.930976868 -25199035.185119629 0 0 0 0 82815982.620028496 -44116714.076477051 0 -44116714.076477051 -24358411.574890137 0 0 0 0 225615038.42827237 8933067.6512298584 0 8933067.6512298584 -25033240.101074219 0 0 0 0 -278498338.17782855 -78831592.363422394 0 -78831592.363422394 22706973.02947998 0 0 0 0 -99318281.446240425 -108671522.66925049 0 -108671522.66925049 10218194.329559326 0 0 0 0 -114163968.34055901 999404.55099487305 0 999404.55099487305 22673770.06262207 0 0 0 0 -104338045.52353668 -40845637.964233398 0 -40845637.964233398 23715317.61467886 0 0 0 0 -57965135.139476776 -10209723.795349121 0 -10209723.795349121 1012918.7512207031 0 0 0 0 68101160.358123302 -32789378.890289307 0 -32789378.890289307 4088783.4690246582 0 0 0 0 86913038.78257218 -80039930.678321838 0 -80039930.678321838 101205432.73815918 0 0 0 0 -36947285.713365555 -65707258.923553467 0 -65707258.923553467 35076614.080566406 0 0 0 0 98562642.079164982 -67557286.485870361 0 -67557286.485870361 -11984122.006530762 0 0 0 0 -28896416.061505318 -36389089.473632812 0 -36389089.473632812 -3709252.9968566895 0 0 0 0 130461534.07793474 1117863.6979370117 0 1117863.6979370117 -24297348.56237793 0 0 0 0 149707024.45250177 -44726510.728164673 0 -44726510.728164673 -26769815.763061523 0 0 0 0 66304183.915378571 5682332.8758239746 0 5682332.8758239746 -32289671.355899811 0 0 0 0 41568884.530450106 -60825889.011627197 0 -60825889.011627197 -33970205.895568848 0 0 0 0 -77280040.941232681 -34602781.159057617 0 -34602781.159057617 -14888040.139945984 0 0 0 0 -41389036.648018837 -61199194.646972656 0 -61199194.646972656 -6730303.1565551758 0 0 0 0 63399592.451156497 93065194.711149216 0 93065194.711149216 -32606001.266601562 0 0 0 0 3085096.2485099509 -1074327.1494847462 0 -1074327.1494847462 -22590214.8347985 0 0 0 0 406269279.37225294 67474230.602333069 0 67474230.602333069 -81785761.638793945 0 0 0 0 268974351.73752689 133257789.7164917 0 133257789.7164917 -27404416.660171509 0 0 0 0 323880746.74442482 -339347.0908203125 0 -339347.0908203125 -78156303.340942383 0 0 0 0 205184879.13467121 69973192.819000244 0 69973192.819000244 -49679220.147609711 0 0 0 0 265808043.35469067 -28521034.789611816 0 -28521034.789611816 -39985018.378692627 0 0 0 0 325107536.67917758 -115036156.54062271 0 -115036156.54062271 68217677.010681152 0 0 0 0 174440057.84667969 -29212375.245147705 0 -29212375.245147705 -17092920.183837891 0 0 0 0 1350202.1049192017 -7059050.1814342104 0 -7059050.1814342104 -7502426.5275244117 0 0 0 0 -9471040.2453904152 -90103310.968261719 0 -90103310.968261719 -39168185.248175859 0 0 0 0 2753997.839566289 1393221.4283056222 0 1393221.4283056222 -24058382.018425792 0 0 0 0 446143964.25850987 279825948.41555786 0 279825948.41555786 -169209818.98669434 0 0 0 0 333040328.40709424 240636555.46318054 0 240636555.46318054 61969991.638305664 0 0 0 0 188815899.3957783 20164940.128997803 0 20164940.128997803 221525185.00178528 0 0 0 0 22536624.274052858 -4783570.9431877136 0 -4783570.9431877136 -24885400.962738037 0 0 0 0 57182653.838136166 483552893.5484758 0 483552893.5484758 -204867352.59674072 0 0 0 0 488606250.47273016 242880545.61184692 0 242880545.61184692 -170842799.72662354 0 0 0 0 -4550348.077562632 -5211492.9047643989 0 -5211492.9047643989 -10794939.276050236 0 0 0 0 -12303270.039547443 -8589659.548828125 0 -8589659.548828125 -6644558.9474552274 0 0 0 0 -45457313.00987637 85336173.428665161 0 85336173.428665161 -261786088.5748291 0 0 0 0 -252845.77735254401 -580939.13685328141 0 -580939.13685328141 -1333968.451473318 0 0 0 0 -410807406.93882227 224834531.01951599 0 224834531.01951599 1309809286.842804 0 0 0 0 414836976.1149025 199707666.39161682 0 199707666.39161682 -228151807.81887817 0 0 0 0 423927077.65409517 114497789.47072601 0 114497789.47072601 563300356.91394043 0 0 0 0 108414.95529404923 -141678.26103576273 0 -141678.26103576273 -636705.48811733176 0 0 0 0 206182107.94605398 -964218189.35635376 0 -964218189.35635376 3315876914.5493608 0 0 0 0 538425870.74631023 470125393.4846344 0 470125393.4846344 -1280986554.2559204 0 0 0 0 86896.695451272622 -4106195.8719104752 0 -4106195.8719104752 -17002659.098954633 0 0 0 0 451069.98702192307 -495370.93941497803 0 -495370.93941497803 -5536089.6379241943 0 0 0 0 715702930.8666873 -93014740.064689636 0 -93014740.064689636 -336538129.20807648 0 0 0 0 301272534.9520669 52502332.671081543 0 52502332.671081543 -383070030.56533813 0 0 0 0 -11592129.659187138 3241638.6531448364 0 3241638.6531448364 1284057.0500335693 0 0 0 0 237567931.20464063 136804268.79356384 0 136804268.79356384 -40452571.238815308 0 0 0 0 -1268195.3453776026 -7007068.495801013 0 -7007068.495801013 2209421.1647583544 0 0 0 0 -17757069.380810976 -8063028.9122924805 0 -8063028.9122924805 -28138.082946777344 0 0 0 0 392065651.42535567 -276555209.70146942 0 -276555209.70146942 -1348906189.585144 0 0 0 0 -3664025.1387139559 -42260662.903835297 0 -42260662.903835297 34235463.515792847 0 0 0 0 -421235.4029754753 -2057653.8994100858 0 -2057653.8994100858 651204.9976016283 0 0 0 0 -415242.94916943944 -449635.57501282729 0 -449635.57501282729 -6458740.5688008666 0 0 0 0 -1208305594.9741185 -1969494984.2562065 0 -1969494984.2562065 -3384239075.0204468 0 0 0 0 -1134980442.5787203 -1609377803.7461853 0 -1609377803.7461853 -1799284292.5697632 0 0 0 0 -35619408.369112611 -384220036.32913208 0 -384220036.32913208 -2508171387.15448 0 0 0 0 228135828.15088227 -201052629.65450287 0 -201052629.65450287 -5358586854.1478271 0 0 0 0 -211860859.11749125 -1219801023.2126427 0 -1219801023.2126427 -5826400906.0390015 0 0 0 0 -2987388298.7943368 2505214220.0978394 0 2505214220.0978394 -7543130020.516922 0 0 0 0 1428304938.1807048 -128686110.45411682 0 -128686110.45411682 -3095932940.0540848 0 0 0 0 1773876321.2488756 185840467.51947784 0 185840467.51947784 -5394307254.2232513 0 0 0 0 744103049.65997696 560371351.46759415 0 560371351.46759415 -4207462111.453598 0 0 0 0 785311602.19073963 408827495.06292343 0 408827495.06292343 -3852150406.1083374 0 0 0 0 -50939623.232567206 1528264388.1351395 0 1528264388.1351395 -5353974426.8469067 0 0 0 0 -2011479775.8420148 -69709277.693441391 0 -69709277.693441391 -6061712155.7430573 0 0 0 0 -197814.65319977578 1080148.5991046024 0 1080148.5991046024 -1903201.4554710016 0 0 0 0 -516490614.76963395 2351045232.5440788 0 2351045232.5440788 -3075861233.4505005 0 0 0 0 -511668521.19183356 -254776669.45265961 0 -254776669.45265961 319445154.95281982 0 0 0 0 -843653014.69485569 1516758284.2311478 0 1516758284.2311478 -1740110730.7737656 0 0 0 0 606560357.93704915 1027649201.2423401 0 1027649201.2423401 -4277924700.1693344 0 0 0 0 614029648.89460468 895890713.54246473 0 895890713.54246473 -3863847507.3453979 0 0 0 0 -771040996.95055985 540508700.39511108 0 540508700.39511108 -169256649.07444763 0 0 0 0 -263044656.51701975 -283266305.76727295 0 -283266305.76727295 -20408216.898414612 0 0 0 0 444359499.52595329 -339368917.31999588 0 -339368917.31999588 -146769837.40640259 0 0 0 0 93575627.194761753 -276665191.04302979 0 -276665191.04302979 -157285426.7587738 0 0 0 0 -29775.469820073784 1077498.6801878694 0 1077498.6801878694 -4690647.3526898474 0 0 0 0 -124491748.58339217 -132937282.83632278 0 -132937282.83632278 -165039827.09475708 0 0 0 0 221294277.80674943 -53852918.41569519 0 -53852918.41569519 -2870698.4227142334 0 0 0 0 -23928494.899863243 4583426.3128128052 0 4583426.3128128052 16504786.31016922 0 0 0 0 33401634.897605032 -243511418.77439117 0 -243511418.77439117 -65649828.848716736 0 0 0 0 -167394783.43904126 -37869219.906234741 0 -37869219.906234741 169206829.63552856 0 0 0 0 -188299.60556396493 -523528.21146748215 0 -523528.21146748215 -972128.07435421646 0 0 0 0 -129561.12324797059 -441364.42191239446 0 -441364.42191239446 -3362192.0521635935 0 0 0 0 38717682.205481052 297051804.26255798 0 297051804.26255798 286746785.70127106 0 0 0 0 102779343.33171034 90690900.780296326 0 90690900.780296326 112871930.31843567 0 0 0 0 -16118285.305566311 273114.73115921021 0 273114.73115921021 -33374698.63269043 0 0 0 0 -104827410.41739738 84648261.538311005 0 84648261.538311005 184669620.34503174 0 0 0 0 -225974300.97298622 149736515.02926636 0 149736515.02926636 272946813.06781006 0 0 0 0 -225983959.70910692 47956458.607269287 0 47956458.607269287 533618292.96569824 0 0 0 0 90879111.895750999 -194587188.48248291 0 -194587188.48248291 350602800.55780029 0 0 0 0 -49001511.771378517 127414986.56607056 0 127414986.56607056 -257903468.67474365 0 0 0 0 -157547438.84490204 -65101866.331268311 0 -65101866.331268311 -24280290.060333252 0 0 0 0 -194389.93461893057 -161362.29051726684 0 -161362.29051726684 -843949.53871444985 0 0 0 0 -3041379.9465665817 -20654125.295623779 0 -20654125.295623779 -84210411.594863892 0 0 0 0 151481446.85264778 64823017.668647766 0 64823017.668647766 54221846.607452393 0 0 0 0 2334470.9873485565 21859236.334197998 0 21859236.334197998 -51174283.695465088 0 0 0 0 -3265440.5320539474 2235326.5540161133 0 2235326.5540161133 -43350404.142883301 0 0 0 0 16310388.801519871 749771.26533889771 0 749771.26533889771 -91932690.515625 0 0 0 0 23901827.336412907 19250297.631912231 0 19250297.631912231 -85274685.703735352 0 0 0 0 -61628950.059461594 -52951939.394180298 0 -52951939.394180298 61151386.286193848 0 0 0 0 253632260.11892807 364770643.85702419 0 364770643.85702419 -552972175.45489502 0 0 0 0 56829.142278130166 413946.07281076908 0 413946.07281076908 -3857593.8038301393 0 0 0 0 345655077.59134102 -258687845.74856567 0 -258687845.74856567 -230171851.42489624 0 0 0 0 -99273519.879822373 260456846.71705437 0 260456846.71705437 -375783792.76165771 0 0 0 0 -444290250.52182233 220719569.19096184 0 220719569.19096184 -200685764.32232666 0 0 0 0 331396688.52059412 -136587402.73493958 0 -136587402.73493958 -548111259.04837036 0 0 0 0 -25204828.017532349 153893693.60095215 0 153893693.60095215 -729500914.47756958 0 0 0 0 -2867328.5145545006 -298187261.98038101 0 -298187261.98038101 -1430332565.1869812 0 0 0 0 46066812.155899763 718338183.62773895 0 718338183.62773895 -1740800376.1533356 0 0 0 0 26085844.669762611 -105143856.68164062 0 -105143856.68164062 -1111468671.1991882 0 0 0 0 744248952.46959853 362287600.6912384 0 362287600.6912384 -3611547043.4590645 0 0 0 0 309432707.04080963 -95545571.300048828 0 -95545571.300048828 -2406189621.7098923 0 0 0 0 551058337.28207803 437916396.15864563 0 437916396.15864563 -2628864816.2163391 0 0 0 0 273662128.30466127 79627241.584274292 0 79627241.584274292 -1599531703.7590866 0 0 0 0 -89523722.932374001 -608152075.05358887 0 -608152075.05358887 -891898718.25659943 0 0 0 0 905089938.12526393 -396910483.41069412 0 -396910483.41069412 -4479646194.4113617 0 0 0 0 229803229.89911795 -964968448.62698364 0 -964968448.62698364 -3266726642.4586182 0 0 0 0 -347141672.97791922 -1681825046.3356705 0 -1681825046.3356705 -3292507452.3883057 0 0 0 0 20902493.131658077 -417281424.57362366 0 -417281424.57362366 -3520622334.1292038 0 0 0 0 484941783.88952005 323710257.88853455 0 323710257.88853455 -4504574822.6470642 0 0 0 0 658694.87857063278 -43145.1816611588 0 -43145.1816611588 -2214222.5257276101 0 0 0 0 1392513378.7579346 508779184.94957733 0 508779184.94957733 -5354563387.6769848 0 0 0 0 69647861.612055302 -325498080.48419952 0 -325498080.48419952 -5355790482.5012589 0 0 0 0 -1097733644.2971144 -139150361.95605469 0 -139150361.95605469 -4813203977.5242348 0 0 0 0 34750174.068915933 -350156179.90531921 0 -350156179.90531921 -5367815861.6369629 0 0 0 0 1564894.2996438572 -212392.42508117482 0 -212392.42508117482 -4053900.3726662411 0 0 0 0 -26489650.381434232 -337518893.06645203 0 -337518893.06645203 -5354243255.4080276 0 0 0 0 293479.43520639976 165098.58353644237 0 165098.58353644237 -2209177.5841225088 0 0 0 0 -326982977.75992179 -1728654060.755682 0 -1728654060.755682 -4350318072.7311401 0 0 0 0 12443.077990033053 394466.0387941068 0 394466.0387941068 -2223015.3893623799 0 0 0 0 -805598111.93696022 -633103222.4118042 0 -633103222.4118042 -5101746061.4080505 0 0 0 0 1100250117.3509688 -118766716.52908325 0 -118766716.52908325 -6247836985.0233002 0 0 0 0 646897372.25881863 162475574.33039856 0 162475574.33039856 -525117179.51739502 0 0 0 0 24847602.984862924 925808590.45024872 0 925808590.45024872 -1666572917.7518921 0 0 0 0 62413183.620023966 -352068123.16758728 0 -352068123.16758728 -955796032.39813232 0 0 0 0 26724356.807213083 -546549989.14217782 0 -546549989.14217782 -5231228961.2154999 0 0 0 0 184426488.46192026 -459021889.13738251 0 -459021889.13738251 -4786302347.6261215 0 0 0 0 249085439.15890503 649789494.25476074 0 649789494.25476074 -3643326268.4437561 0 0 0 0 -18619686.32638216 191812954.7416153 0 191812954.7416153 -3151318507.8855743 0 0 0 0 135028138.32154655 362927783.33921814 0 362927783.33921814 -3178061029.3958149 0 0 0 0 -175929016.84742737 580707050.90706635 0 580707050.90706635 -1381338932.9650269 0 0 0 0 -290259043.81248331 257158830.73358154 0 257158830.73358154 -1397380307.4511108 0 0 0 0 -575348570.96719992 264253551.21063614 0 264253551.21063614 430547343.86077881 0 0 0 0 -138153622.99353218 -455892432.25371552 0 -455892432.25371552 344152997.0953474 0 0 0 0 -93547243.019159317 -28527516.725154877 0 -28527516.725154877 341681130.9753418 0 0 0 0 167144918.42021179 231141183.50109863 0 231141183.50109863 153960949.16689301 0 0 0 0 98390704.951292992 -147951667.43712616 0 -147951667.43712616 189872034.85826111 0 0 0 0 103967.85015404003 450770.49332643347 0 450770.49332643347 -4420749.6890025586 0 0 0 0 373752923.73897409 -229632431.86300278 0 -229632431.86300278 110263475.38877106 0 0 0 0 353150098.08314466 155329088.74108124 0 155329088.74108124 -147396526.30302429 0 0 0 0 230396054.62802243 -11228213.827514648 0 -11228213.827514648 72628170.351852417 0 0 0 0 -343826404.85107136 36502130.748718262 0 36502130.748718262 152611886.00596619 0 0 0 0 -19825499.519408226 -28097580.922821045 0 -28097580.922821045 350141323.07876778 0 0 0 0 -71376.735227134544 -279525.04812871665 0 -279525.04812871665 41162.41232214123 0 0 0 0 -19725244.334890857 -25133693.468929052 0 -25133693.468929052 17589885.499313354 0 0 0 0 -28449679.484206438 32053226.457221985 0 32053226.457221985 5874543.3057403564 0 0 0 0 -35313801.300312996 1823767.9232406616 0 1823767.9232406616 19220541.671375275 0 0 0 0 -23944.852359433426 420294.38138638996 0 420294.38138638996 -4155823.5130478963 0 0 0 0 337751.46016105381 -502815.19151394069 0 -502815.19151394069 -513591.3327729702 0 0 0 0 14226203.616955996 -17768514.67395401 0 -17768514.67395401 12633297.242408752 0 0 0 0 131965990.40057158 64905610.206693649 0 64905610.206693649 24019989.7159729 0 0 0 0 119769180.20307732 53511655.328720093 0 53511655.328720093 58505075.890026093 0 0 0 0 34816330.456133842 87655954.316802979 0 87655954.316802979 61969513.402263641 0 0 0 0 121634935.99540901 69193464.303039551 0 69193464.303039551 22160336.27696228 0 0 0 0 -934076.34503877815 -693739.95270034298 0 -693739.95270034298 -2657997.317344591 0 0 0 0 22090768.92032814 2257755.6374969482 0 2257755.6374969482 3330536.485748291 0 0 0 0 -18638240.576628685 -14870730.460708618 0 -14870730.460708618 -14291025.403182983 0 0 0 0 -7942818.1473464966 -10572695.212249756 0 -10572695.212249756 -17077613.24118042 0 0 0 0 -10013296.679852247 23140046.923500061 0 23140046.923500061 41951447.428863525 0 0 0 0 1792923.8030365091 -392683.27589179575 0 -392683.27589179575 -3334308.0429380834 0 0 0 0 51993136.245795727 32226695.758216858 0 32226695.758216858 -12050821.196807861 0 0 0 0 28091677.55957222 30965796.783874512 0 30965796.783874512 -852340.250415802 0 0 0 0 49358574.132588506 51035617.311745167 0 51035617.311745167 29686926.086303711 0 0 0 0 28144651.035389185 33554529.481739044 0 33554529.481739044 14256664.047393799 0 0 0 0 114308691.58924437 50289162.682430267 0 50289162.682430267 22527837.856994629 0 0 0 0 72268793.822390079 78381172.980628967 0 78381172.980628967 29961023.599880219 0 0 0 0 65770576.237107754 51840705.977500916 0 51840705.977500916 18215984.395259857 0 0 0 0 -1695626.0762653351 -750024.52228546143 0 -750024.52228546143 -36171476.641403198 0 0 0 0 -336079.47815099079 881986.92384418473 0 881986.92384418473 -2420975.9965987653 0 0 0 0 89961127.165327549 61915817.843223572 0 61915817.843223572 16055958.648468018 0 0 0 0 87512357.863180161 67971175.009124756 0 67971175.009124756 30646023.531480789 0 0 0 0 69180612.333853245 95405250.207063675 0 95405250.207063675 79440613.029785156 0 0 0 0 65798643.157345295 46032743.677585602 0 46032743.677585602 43995974.086746216 0 0 0 0 67819737.182891935 58802516.925896049 0 58802516.925896049 15018271.184020996 0 0 0 0 -16665199.466435909 -36392598.926036835 0 -36392598.926036835 -79892733.290130615 0 0 0 0 118816483.40325642 114252790.27651215 0 114252790.27651215 66334139.745212555 0 0 0 0 -196437.98176987097 633036.97481422126 0 633036.97481422126 -1419084.1074781865 0 0 0 0 -6912307.7809707522 -48248018.119028091 0 -48248018.119028091 -98367123.450820923 0 0 0 0 14422657.890169859 -6137425.3284759521 0 -6137425.3284759521 -35263563.573379517 0 0 0 0 26433948.882175207 -13852602.879966736 0 -13852602.879966736 -131176511.1483593 0 0 0 0 3231771.3458176255 -6958153.8000307083 0 -6958153.8000307083 -55604486.491134644 0 0 0 0 4866767.1061382294 -8603489.9473342896 0 -8603489.9473342896 -96762843.829238892 0 0 0 0 -19046179.084913492 15550273.172580719 0 15550273.172580719 -118547555.9691391 0 0 0 0 -7463453.0209200382 -3286765.6034622192 0 -3286765.6034622192 -8322302.336315155 0 0 0 0 -29319994.565419078 30968839.726108551 0 30968839.726108551 -60867128.799224854 0 0 0 0 39523453.510166645 10636043.654899597 0 10636043.654899597 -55259095.685348511 0 0 0 0 -206274.89885954946 97168.03471114533 0 97168.03471114533 56403.660253807902 0 0 0 0 44454472.593686938 -51597511.175491333 0 -51597511.175491333 -172475531.43973541 0 0 0 0 46414139.318991899 -1438019.7237052917 0 -1438019.7237052917 -204657620.97080994 0 0 0 0 57274898.522075176 -28731547.118484497 0 -28731547.118484497 -136182664.05726051 0 0 0 0 2753387.9121875763 -46259916.101806641 0 -46259916.101806641 -98490579.699586868 0 0 0 0 48591626.590508223 -45004045.115541458 0 -45004045.115541458 -146654621.83486938 0 0 0 0 -48689331.838834763 -51307369.936340332 0 -51307369.936340332 -69184037.846420288 0 0 0 0 -79595759.277308941 -97048551.873497009 0 -97048551.873497009 -110853190.89837646 0 0 0 0 -11817080.781701565 -66052046.499794006 0 -66052046.499794006 -124507815.35105896 0 0 0 0 -27807801.907525063 -70875830.341293335 0 -70875830.341293335 -125336900.45599174 0 0 0 0 27862932.581683159 -62825827.286170959 0 -62825827.286170959 -164089516.32769775 0 0 0 0 -27885274.113203611 -63620574.388822675 0 -63620574.388822675 -172747951.37216187 0 0 0 0 -56992008.453108788 -72722462.252388 0 -72722462.252388 -144370263.67956543 0 0 0 0 -75202046.874628186 -14555795.099679947 0 -14555795.099679947 -179056617.73468018 0 0 0 0 -44856930.030706406 -46983543.146850586 0 -46983543.146850586 -159397506.97253418 0 0 0 0 27562306.981347084 -60924123.332626343 0 -60924123.332626343 -158557949.48068237 0 0 0 0 62464819.749281883 -43833473.477279663 0 -43833473.477279663 -165435247.29726028 0 0 0 0 30698638.366260529 -96698683.43167305 0 -96698683.43167305 -152114104.87039185 0 0 0 0 31335569.725615859 -29110956.453235626 0 -29110956.453235626 -75925079.11706543 0 0 0 0 -88930.158113081096 -1304254.9810507004 0 -1304254.9810507004 -260511.15623604506 0 0 0 0 -175037804.63943094 -98122096.640616357 0 -98122096.640616357 -21855903.573455811 0 0 0 0 34956832.767971277 -2863470.0924606323 0 -2863470.0924606323 -83366969.929229736 0 0 0 0 10337676.777112722 -36557151.956176758 0 -36557151.956176758 17652773.743270874 0 0 0 0 -11956870.452668667 -2289364.4068450928 0 -2289364.4068450928 7774034.0298461914 0 0 0 0 95494410.511524439 -121904667.60848236 0 -121904667.60848236 58098470.751218796 0 0 0 0 780708.27912998199 -35218468.109352112 0 -35218468.109352112 73804499.846800804 0 0 0 0 77682674.977505445 -79709990.156356812 0 -79709990.156356812 -96435923.722320557 0 0 0 0 87756567.616467074 -10577516.536042213 0 -10577516.536042213 -133832405.97743225 0 0 0 0 194250853.16994953 -65087585.170349121 0 -65087585.170349121 -107344496.45593262 0 0 0 0 70195376.749951005 79797211.66582489 0 79797211.66582489 59531010.408620834 0 0 0 0 49335209.599122524 -114858160.46227264 0 -114858160.46227264 119369376.58877182 0 0 0 0 248610332.29434931 -45288083.08449173 0 -45288083.08449173 -145944941.31581116 0 0 0 0 129575079.93547964 90034154.421791077 0 90034154.421791077 22863444.453598022 0 0 0 0 706487.33174832631 -780261.87253684923 0 -780261.87253684923 -1856266.8174124062 0 0 0 0 21752231.486455917 -9396551.0048599243 0 -9396551.0048599243 -23272744.062957764 0 0 0 0 2069853.9647123814 -852797.24682617188 0 -852797.24682617188 -20029664.67906189 0 0 0 0 -4580155.1935861111 -117032888.83733368 0 -117032888.83733368 -61628456.882701874 0 0 0 0 105932178.73744583 112310715.5668335 0 112310715.5668335 12992647.611328125 0 0 0 0 126017236.29324675 83893499.256942749 0 83893499.256942749 52984467.908584595 0 0 0 0 20414531.104619026 10225405.615379333 0 10225405.615379333 -24578660.74520874 0 0 0 0 688607.74124798598 -340967.38397920877 0 -340967.38397920877 -809940.3630291149 0 0 0 0 191440471.8031956 39822225.578647614 0 39822225.578647614 -24622833.621086121 0 0 0 0 45418239.797341347 -8369515.672164917 0 -8369515.672164917 -52296489.351268768 0 0 0 0 169809.22435798997 617094.23748369887 0 617094.23748369887 -198070.12310326286 0 0 0 0 7526733.6792366505 -26296814.985198975 0 -26296814.985198975 -15580624.878234863 0 0 0 0 65739879.076272011 -6252241.7298812866 0 -6252241.7298812866 -72019523.929122925 0 0 0 0 1171828.7162693555 -554353.09285805747 0 -554353.09285805747 -1452406.208365038 0 0 0 0 91197248.423897862 2002457.7659893036 0 2002457.7659893036 -60155481.6980896 0 0 0 0 77567497.555326939 -37554029.48449707 0 -37554029.48449707 -3015418.8955764771 0 0 0 0 35952983.70008564 15336176.061859131 0 15336176.061859131 -23033286.449569702 0 0 0 0 66773896.470016956 -1868537.8794136047 0 -1868537.8794136047 -50483765.116882324 0 0 0 0 19534999.429219246 -37974157.909736633 0 -37974157.909736633 -53641672.042533875 0 0 0 0 32176832.217815638 -40499972.162017822 0 -40499972.162017822 -100332735.1947937 0 0 0 0 -9297698.4053707123 23159995.213302612 0 23159995.213302612 -52517952.254211426 0 0 0 0 -62204044.206366062 -42850756.39037323 0 -42850756.39037323 3580317.0085754395 0 0 0 0 -23163226.180084229 -58261177.30078125 0 -58261177.30078125 -28592719.015380859 0 0 0 0 -9607456.6960811615 -52428549.931793213 0 -52428549.931793213 -11850640.373458862 0 0 0 0 14561429.901984215 -21014473.387969971 0 -21014473.387969971 25906050.61696434 0 0 0 0 41368430.61524725 -15355321.131736755 0 -15355321.131736755 -55074425.048950195 0 0 0 0 86455039.259479046 24561589.801826477 0 24561589.801826477 -42255872.716125488 0 0 0 0 37692771.796804428 -5644693.1317443848 0 -5644693.1317443848 -37989385.239013672 0 0 0 0 84453420.777368546 -20222607.373908997 0 -20222607.373908997 -50329375.658111572 0 0 0 0 52888410.299091816 259332.65588378906 0 259332.65588378906 -35960220.691833496 0 0 0 0 37398037.947810173 -17817467.436355591 0 -17817467.436355591 -41063078.997051239 0 0 0 0 29244464.104811668 -11435793.416732788 0 -11435793.416732788 -33186568.188293457 0 0 0 0 -11231532.512973785 -17705760.574768066 0 -17705760.574768066 -26651796.440979004 0 0 0 0 -11690731.698953629 -15694157.616882324 0 -15694157.616882324 -17917794.891235352 0 0 0 0 -12492308.677158356 -35644519.027069092 0 -35644519.027069092 -35319716.556091309 0 0 0 0 6364340.0414848328 -20749387.996826172 0 -20749387.996826172 -29948375.359619141 0 0 0 0 10478388.936993599 -26773104.257644653 0 -26773104.257644653 -39909907.844573975 0 0 0 0 3301160.9935846329 -45944761.83405304 0 -45944761.83405304 -59356966.120025635 0 0 0 0 -55820423.066156745 45844289.295641303 0 45844289.295641303 -10094578.690155029 0 0 0 0 -78624181.367866516 -16187328.720474243 0 -16187328.720474243 -25616531.064331055 0 0 0 0 65687.300104909082 2140893.7308925558 0 2140893.7308925558 -42010.105368405581 0 0 0 0 -71385458.482671738 -32289885.128448486 0 -32289885.128448486 -35030494.718658447 0 0 0 0 2502363.4181562457 10604695.036220975 0 10604695.036220975 -3640072.6048869044 0 0 0 0 -72750337.536563873 -10372442.218292236 0 -10372442.218292236 -6918204.5784912109 0 0 0 0 394911.77013475075 221009.74825613201 0 221009.74825613201 -569134.07478415966 0 0 0 0 6062550.3712928854 -2049429.8942884281 0 -2049429.8942884281 -11358651.980969056 0 0 0 0 13034891.528784364 136865.25213336945 0 136865.25213336945 -9669680.6206054688 0 0 0 0 17737870.597497463 1272367.6733932495 0 1272367.6733932495 -18690205.966367722 0 0 0 0 -18385399.875101089 -11525384.72504425 0 -11525384.72504425 -15395509.022613525 0 0 0 0 4942295.8911280017 -12413583.43022516 0 -12413583.43022516 -20136657.025703683 0 0 0 0 -6169379.0033597946 -3136298.7332382202 0 -3136298.7332382202 -19284231.294158936 0 0 0 0 14156917.644298553 -12194777.233215332 0 -12194777.233215332 -26279771.765296936 0 0 0 0 29029212.01580143 -5582024.0661773682 0 -5582024.0661773682 -34423436.343009949 0 0 0 0 14890344.001275063 -14952331.161931992 0 -14952331.161931992 -29645599.742706299 0 0 0 0 29251927.343188286 -7040663.3407440186 0 -7040663.3407440186 -28570414.460876465 0 0 0 0 29026413.157028675 -3838112.9704208374 0 -3838112.9704208374 -29484263.503574371 0 0 0 0 29098870.721564293 -4693425.9868011475 0 -4693425.9868011475 -30632780.874706268 0 0 0 0 27701064.837562799 -5031047.9275817871 0 -5031047.9275817871 -30300105.08026123 0 0 0 0 -52725756.468891174 -45256426.197534859 0 -45256426.197534859 21514305.042633057 0 0 0 0 -243053.93176315591 -6812276.0131233102 0 -6812276.0131233102 -860488.75543616712 0 0 0 0 2454395.0061081247 -2545960.6902199127 0 -2545960.6902199127 -6957855.1628195643 0 0 0 0 5273222.6782596335 -15693868.824848384 0 -15693868.824848384 -13842282.94972229 0 0 0 0 -1907750.0942040654 -11499946.899341818 0 -11499946.899341818 -32751508.447933324 0 0 0 0 15300008.958220005 -31882187.565254211 0 -31882187.565254211 19171427.390600204 0 0 0 0 -1931530.3567171097 -70237425.42212677 0 -70237425.42212677 20605694.436078548 0 0 0 0 -10633479.908667564 -63609408.731704712 0 -63609408.731704712 5930241.0393867493 0 0 0 0 -10596697.751721263 -5092202.9414215088 0 -5092202.9414215088 -25117717.604431152 0 0 0 0 55680008.382533073 -70240337.882125854 0 -70240337.882125854 -120321374.12664795 0 0 0 0 -255956634.8075521 -169688235.11277771 0 -169688235.11277771 -9980785.0283966064 0 0 0 0 69869906.80294323 59792920.887191772 0 59792920.887191772 -5460069.0187072754 0 0 0 0 193607337.51084328 23082259.788391113 0 23082259.788391113 -78482279.044708252 0 0 0 0 83528777.864863753 -250937311.19704056 0 -250937311.19704056 -158584250.57925415 0 0 0 0 65678276.625739813 -31567699.052215576 0 -31567699.052215576 -38586799.959991455 0 0 0 0 40680543.282711029 -59670642.111358643 0 -59670642.111358643 10303908.176177979 0 0 0 0 29244499.071805477 1361575.8765258789 0 1361575.8765258789 -38324638.238220215 0 0 0 0 14167967.369555473 -5035195.6861419678 0 -5035195.6861419678 -8234209.0506286621 0 0 0 0 22114754.14166832 -33660749.9090271 0 -33660749.9090271 -30717196.560943604 0 0 0 0 1730599.8929307479 -1863690.9806887731 0 -1863690.9806887731 -2526987.6327742711 0 0 0 0 24850749.217467308 -2701949.6360931396 0 -2701949.6360931396 -43403267.419025421 0 0 0 0 4962246.5682706404 864365.30627849698 0 864365.30627849698 -24004369.854492247 0 0 0 0 2289772.8702035053 -1499892.2716630548 0 -1499892.2716630548 -26221729.411921702 0 0 0 0 7845593.0659513474 762772.38461303711 0 762772.38461303711 -7984120.029083252 0 0 0 0 5892920.6669232957 2942392.2727523521 0 2942392.2727523521 -27165077.422966868 0 0 0 0 2359059.1002044678 33877728.752029419 0 33877728.752029419 -3919906.7647399902 0 0 0 0 5355825.7814507484 21893947.784912109 0 21893947.784912109 -20765524.665222168 0 0 0 0 -2140084.5528144836 28541614.952301025 0 28541614.952301025 -6005138.9543914795 0 0 0 0 82067668.033462048 96385150.149065018 0 96385150.149065018 70746463.629623413 0 0 0 0 -59346.855827331543 4704489.4604492188 0 4704489.4604492188 -66096111.991149902 0 0 0 0 3711607.2084364891 57561790.716253281 0 57561790.716253281 12290912.754394531 0 0 0 0 90837.160335063934 12885178.435157776 0 12885178.435157776 15339357.884857178 0 0 0 0 -1151710.4740276337 8436460.703414917 0 8436460.703414917 30183825.362373352 0 0 0 0 62447913.292085648 37217532.964859009 0 37217532.964859009 -16658286.359436035 0 0 0 0 3032524.4481539708 4323213.6650232151 0 4323213.6650232151 -35975298.384830803 0 0 0 0 2973165.8161313762 -1781640.0876971185 0 -1781640.0876971185 -8984225.548226051 0 0 0 0 359177261.55410886 160282882.67918396 0 160282882.67918396 25856775.507469177 0 0 0 0 396803860.87120414 -191521298.16474915 0 -191521298.16474915 -31141403.993438721 0 0 0 0 642347049.05031276 -154384553.39591217 0 -154384553.39591217 -147897333.02880859 0 0 0 0 440068541.19972336 551959941.16352844 0 551959941.16352844 -177456801.20527649 0 0 0 0 201328405.76297092 365564059.57336426 0 365564059.57336426 -19681498.615081787 0 0 0 0 710054451.61369097 24598262.188247681 0 24598262.188247681 -351429556.45220947 0 0 0 0 212832415.67811966 -418547558.76495361 0 -418547558.76495361 -92408130.275039673 0 0 0 0 16493714.432662964 -96954685.731460571 0 -96954685.731460571 18611272.122543335 0 0 0 0 -12512774.035287857 -80341538.505081177 0 -80341538.505081177 10148019.551071167 0 0 0 0 -23171574.307797909 -52838767.891895294 0 -52838767.891895294 48921831.057525635 0 0 0 0 18260510.684181213 68094350.654464722 0 68094350.654464722 167647580.80895996 0 0 0 0 -62219755.487447739 -91721779.808731079 0 -91721779.808731079 281104096.69116211 0 0 0 0 -474648676.65477592 -411396132.53437805 0 -411396132.53437805 -607806409.98223877 0 0 0 0 -121414665.56041159 -35009382.981342316 0 -35009382.981342316 -210752913.51400757 0 0 0 0 -254027908.36714625 -227172355.84992981 0 -227172355.84992981 -82970224.894920349 0 0 0 0 -202284765.67434072 313815220.70108032 0 313815220.70108032 22442592.392723083 0 0 0 0 -22682218.35106346 709801315.61422729 0 709801315.61422729 -429947650.04776001 0 0 0 0 -924807761.41644621 170505748.5949707 0 170505748.5949707 -2332485.0348625183 0 0 0 0 -844367454.9732691 -89692823.773788452 0 -89692823.773788452 133291591.9719696 0 0 0 0 148694788.79398656 -366775565.92980957 0 -366775565.92980957 -1099427677.2290649 0 0 0 0 191098435.19341743 -39793319.22694397 0 -39793319.22694397 178069254.27716064 0 0 0 0 513884000.08242273 -372200065.53240967 0 -372200065.53240967 -452470628.83682251 0 0 0 0 -622915.06022285647 -1219729.9991315417 0 -1219729.9991315417 -1923552.9440030307 0 0 0 0 -367087125.83026546 391912080.61282349 0 391912080.61282349 -247543988.33477783 0 0 0 0 -52117828.095264435 63944610.987243652 0 63944610.987243652 -776517975.52491379 0 0 0 0 -190158437.82104778 135686484.57826233 0 135686484.57826233 113497143.56280518 0 0 0 0 -875211.46597862244 -227931916.72845459 0 -227931916.72845459 -30294235.209663391 0 0 0 0 -39010007.478098154 153089865.02490234 0 153089865.02490234 106050543.02661133 0 0 0 0 -107490.9235563665 -3627513.2350898241 0 -3627513.2350898241 -58385.088592603803 0 0 0 0 719168967.30848575 -212706461.41737366 0 -212706461.41737366 -183586250.33062744 0 0 0 0 -168885674.71193686 -399824948.05110168 0 -399824948.05110168 312676579.79666138 0 0 0 0 -33608028.739151359 102278187.36231995 0 102278187.36231995 -90466679.343780518 0 0 0 0 160448130.20580959 -136106552.50898743 0 -136106552.50898743 23693501.382904053 0 0 0 0 247893199.5400244 31645461.330528259 0 31645461.330528259 47297872.813201904 0 0 0 0 -359872.02361692337 -12609466.532315528 0 -12609466.532315528 -272577.65823504329 0 0 0 0 302625989.40675735 -86266375.613388062 0 -86266375.613388062 -40309749.006790161 0 0 0 0 27365027.421068668 -42769960.049484253 0 -42769960.049484253 17707206.150604248 0 0 0 0 -239227415.05780387 35642476.316825867 0 35642476.316825867 67185599.651519775 0 0 0 0 -1479648.3659626786 -3654049.8192316294 0 -3654049.8192316294 -5989111.6214239746 0 0 0 0 73039946.706638575 -90420635.357406616 0 -90420635.357406616 -604182982.63226318 0 0 0 0 45351718.304291725 -30728178.10295105 0 -30728178.10295105 -66384639.598480225 0 0 0 0 -16309659.62907505 -91738749.108352661 0 -91738749.108352661 -18760185.592666626 0 0 0 0 45470740.82699585 -41112925.666007996 0 -41112925.666007996 2579886.3709106445 0 0 0 0 55338658.866240501 -93973271.06602478 0 -93973271.06602478 10351172.029361725 0 0 0 0 27352534.806261063 21690706.101633072 0 21690706.101633072 -23508800.463409424 0 0 0 0 151698196.42367226 -46544507.291152954 0 -46544507.291152954 10176807.032196045 0 0 0 0 85657984.127598763 -65151520.63104248 0 -65151520.63104248 -24021327.065063477 0 0 0 0 64260131.80025284 -76943790.187145233 0 -76943790.187145233 106617973.75674438 0 0 0 0 1862288.9773476226 2526371.6273475885 0 2526371.6273475885 -5265509.6127362996 0 0 0 0 47674519.590525627 28306542.532165527 0 28306542.532165527 -41118074.99118042 0 0 0 0 171844982.73606843 -123717832.42364311 0 -123717832.42364311 17154657.817169189 0 0 0 0 163384839.39609027 -60903119.738807678 0 -60903119.738807678 25508792.289642334 0 0 0 0 114502482.73432159 -112783191.18197632 0 -112783191.18197632 -4404005.3174591064 0 0 0 0 -1505396.2021804266 -9976708.6223527454 0 -9976708.6223527454 -32874892.834536336 0 0 0 0 78701023.7386446 -94439032.599876404 0 -94439032.599876404 -16419.165725708008 0 0 0 0 -5919258.9526748657 -68200013.062065125 0 -68200013.062065125 11970985.285568237 0 0 0 0 808166.22943973541 -55957881.408706665 0 -55957881.408706665 -20683707.140487671 0 0 0 0 -26717310.647891045 -5024035.8150939941 0 -5024035.8150939941 -14005738.816875458 0 0 0 0 236736071.13807869 -134877356.95205307 0 -134877356.95205307 -80068816.560836792 0 0 0 0 122966908.62478304 -23967599.092292786 0 -23967599.092292786 -95246959.23600769 0 0 0 0 1383746.7267753605 -8791245.1578462273 0 -8791245.1578462273 -31369249.523959026 0 0 0 0 216060972.02818108 242553614.34722137 0 242553614.34722137 -359407652.47520447 0 0 0 0 -39206723.582166672 -12897090.550895691 0 -12897090.550895691 211866304.75021362 0 0 0 0 -29689693.062214136 -66794100.267482758 0 -66794100.267482758 -37630190.573928833 0 0 0 0 -51731316.033573627 -2495818.4125289917 0 -2495818.4125289917 -181351612.68424988 0 0 0 0 -19512868.5629673 -59024640.147033691 0 -59024640.147033691 -313219833.87042618 0 0 0 0 -9525067.2841795683 75590215.23644352 0 75590215.23644352 -281679758.62258911 0 0 0 0 -72288837.494038105 -139486216.34255219 0 -139486216.34255219 -251986875.30843353 0 0 0 0 -11112.992361823563 229879.67249919474 0 229879.67249919474 -524491.86018323153 0 0 0 0 162065338.81392288 157891075.36410522 0 157891075.36410522 154382464.30307007 0 0 0 0 88273346.014761925 149039717.15357208 0 149039717.15357208 115539416.50909424 0 0 0 0 291397012.15557092 95061050.487915039 0 95061050.487915039 -71146099.876525879 0 0 0 0 227497232.57245827 132988706.15449524 0 132988706.15449524 91203081.847869873 0 0 0 0 641377.53161930549 -4844730.711031572 0 -4844730.711031572 -25718788.082654797 0 0 0 0 150054754.39025211 24186993.169845581 0 24186993.169845581 60996030.262282372 0 0 0 0 75617862.017390922 -27143298.107637405 0 -27143298.107637405 -47302139.836853027 0 0 0 0 15146982.121667385 -24636188.800476074 0 -24636188.800476074 822392.59318065643 0 0 0 0 12817415.290145099 -35601012.542455673 0 -35601012.542455673 -35327701.992492676 0 0 0 0 91179888.12630558 -77119511.200744629 0 -77119511.200744629 -87778535.363723755 0 0 0 0 184043392.50863743 -40429804.198234558 0 -40429804.198234558 -62726475.006408691 0 0 0 0 35321705.873106956 -28614462.093482971 0 -28614462.093482971 -59546154.201660156 0 0 0 0 28040648.809728861 28331959.139709473 0 28331959.139709473 -157366908.76731873 0 0 0 0 157687404.17465687 -183372201.07980347 0 -183372201.07980347 58193596.195613861 0 0 0 0 -46197902.332585573 98270342.476821899 0 98270342.476821899 -103392099.31408691 0 0 0 0 -1190903.7857716659 226251.13678279519 0 226251.13678279519 177075.31869772077 0 0 0 0 -33647977.868431687 33021829.540817261 0 33021829.540817261 -15119575.611755371 0 0 0 0 51382981.153766811 -44482449.931030273 0 -44482449.931030273 -54301330.220458984 0 0 0 0 40302571.121403933 -18830410.731124878 0 -18830410.731124878 -3738369.4382400513 0 0 0 0 141617028.18351114 -52031714.425768375 0 -52031714.425768375 -43859555.37008667 0 0 0 0 3187922.9098761007 -8489004.1551833414 0 -8489004.1551833414 -15850287.239729866 0 0 0 0 35581454.021608353 3848304.8458404541 0 3848304.8458404541 -42188236.639984131 0 0 0 0 67820064.402173996 -602894.32456970215 0 -602894.32456970215 -67648357.231742859 0 0 0 0 96488068.656288147 59320771.440338135 0 59320771.440338135 -10917503.102462769 0 0 0 0 3179154.3273174213 1518024.4616881013 0 1518024.4616881013 -10785531.731358781 0 0 0 0 20104096.219993114 -6493968.8883132935 0 -6493968.8883132935 49490869.051523209 0 0 0 0 25842209.388761044 -19224295.964813232 0 -19224295.964813232 -1733069.1814575195 0 0 0 0 16907007.759555101 -9774248.4467926025 0 -9774248.4467926025 -5475883.1929264069 0 0 0 0 -12327631.352210045 -10287867.890151978 0 -10287867.890151978 27328650.080291748 0 0 0 0 -11170023.29593233 5430416.4778556824 0 5430416.4778556824 46309178.523956299 0 0 0 0 715046.38274327933 -446822.23132722825 0 -446822.23132722825 -1855525.1275151521 0 0 0 0 -91268367.672791123 -55756550.437683105 0 -55756550.437683105 39320073.70489502 0 0 0 0 -28642456.009706259 -15304114.744407654 0 -15304114.744407654 60829408.959579468 0 0 0 0 33162263.2454561 -66907733.11656189 0 -66907733.11656189 6376779.483581543 0 0 0 0 -38954549.337715149 -38380270.014190674 0 -38380270.014190674 26606250.122930527 0 0 0 0 65866631.4717803 -120094875.77648926 0 -120094875.77648926 4245477.9494628906 0 0 0 0 -39348834.210535765 -51645930.306427002 0 -51645930.306427002 22236604.543266296 0 0 0 0 -28855437.455420136 -35312204.10824585 0 -35312204.10824585 -60588530.46005249 0 0 0 0 -231769362.39651966 -37859949.366317749 0 -37859949.366317749 -53308456.915390015 0 0 0 0 15435150.158026129 52647999.522861481 0 52647999.522861481 69935595.88470459 0 0 0 0 -10223827.016964853 -50417492.939807892 0 -50417492.939807892 -343217823.31564331 0 0 0 0 -93448632.773998737 -96655569.122573853 0 -96655569.122573853 -200763817.48309326 0 0 0 0 -160959338.72561193 -78010946.596801758 0 -78010946.596801758 46711053.55670166 0 0 0 0 2601944.9925617576 -8212380.369052887 0 -8212380.369052887 53072240.49307251 0 0 0 0 157088748.35778701 -28781080.369499207 0 -28781080.369499207 -32634982.636169434 0 0 0 0 823919.2013325569 -4343767.1172400918 0 -4343767.1172400918 -4624428.505881995 0 0 0 0 -55125.523959211539 -6036075.1306550242 0 -6036075.1306550242 -14591962.233124986 0 0 0 0 -19986202.666715622 -27300682.808769226 0 -27300682.808769226 30118209.813095093 0 0 0 0 -100658001.5944109 6481992.4324913025 0 6481992.4324913025 27740704.488922119 0 0 0 0 -1680389.5346356123 -5651213.6067351438 0 -5651213.6067351438 -9892649.1718462259 0 0 0 0 32365745.94995594 -18905366.261184692 0 -18905366.261184692 56912243.911224365 0 0 0 0 102236187.30701196 -173686604.83783722 0 -173686604.83783722 -44363238.401672363 0 0 0 0 -35192050.530292273 -74561461.242248535 0 -74561461.242248535 171224344.8380127 0 0 0 0 -41814866.323261976 578973099.93257141 0 578973099.93257141 -271890622.85745239 0 0 0 0 231935444.4137665 118109224.55018616 0 118109224.55018616 -954715964.1717453 0 0 0 0 -60088043.344762743 71548123.562801361 0 71548123.562801361 -280091157.8303833 0 0 0 0 -104470852.48400387 -153721400.41552925 0 -153721400.41552925 -407899817.54110718 0 0 0 0 -193488.57715195976 -535536.53585864976 0 -535536.53585864976 -1099012.5228943676 0 0 0 0 49876917.274438143 -34903041.28894043 0 -34903041.28894043 -550193512.55455875 0 0 0 0 9373432.3389699459 2223279.857635498 0 2223279.857635498 -547020554.5836792 0 0 0 0 102009835.23859537 -86393712.52066803 0 -86393712.52066803 -637302392.22650146 0 0 0 0 50160752.468502522 1452939.2816009521 0 1452939.2816009521 258076951.77659607 0 0 0 0 20089101.056938171 125219697.04324341 0 125219697.04324341 -716865.44413757324 0 0 0 0 141981838.82087994 71106906.505218506 0 71106906.505218506 21586072.858184814 0 0 0 0 -968765.54985844041 165112.1087744832 0 165112.1087744832 -152045.25331322476 0 0 0 0 -123396919.6942625 210275455.74838257 0 210275455.74838257 375308144.01464844 0 0 0 0 -42165039.450520039 274047505.67498779 0 274047505.67498779 113102883.43487549 0 0 0 0 -101031660.17827082 260924018.04931641 0 260924018.04931641 293232313.17675781 0 0 0 0 -186156484.15342259 270835802.10209656 0 270835802.10209656 131541523.47161865 0 0 0 0 13131387.409599066 107584093.5071106 0 107584093.5071106 -180777599.29167175 0 0 0 0 13259065.531064011 112772065.12780952 0 112772065.12780952 10163118.989746094 0 0 0 0 -37460170.769022465 167875311.30331802 0 167875311.30331802 -251584794.90316772 0 0 0 0 107721015.49473995 61155847.394682884 0 61155847.394682884 -43170693.809234619 0 0 0 0 104924929.57188368 17897522.954605103 0 17897522.954605103 -210585889.63671875 0 0 0 0 60028845.919420242 -40633235.720306396 0 -40633235.720306396 -80256516.97769165 0 0 0 0 62528026.652872086 -32123951.223526001 0 -32123951.223526001 -112065581.76067352 0 0 0 0 18746879.973717928 -50676302.178504944 0 -50676302.178504944 -154318172.46929932 0 0 0 0 31347237.763420582 -77985506.706985474 0 -77985506.706985474 -128849188.87184143 0 0 0 0 -58966910.585888863 -199769434.41773415 0 -199769434.41773415 -420897180.10324097 0 0 0 0 22059120.16535759 13335848.359802246 0 13335848.359802246 -12025047.691665649 0 0 0 0 47786175.151475519 33157575.681914806 0 33157575.681914806 -1696599.4974365234 0 0 0 0 72001456.497070789 8447950.8578720093 0 8447950.8578720093 -31590299.842376709 0 0 0 0 46676032.092871666 17663731.247024536 0 17663731.247024536 -29229572.897857666 0 0 0 0 23356837.024221897 45127424.120681763 0 45127424.120681763 76373684.782333374 0 0 0 0 88513824.070362091 69344710.671047211 0 69344710.671047211 -2244005.0788269043 0 0 0 0 74205532.499948502 46377206.601425171 0 46377206.601425171 19712515.571350098 0 0 0 0 11962612.623122692 17893902.304824829 0 17893902.304824829 20594781.245819092 0 0 0 0 51377097.919699907 -36181602.729221344 0 -36181602.729221344 -17108447.062774658 0 0 0 0 -2128178.009845973 591761.7185645476 0 591761.7185645476 -517307.39710815251 0 0 0 0 57464559.36879158 95470242.840270996 0 95470242.840270996 100354281.44775391 0 0 0 0 -18288026.340183735 125087472.98828125 0 125087472.98828125 -333016753.93746948 0 0 0 0 -273300196.71071601 3150890.5417785645 0 3150890.5417785645 -94197469.872146606 0 0 0 0 159081696.93290341 208771822.22618103 0 208771822.22618103 -237321496.66371155 0 0 0 0 125094283.41436565 139403780.80529404 0 139403780.80529404 -331699421.3543396 0 0 0 0 40721104.355708361 235279022.55249786 0 235279022.55249786 -438843818.51052856 0 0 0 0 -95644250.421742201 162151145.76995087 0 162151145.76995087 -187668981.26849365 0 0 0 0 76026083.411800146 -188802198.00968933 0 -188802198.00968933 -715380318.76695251 0 0 0 0 -509700.63362932659 371560.69928817451 0 371560.69928817451 -355826.78926974535 0 0 0 0 -10752138.811132908 18912170.409820557 0 18912170.409820557 52406988.281402588 0 0 0 0 21611240.209035516 146056578.96549988 0 146056578.96549988 -355348950.03805542 0 0 0 0 49607684.548211575 -81262281.365020752 0 -81262281.365020752 -471312888.40263367 0 0 0 0 7141330.6398382187 -7367920.9766235352 0 -7367920.9766235352 -16236262.849884033 0 0 0 0 -1394810.1541487728 1152013.304338485 0 1152013.304338485 -991964.84467987716 0 0 0 0 -2463509.7922236919 38720127.498188019 0 38720127.498188019 18078000.420654297 0 0 0 0 -18252760.595370293 -9520833.195098877 0 -9520833.195098877 -10217300.074905396 0 0 0 0 824146.0534453392 -18255826.945297241 0 -18255826.945297241 7393484.6809844971 0 0 0 0 23174257.390953064 6013516.8419952393 0 6013516.8419952393 -39480293.96206665 0 0 0 0 5489756.9527111053 4005811.5703430176 0 4005811.5703430176 -36202647.458831787 0 0 0 0 -2236409.6563117905 1190753.3179011643 0 1190753.3179011643 -1279339.5280425251 0 0 0 0 15308914.265911102 16954260.253601074 0 16954260.253601074 7820466.4892654419 0 0 0 0 -72834.817769598449 121467.62053886801 0 121467.62053886801 4790.3722873032093 0 0 0 0 1625195.9005060196 -4412671.9938659668 0 -4412671.9938659668 -12067434.867675781 0 0 0 0 -49001.522293136979 2724680.5895979619 0 2724680.5895979619 -5308218.0670568794 0 0 0 0 15882286.512775306 -3204879.5254383087 0 -3204879.5254383087 -7354627.225982666 0 0 0 0 5616229.9805535078 -11648237.393890381 0 -11648237.393890381 -12682824.330805779 0 0 0 0 24067481.560123444 14897840.368606567 0 14897840.368606567 -2977295.7757110596 0 0 0 0 7436385.6845700741 11503732.765521049 0 11503732.765521049 4065456.5956726074 0 0 0 0 -807889.76373941172 5147722.4277191162 0 5147722.4277191162 -12945076.142974854 0 0 0 0 -4018847.356587837 6278730.9152069092 0 6278730.9152069092 -10715168.847106934 0 0 0 0 -773344.08912557364 7286291.6470794678 0 7286291.6470794678 -16643474.386779785 0 0 0 0 83057.14618141987 -169031.32619871572 0 -169031.32619871572 148368.72546297312 0 0 0 0 -1911147.1197765432 -3048754.0224151611 0 -3048754.0224151611 -564824.23532104492 0 0 0 0 -6135153.3903408023 12188137.774978638 0 12188137.774978638 -20035857.609359741 0 0 0 0 4589612.018108204 -1669379.4573516846 0 -1669379.4573516846 -1270964.1663665771 0 0 0 0 2996528.3256407939 -573185.77797405422 0 -573185.77797405422 -2761553.1197535135 0 0 0 0 9028534.7596912384 -2393394.043838501 0 -2393394.043838501 -11754474.738491058 0 0 0 0 1043702.7700924873 553852.56188964844 0 553852.56188964844 -58926.907501220703 0 0 0 0 14871601.751947403 -2676590.6598510742 0 -2676590.6598510742 -16145873.220550537 0 0 0 0 17033444.644586563 5018836.86328125 0 5018836.86328125 -7325345.2289733887 0 0 0 0 2042787.2510061264 -1694269.6255187988 0 -1694269.6255187988 -9147165.0607147217 0 0 0 0 644494.75741264352 1183603.7865670696 0 1183603.7865670696 -2648684.3257619739 0 0 0 0 -1198378.7590071568 1830262.889251709 0 1830262.889251709 -4563685.530380249 0 0 0 0 -3019354.0342285633 5224216.4730300903 0 5224216.4730300903 42860.169586181641 0 0 0 0 1743.4052752867983 3116906.661239624 0 3116906.661239624 -7861259.4781799316 0 0 0 0 -3489328.4708611583 4824467.385925293 0 4824467.385925293 -2950966.2500610352 0 0 0 0 -2153917.3077847864 2349588.2877502441 0 2349588.2877502441 -5741531.2053833008 0 0 0 0 179005.7800634772 -381507.34075145423 0 -381507.34075145423 342608.55755221844 0 0 0 0 -862939.46280900971 3980087.7085399628 0 3980087.7085399628 -5679032.2490844727 0 0 0 0 961703.49201672641 302089.47961578518 0 302089.47961578518 -2647233.4806797802 0 0 0 0 1457.5248555491044 285485.55603027344 0 285485.55603027344 -1604576.7058563232 0 0 0 0 -423178.16671255231 1654832.1112480164 0 1654832.1112480164 1872342.219619751 0 0 0 0 -1100408.4428832075 1159532.9723141268 0 1159532.9723141268 -1009381.8561382592 0 0 0 0 -106852476.8007867 -53828908.868041992 0 -53828908.868041992 4971965.5282001495 0 0 0 0 -1579289.1411828457 2065115.7117123157 0 2065115.7117123157 -1915994.240318194 0 0 0 0 5799732.7860298157 11105953.259292603 0 11105953.259292603 821704.27012252808 0 0 0 0 22096008.615833282 2419766.7594299316 0 2419766.7594299316 -14957234.69770813 0 0 0 0 19973464.078418732 7988778.8416748047 0 7988778.8416748047 -9881665.7262115479 0 0 0 0 -8351.7673928842632 42046012.946723938 0 42046012.946723938 -202597390.68568802 0 0 0 0 -28162880.676819615 63553504.382061005 0 63553504.382061005 79243810.819953918 0 0 0 0 22735.081710449536 220980.9538061358 0 220980.9538061358 -722343.92785520852 0 0 0 0 94924940.471316576 -92923032.935256958 0 -92923032.935256958 -468841743.32740021 0 0 0 0 -115693862.14458805 163207407.47913742 0 163207407.47913742 -484804411.83816528 0 0 0 0 -105778249.19654393 -74923902.346969604 0 -74923902.346969604 14014783.441253662 0 0 0 0 32843.785546650877 421009.96050624549 0 421009.96050624549 -1541967.8497343063 0 0 0 0 19665392.260979891 129910295.10728455 0 129910295.10728455 -3674920.5520515442 0 0 0 0 112533849.29266357 269726498.59200478 0 269726498.59200478 203474066.79388428 0 0 0 0 202498386.74917632 -86658183.725715637 0 -86658183.725715637 -550607419.07220459 0 0 0 0 209496737.13114822 277641243.24337006 0 277641243.24337006 60036793.882205963 0 0 0 0 -250453339.98691523 -12689475.535980225 0 -12689475.535980225 236561579.18783569 0 0 0 0 -15617250.68547903 -152438510.92474365 0 -152438510.92474365 -257738179.76055908 0 0 0 0 17741232.439273849 18834010.454807281 0 18834010.454807281 -25822768.566040039 0 0 0 0 56503595.799098447 36476553.186112404 0 36476553.186112404 -138472258.20651245 0 0 0 0 2640927.3084774227 -83654153.139453888 0 -83654153.139453888 -84609481.436599731 0 0 0 0 27747075.40695329 -1438179.8218154907 0 -1438179.8218154907 -17954572.932861328 0 0 0 0 152562.8077538026 -400923.41951468028 0 -400923.41951468028 -152171.29176129401 0 0 0 0 -16305945.012026295 -8272737.5404663086 0 -8272737.5404663086 -7695778.4094848633 0 0 0 0 -11743345.077808388 10515501.057220459 0 10515501.057220459 -33934704.265045166 0 0 0 0 18502401.307502061 -15262172.916564941 0 -15262172.916564941 -20941116.846496582 0 0 0 0 2652696.7288554013 -19367156.671630859 0 -19367156.671630859 -17072852.590698242 0 0 0 0 9461651.4072680324 4938630.2573699951 0 4938630.2573699951 1984766.2949829102 0 0 0 0 1058199.4905517101 -6406180.1039428711 0 -6406180.1039428711 -8853937.0886383057 0 0 0 0 3651362.5221625194 209272.1755065918 0 209272.1755065918 -10536659.418029785 0 0 0 0 -7259122.336965628 -65576.220489501953 0 -65576.220489501953 -1064357.0175170898 0 0 0 0 -5891318.6520922408 308506.68980407715 0 308506.68980407715 -9360070.5928955078 0 0 0 0 -12710468.699600738 151614.28421020508 0 151614.28421020508 144546.623046875 0 0 0 0 -10005712.934628936 -6584179.320892334 0 -6584179.320892334 -12699334.586883545 0 0 0 0 -13245094.479868725 -3734101.3276672363 0 -3734101.3276672363 -4976165.0232543945 0 0 0 0 -14783.60703476094 -2353301.1535110474 0 -2353301.1535110474 -53121095.840652466 0 0 0 0 -582328.0813580351 17451559.231246948 0 17451559.231246948 -13271923.818901062 0 0 0 0 5771698.7404221138 10557360.927871704 0 10557360.927871704 -119306824.45852661 0 0 0 0 -4952128.8313434087 1175654.4400253296 0 1175654.4400253296 -41994186.741027832 0 0 0 0 -5023056.9652566183 17937075.452987671 0 17937075.452987671 -118531552.12133846 0 0 0 0 14384540.275043815 76099722.949295044 0 76099722.949295044 -86538318.030929565 0 0 0 0 -3036819.8578542992 27313108.013900757 0 27313108.013900757 -118546314.66256714 0 0 0 0 -33021215.453635693 15721809.461639404 0 15721809.461639404 -20695582.148925781 0 0 0 0 -76531958.136902511 44512972.453338623 0 44512972.453338623 29293189.248535156 0 0 0 0 -104709688.8844043 -130107060.75997162 0 -130107060.75997162 -135105360.13372803 0 0 0 0 206768.86064149599 -167779.09912050422 0 -167779.09912050422 -370034.9006049037 0 0 0 0 -60674034.639711782 -101001425.35321045 0 -101001425.35321045 -77445080.535888672 0 0 0 0 -20311029.359262165 -52399272.337219238 0 -52399272.337219238 -56264866.296157837 0 0 0 0 -50669153.386139676 -27526760.315368652 0 -27526760.315368652 8487239.0812072754 0 0 0 0 -68568419.149645656 -66203825.128746033 0 -66203825.128746033 -32739666.353637695 0 0 0 0 6939534.7408955246 -101429778.54115295 0 -101429778.54115295 -185516723.6222229 0 0 0 0 -5690387.3075896502 -72479083.833496094 0 -72479083.833496094 -94598770.711486816 0 0 0 0 -26165572.752458312 -60214294.876861572 0 -60214294.876861572 -55307291.647399902 0 0 0 0 28773187.294800103 -52450736.421524048 0 -52450736.421524048 -130365340.63421631 0 0 0 0 28973321.171327442 -55092582.795776367 0 -55092582.795776367 -116935911.23704529 0 0 0 0 9217995.3424105048 -28420169.257461548 0 -28420169.257461548 -52496772.104614258 0 0 0 0 1810883.3398074093 -29481508.666717529 0 -29481508.666717529 -37483758.183258057 0 0 0 0 2850308.5837898254 -43386991.85824585 0 -43386991.85824585 -81748652.460220337 0 0 0 0 -7116156.9316730164 -25066176.157531738 0 -25066176.157531738 -39254480.960632324 0 0 0 0 -396042.76169091463 -9470594.4591064453 0 -9470594.4591064453 -17279254.660797119 0 0 0 0 -604346.83252447844 -8499285.512512207 0 -8499285.512512207 -20027749.643737793 0 0 0 0 2455918.7832169831 -22068167.465667725 0 -22068167.465667725 -53919675.862480164 0 0 0 0 41139019.591228828 14040043.981441498 0 14040043.981441498 -25678577.539733887 0 0 0 0 -16171075.66199252 -90389562.28427124 0 -90389562.28427124 18953704.619377136 0 0 0 0 750780.12338623533 -723250.09958624654 0 -723250.09958624654 -921403.83622819185 0 0 0 0 37656460.7447678 -2936593.4720916748 0 -2936593.4720916748 -23885531.692504883 0 0 0 0 2267103.4989651572 11522850.458953857 0 11522850.458953857 -10989100.465278625 0 0 0 0 21163921.17318527 9354978.1412658691 0 9354978.1412658691 4102695.2187042236 0 0 0 0 1803699.993614835 -2396792.3308677925 0 -2396792.3308677925 -1494115.0630023628 0 0 0 0 -8546155.2954869121 -20460798.56879425 0 -20460798.56879425 14832918.932617188 0 0 0 0 6671228.8333373293 -10257493.563598633 0 -10257493.563598633 7062712.6357421875 0 0 0 0 4477538.7008414865 8353280.9204559326 0 8353280.9204559326 11185039.367458344 0 0 0 0 5292286.7997632697 -7076542.9533653259 0 -7076542.9533653259 -20468210.834869385 0 0 0 0 9295170.1691087782 -11537854.583610535 0 -11537854.583610535 -18444455.3359375 0 0 0 0 9279378.7392172515 7604482.2596740723 0 7604482.2596740723 -4017426.2299957275 0 0 0 0 3634748.711064375 -3940280.4568734616 0 -3940280.4568734616 -2121962.4741041805 0 0 0 0 13082021.254405499 4196488.3308258057 0 4196488.3308258057 -26536519.304458618 0 0 0 0 13141.553082883358 2223929.4938964844 0 2223929.4938964844 20896830.405609131 0 0 0 0 11796853.169230171 -2406726.8468017578 0 -2406726.8468017578 -8112901.4526367188 0 0 0 0 3021737.3129761866 -1602749.4668122828 0 -1602749.4668122828 -3444303.3079430163 0 0 0 0 1272235.4527882938 -1300041.6497480227 0 -1300041.6497480227 -3542437.1699327528 0 0 0 0 7084298.7796627581 3907296.6239013672 0 3907296.6239013672 9427003.83984375 0 0 0 0 4098582.2182461023 -2390334.7424888685 0 -2390334.7424888685 -4712665.4107748866 0 0 0 0 2481371.1361481547 -578475.15414428711 0 -578475.15414428711 -4138067.3664550781 0 0 0 0 3066776.4339174996 -2927335.3501832169 0 -2927335.3501832169 -3317918.7721925676 0 0 0 0 2981044.8938812157 -728888.68471473455 0 -728888.68471473455 -3495189.3109029005 0 0 0 0 2317630.3485736847 -57183.005279541016 0 -57183.005279541016 -3292969.9785461426 0 0 0 0 3957233.6706581437 -421456.76953078806 0 -421456.76953078806 -6541307.6963000335 0 0 0 0 1424111.5346999168 1521537.2508392334 0 1521537.2508392334 -2607576.5309448242 0 0 0 0 1365549.1919708718 1995895.7830047607 0 1995895.7830047607 -6585386.0487689972 0 0 0 0 -16030.211897924322 707633.34499088675 0 707633.34499088675 -4456606.159454315 0 0 0 0 812324.10817330144 -107154.80874633789 0 -107154.80874633789 -6941764.8050537109 0 0 0 0 167129.26425414675 -721838.13407897949 0 -721838.13407897949 -5647456.3511352539 0 0 0 0 553352.11185358348 -1599227.3515345957 0 -1599227.3515345957 -556599.05244293809 0 0 0 0 989170.23345254816 -125944.34678709507 0 -125944.34678709507 -1864855.3400228992 0 0 0 0 5468653.4428504705 -6009343.9134368896 0 -6009343.9134368896 -2023312.9067840576 0 0 0 0 485299.79463432496 337589.046875 0 337589.046875 -5580020.9044685364 0 0 0 0 919857.82944697153 -598322.57989120483 0 -598322.57989120483 -5538008.7172241211 0 0 0 0 -2316204.6299967468 -5688753.0989990234 0 -5688753.0989990234 782761.95269775391 0 0 0 0 -1218681.575639002 -3531842.8996047974 0 -3531842.8996047974 4232835.0208129883 0 0 0 0 -189.74938321116815 -670012.86100769043 0 -670012.86100769043 -5461290.0307312012 0 0 0 0 2060038.9880449057 -2243031.6058349609 0 -2243031.6058349609 -8300775.2189102173 0 0 0 0 2093939.017470629 1716788.4302978516 0 1716788.4302978516 -3886977.7297973633 0 0 0 0 233388.53239213704 -60550.222767181695 0 -60550.222767181695 -505368.34687328339 0 0 0 0 -6027757.1928524375 558889.40328979492 0 558889.40328979492 104949.14447021484 0 0 0 0 -8514.5125136094648 376971.09522462636 0 376971.09522462636 -3647188.3549508844 0 0 0 0 1010654.7674455609 -245881.46491241455 0 -245881.46491241455 -7569162.4638977051 0 0 0 0 107732.0802037355 -249176.96810913086 0 -249176.96810913086 -5680358.2296142578 0 0 0 0 -89761.294702466577 3823804.1645355225 0 3823804.1645355225 -3571792.4662861824 0 0 0 0 663.53545018151181 4013357.2537918091 0 4013357.2537918091 -4115323.635635376 0 0 0 0 1926736.8870554212 2649864.2213592529 0 2649864.2213592529 -5840987.546081543 0 0 0 0 -425532.01938211545 2894550.4536590576 0 2894550.4536590576 -5014810.1440734863 0 0 0 0 1922967.8572538495 3960483.4885559082 0 3960483.4885559082 -4577547.7205810547 0 0 0 0 1716034.9439847479 2635896.3797340393 0 2635896.3797340393 -5591538.8964233398 0 0 0 0 179485.71396828815 4442776.1287536621 0 4442776.1287536621 -4160123.3522644043 0 0 0 0 5236225.2372662993 2885468.3016815186 0 2885468.3016815186 -5584819.6317138672 0 0 0 0 2909650.1287388685 5888939.8354492188 0 5888939.8354492188 -3901797.3787841797 0 0 0 0 -1594.7289437203194 4140964.2585372925 0 4140964.2585372925 -3985133.7607727051 0 0 0 0 192773.2129335897 4126977.8098754883 0 4126977.8098754883 -4048873.0026702881 0 0 0 0 -418742.39908690657 2187164.8986434937 0 2187164.8986434937 -7736192.2241363525 0 0 0 0 2933034.2965231445 7788222.8740692139 0 7788222.8740692139 -2208808.5807800293 0 0 0 0 -1039871.804277272 4026746.1810455322 0 4026746.1810455322 -3022329.6734161377 0 0 0 0 1485729.6628267644 2686228.1350097656 0 2686228.1350097656 -22722818.075080872 0 0 0 0 -871658.2779434789 686598.91048049927 0 686598.91048049927 -6729744.668258667 0 0 0 0 126.91820599366845 3823400.5190029391 0 3823400.5190029391 -9146278.9620666504 0 0 0 0 401150.58474882878 680110.29437255859 0 680110.29437255859 -15868706.453262329 0 0 0 0 23623799.116274595 16500286.657112122 0 16500286.657112122 -7971569.9327087402 0 0 0 0 10991412.843196392 3863314.2372665405 0 3863314.2372665405 -8533945.6519165039 0 0 0 0 34732.461171691073 2900476.5777546545 0 2900476.5777546545 -6300918.1577378064 0 0 0 0 34016829.284489632 17517773.40145874 0 17517773.40145874 -9454427.2879943848 0 0 0 0 15975121.966635153 14488509.480262756 0 14488509.480262756 -13762747.006207466 0 0 0 0 20196905.895769596 17031469.945701599 0 17031469.945701599 1503025.2651672363 0 0 0 0 27654382.518152237 -3003451.1858673096 0 -3003451.1858673096 -10489909.997924805 0 0 0 0 8477916.5498861074 7492042.3828048706 0 7492042.3828048706 -14450378.457794189 0 0 0 0 8292451.6383590698 -16796479.447067261 0 -16796479.447067261 -40912666.781173706 0 0 0 0 66358715.314633846 26826358.621391296 0 26826358.621391296 -25347453.705383301 0 0 0 0 9755483.3845179901 5926268.0043563843 0 5926268.0043563843 -6628832.724822998 0 0 0 0 407933.89573166147 2766556.2274827803 0 2766556.2274827803 -7292965.8689003587 0 0 0 0 -9080231.7371833324 32322996.436424255 0 32322996.436424255 5414755.5072021484 0 0 0 0 10543980.123466492 1591058.8488845825 0 1591058.8488845825 -8801609.8424651623 0 0 0 0 1544432.3307730765 -2485445.9663988315 0 -2485445.9663988315 -879414.05454398692 0 0 0 0 41082488.365549088 -34639368.319198608 0 -34639368.319198608 -32226504.546600342 0 0 0 0 496301.35200405121 -8042295.443649292 0 -8042295.443649292 4266702.7296500206 0 0 0 0 1328506.7160507289 1789587.5059994073 0 1789587.5059994073 -8319964.3571897149 0 0 0 0 2549553.9608359598 2385.5897767618299 0 2385.5897767618299 -4601967.6146437749 0 0 0 0 11143955.667873085 -2000593.4898223877 0 -2000593.4898223877 -27845279.005401611 0 0 0 0 4419422.093000412 -15604100.853149414 0 -15604100.853149414 -41257878.083839417 0 0 0 0 222750.74659718946 -136304.88220749795 0 -136304.88220749795 -846907.06975736469 0 0 0 0 -6367105.2956285477 -4923682.6696166992 0 -4923682.6696166992 -11146717.890008926 0 0 0 0 5074569.0342264175 24357134.038330078 0 24357134.038330078 -6722044.8762950897 0 0 0 0 727241.34757775068 9518668.9637546539 0 9518668.9637546539 -30937026.01184082 0 0 0 0 -3572430.3076910973 9606240.856842041 0 9606240.856842041 -29932917.5520401 0 0 0 0 -4868428.175921917 -1662259.5346450806 0 -1662259.5346450806 -37674948.248397827 0 0 0 0 -2153374.524712801 -32832531.426130295 0 -32832531.426130295 -58337688.672866821 0 0 0 0 10405735.797103971 -5624435.017575264 0 -5624435.017575264 -56626257.219894409 0 0 0 0 -9582228.0392160416 6620954.2444152832 0 6620954.2444152832 -19539855.760971069 0 0 0 0 15894664.308408737 2520306.3659820557 0 2520306.3659820557 -18966898.976221085 0 0 0 0 -12066575.224747509 -14020732.771157265 0 -14020732.771157265 -9725065.1022186279 0 0 0 0 9915092.7686061859 -20678107.501831055 0 -20678107.501831055 -11352289.302337646 0 0 0 0 29586219.907616615 -20203041.047309875 0 -20203041.047309875 -50210618.134429932 0 0 0 0 7089821.242067337 -25668555.148017883 0 -25668555.148017883 -19428815.718582153 0 0 0 0 38026507.318516731 4264847.2916812897 0 4264847.2916812897 -18974019.143829346 0 0 0 0 2876272.971198082 -11233738.644577026 0 -11233738.644577026 -23307565.316680908 0 0 0 0 -31776365.986662388 -59599634.428665161 0 -59599634.428665161 27294575.543132782 0 0 0 0 -7489992.4803159237 -98781726.335464478 0 -98781726.335464478 36739115.330383301 0 0 0 0 -22484447.061024666 -190663316.74693298 0 -190663316.74693298 -143213734.68042374 0 0 0 0 -483592.9156255722 -88827393.898361206 0 -88827393.898361206 -65598143.133365631 0 0 0 0 7009610.2881096676 -50540350.36566928 0 -50540350.36566928 -4038717.4495239258 0 0 0 0 -16047861.924105167 7285956.7105560303 0 7285956.7105560303 21499480.440307617 0 0 0 0 -21095466.784101963 -50376829.619132996 0 -50376829.619132996 30582212.532928467 0 0 0 0 40149157.84436214 93103834.288002014 0 93103834.288002014 126434011.00758362 0 0 0 0 -93780879.412073195 -53407229.504852295 0 -53407229.504852295 217405493.84567261 0 0 0 0 -18153471.810475826 12396669.213829041 0 12396669.213829041 30590469.044967651 0 0 0 0 55827881.548570395 30856676.039138794 0 30856676.039138794 -20143779.762573242 0 0 0 0 10768345.796445131 13752653.207565308 0 13752653.207565308 -22996508.138092041 0 0 0 0 -5013893.5905489922 -3589859.095993042 0 -3589859.095993042 -2541654.0933685303 0 0 0 0 -2986052.8886904716 1363673.2730407715 0 1363673.2730407715 -47731246.424263 0 0 0 0 4360261.7098670006 21994706.543670654 0 21994706.543670654 -27786211.211410522 0 0 0 0 11120733.084617734 2340235.5306377411 0 2340235.5306377411 -45091815.286193848 0 0 0 0 -10425954.720222354 7716148.2061920166 0 7716148.2061920166 -45762530.139511108 0 0 0 0 9949605.9236997664 -21225876.930870056 0 -21225876.930870056 -13951099.548019409 0 0 0 0 -12069430.717462182 -37782181.567993164 0 -37782181.567993164 -35256669.0574646 0 0 0 0 -1885405.4926633239 -20485415.598144531 0 -20485415.598144531 -13995659.373153687 0 0 0 0 -33762484.189911723 -14424295.420013428 0 -14424295.420013428 -4089310.3013000488 0 0 0 0 11549726.712490618 -20129654.88444519 0 -20129654.88444519 -4583454.8952331543 0 0 0 0 -7051753.0298514217 -7554194.696144104 0 -7554194.696144104 -36146595.919616699 0 0 0 0 -18544641.409925878 -14992643.44310379 0 -14992643.44310379 40039380.398895264 0 0 0 0 1267390.2053868941 -4526259.9901113808 0 -4526259.9901113808 -2938890.8595665419 0 0 0 0 10177390.240851402 10821511.926063538 0 10821511.926063538 -71045301.65788269 0 0 0 0 2426440.453052734 -4316441.6003376618 0 -4316441.6003376618 -2011519.1908799289 0 0 0 0 -1882488.4890298843 18128362.014251709 0 18128362.014251709 7174014.4901733398 0 0 0 0 6354983.5877079964 2965255.7736358643 0 2965255.7736358643 -46457819.704071045 0 0 0 0 -16031998.527273655 -6723513.7073669434 0 -6723513.7073669434 47594641.391017437 0 0 0 0 13554545.167745471 9288062.8754882812 0 9288062.8754882812 887870.83206176758 0 0 0 0 -8890278.032136023 1517125.104019165 0 1517125.104019165 1009565.7441987991 0 0 0 0 8690712.349711597 10728790.351211548 0 10728790.351211548 -38763477.17767334 0 0 0 0 -15863691.562474489 -5216555.7484130859 0 -5216555.7484130859 -1313999.7587966919 0 0 0 0 641035.48929941654 3527607.9186859131 0 3527607.9186859131 -42896008.26083374 0 0 0 0 -27725688.08476615 4175736.7410888672 0 4175736.7410888672 -42851193.873962402 0 0 0 0 5352745.8616586924 13023096.673456192 0 13023096.673456192 -95477305.067077637 0 0 0 0 3454929.6585713327 -3185841.2224292755 0 -3185841.2224292755 -85517860.513000488 0 0 0 0 -21933584.462017298 19456335.761535645 0 19456335.761535645 -95690503.130828857 0 0 0 0 7433.7484817504883 -9439733.8273925781 0 -9439733.8273925781 -46010742.723716736 0 0 0 0 6854389.9019138217 -6371435.3358840942 0 -6371435.3358840942 -66684915.389434814 0 0 0 0 15440433.271980762 -8761794.7282867432 0 -8761794.7282867432 -96301516.243343353 0 0 0 0 12656351.747231886 -33500006.73853302 0 -33500006.73853302 -87189864.985168457 0 0 0 0 40943203.979839399 -42599934.447036743 0 -42599934.447036743 -158831028.25598145 0 0 0 0 25061914.048883438 -22292584.899230957 0 -22292584.899230957 -101222601.45007324 0 0 0 0 25681768.826471359 -20283347.323448181 0 -20283347.323448181 -142172339.20449829 0 0 0 0 43541637.498121262 -35207941.634155273 0 -35207941.634155273 -140265580.21224022 0 0 0 0 11979158.124065518 -14916918.813140869 0 -14916918.813140869 -151431981.56172943 0 0 0 0 12291136.885825336 6574239.2568511963 0 6574239.2568511963 -162922474.0435791 0 0 0 0 35317552.818926215 -16977222.755859375 0 -16977222.755859375 -179008526.47241211 0 0 0 0 13051721.018543601 -24548405.066552162 0 -24548405.066552162 -238784053.07556152 0 0 0 0 -99242040.084813118 20313337.255874634 0 20313337.255874634 -55589274.269104004 0 0 0 0 20930915.397006512 7996344.1156616211 0 7996344.1156616211 -312088008.17520142 0 0 0 0 -46836731.639532089 80225099.618392944 0 80225099.618392944 -238211783.63571167 0 0 0 0 -47524659.51814127 48165656.419769287 0 48165656.419769287 -132126589.30740356 0 0 0 0 -7987595.9011890888 -27023642.223815918 0 -27023642.223815918 -42577936.919235229 0 0 0 0 28003447.940240145 160807748.80783081 0 160807748.80783081 31436361.447113037 0 0 0 0 -13205856.428326964 -28224523.74206543 0 -28224523.74206543 -70364531.998596191 0 0 0 0 -7852315.5129933953 -13741954.07434082 0 -13741954.07434082 -40478651.760253906 0 0 0 0 -61959536.559884787 -18148791.841140747 0 -18148791.841140747 -37438120.122558594 0 0 0 0 -27000466.666773856 21891791.44682312 0 21891791.44682312 -85583254.004241943 0 0 0 0 -17337453.300912783 3264152.5885620117 0 3264152.5885620117 -102802988.79772949 0 0 0 0 10531214.935414195 -5911402.1007537842 0 -5911402.1007537842 -18181560.487060547 0 0 0 0 5016082.1138263941 -8146064.6678466797 0 -8146064.6678466797 -16835159.341918945 0 0 0 0 7266332.1878473163 -26460819.124053955 0 -26460819.124053955 -46835294.244049072 0 0 0 0 22808433.84460783 -12069968.139221191 0 -12069968.139221191 -33510457.964626312 0 0 0 0 17662278.932466745 16842834.202404022 0 16842834.202404022 1261071.3507385254 0 0 0 0 -168651.37747933788 -3158.345476552844 0 -3158.345476552844 -921294.41928615794 0 0 0 0 42434246.20300442 5322410.9916687012 0 5322410.9916687012 -48669222.908535957 0 0 0 0 4415704.7892130017 -1117933.8047027588 0 -1117933.8047027588 -19484583.972549438 0 0 0 0 -121296.5152103327 -334825.87884920835 0 -334825.87884920835 -1720832.7225998156 0 0 0 0 3580207.1893981844 -1393542.8883743286 0 -1393542.8883743286 -7648333.319152832 0 0 0 0 -123472159.05861515 -94350919.987716675 0 -94350919.987716675 -245328162.99061584 0 0 0 0 -436637952.39712095 -360704549.51776123 0 -360704549.51776123 -299235607.46362305 0 0 0 0 -332342540.95316494 -370376243.05130768 0 -370376243.05130768 -576771855.28756714 0 0 0 0 -594660474.6253686 -499282214.21878052 0 -499282214.21878052 -420436353.57318115 0 0 0 0 -119091.80073082667 -341130.68842251692 0 -341130.68842251692 -576515.01938393712 0 0 0 0 156317691.86529732 -139606318.32498169 0 -139606318.32498169 93393098.44493866 0 0 0 0 -532477.13748099562 158351.15786916018 0 158351.15786916018 -134465.51430474222 0 0 0 0 -156853379.86753273 -580689227.46871948 0 -580689227.46871948 825586208.66349792 0 0 0 0 95966823.246208668 -76494223.869262695 0 -76494223.869262695 70545390.074920654 0 0 0 0 -1210807.744740068 -4307956.3509842856 0 -4307956.3509842856 -3152610.2337632328 0 0 0 0 -20092873.383360386 -261859408.81562042 0 -261859408.81562042 -209602364.97277832 0 0 0 0 10089498.581418872 -346749666.07713318 0 -346749666.07713318 -1028757649.7612305 0 0 0 0 503117.80639302731 -5721008.6235351562 0 -5721008.6235351562 -11603026.155822754 0 0 0 0 -222238.4947360754 -6227408.9297561646 0 -6227408.9297561646 -11405845.464019775 0 0 0 0 1040137.5072572827 -6765777.0001831055 0 -6765777.0001831055 -12716107.826538086 0 0 0 0 2800473.1943143606 -5419105.8764343262 0 -5419105.8764343262 -12130561.904693604 0 0 0 0 -2463968.1203481643 -11001226.708200965 0 -11001226.708200965 -4391053.0374750346 0 0 0 0 1216472.8790305853 -9873118.560836792 0 -9873118.560836792 -11533681.604698181 0 0 0 0 -4252582.6983832717 -14639275.095619202 0 -14639275.095619202 -15598025.498138428 0 0 0 0 121314113.57150793 37467355.474662781 0 37467355.474662781 -35472798.126861572 0 0 0 0 -170504708.97240153 -186481042.9805069 0 -186481042.9805069 -238077416.87542725 0 0 0 0 -438654730.2946167 -472523965.84439087 0 -472523965.84439087 -418027988.43103027 0 0 0 0 -106617853.0264535 8915754.9149475098 0 8915754.9149475098 -258123398.28009033 0 0 0 0 -31683786.718827248 217198986.20890808 0 217198986.20890808 -89310512.105224609 0 0 0 0 -611295841.24479437 -116513120.67044067 0 -116513120.67044067 315297660.23455811 0 0 0 0 89052455.432520032 1405280.0687866211 0 1405280.0687866211 -185076151.67565918 0 0 0 0 -134553001.92621624 36510080.507614136 0 36510080.507614136 116968746.22671509 0 0 0 0 -92481763.273560345 -64914740.163394928 0 -64914740.163394928 -120218859.72961426 0 0 0 0 -2841458.0290121362 -672714.86630443484 0 -672714.86630443484 4524168.9448000789 0 0 0 0 3784273.4521194696 -71309377.145095825 0 -71309377.145095825 158444054.14657593 0 0 0 0 -31366953.175242424 -8997878.0707092285 0 -8997878.0707092285 95014175.355529785 0 0 0 0 -5030343.1434239736 -14223500.085471064 0 -14223500.085471064 -1980116.4593216851 0 0 0 0 838842.22161587584 -6983485.0690941289 0 -6983485.0690941289 -16904165.612014115 0 0 0 0 -19542.152151584625 -13811644.126281738 0 -13811644.126281738 8188254.1755275726 0 0 0 0 -997816.00614938326 -5815625.8259935677 0 -5815625.8259935677 -10796201.927475799 0 0 0 0 8935684.0883312225 -12684127.673171997 0 -12684127.673171997 -54501218.066880703 0 0 0 0 2336900.7704802752 -15656002.485473633 0 -15656002.485473633 -21620351.856506348 0 0 0 0 -4873266.7690686919 -19509482.864794642 0 -19509482.864794642 -7367910.7595610619 0 0 0 0 4702837.3062744141 -13492431.073204041 0 -13492431.073204041 -19659309.772033691 0 0 0 0 541563.12375307083 -12615302.110321045 0 -12615302.110321045 -16894048.024912119 0 0 0 0 5961517.0879269838 -28286147.63911438 0 -28286147.63911438 -30614962.664516449 0 0 0 0 4113219.88817982 -18863021.92282486 0 -18863021.92282486 -15589665.537536621 0 0 0 0 146320.51856499637 -4822263.8068474829 0 -4822263.8068474829 -5409917.7343337741 0 0 0 0 18337888.186642408 -7580779.0094909668 0 -7580779.0094909668 -84725857.640627861 0 0 0 0 -1898688.5820316076 -24110757.305923462 0 -24110757.305923462 816198.95833587646 0 0 0 0 1375164.4918351891 3080260.248336792 0 3080260.248336792 -56315059.160476685 0 0 0 0 28843789.456246853 -19443210.095535278 0 -19443210.095535278 -45434085.360450745 0 0 0 0 3724083.7164082527 -22218739.566253662 0 -22218739.566253662 -41877655.002868652 0 0 0 0 -4416191.8701474275 -16093724.794975281 0 -16093724.794975281 -35007206.21887207 0 0 0 0 6416262.5499255657 -10611594.765380859 0 -10611594.765380859 -32233149.036972046 0 0 0 0 4267022.417090565 -31888149.16897583 0 -31888149.16897583 -22876319.924041748 0 0 0 0 4063037.7750993371 -24854911.12310791 0 -24854911.12310791 -18272133.568145752 0 0 0 0 2033975.255809566 -2618475.6126084924 0 -2618475.6126084924 -3467319.4481954873 0 0 0 0 39529056.701099396 -57750563.403762817 0 -57750563.403762817 -14028923.171295166 0 0 0 0 -3184835.2710211063 -12538312.17976255 0 -12538312.17976255 -24846485.284785256 0 0 0 0 6139853.3582704365 -21146563.927520752 0 -21146563.927520752 -36839124.784912109 0 0 0 0 11614041.981540084 -32656964.302642822 0 -32656964.302642822 -26219729.127319336 0 0 0 0 67996263.061047435 -7537973.7467803955 0 -7537973.7467803955 -57164915.628036499 0 0 0 0 40648073.238928556 28989861.162902832 0 28989861.162902832 10484478.739501953 0 0 0 0 130160620.38054037 66389816.896972656 0 66389816.896972656 -15241439.139160156 0 0 0 0 59219402.81951344 76888370.491455078 0 76888370.491455078 295982818.40383911 0 0 0 0 114354139.34648603 -1707936.7908668518 0 -1707936.7908668518 -22033854.007537842 0 0 0 0 5103554.7621829184 1601586.5282869488 0 1601586.5282869488 -7614100.2622818053 0 0 0 0 59144500.431480408 30034975.38142395 0 30034975.38142395 -51568641.660892487 0 0 0 0 2759713.0767179136 3177580.2399103045 0 3177580.2399103045 -31956828.728837557 0 0 0 0 80910197.791544974 199144867.18541718 0 199144867.18541718 243814366.36703491 0 0 0 0 -26350606.342321515 229658589.15704346 0 229658589.15704346 240434922.23410034 0 0 0 0 184531086.7764976 71204409.975570679 0 71204409.975570679 139285211.00170898 0 0 0 0 -158403667.81919414 -57256161.756999969 0 -57256161.756999969 113039054.14178467 0 0 0 0 94218994.920723915 -29450344.931007385 0 -29450344.931007385 92379162.43119812 0 0 0 0 -108568039.01480031 106957521.56082153 0 106957521.56082153 291438794.05779266 0 0 0 0 78857075.199573517 -211904.86268234253 0 -211904.86268234253 -162166138.19272614 0 0 0 0 34472685.224229813 59503567.869384766 0 59503567.869384766 -242503553.01452637 0 0 0 0 152427069.3280201 -167094391.19900513 0 -167094391.19900513 -137473631.09526062 0 0 0 0 -551010.66597830062 -2585260.352447601 0 -2585260.352447601 -700028.41898686439 0 0 0 0 106803272.03028965 -27010432.14563179 0 -27010432.14563179 -462061328.18994141 0 0 0 0 2943320.1420324314 4476354.123785913 0 4476354.123785913 -34400262.796030574 0 0 0 0 43672129.531430483 139037901.77287579 0 139037901.77287579 -390888555.87210083 0 0 0 0 -100692095.37627792 372512892.62506104 0 372512892.62506104 -829290991.77490234 0 0 0 0 -122387840.94093132 140604610.72069931 0 140604610.72069931 -160298238.24954224 0 0 0 0 -248419406.11595011 -81989354.502830505 0 -81989354.502830505 340263514.84230804 0 0 0 0 58850108.246735036 24262553.768039227 0 24262553.768039227 -95735875.414428711 0 0 0 0 -1074251.9317195415 39062162.34072113 0 39062162.34072113 -148484672.36082458 0 0 0 0 -48163208.352665901 31415645.840446472 0 31415645.840446472 -8364426.7384796143 0 0 0 0 -25022706.569856882 -14169398.730064392 0 -14169398.730064392 -2824548.7441711426 0 0 0 0 -6034695.2126960754 -41315607.371681213 0 -41315607.371681213 -24146332.446483612 0 0 0 0 18088913.159322739 -23499843.782569885 0 -23499843.782569885 -20243811.223648071 0 0 0 0 -2525059.3323154971 -11792433.152483691 0 -11792433.152483691 -1215263.5449600369 0 0 0 0 -49016654.211462021 -43704542.998828888 0 -43704542.998828888 24247573.275283813 0 0 0 0 38434412.149569154 -68398979.959635735 0 -68398979.959635735 -100802399.21029663 0 0 0 0 10869453.552991867 -18341702.259674072 0 -18341702.259674072 -31639654.914978027 0 0 0 0 -1526500.0855522079 -10282909.648427054 0 -10282909.648427054 -23991788.021604776 0 0 0 0 13659801.915048242 -18573772.808166504 0 -18573772.808166504 -40796606.457519531 0 0 0 0 -7140377.4675053358 -22026014.723255157 0 -22026014.723255157 -24762566.93182373 0 0 0 0 135507.10544347297 -9741.5076194554567 0 -9741.5076194554567 -1754513.8275859468 0 0 0 0 -2267509.7222929001 -18754985.23179245 0 -18754985.23179245 -49784399.644615173 0 0 0 0 -8643371.8941278458 -13718857.481117249 0 -13718857.481117249 -3903221.2461547852 0 0 0 0 967982.35613056645 -1340517.3885029033 0 -1340517.3885029033 -15209551.32942605 0 0 0 0 -20034592.947178841 5300205.6547393799 0 5300205.6547393799 -32831018.484199524 0 0 0 0 -8689134.8422060013 -16980396.2122612 0 -16980396.2122612 -65292839.793731689 0 0 0 0 4127775.0185837746 -24727460.428024292 0 -24727460.428024292 -76560001.21546936 0 0 0 0 -11263917.622038841 -4460483.7412834167 0 -4460483.7412834167 -45335647.64868927 0 0 0 0 619480.99473656015 -405668.75404687971 0 -405668.75404687971 -6865532.2425356843 0 0 0 0 15555798.26887846 488288.43353652954 0 488288.43353652954 -118521975.47917175 0 0 0 0 12331684.285246372 -71513912.920623779 0 -71513912.920623779 -162761467.83804321 0 0 0 0 -20569657.103403091 -104929212.55602264 0 -104929212.55602264 -135075753.70428467 0 0 0 0 684610.2130916114 -333524.72304872796 0 -333524.72304872796 -847546.01951768249 0 0 0 0 79444835.067190647 91581216.516845703 0 91581216.516845703 3318118.8859148026 0 0 0 0 64007562.249184132 23637057.569011688 0 23637057.569011688 -97063996.519470215 0 0 0 0 40229956.396813124 -54850673.460781097 0 -54850673.460781097 -117368150.25120544 0 0 0 0 28301896.669469595 -55302017.24899292 0 -55302017.24899292 -117327929.11331177 0 0 0 0 3496967.4016919732 -58225792.168357849 0 -58225792.168357849 -90449096.871635437 0 0 0 0 -15417305.586455047 -84150186.306254387 0 -84150186.306254387 -109444725.34559631 0 0 0 0 15800935.625121117 -45367523.654098511 0 -45367523.654098511 -63218679.983072281 0 0 0 0 40843185.090844154 -38015868.47429657 0 -38015868.47429657 -94787835.297744751 0 0 0 0 41408748.901945114 -33817439.18157959 0 -33817439.18157959 -116258202.19497871 0 0 0 0 -15371606.855911076 -45468148.087165833 0 -45468148.087165833 -89500362.338310242 0 0 0 0 35858061.722352743 -60607719.649871826 0 -60607719.649871826 -83369603.318016052 0 0 0 0 32068419.626120485 -35939007.044876099 0 -35939007.044876099 -88876078.334335327 0 0 0 0 4224042.8057137895 -47551378.355429649 0 -47551378.355429649 -52694603.213577271 0 0 0 0 6874671.0932683945 -37403585.769348145 0 -37403585.769348145 -74887932.338409424 0 0 0 0 347871.51563179609 141797.12344418094 0 141797.12344418094 -2105873.8361824304 0 0 0 0 2257041.2989113331 -13385617.405864716 0 -13385617.405864716 -10947377.560150146 0 0 0 0 12706965.867692947 -34561744.67666626 0 -34561744.67666626 -105560112.52895355 0 0 0 0 4634921.9392299652 -11044819.912185669 0 -11044819.912185669 -89260637.398544312 0 0 0 0 -2348003.4028086662 -24115116.687759399 0 -24115116.687759399 -50736301.749664307 0 0 0 0 373029.87122392654 -18810859.140625 0 -18810859.140625 -48269870.897163391 0 0 0 0 -9094868.538914457 -38107187.384780884 0 -38107187.384780884 -58727315.247802734 0 0 0 0 1951258.6563376763 -2174119.2948226668 0 -2174119.2948226668 -9041103.2831977233 0 0 0 0 -14130857.096462011 -25015157.22631073 0 -25015157.22631073 -47924392.603424072 0 0 0 0 1918065.9711333315 -3637519.9059676677 0 -3637519.9059676677 -7419122.0412710309 0 0 0 0 -1804313.8819432259 -23910065.714859009 0 -23910065.714859009 -66685066.508621216 0 0 0 0 -2601629.5840431806 -15010725.66523695 0 -15010725.66523695 4694747.9398025386 0 0 0 0 -8341598.4141507149 -51473043.366859436 0 -51473043.366859436 -91643777.062240601 0 0 0 0 -2385539.2456800938 -11001375.31942749 0 -11001375.31942749 -41040558.983985901 0 0 0 0 -1557401.9091525078 3459856.5107345581 0 3459856.5107345581 16218093.109008789 0 0 0 0 5978756.0319327116 -4412701.6436991729 0 -4412701.6436991729 -27000089.801960975 0 0 0 0 -10889372.911598206 -37627990.870193481 0 -37627990.870193481 -7726876.8060302734 0 0 0 0 16455775.744360209 -22368246.533485413 0 -22368246.533485413 -192061434.18824768 0 0 0 0 -5329427.1715211272 -33196914.109134674 0 -33196914.109134674 -107451783.06419373 0 0 0 0 -21900072.299775362 1317616.937210083 0 1317616.937210083 -211844677.94805527 0 0 0 0 18359614.524710655 -65529128.317443848 0 -65529128.317443848 -117141849.0793457 0 0 0 0 7360561.6647769809 -16691007.826389313 0 -16691007.826389313 -129022468.93548584 0 0 0 0 24219970.134089828 -45643234.832672119 0 -45643234.832672119 -207034106.70230103 0 0 0 0 -36493463.145035028 -76275333.213470459 0 -76275333.213470459 -102965816.23786926 0 0 0 0 -2825592.1842999933 -15511085.988209501 0 -15511085.988209501 -10932882.207124038 0 0 0 0 756934.84305906296 -32766577.265930176 0 -32766577.265930176 15769687.10710144 0 0 0 0 -5258051.6944303513 -5994823.3907775879 0 -5994823.3907775879 -70508287.775543213 0 0 0 0 -15263328.540754318 -22757494.351615906 0 -22757494.351615906 -17117123.017288208 0 0 0 0 57139141.409394741 -75073262.00012207 0 -75073262.00012207 -116185856.71648026 0 0 0 0 60694720.440277576 -31612724.210174561 0 -31612724.210174561 -125103281.4369812 0 0 0 0 1306025.3264604216 -61957.736766591668 0 -61957.736766591668 -3297272.0380344763 0 0 0 0 -52698671.799966335 -82511320.169403076 0 -82511320.169403076 2851261.8901596069 0 0 0 0 34502994.61315614 -88334615.178794861 0 -88334615.178794861 -151377451.78723145 0 0 0 0 -3605406.5228144834 -15143052.721471123 0 -15143052.721471123 -10161698.392399479 0 0 0 0 -10454207.669917822 -6975875.175994873 0 -6975875.175994873 56402031.162837982 0 0 0 0 -69170872.365405351 4933798.7212219238 0 4933798.7212219238 56084554.135604858 0 0 0 0 -12228778.60169673 -16082790.260551453 0 -16082790.260551453 -27654732.015007019 0 0 0 0 76341053.159368813 -24826606.202362061 0 -24826606.202362061 -548243775.99902344 0 0 0 0 39730870.44430995 -208987528.08477783 0 -208987528.08477783 -237734907.37783813 0 0 0 0 -47211189.975535631 -134572042.668396 0 -134572042.668396 -251405546.23688126 0 0 0 0 -27321413.902514577 -15175702.539978027 0 -15175702.539978027 -558146720.35388184 0 0 0 0 -8325404.8764712811 -7978089.3969116211 0 -7978089.3969116211 -212048919.20019531 0 0 0 0 -83715086.916771531 -19423725.358184814 0 -19423725.358184814 -213634933.54912567 0 0 0 0 -1578154.2707267622 -324005.21775376797 0 -324005.21775376797 -2184195.3373180851 0 0 0 0 24976131.76021409 -34761360.25995636 0 -34761360.25995636 -354841040.3192749 0 0 0 0 66341181.050000429 59703937.896400452 0 59703937.896400452 -470484157.84698486 0 0 0 0 -275162166.07708663 216676176.04161072 0 216676176.04161072 -509639427.62663269 0 0 0 0 -901388.97738892352 105255.71835510433 0 105255.71835510433 -466607.59263033047 0 0 0 0 -797733254.78848863 -191251952.67988586 0 -191251952.67988586 719949642.61755371 0 0 0 0 239089745.04839897 25462098.848236084 0 25462098.848236084 -1116386610.6843719 0 0 0 0 -216993500.13052368 -79082192.043518066 0 -79082192.043518066 -154016818.35723877 0 0 0 0 302572981.07909918 47762282.73475647 0 47762282.73475647 -169078797.05897522 0 0 0 0 179404590.63147098 -318070279.36187077 0 -318070279.36187077 267055091.61842346 0 0 0 0 118906415.57922506 -26596574.036849976 0 -26596574.036849976 -71019160.356292725 0 0 0 0 -1599181.9837872819 -506176.08390005678 0 -506176.08390005678 -4977778.4937401935 0 0 0 0 36322228.009441376 -60740893.594436646 0 -60740893.594436646 110147012.63285828 0 0 0 0 7875545.7147510052 26117418.162590027 0 26117418.162590027 -263908493.96824646 0 0 0 0 29123384.95233345 -48089604.924743652 0 -48089604.924743652 -228415348.78227234 0 0 0 0 -26843638.009047031 14427890.765914917 0 14427890.765914917 -231485311.84831238 0 0 0 0 -21733510.124427795 91054957.052078247 0 91054957.052078247 -345177531.33572388 0 0 0 0 120580186.30615449 -1035954.512298584 0 -1035954.512298584 -112424551.60496521 0 0 0 0 59660577.505430698 34718744.176132202 0 34718744.176132202 -132874160.7099762 0 0 0 0 54826710.739151001 16024907.288482666 0 16024907.288482666 -95000382.073516846 0 0 0 0 60093089.338400841 -11306533.050079346 0 -11306533.050079346 -125940939.3886261 0 0 0 0 48769363.947757542 -33563579.911934853 0 -33563579.911934853 -98298866.323150635 0 0 0 0 131261335.02067709 -57866204.585762024 0 -57866204.585762024 -58499276.333145142 0 0 0 0 59785349.566780329 -8663900.3499679565 0 -8663900.3499679565 -49621045.403625488 0 0 0 0 209092484.15756559 23894307.2110672 0 23894307.2110672 -256001698.08450317 0 0 0 0 170805727.06381512 -41936941.330841064 0 -41936941.330841064 -96628272.81930542 0 0 0 0 129381275.28079128 127696318.70411682 0 127696318.70411682 -344903607.65660095 0 0 0 0 -57662388.879341662 94497869.950546265 0 94497869.950546265 -181750707.07366943 0 0 0 0 64633250.843222857 66213197.483779907 0 66213197.483779907 -195846999.41123962 0 0 0 0 67692039.284973234 104693805.27175808 0 104693805.27175808 -183899095.37695312 0 0 0 0 61075103.025496721 88278710.605072021 0 88278710.605072021 -123110123.27416992 0 0 0 0 -42911302.980760336 111975700.65699768 0 111975700.65699768 -117152719.93405151 0 0 0 0 116131876.29975718 31203588.595499039 0 31203588.595499039 -173849330.5663147 0 0 0 0 119057597.07933807 72375961.904327393 0 72375961.904327393 -166265877.30044556 0 0 0 0 119993034.07311702 55568229.678955078 0 55568229.678955078 -138489685.6484375 0 0 0 0 79852094.422874928 52078282.330444336 0 52078282.330444336 -125985908.45524597 0 0 0 0 104250096.27997208 69710408.495101929 0 69710408.495101929 -113469648.33494568 0 0 0 0 126447931.86507261 23571924.440864563 0 23571924.440864563 -70418178.858642578 0 0 0 0 53989123.306616783 2344542.0653991699 0 2344542.0653991699 -62241500.579498291 0 0 0 0 35856766.375583023 -179849660.93884277 0 -179849660.93884277 -5949569.3863830566 0 0 0 0 158659615.30846179 -56243842.253082275 0 -56243842.253082275 -48211563.751335144 0 0 0 0 57262173.293133259 12446978.373413086 0 12446978.373413086 -18302082.915496826 0 0 0 0 118178522.07762253 2076296.6062011719 0 2076296.6062011719 -112361529.22683716 0 0 0 0 94138.625065160741 33331.819882437587 0 33331.819882437587 49315.634121492505 0 0 0 0 238441402.43413338 -214654018.98826599 0 -214654018.98826599 -12407627.961883545 0 0 0 0 -79309811.77684629 232288457.1377449 0 232288457.1377449 388094385.90533447 0 0 0 0 414567002.49030221 -46407709.664749146 0 -46407709.664749146 -104801372.43505096 0 0 0 0 40003936.785920084 -108179122.42605591 0 -108179122.42605591 242700687.60232544 0 0 0 0 181527943.69661069 215791764.68710327 0 215791764.68710327 9935401.3641357422 0 0 0 0 555749.79535694094 -179218.93257135153 0 -179218.93257135153 -1950698.7125357538 0 0 0 0 53083587.538585082 -224999549.38993835 0 -224999549.38993835 736167730.57925415 0 0 0 0 65940784.74216032 17777089.865455627 0 17777089.865455627 -134519280.40124512 0 0 0 0 -575712.1814367054 -8849928.2797141895 0 -8849928.2797141895 -4321562.2577650063 0 0 0 0 2685274.679992137 7017851.8992360085 0 7017851.8992360085 -5842898.1549465507 0 0 0 0 -950771.85770893097 -127941.26574707031 0 -127941.26574707031 -28291876.373233795 0 0 0 0 21679031.831266403 20658865.938827515 0 20658865.938827515 -115508459.10769653 0 0 0 0 84793347.796795785 35050068.446437836 0 35050068.446437836 -142341108.29766846 0 0 0 0 -20949452.159694672 -51972747.792526245 0 -51972747.792526245 -136563282.15353394 0 0 0 0 4800141.1830315385 5708436.1109217107 0 5708436.1109217107 -9899318.7010486275 0 0 0 0 -4038575.0575530529 -53359353.736873627 0 -53359353.736873627 -154486677.84619141 0 0 0 0 12853548.861227036 12794067.833862305 0 12794067.833862305 -137293055.50444031 0 0 0 0 14819405.638589561 -34161378.737285614 0 -34161378.737285614 -182630529.26620483 0 0 0 0 1502811.2813820839 -2670652.4360733032 0 -2670652.4360733032 -26147300.194869995 0 0 0 0 1954898.9299325943 -4098152.8218307495 0 -4098152.8218307495 -28457259.526870728 0 0 0 0 -401514.57861720119 -9678042.1394525766 0 -9678042.1394525766 -7955135.0516968146 0 0 0 0 9095499.9573782682 -64178712.308959961 0 -64178712.308959961 180077394.23974609 0 0 0 0 2723633.8069324493 -32609281.100296021 0 -32609281.100296021 123526554.23513794 0 0 0 0 24404290.212087333 -30274239.367101669 0 -30274239.367101669 99836499.40045166 0 0 0 0 116732765.30211568 -37612400.25038147 0 -37612400.25038147 84380278.84425354 0 0 0 0 19069106.657036867 -4332291.7785797119 0 -4332291.7785797119 74519589.708404541 0 0 0 0 38262235.318564296 -41638140.388069153 0 -41638140.388069153 29430516.636245728 0 0 0 0 -19953333.365253925 -35028944.941085815 0 -35028944.941085815 123579527.07443237 0 0 0 0 -4881830.8590545654 -24894260.72039032 0 -24894260.72039032 23005054.462692261 0 0 0 0 5515523.1572139263 -2154196.0378112793 0 -2154196.0378112793 -9047653.2888793945 0 0 0 0 8524971.0203740597 -52709472.413146973 0 -52709472.413146973 -26635861.535430908 0 0 0 0 -11540313.531231537 -57812218.989235401 0 -57812218.989235401 -14691615.224212646 0 0 0 0 6514055.8081750274 55428260.808158875 0 55428260.808158875 -18575915.988685608 0 0 0 0 13953169.964433506 -8954475.7762975693 0 -8954475.7762975693 -24533187.295806885 0 0 0 0 62044413.741472423 -44254797.698516846 0 -44254797.698516846 14182833.359939575 0 0 0 0 -32697301.950541079 25242648.224716187 0 25242648.224716187 5887073.0388450623 0 0 0 0 62461794.659829013 86415064.079304531 0 86415064.079304531 35247513.596939087 0 0 0 0 262248.42022657039 181501.41944571584 0 181501.41944571584 -46382.901424214244 0 0 0 0 44747384.80903548 -49705294.399665833 0 -49705294.399665833 26013503.173797607 0 0 0 0 73396732.325777352 45616821.025928497 0 45616821.025928497 -61442437.297424316 0 0 0 0 264091100.29171813 -195383325.66381836 0 -195383325.66381836 -114854863.13845825 0 0 0 0 39111880.231034562 -132481987.17800903 0 -132481987.17800903 124467967.76507568 0 0 0 0 257403591.17998385 -355331535.92887878 0 -355331535.92887878 36640052.128509521 0 0 0 0 -311319529.7349546 53341590.016242981 0 53341590.016242981 88450408.889144897 0 0 0 0 -40400115.019253373 47156017.882705688 0 47156017.882705688 36817163.466255188 0 0 0 0 263412935.54619288 6208198.9000473022 0 6208198.9000473022 -80425939.563735962 0 0 0 0 27970.572128686399 361557.53475935804 0 361557.53475935804 -312515.48771572113 0 0 0 0 98634.298176954951 998701.2660236021 0 998701.2660236021 -784408.24792863429 0 0 0 0 -165320710.44452131 50844671.272346497 0 50844671.272346497 47888752.170967102 0 0 0 0 -74686667.840990424 -21639335.783630371 0 -21639335.783630371 -66708163.829437256 0 0 0 0 -31819527.453768089 30676702.467805862 0 30676702.467805862 -25191513.856185913 0 0 0 0 -89438535.102165103 191833717.91566467 0 191833717.91566467 15665823.2081604 0 0 0 0 260902494.9087148 26572516.164469361 0 26572516.164469361 -174730971.1650238 0 0 0 0 -61221731.996774018 195523072.71325684 0 195523072.71325684 -14681784.290679932 0 0 0 0 177035.18805449904 1329632.4461689838 0 1329632.4461689838 -890813.70009075105 0 0 0 0 -1620981.1937292442 1179888.8362579346 0 1179888.8362579346 -797276.10241699219 0 0 0 0 -67184157.585558176 34242928.207710266 0 34242928.207710266 -6933181.5596618652 0 0 0 0 -56324513.082065344 43029768.147842407 0 43029768.147842407 -7418927.3471374512 0 0 0 0 -25073910.870230913 45467049.614593506 0 45467049.614593506 -18539918.243667603 0 0 0 0 221885.69489486283 178950.74947991967 0 178950.74947991967 -498443.7426221394 0 0 0 0 -334795223.8282944 203789367.13775253 0 203789367.13775253 -125271538.65733337 0 0 0 0 -98567957.435601234 154293510.94107056 0 154293510.94107056 360767192.61546135 0 0 0 0 -147654357.27851391 260150151.4568634 0 260150151.4568634 -14310599.204359055 0 0 0 0 -55386132.295517325 239050434.2416687 0 239050434.2416687 -14883949.910521507 0 0 0 0 -309217358.58778143 -125384954.53720093 0 -125384954.53720093 -244289348.10276794 0 0 0 0 -73600611.284587681 336802869.17579269 0 336802869.17579269 -407647063.60275269 0 0 0 0 -47814940.866784096 8810617.0381774902 0 8810617.0381774902 -192307051.81758118 0 0 0 0 -46376363.614696503 33099542.822227478 0 33099542.822227478 34968606.088516235 0 0 0 0 41207364.345805526 -119784463.11854553 0 -119784463.11854553 -39289043.680976868 0 0 0 0 -257032305.6415869 -21801158.646377563 0 -21801158.646377563 -31276082.992538452 0 0 0 0 -116602037.30928826 -58934486.939517975 0 -58934486.939517975 -61078698.620117188 0 0 0 0 -122690678.91832596 -79371884.690086365 0 -79371884.690086365 -58532270.951141357 0 0 0 0 -165856148.57432055 -37577861.341156006 0 -37577861.341156006 -46274544.579524994 0 0 0 0 -116485861.53759098 -74422840.479919434 0 -74422840.479919434 -67605501.346954346 0 0 0 0 -116360911.76241505 -117111526.07771301 0 -117111526.07771301 -72554185.549886703 0 0 0 0 -44634679.108843744 -26563984.076217651 0 -26563984.076217651 -28969553.608123779 0 0 0 0 -199591364.69879735 -98647318.879089355 0 -98647318.879089355 -10825450.441913605 0 0 0 0 -105968571.14576101 -96316968.379631042 0 -96316968.379631042 -25479929.877838135 0 0 0 0 -89848069.893180311 -16107955.113388062 0 -16107955.113388062 -5916698.1070861816 0 0 0 0 -55425757.071163535 -12540224.846969604 0 -12540224.846969604 -30299570.324134827 0 0 0 0 -40541467.400165439 170078261.43048096 0 170078261.43048096 -63645741.047149658 0 0 0 0 83645583.608742952 -82287860.581619263 0 -82287860.581619263 -35100191.107276917 0 0 0 0 54067578.077807903 -131560706.15013123 0 -131560706.15013123 3317524.4325237274 0 0 0 0 5182805.9196213931 -153343061.14112091 0 -153343061.14112091 92388002.942367554 0 0 0 0 -339372.90410566691 -424163.7481723018 0 -424163.7481723018 -132448.35125502944 0 0 0 0 8987074.8464326859 32251497.509170532 0 32251497.509170532 -25262525.328231812 0 0 0 0 -120156875.88522136 15834657.729095459 0 15834657.729095459 74345190.024291992 0 0 0 0 -233493.39860881236 -303441.05114834011 0 -303441.05114834011 -172627.43536087871 0 0 0 0 237304708.58194527 -265026602.39440155 0 -265026602.39440155 -379868632.83752441 0 0 0 0 -290050299.41181433 -180487374.88365173 0 -180487374.88365173 -13046499.646942139 0 0 0 0 -65932872.476769604 -15613910.088833809 0 -15613910.088833809 162279014.41448975 0 0 0 0 -9815834.8303731754 150699765.92131042 0 150699765.92131042 -84173544.468322754 0 0 0 0 -205912065.94587776 -38672279.991668701 0 -38672279.991668701 -177704153.70858765 0 0 0 0 -25255974.302442327 28888502.686412811 0 28888502.686412811 -507186680.20672607 0 0 0 0 -264393621.52696681 115051446.39527893 0 115051446.39527893 -372854759.7510376 0 0 0 0 -223436854.51531643 -295081285.04439545 0 -295081285.04439545 -1084085405.1989746 0 0 0 0 -196227398.81148559 -76426610.882522583 0 -76426610.882522583 -240263650.56652832 0 0 0 0 -255855550.24929774 -419029050.91292918 0 -419029050.91292918 -427387516.29138184 0 0 0 0 124783801.13441625 -30417632.934591293 0 -30417632.934591293 -764766267.27435303 0 0 0 0 -12751843.99548018 -13470720.635406494 0 -13470720.635406494 -280710504.75764465 0 0 0 0 -132267833.37384558 -299103877.14524841 0 -299103877.14524841 -473745026.5139668 0 0 0 0 30957169.071764052 -9469166.8044281006 0 -9469166.8044281006 -475118432.18661499 0 0 0 0 -11402282.804694891 -65246246.427261353 0 -65246246.427261353 -346944835.11827087 0 0 0 0 -8580571.9773032367 -50563143.996379852 0 -50563143.996379852 -272862908.13644409 0 0 0 0 -73105171.22508955 -91352041.000656128 0 -91352041.000656128 -156680848.80926514 0 0 0 0 -66212371.694786549 -139917002.5662384 0 -139917002.5662384 -293267049.65697479 0 0 0 0 -102029938.08393675 -96295664.515739441 0 -96295664.515739441 -155911261.3996582 0 0 0 0 -118044703.94802743 -132441112.17869186 0 -132441112.17869186 -157603154.5151062 0 0 0 0 -69997423.096676886 -157681759.17906952 0 -157681759.17906952 -162068632.52929688 0 0 0 0 20571781.383844495 -80151198.467666626 0 -80151198.467666626 -61077561.074234009 0 0 0 0 -81127355.11007762 -37160857.876296997 0 -37160857.876296997 -104837659.76805115 0 0 0 0 -69053113.339746118 -79864173.072052002 0 -79864173.072052002 -124712029.66411209 0 0 0 0 -74714002.343166232 -44362542.554855347 0 -44362542.554855347 -271003847.08825684 0 0 0 0 6425445.1268976927 -16978587.401741028 0 -16978587.401741028 -383334403.20947266 0 0 0 0 -44633469.144711733 65824140.972900391 0 65824140.972900391 -242907355.31109619 0 0 0 0 -71795.602560816798 19014.820540480316 0 19014.820540480316 -299185.64834853634 0 0 0 0 -47724184.435117498 61702500.836205482 0 61702500.836205482 48519232.155258179 0 0 0 0 -14559.98312880937 155043.29550649226 0 155043.29550649226 -315605.60352602601 0 0 0 0 35186690.878287926 179036047.6719141 0 179036047.6719141 -95965153.825271606 0 0 0 0 -11392193.900856107 -87380726.14046669 0 -87380726.14046669 -157126634.0697937 0 0 0 0 -3107214.4655627012 -107914229.32507324 0 -107914229.32507324 -260176596.39039612 0 0 0 0 12894862.354621172 -33610741.775344849 0 -33610741.775344849 -61066373.989906311 0 0 0 0 49638816.448424488 -37211703.913444519 0 -37211703.913444519 -158419330.69281006 0 0 0 0 -5872.9784220354632 314988.14059993625 0 314988.14059993625 -646757.12352800369 0 0 0 0 70661396.640774518 48380787.91608429 0 48380787.91608429 -59402469.695018768 0 0 0 0 69428171.197548151 17171332.021270752 0 17171332.021270752 -86103946.625076294 0 0 0 0 -23476015.655838609 -11080657.863052368 0 -11080657.863052368 -80658435.878681183 0 0 0 0 5667685.1361761838 -60254301.310497284 0 -60254301.310497284 -179739029.37661743 0 0 0 0 -548950.50646007061 36192221.252067566 0 36192221.252067566 -273083707.68475342 0 0 0 0 -80309979.342323065 -7377682.609046936 0 -7377682.609046936 -170150636.4808197 0 0 0 0 91472.453138679266 -67595694.684782028 0 -67595694.684782028 -130589629.77832031 0 0 0 0 -55934349.394896507 -34479077.789421082 0 -34479077.789421082 -85978997.290679932 0 0 0 0 -98852521.348563612 -79707176.307601929 0 -79707176.307601929 -91606007.872009277 0 0 0 0 -125108377.75174809 -66047702.364059448 0 -66047702.364059448 -92592336.559057236 0 0 0 0 -71952331.451393574 -41592130.193511963 0 -41592130.193511963 -103956283.44256592 0 0 0 0 -133144258.244313 1711905.0479278564 0 1711905.0479278564 -133974399.39198303 0 0 0 0 -177413351.53608799 76451308.943904877 0 76451308.943904877 -168894618.16171265 0 0 0 0 -138384151.43216062 30288751.418502808 0 30288751.418502808 -114357397.34932709 0 0 0 0 -88136592.991572678 78068974.907329559 0 78068974.907329559 -241902763.79586792 0 0 0 0 -6015681.86596784 59711376.139354706 0 59711376.139354706 -256145851.93223572 0 0 0 0 -356660465.00724351 159605493.03913021 0 159605493.03913021 -148010036.47497559 0 0 0 0 -110076675.73076183 198605701.60380554 0 198605701.60380554 -432402232.96969604 0 0 0 0 11615514.688085914 -76990097.493888855 0 -76990097.493888855 -446350934.75097513 0 0 0 0 -33554581.20531106 -6251537.5861625671 0 -6251537.5861625671 -118188980.13952637 0 0 0 0 256606.69743612199 231645.77944019437 0 231645.77944019437 -1063164.0088137388 0 0 0 0 -162468.87057911872 449096.5960294269 0 449096.5960294269 -757436.64757031202 0 0 0 0 -7998734.5892522335 2377942.1840286255 0 2377942.1840286255 -145372026.43004656 0 0 0 0 73172.205511811771 63459.019426122308 0 63459.019426122308 -560704.33207837911 0 0 0 0 25252322.716728806 -17479691.203674316 0 -17479691.203674316 -262438082.31509399 0 0 0 0 6740065.3259079158 48204665.66796875 0 48204665.66796875 -254256768.52993774 0 0 0 0 -7555275.7338854074 58652992.194869995 0 58652992.194869995 -254385318.89775467 0 0 0 0 -3178507.9137986302 6727027.3748245239 0 6727027.3748245239 -182021901.15213776 0 0 0 0 3343069.4325005412 47949743.198150635 0 47949743.198150635 -254258615.0453949 0 0 0 0 -589689.57305715606 65085488.059005737 0 65085488.059005737 -323818327.93013 0 0 0 0 -49911574.12777584 9646313.1387634277 0 9646313.1387634277 -219574557.14837646 0 0 0 0 -43787332.054013833 68691685.714866638 0 68691685.714866638 -253820244.15619659 0 0 0 0 -645154.83491796255 25431124.025375366 0 25431124.025375366 -217362748.77694702 0 0 0 0 -10959610.631609701 24977652.584941864 0 24977652.584941864 -212589989.22201538 0 0 0 0 7551116.0062769577 -11942700.97026825 0 -11942700.97026825 -181991330.69474792 0 0 0 0 -11996279.586030394 31088391.047370911 0 31088391.047370911 -205430970.51251221 0 0 0 0 -4626473.195123883 -4710384.8949213028 0 -4710384.8949213028 -185764079.86790466 0 0 0 0 -4538042.5703578293 10997512.375900269 0 10997512.375900269 -169226710.20766449 0 0 0 0 8051457.449388124 -12096082.635826111 0 -12096082.635826111 -156218701.93649292 0 0 0 0 -14766844.23465924 5091463.6481399536 0 5091463.6481399536 -130736997.41671753 0 0 0 0 3520.8727551819757 44469.564785592258 0 44469.564785592258 -291025.57775250264 0 0 0 0 6886224.4729447141 -25657942.942474365 0 -25657942.942474365 -104452450.26306152 0 0 0 0 7341709.8946307898 -1948475.2757415771 0 -1948475.2757415771 -144789111.44139099 0 0 0 0 -9034306.4644905776 -8188916.2846679688 0 -8188916.2846679688 -125360295.23925018 0 0 0 0 -6730.7389136303318 27553.068562060595 0 27553.068562060595 -98653.879732587375 0 0 0 0 8421608.3947964907 6812789.6473083496 0 6812789.6473083496 -30993024.307294846 0 0 0 0 -6959041.3010058114 -8161696.5645685196 0 -8161696.5645685196 -147067492.2381897 0 0 0 0 14835578.375020811 9720097.9649658203 0 9720097.9649658203 -188366666.70806122 0 0 0 0 -3028.2966552790281 11516218.792953491 0 11516218.792953491 -148133404.76763153 0 0 0 0 -6739031.0240036249 -4427272.3486633301 0 -4427272.3486633301 -195424400.3999176 0 0 0 0 25222.889194385221 17401591.245300293 0 17401591.245300293 -221810268.03469086 0 0 0 0 -3643690.2004096285 14462504.14491272 0 14462504.14491272 -223983007.65731812 0 0 0 0 -18931.246625466843 15841030.791770935 0 15841030.791770935 -225107611.12753677 0 0 0 0 -15058900.099372409 26549005.995597839 0 26549005.995597839 -183014558.00247192 0 0 0 0 -3526985.161240574 11024025.564285278 0 11024025.564285278 -255797436.02651978 0 0 0 0 -29542785.734835453 73178566.712881804 0 73178566.712881804 -173373949.24389648 0 0 0 0 -28871826.60210944 89049153.86995697 0 89049153.86995697 42175234.462249756 0 0 0 0 8889970.9126311019 -64529678.721712112 0 -64529678.721712112 -378618630.35211182 0 0 0 0 11167.548722874926 152409.02990311384 0 152409.02990311384 -348473.13489018381 0 0 0 0 -20720937.274316527 46120991.361701965 0 46120991.361701965 -249115255.71047783 0 0 0 0 -94311992.755123392 13850802.487319946 0 13850802.487319946 -85762165.572479248 0 0 0 0 72476607.912476316 -12917231.625741959 0 -12917231.625741959 -142209637.31349182 0 0 0 0 5312891.4371897727 -16316360.457824707 0 -16316360.457824707 -172560878.68179321 0 0 0 0 22647558.377644509 -47282881.866638184 0 -47282881.866638184 -117324343.35585022 0 0 0 0 7610514.243087709 -26711809.115013123 0 -26711809.115013123 -299308940.53375244 0 0 0 0 21226105.160822134 26844514.045570374 0 26844514.045570374 -244242343.91162109 0 0 0 0 -73388288.550539821 -47889564.776062012 0 -47889564.776062012 -199509355.33358383 0 0 0 0 10365.1675075234 -6852532.9696884155 0 -6852532.9696884155 -195538155.90126801 0 0 0 0 983930.85162636079 38485593.182723999 0 38485593.182723999 -144108490.22406006 0 0 0 0 -22102513.359573644 3886094.6081848145 0 3886094.6081848145 -187090467.74710083 0 0 0 0 5495454.8887138367 -28419044.817901611 0 -28419044.817901611 48813912.698646307 0 0 0 0 7617628.614408493 -44996061.026794434 0 -44996061.026794434 21979211.114257812 0 0 0 0 -36945530.704940796 -48710015.313644409 0 -48710015.313644409 22076832.8960042 0 0 0 0 42480943.472061157 -56765611.863967896 0 -56765611.863967896 -7681154.2794036865 0 0 0 0 44337497.740147114 -52585905.682277679 0 -52585905.682277679 -4559716.4778747559 0 0 0 0 55650665.93683815 -45019038.973373413 0 -45019038.973373413 -2092605.3607788086 0 0 0 0 31889310.753693581 -43516494.024684906 0 -43516494.024684906 17998042.428894043 0 0 0 0 28551705.746646881 -43812607.171737671 0 -43812607.171737671 26657096.690948486 0 0 0 0 5936683.3219522983 -66676463.018261909 0 -66676463.018261909 13583645.023193359 0 0 0 0 44389444.996395111 -38613637.658126831 0 -38613637.658126831 16287328.869438171 0 0 0 0 -74511827.001998901 131272824.98931885 0 131272824.98931885 214156011.2983551 0 0 0 0 12072917.206288531 -2338429.9102802314 0 -2338429.9102802314 -19973617.091206767 0 0 0 0 31101559.840648651 -39428680.584457397 0 -39428680.584457397 16463750.972934723 0 0 0 0 68893111.719474792 -33173065.771347046 0 -33173065.771347046 18759904.225746155 0 0 0 0 59007265.946662903 4058436.5970344543 0 4058436.5970344543 -111925422.99972534 0 0 0 0 -74018443.086173058 574096945.87854004 0 574096945.87854004 -76355099.728643417 0 0 0 0 -5022287.0042190552 -19350073.030845642 0 -19350073.030845642 -11553150.982590675 0 0 0 0 22508390.443653107 19085530.095249176 0 19085530.095249176 -551081336.21150208 0 0 0 0 24996542.930733681 12965733.514167786 0 12965733.514167786 -587608235.06509399 0 0 0 0 -98611948.944502711 -461244815.01828933 0 -461244815.01828933 18729779.49949646 0 0 0 0 164121469.18430519 -64500930.190414429 0 -64500930.190414429 -1298487569.085907 0 0 0 0 55585649.723249435 785554392.66584778 0 785554392.66584778 -406413502.81095886 0 0 0 0 258610783.36323166 751309972.99464417 0 751309972.99464417 -1019147858.9426804 0 0 0 0 46290312.499645233 772637.59866333008 0 772637.59866333008 49549356.250387907 0 0 0 0 24870236.522327423 -37518627.249755859 0 -37518627.249755859 22092937.737052917 0 0 0 0 3397369.7540754247 -7746990.6233170703 0 -7746990.6233170703 -25605433.605975684 0 0 0 0 -43898621.429487228 -4973023.0139198303 0 -4973023.0139198303 152373647.31162262 0 0 0 0 14173401.61688422 2578904.7679589577 0 2578904.7679589577 -38128900.180752076 0 0 0 0 108649812.61555338 74473215.434764862 0 74473215.434764862 -175212699.76153755 0 0 0 0 2545828.7617139816 -7629099.7004776001 0 -7629099.7004776001 -31570612.657440186 0 0 0 0 2971063.5289078802 -18527189.952518798 0 -18527189.952518798 -22006509.506129775 0 0 0 0 14626108.737231988 9872747.8957974873 0 9872747.8957974873 -48326373.520240732 0 0 0 0 -37021064.63302213 154061378.1461041 0 154061378.1461041 225249457.61207581 0 0 0 0 -55575616.528496742 -75252917.430927277 0 -75252917.430927277 60023921.563865662 0 0 0 0 -54167499.896348953 -40173389.361244202 0 -40173389.361244202 127769663.7272644 0 0 0 0 -2823363.097114563 -40276756.705833435 0 -40276756.705833435 -17292120.155761719 0 0 0 0 -113775169.69401646 -81267627.32478714 0 -81267627.32478714 -25803936.333076477 0 0 0 0 -401420919.20731544 164308925.38652134 0 164308925.38652134 -21992661.189102173 0 0 0 0 56186143.283857346 7780796.6567459106 0 7780796.6567459106 17648542.351928711 0 0 0 0 74975551.166835785 85143909.945415497 0 85143909.945415497 -644353453.10853577 0 0 0 0 24022386.630771637 24451110.140884399 0 24451110.140884399 -475135172.84423828 0 0 0 0 -235379939.87564063 -281176116.87384987 0 -281176116.87384987 -334266226.8478241 0 0 0 0 27224519.445602417 57874160.211349487 0 57874160.211349487 -169657809.14266968 0 0 0 0 51767824.364272118 -44730634.936103821 0 -44730634.936103821 -278680004.12462234 0 0 0 0 7171228.3339905739 -96497511.494661331 0 -96497511.494661331 -42196329.28213501 0 0 0 0 68327073.396089554 -51326218.465888977 0 -51326218.465888977 -95911944.410308838 0 0 0 0 47143878.523765087 -22376401.221691132 0 -22376401.221691132 -71742686.005706787 0 0 0 0 78896915.571293831 -20113359.050338745 0 -20113359.050338745 -109821685.31599426 0 0 0 0 90193570.997411728 13604418.389648438 0 13604418.389648438 -15090372.912540436 0 0 0 0 -27591461.166395187 -73184035.644340515 0 -73184035.644340515 -51344557.95827198 0 0 0 0 23357723.033499718 -5210357.6432113647 0 -5210357.6432113647 -36554245.008047104 0 0 0 0 98260508.273033619 -23274262.680088043 0 -23274262.680088043 -24933889.414558411 0 0 0 0 8587125.5673804265 -6220447.8475552052 0 -6220447.8475552052 -9662733.9053369835 0 0 0 0 78818067.117137909 -41419006.490348816 0 -41419006.490348816 -34212469.119348526 0 0 0 0 71119310.112284184 -37256641.774543762 0 -37256641.774543762 -31586228.876831055 0 0 0 0 9308741.4790865574 -2775041.8432474723 0 -2775041.8432474723 -47017275.081847146 0 0 0 0 137223284.51917881 -162514750.5211525 0 -162514750.5211525 -87319723.288963318 0 0 0 0 26597514.551805437 -20111652.438232422 0 -20111652.438232422 29436491.978191376 0 0 0 0 27325021.548708677 -10994316.704299927 0 -10994316.704299927 42117540.12953186 0 0 0 0 1194217.8754466334 -2457190.8885351606 0 -2457190.8885351606 2085948.5881439522 0 0 0 0 91789216.036075592 -19097423.75185442 0 -19097423.75185442 -69499216.292354584 0 0 0 0 18121955.347892761 12563882.298713446 0 12563882.298713446 -46116796.301523805 0 0 0 0 29507435.521377563 31729709.760469437 0 31729709.760469437 -71875637.177555561 0 0 0 0 5047660.490234375 24312885.65489614 0 24312885.65489614 -56487015.681900263 0 0 0 0 9546891.8765411377 26633607.431118846 0 26633607.431118846 -50301247.347709417 0 0 0 0 9584359.4217987061 27067734.795565963 0 27067734.795565963 -54814587.780333757 0 0 0 0 12235230.685258279 2235204.6390257124 0 2235204.6390257124 -40392426.80951371 0 0 0 0 58407688.481702328 -49247844.676233292 0 -49247844.676233292 8805060.938659668 0 0 0 0 4789669.029736042 26983636.336511597 0 26983636.336511597 -53625667.284926414 0 0 0 0 56727719.093036652 -29521956.060401201 0 -29521956.060401201 -32247128.987051249 0 0 0 0 347314.67501449957 6088769.7408010857 0 6088769.7408010857 -18144746.492593352 0 0 0 0 5958684.0344009399 27833054.495200038 0 27833054.495200038 -53016435.763952255 0 0 0 0 11927526.276927948 7686436.175599575 0 7686436.175599575 -36831106.473176956 0 0 0 0 17630820.347465515 3845923.7895069122 0 3845923.7895069122 -59092634.023694038 0 0 0 0 147247151.23949432 -8445899.8819084167 0 -8445899.8819084167 -103080319.02053833 0 0 0 0 127637840.20093536 126560841.57321692 0 126560841.57321692 -361776927.320575 0 0 0 0 43543033.948869228 -24853691.41185379 0 -24853691.41185379 -15887228.198028564 0 0 0 0 12338378.463262558 -39360204.127189636 0 -39360204.127189636 1999380.6337528229 0 0 0 0 61996782.259972095 -32327338.877937317 0 -32327338.877937317 11567905.560409546 0 0 0 0 7312449.7687446121 -2967064.9225557931 0 -2967064.9225557931 -7687129.1197081804 0 0 0 0 62568728.620666504 -60811636.171363831 0 -60811636.171363831 6677279.3234405518 0 0 0 0 79341849.26820755 -62589421.854003906 0 -62589421.854003906 -37545529.043117523 0 0 0 0 13190505.981612183 -19110568.640683003 0 -19110568.640683003 352532.19539753348 0 0 0 0 23911481.809100151 -17270870.09992981 0 -17270870.09992981 -3765023.7627029419 0 0 0 0 30987610.834561348 -21135918.037506104 0 -21135918.037506104 4567994.4455871582 0 0 0 0 7214658.6654849416 -8879047.2768542711 0 -8879047.2768542711 -6606163.2455403134 0 0 0 0 7666509.4152264595 -10369469.020622253 0 -10369469.020622253 -3990117.2672958374 0 0 0 0 8540314.7526555769 -825310.69030264765 0 -825310.69030264765 -17746095.885400213 0 0 0 0 11865777.217468262 25217.234024047852 0 25217.234024047852 -16493627.790393829 0 0 0 0 7824608.365606308 -2720130.8374938965 0 -2720130.8374938965 -9338815.4106583595 0 0 0 0 9447918.4341964722 -676566.5637550354 0 -676566.5637550354 -15547543.266651154 0 0 0 0 9607952.5554275513 -222756.75508117676 0 -222756.75508117676 -14978353.781135559 0 0 0 0 8462643.0267235097 -30182.473988853395 0 -30182.473988853395 -22073775.48185822 0 0 0 0 11006886.732881477 12640303.929736223 0 12640303.929736223 -45511321.168743514 0 0 0 0 9589119.5394973755 -1294294.9077529907 0 -1294294.9077529907 -16255312.955812931 0 0 0 0 150662863.65980721 -33381023.98638916 0 -33381023.98638916 46260378.00769043 0 0 0 0 7922211.805931041 -5956516.6472572219 0 -5956516.6472572219 -2613001.6051422954 0 0 0 0 11190953.804470906 -1767061.5473945327 0 -1767061.5473945327 -18220315.858543705 0 0 0 0 23682080.35184288 -15810054.290912628 0 -15810054.290912628 -11616000.489898682 0 0 0 0 5993111.8610610962 -1310019.4451065063 0 -1310019.4451065063 -7724592.2264404297 0 0 0 0 16988215.970019616 -10351037.291770574 0 -10351037.291770574 -17945115.641417027 0 0 0 0 99002296.922973633 -70625562.412780762 0 -70625562.412780762 44516741.540313721 0 0 0 0 128030070.70968628 -106468546.16890907 0 -106468546.16890907 -94225801.347991943 0 0 0 0 19888459.064994812 2880196.0211639404 0 2880196.0211639404 -35181906.933837891 0 0 0 0 129511724.40863037 -95412186.839977264 0 -95412186.839977264 -14263783.605392456 0 0 0 0 -143218.32433763146 -5638854.0169356782 0 -5638854.0169356782 1660693.0650727041 0 0 0 0 1680043.8225250244 -5350371.8269042969 0 -5350371.8269042969 -35575010.933772802 0 0 0 0 20100953.967790008 14308411.427240193 0 14308411.427240193 -11777573.780845642 0 0 0 0 15274406.589052482 -7645491.9669770077 0 -7645491.9669770077 -17915613.720122844 0 0 0 0 3759560.856825836 5689958.9935157541 0 5689958.9935157541 -20364615.000866205 0 0 0 0 53461286.323207855 -40315179.370170593 0 -40315179.370170593 -33788462.94342041 0 0 0 0 1242206.9474906055 721421.82944956049 0 721421.82944956049 -1050668.4382543713 0 0 0 0 -20525933.703285217 -27435353.93626976 0 -27435353.93626976 -21657216.308425903 0 0 0 0 16276564.827848434 12624155.833120346 0 12624155.833120346 -35153438.624855042 0 0 0 0 13639554.67124939 -16742871.550273895 0 -16742871.550273895 -25420033.633991241 0 0 0 0 -54929979.650413513 -7987198.5303974152 0 -7987198.5303974152 -3030745.727104187 0 0 0 0 -55301439.915843964 -196764785.37803268 0 -196764785.37803268 -60119834.285903931 0 0 0 0 181082271.59115982 -6786194.0993003845 0 -6786194.0993003845 -292263755.72607422 0 0 0 0 85990128.980236053 113273887.17761803 0 113273887.17761803 -413621034.78180695 0 0 0 0 -98929940.451408863 98367607.946977615 0 98367607.946977615 -112391945.23242188 0 0 0 0 36134256.302799225 1074940.4099903107 0 1074940.4099903107 -129775410.87554169 0 0 0 0 156659893.43228912 -121145321.81700516 0 -121145321.81700516 -112480202.25684357 0 0 0 0 -26768216.831207275 15130915.235391617 0 15130915.235391617 33394954.561496258 0 0 0 0 -18725659.134498596 86327417.618048668 0 86327417.618048668 6770432.8688840866 0 0 0 0 6000283.972328186 90409844.97549057 0 90409844.97549057 -139432408.11251593 0 0 0 0 -22842151.33152771 47747851.510923386 0 47747851.510923386 -25255441.676703453 0 0 0 0 10541327.056480408 20384875.317922592 0 20384875.317922592 -30646874.658877373 0 0 0 0 16880931.539840698 18232165.530981064 0 18232165.530981064 -29918738.915822506 0 0 0 0 14097725.745437622 27837035.378275871 0 27837035.378275871 -45149692.782764435 0 0 0 0 49715004.419010162 22967947.792840958 0 22967947.792840958 -47704340.823282242 0 0 0 0 1234662.3827209473 13240672.430753708 0 13240672.430753708 1291156.1905539036 0 0 0 0 -3092096.5517616272 24707737.428235054 0 24707737.428235054 79573.82719039917 0 0 0 0 -1060245.6026966628 1864809.4125794363 0 1864809.4125794363 -9152498.7567801382 0 0 0 0 -17721536.724433899 19476563.733058929 0 19476563.733058929 22058599.451963425 0 0 0 0 -21340073.287773132 5168907.1324081421 0 5168907.1324081421 33926744.734448433 0 0 0 0 -29292370.369127274 20786091.499961853 0 20786091.499961853 24099691.540790558 0 0 0 0 -532723593.92293549 279321976.30121613 0 279321976.30121613 -261794324.60036278 0 0 0 0 -4581191.0238921605 -2333619.985265553 0 -2333619.985265553 -3159867.9305990259 0 0 0 0 -227219294.31741142 392988083.35472298 0 392988083.35472298 -358917669.00521851 0 0 0 0 -11672097.507757187 -210639019.41148663 0 -210639019.41148663 -745504339.2673912 0 0 0 0 11181570.329204559 -16921288.897966385 0 -16921288.897966385 -687905.55740737915 0 0 0 0 112467681.83979797 -14791511.876560211 0 -14791511.876560211 -615029029.33300018 0 0 0 0 -877324.72191044874 64048.227419784991 0 64048.227419784991 -552124.34721050225 0 0 0 0 -6869519.918915052 -134555.80662251264 0 -134555.80662251264 -183717.68925129715 0 0 0 0 -163544609.09083939 -109091794.65096474 0 -109091794.65096474 191648119.36294413 0 0 0 0 -340171367.68081284 238258565.30560303 0 238258565.30560303 -280971780.01276016 0 0 0 0 -127144656.88034058 -98616882.490402222 0 -98616882.490402222 -11387568.354483843 0 0 0 0 -372645537.46310651 -311207575.57803482 0 -311207575.57803482 -193218814.59259796 0 0 0 0 -115506979.2892189 121625462.3781147 0 121625462.3781147 -683363808.77205849 0 0 0 0 816860168.97277021 -42985301.932447672 0 -42985301.932447672 -383686097.36212158 0 0 0 0 -1259764705.1542587 -364661767.45262814 0 -364661767.45262814 480615987.57712555 0 0 0 0 -655141574.32044983 -1722644885.4993362 0 -1722644885.4993362 610178402.94064617 0 0 0 0 698095104.10322952 -1108026129.8858204 0 -1108026129.8858204 -165321588.20950317 0 0 0 0 9190454.9671363831 -363838368.58602524 0 -363838368.58602524 77670309.884963989 0 0 0 0 -7230958.0881080627 12352696.210290909 0 12352696.210290909 -2737624.313873291 0 0 0 0 -498657900.67571259 214407789.87362766 0 214407789.87362766 -71647024.900623322 0 0 0 0 -2601316.8839206751 511830.58233631216 0 511830.58233631216 257474.56295673363 0 0 0 0 275413406.9131279 -192538638.29108524 0 -192538638.29108524 -424759679.71222115 0 0 0 0 371910500.53277588 338099587.16417503 0 338099587.16417503 -670719038.77002335 0 0 0 0 -1002584160.2020378 986649171.88819122 0 986649171.88819122 313578386.91686249 0 0 0 0 -204321.90931105427 15904451.971337078 0 15904451.971337078 -35479262.382978067 0 0 0 0 62471145.86322403 124900687.83146667 0 124900687.83146667 116058411.90023804 0 0 0 0 36397543.509726763 -7833110.0264577866 0 -7833110.0264577866 -22175026.503646851 0 0 0 0 -79732073.678235054 -32648067.923484802 0 -32648067.923484802 118383092.50093079 0 0 0 0 -21371971.167444229 -6969277.4672851562 0 -6969277.4672851562 -6700996.5509033203 0 0 0 0 -14049847.933650017 -17667811.412813187 0 -17667811.412813187 -49607501.738922119 0 0 0 0 -4433079.3076658249 2670166.4377975464 0 2670166.4377975464 -32255439.184494019 0 0 0 0 -6803199.8717308044 -1769056.7713851929 0 -1769056.7713851929 -23341882.097320557 0 0 0 0 6125479.3363809735 11464680.116516516 0 11464680.116516516 -36922580.980606347 0 0 0 0 2809389.52784729 11472364.837158203 0 11472364.837158203 -26890237.153697968 0 0 0 0 -4659327.4230575562 73289104.061439514 0 73289104.061439514 41825744.557689667 0 0 0 0 -182741912.69728088 550380866.15701294 0 550380866.15701294 -341044565.6289978 0 0 0 0 518557.9426762471 13162367.666723682 0 13162367.666723682 -111499.13785669208 0 0 0 0 -96238899.699746609 201594123.62109411 0 201594123.62109411 -244503822.73153687 0 0 0 0 -364500765.53362083 -18292391.912845612 0 -18292391.912845612 223153707.28303909 0 0 0 0 -1768447.2888215943 -2649620.3009450268 0 -2649620.3009450268 2053623.5943104103 0 0 0 0 843607.3600823509 12974285.85336842 0 12974285.85336842 1455795.9672152884 0 0 0 0 356291224.05306196 -217660885.84187889 0 -217660885.84187889 676074.13339233398 0 0 0 0 -365109812.95602798 -590045557.74655151 0 -590045557.74655151 810295126.55016327 0 0 0 0 6084986.7763290405 7757295.8055458069 0 7757295.8055458069 -29874217.861091614 0 0 0 0 9816674.1102047469 7264808.8281555474 0 7264808.8281555474 -35683028.69789663 0 0 0 0 36747936.316582561 96975196.182299614 0 96975196.182299614 46123465.899765015 0 0 0 0 -122524981.77461851 47814455.016910553 0 47814455.016910553 68220088.893585205 0 0 0 0 -335991875.85078335 -347754976.37532425 0 -347754976.37532425 -454788285.8165741 0 0 0 0 1071549.0250242811 2211120.1423635418 0 2211120.1423635418 -439408.35935431346 0 0 0 0 -303537638.0216608 -214640236.89110756 0 -214640236.89110756 -55323357.417633057 0 0 0 0 125787236.02878571 -89940945.643363953 0 -89940945.643363953 -153021225.52876282 0 0 0 0 -32042362.787240982 -158484225.63300323 0 -158484225.63300323 -6703425.0733146667 0 0 0 0 -55590251.360488892 -70814891.103168488 0 -70814891.103168488 -17846886.890670776 0 0 0 0 12625790.954774857 -2345482.7493553162 0 -2345482.7493553162 -31789718.949623108 0 0 0 0 -268249.73216629028 -3873844.1592330933 0 -3873844.1592330933 -31240806.160228729 0 0 0 0 2457806.2149734497 -4403367.5264778137 0 -4403367.5264778137 -32876104.856208801 0 0 0 0 -3513329.8108760118 -11206840.87020874 0 -11206840.87020874 -38896818.511566162 0 0 0 0 -4647522.5989589691 -3221846.0856323242 0 -3221846.0856323242 -31986594.190948486 0 0 0 0 -5675433.5304566026 -10414578.932273865 0 -10414578.932273865 -41787022.950180054 0 0 0 0 -6444335.5240926743 -5158623.5547409058 0 -5158623.5547409058 -46306529.204727173 0 0 0 0 -1458206.0937080383 -7469857.1872406006 0 -7469857.1872406006 -69496140.929267883 0 0 0 0 -3586095.2153105736 -5395822.4259395599 0 -5395822.4259395599 -45861909.715652466 0 0 0 0 -2874268.3415050507 -6147099.5887680054 0 -6147099.5887680054 -38475655.56262207 0 0 0 0 -805340.9524936676 -8032005.7820281982 0 -8032005.7820281982 -46352886.605588913 0 0 0 0 -1829998.0060148239 -11218517.129219055 0 -11218517.129219055 -26186353.168701172 0 0 0 0 17641220.446251869 -174407.25077056885 0 -174407.25077056885 -42248150.993980408 0 0 0 0 -2137875.7917308807 -1437299.770318985 0 -1437299.770318985 -38273376.538482666 0 0 0 0 618752.70478584198 140603.84722854197 0 140603.84722854197 -802350.15839582682 0 0 0 0 16292908.079936981 18178803.121749878 0 18178803.121749878 -1677907.1611785889 0 0 0 0 -26221027.563034534 -8839813.2625541687 0 -8839813.2625541687 -72336452.568946838 0 0 0 0 6203573.4489062428 256084.77756023407 0 256084.77756023407 -16514796.302246094 0 0 0 0 2079223.4517021179 -8131465.746723175 0 -8131465.746723175 -17732796.690155029 0 0 0 0 10268849.325176239 -10228015.04882431 0 -10228015.04882431 -32969656.487983704 0 0 0 0 922387.88647270203 -14249808.269325256 0 -14249808.269325256 -34835382.392364502 0 0 0 0 1800328.9148159027 -12323884.316291809 0 -12323884.316291809 -34091170.474915504 0 0 0 0 -5706189.2296285629 -9369061.8553123474 0 -9369061.8553123474 -31419281.503341675 0 0 0 0 3898196.2400965691 -10059297.319551468 0 -10059297.319551468 -31647311.477394104 0 0 0 0 1165340.28191185 -11232575.678886414 0 -11232575.678886414 -31974016.563934326 0 0 0 0 -69523971.77946502 -96044641.905044556 0 -96044641.905044556 -84231250.026508331 0 0 0 0 -18221743.80054149 -64856714.523573399 0 -64856714.523573399 -106483351.91622925 0 0 0 0 5805349.4444380999 -70537842.537376404 0 -70537842.537376404 -128251502.980793 0 0 0 0 -111968768.86828423 -158991394.82489777 0 -158991394.82489777 -162575286.32493162 0 0 0 0 -64950038.443858385 -63732439.829437256 0 -63732439.829437256 -98346228.99924469 0 0 0 0 -1421844.4345693588 -22659262.932666779 0 -22659262.932666779 -53370191.831985474 0 0 0 0 6761566.8063118458 21185040.035655975 0 21185040.035655975 1767104.012588501 0 0 0 0 5071120.1241511106 -38702615.958740234 0 -38702615.958740234 -52559138.510490417 0 0 0 0 490217.38863378344 -429373.68544131517 0 -429373.68544131517 -1170329.0691784099 0 0 0 0 1161248.2442758321 19266.061067443341 0 19266.061067443341 -1781132.4406448081 0 0 0 0 1862316.8148574829 -11693767.472385406 0 -11693767.472385406 -28035281.962646484 0 0 0 0 -2196445.4569711685 -7418264.2486801147 0 -7418264.2486801147 -30061031.1366539 0 0 0 0 1018776.721372515 -12472849.778640747 0 -12472849.778640747 -30349554.850822449 0 0 0 0 -3918435.7112827301 -7877825.512550354 0 -7877825.512550354 -32407725.977416992 0 0 0 0 -197692.92631928623 -2488382.1751050949 0 -2488382.1751050949 -19315844.807418823 0 0 0 0 1268264.9501203923 -461245.40346085653 0 -461245.40346085653 -2763859.819154188 0 0 0 0 638177.88058743463 -1308660.4746035486 0 -1308660.4746035486 -3001129.0300433859 0 0 0 0 9816113.4383875206 20046688.443402052 0 20046688.443402052 -28009872.774108887 0 0 0 0 1302772.9037685825 -1244433.2599247284 0 -1244433.2599247284 -4799788.130526565 0 0 0 0 -1543875.2114913464 -6162180.539899826 0 -6162180.539899826 -29835042.789154053 0 0 0 0 -4460653.7182538509 -12920165.449279785 0 -12920165.449279785 -31391647.549770355 0 0 0 0 4811446.6826370955 -45198208.15133667 0 -45198208.15133667 -27522694.945510864 0 0 0 0 -4262459.8918026686 -2451348.0001449585 0 -2451348.0001449585 -34106409.600021362 0 0 0 0 -47255697.755832329 -41591827.259742737 0 -41591827.259742737 -37680777.86164856 0 0 0 0 7523162.0486358404 -29242392.120407104 0 -29242392.120407104 -161104874.858078 0 0 0 0 -1421513.303585887 -9930201.0298538208 0 -9930201.0298538208 -40752283.713088989 0 0 0 0 6619140.507440567 -29194500.265151978 0 -29194500.265151978 -133311867.68630981 0 0 0 0 1771699.2557685375 -9837436.7155227661 0 -9837436.7155227661 -41724918.071014404 0 0 0 0 -1391613.6949224616 -15242851.824780427 0 -15242851.824780427 1034050.3696585805 0 0 0 0 4785551.4347434044 -27091415.12084198 0 -27091415.12084198 -129036540.04588318 0 0 0 0 2470670.3020061851 -14192988.379754066 0 -14192988.379754066 -149167352.78164673 0 0 0 0 3378525.383253336 -11378096.58575058 0 -11378096.58575058 -45759565.079345703 0 0 0 0 -205600.04592370125 -15222537.56698022 0 -15222537.56698022 -1650077.8691300217 0 0 0 0 4111337.4737935066 -33290736.423149109 0 -33290736.423149109 -127038620.70201111 0 0 0 0 1179699.9385786057 -22036790.574905396 0 -22036790.574905396 -103815359.8772583 0 0 0 0 14929513.987878799 -9737365.916633606 0 -9737365.916633606 -120429655.09048462 0 0 0 0 -1709059.1884858012 2103868.4963779449 0 2103868.4963779449 -38386329.394287109 0 0 0 0 11931784.19141078 13201184.219497681 0 13201184.219497681 -77796735.254234314 0 0 0 0 6717590.7968437672 -3383830.8897018433 0 -3383830.8897018433 -100170425.37841797 0 0 0 0 -5233479.1898252964 11383631.468746185 0 11383631.468746185 -65757177.019683838 0 0 0 0 -2471626.9734129906 -24366000.35118103 0 -24366000.35118103 -128344872.71203613 0 0 0 0 10535343.364853382 4858958.6674957275 0 4858958.6674957275 -120791219.16262817 0 0 0 0 3741291.9504585266 -3972474.7868652344 0 -3972474.7868652344 -131435085.0300293 0 0 0 0 3796743.8454248309 -4197395.8500270844 0 -4197395.8500270844 -144411563.55291748 0 0 0 0 -644012.34482049942 24670595.341674805 0 24670595.341674805 -110858496.85128784 0 0 0 0 -258277.22367274761 22665857.941204071 0 22665857.941204071 -141769300.18621826 0 0 0 0 1075357.1512749195 15065372.531692505 0 15065372.531692505 -160723599.54103088 0 0 0 0 -1352739.739526283 -753295.77452068776 0 -753295.77452068776 -10461274.791175213 0 0 0 0 -1578837.694817543 3664601.1527252197 0 3664601.1527252197 -155537387.21654701 0 0 0 0 -7118061.2232394218 4331813.1308746338 0 4331813.1308746338 -150580967.69796753 0 0 0 0 21564096.482120514 18657241.106735229 0 18657241.106735229 -80619615.092557907 0 0 0 0 -17823383.99309063 -23563050.330154419 0 -23563050.330154419 -88241541.318248749 0 0 0 0 12064444.086575508 -8279059.8964996338 0 -8279059.8964996338 -128407710.81105042 0 0 0 0 4696615.0971984863 -7856581.0754013062 0 -7856581.0754013062 -33634005.103368759 0 0 0 0 19379831.365016222 -12658093.154159546 0 -12658093.154159546 -169584222.70707703 0 0 0 0 1959095.7714841249 -15652096.496224668 0 -15652096.496224668 -10574973.780987017 0 0 0 0 4105186.7454481125 -11786625.157344818 0 -11786625.157344818 -42997957.12512207 0 0 0 0 5860867.6650297642 -10690174.228683472 0 -10690174.228683472 -45698967.217285156 0 0 0 0 918202.27110523591 -15218891.999567941 0 -15218891.999567941 -4895760.451377376 0 0 0 0 6154677.0976748466 -6007417.9460754395 0 -6007417.9460754395 -156944825.35566998 0 0 0 0 786292.11684751511 -30972192.209251404 0 -30972192.209251404 -111950136.55682373 0 0 0 0 -5568062.1813774109 2407533.6084899902 0 2407533.6084899902 -104318165.69116211 0 0 0 0 15769238.302386761 6582002.0456390381 0 6582002.0456390381 -95008389.571437836 0 0 0 0 5820741.8189063072 23399525.849182129 0 23399525.849182129 -32658986.67755127 0 0 0 0 7713232.0793433189 -10015377.975616455 0 -10015377.975616455 -63798185.582077026 0 0 0 0 11647602.357770704 11247301.755174518 0 11247301.755174518 -36356593.471340492 0 0 0 0 219344410.53792191 117592464.44187927 0 117592464.44187927 -10873770.263298035 0 0 0 0 -1662682.1586270332 -20350126.346969604 0 -20350126.346969604 -75416111.976211548 0 0 0 0 21129149.152015209 23356079.1525383 0 23356079.1525383 -46889557.576431274 0 0 0 0 147643574.00197029 408711592.99721527 0 408711592.99721527 88750795.207443237 0 0 0 0 10853463.692060124 11183721.454584833 0 11183721.454584833 -39710353.005562589 0 0 0 0 243427483.43685532 24549599.517982483 0 24549599.517982483 -355871252.84030151 0 0 0 0 43870842.104703903 -9944201.8103485107 0 -9944201.8103485107 7885113.883231163 0 0 0 0 -136958838.02695274 11232368.334285736 0 11232368.334285736 -76549517.272628784 0 0 0 0 -20813271.971263885 -122833504.41021347 0 -122833504.41021347 -169990895.921875 0 0 0 0 97887374.037836075 46552743.165107727 0 46552743.165107727 -124334696.15777588 0 0 0 0 -75398579.679216385 -233975004.8975296 0 -233975004.8975296 -82120418.547821045 0 0 0 0 1817014.3779248251 530572.79134157673 0 530572.79134157673 -5606908.2892600894 0 0 0 0 18789129.191204071 -88637014.994972229 0 -88637014.994972229 -238775769.93434143 0 0 0 0 26237375.158532143 -140382008.36045647 0 -140382008.36045647 72446184.411560059 0 0 0 0 179437108.35506821 -23083034.223388672 0 -23083034.223388672 -108381347.4508431 0 0 0 0 158565935.94204712 -182957607.88201141 0 -182957607.88201141 -130483127.35690308 0 0 0 0 42514390.700210571 -77471803.907253265 0 -77471803.907253265 -179493184.38913727 0 0 0 0 214373854.75831008 -199626189.02588701 0 -199626189.02588701 -110227292.87112427 0 0 0 0 225087497.19837952 -10184720.910774231 0 -10184720.910774231 -151699884.22270203 0 0 0 0 25417847.492023468 30112117.645141602 0 30112117.645141602 -36006351.034172058 0 0 0 0 2525825.9795647804 -3558231.4254058152 0 -3558231.4254058152 -8503634.8934369925 0 0 0 0 13234168.214323673 10787815.766485222 0 10787815.766485222 -33760925.659558743 0 0 0 0 47168195.542539597 -14829616.585960388 0 -14829616.585960388 -54880855.116157532 0 0 0 0 13068915.410146236 8292264.5373306274 0 8292264.5373306274 -42695584.52192688 0 0 0 0 -8581388.0854225159 -18329910.515239716 0 -18329910.515239716 -95260035.515190125 0 0 0 0 325087.09323811159 -4819941.3845764361 0 -4819941.3845764361 -17143704.076268882 0 0 0 0 7823637.1419957913 5752446.7054881752 0 5752446.7054881752 -20655669.413577855 0 0 0 0 19010674.439308167 -17258697.664131165 0 -17258697.664131165 -64870997.390090942 0 0 0 0 -8700465.2581398487 -14123973.514755726 0 -14123973.514755726 -52711741.067382812 0 0 0 0 73675895.704715729 29373876.580429077 0 29373876.580429077 -53460744.404510498 0 0 0 0 -60911135.918838501 -55271202.303771973 0 -55271202.303771973 -122024474.42129707 0 0 0 0 32408068.922409058 -22166743.333618164 0 -22166743.333618164 -184359948.97429657 0 0 0 0 654274.50685520098 -451022.48847160116 0 -451022.48847160116 -5293052.7255748287 0 0 0 0 -6448200.4665679932 8249889.7456741333 0 8249889.7456741333 -50605259.836166382 0 0 0 0 15256832.61089325 -4863180.9638519287 0 -4863180.9638519287 -43982590.75819397 0 0 0 0 -20139256.023820877 -15206391.971248627 0 -15206391.971248627 -43943518.174926758 0 0 0 0 -12946369.567785263 3753881.912563324 0 3753881.912563324 -10494462.092300415 0 0 0 0 5990435.5334472656 -29850965.450531006 0 -29850965.450531006 -36452062.356201172 0 0 0 0 29286550.677913666 24980718.689338684 0 24980718.689338684 -128402642.85559082 0 0 0 0 8846630.7891629636 393214.50993868709 0 393214.50993868709 -18555515.188016631 0 0 0 0 22757500.720683098 -11840080.43409729 0 -11840080.43409729 -63364326.599151611 0 0 0 0 27826051.171340942 5404778.0350723267 0 5404778.0350723267 -44621153.17791748 0 0 0 0 145036403.51317596 320956595.9150238 0 320956595.9150238 -346331991.4224472 0 0 0 0 -232467745.74611473 -8509301.3192138672 0 -8509301.3192138672 10583048.735519409 0 0 0 0 999549.10704256035 -785224.06492614001 0 -785224.06492614001 -4539278.3759623915 0 0 0 0 210989514.26622009 -43227884.9974823 0 -43227884.9974823 -35750493.244384766 0 0 0 0 5633492.3863368928 -78853038.391063035 0 -78853038.391063035 -120268028.81851196 0 0 0 0 -57679210.688480377 -108200406.40789795 0 -108200406.40789795 -119890092.13284302 0 0 0 0 423407683.41779327 471974519.74582672 0 471974519.74582672 -319353416.74124146 0 0 0 0 -39370220.047863007 -50935669.443969727 0 -50935669.443969727 -21514647.57592392 0 0 0 0 873378.65960783325 197971.75529813766 0 197971.75529813766 -3864924.8593339324 0 0 0 0 201763034.37879944 2270105.0137786865 0 2270105.0137786865 -222190435.33255005 0 0 0 0 -184197242.72055054 -458878144.33029175 0 -458878144.33029175 -768917892.53916931 0 0 0 0 -561474850.14408112 427860374.10287476 0 427860374.10287476 -350784597.57365036 0 0 0 0 43103902.251373291 -125928906.69496155 0 -125928906.69496155 -387608649.71218872 0 0 0 0 2573996.6670119017 1956133.8161866702 0 1956133.8161866702 -8066113.0711273849 0 0 0 0 186339026.27763176 -18380230.342666626 0 -18380230.342666626 -275420664.9931488 0 0 0 0 185789397.87107468 61620965.878601074 0 61620965.878601074 -155528746.572052 0 0 0 0 26724669.745068073 4170110.8992986679 0 4170110.8992986679 -12139369.330917358 0 0 0 0 69425392.338424683 -31241038.406978607 0 -31241038.406978607 -116482492.58331299 0 0 0 0 866227.26136779785 -18825698.577255249 0 -18825698.577255249 18930920.119689941 0 0 0 0 17368228.344583511 -20107208.15486908 0 -20107208.15486908 501080.78387451172 0 0 0 0 9916049.8072166443 -10547141.460773468 0 -10547141.460773468 -10374763.065658569 0 0 0 0 3938039.4380817413 19625365.335594177 0 19625365.335594177 26132109.457805634 0 0 0 0 -74472896.573225021 -115943316.08110809 0 -115943316.08110809 -44053195.234954834 0 0 0 0 10802232.561569214 -35138371.567932129 0 -35138371.567932129 -47935890.737701416 0 0 0 0 44868067.613235474 -39956365.619483948 0 -39956365.619483948 -74103407.32723999 0 0 0 0 39719012.917369843 -55950120.287109375 0 -55950120.287109375 -107362634.43667603 0 0 0 0 51846206.261604309 -32313719.265464783 0 -32313719.265464783 -75234563.083816528 0 0 0 0 39639934.905769348 -1100359.041015625 0 -1100359.041015625 -28415841.525650024 0 0 0 0 44413438.922708035 -7899166.0094909668 0 -7899166.0094909668 -115902817.05853271 0 0 0 0 15242016.852232933 -8502940.4027099609 0 -8502940.4027099609 -112472265.52549744 0 0 0 0 31531133.512349486 -51511172.416419983 0 -51511172.416419983 -159850566.05123901 0 0 0 0 12235755.200880527 -19185685.221054077 0 -19185685.221054077 -38436237.128173828 0 0 0 0 37477098.978183031 -26450942.657752991 0 -26450942.657752991 -40223887.204452515 0 0 0 0 -14271887.173503876 -9778699.0385894775 0 -9778699.0385894775 100665303.92144775 0 0 0 0 -107570796.30257607 65856864.96875 0 65856864.96875 -62103745.786545277 0 0 0 0 -7813552.5621209145 -205231283.16762543 0 -205231283.16762543 20151984.753234863 0 0 0 0 78371588.057329178 20445622.334320068 0 20445622.334320068 -62928674.336273193 0 0 0 0 37917790.215036392 -37876262.451080322 0 -37876262.451080322 -227226114.40908813 0 0 0 0 -70160028.647114277 -86146376.052886963 0 -86146376.052886963 -123815990.82041931 0 0 0 0 5675096.0790190976 7257049.4115045145 0 7257049.4115045145 -5778096.5436289608 0 0 0 0 25124988.026798248 19368272.760406494 0 19368272.760406494 -53995593.626106262 0 0 0 0 -70560547.270120621 129628866.60169983 0 129628866.60169983 -100700875.85508728 0 0 0 0 135971029.07050824 -41982293.457227707 0 -41982293.457227707 -98347168.566314697 0 0 0 0 85144952.536596298 93761508.154403687 0 93761508.154403687 -189493180.98678589 0 0 0 0 3636846.257914925 5607037.5666374788 0 5607037.5666374788 -7603380.1196521334 0 0 0 0 13261169.237296104 648880.31162261963 0 648880.31162261963 -31857950.228317261 0 0 0 0 2087652.491563875 -6856122.9389528967 0 -6856122.9389528967 -19064644.435801148 0 0 0 0 -191796887.20283246 -181524853.88730621 0 -181524853.88730621 44459999.691436768 0 0 0 0 11279961.265656438 4864214.2243224531 0 4864214.2243224531 -15926536.821654357 0 0 0 0 -3180334.5497665405 -1782092.0747070312 0 -1782092.0747070312 -13089029.769699097 0 0 0 0 9105599.5390415192 5706454.4483642578 0 5706454.4483642578 -28595344.094726562 0 0 0 0 8404056.4886033181 -8349908.0054470785 0 -8349908.0054470785 -33378231.485434532 0 0 0 0 10438360.396505356 -8223911.8522338867 0 -8223911.8522338867 -17509306.330368042 0 0 0 0 12806423.637130737 480028.00091552734 0 480028.00091552734 -25887859.467277527 0 0 0 0 4321889.2274462972 1796342.0752140023 0 1796342.0752140023 -18436746.53352762 0 0 0 0 21269808.499827623 -16842303.103674412 0 -16842303.103674412 -50599612.059158325 0 0 0 0 893189.06159973145 -3164828.7336425781 0 -3164828.7336425781 -12502996.952758789 0 0 0 0 3845137.3352518342 -5949331.6326072738 0 -5949331.6326072738 -16389504.009782413 0 0 0 0 87516506.254798889 -57793754.293884277 0 -57793754.293884277 -481602524.29637146 0 0 0 0 -122092961.17173386 446738488.85952759 0 446738488.85952759 222467030.98135376 0 0 0 0 562171803.3654995 -433119267.95543289 0 -433119267.95543289 -275461560.37979126 0 0 0 0 -317641723.0917244 -222233251.50154114 0 -222233251.50154114 406093452.2318573 0 0 0 0 -385794847.58407211 -29889820.569229126 0 -29889820.569229126 46468844.144622803 0 0 0 0 3883152.9944267273 -3656971.8750305176 0 -3656971.8750305176 -9495498.4624786377 0 0 0 0 2695196.1366256708 -8311115.4341774248 0 -8311115.4341774248 -20822738.168753773 0 0 0 0 -94527817.836639404 -32245728.051086426 0 -32245728.051086426 -138723112.01306152 0 0 0 0 -562484.37176179886 -3877610.5676002502 0 -3877610.5676002502 -21371735.338577271 0 0 0 0 9808024.5567214638 1313495.6767160073 0 1313495.6767160073 -15148486.283490852 0 0 0 0 4609157.530960083 -2699100.030090332 0 -2699100.030090332 -5969078.0510253906 0 0 0 0 2590098.9760579653 -4904145.1132032573 0 -4904145.1132032573 -23096202.07457589 0 0 0 0 -1069013.1660421537 -4500706.985060215 0 -4500706.985060215 -19707067.107985869 0 0 0 0 9884351.2759629935 5165481.0594435334 0 5165481.0594435334 -12837247.800342128 0 0 0 0 4512344.3667144775 -1859085.8951187134 0 -1859085.8951187134 -13039946.669677734 0 0 0 0 1630593.5523452759 -2766859.3399353027 0 -2766859.3399353027 -13308095.466903687 0 0 0 0 8643564.721933037 2875126.1211454868 0 2875126.1211454868 -26147067.829646014 0 0 0 0 -6049588.5350570679 1689761.0514068604 0 1689761.0514068604 -5596059.4106445312 0 0 0 0 3449362.9206187576 -4048288.2046396658 0 -4048288.2046396658 -16119049.060355943 0 0 0 0 4433097.4507306833 5085297.1847932711 0 5085297.1847932711 -9797924.6313923113 0 0 0 0 3712937.1097003222 -41255.706729888916 0 -41255.706729888916 -16554697.664230347 0 0 0 0 -15032959.298895359 -33648589.630722046 0 -33648589.630722046 -84524627.982421875 0 0 0 0 3630728.6627655029 -4663557.9999008179 0 -4663557.9999008179 -25677828.682006836 0 0 0 0 746357.10787495226 -4669515.2778099068 0 -4669515.2778099068 -14196427.642125905 0 0 0 0 2725822.9688720703 -4778782.5020484924 0 -4778782.5020484924 -23800297.128433228 0 0 0 0 912142.03609995591 -1975994.106790632 0 -1975994.106790632 -4367678.5512724258 0 0 0 0 10978140.177671432 -40360878.681182861 0 -40360878.681182861 -165069142.5309906 0 0 0 0 29530479.410515785 -32445647.577682495 0 -32445647.577682495 -229797582.55166626 0 0 0 0 4077273.7305526733 -32582376.483520508 0 -32582376.483520508 44388595.824333191 0 0 0 0 -55357575.651287079 -43790572.188819885 0 -43790572.188819885 128264888.63476562 0 0 0 0 -17183593.223187208 -58729847.67489624 0 -58729847.67489624 190564961.98587036 0 0 0 0 43660987.960680008 -105993776.83294678 0 -105993776.83294678 129580021.83712769 0 0 0 0 269709.3145014192 -11752353.063676894 0 -11752353.063676894 -14110523.336509401 0 0 0 0 41970464.76830101 -41014391.992172241 0 -41014391.992172241 128151901.98016357 0 0 0 0 -18046740.15937233 -144409952.52114868 0 -144409952.52114868 219905834.22750854 0 0 0 0 -23684195.270680428 -10412508.850463867 0 -10412508.850463867 292732718.11685181 0 0 0 0 1868394.4006347205 -1164117.8690952659 0 -1164117.8690952659 -3990241.460802868 0 0 0 0 -23845868.477038383 -117210400.57281494 0 -117210400.57281494 165184371.89224243 0 0 0 0 -108075730.38392448 -96989327.602142334 0 -96989327.602142334 161738194.45925903 0 0 0 0 -12704442.779812336 -69015963.589431763 0 -69015963.589431763 68975049.181335449 0 0 0 0 -101878108.30471516 -2542880.1006469727 0 -2542880.1006469727 49375124.716743469 0 0 0 0 20816069.523791313 -228304945.01620483 0 -228304945.01620483 91816455.858688354 0 0 0 0 176923658.24891663 -183046884.51046753 0 -183046884.51046753 70285824.546096802 0 0 0 0 -11185020.408561707 -61537004.43056488 0 -61537004.43056488 93831673.328186035 0 0 0 0 -2123626.5793383243 -13361494.903688811 0 -13361494.903688811 -18375057.821603626 0 0 0 0 -14540913.502229691 -124388808.46501923 0 -124388808.46501923 126970622.47644043 0 0 0 0 827390670.46612549 418789647.06822205 0 418789647.06822205 -458538193.11212158 0 0 0 0 70911890.246505737 -14945912.03565979 0 -14945912.03565979 -58327022.350481033 0 0 0 0 7268334.9981566574 -7193995.8777064346 0 -7193995.8777064346 -15739661.419887749 0 0 0 0 35194387.896604538 30023988.333717346 0 30023988.333717346 -12185569.789886475 0 0 0 0 -1236791.7824660856 -17184135.62483184 0 -17184135.62483184 -40021876.442752108 0 0 0 0 -1875806.1122160177 -14017440.03227194 0 -14017440.03227194 -37538295.175076365 0 0 0 0 249033607.58061314 -50264694.369373322 0 -50264694.369373322 -98802706.277770996 0 0 0 0 472711612.78002453 -424891403.49039841 0 -424891403.49039841 236248089.3331604 0 0 0 0 -155365515.19912529 -185156508.78658295 0 -185156508.78658295 382359035.54469681 0 0 0 0 -198703253.74334908 50715980.830688477 0 50715980.830688477 251638590.7421875 0 0 0 0 -155245296.10714531 -234319921.98910522 0 -234319921.98910522 96265690.813941956 0 0 0 0 145662423.44711637 -18700970.993713379 0 -18700970.993713379 -55923091.980895996 0 0 0 0 -22070355.378646851 -66105210.188232422 0 -66105210.188232422 -72838531.82901001 0 0 0 0 -795246.64668744896 742006.89806112647 0 742006.89806112647 54311.959082320333 0 0 0 0 -132472798.05526876 -126011135.53470612 0 -126011135.53470612 -33123298.195671082 0 0 0 0 -171277172.0888617 -40464082.586284637 0 -40464082.586284637 320636423.51478577 0 0 0 0 -11490990.826060295 -57807412.470291138 0 -57807412.470291138 -62282209.822647095 0 0 0 0 -82414014.91882515 -34980699.231765747 0 -34980699.231765747 -24546924.771606445 0 0 0 0 -56373345.030368805 -31217383.986053467 0 -31217383.986053467 46303553.48311615 0 0 0 0 1304966.4249841571 -56986754.070819855 0 -56986754.070819855 -31903592.259857178 0 0 0 0 -47643230.384098053 98174360.97202301 0 98174360.97202301 -101540467.30393982 0 0 0 0 -69260839.126918793 15370229.741928101 0 15370229.741928101 -7406786.2722015381 0 0 0 0 1170832.1048800852 1129416.2435843423 0 1129416.2435843423 -1792433.9272046871 0 0 0 0 2345407.7257841304 -71844.726496994495 0 -71844.726496994495 11874.3940035142 0 0 0 0 3744110.9006347656 1538559.123046875 0 1538559.123046875 -6921647.0011062622 0 0 0 0 1991543.0415267944 1260598.7863388062 0 1260598.7863388062 -4305708.7561645508 0 0 0 0 4269912.4941272736 1245787.9561481476 0 1245787.9561481476 -4202075.0739746094 0 0 0 0 3368938.1350727081 -952175.70030593872 0 -952175.70030593872 -1639719.2365570068 0 0 0 0 5427275.7515532076 -1335778.293356698 0 -1335778.293356698 -1910559.5140132234 0 0 0 0 4809010.3878440857 -1059617.1718978882 0 -1059617.1718978882 -3678554.6073760986 0 0 0 0 1080530.2264480591 564828.53143310547 0 564828.53143310547 -1364510.8965759277 0 0 0 0 5284796.3828738844 -483769.47685227916 0 -483769.47685227916 -2519312.68049049 0 0 0 0 1142607.2598876953 -768481.40425109863 0 -768481.40425109863 -5026608.3078918457 0 0 0 0 -1380309.8435897827 2622847.469909668 0 2622847.469909668 -4496784.017791748 0 0 0 0 6266643.4853363037 1098901.9313659668 0 1098901.9313659668 -5202991.4934539795 0 0 0 0 138965.91870519053 -64359.801354970783 0 -64359.801354970783 -100027.65093787014 0 0 0 0 -297878431.2053299 185159702.90933228 0 185159702.90933228 353133159.46800995 0 0 0 0 1236069.2576751709 3621095.8002853394 0 3621095.8002853394 -8056611.2022094727 0 0 0 0 1991598.5464248657 4452836.1381912231 0 4452836.1381912231 -8056563.767791748 0 0 0 0 4008706.4440921638 -370134.80438569561 0 -370134.80438569561 -2121.8961026407778 0 0 0 0 1388422.6559531428 5022017.843239598 0 5022017.843239598 -4634783.633723408 0 0 0 0 -89431515.564048767 -74398435.603027344 0 -74398435.603027344 145528027.86993408 0 0 0 0 260473829.19757462 -151764778.93955231 0 -151764778.93955231 -222565919.38513184 0 0 0 0 -233821576.28299332 55351943.547464371 0 55351943.547464371 44597891.844573975 0 0 0 0 -600796279.29563904 726211570.12158203 0 726211570.12158203 -567782101.53287506 0 0 0 0 -84408.7616908364 391455.73121358454 0 391455.73121358454 -197813.42393296584 0 0 0 0 294427438.36103821 202066706.90388489 0 202066706.90388489 28168235.361846924 0 0 0 0 -186833017.63601303 -333997742.18753815 0 -333997742.18753815 -97910724.22845459 0 0 0 0 816869966.49432373 -137822297.61712646 0 -137822297.61712646 -153656340.18548584 0 0 0 0 -77647635.600772858 -26346634.75831604 0 -26346634.75831604 351206156.55039597 0 0 0 0 22491451.279724121 -36043471.909179688 0 -36043471.909179688 81171055.126525879 0 0 0 0 2369381.3644741215 -1591664.0816760845 0 -1591664.0816760845 -4692614.1951339263 0 0 0 0 1783803.7858678736 1636138.6443408839 0 1636138.6443408839 -643753.38178677112 0 0 0 0 239499715.27912903 -156904545.26039124 0 -156904545.26039124 -95566475.711791992 0 0 0 0 -862666320.43927574 -1673429664.1147346 0 -1673429664.1147346 789001298.16784668 0 0 0 0 959053952.68976212 -109439330.43216705 0 -109439330.43216705 -123153603.04745483 0 0 0 0 107446390.0399704 133201562.86921692 0 133201562.86921692 24162428.497741699 0 0 0 0 159939491.48976898 18920639.101356506 0 18920639.101356506 -46342772.101150513 0 0 0 0 321531280.40981293 61424838.787162781 0 61424838.787162781 -106788653.87728882 0 0 0 0 127482132.24557495 -85389357.317382812 0 -85389357.317382812 -119385123.91705704 0 0 0 0 158160562.31578064 23411110.410293579 0 23411110.410293579 -123272134.62321472 0 0 0 0 164316324.12170792 5056210.55493927 0 5056210.55493927 -112147278.15222549 0 0 0 0 -40081780.789718628 110259165.26263428 0 110259165.26263428 -116921178.50325775 0 0 0 0 19633516.818847656 15546693.220863342 0 15546693.220863342 -77717695.675094604 0 0 0 0 64893740.173810959 27112776.830947876 0 27112776.830947876 -97792305.637130737 0 0 0 0 86955064.601211548 -5333342.4011993408 0 -5333342.4011993408 -95561218.196536064 0 0 0 0 91071795.833992004 40105188.297401428 0 40105188.297401428 -105455363.96414185 0 0 0 0 53557028.464897156 -82474992.108772278 0 -82474992.108772278 -124267715.87716293 0 0 0 0 128752165.34474945 7204531.0333137512 0 7204531.0333137512 -19921565.996932983 0 0 0 0 -88996029.190526962 -67987210.446903229 0 -67987210.446903229 -51108110.734233856 0 0 0 0 30736091.011384487 -5709391.2449970245 0 -5709391.2449970245 -107531656.34860229 0 0 0 0 18234869.747739553 51060719.063509703 0 51060719.063509703 -253992568.69902039 0 0 0 0 -108406850.76508331 -82820283.066085815 0 -82820283.066085815 -139916453.57351685 0 0 0 0 28025199.987206459 -1313878.6874923706 0 -1313878.6874923706 -423131151.72354126 0 0 0 0 -75150536.969064236 24278915.971014977 0 24278915.971014977 -249284563.28747559 0 0 0 0 38414169.151462555 -36140511.454574585 0 -36140511.454574585 -360798726.81851959 0 0 0 0 -66414255.309066772 -48291208.236877441 0 -48291208.236877441 -27079398.636882782 0 0 0 0 -66881350.492214203 -42999019.172134399 0 -42999019.172134399 -66344930.79750824 0 0 0 0 -52734405.600299597 -105781785.08234549 0 -105781785.08234549 -21683085.471130371 0 0 0 0 -53169457.847633362 -99468354.837379456 0 -99468354.837379456 -108595787.56526184 0 0 0 0 -4508890.6043167114 3573086.7251281738 0 3573086.7251281738 8504112.5360527039 0 0 0 0 -1952618.3952255249 -4580275.669342041 0 -4580275.669342041 5649047.3988838196 0 0 0 0 6153422.9537086487 8150405.2291793823 0 8150405.2291793823 4756872.455078125 0 0 0 0 -45746313.469425201 -420794213.55969238 0 -420794213.55969238 -177564395.6374054 0 0 0 0 2928235.5253819898 289704.54972359538 0 289704.54972359538 -3170451.1449528039 0 0 0 0 -18921929.376739502 -16674473.649414062 0 -16674473.649414062 -17714603.228759766 0 0 0 0 -164023960.18331528 -180252438.66690063 0 -180252438.66690063 -334578033.43539429 0 0 0 0 52147402.361114502 -142504772.18154907 0 -142504772.18154907 -423095880.74664307 0 0 0 0 249066.95334575884 167173.20974718407 0 167173.20974718407 -83582.184151159599 0 0 0 0 239998751.19537544 -696109723.46194077 0 -696109723.46194077 82977042.723022461 0 0 0 0 2086594.3306808472 202513349.15036011 0 202513349.15036011 -436753417.21928406 0 0 0 0 -354659382.22878265 397438611.36080933 0 397438611.36080933 -528278766.83261108 0 0 0 0 89485067.065814972 -184621480.12271118 0 -184621480.12271118 -232908905.56782532 0 0 0 0 102660476.2667408 -219805462.49013519 0 -219805462.49013519 -741885541.37088013 0 0 0 0 153614620.93380737 -981350.53219604492 0 -981350.53219604492 -248806054.0620575 0 0 0 0 128686653.1963768 163390927.3855896 0 163390927.3855896 -87789744.021957397 0 0 0 0 127700811.75635147 67064704.486633301 0 67064704.486633301 -40031223.368591309 0 0 0 0 171591856.5196228 114177740.67311096 0 114177740.67311096 -212164819.48504639 0 0 0 0 -11049608.419513702 -9753694.087310791 0 -9753694.087310791 -2037468.9760246277 0 0 0 0 2169716.6946492195 -5567035.1860103607 0 -5567035.1860103607 -6342558.7485198975 0 0 0 0 1745597.3362312317 1180624.9884490967 0 1180624.9884490967 -4441303.0257339478 0 0 0 0 -1507047.3917045593 880531.50440216064 0 880531.50440216064 4732200.1666030884 0 0 0 0 -68979786.128429413 74085895.107223511 0 74085895.107223511 -76126748.001296997 0 0 0 0 -1241291.2892150879 2564389.5161514282 0 2564389.5161514282 773667.1448059082 0 0 0 0 1817607.9980784208 1408017.5305243172 0 1408017.5305243172 -1204826.3497908823 0 0 0 0 2477558.7326145172 -2260478.6578559875 0 -2260478.6578559875 849897.60748291016 0 0 0 0 748246.68683595024 235732.79045395553 0 235732.79045395553 -1449046.5983162448 0 0 0 0 4857121.1008730242 -1033383.56599788 0 -1033383.56599788 -4381757.8447045758 0 0 0 0 -2324659.4501849413 -3520322.2186083794 0 -3520322.2186083794 -2558303.4488067627 0 0 0 0 -11546383.02239418 -92092462.432319641 0 -92092462.432319641 -127565293.81790161 0 0 0 0 2104798.074139718 896182.99019809812 0 896182.99019809812 -855685.99929797463 0 0 0 0 8633424.3207511902 -58549090.138442993 0 -58549090.138442993 -287287183.72709656 0 0 0 0 33809684.16947937 -71573102.873939514 0 -71573102.873939514 -356392611.25323486 0 0 0 0 52557441.231586456 -98084008.633224487 0 -98084008.633224487 -334087540.98400879 0 0 0 0 30873884.485528946 -60852604.723510742 0 -60852604.723510742 -387875881.43908691 0 0 0 0 64244112.26146698 -36320488.918395996 0 -36320488.918395996 -340004643.47634888 0 0 0 0 54273991.512895584 -103516309.76430511 0 -103516309.76430511 -316925801.61312866 0 0 0 0 -2886091.6115207672 -201152832.3476944 0 -201152832.3476944 -463105733.34107971 0 0 0 0 -150323761.48739243 -212140888.25289917 0 -212140888.25289917 -296502508.42315674 0 0 0 0 122544841.38854599 -40665652.295654297 0 -40665652.295654297 -510168597.42254639 0 0 0 0 -131293949.50934982 -349951504.79133606 0 -349951504.79133606 -535830174.75030518 0 0 0 0 -15456452.363952637 -79703599.423339844 0 -79703599.423339844 -619342774.22387695 0 0 0 0 -166833790.47333527 48538463.757781982 0 48538463.757781982 -312717601.12632751 0 0 0 0 119958639.27186966 -55530977.234390259 0 -55530977.234390259 -275937163.43579102 0 0 0 0 -29039585.776124954 -201080250.43169403 0 -201080250.43169403 -60645119.273529053 0 0 0 0 -32357655.64774704 -109126403.36636353 0 -109126403.36636353 -222087292.46429443 0 0 0 0 36650862.746425629 -5789506.1102371216 0 -5789506.1102371216 -111887225.48492432 0 0 0 0 -85161406.047643661 -17422479.857341766 0 -17422479.857341766 68217189.031848907 0 0 0 0 -25973746.559089661 -165163836.39709473 0 -165163836.39709473 -262671944.34095764 0 0 0 0 -35131564.259105682 -93766593.281509399 0 -93766593.281509399 -94269031.340484619 0 0 0 0 -42576565.726940155 -26341659.627380371 0 -26341659.627380371 -80415739.448616028 0 0 0 0 -8411295.3793754578 -4452006.9449615479 0 -4452006.9449615479 -159535801.92391014 0 0 0 0 -26973604.984819412 -103311299.85151672 0 -103311299.85151672 -171740671.99993896 0 0 0 0 -15413123.296279907 -43574538.93347168 0 -43574538.93347168 -267307965.11987305 0 0 0 0 365216.32039423846 -1835954.4347928753 0 -1835954.4347928753 -658381.93674840033 0 0 0 0 -70049611.077339172 136502651.0153656 0 136502651.0153656 -45118660.677734375 0 0 0 0 2331908.692173481 -1043794.8587331772 0 -1043794.8587331772 -2352190.8186645508 0 0 0 0 4943148.0408465639 737383.32793451101 0 737383.32793451101 -3772084.8131878898 0 0 0 0 71708.702251186594 3153.1669727601111 0 3153.1669727601111 445774.10009914637 0 0 0 0 -89177904.96686554 -1169847.1057891846 0 -1169847.1057891846 -375632.74774932861 0 0 0 0 11911156.182907104 70270402.755722046 0 70270402.755722046 -117114859.09439087 0 0 0 0 -239744550.56405449 -248681975.28224754 0 -248681975.28224754 -113466736.83859253 0 0 0 0 -106687172.71308136 -140958033.76083374 0 -140958033.76083374 -40588026.05348444 0 0 0 0 -51414810.296005249 -26143714.208572388 0 -26143714.208572388 -236982774.6428833 0 0 0 0 6448482.1539173126 -222488920.40293312 0 -222488920.40293312 -416587135.59976196 0 0 0 0 -60982618.316385269 112231100.57299805 0 112231100.57299805 -45605428.048965454 0 0 0 0 3376211.8333124965 290411.9868533127 0 290411.9868533127 -2608930.4684014693 0 0 0 0 -3422994.839630127 -736758.07536315918 0 -736758.07536315918 9188911.405456543 0 0 0 0 2038959.199886322 -5476499.1425857544 0 -5476499.1425857544 -12148015.736022949 0 0 0 0 -1090804.2489700317 -10366971.500289917 0 -10366971.500289917 10345332.720062256 0 0 0 0 3804886.7363451947 -3629820.4563902919 0 -3629820.4563902919 -966964.1233485043 0 0 0 0 4144063.097700119 -1119280.7736968994 0 -1119280.7736968994 -3187031.1474304199 0 0 0 0 1163715.6244754791 1864209.8319625854 0 1864209.8319625854 -3504962.8503570557 0 0 0 0 -10084546.800395966 -7195977.6852645874 0 -7195977.6852645874 6883942.0566558838 0 0 0 0 13923653.051889896 -3637727.759642601 0 -3637727.759642601 -4977508.1683959961 0 0 0 0 1447186.5689121042 -2301085.9839822259 0 -2301085.9839822259 398448.03380536288 0 0 0 0 428247.43520973995 -769369.89504642645 0 -769369.89504642645 132287.41691654921 0 0 0 0 7370225.1065559387 20190678.687675476 0 20190678.687675476 -62846417.035919189 0 0 0 0 -12981143.460796356 15978648.696258545 0 15978648.696258545 -9995503.8016586304 0 0 0 0 -11180092.030656815 271067.25485992432 0 271067.25485992432 325895.73071289062 0 0 0 0 23555982.56073761 18107575.779159546 0 18107575.779159546 -45672833.641769409 0 0 0 0 -5904175.0699768066 26075091.530982971 0 26075091.530982971 -40141960.01272583 0 0 0 0 1446496.6179256439 6612271.2818984985 0 6612271.2818984985 -25315159.094985962 0 0 0 0 -4813996.484872818 16320579.367683411 0 16320579.367683411 -31614991.464881897 0 0 0 0 4407851.6240174193 863360.57063661516 0 863360.57063661516 -1904308.8466648385 0 0 0 0 13264078.568490982 -7771969.7653274536 0 -7771969.7653274536 -9845603.980140686 0 0 0 0 -4211713.9045810699 1722635.5087432861 0 1722635.5087432861 645411.6125793457 0 0 0 0 6102453.2559776306 -14357554.111785889 0 -14357554.111785889 -14593047.530857086 0 0 0 0 600074.67370223999 -21209900.709907532 0 -21209900.709907532 2015477.588973999 0 0 0 0 2566556.7980244001 1047425.7860065103 0 1047425.7860065103 -1106819.7812409773 0 0 0 0 26965186.464570999 20023759.160093307 0 20023759.160093307 -32363663.924468994 0 0 0 0 -3724171.6191368103 -19132011.041488647 0 -19132011.041488647 -40152539.462240219 0 0 0 0 -30760394.617616653 17002810.715766907 0 17002810.715766907 26609211.544784546 0 0 0 0 29368469.627445221 -89915517.918334961 0 -89915517.918334961 104919005.93855286 0 0 0 0 1635749.653227685 683694.48608262092 0 683694.48608262092 -1479572.5299515277 0 0 0 0 -120967347.183918 -57085189.061691284 0 -57085189.061691284 51747524.728607178 0 0 0 0 81838959.719296455 72708886.55569458 0 72708886.55569458 -223007906.1312027 0 0 0 0 119676411.31983376 12710750.778739929 0 12710750.778739929 -237334804.32347107 0 0 0 0 355880446.89197159 -184634058.45153046 0 -184634058.45153046 -174171596.21897888 0 0 0 0 205373075.28834534 -89442443.57352066 0 -89442443.57352066 -137908876.85040283 0 0 0 0 17149166.832752228 -13541242.046554565 0 -13541242.046554565 16376199.495437622 0 0 0 0 19798118.188037395 3538418.5355987549 0 3538418.5355987549 -48504411.817657471 0 0 0 0 24312122.971435547 18347696.034210205 0 18347696.034210205 -57904714.151069641 0 0 0 0 32910055.700106621 50011926.597663879 0 50011926.597663879 -89724813.386810303 0 0 0 0 69611984.148010254 19117159.986915588 0 19117159.986915588 -78463025.328765869 0 0 0 0 -25291008.174833298 105946671.77091217 0 105946671.77091217 -85697522.490844727 0 0 0 0 97229629.161631584 122774846.02914429 0 122774846.02914429 -147473388.26257324 0 0 0 0 43523171.046414852 102369042.06646538 0 102369042.06646538 -135596486.990448 0 0 0 0 22680991.824670792 100010735.69458008 0 100010735.69458008 -103708259.10487366 0 0 0 0 42388070.477940559 114030678.53627777 0 114030678.53627777 -207920891.10418701 0 0 0 0 -42565739.502083778 165993701.57069397 0 165993701.57069397 -274534732.19884491 0 0 0 0 -342830660.70959091 -385689324.1693306 0 -385689324.1693306 -388341906.718853 0 0 0 0 -120317276.38359356 72917409.212902069 0 72917409.212902069 46269880.628051758 0 0 0 0 -127771853.16852427 124405817.15698242 0 124405817.15698242 -33390449.434494019 0 0 0 0 841212.65405748505 -113805.99942806736 0 -113805.99942806736 -2212723.2173570842 0 0 0 0 30914759.913394928 -105928889.55290985 0 -105928889.55290985 33203496.74754715 0 0 0 0 -19805464.077456474 -23204819.240919113 0 -23204819.240919113 -89741836.934463501 0 0 0 0 -8662606.9284820557 4131266.0128116608 0 4131266.0128116608 -70196365.02444458 0 0 0 0 -18197315.787410736 3585999.5822143555 0 3585999.5822143555 -58161112.071647644 0 0 0 0 -18457120.790979385 34443536.167671204 0 34443536.167671204 -51669238.799102783 0 0 0 0 89978429.644075274 16056545.851531982 0 16056545.851531982 -218621403.36909485 0 0 0 0 87288713.249119997 12951656.497385979 0 12951656.497385979 -110092324.58914185 0 0 0 0 -11033188.659016609 -95626485.200206757 0 -95626485.200206757 -134114020.20595551 0 0 0 0 101846852.97051597 7517357.1897125244 0 7517357.1897125244 -131086103.48810577 0 0 0 0 96271914.928098679 -29541956.876594543 0 -29541956.876594543 -33588021.989387512 0 0 0 0 58665961.860692441 -54759824.845092773 0 -54759824.845092773 -73156253.484939575 0 0 0 0 179647765.29308677 -78791637.514156342 0 -78791637.514156342 -80040741.79524231 0 0 0 0 148878263.58689791 -663738.4325466156 0 -663738.4325466156 -56941788.556289673 0 0 0 0 -12226969.127088666 -89290786.753318787 0 -89290786.753318787 -44875137.033554077 0 0 0 0 45444244.350939035 -25726384.754840851 0 -25726384.754840851 -48023325.441070557 0 0 0 0 -32522133.186912537 -61420049.536338806 0 -61420049.536338806 -69456669.537662506 0 0 0 0 3599837.9449929856 -2104355.3961849045 0 -2104355.3961849045 -5264438.8460995778 0 0 0 0 -39497403.409812927 -83604875.575836182 0 -83604875.575836182 -55554804.917907715 0 0 0 0 179915025.2569499 28490041.900754929 0 28490041.900754929 -74939646.747970581 0 0 0 0 65510898.143731117 14340043.883758545 0 14340043.883758545 15010118.120807648 0 0 0 0 1123606.6261270582 -830042.36986069381 0 -830042.36986069381 -1889382.4658597112 0 0 0 0 79128011.054776669 202194394.50251484 0 202194394.50251484 -423473051.03857422 0 0 0 0 -68438420.02159977 200595238.04561234 0 200595238.04561234 -81452952.726501465 0 0 0 0 -303037409.40154076 -274653112.53990936 0 -274653112.53990936 -200168314.37078857 0 0 0 0 114747272.2147162 72193820.438087463 0 72193820.438087463 -133293726.13623047 0 0 0 0 201579530.73564768 -136920113.58200741 0 -136920113.58200741 -477272274.86186218 0 0 0 0 -808469267.86738777 53307625.978378296 0 53307625.978378296 126407174.97702026 0 0 0 0 -348634955.49150658 216883046.30230713 0 216883046.30230713 158924620.97087097 0 0 0 0 146656735.55461884 -103534896.49186707 0 -103534896.49186707 -444122696.55866432 0 0 0 0 16071191.422626495 -31055157.261703491 0 -31055157.261703491 -98171673.041755676 0 0 0 0 951188.06840619119 879006.18324366584 0 879006.18324366584 -550422.59909951128 0 0 0 0 163160317.46453667 107013480.59993744 0 107013480.59993744 -24664035.404571533 0 0 0 0 -29694941.995238781 -60854176.644104004 0 -60854176.644104004 -80506331.294158936 0 0 0 0 -30699254.707107544 -72171549.991378784 0 -72171549.991378784 15246537.481571198 0 0 0 0 35409149.973880768 -100081959.34056091 0 -100081959.34056091 -75542750.841812134 0 0 0 0 -55476319.593369246 -36444251.352058411 0 -36444251.352058411 -91267403.233337402 0 0 0 0 4148163.2704418898 24907267.374557495 0 24907267.374557495 -118520464.53013611 0 0 0 0 -54122063.674963951 -47405307.572952271 0 -47405307.572952271 -46929843.468490601 0 0 0 0 83712081.122631937 -7864565.9075584412 0 -7864565.9075584412 -208260317.57810974 0 0 0 0 133932268.1211713 50186415.768585205 0 50186415.768585205 -156111442.66896439 0 0 0 0 58899348.984332323 48672962.844581604 0 48672962.844581604 -108488192.16442108 0 0 0 0 64232807.431990266 26232880.106692314 0 26232880.106692314 -139918077.39012146 0 0 0 0 86752260.950905323 42502035.407897949 0 42502035.407897949 -128355842.55191803 0 0 0 0 90327437.999566674 34264997.384223938 0 34264997.384223938 -111141634.70639038 0 0 0 0 68908430.617765427 17344101.383148193 0 17344101.383148193 -79012547.880401611 0 0 0 0 54797828.320606232 63933625.795455933 0 63933625.795455933 -121747385.54272461 0 0 0 0 16933729.902155831 122968284.7397728 0 122968284.7397728 -146822070.79039001 0 0 0 0 102427991.8997944 83014705.364303589 0 83014705.364303589 -128150931.42266846 0 0 0 0 256442910.54667479 171809553.25669861 0 171809553.25669861 -139989167.37445831 0 0 0 0 6301335.9000487328 281126296.90409851 0 281126296.90409851 -59529268.378616333 0 0 0 0 140635651.0652647 -90006246.502498627 0 -90006246.502498627 -253555912.35403442 0 0 0 0 280885532.67615473 48447326.743110657 0 48447326.743110657 -196726925.33774376 0 0 0 0 1454308.306482743 1357540.6613527089 0 1357540.6613527089 -1116207.4041370247 0 0 0 0 153949607.59121704 264375532.15778351 0 264375532.15778351 323749794.20427704 0 0 0 0 435124435.18003386 184945558.91142941 0 184945558.91142941 -26964721.905883789 0 0 0 0 383052419.83160508 -102881774.8646698 0 -102881774.8646698 -167148107.89833069 0 0 0 0 119471099.39219666 24926960.217056274 0 24926960.217056274 -374380528.29985046 0 0 0 0 -79657893.17348671 -205608921.67466736 0 -205608921.67466736 -103812470.24084473 0 0 0 0 157210468.48515654 -98140225.355606079 0 -98140225.355606079 26635609.829849243 0 0 0 0 -3128669.2538948059 -85293315.337615967 0 -85293315.337615967 -253779406.53730774 0 0 0 0 -56295368.014955521 -50227597.872009277 0 -50227597.872009277 -173740662.85865784 0 0 0 0 -8205992.7515506744 -46662443.436607361 0 -46662443.436607361 -131374676.48048401 0 0 0 0 1868912.9319388866 -79763001.445029259 0 -79763001.445029259 -160147726.20727539 0 0 0 0 -39522278.016267776 -82684627.740188599 0 -82684627.740188599 -78026628.365644455 0 0 0 0 -18852910.810798645 -63227093.630081177 0 -63227093.630081177 -237134524.31863403 0 0 0 0 -33274365.756084442 -98299893.916809082 0 -98299893.916809082 -183965082.34098816 0 0 0 0 -22592421.691076756 -65443378.489448547 0 -65443378.489448547 -164603910.97134399 0 0 0 0 -16016668.917755127 -42555792.317962646 0 -42555792.317962646 -94008879.332939148 0 0 0 0 15815975.568281174 -137276801.63976288 0 -137276801.63976288 -270622315.83740234 0 0 0 0 22593289.519616067 -26251171.318187475 0 -26251171.318187475 -275006224.90675354 0 0 0 0 3571591.7987936754 2611112.1427930705 0 2611112.1427930705 -2808011.5653535854 0 0 0 0 5948472.8173828125 5977371.1177368164 0 5977371.1177368164 -356085388.06745815 0 0 0 0 8054987.4630088806 -89218110.829200745 0 -89218110.829200745 -359096440.50180054 0 0 0 0 48083508.635158539 69326838.787063599 0 69326838.787063599 24910173.048202515 0 0 0 0 -85483815.692836761 -35710833.393981934 0 -35710833.393981934 -304351393.78674316 0 0 0 0 -32443887.78036499 -126217288.60128784 0 -126217288.60128784 -331627493.83570862 0 0 0 0 579079.96305483254 -118768.75607453287 0 -118768.75607453287 -606004.12702819705 0 0 0 0 -78063356.331378937 -218565625.1763916 0 -218565625.1763916 -499652088.46270752 0 0 0 0 -30146825.433315277 -78269163.824462891 0 -78269163.824462891 -316131535.02029419 0 0 0 0 -23565373.420581818 -24299405.374084473 0 -24299405.374084473 -471586928.92619705 0 0 0 0 -29001880.135051727 -101409661.24873352 0 -101409661.24873352 -256134820.87791443 0 0 0 0 -64018006.729629517 -20419059.675415039 0 -20419059.675415039 -315050391.70440674 0 0 0 0 10860218.181194782 40059182.528707504 0 40059182.528707504 3572299.2038574219 0 0 0 0 55350421.466434479 33613957.233444214 0 33613957.233444214 -46719135.821807861 0 0 0 0 137127225.67041206 78646924.638717651 0 78646924.638717651 -80614464.408279419 0 0 0 0 114682596.03182793 97326883.66494751 0 97326883.66494751 -64998079.366287231 0 0 0 0 92506107.590923309 70464650.074157715 0 70464650.074157715 -10174218.146621704 0 0 0 0 74281000.530615568 88567075.801952362 0 88567075.801952362 20952035.22857666 0 0 0 0 156813956.84280157 143270302.28057098 0 143270302.28057098 -15331831.775375366 0 0 0 0 123606111.02840662 87797127.228179932 0 87797127.228179932 48232255.662216187 0 0 0 0 157983217.27274895 110241672.05090332 0 110241672.05090332 -70814275.331741333 0 0 0 0 124345755.64548588 100507375.91696167 0 100507375.91696167 17265640.7784729 0 0 0 0 165860398.39738846 107962648.7495575 0 107962648.7495575 -104697860.46032715 0 0 0 0 72995101.149023056 52201361.837020874 0 52201361.837020874 -67074371.232589722 0 0 0 0 77996945.602544308 -30099377.862030029 0 -30099377.862030029 74859437.258415222 0 0 0 0 72924199.939110875 11255267.073486328 0 11255267.073486328 -168005482.00291443 0 0 0 0 70305375.409416199 -218779951.46136475 0 -218779951.46136475 33539425.2903862 0 0 0 0 68571014.926440716 -240859269.16848755 0 -240859269.16848755 -58706469.263366699 0 0 0 0 116021970.55350304 -196494658.65316772 0 -196494658.65316772 -122442034.28567505 0 0 0 0 114397428.37387896 -180373465.87897491 0 -180373465.87897491 -50486257.957580566 0 0 0 0 103260519.18191028 -155985866.34439087 0 -155985866.34439087 -52423720.602355957 0 0 0 0 17209389.669472218 81475597.391143799 0 81475597.391143799 -14026417.537596703 0 0 0 0 184763309.7312994 138061418.82533646 0 138061418.82533646 -123454586.10154724 0 0 0 0 126800052.39098239 -132536411.23743439 0 -132536411.23743439 -29445962.833587646 0 0 0 0 -2313843.8401581408 3895855.6927768588 0 3895855.6927768588 3528431.9112757146 0 0 0 0 70070048.725732028 200729408.15605438 0 200729408.15605438 95130412.089065552 0 0 0 0 102286569.54128122 31663555.456817627 0 31663555.456817627 -94702586.279941559 0 0 0 0 615121.09597027872 20122857.81471714 0 20122857.81471714 -38978389.48544237 0 0 0 0 -58650488.426224709 61471149.868503571 0 61471149.868503571 38464903.734527588 0 0 0 0 -66630327.193618774 166409161.19856262 0 166409161.19856262 183038725.74776936 0 0 0 0 71965192.128212929 234543456.81635666 0 234543456.81635666 191372003.97374725 0 0 0 0 -4126972.9242681423 19230607.473152436 0 19230607.473152436 -34953455.763577297 0 0 0 0 32466884.579832077 156490509.00069809 0 156490509.00069809 256856847.11749268 0 0 0 0 87850017.327446222 43578568.802085161 0 43578568.802085161 -86628706.324203491 0 0 0 0 28701118.77529186 -60322944.460884094 0 -60322944.460884094 260108839.26899719 0 0 0 0 12117355.572101593 228405589.02983856 0 228405589.02983856 -208813023.73435593 0 0 0 0 60466484.743679762 -59500177.724948406 0 -59500177.724948406 -378787166.86781311 0 0 0 0 170949044.2618354 149932992.68616772 0 149932992.68616772 -77290823.810493469 0 0 0 0 93266331.244112015 36329655.810516357 0 36329655.810516357 -16674908.947166443 0 0 0 0 24507873.468196869 100379574.43177032 0 100379574.43177032 -76070543.05557251 0 0 0 0 43431842.189739943 -49906722.079507828 0 -49906722.079507828 -221455281.06358337 0 0 0 0 11602283.801441569 60070633.5757761 0 60070633.5757761 43888379.885215759 0 0 0 0 -186531501.79882145 -198701142.52047729 0 -198701142.52047729 -267443460.64657974 0 0 0 0 -8762023.0195674896 -26373159.066303253 0 -26373159.066303253 -226912996.28287888 0 0 0 0 117292388.0895853 62353692.933135986 0 62353692.933135986 149206729.2492981 0 0 0 0 202364698.41955566 116681514.42808533 0 116681514.42808533 5575562.9299621582 0 0 0 0 288502941.16818619 -321320100.29677582 0 -321320100.29677582 372289775.88947296 0 0 0 0 -1741917.7525620805 18708380.413519893 0 18708380.413519893 -37957984.250235334 0 0 0 0 142018105.54241753 166329021.57311249 0 166329021.57311249 76812816.742656708 0 0 0 0 14041028.53915198 -1425731.5256949328 0 -1425731.5256949328 -13647217.162890017 0 0 0 0 58493144.171114445 -95402317.736251831 0 -95402317.736251831 -122773882.53978729 0 0 0 0 121405969.56261826 -237020288.63261414 0 -237020288.63261414 547073430.54101562 0 0 0 0 -854954907.66220474 392731244.51341248 0 392731244.51341248 362936904.91149139 0 0 0 0 44521965.0119133 194483208.89271545 0 194483208.89271545 207070549.05825806 0 0 0 0 -281563574.6972208 721631200.68853951 0 721631200.68853951 73908558.816802979 0 0 0 0 541484762.25331593 225974161.34286499 0 225974161.34286499 1662041685.9214172 0 0 0 0 -361480257.92039871 -771568981.61778259 0 -771568981.61778259 -794700725.34951782 0 0 0 0 384442757.77429581 -493322286.5216217 0 -493322286.5216217 -1653047424.5151806 0 0 0 0 -77741810.843097687 876476243.55215454 0 876476243.55215454 -1500107157.9428711 0 0 0 0 -1326117.6822243754 13084300.99919836 0 13084300.99919836 -31391096.953269355 0 0 0 0 1445075913.6994209 1066208210.8311844 0 1066208210.8311844 -2959607892.7879486 0 0 0 0 158813942.44623494 59283226.196014404 0 59283226.196014404 -120635243.06063843 0 0 0 0 -54226835.834099293 -17213900.49407959 0 -17213900.49407959 -1709118.279914856 0 0 0 0 -165624020.35503864 -209195131.83802795 0 -209195131.83802795 -137510565.76060486 0 0 0 0 -79426379.936056137 -297957311.61708069 0 -297957311.61708069 -422364111.82705688 0 0 0 0 -93050534.791861057 -165696345.95755005 0 -165696345.95755005 -238848993.11657715 0 0 0 0 -46269685.984845161 -221279496.36943817 0 -221279496.36943817 -181743714.86196899 0 0 0 0 -111341494.49612427 -240722462.97636414 0 -240722462.97636414 -121008235.78007507 0 0 0 0 545623299.40597153 648794186.07939911 0 648794186.07939911 757211829.50457764 0 0 0 0 -1199338.1297538625 2685834.918154534 0 2685834.918154534 -3967836.8076605797 0 0 0 0 -1052574.5513163004 7890630.8525937181 0 7890630.8525937181 -19778784.337924182 0 0 0 0 -22424457.629146576 2048601.9298820496 0 2048601.9298820496 -157883296.55088806 0 0 0 0 -132174078.1446538 -354542788.18258333 0 -354542788.18258333 -595450868.81116486 0 0 0 0 -174793818.15878868 -238583309.27413559 0 -238583309.27413559 -308033529.2070694 0 0 0 0 -78548170.470323563 -233166212.48890686 0 -233166212.48890686 -345393791.50477219 0 0 0 0 9918743.207201004 -51640329.008644104 0 -51640329.008644104 -160600721.69069672 0 0 0 0 -35374533.174355745 -199152019.99560189 0 -199152019.99560189 -294691708.1100769 0 0 0 0 -228991683.70785904 -401116381.33535004 0 -401116381.33535004 -433876532.43959427 0 0 0 0 -124777919.47445965 -337804300.3606987 0 -337804300.3606987 -485522343.82250977 0 0 0 0 -158643499.14924717 -232734899.83036041 0 -232734899.83036041 -250992021.72615051 0 0 0 0 -181193560.84623718 -413094682.99661636 0 -413094682.99661636 -659508902.3011322 0 0 0 0 -336573674.32965088 -452970563.0939827 0 -452970563.0939827 -633722932.30130005 0 0 0 0 -364604845.96874595 -317239070.19897842 0 -317239070.19897842 -781282100.6789093 0 0 0 0 -234049513.14750576 -422989891.75294113 0 -422989891.75294113 -697271330.8874588 0 0 0 0 -263402438.30689621 -355837900.04337692 0 -355837900.04337692 -682169520.11072159 0 0 0 0 -158208537.63305998 -331653945.75732803 0 -331653945.75732803 -963198159.28643799 0 0 0 0 -155609588.13837075 -382688381.00190163 0 -382688381.00190163 -676048991.28808594 0 0 0 0 -240474690.8979516 -383104222.34068298 0 -383104222.34068298 -379861456.81027603 0 0 0 0 -165212920.4359169 -318695072.29981995 0 -318695072.29981995 -525729023.04672241 0 0 0 0 -297743384.67563152 -338071599.59938812 0 -338071599.59938812 -276831645.17115593 0 0 0 0 -242163353.56705046 -500780281.38782501 0 -500780281.38782501 -667956012.06072235 0 0 0 0 -240321327.54591179 -217373827.87128448 0 -217373827.87128448 -201681522.11999512 0 0 0 0 -408375683.84064293 -64981315.813812256 0 -64981315.813812256 90199311.174789429 0 0 0 0 -549709144.06196022 -350415188.51998901 0 -350415188.51998901 21301556.107822418 0 0 0 0 -465803008.62999153 -552422560.3334198 0 -552422560.3334198 -397064038.11881256 0 0 0 0 -241002727.77375412 -412230402.34435272 0 -412230402.34435272 -729116758.12045288 0 0 0 0 -725279047.75143814 -668912994.5560379 0 -668912994.5560379 -499545907.16177368 0 0 0 0 -720258789.49678528 -798809098.22667718 0 -798809098.22667718 -1089782352.3948364 0 0 0 0 -345524748.5929966 -378795944.89466858 0 -378795944.89466858 -1087814976.7191162 0 0 0 0 -278664483.66653681 -536118910.21615219 0 -536118910.21615219 -903562391.35446167 0 0 0 0 -218583484.61768818 -322968045.58637238 0 -322968045.58637238 -1094248859.1631317 0 0 0 0 -286662934.01972198 -483400792.53311157 0 -483400792.53311157 -1238658147.455719 0 0 0 0 -273589852.07555008 -397405052.14785767 0 -397405052.14785767 -1194911675.829483 0 0 0 0 -396125971.99053764 -70353090.849975586 0 -70353090.849975586 -1240091376.7515507 0 0 0 0 -346843655.50479937 -449469374.62921488 0 -449469374.62921488 -1933269754.3626099 0 0 0 0 -168045554.18550062 -322777096.29790688 0 -322777096.29790688 -952572396.25662231 0 0 0 0 -188974048.43014514 -323814471.18888092 0 -323814471.18888092 -825870353.57191467 0 0 0 0 -170304973.72993326 -400886861.00141525 0 -400886861.00141525 -1012893669.6256104 0 0 0 0 -207758041.82127261 -245222252.23244476 0 -245222252.23244476 -1082705127.3007393 0 0 0 0 -293732866.42113447 -314764454.05569077 0 -314764454.05569077 -944998664.80474091 0 0 0 0 -140136809.2606163 -244371226.2807045 0 -244371226.2807045 -984238905.6696167 0 0 0 0 -429873131.79661846 -220632801.11278534 0 -220632801.11278534 -950933294.11835766 0 0 0 0 -485266743.82984662 -597903499.86026287 0 -597903499.86026287 -446189777.65742493 0 0 0 0 -481034017.52428246 -163983729.95616531 0 -163983729.95616531 -849056658.29949951 0 0 0 0 -285644677.94616318 -251407756.04341125 0 -251407756.04341125 -948969465.05444336 0 0 0 0 -108401539.54225507 -211275813.87090683 0 -211275813.87090683 -1006038906.022583 0 0 0 0 2047539.2184981108 -426676498.84431458 0 -426676498.84431458 -903965986.42348862 0 0 0 0 -203632983.07874298 -54866241.577587128 0 -54866241.577587128 -1258347212.2453251 0 0 0 0 -144955146.41212368 -453051491.52043915 0 -453051491.52043915 -1080072391.5002327 0 0 0 0 -702233107.37433195 -202891776.62176228 0 -202891776.62176228 -725380423.43104553 0 0 0 0 -187013375.56133366 -227430150.63030624 0 -227430150.63030624 -958150764.80305481 0 0 0 0 340020686.87236786 -169174451.04715347 0 -169174451.04715347 309593890.96841431 0 0 0 0 86103092.735272408 -69822300.398952484 0 -69822300.398952484 -29984122.428955078 0 0 0 0 255669316.74489594 40082466.47366333 0 40082466.47366333 -28259958.422790527 0 0 0 0 49556321.50756073 -161763490.49017334 0 -161763490.49017334 57255853.834568024 0 0 0 0 49534892.895233154 -159079041.72652435 0 -159079041.72652435 -93742817.558166504 0 0 0 0 -51808633.738731384 -96686949.396453857 0 -96686949.396453857 -52890373.495910645 0 0 0 0 -51061658.013242006 -80589770.058112621 0 -80589770.058112621 -279101022.38937378 0 0 0 0 68620619.681743622 20574985.628189087 0 20574985.628189087 -268365641.0680542 0 0 0 0 19909785.168949127 54522123.553604126 0 54522123.553604126 -225581098.16134644 0 0 0 0 130453741.32645416 178538118.90815735 0 178538118.90815735 -633949860.58221436 0 0 0 0 29508434.511117935 29504409.064712524 0 29504409.064712524 -605882649.54101562 0 0 0 0 224290311.74920082 180282900.7062149 0 180282900.7062149 -1150140862.4009399 0 0 0 0 217088017.51368713 159783663.51826477 0 159783663.51826477 -845774028.7795105 0 0 0 0 95183779.785354614 -3084088.4412536621 0 -3084088.4412536621 -647198393.66468811 0 0 0 0 171867469.2588501 285318646.95632935 0 285318646.95632935 -609502977.1501503 0 0 0 0 299812649.07545775 381533977.59399772 0 381533977.59399772 371371094.92773438 0 0 0 0 272510618.14253998 467177446.85580444 0 467177446.85580444 -515008701.96511841 0 0 0 0 1042266339.3333778 927129398.27064514 0 927129398.27064514 -701479788.46982574 0 0 0 0 296921056.77786636 308014571.31355286 0 308014571.31355286 -601705850.8368988 0 0 0 0 126235215.08244324 249698312.72354889 0 249698312.72354889 -114696365.09625244 0 0 0 0 -989693080.08886719 -1227858346.2321625 0 -1227858346.2321625 -762988276.24163818 0 0 0 0 1098066.1006265348 638479.14515886083 0 638479.14515886083 -7061204.1100449413 0 0 0 0 -610438438.2767849 -712068210.0843277 0 -712068210.0843277 -187688408.18334198 0 0 0 0 -163767654.0334034 -675927054.32106018 0 -675927054.32106018 -934690377.07441711 0 0 0 0 -467125746.47458458 -873476601.92125702 0 -873476601.92125702 -808340928.67575455 0 0 0 0 1302558850.5835209 3043661.5851821899 0 3043661.5851821899 -882494073.2231102 0 0 0 0 535034837.16692638 -1698779780.316967 0 -1698779780.316967 -1781649649.5582733 0 0 0 0 -1247994874.4350128 -137584320.66784668 0 -137584320.66784668 -702758501.17362976 0 0 0 0 938565.59203719348 3749811.350487534 0 3749811.350487534 -16031192.035879835 0 0 0 0 825043852.10163641 269715112.01560831 0 269715112.01560831 8412968.6225585938 0 0 0 0 782902537.47990036 -105177976.4617157 0 -105177976.4617157 -49988960.390441895 0 0 0 0 281390545.39219666 -74051600.037010193 0 -74051600.037010193 92422074.003936768 0 0 0 0 348707685.41350365 139493438.77330399 0 139493438.77330399 188920530.38076782 0 0 0 0 450334078.90184402 21904529.748519897 0 21904529.748519897 -117454636.32971191 0 0 0 0 -1875443537.1146278 2172087559.9036407 0 2172087559.9036407 2608749811.6164246 0 0 0 0 -4140038231.4416409 -4160954842.8652649 0 -4160954842.8652649 -1900057384.7135925 0 0 0 0 -719588666.31951523 382275827.55110168 0 382275827.55110168 -1544970728.6635742 0 0 0 0 2110027391.3112221 1181901282.7626724 0 1181901282.7626724 -428611958.65795898 0 0 0 0 -154910.66256760526 2273070.059688706 0 2273070.059688706 -6700277.5741258487 0 0 0 0 367069361.35932159 112702198.46404648 0 112702198.46404648 -129016484.31040955 0 0 0 0 -1306189.8719383911 5749452.9419424199 0 5749452.9419424199 -12992898.881849572 0 0 0 0 313027226.77970886 -22317062.912117004 0 -22317062.912117004 -36941577.214599609 0 0 0 0 290072922.51069641 -62314019.92816925 0 -62314019.92816925 -214324368.6885376 0 0 0 0 275465512.82929993 -84904838.524688721 0 -84904838.524688721 -77886575.135227203 0 0 0 0 358233797.16532898 -11824844.652565002 0 -11824844.652565002 -200852591.46002197 0 0 0 0 212345404.82066345 -73747970.749343872 0 -73747970.749343872 -188750133.73162842 0 0 0 0 274652022.94734573 -120378462.96399689 0 -120378462.96399689 -320435607.16351318 0 0 0 0 197262992.3392334 -137954554.56355286 0 -137954554.56355286 -232754436.34991837 0 0 0 0 146081791.1283493 -136974931.60371399 0 -136974931.60371399 -239190205.37489319 0 0 0 0 208349385.40416718 -162540225.77001953 0 -162540225.77001953 -335803221.30175781 0 0 0 0 41815646.170059204 -134992804.57012939 0 -134992804.57012939 -195399435.24459076 0 0 0 0 146102520.41610718 -178205658.20594788 0 -178205658.20594788 -369751331.10675049 0 0 0 0 93919401.034858704 -94352411.221191406 0 -94352411.221191406 -208304748.73294067 0 0 0 0 263360064.70023251 -157716619.36696243 0 -157716619.36696243 -243747895.0189209 0 0 0 0 312398951.45224476 -86886693.371055603 0 -86886693.371055603 -116526935.13023376 0 0 0 0 108411121.71674156 -150930471.93026733 0 -150930471.93026733 -65334203.434082031 0 0 0 0 -77973657.427577972 -128487813.2983017 0 -128487813.2983017 -47389698.773132324 0 0 0 0 -60269110.378734589 -117814101.27922821 0 -117814101.27922821 -50607618.272323608 0 0 0 0 90904686.578536987 -131488260.96743774 0 -131488260.96743774 -244585306.85324097 0 0 0 0 47424872.787002563 -170736256.17745972 0 -170736256.17745972 -232882198.52286911 0 0 0 0 51954316.458778381 -97897816.283569336 0 -97897816.283569336 -384865749.45874023 0 0 0 0 59599515.157113075 -98753083.64973259 0 -98753083.64973259 -818833309.03729248 0 0 0 0 -25671400.478607178 -458199935.38615417 0 -458199935.38615417 -353516642.2565918 0 0 0 0 -99336432.270496368 -626610668.93730164 0 -626610668.93730164 -695295848.32843018 0 0 0 0 -50207351.084724426 -368405472.68911743 0 -368405472.68911743 -314173662.42765808 0 0 0 0 54732570.91519928 -352558576.3241272 0 -352558576.3241272 -601107901.70516968 0 0 0 0 80372584.961006165 -244354734.91972351 0 -244354734.91972351 -347261404.72027969 0 0 0 0 100379774.31669807 -243414970.54986191 0 -243414970.54986191 -391599810.55776978 0 0 0 0 187232902.6512146 -173016620.93914795 0 -173016620.93914795 -393481424.15567017 0 0 0 0 100982976.8585434 -171985216.353302 0 -171985216.353302 -331420845.98553848 0 0 0 0 52958927.004150391 -172307668.13495636 0 -172307668.13495636 -390120279.9666748 0 0 0 0 69738429.714756012 -191961723.31040192 0 -191961723.31040192 -375093263.24307251 0 0 0 0 -105338554.3319931 -294649932.87968445 0 -294649932.87968445 -373965059.99906158 0 0 0 0 -151283138.99207306 -168920927.92399597 0 -168920927.92399597 -365589500.71131134 0 0 0 0 28103522.595333099 -127387182.41542816 0 -127387182.41542816 -391301010.54559326 0 0 0 0 -95578.311321422458 424938.33008100837 0 424938.33008100837 191733.46240687743 0 0 0 0 -179277413.10084534 -341561201.91281128 0 -341561201.91281128 -315085940.8111496 0 0 0 0 -2993606.0732498169 -21994289.241722107 0 -21994289.241722107 -34371673.92729187 0 0 0 0 124823516.12065125 -30562709.074768066 0 -30562709.074768066 5923934.0392303467 0 0 0 0 760007.84509026632 909597.9181233719 0 909597.9181233719 -560330.68283439986 0 0 0 0 1018485.329715617 -642190.48217606917 0 -642190.48217606917 -641379.62615729868 0 0 0 0 -312211350.49083328 -322335780.27285004 0 -322335780.27285004 -305348305.12231445 0 0 0 0 114528934.49380684 -353484237.74235153 0 -353484237.74235153 -774374651.0546875 0 0 0 0 -94969211.718315125 -96831496.297866821 0 -96831496.297866821 -74799800.953071594 0 0 0 0 98658899.795654297 89261788.130157471 0 89261788.130157471 -15393631.901321411 0 0 0 0 175889091.65130615 -171529106.18463135 0 -171529106.18463135 -480550878.99842834 0 0 0 0 156764953.10101318 -192509262.63350677 0 -192509262.63350677 -489493213.44998169 0 0 0 0 148138276.36714172 -78466944.067459106 0 -78466944.067459106 -454730984.5345993 0 0 0 0 230143401.71474075 -136205322.39352417 0 -136205322.39352417 -436856407.02133179 0 0 0 0 255095306.46118927 -80835142.570777893 0 -80835142.570777893 -300113051.62261963 0 0 0 0 178938260.89163399 -116083454.47109985 0 -116083454.47109985 -282571721.58447266 0 0 0 0 152739758.74095917 -138743080.94744873 0 -138743080.94744873 -314071372.77615738 0 0 0 0 170632984.48327255 -110011296.36323547 0 -110011296.36323547 -416745957.9225769 0 0 0 0 31850047.778247833 -122143248.07035828 0 -122143248.07035828 -413268799.45022202 0 0 0 0 107819662.13072968 1197665.0189666748 0 1197665.0189666748 -427802310.0104599 0 0 0 0 275974725.12003326 -923703.73694610596 0 -923703.73694610596 -452880774.06663513 0 0 0 0 280952104.93463135 283888684.90237808 0 283888684.90237808 -194871578.8704071 0 0 0 0 345581934.16852188 -59206841.236434937 0 -59206841.236434937 -682632185.20233154 0 0 0 0 291389015.53093338 -134430592.43096924 0 -134430592.43096924 -717367902.80029297 0 0 0 0 634652451.81437302 -48191259.265441895 0 -48191259.265441895 -1119554872.7879791 0 0 0 0 615021954.13869858 221800091.46038818 0 221800091.46038818 -708054847.40229464 0 0 0 0 202165596.35507965 -253416459.40534973 0 -253416459.40534973 -772242127.04768372 0 0 0 0 336419145.6606102 -151481421.85997772 0 -151481421.85997772 -817949333.60229492 0 0 0 0 395623.38126905821 371092.57956106961 0 371092.57956106961 -52590.577500611544 0 0 0 0 3470807.1743127294 -821507.9626192525 0 -821507.9626192525 -2964489.0117269456 0 0 0 0 -844675243.55375671 844459913.38780212 0 844459913.38780212 312885387.30166626 0 0 0 0 2659667510.5939789 -596382075.75250244 0 -596382075.75250244 164584399.55228806 0 0 0 0 581161943.46943665 538146181.0955658 0 538146181.0955658 308096907.21957397 0 0 0 0 1259291581.226696 79445294.955482483 0 79445294.955482483 -92147414.27923584 0 0 0 0 -563775697.95531845 -46706763.427455902 0 -46706763.427455902 312257084.78210449 0 0 0 0 306843355.07793236 -826555433.59210968 0 -826555433.59210968 587690581.19616699 0 0 0 0 497233386.04504395 -280016593.13434601 0 -280016593.13434601 -162329041.6378479 0 0 0 0 -137791008.40366364 -386302394.43565369 0 -386302394.43565369 -74420018.103347778 0 0 0 0 4714985.0403648065 -1976059.5753495991 0 -1976059.5753495991 -3023595.0061721429 0 0 0 0 340260218.16299057 380225884.07843018 0 380225884.07843018 356373666.02641678 0 0 0 0 196339484.07912445 -156266304.64671326 0 -156266304.64671326 4832550.8188934326 0 0 0 0 94077358.961860657 166208094.355896 0 166208094.355896 61327924.406715393 0 0 0 0 -4199638.4689865112 -5364364.6633377075 0 -5364364.6633377075 -10772615.806388855 0 0 0 0 -8632073.9085845947 -13431693.875423431 0 -13431693.875423431 15630031.504364014 0 0 0 0 -8838246.8373012543 -17739265.05909729 0 -17739265.05909729 -4986762.5755310059 0 0 0 0 4078340.5996836545 -2113652.6573313251 0 -2113652.6573313251 -2045553.4196556583 0 0 0 0 -482074469.73618507 98717360.89642334 0 98717360.89642334 -20524208.230485916 0 0 0 0 -5540798.6313905716 1033956.251914978 0 1033956.251914978 -451324.28472900391 0 0 0 0 1934181.7281303406 -2075390.79246521 0 -2075390.79246521 -7971056.5945129395 0 0 0 0 3236234.7072315216 -5178109.5503921509 0 -5178109.5503921509 -1566155.9456939697 0 0 0 0 6491450.2680702209 13850375.178803921 0 13850375.178803921 21781279.072769165 0 0 0 0 2124481.872563839 361215.92886987701 0 361215.92886987701 -2631444.8989707679 0 0 0 0 15909028.847496033 -7911813.2479705811 0 -7911813.2479705811 -7128080.252243042 0 0 0 0 -17160532.005939484 -4840088.8923492432 0 -4840088.8923492432 -6325032.0938796997 0 0 0 0 -64670884.158336639 -124730607.45506668 0 -124730607.45506668 -33648912.052909851 0 0 0 0 6548795.060726881 52307589.490671635 0 52307589.490671635 46453578.355880737 0 0 0 0 1199240.4046170264 141440.34361432493 0 141440.34361432493 -1376221.5867729709 0 0 0 0 39996676.370155334 -29000589.446891785 0 -29000589.446891785 -50637502.237747192 0 0 0 0 60675876.947593689 -116692149.85590363 0 -116692149.85590363 -28657256.84228611 0 0 0 0 304568302.2940712 -39108904.735122681 0 -39108904.735122681 -50119139.813301086 0 0 0 0 -1471358.3535794616 -11224887.921566222 0 -11224887.921566222 -33609922.64373257 0 0 0 0 4433631.436416626 -55657763.647377014 0 -55657763.647377014 4859485.9561004639 0 0 0 0 -964261.14565658569 -31212578.055908203 0 -31212578.055908203 78521643.927612305 0 0 0 0 286960952.97369385 -87708798.101280212 0 -87708798.101280212 -51657332.423648834 0 0 0 0 -360686.54349624645 -7427183.111606543 0 -7427183.111606543 -27216365.832815707 0 0 0 0 1552471278.7171707 -604848254.90049362 0 -604848254.90049362 -634720913.96409607 0 0 0 0 338292627.23664188 637042252.26550674 0 637042252.26550674 -89047056.715103149 0 0 0 0 374345.01509996131 -3277492.6488423636 0 -3277492.6488423636 -16919037.262179911 0 0 0 0 555843466.16515732 516987788.45392609 0 516987788.45392609 -766457771.18760681 0 0 0 0 143104945.74334717 -161731141.10977936 0 -161731141.10977936 44466177.842941284 0 0 0 0 352830604.00717163 -170983739.22454834 0 -170983739.22454834 -168385344.17163086 0 0 0 0 57142970.337322235 -5070819.8273010254 0 -5070819.8273010254 -156718944.77404785 0 0 0 0 -47638086.190956116 -77637440.597396851 0 -77637440.597396851 -75029994.348869324 0 0 0 0 -27096163.540000916 -135664720.98234177 0 -135664720.98234177 -204757425.60302734 0 0 0 0 14608015.012916565 -43968.597412109375 0 -43968.597412109375 -146102611.55245209 0 0 0 0 -93311680.259902954 12828705.059371948 0 12828705.059371948 -407593943.0442276 0 0 0 0 -99533522.311523438 -124538536.62654114 0 -124538536.62654114 -388670784.23114014 0 0 0 0 -705745719.21131897 -34349901.195007324 0 -34349901.195007324 -112482102.25016785 0 0 0 0 -218822093.51457977 168760345.36473083 0 168760345.36473083 -901297508.95834351 0 0 0 0 -271650102.36755371 -283800658.00514221 0 -283800658.00514221 -2984594.8524246216 0 0 0 0 -228484320.42916107 109895227.57797241 0 109895227.57797241 -184204317.94462585 0 0 0 0 369690.17690156028 657678.56247729808 0 657678.56247729808 -301801.89144063368 0 0 0 0 -152228697.50931168 32810070.972156525 0 32810070.972156525 229601899.62992859 0 0 0 0 6865112.6672439575 -33626197.371810913 0 -33626197.371810913 -83314223.305786133 0 0 0 0 -175282142.21726608 -85165984.922309875 0 -85165984.922309875 126108024.26268005 0 0 0 0 68408732.242446899 -152956656.9712677 0 -152956656.9712677 -14875059.543365479 0 0 0 0 -60499383.227661133 -34548373.763031006 0 -34548373.763031006 52469814.301585197 0 0 0 0 -1124778.8606796861 6717012.2478589714 0 6717012.2478589714 69969187.090820312 0 0 0 0 -6014215.1346435547 58069161.601272583 0 58069161.601272583 -9195267.1615753174 0 0 0 0 201229772.46722412 508409967.47142792 0 508409967.47142792 -290941341.03286743 0 0 0 0 -1143812.0156005186 1336188.8503948972 0 1336188.8503948972 -727505.87215459347 0 0 0 0 -4237908.5989851952 -92738296.297637939 0 -92738296.297637939 -39558307.983428955 0 0 0 0 -257152112.5671382 3065186.5660514832 0 3065186.5660514832 224130686.10842896 0 0 0 0 25584356.92609787 -47711115.30305481 0 -47711115.30305481 -109940028.09464645 0 0 0 0 -1005526526.3213234 617842157.74401855 0 617842157.74401855 -280834480.61338806 0 0 0 0 -1047790649.672718 -666448747.82000732 0 -666448747.82000732 259806274.32804871 0 0 0 0 176051154.76058292 -100487775.5426712 0 -100487775.5426712 88916395.491073608 0 0 0 0 820492539.60813189 -1109439419.345768 0 -1109439419.345768 125947015.01675415 0 0 0 0 506176852.28745842 303845675.19669342 0 303845675.19669342 -130703299.10662079 0 0 0 0 266191197.31790233 -384301071.69714737 0 -384301071.69714737 -2051947289.5532532 0 0 0 0 -91776712.442596674 522993905.91063309 0 522993905.91063309 -313870587.40368652 0 0 0 0 39128744.396167755 302473716.09978485 0 302473716.09978485 -436123459.13528442 0 0 0 0 2924837.7155476362 2682086.7186100688 0 2682086.7186100688 -8954912.0495716929 0 0 0 0 -493803208.95189667 401343979.09262085 0 401343979.09262085 -312160794.94419861 0 0 0 0 -52429877.974961281 -123357572.39697266 0 -123357572.39697266 -266798616.88575745 0 0 0 0 -464369643.49506366 -867615202.58957529 0 -867615202.58957529 -1049732475.7328796 0 0 0 0 859928.11305584968 1344134.4028286291 0 1344134.4028286291 -3174225.7522215247 0 0 0 0 -1496762811.8075705 1067874535.2681274 0 1067874535.2681274 -503963397.40567017 0 0 0 0 4101302.1084599495 136460984.08019257 0 136460984.08019257 -1686493866.8857574 0 0 0 0 30775434.122417092 -232716665.04912567 0 -232716665.04912567 -1018089597.2625732 0 0 0 0 -19367504.158355713 -94948609.083099365 0 -94948609.083099365 -303385247.92786407 0 0 0 0 3180135.4403336737 -2699431.2316245064 0 -2699431.2316245064 -4994228.1725314409 0 0 0 0 289983584.81602955 -740397328.16712952 0 -740397328.16712952 886961510.82643127 0 0 0 0 149512085.14136505 -57115602.05381012 0 -57115602.05381012 -768619851.62054443 0 0 0 0 208757622.22382784 -470661135.32806396 0 -470661135.32806396 -878548186.78520203 0 0 0 0 254571720.22455883 -435729344.42376709 0 -435729344.42376709 -761075325.65093994 0 0 0 0 169838130.80176497 -423862165.36314011 0 -423862165.36314011 53434732.704238892 0 0 0 0 -135682020.19385672 -412824841.55198669 0 -412824841.55198669 737145762.67791748 0 0 0 0 287419329.67592239 -332735502.24852753 0 -332735502.24852753 80284712.625396729 0 0 0 0 272441756.819139 -337887803.33787346 0 -337887803.33787346 279588418.30458069 0 0 0 0 6998404.0064692823 -2756461.4314698726 0 -2756461.4314698726 -9420992.5652870275 0 0 0 0 470429892.01057625 -226757574.36636353 0 -226757574.36636353 -76406065.762756348 0 0 0 0 4630229.675118044 4394216.9875809681 0 4394216.9875809681 -18811356.728477448 0 0 0 0 207688000.45207912 166414797.15857768 0 166414797.15857768 110560486.96327209 0 0 0 0 -152454672.98648262 304921644.0096283 0 304921644.0096283 -432269617.35236359 0 0 0 0 7668205.8300935272 -1033084.7872218266 0 -1033084.7872218266 -7553362.2854722142 0 0 0 0 -146784837.73032951 324495935.26918793 0 324495935.26918793 -372309255.95155334 0 0 0 0 57455937.04218483 263497769.24143219 0 263497769.24143219 95507836.205459595 0 0 0 0 333293405.53268433 332623208.23881531 0 332623208.23881531 38420540.952671051 0 0 0 0 828478948.87690592 210108093.85882902 0 210108093.85882902 -196218321.9834137 0 0 0 0 85076181.022447586 351165761.66181946 0 351165761.66181946 22734247.228599548 0 0 0 0 2777400.8602095419 4409882.391803978 0 4409882.391803978 -17153701.953526959 0 0 0 0 822628311.55838084 -47872433.750296831 0 -47872433.750296831 -442722248.49188232 0 0 0 0 339640904.61066151 -48981129.734573364 0 -48981129.734573364 -527965967.68267059 0 0 0 0 366391827.83932781 -176013209.34059906 0 -176013209.34059906 21101384.124946594 0 0 0 0 62823380.121832848 338300603.79035187 0 338300603.79035187 -28406530.61145401 0 0 0 0 -71022690.512913704 818892360.7281723 0 818892360.7281723 -888676542.78077698 0 0 0 0 326314045.5762589 -159757521.82581329 0 -159757521.82581329 -807741847.25939941 0 0 0 0 -557711889.95227051 -373038015.78087616 0 -373038015.78087616 216069405.85342026 0 0 0 0 -339109672.24821472 -450224813.07505798 0 -450224813.07505798 171689101.31542206 0 0 0 0 -99938406.165939331 -111528822.11494064 0 -111528822.11494064 -12282036.898635864 0 0 0 0 -150470672.75636292 -154978904.55836487 0 -154978904.55836487 -29006068.64950943 0 0 0 0 -277215979.75537872 -696741754.96777344 0 -696741754.96777344 -721779028.19527054 0 0 0 0 -2518181.367275238 11877902.933692932 0 11877902.933692932 -155824458.37889099 0 0 0 0 286417.13279951271 261709.87175659835 0 261709.87175659835 -2350865.1707963124 0 0 0 0 -327988172.36661339 -563294413.36005402 0 -563294413.36005402 -128778345.8515625 0 0 0 0 -114605704.31510925 -459070564.51974487 0 -459070564.51974487 -578686032.57397461 0 0 0 0 -47097632.10226059 -287416509.16040039 0 -287416509.16040039 -154764689.21835327 0 0 0 0 -315972398.79040909 -526098097.39732361 0 -526098097.39732361 -18918701.154663086 0 0 0 0 -74784619.65083313 -248132938.15933228 0 -248132938.15933228 -186407457.87392235 0 0 0 0 138091389.62069702 6216845.6052703857 0 6216845.6052703857 6173804.5332336426 0 0 0 0 -385017040.78329229 -219334456.13827324 0 -219334456.13827324 19386734.366821289 0 0 0 0 28216154.481708527 395945263.00357056 0 395945263.00357056 1251152995.259346 0 0 0 0 669791904.71680832 188197084.63744354 0 188197084.63744354 -857939887.28338623 0 0 0 0 3018311.7350536603 -892113.43893729895 0 -892113.43893729895 -2631014.8529642895 0 0 0 0 1058187859.7813911 721764656.41279602 0 721764656.41279602 -741320857.83230591 0 0 0 0 357695385.41246033 199940717.99533844 0 199940717.99533844 -475635132.98253632 0 0 0 0 379901511.29024506 1062134703.0604019 0 1062134703.0604019 -36105454.034164429 0 0 0 0 -606342831.54514694 -218160615.70423889 0 -218160615.70423889 183621326.16304016 0 0 0 0 -1014436338.4867554 756639727.43040085 0 756639727.43040085 -324809265.93988037 0 0 0 0 4234984.0896492004 -755418837.82130432 0 -755418837.82130432 886526629.71045685 0 0 0 0 113429.89227454737 -741401.18338189553 0 -741401.18338189553 -5299268.4906494617 0 0 0 0 -76326783.74933815 -498188018.15134621 0 -498188018.15134621 -1695482155.4926758 0 0 0 0 -1025922415.9883652 -1839777507.0354309 0 -1839777507.0354309 552111859.23982668 0 0 0 0 78643833.930282593 105459051.65764809 0 105459051.65764809 -168661621.17251587 0 0 0 0 -738692260.15838075 429376509.47365904 0 429376509.47365904 -504884044.48150635 0 0 0 0 49645627.780385971 -108281355.57365417 0 -108281355.57365417 -261576340.24936295 0 0 0 0 -830672920.03945732 -105964045.17788696 0 -105964045.17788696 609593529.18584132 0 0 0 0 -401808550.87426442 -664706782.45002675 0 -664706782.45002675 -1209404118.4458008 0 0 0 0 -795592.13100252301 1090750.0286917388 0 1090750.0286917388 -2251312.0248546451 0 0 0 0 -400519986.88326645 -451266233.58808899 0 -451266233.58808899 -520485787.59121704 0 0 0 0 -252643657.93419647 -527768370.81185913 0 -527768370.81185913 -841411350.84881592 0 0 0 0 27029229.828035355 -338989728.29259491 0 -338989728.29259491 -1251258641.548172 0 0 0 0 -384490838.85935211 -306817066.40102386 0 -306817066.40102386 -132377846.69787598 0 0 0 0 -164995269.28578949 -274215725.44892883 0 -274215725.44892883 -566155812.78993225 0 0 0 0 -345748.80529704411 1366405.3895727359 0 1366405.3895727359 -4641463.0526030362 0 0 0 0 -281906344.67460251 -72211332.520858765 0 -72211332.520858765 -75459232.867389679 0 0 0 0 -87283500.120958328 -67074731.278305054 0 -67074731.278305054 -129682352.09683228 0 0 0 0 196062296.06375122 727988141.98768616 0 727988141.98768616 -2359720903.0939941 0 0 0 0 -142596594.81629944 -133515748.3500061 0 -133515748.3500061 -119453063.96578789 0 0 0 0 -78747296.334571838 -152960609.71777725 0 -152960609.71777725 -117301563.15185547 0 0 0 0 -91547411.430549622 -143223620.42201233 0 -143223620.42201233 -302260602.42834473 0 0 0 0 -131602084.4879303 -118461995.40734863 0 -118461995.40734863 -310360087.71752167 0 0 0 0 -45226573.920852661 -42418310.20880127 0 -42418310.20880127 -270227225.74765778 0 0 0 0 -37167644.596435547 -116395056.55844879 0 -116395056.55844879 -582039896.54342651 0 0 0 0 10926301.834869385 -129360616.46429443 0 -129360616.46429443 -588567188.93759918 0 0 0 0 -165622437.07884669 -282591378.92412853 0 -282591378.92412853 -536776838.29223633 0 0 0 0 71947384.335578918 -196941761.585495 0 -196941761.585495 -818112301.73139954 0 0 0 0 7490410.9686508179 -174236662.73600769 0 -174236662.73600769 -805300666.78540039 0 0 0 0 101520419.08644485 -15268709.897983551 0 -15268709.897983551 -832681999.24899292 0 0 0 0 182491727.55831146 -35211665.875701904 0 -35211665.875701904 -845150962.11130524 0 0 0 0 309994270.07154846 -17183676.487754822 0 -17183676.487754822 -1187085218.9922485 0 0 0 0 288650230.28567505 -69732863.518722534 0 -69732863.518722534 -1308261091.2657166 0 0 0 0 248051700.26325226 -93185997.56439209 0 -93185997.56439209 -1115724909.6927929 0 0 0 0 155388310.41469955 -136058418.28176117 0 -136058418.28176117 -1118408600.0334167 0 0 0 0 293966312.83081436 -213135139.74019623 0 -213135139.74019623 -1215355251.8753662 0 0 0 0 121223693.17775726 -196720098.66874695 0 -196720098.66874695 -1192037462.7184753 0 0 0 0 380767180.85965729 -165202327.4029541 0 -165202327.4029541 -1307875512.4212081 0 0 0 0 247883527.48524857 -395207665.91841125 0 -395207665.91841125 -919959665.83496094 0 0 0 0 137485463.22078705 -209889117.53124237 0 -209889117.53124237 -1198111074.3413582 0 0 0 0 125594238.23068237 -262717901.97505188 0 -262717901.97505188 -1136693279.2004089 0 0 0 0 -411825781.4892292 -204640807.52189827 0 -204640807.52189827 -754062698.82008362 0 0 0 0 -170337008.64174652 -218730862.17893219 0 -218730862.17893219 -1128812738.464386 0 0 0 0 83941686.571788788 -127807804.40723419 0 -127807804.40723419 -1215272709.4333038 0 0 0 0 -231166867.23641968 -28128991.304702759 0 -28128991.304702759 -1530058368.8821259 0 0 0 0 -317621047.12981033 -874777457.99610138 0 -874777457.99610138 -1062799722.8045883 0 0 0 0 -985832140.02979279 -370436063.35292435 0 -370436063.35292435 -859081054.46043396 0 0 0 0 -319409510.52384186 -490569589.73268127 0 -490569589.73268127 -869426694.43286896 0 0 0 0 -347197582.88252449 -345537158.90379333 0 -345537158.90379333 -584820190.83135986 0 0 0 0 -204586903.58700562 -329111887.7436676 0 -329111887.7436676 -787885705.14172363 0 0 0 0 -174214727.31199837 -309417186.95957947 0 -309417186.95957947 -813701412.53147888 0 0 0 0 -185287342.42764664 -181449347.78994751 0 -181449347.78994751 -988134941.30233002 0 0 0 0 -150429616.61261368 -58527530.519920349 0 -58527530.519920349 -575273813.97420812 0 0 0 0 -127204209.34641075 -172941804.1375885 0 -172941804.1375885 -368986105.59915161 0 0 0 0 -946838.49248886108 33878206.310997009 0 33878206.310997009 -211890102.40860748 0 0 0 0 272421696.94691467 -218704850.18782806 0 -218704850.18782806 -451516037.45124817 0 0 0 0 316373195.66422653 -580368191.14242554 0 -580368191.14242554 -851086342.4540863 0 0 0 0 -85593073.46451664 -209685153.83263397 0 -209685153.83263397 -404727032.90629578 0 0 0 0 14143769.32985878 -260029172.63457489 0 -260029172.63457489 -746934137.41113281 0 0 0 0 -360810947.77721214 987047932.28889465 0 987047932.28889465 -637671584.35505676 0 0 0 0 -239585562.62536335 686876741.79208469 0 686876741.79208469 -405347130.1598053 0 0 0 0 117712326.36758041 596820790.11261749 0 596820790.11261749 -628049500.99505615 0 0 0 0 -252387466.81824684 531486756.64415741 0 531486756.64415741 -305147346.41850281 0 0 0 0 405199.25259106123 1931380.4471891178 0 1931380.4471891178 -5191502.0891522914 0 0 0 0 353279468.54188728 372199716.16717529 0 372199716.16717529 -417313170.17532349 0 0 0 0 1527481.6980332162 3853455.683846958 0 3853455.683846958 -13210479.582852989 0 0 0 0 1050390481.7254696 -332569565.75143433 0 -332569565.75143433 -613951020.58733368 0 0 0 0 -88504944.771352768 -1174416174.7551956 0 -1174416174.7551956 -971251962.73081589 0 0 0 0 -79375950.747858524 -135868460.38090324 0 -135868460.38090324 -110408575.18910217 0 0 0 0 -278713551.91148233 102938265.87240982 0 102938265.87240982 -2416010864.653717 0 0 0 0 -1433694729.1227455 608841503.19838715 0 608841503.19838715 -690212527.76739502 0 0 0 0 -1390050362.9513817 -693202743.35674286 0 -693202743.35674286 -1249609733.2996826 0 0 0 0 -1171435674.8847938 1514881602.017035 0 1514881602.017035 -1208473618.5971985 0 0 0 0 168487518.13684464 478233325.69465637 0 478233325.69465637 -2378411432.6748047 0 0 0 0 -182848540.31768513 91273973.301834106 0 91273973.301834106 -796702791.56169128 0 0 0 0 -1946915.1481704712 -294626591.99346924 0 -294626591.99346924 -518107362.43760681 0 0 0 0 332324906.11671448 184081994.16814423 0 184081994.16814423 -1218624336.64151 0 0 0 0 173910211.67906857 355788581.31632113 0 355788581.31632113 -942708560.63798523 0 0 0 0 1776517.3245639801 637222588.26257324 0 637222588.26257324 -1210066467.5209885 0 0 0 0 -22683609.022211313 6214077.7545852661 0 6214077.7545852661 23875491.96194458 0 0 0 0 -891776.75089565455 94337.848411299288 0 94337.848411299288 966819.48045244813 0 0 0 0 4699331.4359827042 -70392628.636205673 0 -70392628.636205673 -904311.35955810547 0 0 0 0 608995278.62247729 -48240406.308303833 0 -48240406.308303833 -5723854.4292297363 0 0 0 0 604427021.75187302 -103192552.93173218 0 -103192552.93173218 -513021812.6842041 0 0 0 0 -239139976.14065266 140367332.29906082 0 140367332.29906082 -358033987.72906494 0 0 0 0 -73013342.818002701 -90160160.988586426 0 -90160160.988586426 229934295.28656006 0 0 0 0 -185102923.64555168 -353486256.83302307 0 -353486256.83302307 -336409424.48039722 0 0 0 0 409398805.65151691 -448981048.10910034 0 -448981048.10910034 -83119610.144348145 0 0 0 0 -345997054.93034363 90676813.029119492 0 90676813.029119492 -43176912.402496338 0 0 0 0 -467866010.22365952 -223258794.40834808 0 -223258794.40834808 22149175.441181183 0 0 0 0 -961677643.82694054 -362509962.74771881 0 -362509962.74771881 -364736593.45625305 0 0 0 0 -704179176.65054703 206750968.32253265 0 206750968.32253265 -558155260.35852051 0 0 0 0 -961591959.09256029 359610674.44238389 0 359610674.44238389 -115742622.39347839 0 0 0 0 -760641596.85586929 100522613.3811264 0 100522613.3811264 -15422307.921234131 0 0 0 0 -609087157.60707045 250173696.25575638 0 250173696.25575638 122704734.86354065 0 0 0 0 -731009470.06267929 108937382.35667801 0 108937382.35667801 202756474.53546906 0 0 0 0 -1622544.2379606906 -1306344.7297127098 0 -1306344.7297127098 -65423.944621935487 0 0 0 0 -235805154.36482239 249296330.55315781 0 249296330.55315781 43997444.697540283 0 0 0 0 -34895489.644029617 72397526.827136993 0 72397526.827136993 104446713.49382019 0 0 0 0 1394864.9917020546 -1955804.4120125696 0 -1955804.4120125696 -3286979.4124895334 0 0 0 0 3011280.0846190453 -990221.3556060791 0 -990221.3556060791 -1363341.5320739746 0 0 0 0 -856537.76007492328 -3131230.7059811503 0 -3131230.7059811503 -4609710.3869055286 0 0 0 0 2577297.5473220348 -9883152.66147995 0 -9883152.66147995 -9505633.7001647949 0 0 0 0 -22733932.735069275 -226454826.7118454 0 -226454826.7118454 160694491.94542885 0 0 0 0 -4466990.1799702644 -7803832.8202362061 0 -7803832.8202362061 -7147006.6256027222 0 0 0 0 -405422.72479772568 -6867897.783164978 0 -6867897.783164978 -7488781.2804260254 0 0 0 0 -409519.06986379623 -9681391.0144882202 0 -9681391.0144882202 -5937436.501083374 0 0 0 0 -219486.61701053591 -5674037.5753121823 0 -5674037.5753121823 -6958877.3933152556 0 0 0 0 398802137.12835312 176644671.44445801 0 176644671.44445801 -108916933.40211487 0 0 0 0 322019621.48777199 -98318182.822738647 0 -98318182.822738647 -206168817.41568756 0 0 0 0 -3594142.540725708 75444615.506500244 0 75444615.506500244 10481803.250656128 0 0 0 0 -18167535.334615707 163024823.29768181 0 163024823.29768181 -372854388.92440796 0 0 0 0 -703556288.84675229 479671227.29770064 0 479671227.29770064 -596588245.3742218 0 0 0 0 -375730617.84173584 132687658.50784302 0 132687658.50784302 -316638670.4878006 0 0 0 0 -720528963.71115303 349452101.37605286 0 349452101.37605286 -120281649.22787476 0 0 0 0 -371321893.32048798 249517461.10209656 0 249517461.10209656 -78094241.496984959 0 0 0 0 -371620722.2780838 88506699.553901672 0 88506699.553901672 -86380443.206939697 0 0 0 0 -491680110.03950119 137925973.40995026 0 137925973.40995026 69739987.501144409 0 0 0 0 -591772174.39067841 194543809.0675354 0 194543809.0675354 89170710.153717041 0 0 0 0 -728216779.19809389 108250809.17407417 0 108250809.17407417 111955684.96888733 0 0 0 0 -591812543.34214783 206195136.15006256 0 206195136.15006256 -36059051.502037048 0 0 0 0 -401168902.94068217 139168053.0930438 0 139168053.0930438 148601386.2406311 0 0 0 0 -589571094.70791245 174050924.50493622 0 174050924.50493622 211815404.30361938 0 0 0 0 -403394682.32996941 121297988.10529327 0 121297988.10529327 47853779.270477295 0 0 0 0 -137727049.65859604 107096759.55944061 0 107096759.55944061 96687600.864494324 0 0 0 0 -66546849.758708954 -1907898.4028892517 0 -1907898.4028892517 157886779.14767456 0 0 0 0 -80322908.514247894 94754739.242141724 0 94754739.242141724 -33534815.336524963 0 0 0 0 -73275421.560589433 173045172.1140852 0 173045172.1140852 115607330.54005432 0 0 0 0 2593897.2758604763 5558921.3876261041 0 5558921.3876261041 -9959159.3124833778 0 0 0 0 241190872.83856201 179598624.84475708 0 179598624.84475708 3343650.7178573608 0 0 0 0 83383710.546504974 177793409.02334595 0 177793409.02334595 176067514.67565918 0 0 0 0 19632188.295365334 8355809.6995582581 0 8355809.6995582581 -18264599.201385498 0 0 0 0 14928815.380298376 9001385.0438394547 0 9001385.0438394547 -16773148.620880127 0 0 0 0 16666313.853462219 1031399.1548919678 0 1031399.1548919678 -29178195.064697266 0 0 0 0 15050611.557535172 5253933.280456543 0 5253933.280456543 -19971862.497589111 0 0 0 0 15116963.130418777 4975578.9481239319 0 4975578.9481239319 -14238396.785415649 0 0 0 0 21881227.142990112 6780115.7562408447 0 6780115.7562408447 -22316096.696006775 0 0 0 0 17267811.517942429 12331768.557304382 0 12331768.557304382 -7217467.9662475586 0 0 0 0 29606839.057611465 22041163.774024963 0 22041163.774024963 -12087941.552032471 0 0 0 0 21989998.214689255 15149061.780326843 0 15149061.780326843 -10648865.526119232 0 0 0 0 729130.18638543785 6533983.2508789338 0 6533983.2508789338 -11440674.349856585 0 0 0 0 -26479820.495359421 37554134.256736755 0 37554134.256736755 -8705027.8216705322 0 0 0 0 -473321.23820444988 1645232.3280961458 0 1645232.3280961458 -1412265.9356332943 0 0 0 0 42355340.898396492 3229879.8162002563 0 3229879.8162002563 -14154090.732666016 0 0 0 0 9133300.9023742676 31043114.744430542 0 31043114.744430542 -20325006.200286865 0 0 0 0 26981.338546185754 8527065.2348883227 0 8527065.2348883227 -11615247.564179443 0 0 0 0 -2441548.9866580963 18285414.890960693 0 18285414.890960693 -9534473.6684494019 0 0 0 0 -5640029.1566763595 15093738.303729221 0 15093738.303729221 7257011.5279775113 0 0 0 0 11020657.157438278 33493981.793731689 0 33493981.793731689 136871186.55906868 0 0 0 0 -21103460.132720947 31282601.700637817 0 31282601.700637817 -9138939.95703125 0 0 0 0 -21435521.044559479 32890887.197517395 0 32890887.197517395 -16916234.015136719 0 0 0 0 -29990869.883078575 20942871.049465179 0 20942871.049465179 1238766.4306793213 0 0 0 0 -26275928.90640831 36157023.274032593 0 36157023.274032593 7412.5274505615234 0 0 0 0 -44150397.537591934 33016617.591392517 0 33016617.591392517 9402104.1006240845 0 0 0 0 -50794606.27636528 18470344.628944397 0 18470344.628944397 2723972.848110199 0 0 0 0 1371905.8481337316 1013893.5134179555 0 1013893.5134179555 416848.76603932679 0 0 0 0 12260738.982398987 26017597.845668793 0 26017597.845668793 -5335344.2180175781 0 0 0 0 -13116631.57717032 21202498.239708018 0 21202498.239708018 -7319119.9331883863 0 0 0 0 48204913.313876152 -49343535.383899689 0 -49343535.383899689 -698450.8044128418 0 0 0 0 -42503070.735294342 178108977.1765976 0 178108977.1765976 113948667.03422737 0 0 0 0 -100803474.6809082 148455658.03005981 0 148455658.03005981 -10586555.26979351 0 0 0 0 102306070.16400528 159446278.11486053 0 159446278.11486053 -38109396.244270325 0 0 0 0 -8674789.6645783801 25360713.609884433 0 25360713.609884433 -21063409.609243095 0 0 0 0 -98105308.849510193 49053191.752315521 0 49053191.752315521 146986671.24269104 0 0 0 0 99731232.533397675 79867764.542129517 0 79867764.542129517 -70448735.404075623 0 0 0 0 13611390.205024719 8343496.4170837402 0 8343496.4170837402 -21656346.718612671 0 0 0 0 47213283.826404572 4615977.9451217651 0 4615977.9451217651 -57393322.792915344 0 0 0 0 479641.64671441261 7376259.833522303 0 7376259.833522303 -6915492.7191877738 0 0 0 0 13287620.669130545 6159585.906828057 0 6159585.906828057 -21489108.242933631 0 0 0 0 8952172.7065734863 9012738.7056846619 0 9012738.7056846619 -19762281.196998596 0 0 0 0 14746746.304971695 732554.73140716553 0 732554.73140716553 -27891716.404006958 0 0 0 0 8363031.0462476257 8777956.1102263294 0 8777956.1102263294 -32344172.080068894 0 0 0 0 81069027.981552124 99833250.927856445 0 99833250.927856445 -199761736.97917938 0 0 0 0 -93891906.450847268 130002741.72588897 0 130002741.72588897 -75526537.340408325 0 0 0 0 -97173704.351804495 203457573.60280633 0 203457573.60280633 -136989202.16223145 0 0 0 0 145584237.06108856 11635911.245727539 0 11635911.245727539 -51408121.48505497 0 0 0 0 148688013.06664276 -65764507.594419479 0 -65764507.594419479 -21247047.939231873 0 0 0 0 131605238.63601303 -28852873.838607788 0 -28852873.838607788 -99192166.336593628 0 0 0 0 262268377.29618073 -197827999.13443756 0 -197827999.13443756 -222094047.60851836 0 0 0 0 106593822.44273949 102995449.45039749 0 102995449.45039749 -264353449.1282959 0 0 0 0 295485943.02658081 -106178161.94424438 0 -106178161.94424438 -309133930.54954529 0 0 0 0 -12413307.932109833 317116440.84999084 0 317116440.84999084 -482303591.87179565 0 0 0 0 -26618360.909645081 280424065.07795715 0 280424065.07795715 -441341454.4327774 0 0 0 0 410972437.68815613 -78415709.838485718 0 -78415709.838485718 -741891789.51634216 0 0 0 0 198885160.21181107 -90070819.013381958 0 -90070819.013381958 -217578446.11431885 0 0 0 0 -455384025.76376152 434016748.59679794 0 434016748.59679794 -353591719.54284668 0 0 0 0 -48135321.761360168 -116769342.71972656 0 -116769342.71972656 -418076094.62432861 0 0 0 0 -479868700.8012501 101129432.58315039 0 101129432.58315039 -16712793.276824951 0 0 0 0 -2458711.5622067233 3554409.9941271767 0 3554409.9941271767 624237.32094170898 0 0 0 0 -79320356.745410919 -1075302707.7978439 0 -1075302707.7978439 -590729765.99972534 0 0 0 0 254222874.87690163 231716012.13098526 0 231716012.13098526 -1238091181.7615509 0 0 0 0 -116189970.0579834 542749390.82754517 0 542749390.82754517 -887578223.33740234 0 0 0 0 -295321739.68550491 193916564.96834183 0 193916564.96834183 -95179462.202056885 0 0 0 0 -42180731.88076973 -66317320.799858093 0 -66317320.799858093 -96817939.297866821 0 0 0 0 53369025.032962799 282571058.53336334 0 282571058.53336334 -699745170.14242935 0 0 0 0 22293757.572629929 167409086.29076385 0 167409086.29076385 -98109154.743606567 0 0 0 0 -12600340.223139524 33641244.28981781 0 33641244.28981781 -73217824.725307465 0 0 0 0 8718202.3786635399 49421797.813961029 0 49421797.813961029 -75152807.824642181 0 0 0 0 2673137.389090538 91684577.798488617 0 91684577.798488617 -267021371.95168686 0 0 0 0 5021925.6165661812 -23010653.111904144 0 -23010653.111904144 -18458213.800703049 0 0 0 0 -22820628.350532025 -32129050.500993013 0 -32129050.500993013 -21444418.811180115 0 0 0 0 -2494438.7207307816 4490370.1834411621 0 4490370.1834411621 -12728190.995157242 0 0 0 0 -29263636.838934541 5855965.1074314117 0 5855965.1074314117 -10498780.997123718 0 0 0 0 -5733611.8124384396 9086696.5433057956 0 9086696.5433057956 592622.69588985294 0 0 0 0 10181638.321687341 10300529.656078339 0 10300529.656078339 -5155816.3261413574 0 0 0 0 -1763263.4754451113 -489028.72841012478 0 -489028.72841012478 2027498.5270093158 0 0 0 0 -102886326.76183701 76074539.232170105 0 76074539.232170105 30489073.01776123 0 0 0 0 -165633133.07842541 -20641602.19912529 0 -20641602.19912529 42522925.459442139 0 0 0 0 -283872069.3324852 89811731.09324646 0 89811731.09324646 40064464.881118774 0 0 0 0 -264685371.68161118 -34220800.539714336 0 -34220800.539714336 45000309.138366699 0 0 0 0 -30741922.016727448 -44036288.5666852 0 -44036288.5666852 -30208845.966148019 0 0 0 0 -14195183.974915206 -15780682.081732988 0 -15780682.081732988 -16632760.918262482 0 0 0 0 -29010247.067883492 -20287187.784076214 0 -20287187.784076214 -10166864.577198029 0 0 0 0 -20157688.152581558 -14446343.355176002 0 -14446343.355176002 -26285502.053543359 0 0 0 0 -8959857.4295971841 28903292.716325641 0 28903292.716325641 -67322167.709255219 0 0 0 0 -4673609.9924683832 -16952745.413785215 0 -16952745.413785215 -56954419.955547392 0 0 0 0 -39274429.21925354 -52380250.724074364 0 -52380250.724074364 -99023005.301010132 0 0 0 0 -32257753.936988831 -30852090.611211777 0 -30852090.611211777 -33317307.28595686 0 0 0 0 -34887097.013538361 -51201380.727802277 0 -51201380.727802277 -99001542.817047119 0 0 0 0 -22171394.365447998 -59458025.727740288 0 -59458025.727740288 -115972908.83100128 0 0 0 0 -17980576.464241028 -58167895.186594009 0 -58167895.186594009 -147713591.40675354 0 0 0 0 2306787.0195446014 -55059155.980883241 0 -55059155.980883241 -117095096.33816147 0 0 0 0 4046596.840133667 -38592257.328239441 0 -38592257.328239441 -103434172.69882202 0 0 0 0 -7429988.6843681335 -51139187.232002258 0 -51139187.232002258 -117666520.37778854 0 0 0 0 -72059913.856237411 -3666282.4054336548 0 -3666282.4054336548 179148081.01912308 0 0 0 0 -1967267.807629657 3982782.0524427406 0 3982782.0524427406 10726243.793414488 0 0 0 0 27328967.812298659 25450870.905146684 0 25450870.905146684 -60918196.936422795 0 0 0 0 -15407811.714782715 -37726181.209289551 0 -37726181.209289551 -137931657.80547714 0 0 0 0 -14907539.783336639 -51029651.439283371 0 -51029651.439283371 -183210197.92573166 0 0 0 0 -11580273.002933502 -35257144.335565567 0 -35257144.335565567 -167748700.27100372 0 0 0 0 11230139.794586128 13122048.762876134 0 13122048.762876134 -38879734.558249846 0 0 0 0 19793624.370372772 41615834.6121521 0 41615834.6121521 -5900525.043548584 0 0 0 0 30332003.126066685 47251417.89591217 0 47251417.89591217 50220499.756488919 0 0 0 0 24363391.064469337 34691303.094963074 0 34691303.094963074 -4822612.0301208496 0 0 0 0 64066043.358299583 51492748.083084106 0 51492748.083084106 50261051.446716309 0 0 0 0 4360043.6510367468 22600210.4544238 0 22600210.4544238 -21041032.673468277 0 0 0 0 6856008.3086738586 13548827.005146027 0 13548827.005146027 -6901656.3078231812 0 0 0 0 -10807118.363254953 -7140801.1034113541 0 -7140801.1034113541 -14301093.105175141 0 0 0 0 34083731.324793339 37179171.410102844 0 37179171.410102844 17986294.871154785 0 0 0 0 27259340.867271423 45949264.146759033 0 45949264.146759033 53674182.686004639 0 0 0 0 -866311.72918520286 26279851.605979402 0 26279851.605979402 14776810.656617109 0 0 0 0 11228166.87556839 19930705.817958832 0 19930705.817958832 48963.611846923828 0 0 0 0 18622795.782651011 53487111.084185645 0 53487111.084185645 -31378243.464255851 0 0 0 0 10904926.331338739 33375270.245094616 0 33375270.245094616 -34593957.978717387 0 0 0 0 390305.73657423677 11193906.957244717 0 11193906.957244717 11996328.870533504 0 0 0 0 -2265148.0775260925 52217474.89453125 0 52217474.89453125 142640121.44274902 0 0 0 0 44899788.157748222 68365260.975814819 0 68365260.975814819 138638528.03820801 0 0 0 0 2410327.3847872373 1239645.718046844 0 1239645.718046844 -3561186.0471674949 0 0 0 0 39071792.282024384 111373229.2111969 0 111373229.2111969 121543468.54774475 0 0 0 0 143875711.09323883 96889091.309295654 0 96889091.309295654 -29338485.921691895 0 0 0 0 -6678394.8239364624 19824993.903656006 0 19824993.903656006 18154532.52130127 0 0 0 0 -7831033.8388437089 24147644.935875036 0 24147644.935875036 47619697.932300009 0 0 0 0 -10857657.406915236 14194326.286710799 0 14194326.286710799 10851426.588388894 0 0 0 0 -2344456.6052708765 13624527.040011186 0 13624527.040011186 -854884.73375123739 0 0 0 0 -52456541.857319832 31062203.527664185 0 31062203.527664185 93581864.956726074 0 0 0 0 -44078678.278408051 3432405.0443496704 0 3432405.0443496704 41647501.150817871 0 0 0 0 5961038.7133778334 119065118.51782656 0 119065118.51782656 144321326.61703491 0 0 0 0 10040750.107515335 146650175.17672729 0 146650175.17672729 22716607.016052246 0 0 0 0 125371228.72541809 104689354.05493164 0 104689354.05493164 5525884.3299865723 0 0 0 0 170326347.96421623 55137064.162994385 0 55137064.162994385 19502310.838256836 0 0 0 0 -17825502.229762554 77360145.429924011 0 77360145.429924011 180010567.31863403 0 0 0 0 -66510266.017168045 -84517921.912071228 0 -84517921.912071228 351526052.05112457 0 0 0 0 110589700.32130051 144830855.93328857 0 144830855.93328857 -87587275.794708252 0 0 0 0 -31553226.327646255 -126116797.790802 0 -126116797.790802 33257781.832252502 0 0 0 0 148048008.13188338 157464521.9223237 0 157464521.9223237 -23809733.878662109 0 0 0 0 3050391.3503615404 5333917.3435816243 0 5333917.3435816243 -7940566.3855503947 0 0 0 0 -11483977.29238987 82981435.029525757 0 82981435.029525757 230340085.27989197 0 0 0 0 224392869.94896412 333662468.93681335 0 333662468.93681335 50258738.96496582 0 0 0 0 47716160.617133617 149342433.64318848 0 149342433.64318848 -247703892.51934814 0 0 0 0 -85136562.351154327 19240597.768657684 0 19240597.768657684 -92711666.500518799 0 0 0 0 13453202.875957489 184128218.77740479 0 184128218.77740479 -52470017.77911377 0 0 0 0 -81166287.240436554 43821475.93208313 0 43821475.93208313 317743324.93139648 0 0 0 0 34013500.284379892 32342021.638166845 0 32342021.638166845 -64392630.715184256 0 0 0 0 134252767.20830011 321633378.71413612 0 321633378.71413612 248070267.56858826 0 0 0 0 -23072513.270708084 105268765.22208023 0 105268765.22208023 62486619.967803955 0 0 0 0 -21164975.754444122 -26887610.762786865 0 -26887610.762786865 -4403959.4645233154 0 0 0 0 1805849.8398807752 1458574.965769032 0 1458574.965769032 1813219.7722779661 0 0 0 0 275342723.19550514 416733508.49621201 0 416733508.49621201 -424958382.14857483 0 0 0 0 -137283866.83259392 -101093919.74478149 0 -101093919.74478149 162401175.90507507 0 0 0 0 -118472526.15895653 -46108802.610351562 0 -46108802.610351562 256039920.90918732 0 0 0 0 -12509032.329896212 50184719.469185352 0 50184719.469185352 189085063.74746704 0 0 0 0 -151206699.63362026 140244565.13397217 0 140244565.13397217 178926971.36883545 0 0 0 0 -210081269.34644938 -34740108.544803619 0 -34740108.544803619 309279144.57902527 0 0 0 0 -292196337.91710854 12281571.228179932 0 12281571.228179932 87386950.821411133 0 0 0 0 -144589123.9501152 24781415.171470642 0 24781415.171470642 -227108461.30543518 0 0 0 0 4219579.2056772336 1365445.9787019975 0 1365445.9787019975 -8121666.8772107363 0 0 0 0 -232857451.70762825 152197735.33520508 0 152197735.33520508 100677637.51489258 0 0 0 0 -101658529.46265411 -405999911.4104538 0 -405999911.4104538 439087701.88592529 0 0 0 0 -161841671.11047485 -534179350.31771851 0 -534179350.31771851 -581223024.08674622 0 0 0 0 2770818.1959481435 -325340.10961875133 0 -325340.10961875133 -4371091.5572100729 0 0 0 0 -523384838.004776 -87612516.944202423 0 -87612516.944202423 -163525971.67062378 0 0 0 0 32548725.213691711 -57276847.953826904 0 -57276847.953826904 -649809078.53432584 0 0 0 0 16845945.922812462 -193886720.00467682 0 -193886720.00467682 -268835425.58227539 0 0 0 0 294054905.09247601 122155008.86078644 0 122155008.86078644 -297717573.24035645 0 0 0 0 220606505.12571347 -145672688.84922028 0 -145672688.84922028 -149478306.68359375 0 0 0 0 72828562.852117985 17860854.236370087 0 17860854.236370087 -330170569.21435547 0 0 0 0 -38861215.354343057 -323988790.95051575 0 -323988790.95051575 -525622928.99879456 0 0 0 0 -11475223.916262925 -42816920.289672852 0 -42816920.289672852 -115911942.07491302 0 0 0 0 -155064610.5153656 -426543643.7494812 0 -426543643.7494812 -767696578.51011658 0 0 0 0 -153638474.94962895 -650513444.85950613 0 -650513444.85950613 -1010225768.0327606 0 0 0 0 75594982.142045021 -299296279.1170578 0 -299296279.1170578 -824297690.03663635 0 0 0 0 -81324977.098258972 -372574147.03695679 0 -372574147.03695679 -646278223.6165725 0 0 0 0 27047912.973331451 -314884553.25017548 0 -314884553.25017548 -1003413145.6700592 0 0 0 0 -238840162.16872215 -832323338.05993652 0 -832323338.05993652 -1260146209.0062866 0 0 0 0 -18807574.962493896 -259137075.00576782 0 -259137075.00576782 -1707886850.6101074 0 0 0 0 -59222663.570449829 -364981152.98204803 0 -364981152.98204803 -952531515.17474365 0 0 0 0 -44111340.022285461 -12641188.272384644 0 -12641188.272384644 -966356304.77211761 0 0 0 0 -95171375.085224152 -31970972.115058899 0 -31970972.115058899 -1242262187.2659607 0 0 0 0 -177875967.84429932 -212640338.4025116 0 -212640338.4025116 -1145506925.7272644 0 0 0 0 -152835071.82158852 -104981418.6506958 0 -104981418.6506958 -764418183.68380737 0 0 0 0 -310032184.20217133 193849816.61785889 0 193849816.61785889 -505642855.50897217 0 0 0 0 -57389485.450594902 -166174732.86112595 0 -166174732.86112595 -521143273.87957764 0 0 0 0 -65822126.598464966 62844104.967102051 0 62844104.967102051 -692334924.91819 0 0 0 0 -433071746.57329559 255235743.01593018 0 255235743.01593018 -237825416.38679504 0 0 0 0 -239594431.61748505 221179370.98164368 0 221179370.98164368 -873726681.83770752 0 0 0 0 -355626760.87942886 32489173.184806824 0 32489173.184806824 -613946742.97775269 0 0 0 0 -389221295.54100037 17485886.169891357 0 17485886.169891357 -1363939669.3678436 0 0 0 0 -273833098.55045319 331276600.4390564 0 331276600.4390564 -1263891022.7060852 0 0 0 0 -480419124.02772522 529265372.77093506 0 529265372.77093506 -1408743824.3255615 0 0 0 0 -499692621.92785645 52609835.595024109 0 52609835.595024109 -666555007.58877563 0 0 0 0 -177832398.04940796 -111194907.47541046 0 -111194907.47541046 -2203903730.8638306 0 0 0 0 -647604089.67556763 736700288.18838501 0 736700288.18838501 -2938538171.7944183 0 0 0 0 4090646.8114452362 -645440468.181633 0 -645440468.181633 -3583723737.9730835 0 0 0 0 -1123098985.898427 -1862026733.6126509 0 -1862026733.6126509 -2192474097.204422 0 0 0 0 -325058159.01690674 -733680726.02259827 0 -733680726.02259827 -1690076341.5822601 0 0 0 0 -57435557.350357056 -45397982.228500366 0 -45397982.228500366 -2114027984.375946 0 0 0 0 -164628263.40169716 -903669271.54411316 0 -903669271.54411316 -2107130218.2373047 0 0 0 0 865523277.54623032 399488505.84700775 0 399488505.84700775 -2141039554.3050537 0 0 0 0 416556495.94723129 -574278295.98305511 0 -574278295.98305511 -3329452082.4888306 0 0 0 0 700910816.15515137 17311569.10949707 0 17311569.10949707 -2251227724.8924561 0 0 0 0 157057030.3708725 -878683857.9876709 0 -878683857.9876709 -2832103773.2657471 0 0 0 0 -960661971.60829163 -1758671937.6309814 0 -1758671937.6309814 -2948204351.3552322 0 0 0 0 -2626849504.1205368 -259411268.21002197 0 -259411268.21002197 -1423727786.456543 0 0 0 0 398314209.55700684 680750.1393737793 0 680750.1393737793 -1552109595.3908997 0 0 0 0 237759444.1103096 49388768.535476685 0 49388768.535476685 -1183046281.2093811 0 0 0 0 294038880.54028511 436685656.37736893 0 436685656.37736893 -1234022219.8870239 0 0 0 0 386261829.35490417 279581359.69522095 0 279581359.69522095 -1222792317.5006104 0 0 0 0 358893483.26638794 166531356.52868652 0 166531356.52868652 -1560391846.4804077 0 0 0 0 359308976.81629181 -337348739.28616333 0 -337348739.28616333 -1809181342.8634949 0 0 0 0 450618836.40159607 -140259280.13870239 0 -140259280.13870239 -2243099562.6846313 0 0 0 0 528416667.89021492 266620001.69595337 0 266620001.69595337 -1653047092.6463623 0 0 0 0 274896830.62030792 -356032523.5065155 0 -356032523.5065155 -1845099583.7255249 0 0 0 0 477369814.21056461 13156147.098129272 0 13156147.098129272 -1623992424.8721313 0 0 0 0 394613853.54024887 -170815190.88811493 0 -170815190.88811493 -1541913014.1989441 0 0 0 0 398480274.22859192 17468867.977035522 0 17468867.977035522 -1380420094.0149231 0 0 0 0 -265589375.14978981 -504871667.88009644 0 -504871667.88009644 -627677007.98677063 0 0 0 0 396275076.31230927 -224218938.97128296 0 -224218938.97128296 -1472092923.9506836 0 0 0 0 364439337.80860138 -416212942.42987061 0 -416212942.42987061 -1557020735.8129272 0 0 0 0 360424620.99687958 -326964895.82054138 0 -326964895.82054138 -1861171342.8586426 0 0 0 0 -618598551.89894867 -999550241.56316376 0 -999550241.56316376 -1315481726.419075 0 0 0 0 -637987.90488902479 -366784.80596092343 0 -366784.80596092343 468339.27268177271 0 0 0 0 -712558965.52835083 -1379724914.6815872 0 -1379724914.6815872 -1770406488.6948967 0 0 0 0 1045499383.1303997 275505838.26296234 0 275505838.26296234 -1010365058.8391418 0 0 0 0 -28687820.681144714 -683986406.32327271 0 -683986406.32327271 -1481825040.4013653 0 0 0 0 -133945933.50450134 -870478566.68322754 0 -870478566.68322754 -1994121269.0701599 0 0 0 0 -25996170.854984283 261869887.97676086 0 261869887.97676086 101099155.84854126 0 0 0 0 -3559620.2432092507 1023975.6641625986 0 1023975.6641625986 3956486.1193217039 0 0 0 0 -24148022.710906982 -281112204.24886322 0 -281112204.24886322 146126442.85848999 0 0 0 0 365178868.64138031 -80478104.698631287 0 -80478104.698631287 27856445.820449829 0 0 0 0 -44142066.253463745 -114948165.75106812 0 -114948165.75106812 -415481005.26872253 0 0 0 0 87991846.537117958 -103765157.22962189 0 -103765157.22962189 -433653341.52363586 0 0 0 0 -727001.45171471499 1162896.8831831329 0 1162896.8831831329 -537617.78986398131 0 0 0 0 277456673.7810359 -273081703.8310709 0 -273081703.8310709 80796161.410842896 0 0 0 0 447136626.36000061 56359958.560913086 0 56359958.560913086 -131867036.12324524 0 0 0 0 9029984.7487449646 -132690073.7009964 0 -132690073.7009964 93458175.121673584 0 0 0 0 -7924589.192485516 9794519.5933577605 0 9794519.5933577605 8078622.0086029246 0 0 0 0 -112455698.1967926 40933432.241294861 0 40933432.241294861 105796516.49171448 0 0 0 0 -8834899.6512346268 -161347490.35938644 0 -161347490.35938644 71095114.006896973 0 0 0 0 -103786846.52788544 15173176.961761475 0 15173176.961761475 138608731.58635807 0 0 0 0 -15932622.972180367 89666584.280380249 0 89666584.280380249 96951359.729827881 0 0 0 0 -174678348.33893967 65741352.308044434 0 65741352.308044434 111710174.96323776 0 0 0 0 -119870681.2520771 -20443916.439064026 0 -20443916.439064026 9351328.1928100586 0 0 0 0 -111881452.22083282 165009844.52322388 0 165009844.52322388 -373869251.47447205 0 0 0 0 -162725325.05948305 -29193087.196523666 0 -29193087.196523666 -358453604.21496582 0 0 0 0 -310965325.93027115 136634687.45726776 0 136634687.45726776 -66405516.367584229 0 0 0 0 -213434169.09619141 -103919172.22406006 0 -103919172.22406006 -176499691.96759796 0 0 0 0 -174827578.78191757 12829047.846405029 0 12829047.846405029 53526566.463287354 0 0 0 0 -51217719.317088544 35700968.832805634 0 35700968.832805634 -878845751.11737061 0 0 0 0 67461519.73673287 100789518.88696289 0 100789518.88696289 -860532950.52194214 0 0 0 0 -1179256.7144345548 92110437.941741943 0 92110437.941741943 -916332617.59526062 0 0 0 0 -72747168.758213669 132653150.70068359 0 132653150.70068359 -938660237.89250183 0 0 0 0 -267353289.99123693 124506096.54205322 0 124506096.54205322 -914490818.94607544 0 0 0 0 -52443360.450159609 78581469.192314148 0 78581469.192314148 -1074485512.6097412 0 0 0 0 382298.63268168608 433874212.45745087 0 433874212.45745087 -1204449337.250885 0 0 0 0 29703468.528048217 197657787.73576355 0 197657787.73576355 -901948103.71523285 0 0 0 0 66180304.981029525 138777055.6378212 0 138777055.6378212 -807497474.57559204 0 0 0 0 134365586.1227738 102273444.74282837 0 102273444.74282837 -813390003.89427185 0 0 0 0 79924927.059185982 175352713.03549194 0 175352713.03549194 -719096444.01255798 0 0 0 0 136228021.34954396 82392352.960182667 0 82392352.960182667 -696259895.08287048 0 0 0 0 167940348.72004455 -25803964.381790161 0 -25803964.381790161 -787241078.69947815 0 0 0 0 71164487.922978699 71432952.672302246 0 71432952.672302246 -740518360.81881714 0 0 0 0 75339447.156627387 -188852573.55258179 0 -188852573.55258179 -849543095.44064331 0 0 0 0 77368231.047116131 51038543.477653503 0 51038543.477653503 -801927278.73590088 0 0 0 0 135936602.4795109 -80295429.284744263 0 -80295429.284744263 -666178884.73366547 0 0 0 0 244332781.21347591 70856560.291801453 0 70856560.291801453 -684525783.40682983 0 0 0 0 118519923.08495909 111972770.10301208 0 111972770.10301208 -411683047.44972229 0 0 0 0 105676760.3317163 -51389335.194740295 0 -51389335.194740295 -573110019.04718018 0 0 0 0 139970766.14536726 -37372943.094192505 0 -37372943.094192505 -577883233.63616943 0 0 0 0 75134942.024486423 -127316427.89041138 0 -127316427.89041138 -595125895.40356255 0 0 0 0 109998255.6652441 -73246724.690757751 0 -73246724.690757751 -592099517.0171814 0 0 0 0 -48076309.851304807 -191318880.03964996 0 -191318880.03964996 -524777355.26069641 0 0 0 0 -41349886.985117674 -111890622.87168884 0 -111890622.87168884 -432859445.91607666 0 0 0 0 4019586.8927794993 -8505179.4210510254 0 -8505179.4210510254 -822057422.67973328 0 0 0 0 -5343862.5561318314 41281976.572128296 0 41281976.572128296 -1031846560.2819672 0 0 0 0 8291.7562596500593 4236537.6823145486 0 4236537.6823145486 3388621.6292724609 0 0 0 0 -143717762.42655912 -449878748.48717499 0 -449878748.48717499 -1205338430.431675 0 0 0 0 399155.98989392817 69583.906128205359 0 69583.906128205359 -1355621.9192568809 0 0 0 0 3215542.9222632367 3344171.5604324341 0 3344171.5604324341 356175.30987548828 0 0 0 0 -32191189.985916197 -159898468.23130035 0 -159898468.23130035 -419765854.97915649 0 0 0 0 90272.768073677333 670671.33444319665 0 670671.33444319665 -1678304.4910524935 0 0 0 0 3168062.7669977052 5653697.9020653963 0 5653697.9020653963 966862.04656982422 0 0 0 0 3567844.2560414486 2385300.9064788818 0 2385300.9064788818 -1701222.0860900879 0 0 0 0 -7441.1919462580581 6447205.8092727661 0 6447205.8092727661 -2294295.2763824463 0 0 0 0 5297577.0828811899 5095039.6520843506 0 5095039.6520843506 -11100666.723815918 0 0 0 0 5771127.6766864359 2494119.2198638916 0 2494119.2198638916 -2700287.8224182129 0 0 0 0 4212597.5166068152 582335.00869750977 0 582335.00869750977 -4638702.0431671143 0 0 0 0 7297494.2272290103 -7411032.3400793076 0 -7411032.3400793076 761826.06994628906 0 0 0 0 -41871.868889989193 97346.772967785597 0 97346.772967785597 -95998.219020783901 0 0 0 0 -134973.38525533676 4172649.9796447754 0 4172649.9796447754 -24684586.449069977 0 0 0 0 30761439.347680211 21489501.58782959 0 21489501.58782959 -22465677.105163574 0 0 0 0 7928164.8356902748 -4701130.1666717529 0 -4701130.1666717529 -12125415.342224121 0 0 0 0 839.02799884018782 7494890.5967025757 0 7494890.5967025757 -66519151.08530426 0 0 0 0 -18554731.342951626 30219.845489501953 0 30219.845489501953 3993839.3371582031 0 0 0 0 -1419936.5808628201 4175047.5814819336 0 4175047.5814819336 -12993512.215278625 0 0 0 0 -2499165.6466363072 3110669.0568084717 0 3110669.0568084717 -10125019.175796509 0 0 0 0 -3803483.5663296878 4336293.7489624023 0 4336293.7489624023 -8847298.0713500977 0 0 0 0 -1942746.9605792463 2786759.2284240723 0 2786759.2284240723 -24844086.278091431 0 0 0 0 -1612198.3358641863 1097308.0425415039 0 1097308.0425415039 -6868605.6526641846 0 0 0 0 4016918.6847411916 656212.61684417725 0 656212.61684417725 -1285822.5965881348 0 0 0 0 -91212.564715557441 309936.8182182461 0 309936.8182182461 -375333.99752861261 0 0 0 0 -1035122.0370699838 3757744.0619182587 0 3757744.0619182587 -9880340.7672729492 0 0 0 0 -4014099.2411172986 553266.03409576416 0 553266.03409576416 1255847.9925537109 0 0 0 0 -247941.99362633459 37593.991919547319 0 37593.991919547319 315649.24208879471 0 0 0 0 -14877761.862870939 -40700965.894900799 0 -40700965.894900799 -17798537.854949951 0 0 0 0 -388875.68388668273 1508551.3450239375 0 1508551.3450239375 51590.464350506663 0 0 0 0 13438014.115234613 98097191.97026062 0 98097191.97026062 -202149116.82386017 0 0 0 0 3276976.8719235808 1634518.358581543 0 1634518.358581543 -1424126.7678127289 0 0 0 0 -10329348.623115065 33737867.759128571 0 33737867.759128571 -114214015.96887207 0 0 0 0 -254896.45111406181 1180723.8548872992 0 1180723.8548872992 -1483884.6527016163 0 0 0 0 -45057603.830618024 -103959731.21080017 0 -103959731.21080017 -130321517.63260269 0 0 0 0 42735940.019841433 -27572979.142326355 0 -27572979.142326355 -275286854.25369263 0 0 0 0 57486020.260005116 -32160736.369613647 0 -32160736.369613647 -425560506.33868408 0 0 0 0 80193995.705862164 -66579347.12853241 0 -66579347.12853241 -421137111.70611572 0 0 0 0 71883846.195052862 -34820708.270599365 0 -34820708.270599365 -478771394.10044861 0 0 0 0 94533780.120520353 50306549.857879639 0 50306549.857879639 -463308485.89475632 0 0 0 0 -79922854.865841627 22462272.327423096 0 22462272.327423096 -496526541.68449402 0 0 0 0 -107378537.33888936 261843715.95292664 0 261843715.95292664 -188446471.19192505 0 0 0 0 -258202.39611984883 162969.49150806293 0 162969.49150806293 142681.75270652771 0 0 0 0 83406475.937156439 1745000.5217285156 0 1745000.5217285156 -520744965.16445923 0 0 0 0 115181581.983325 -121536531.46302795 0 -121536531.46302795 -6139561.8294677734 0 0 0 0 52261433.984494925 91421.696731567383 0 91421.696731567383 -453289024.76666641 0 0 0 0 727444.39885139465 89435720.902313232 0 89435720.902313232 -658352721.98724365 0 0 0 0 -40496.711452433025 68125.505477637053 0 68125.505477637053 -341377.63849938661 0 0 0 0 -6082859.5321667194 60072975.056739807 0 60072975.056739807 -663460660.81375122 0 0 0 0 165263600.17619944 -12776557.800537109 0 -12776557.800537109 -459037852.71807861 0 0 0 0 181837847.25241208 92270413.119316101 0 92270413.119316101 -95495637.602722168 0 0 0 0 992798.91905642301 4656002.2480564117 0 4656002.2480564117 -744639.00689697266 0 0 0 0 -49269.213659864792 1594987.7940926328 0 1594987.7940926328 -2474185.2183080912 0 0 0 0 14605089.127802849 -24993885.34463501 0 -24993885.34463501 -122904189.67570877 0 0 0 0 -371563.69670820038 1478288.1749206111 0 1478288.1749206111 26005.208520844579 0 0 0 0 590113.54351054877 2692394.5012264252 0 2692394.5012264252 68125.963684082031 0 0 0 0 -1533049.2887806892 3071199.1582336426 0 3071199.1582336426 1065.2694549560547 0 0 0 0 794891.24261456728 2894625.2006072998 0 2894625.2006072998 -7750196.3638000488 0 0 0 0 -2707012.3586821705 4983066.9685630798 0 4983066.9685630798 -2947983.1109619141 0 0 0 0 3276566.0467850864 3865130.6722412109 0 3865130.6722412109 -3309589.7233734131 0 0 0 0 614260.83502590656 1701040.6588745117 0 1701040.6588745117 -2471777.8748397827 0 0 0 0 -311461.98712062836 5004735.4146957397 0 5004735.4146957397 -817062.48217773438 0 0 0 0 -249096.95435920358 258466.80265808105 0 258466.80265808105 -3134330.2918395996 0 0 0 0 -1714892.2191363052 -329636.72923660278 0 -329636.72923660278 -6078847.0521850586 0 0 0 0 802457.54802960157 321241.81832885742 0 321241.81832885742 -7386535.9459123611 0 0 0 0 154018452.32636309 136458237.48070526 0 136458237.48070526 91782091.348556519 0 0 0 0 19489736.829265118 125672616.35853577 0 125672616.35853577 101499744.89627075 0 0 0 0 -350954.47912033636 1517834.9847894125 0 1517834.9847894125 -2058158.8444164544 0 0 0 0 1977160.7140735388 1189898.885269165 0 1189898.885269165 -4515116.3675432205 0 0 0 0 -218160.84860132798 1589057.5767098144 0 1589057.5767098144 -2462870.4289070666 0 0 0 0 216899476.38204026 186545001.24785614 0 186545001.24785614 37396118.23916626 0 0 0 0 173106201.18640208 51289755.733243942 0 51289755.733243942 -69571874.695770264 0 0 0 0 70699569.659701467 89417771.874450684 0 89417771.874450684 -302767118.44487 0 0 0 0 79685484.05110693 -10752219.457748413 0 -10752219.457748413 -21232906.69216156 0 0 0 0 99450282.490329981 788853.24237060547 0 788853.24237060547 41801209.563938141 0 0 0 0 110308912.64552128 80591939.406608582 0 80591939.406608582 -199755466.07156372 0 0 0 0 104022774.6954062 4416437.4950714111 0 4416437.4950714111 -454234830.60037231 0 0 0 0 89787653.67769289 -55936140.183807373 0 -55936140.183807373 -218343559.98071671 0 0 0 0 74090410.75109306 -67831188.79022789 0 -67831188.79022789 -305654478.62261963 0 0 0 0 103942206.38081193 13150079.471824646 0 13150079.471824646 -560725898.89629984 0 0 0 0 189021631.44607282 9795949.7626647949 0 9795949.7626647949 -560959294.69459534 0 0 0 0 137212776.9577136 122894455.4817276 0 122894455.4817276 -408787044.34809875 0 0 0 0 125293485.92694378 -148054186.98216248 0 -148054186.98216248 -873141798.80369568 0 0 0 0 341078.63828190404 117877.43254379928 0 117877.43254379928 -346273.31821209565 0 0 0 0 -10554542.774855256 -32720473.549217224 0 -32720473.549217224 -571057137.22128296 0 0 0 0 138728162.32521057 -51192850.498855591 0 -51192850.498855591 -569202740.66062927 0 0 0 0 86926267.223096371 10525988.955192566 0 10525988.955192566 -587251587.85037231 0 0 0 0 5685730.3681895733 15860519.406021118 0 15860519.406021118 -575256556.98860168 0 0 0 0 107200203.38862133 22492206.447067261 0 22492206.447067261 -576355117.34587097 0 0 0 0 65737764.802303851 2530640.4973697662 0 2530640.4973697662 -548627389.05581665 0 0 0 0 3933548.7448813915 11752007.760650635 0 11752007.760650635 -547201186.42385864 0 0 0 0 25576720.537973166 -10539823.918121338 0 -10539823.918121338 -549735906.54832458 0 0 0 0 45259564.809502482 42437555.21169281 0 42437555.21169281 -620592835.36328125 0 0 0 0 643813.34871114069 248224.76118581742 0 248224.76118581742 -652203.66978673637 0 0 0 0 42923288.047724009 -47055058.183906555 0 -47055058.183906555 -730690359.17323303 0 0 0 0 40233183.527263999 -27520392.52620697 0 -27520392.52620697 -711985577.75428009 0 0 0 0 50872521.379666746 -71524380.762512207 0 -71524380.762512207 -932108348.82997894 0 0 0 0 310607.01715183287 146864.83494629711 0 146864.83494629711 -359136.1296120286 0 0 0 0 926104.597186625 30549763.288560867 0 30549763.288560867 -576815171.50764465 0 0 0 0 60860841.231221318 19365956.347244263 0 19365956.347244263 -578136479.71873856 0 0 0 0 159939147.58980492 -30030818.205236435 0 -30030818.205236435 -649158557.72061157 0 0 0 0 172183412.11432791 19369785.024154663 0 19369785.024154663 -582583321.79376984 0 0 0 0 292048601.02607596 65438072.332595825 0 65438072.332595825 -601663292.89333344 0 0 0 0 25126647.282706469 17902784.31463623 0 17902784.31463623 -503886212.3694458 0 0 0 0 156433747.07165933 -38810037.053024292 0 -38810037.053024292 -665452173.8610611 0 0 0 0 215687183.92303485 -47990090.396774292 0 -47990090.396774292 -699296501.47721863 0 0 0 0 175314094.89235079 -74155922.252891541 0 -74155922.252891541 -599428762.51390076 0 0 0 0 170656215.59785032 -115380917.20899963 0 -115380917.20899963 -739266353.98871613 0 0 0 0 39577505.7584548 -341327009.15997314 0 -341327009.15997314 -856238447.288311 0 0 0 0 157239725.60798836 43330614.253974915 0 43330614.253974915 -1131192635.3654175 0 0 0 0 -15310719.517846823 195370434.27122879 0 195370434.27122879 -946021583.45542908 0 0 0 0 177757797.9132058 -24347168.218242645 0 -24347168.218242645 -955286828.12957764 0 0 0 0 41617837.272199988 171468110.98786926 0 171468110.98786926 -771199502.3306427 0 0 0 0 8871173.2437224984 118988183.32719421 0 118988183.32719421 -724522601.71946716 0 0 0 0 -167478934.09737617 276380590.88669491 0 276380590.88669491 -531718192.3560791 0 0 0 0 -162601531.21799278 308120400.29759693 0 308120400.29759693 -598195687.93643188 0 0 0 0 -50931912.54985714 173062403.21004486 0 173062403.21004486 -486282988.53295898 0 0 0 0 -48801011.791433334 174780672.20230103 0 174780672.20230103 -536947927.93709564 0 0 0 0 85717766.992638111 80976191.170612335 0 80976191.170612335 -593043195.37252808 0 0 0 0 121135443.2193296 92200153.104011536 0 92200153.104011536 -647112553.64031982 0 0 0 0 39097924.754330218 10183466.43555069 0 10183466.43555069 -323143412.41122437 0 0 0 0 -1767982.6742587686 95252207.807807922 0 95252207.807807922 -461182240.00238037 0 0 0 0 -49718233.29330653 87655841.370633125 0 87655841.370633125 -311659987.44647217 0 0 0 0 -154713918.15032589 127007774.32481384 0 127007774.32481384 -316952949.1651001 0 0 0 0 -43951429.272419453 120991282.24947357 0 120991282.24947357 -328830074.06558752 0 0 0 0 51776302.61440134 129240892.18688965 0 129240892.18688965 -134837948.85548782 0 0 0 0 -3350336.2333714366 12339855.878860474 0 12339855.878860474 -97870639.905426025 0 0 0 0 -221145928.45868945 117315058.1146698 0 117315058.1146698 -138742295.29375458 0 0 0 0 -178168677.23741555 234114773.44386292 0 234114773.44386292 -197284752.75857544 0 0 0 0 -136136265.90702486 167892615.87364197 0 167892615.87364197 -107746525.48007202 0 0 0 0 -163930240.32563388 274845130.55129528 0 274845130.55129528 -24751775.932312012 0 0 0 0 -141922062.46348602 163032308.06684875 0 163032308.06684875 72048372.066650391 0 0 0 0 -112012347.54280198 307266296.48548889 0 307266296.48548889 45352435.350265503 0 0 0 0 582549.42648162262 -44721.896231114864 0 -44721.896231114864 -1114398.702867344 0 0 0 0 -27941588.011445284 29423824.312484741 0 29423824.312484741 -27424690.170394897 0 0 0 0 -48101806.271589279 28522283.962776184 0 28522283.962776184 -26347100.804824829 0 0 0 0 -41861.683299612137 17754.529037378728 0 17754.529037378728 -27435.252248451114 0 0 0 0 -178890537.96093997 138060298.49104881 0 138060298.49104881 -4905751.4147338867 0 0 0 0 -419314354.58280122 193861410.44261169 0 193861410.44261169 -16572694.873748779 0 0 0 0 -379555958.31961012 131240808.58482361 0 131240808.58482361 -96037565.12828064 0 0 0 0 -598791307.15768814 238151611.81924582 0 238151611.81924582 -44683468.563781738 0 0 0 0 14041.666192338458 173844.28342855338 0 173844.28342855338 -340613.25088794529 0 0 0 0 -265653000.80059743 253819548.39194489 0 253819548.39194489 -416672390.24406433 0 0 0 0 -5891415.9300292702 -26684605.827086329 0 -26684605.827086329 -119920743.46813965 0 0 0 0 -37187549.476024866 224635686.95721436 0 224635686.95721436 -231661281.05409241 0 0 0 0 -248641967.06998378 183353503.99908447 0 183353503.99908447 -214809191.31680298 0 0 0 0 -256059523.75159663 164188358.91421127 0 164188358.91421127 -262782450.39770508 0 0 0 0 -157201079.17404401 150944367.63314819 0 150944367.63314819 -311051952.34555054 0 0 0 0 -203643790.89500916 248787604.20113945 0 248787604.20113945 -396587537.58601379 0 0 0 0 -210250203.61002871 200894571.95289421 0 200894571.95289421 -323038907.39178467 0 0 0 0 -210515666.37835181 15839902.351348877 0 15839902.351348877 -253112773.98873901 0 0 0 0 -225450125.28845453 27077909.940750122 0 27077909.940750122 -260538498.97911072 0 0 0 0 -315699666.91687864 -191515679.5395813 0 -191515679.5395813 -342616075.11944199 0 0 0 0 -115204170.27348831 105132765.14669037 0 105132765.14669037 -181364182.72273254 0 0 0 0 -5050114.0966830552 -81696478.288692474 0 -81696478.288692474 -312127603.98217773 0 0 0 0 -184753998.49164438 243930991.53540039 0 243930991.53540039 -284829479.90744019 0 0 0 0 -87471062.844923019 -46164224.532455444 0 -46164224.532455444 -96529170.136024475 0 0 0 0 352155.34632766922 -479978.22882457823 0 -479978.22882457823 -1123789.3256514445 0 0 0 0 -22903653.207235426 49683907.301345825 0 49683907.301345825 -64750822.698188782 0 0 0 0 -46062172.816098213 18420647.746208191 0 18420647.746208191 -22489827.742752075 0 0 0 0 -19846595.849260606 35194079.361436844 0 35194079.361436844 -32874698.849746704 0 0 0 0 -25307894.210500211 31548618.796497345 0 31548618.796497345 -33741576.82371521 0 0 0 0 -72933203.475988388 -61148781.028198242 0 -61148781.028198242 -6195386.1651687622 0 0 0 0 -47546038.283420324 10562729.457839966 0 10562729.457839966 -30366088.079017639 0 0 0 0 -34157608.979052186 -104715199.76676941 0 -104715199.76676941 42513108.652069092 0 0 0 0 -196929859.3999362 -6625120.131072998 0 -6625120.131072998 81189712.426208496 0 0 0 0 213530282.88077545 -485866660.27385712 0 -485866660.27385712 -1405734383.9051819 0 0 0 0 -539430.45108159014 675222.71474676207 0 675222.71474676207 -645535.69811324775 0 0 0 0 224751669.2641716 283911505.47944641 0 283911505.47944641 -1049766848.4279785 0 0 0 0 227395.55442912487 -352417.42375490814 0 -352417.42375490814 -669772.8674583286 0 0 0 0 -139123550.53272033 111164026.15984344 0 111164026.15984344 -101277089.16178894 0 0 0 0 -75801931.519838572 -436768656.36793518 0 -436768656.36793518 -1264594256.6895294 0 0 0 0 -49861446.125368454 -629553965.02724457 0 -629553965.02724457 364086313.59513855 0 0 0 0 357398305.62353373 57430982.806274414 0 57430982.806274414 -2079133249.5742493 0 0 0 0 -551688718.97911787 -765219204.06233215 0 -765219204.06233215 1805568123.1992874 0 0 0 0 -294301391.22386456 -72192944.666229248 0 -72192944.666229248 -2071175631.8801479 0 0 0 0 299422162.32004833 288242386.35360718 0 288242386.35360718 -1877366714.9320679 0 0 0 0 770773.68726235395 -1327860.8646147549 0 -1327860.8646147549 -1695834.6921113394 0 0 0 0 329439822.80773538 -352336602.30014038 0 -352336602.30014038 -151597437.97052002 0 0 0 0 -396742118.52731514 -579497775.37712097 0 -579497775.37712097 528864622.61534119 0 0 0 0 169386825.1426014 10737804.985858917 0 10737804.985858917 817055375.92340088 0 0 0 0 -462489913.0683322 -176100023.85041809 0 -176100023.85041809 -165649089.59834576 0 0 0 0 -633000807.47617579 265586032.09293365 0 265586032.09293365 80980614.72088623 0 0 0 0 -440559575.90812957 72708028.636810303 0 72708028.636810303 -342956120.38861847 0 0 0 0 -732116364.11746252 288609723.96662903 0 288609723.96662903 -258132216.3230896 0 0 0 0 -445832892.01429176 47284592.328201294 0 47284592.328201294 -156523161.4850769 0 0 0 0 -360399155.2660681 351789702.14291382 0 351789702.14291382 -437727261.68028259 0 0 0 0 8377103.9764391184 211432009.97660828 0 211432009.97660828 -1076310744.0165138 0 0 0 0 -470969279.13991725 614421123.0785141 0 614421123.0785141 -819661100.11682129 0 0 0 0 -1658356321.5188046 735297188.80504608 0 735297188.80504608 -616566611.55748367 0 0 0 0 -180808440.869964 677024071.47402573 0 677024071.47402573 -2125837640.945816 0 0 0 0 -302744916.30722356 -851439963.60945129 0 -851439963.60945129 -1903421471.313776 0 0 0 0 -2579394.5118862591 3319059.8775402941 0 3319059.8775402941 -3982710.2633965164 0 0 0 0 -467892740.28080428 1385865820.7590408 0 1385865820.7590408 -1929082589.9307852 0 0 0 0 -215890354.64730778 765707198.15834045 0 765707198.15834045 -505668981.05880737 0 0 0 0 45308037.74149847 41022251.335227966 0 41022251.335227966 -815751493.4161377 0 0 0 0 2762885.0605754852 -217850000.2586422 0 -217850000.2586422 -2217416430.5976257 0 0 0 0 -875010206.93123722 -757294486.78527832 0 -757294486.78527832 -960774910.64334106 0 0 0 0 -435054777.04841048 367300528.24682617 0 367300528.24682617 -25086037.554977417 0 0 0 0 -349706404.39410722 670815058.01795197 0 670815058.01795197 -605037754.47786713 0 0 0 0 -261544240.24735171 772357154.75020981 0 772357154.75020981 -505967944.37937927 0 0 0 0 -1216686979.8338742 860282297.25028229 0 860282297.25028229 4839461.1689605713 0 0 0 0 -131371554.82034087 -157357945.49324036 0 -157357945.49324036 -481144724.40411377 0 0 0 0 -26333520.876419783 -216512334.31674194 0 -216512334.31674194 -457637024.49325562 0 0 0 0 -4894121.8906922806 8146011.7060407735 0 8146011.7060407735 -12230965.467819601 0 0 0 0 414643683.8736167 515985155.18231773 0 515985155.18231773 157731406.29501343 0 0 0 0 138082972.76254368 10160702.399986267 0 10160702.399986267 28079692.166362286 0 0 0 0 94571122.945617676 -1674415.9958810806 0 -1674415.9958810806 377216552.49279785 0 0 0 0 108345862.22174609 -11722771.714599609 0 -11722771.714599609 -253166054.97387695 0 0 0 0 295609833.44707108 -372112744.70240784 0 -372112744.70240784 -64604816.512588501 0 0 0 0 536840274.18360043 -245007264.7987709 0 -245007264.7987709 -533356284.21444702 0 0 0 0 445217450.4690299 -88453206.964664459 0 -88453206.964664459 -740415150.85366821 0 0 0 0 356673162.17250061 77905847.51202774 0 77905847.51202774 -895873592.97918701 0 0 0 0 221441938.58727932 -180824470.38203049 0 -180824470.38203049 -359697933.14804077 0 0 0 0 263132430.0619297 -86140919.981109619 0 -86140919.981109619 -387094529.34738159 0 0 0 0 275837473.80915642 -154025223.4776001 0 -154025223.4776001 -426530361.90049744 0 0 0 0 246379424.58502007 -98359112.481735229 0 -98359112.481735229 -530456458.24494934 0 0 0 0 72003317.336890221 -107272311.08161163 0 -107272311.08161163 -526021600.55685425 0 0 0 0 72020535.930315018 -111228326.14309692 0 -111228326.14309692 -389251171.4593811 0 0 0 0 -77140223.087516546 -168694140.30046082 0 -168694140.30046082 -427828457.26309204 0 0 0 0 -104434962.84076691 29090603.296218872 0 29090603.296218872 -342404774.97593689 0 0 0 0 -11417694.277403355 -90063767.931034088 0 -90063767.931034088 -189905328.26693726 0 0 0 0 -48579682.411869526 94948304.644165039 0 94948304.644165039 -789749779.89655304 0 0 0 0 -35610598.604613632 454226723.28500175 0 454226723.28500175 -459301744.12884521 0 0 0 0 312179748.43506336 -149221366.95183516 0 -149221366.95183516 -624519850.65829468 0 0 0 0 -97580396.559213758 -293902609.12116241 0 -293902609.12116241 -624248206.48542786 0 0 0 0 -204338690.1776002 -128031100.47053528 0 -128031100.47053528 -428677026.3114624 0 0 0 0 -67947587.949892998 -206352923.21217346 0 -206352923.21217346 -679571997.98677063 0 0 0 0 -1847200.3327162573 -368543.82843957841 0 -368543.82843957841 1425904.8866257519 0 0 0 0 -356203941.11373258 -252309707.91629028 0 -252309707.91629028 -58191805.993530273 0 0 0 0 -401576.40978020249 -148578.31331909448 0 -148578.31331909448 -110781.31678122282 0 0 0 0 -20886568.448735714 -290888449.31712341 0 -290888449.31712341 -672801152.19836426 0 0 0 0 -83824463.405057907 -22537871.544647217 0 -22537871.544647217 -546751717.10205078 0 0 0 0 58369243.296646118 -109831696.23162079 0 -109831696.23162079 -279541160.95233154 0 0 0 0 -58128434.114258468 -153945126.44392347 0 -153945126.44392347 -253126249.77310181 0 0 0 0 -42793141.693962097 -61964495.878601074 0 -61964495.878601074 -37916829.450500488 0 0 0 0 -5685093.6940484047 -7490815.5885620117 0 -7490815.5885620117 -3605968.9854736328 0 0 0 0 -6654590.4822951099 -1818937.5301609188 0 -1818937.5301609188 3340997.288738586 0 0 0 0 -70992659.742379189 7339439.618850708 0 7339439.618850708 -51147666.409454107 0 0 0 0 109452.38671576302 -4217829.6744551808 0 -4217829.6744551808 -4755992.7895786539 0 0 0 0 -4836318.1007142067 -5981443.6441497803 0 -5981443.6441497803 -3879032.551653862 0 0 0 0 -9528230.1234946251 -9998115.9525985718 0 -9998115.9525985718 -6412316.1544799805 0 0 0 0 -33437460.527099609 -25280740.609451294 0 -25280740.609451294 -33378353.234954834 0 0 0 0 -4875452.9526786804 -4504260.814480938 0 -4504260.814480938 4205357.2002266347 0 0 0 0 -7464057.5654411316 -7708730.1600570679 0 -7708730.1600570679 -6126470.4309597015 0 0 0 0 -6994199.5823028386 -8800788.5811800957 0 -8800788.5811800957 -9073566.590423584 0 0 0 0 -4140530.6992826462 -7792838.3078727722 0 -7792838.3078727722 -10528758.832061768 0 0 0 0 1647079.4260738262 -7290148.4228298645 0 -7290148.4228298645 -19088475.558461636 0 0 0 0 719892071.15264225 121018152.29970932 0 121018152.29970932 -503689007.39343262 0 0 0 0 875953239.95106888 -136211354.21259689 0 -136211354.21259689 -170621902.84802246 0 0 0 0 15788448.076816559 -50398813.378929138 0 -50398813.378929138 -6371802.9979324341 0 0 0 0 -1356467.1777085052 -8993769.5317210481 0 -8993769.5317210481 1212991.5571123511 0 0 0 0 -6980944.245220542 -8580888.5109448433 0 -8580888.5109448433 -10456282.605926514 0 0 0 0 -35708769.24225235 -21941496.260604858 0 -21941496.260604858 11047583.981884003 0 0 0 0 941772.04757992737 -3763986.1478332169 0 -3763986.1478332169 -12649223.212915495 0 0 0 0 636540488.34803772 -461205695.75450516 0 -461205695.75450516 -130048473.15997314 0 0 0 0 -17596060.567962646 -22449162.2605896 0 -22449162.2605896 -26543167.042800903 0 0 0 0 99840759.433894157 -47199029.998210907 0 -47199029.998210907 -70661910.328521729 0 0 0 0 17203665.319574356 -25959921.592041016 0 -25959921.592041016 -307286578.46003723 0 0 0 0 164520930.66550827 -695439.00155639648 0 -695439.00155639648 -305135439.9112587 0 0 0 0 136421323.97194576 87231493.03937149 0 87231493.03937149 -576971422.91467285 0 0 0 0 103720191.40510654 -124626509.17189026 0 -124626509.17189026 -525310608.79168701 0 0 0 0 244774.45910044294 -1145376.6788725089 0 -1145376.6788725089 -4427280.7769308388 0 0 0 0 -171538215.12913227 397177126.26307297 0 397177126.26307297 -527857656.18531799 0 0 0 0 -49135038.390464783 186841199.38249207 0 186841199.38249207 -184607853.56668854 0 0 0 0 214471891.40605545 81843168.695587158 0 81843168.695587158 -584212350.19950867 0 0 0 0 218501160.22623375 265362070.46244514 0 265362070.46244514 -899731688.97750854 0 0 0 0 329646996.1530056 -2238997111.0364532 0 -2238997111.0364532 -537773158.67224121 0 0 0 0 -1103109638.9571705 -472504515.40328217 0 -472504515.40328217 318387779.41091919 0 0 0 0 986846926.15855026 -189870663.73443604 0 -189870663.73443604 -334378354.82737732 0 0 0 0 -2847244.0053120311 9297212.4487960488 0 9297212.4487960488 -20985897.764020368 0 0 0 0 583648919.68365562 212216483.97270393 0 212216483.97270393 -49537351.600982666 0 0 0 0 105541373.16208267 -286440419.2520752 0 -286440419.2520752 76304421.90397644 0 0 0 0 105526281.76300621 -284843847.00304413 0 -284843847.00304413 123889743.97340393 0 0 0 0 194925435.6359539 -284764484.75054932 0 -284764484.75054932 -399422362.52574158 0 0 0 0 196013641.08987617 -385550453.68753052 0 -385550453.68753052 118841293.89933777 0 0 0 0 -302564629.42608452 -368956127.32846069 0 -368956127.32846069 129980630.7960434 0 0 0 0 -208406775.66453266 -301140411.85560608 0 -301140411.85560608 -143111868.80664062 0 0 0 0 -290582124.50350261 175670982.49197102 0 175670982.49197102 -390622067.58932495 0 0 0 0 -1035136407.4308147 10379801.201858521 0 10379801.201858521 -231824261.62221146 0 0 0 0 -759931011.56421399 485127337.8214035 0 485127337.8214035 -591340926.04763794 0 0 0 0 226874614.92483139 39059029.891288757 0 39059029.891288757 -25071065.89654541 0 0 0 0 199468241.58520126 217617964.14006042 0 217617964.14006042 -1187257608.6986618 0 0 0 0 -526805243.68599319 -664639158.90979767 0 -664639158.90979767 -521930456.71102905 0 0 0 0 -2366621.8690517098 -29028.703725256026 0 -29028.703725256026 44765.984709117562 0 0 0 0 -833233975.78174067 179836256.28614426 0 179836256.28614426 1334428628.6710052 0 0 0 0 -685607065.87553406 226364022.1723175 0 226364022.1723175 1348635101.4392853 0 0 0 0 233837965.79973602 230560946.73175049 0 230560946.73175049 554432634.86279297 0 0 0 0 -776526769.46494102 556437394.88771057 0 556437394.88771057 1121453925.130661 0 0 0 0 -538737628.83133841 -334450814.26560974 0 -334450814.26560974 -1103590799.8163757 0 0 0 0 -964030897.32300258 260832553.99526978 0 260832553.99526978 1507656008.4315796 0 0 0 0 720318505.39535868 677400366.69567108 0 677400366.69567108 -220002012.78817749 0 0 0 0 232581662.80756271 -852945807.90608215 0 -852945807.90608215 -1284276028.6738892 0 0 0 0 -1826895.5563525506 6557954.1437486373 0 6557954.1437486373 -15864786.051165655 0 0 0 0 133754657.89919364 319195749.51870728 0 319195749.51870728 -1156621775.4095764 0 0 0 0 23630837.587816536 686252636.21566772 0 686252636.21566772 -582394005.06906128 0 0 0 0 -114975851.94494349 331472300.01731682 0 331472300.01731682 -515244388.91726685 0 0 0 0 -117908434.57987556 228649219.28004193 0 228649219.28004193 -120546765.3821106 0 0 0 0 45373566.878001869 177916577.79975891 0 177916577.79975891 -251859398.40608215 0 0 0 0 49702531.012399018 81516127.555084229 0 81516127.555084229 281676661.94156647 0 0 0 0 88654687.162589312 -10802167.227928162 0 -10802167.227928162 -24094755.470672607 0 0 0 0 415886578.33749294 -108509390.08657074 0 -108509390.08657074 -64730409.550628662 0 0 0 0 -87159561.103087306 24061091.886978149 0 24061091.886978149 -60973645.491424561 0 0 0 0 -84212861.561255425 35599940.208229065 0 35599940.208229065 -449411612.7824707 0 0 0 0 70823346.657535315 -87640533.988235474 0 -87640533.988235474 -255096519.72087097 0 0 0 0 -83002884.446933299 -111446219.63051456 0 -111446219.63051456 -149801387.14151001 0 0 0 0 71419282.572046757 -131704884.63154602 0 -131704884.63154602 -298008479.92066193 0 0 0 0 37679309.467983127 -195331669.58189392 0 -195331669.58189392 -273080113.91460037 0 0 0 0 -15048658.767279804 -113995618.4661026 0 -113995618.4661026 -398134453.0718689 0 0 0 0 72479977.901169419 -126192747.05435944 0 -126192747.05435944 -324036332.86225891 0 0 0 0 56184637.11665231 -132469279.2351799 0 -132469279.2351799 -141777617.06832886 0 0 0 0 270251877.53776348 -88944296.840774536 0 -88944296.840774536 -181778694.70080566 0 0 0 0 176487286.65357435 -79007077.591690063 0 -79007077.591690063 -80794750.238456726 0 0 0 0 197213872.88169774 88936640.631874084 0 88936640.631874084 64714542.399688721 0 0 0 0 -4797276.3505899506 10453525.665010102 0 10453525.665010102 -19010996.322509766 0 0 0 0 -598483509.34710503 1865297783.7910423 0 1865297783.7910423 274423638.74621582 0 0 0 0 239495103.43060648 64028466.983688354 0 64028466.983688354 -151226044.46536255 0 0 0 0 137092703.54789913 -32048606.959358215 0 -32048606.959358215 -133166438.83140564 0 0 0 0 134556260.88373375 -187797987.29067993 0 -187797987.29067993 -264704247.55599976 0 0 0 0 51017205.381091595 -214809210.15988159 0 -214809210.15988159 -329671113.4983139 0 0 0 0 116985215.4255482 -163304589.60580444 0 -163304589.60580444 -489657993.4471283 0 0 0 0 -2575426.0976719856 -31637111.928398132 0 -31637111.928398132 -58096819.851768494 0 0 0 0 63471069.534735203 -173654687.79271698 0 -173654687.79271698 -490726483.38136292 0 0 0 0 85579584.09278819 -240616452.98822212 0 -240616452.98822212 -582585062.59196472 0 0 0 0 65715582.423980504 -163954456.82141876 0 -163954456.82141876 -398199207.56726074 0 0 0 0 93426305.461360455 -155376706.08180237 0 -155376706.08180237 -518811127.8045578 0 0 0 0 82424082.166686803 -220230049.18572998 0 -220230049.18572998 -392974507.83566284 0 0 0 0 -49684607.052241683 21787189.200942993 0 21787189.200942993 -475096901.24691772 0 0 0 0 6038413.8311275244 -51367056.374298096 0 -51367056.374298096 -381347320.94721031 0 0 0 0 25972042.679819405 -94555693.813827515 0 -94555693.813827515 -516435350.82481384 0 0 0 0 109071494.6904161 -51830709.368301392 0 -51830709.368301392 -532874628.00802612 0 0 0 0 22485737.383440942 20209130.062782288 0 20209130.062782288 -476207709.6036377 0 0 0 0 -16406378.159929484 111029232.80236816 0 111029232.80236816 -468880735.07498169 0 0 0 0 14491654.214009345 50367863.501342773 0 50367863.501342773 -588375229.78788376 0 0 0 0 -21766619.521970633 83564117.608779907 0 83564117.608779907 -538794661.6088562 0 0 0 0 -47669764.660889857 116677781.94322491 0 116677781.94322491 -371258152.39004517 0 0 0 0 -48864186.572791874 123098850.2310257 0 123098850.2310257 -371209638.49005127 0 0 0 0 15927592.12082684 179493974.53623962 0 179493974.53623962 -436464164.90534973 0 0 0 0 -56414896.273621559 78080055.863616943 0 78080055.863616943 -453406014.66882324 0 0 0 0 -51930784.745629251 52952829.982040405 0 52952829.982040405 -363595699.1534729 0 0 0 0 -112371357.37071425 91484055.428421021 0 91484055.428421021 -291274839.2482605 0 0 0 0 -128891105.16641831 53267672.992935181 0 53267672.992935181 -362646456.92523956 0 0 0 0 -35361537.465450525 50322596.07131958 0 50322596.07131958 -269927577.29989624 0 0 0 0 -85777734.295424268 99492593.426761627 0 99492593.426761627 -289036643.05157471 0 0 0 0 -110814265.00511473 64465407.380722046 0 64465407.380722046 -308641064.23256683 0 0 0 0 -141292405.10833746 86998208.104354858 0 86998208.104354858 -316568248.94740295 0 0 0 0 -233029149.42451692 30410564.375610352 0 30410564.375610352 -294143284.9630127 0 0 0 0 -172285265.81140047 -20202428.95124054 0 -20202428.95124054 -276556539.64700317 0 0 0 0 -102010177.91436684 9514052.7889938354 0 9514052.7889938354 -291569829.16278076 0 0 0 0 -121620487.58134782 -33755467.652359009 0 -33755467.652359009 -383224632.19457054 0 0 0 0 -36886544.119476318 -125572722.13097382 0 -125572722.13097382 -286073714.97163391 0 0 0 0 -197647557.80344737 -59354392.661621094 0 -59354392.661621094 -268572630.8715744 0 0 0 0 -82904109.180545747 -94251459.00412342 0 -94251459.00412342 -294381198.45352173 0 0 0 0 -233053125.20418346 -9622716.464094162 0 -9622716.464094162 -395844772.81121826 0 0 0 0 -245444909.77521396 -42652659.583206177 0 -42652659.583206177 -229309725.91072083 0 0 0 0 -520682924.0756743 188241946.79677582 0 188241946.79677582 -414009920.40545654 0 0 0 0 -234867888.69638568 110790814.44658661 0 110790814.44658661 -399758070.98324585 0 0 0 0 -351946443.18195868 3178202.7286376953 0 3178202.7286376953 -269740224.55945969 0 0 0 0 -477331646.80483961 -91497494.020874023 0 -91497494.020874023 -417660767.69654846 0 0 0 0 -110573249.29887652 199690180.67643738 0 199690180.67643738 -302052044.15797424 0 0 0 0 -131838571.42542505 81045349.769165039 0 81045349.769165039 -888495616.00151062 0 0 0 0 -19005093.737267256 261572807.63674927 0 261572807.63674927 -593511954.206604 0 0 0 0 -88534707.80818522 146482984.26519012 0 146482984.26519012 -211876016.0766449 0 0 0 0 -198258541.63796496 433810842.86575317 0 433810842.86575317 -584694490.8547821 0 0 0 0 -342412466.89090025 208173179.9207077 0 208173179.9207077 -78192829.438720703 0 0 0 0 -377278.04281172855 774459.45196717978 0 774459.45196717978 -538813.98846451938 0 0 0 0 2471133.2785670757 -64201336.340213776 0 -64201336.340213776 -36211770.194702148 0 0 0 0 -5368730.2440700009 1292791.3620750234 0 1292791.3620750234 -623565.80776836723 0 0 0 0 -180615883.4656204 185302673.11293411 0 185302673.11293411 -125231538.66572571 0 0 0 0 145443761.49826431 436262349.84893799 0 436262349.84893799 549042451.38784027 0 0 0 0 217276465.82803443 657463428.3789537 0 657463428.3789537 -73092966.450897217 0 0 0 0 634996.21833890746 922527.73191793263 0 922527.73191793263 -1393619.2545167059 0 0 0 0 474309096.29694176 -238749765.09120941 0 -238749765.09120941 114786175.371521 0 0 0 0 1648522.8576131687 -382776.16726303101 0 -382776.16726303101 -294260679.12072754 0 0 0 0 486357.95644681365 733424.05599757284 0 733424.05599757284 -1041171.2315201089 0 0 0 0 -6416212.4274700861 4894761.6690034196 0 4894761.6690034196 -2399732.9504157715 0 0 0 0 -3172292.3462599516 -6601589.0720062256 0 -6601589.0720062256 -188816802.55938721 0 0 0 0 -1225560.4328902042 2359196.449608814 0 2359196.449608814 -871904.52350991964 0 0 0 0 34771008.31009531 -20995939.692321777 0 -20995939.692321777 21425366.692745209 0 0 0 0 -81967189.280431211 -295764034.1853714 0 -295764034.1853714 -773923511.49232483 0 0 0 0 -59331520.349863291 -127847750.42370605 0 -127847750.42370605 -226027685.55805969 0 0 0 0 161777768.04713911 -12691285.486907959 0 -12691285.486907959 -294171077.79107666 0 0 0 0 24220349.506875038 -160380695.28604889 0 -160380695.28604889 -442398898.56784058 0 0 0 0 130235926.18005618 -89978105.931860924 0 -89978105.931860924 -421332837.9510498 0 0 0 0 118494793.96104178 13047227.673614502 0 13047227.673614502 -539442489.36357117 0 0 0 0 4736260.8774772882 -8677910.9642295837 0 -8677910.9642295837 -458955230.42068481 0 0 0 0 -124421982.36820328 208804672.92961121 0 208804672.92961121 -800247422.55685425 0 0 0 0 -59400542.01979655 112714067.98827362 0 112714067.98827362 -472674143.02688599 0 0 0 0 -213058706.88650322 66489567.493606567 0 66489567.493606567 -315753381.63228655 0 0 0 0 41444483.163481772 -7780975.6345596313 0 -7780975.6345596313 -342758224.85412598 0 0 0 0 186909477.81047919 -127078644.70306396 0 -127078644.70306396 -400097764.25556183 0 0 0 0 37504958.542668432 -11931254.158721924 0 -11931254.158721924 -337144264.67469788 0 0 0 0 -2685585.5138043165 -158426672.57468796 0 -158426672.57468796 -204286312.52267456 0 0 0 0 41885054.936933637 -34000779.743438721 0 -34000779.743438721 -178346781.71403885 0 0 0 0 337725701.83980602 -272924060.61361694 0 -272924060.61361694 -392234361.50587845 0 0 0 0 84868389.519532084 -219381231.80591583 0 -219381231.80591583 -401511188.94445801 0 0 0 0 376156508.03193486 -78230153.917663574 0 -78230153.917663574 -480696508.84507751 0 0 0 0 125713377.37273222 -76388486.822616577 0 -76388486.822616577 -228727385.49103165 0 0 0 0 52526310.616361424 -217523702.26922989 0 -217523702.26922989 -385812443.49475098 0 0 0 0 86685881.154306591 -311572479.62663269 0 -311572479.62663269 -259103268.09544373 0 0 0 0 -170564924.00741637 -20524313.997131348 0 -20524313.997131348 -384516565.57353973 0 0 0 0 61113985.224679902 -209083377.40635681 0 -209083377.40635681 -491995342.50668335 0 0 0 0 66174683.569869936 41479560.126052856 0 41479560.126052856 -557336819.98126221 0 0 0 0 103241049.30452013 -101893977.44309998 0 -101893977.44309998 -290551795.28781128 0 0 0 0 494403654.49498224 -139993510.60774231 0 -139993510.60774231 -364208423.37728882 0 0 0 0 522389415.34656286 -270654364.74116516 0 -270654364.74116516 -192209666.10879517 0 0 0 0 216318498.69481277 2903541.7329101562 0 2903541.7329101562 -227579987.28720093 0 0 0 0 -169719305.83437359 4088074.2943267822 0 4088074.2943267822 -758120191.57327271 0 0 0 0 -1680189.848345221 39006014.544952393 0 39006014.544952393 -895808049.4543457 0 0 0 0 -129120393.04794917 -37519268.175346375 0 -37519268.175346375 -717120614.49481201 0 0 0 0 -168312980.26183796 -282575850.62607527 0 -282575850.62607527 -828404870.93309021 0 0 0 0 -166079788.36099976 -246511817.45751953 0 -246511817.45751953 -350687061.36448669 0 0 0 0 21176.026923191235 6542273.2038116455 0 6542273.2038116455 5772483.260559082 0 0 0 0 240444.21046139591 -384667.94620958716 0 -384667.94620958716 -1004340.8454884291 0 0 0 0 -527226693.23709321 -520872338.94715881 0 -520872338.94715881 -479419033.69622803 0 0 0 0 -11551.536923611298 6492760.7581481934 0 6492760.7581481934 5814973.1566009521 0 0 0 0 -162525132.5939635 -281287883.83118439 0 -281287883.83118439 -267926986.90461731 0 0 0 0 -155863113.82994401 -196867337.31304169 0 -196867337.31304169 -208295058.75567627 0 0 0 0 335648.40212599485 -44102.59275373444 0 -44102.59275373444 -1575220.4279435128 0 0 0 0 10245284.489708062 1501229.3219146729 0 1501229.3219146729 -17992873.185668945 0 0 0 0 10999601.626788409 6837383.9108123779 0 6837383.9108123779 -3327876.9420471191 0 0 0 0 13785974.380892914 -3842753.5358693264 0 -3842753.5358693264 106720864.19472829 0 0 0 0 682121.46769745089 -4816363.6856689453 0 -4816363.6856689453 -1776471.8898620605 0 0 0 0 2347780.6531516984 -2647126.4297637939 0 -2647126.4297637939 -2016243.8525047302 0 0 0 0 1137887.9809005614 -2331870.224105835 0 -2331870.224105835 -704139.63076019287 0 0 0 0 -11237805.813901883 -604361.31389892567 0 -604361.31389892567 86158.14589600265 0 0 0 0 -34743217.709907629 5303271.7212295532 0 5303271.7212295532 780438.11901855469 0 0 0 0 2509175.1586857885 -3174937.0304870605 0 -3174937.0304870605 -389640.67391967773 0 0 0 0 2501464.8059525192 -1933384.299407959 0 -1933384.299407959 -1671987.4608459473 0 0 0 0 53512151.299084544 -5256985.8609085083 0 -5256985.8609085083 -50483976.834945679 0 0 0 0 -450338.9888811218 -153478.45097318944 0 -153478.45097318944 -2045415.9282935411 0 0 0 0 18945737.19911354 4685736.2057571411 0 4685736.2057571411 -605822.16957092285 0 0 0 0 -2027128.7240042132 7691531.0956874862 0 7691531.0956874862 -1205773.9336182624 0 0 0 0 718329.63154596789 -1585956.5075500906 0 -1585956.5075500906 -1812932.3682078533 0 0 0 0 -39735108.974371552 -27394534.686355591 0 -27394534.686355591 53206601.393707275 0 0 0 0 -42816254.375234187 143047828.59902954 0 143047828.59902954 -183638123.25003052 0 0 0 0 -86867310.922916651 30136876.793746948 0 30136876.793746948 -34887358.398635864 0 0 0 0 20229369.758905172 49090300.323898315 0 49090300.323898315 -42614240.016296387 0 0 0 0 279574.52410001267 -1228197.7998586297 0 -1228197.7998586297 -1343385.4062736724 0 0 0 0 -66688851.999631763 10124594.479904175 0 10124594.479904175 45344753.606781006 0 0 0 0 1386871.3317569792 -115829.57102966309 0 -115829.57102966309 -1982594.2378540039 0 0 0 0 4709734.1156144328 -949327.81917572021 0 -949327.81917572021 -1992298.2808990479 0 0 0 0 497470.03173204616 324014.05694718659 0 324014.05694718659 -1918677.3090368062 0 0 0 0 73455065.280621707 3291189.7764129639 0 3291189.7764129639 -134650511.14282227 0 0 0 0 -38228680.36230129 -69009321.753631592 0 -69009321.753631592 -119723967.51358032 0 0 0 0 -2667986.1197758913 -8189591.0163116455 0 -8189591.0163116455 -25208771.158905029 0 0 0 0 252772.80752209711 -150014.48034980893 0 -150014.48034980893 -448340.22746432573 0 0 0 0 78353428.696668059 -65189855.172302246 0 -65189855.172302246 -272704097.84034729 0 0 0 0 -33965375.390990764 82043822.920532227 0 82043822.920532227 -77733113.913009644 0 0 0 0 45409867.123558342 155188504.53643799 0 155188504.53643799 -248189672.86227417 0 0 0 0 -21153768.523495615 122612039.45606995 0 122612039.45606995 -257882383.28799438 0 0 0 0 -14055859.431495339 177576193.93731689 0 177576193.93731689 -283416313.10962868 0 0 0 0 58457547.537701607 23478591.383880615 0 23478591.383880615 -84140113.705970764 0 0 0 0 155355.36903208503 -208844.80160212144 0 -208844.80160212144 -269201.03293904662 0 0 0 0 -40040179.67084378 55704891.68762207 0 55704891.68762207 -83719978.077697754 0 0 0 0 64190032.282987073 32986488.173808098 0 32986488.173808098 -168252895.43997192 0 0 0 0 -12340743.188710093 147213085.92398071 0 147213085.92398071 -254349358.03445435 0 0 0 0 -28809054.551473141 70976386.93939209 0 70976386.93939209 -69767656.987518311 0 0 0 0 28484213.946981758 99335524.301681519 0 99335524.301681519 -215461518.56060791 0 0 0 0 6765714.7292017043 192656871.23661804 0 192656871.23661804 -382732203.64157486 0 0 0 0 -58234198.228770554 147618863.57818604 0 147618863.57818604 -212367102.47255325 0 0 0 0 -5792030.1851670146 109866106.62340546 0 109866106.62340546 -233557507.11169434 0 0 0 0 -39390924.428689361 180114328.4392395 0 180114328.4392395 -244180030.01229095 0 0 0 0 30191947.969244599 216752728.49121857 0 216752728.49121857 -557527781.1987915 0 0 0 0 44481745.313145414 134903922.22348022 0 134903922.22348022 -389011830.23568726 0 0 0 0 32396308.665321942 139053812.06547165 0 139053812.06547165 -562725633.22125244 0 0 0 0 72720083.09706831 106067460.38156128 0 106067460.38156128 -695274973.79923439 0 0 0 0 85653071.970617533 161941771.00570679 0 161941771.00570679 -567547840.43383789 0 0 0 0 38567009.17578584 223263589.31932068 0 223263589.31932068 -557737354.77587891 0 0 0 0 90317158.068468526 176275654.64822388 0 176275654.64822388 -721072436.443573 0 0 0 0 33387483.378943563 289211181.58451843 0 289211181.58451843 -780929784.96258926 0 0 0 0 -52807866.356017858 282170307.89321136 0 282170307.89321136 -596673491.01028442 0 0 0 0 -58732507.867370367 323529452.25021362 0 323529452.25021362 -595447679.39684772 0 0 0 0 -573417073.37833917 478581246.65595245 0 478581246.65595245 -383792606.57099915 0 0 0 0 -184849.55290681674 187094.43255209737 0 187094.43255209737 -840219.47700616717 0 0 0 0 -100575465.35266829 473933097.45405579 0 473933097.45405579 -1039271739.4077053 0 0 0 0 209968034.93418026 44984689.389724731 0 44984689.389724731 -485932508.83782959 0 0 0 0 -310738935.27906388 132836143.56747437 0 132836143.56747437 10637132.615753174 0 0 0 0 141232.62834778766 24598108.313393675 0 24598108.313393675 212621501.36291504 0 0 0 0 -58633558.448256254 -62704606.681533813 0 -62704606.681533813 -26128759.705322266 0 0 0 0 -141542218.07179332 131482506.84341431 0 131482506.84341431 -113730845.80004883 0 0 0 0 -104423139.34796154 253850783.4797821 0 253850783.4797821 -299011096.71234894 0 0 0 0 -45342703.641625464 202738650.989151 0 202738650.989151 -356209039.14199829 0 0 0 0 -293399969.12010419 375282344.2129364 0 375282344.2129364 -318448451.86886597 0 0 0 0 -112325114.43928358 130627191.52506828 0 130627191.52506828 -130969752.74176025 0 0 0 0 -18901247.158741865 13640931.864273071 0 13640931.864273071 -5398284.8431854248 0 0 0 0 -2258867.8810703829 51911341.979949951 0 51911341.979949951 -110848699.75809813 0 0 0 0 69819.699308875046 18382466.538269043 0 18382466.538269043 -139347259.51118469 0 0 0 0 5096287.5157440379 35193919.16394043 0 35193919.16394043 -110553009.52579236 0 0 0 0 5959043.6067357436 32902194.012557983 0 32902194.012557983 -226159245.07737732 0 0 0 0 8176054.9805102646 -46693831.720176697 0 -46693831.720176697 -165334745.53155518 0 0 0 0 -63020809.335030839 97420181.599113464 0 97420181.599113464 -121558671.1000061 0 0 0 0 -59255301.077268004 -37252671.158729553 0 -37252671.158729553 -13343753.633682251 0 0 0 0 23862.029793306509 -213928.07335960306 0 -213928.07335960306 -299136.88174770772 0 0 0 0 -790849.1115950942 -2633749.1957321167 0 -2633749.1957321167 -223138.51731872559 0 0 0 0 -592792.09927436709 3323807.8064575195 0 3323807.8064575195 -17813729.42165184 0 0 0 0 147676.46494682197 -664628.32619527169 0 -664628.32619527169 -769453.41061103344 0 0 0 0 -7434588.5496945381 6549208.2928237915 0 6549208.2928237915 1228532.8808288574 0 0 0 0 4892529.4901870787 -30730039.636920929 0 -30730039.636920929 -7968834.4202270508 0 0 0 0 -3374795.3673075237 -987835.51097621024 0 -987835.51097621024 -7204399.1511493698 0 0 0 0 -4665238.5584211648 -7157806.9751434326 0 -7157806.9751434326 14365481.307357788 0 0 0 0 11936383.947845936 -5109605.4867782593 0 -5109605.4867782593 -17392408.614868164 0 0 0 0 -6163602.9368926585 -2332909.4764404297 0 -2332909.4764404297 2132950.5431976318 0 0 0 0 6777859.1995239221 1288685.4283447266 0 1288685.4283447266 4965134.5675201416 0 0 0 0 19330066.762861528 4391448.3896446228 0 4391448.3896446228 -24423552.58380127 0 0 0 0 -65174.181799133781 19585957.158691406 0 19585957.158691406 -34700093.49597168 0 0 0 0 159542.29465983878 37761797.413406372 0 37761797.413406372 -11774562.058197021 0 0 0 0 20569094.167078871 31376539.878601074 0 31376539.878601074 -28073714.049278259 0 0 0 0 75534313.51176253 63367934.354944229 0 63367934.354944229 -54304260.574676514 0 0 0 0 58360194.650410421 -32646460.990125656 0 -32646460.990125656 18439830.41204834 0 0 0 0 274384749.85719776 -6613727.9746704102 0 -6613727.9746704102 -81130156.343894958 0 0 0 0 219784.9401175789 -1654057.9154671654 0 -1654057.9154671654 -840958.8926795125 0 0 0 0 34381741.928371169 -5843233.0262527466 0 -5843233.0262527466 -10200573.550224304 0 0 0 0 -100011447.99105559 -279585390.63992691 0 -279585390.63992691 -763374296.9753418 0 0 0 0 -708183855.39264512 890457707.98699951 0 890457707.98699951 -868970032.94134521 0 0 0 0 -1082620577.2468519 1441631164.2105255 0 1441631164.2105255 -1679041040.9579468 0 0 0 0 438052.74066237186 -72818.626967752352 0 -72818.626967752352 -2540301.6834761202 0 0 0 0 411412880.92596054 216132529.97994995 0 216132529.97994995 -3511514688.9031982 0 0 0 0 348187567.25656974 1019154601.7354431 0 1019154601.7354431 -1806496761.3364639 0 0 0 0 362749.71307996102 396328942.88244629 0 396328942.88244629 -530342710.34689331 0 0 0 0 133327808.1704081 -94174990.94859314 0 -94174990.94859314 41210896.422843933 0 0 0 0 1145185.1612514225 305140.91638380289 0 305140.91638380289 -938871.71790619195 0 0 0 0 -849219579.98668003 1142655040.1131897 0 1142655040.1131897 -1051303263.5199585 0 0 0 0 -7830870.2922288179 319096615.3369751 0 319096615.3369751 -1557707903.0898819 0 0 0 0 -174190578.05562234 679632149.30743408 0 679632149.30743408 -1602225576.0652771 0 0 0 0 -702191.10816261347 239016.60122122616 0 239016.60122122616 -1742051.749445729 0 0 0 0 -497435509.04628694 528985157.33958435 0 528985157.33958435 -1143384880.6768799 0 0 0 0 -373848991.82511473 313276507.31521988 0 313276507.31521988 -1291749690.9433289 0 0 0 0 -135468373.40893704 370686996.88592529 0 370686996.88592529 -1281700170.7741699 0 0 0 0 -185024822.96405882 306041407.89413452 0 306041407.89413452 -1112711479.3238716 0 0 0 0 -401878831.17597485 547687796.30674744 0 547687796.30674744 -1150842153.1097107 0 0 0 0 -282316341.56896728 171508234.7161026 0 171508234.7161026 -678556207.61431885 0 0 0 0 -318436605.84036154 331081182.48814392 0 331081182.48814392 -777652289.91921997 0 0 0 0 -119664704.28129306 156115026.61839294 0 156115026.61839294 -825060640.22756958 0 0 0 0 -221016.90538052353 166549619.70698369 0 166549619.70698369 -1253607197.1334229 0 0 0 0 -154031667.89676312 164263204.90274048 0 164263204.90274048 -1015616485.3997803 0 0 0 0 -192024715.65443802 197365274.20199585 0 197365274.20199585 -952287939.2562027 0 0 0 0 -294290408.50116128 407877504.30450439 0 407877504.30450439 -1069548247.9043579 0 0 0 0 378674104.53047276 -12520439.813354492 0 -12520439.813354492 -5066891.1545410156 0 0 0 0 451549455.40678048 -18061035.701629639 0 -18061035.701629639 -30530734.290557861 0 0 0 0 408310070.01192236 -122875214.66395569 0 -122875214.66395569 -278300681.78533936 0 0 0 0 190573590.90429163 121639651.72817993 0 121639651.72817993 -95105436.912994385 0 0 0 0 153604358.49846148 246160562.84568405 0 246160562.84568405 -431753359.61303711 0 0 0 0 -183056930.89263788 157137698.5920105 0 157137698.5920105 -446302876.74414062 0 0 0 0 96611413.847998127 135406689.75605774 0 135406689.75605774 -630026704.7612915 0 0 0 0 90489617.12495029 643050401.95223999 0 643050401.95223999 -903924097.72888184 0 0 0 0 -106943015.70834565 365218134.33352661 0 365218134.33352661 -520642921.82821655 0 0 0 0 -167665500.89789659 463683226.01983643 0 463683226.01983643 -981230732.7845459 0 0 0 0 -44745486.537726521 372894124.008255 0 372894124.008255 -1048155553.804718 0 0 0 0 92494888.339923263 448596478.58175659 0 448596478.58175659 -1216542261.2458801 0 0 0 0 -110359392.95502579 686107342.77914429 0 686107342.77914429 -1201272640.750308 0 0 0 0 392542.46665792703 67032.977468132973 0 67032.977468132973 -337703.55559779704 0 0 0 0 529448740.67915726 821350412.7999649 0 821350412.7999649 -162761676.5234375 0 0 0 0 349123376.64001846 399647138.24885559 0 399647138.24885559 -1138144166.9121399 0 0 0 0 249837508.53960431 468071823.94080544 0 468071823.94080544 -1212661843.177124 0 0 0 0 -104055222.96875429 345899393.57574463 0 345899393.57574463 -1140740624.9901657 0 0 0 0 256936482.9187164 449401848.45173645 0 449401848.45173645 -1584278297.9024048 0 0 0 0 106263638.74597168 672105008.42712402 0 672105008.42712402 -1458525211.8819733 0 0 0 0 8436324.8614242673 620873468.04420471 0 620873468.04420471 -1474519585.9660492 0 0 0 0 -250776913.04180998 476113926.79001617 0 476113926.79001617 -1600175261.3908997 0 0 0 0 -337591.4452824631 -317601.23000094295 0 -317601.23000094295 -1178948.8029261604 0 0 0 0 -99096823.684608698 551037832.84366608 0 551037832.84366608 -1184867401.9719543 0 0 0 0 -98452829.490536094 678868673.76150513 0 678868673.76150513 -1628885553.6926804 0 0 0 0 -320301054.62193608 406934282.89137268 0 406934282.89137268 -768744890.41945648 0 0 0 0 665521.00274210726 -738070.88901346177 0 -738070.88901346177 -6226430.6217345446 0 0 0 0 1230643.8136789054 -3926491.0143127441 0 -3926491.0143127441 1444192.4578857422 0 0 0 0 77419275.155128956 540083471.92999268 0 540083471.92999268 -1189218668.8373413 0 0 0 0 90071388.513205051 425616384.3344574 0 425616384.3344574 -796447986.81448364 0 0 0 0 303646265.03895992 542923007.89732933 0 542923007.89732933 -1440571144.7631836 0 0 0 0 294449803.26396233 475992831.40982819 0 475992831.40982819 -1266122088.991394 0 0 0 0 71191962.963440895 604187718.12820435 0 604187718.12820435 -1129041808.7082367 0 0 0 0 332457805.62141037 350138802.56146622 0 350138802.56146622 -1596209992.5489502 0 0 0 0 449210463.41525459 404535081.75115967 0 404535081.75115967 -1591505514.1941833 0 0 0 0 350400024.20992088 275547916.22396851 0 275547916.22396851 -1290535755.3013306 0 0 0 0 -1482654457.1492167 -1355799689.7811203 0 -1355799689.7811203 -1361446360.710228 0 0 0 0 370701971.0797348 825888755.18157959 0 825888755.18157959 -3636174782.8110046 0 0 0 0 -1179682451.2092276 1774388648.79287 0 1774388648.79287 -1550044074.1951294 0 0 0 0 -260720022.40960121 567015483.73536682 0 567015483.73536682 -669826407.27807617 0 0 0 0 -336819167.12694931 716794275.54447174 0 716794275.54447174 -809264884.12368774 0 0 0 0 -739321425.16550064 469706051.48124695 0 469706051.48124695 -347731120.57797241 0 0 0 0 251448595.36888504 706544120.6714325 0 706544120.6714325 -1718986003.7244263 0 0 0 0 279002336.48872805 577793480.3094635 0 577793480.3094635 -1390363551.9282684 0 0 0 0 23273447.795042753 -30666932.496734619 0 -30666932.496734619 -211993374.77830505 0 0 0 0 160294867.29114819 116838852.9382782 0 116838852.9382782 -1331270387.4361992 0 0 0 0 23138671.933759689 128923115.6469574 0 128923115.6469574 -69280139.550582886 0 0 0 0 -58436020.769576073 363597168.00241089 0 363597168.00241089 -862490725.42967606 0 0 0 0 -229270881.39351702 -17095628.171775818 0 -17095628.171775818 -152854648.43057251 0 0 0 0 29433729.48357749 -105617559.49113274 0 -105617559.49113274 91974438.476196289 0 0 0 0 -152732994.41828179 -95911238.688030243 0 -95911238.688030243 137723332.76605225 0 0 0 0 9588019.5762046035 3427472.7926006317 0 3427472.7926006317 -9773072.2198079377 0 0 0 0 182465669.99576569 45658104.075042725 0 45658104.075042725 -8711061.5029220581 0 0 0 0 572365639.53580785 89767801.66645813 0 89767801.66645813 1213148.4681396484 0 0 0 0 102160906.92024529 85528134.434732437 0 85528134.434732437 16133433.383270264 0 0 0 0 3398781.8926874436 -954883.2557717301 0 -954883.2557717301 -2251534.3317516893 0 0 0 0 -40283656.422241211 169267849.39197731 0 169267849.39197731 -33056874.849853516 0 0 0 0 590298029.93737459 42674639.563751221 0 42674639.563751221 -188701623.93460083 0 0 0 0 432177019.35190964 190972150.14459229 0 190972150.14459229 -204988854.86416626 0 0 0 0 546790755.89345551 540426524.42745972 0 540426524.42745972 -859064142.20758057 0 0 0 0 603392899.10061979 332547687.60983276 0 332547687.60983276 -96280669.023620605 0 0 0 0 161156920.07776737 212546961.39450073 0 212546961.39450073 18441589.50050354 0 0 0 0 83685012.462748289 -179768296.9454565 0 -179768296.9454565 -58840321.003723145 0 0 0 0 909862302.73930907 -390477771.73749721 0 -390477771.73749721 -1770661962.6367798 0 0 0 0 8835829.9468241334 3977477.8612527847 0 3977477.8612527847 -10481488.989453509 0 0 0 0 899620089.9613533 -798895761.17811584 0 -798895761.17811584 -175376695.51847982 0 0 0 0 -92372319.10192728 346672603.40866852 0 346672603.40866852 -977805073.74603271 0 0 0 0 -1767115.6901868712 9240331.0788308457 0 9240331.0788308457 -9433912.2677470073 0 0 0 0 302987820.73245621 104249344.28427124 0 104249344.28427124 -49635850.298877716 0 0 0 0 -142285751.83302689 -208956937.42588806 0 -208956937.42588806 -36791992.816497803 0 0 0 0 -1133521861.2230496 663661060.32079244 0 663661060.32079244 109995808.13873291 0 0 0 0 297460128.11167431 1524192075.2031097 0 1524192075.2031097 -3289430325.2687683 0 0 0 0 -1032829.0944438963 3203464.3600427657 0 3203464.3600427657 -3379055.0797241628 0 0 0 0 212451303.96062124 -820838872.85890198 0 -820838872.85890198 -4316236382.4672699 0 0 0 0 248074022.97023201 342420668.79058838 0 342420668.79058838 -2402830770.3705139 0 0 0 0 293645827.93676329 -275481229.51117611 0 -275481229.51117611 -1688016876.1251831 0 0 0 0 34869529.065664291 86127336.166488647 0 86127336.166488647 87137793.080230713 0 0 0 0 180318591.65264893 57563865.38061142 0 57563865.38061142 -98707125.86857605 0 0 0 0 55339508.421471119 -26693768.516403198 0 -26693768.516403198 -129210888.09651184 0 0 0 0 108132417.32594109 69275533.903869629 0 69275533.903869629 -82832216.212966919 0 0 0 0 8656768.3669043835 -4139211.6874101683 0 -4139211.6874101683 -7296242.2183617577 0 0 0 0 13611018.769652367 -18644651.147918701 0 -18644651.147918701 -20624448.797653198 0 0 0 0 -10393311.622677941 5053666.5219902769 0 5053666.5219902769 -3415905.2075977996 0 0 0 0 2354411.5561332703 -20849820.759536743 0 -20849820.759536743 -38835829.888137817 0 0 0 0 -132341074.69701338 972599180.3343277 0 972599180.3343277 -1189390922.1596375 0 0 0 0 -14163797.996912399 6659545.5623384863 0 6659545.5623384863 -5686712.4873327836 0 0 0 0 -589730426.817173 245843995.46292114 0 245843995.46292114 314131920.74615479 0 0 0 0 -27245746.489717484 50961194.278507233 0 50961194.278507233 -16026059.048446655 0 0 0 0 7663020.93698401 -1590070.8262576759 0 -1590070.8262576759 -6240149.3837247044 0 0 0 0 324876.65447151125 959189.6059904471 0 959189.6059904471 -2195750.4756291565 0 0 0 0 126397663.48645687 -244727503.81388855 0 -244727503.81388855 -649616174.23149872 0 0 0 0 -3969549.3791365623 -9466321.7918395996 0 -9466321.7918395996 46176078.648769379 0 0 0 0 304995387.95602703 -357746849.58010864 0 -357746849.58010864 -1574385175.4845572 0 0 0 0 17273786.508380413 -7737061.2601776123 0 -7737061.2601776123 -48719222.844161987 0 0 0 0 11732703.755300045 -13884394.736724854 0 -13884394.736724854 -4140366.521270752 0 0 0 0 203300.50263190269 -13739402.430740356 0 -13739402.430740356 -3960442.1783866882 0 0 0 0 -425159.34915018082 -23455758.838317871 0 -23455758.838317871 15055969.4453125 0 0 0 0 3512686.6986584663 3481768.9100952148 0 3481768.9100952148 752525.54264831543 0 0 0 0 10870429.91784215 -15901470.55859375 0 -15901470.55859375 -37194661.220214844 0 0 0 0 -2766100.0856108665 -1875791.8154296875 0 -1875791.8154296875 -39104944.757499695 0 0 0 0 13312062.400800467 -18026320.800971985 0 -18026320.800971985 -65010281.953491211 0 0 0 0 13349896.913303018 -18276289.352363586 0 -18276289.352363586 -51785832.935832977 0 0 0 0 22575795.137972593 -12945061.971282959 0 -12945061.971282959 -115626624.52230835 0 0 0 0 4233116.7095175982 58722766.905792236 0 58722766.905792236 -155426882.95335007 0 0 0 0 -13182265.046668887 16848339.225799561 0 16848339.225799561 -69111001.722061157 0 0 0 0 10468767.300739288 -40276.483985900879 0 -40276.483985900879 -55065157.446914673 0 0 0 0 17707975.169834614 7003292.2428741455 0 7003292.2428741455 -86476003.122619629 0 0 0 0 16233176.530567408 1178373.0741348267 0 1178373.0741348267 -64436884.388122559 0 0 0 0 15680583.975580722 3147354.4152469635 0 3147354.4152469635 -54080310.602630615 0 0 0 0 13762143.058438301 -2050991.7069797516 0 -2050991.7069797516 -50172516.186737061 0 0 0 0 2568367.0989034176 -5624278.828125 0 -5624278.828125 -24681109.403671265 0 0 0 0 7250517.6357523352 -5980652.8336865157 0 -5980652.8336865157 -6987839.289549619 0 0 0 0 -102271459.45142365 -162040655.24163818 0 -162040655.24163818 110756133.10188293 0 0 0 0 109816876.70251846 -72342513.428512573 0 -72342513.428512573 -42264226.039142609 0 0 0 0 -78130398.717735291 62111638.790527344 0 62111638.790527344 6880033.6217727661 0 0 0 0 32915731.271434784 139803213.6657486 0 139803213.6657486 -14643156.758670807 0 0 0 0 8050170.4829367939 -5328621.5214333832 0 -5328621.5214333832 -7312328.3954662532 0 0 0 0 13075234.750261068 3612574.3742218018 0 3612574.3742218018 -54733120.821434021 0 0 0 0 7604336.2367755175 16317836.761138916 0 16317836.761138916 -72889769.809844971 0 0 0 0 7294398.827486515 14232877.458435059 0 14232877.458435059 -69071832.554351807 0 0 0 0 4762304.0541086197 14783321.661827087 0 14783321.661827087 -71486629.583648682 0 0 0 0 8134514.7367529869 16510144.056003571 0 16510144.056003571 -78148832.270263672 0 0 0 0 -8905605.7137136459 17263109.331085205 0 17263109.331085205 -71601513.690551758 0 0 0 0 -27961052.35310936 33034132.23651123 0 33034132.23651123 -80259433.400390625 0 0 0 0 -1750372.9117460251 13698741.699798584 0 13698741.699798584 -73134281.700134277 0 0 0 0 -6439081.8392429352 17138331.991333008 0 17138331.991333008 -72722334.669006348 0 0 0 0 -2352653.9341304302 21288386.199729919 0 21288386.199729919 -79037227.717529297 0 0 0 0 -72105561.575080872 43618923.525299072 0 43618923.525299072 204953023.14987183 0 0 0 0 -13670523.935600281 27397979.399703979 0 27397979.399703979 -80141274.86907959 0 0 0 0 -3024374.8641338348 20980648.582519531 0 20980648.582519531 -83841623.157440186 0 0 0 0 6176355.5643350678 -4221582.574355945 0 -4221582.574355945 -12409042.804150499 0 0 0 0 -1390904.5306959152 42401698.792205811 0 42401698.792205811 -115363679.28237915 0 0 0 0 7086362.4814367294 33140789.41607666 0 33140789.41607666 -122803587.87164307 0 0 0 0 413294.1870374654 -1284450.45155067 0 -1284450.45155067 3033293.9618192911 0 0 0 0 -52670247.746673584 -95406049.096313477 0 -95406049.096313477 179277015.49316406 0 0 0 0 -24028445.018968582 28116892.335998535 0 28116892.335998535 -75526891.578125 0 0 0 0 -6401586.9951105118 19219817.79119873 0 19219817.79119873 -78478526.474487305 0 0 0 0 -14289235.895653725 37390651.753417969 0 37390651.753417969 -89264051.015380859 0 0 0 0 -16423143.125137329 37753283.484802246 0 37753283.484802246 -86200818.558502197 0 0 0 0 -5927709.8622264862 29497713.161071777 0 29497713.161071777 -90554216.499542236 0 0 0 0 -7122848.4995965958 38936087.114746094 0 38936087.114746094 -96409158.017578125 0 0 0 0 -8051167.7529158592 33980421.141693115 0 33980421.141693115 -94464321.144042969 0 0 0 0 1348418.3836517334 26792756.587158203 0 26792756.587158203 -107601050.60187912 0 0 0 0 -3191527.0148487091 24317200.795837402 0 24317200.795837402 -88370876.472351074 0 0 0 0 -1530299.9663467407 35706117.876098633 0 35706117.876098633 -106947195.59901428 0 0 0 0 2795924.0766043663 21376147.65612793 0 21376147.65612793 -100541585.13006592 0 0 0 0 540689.52333068848 32128758.35723877 0 32128758.35723877 -101116342.90026855 0 0 0 0 -9610855.0756697655 43121985.294067383 0 43121985.294067383 -102343306.11035156 0 0 0 0 -86051840.223403931 -40019998.902954102 0 -40019998.902954102 152323354.97432232 0 0 0 0 -65092572.531082153 -77819904.398986816 0 -77819904.398986816 100572562.58145142 0 0 0 0 -41617256.259422302 -12462322.452819824 0 -12462322.452819824 377795.19250488281 0 0 0 0 -54399623.047370911 -1887597.6109008789 0 -1887597.6109008789 56073195.08770752 0 0 0 0 -56710757.21824646 -5917298.6494140625 0 -5917298.6494140625 115534019.00344849 0 0 0 0 -60559154.817459106 60837004.004638672 0 60837004.004638672 153982703.02064037 0 0 0 0 -43303788.366653442 52926560.646118164 0 52926560.646118164 104571632.29083252 0 0 0 0 8687966.6687240601 128424009.20031738 0 128424009.20031738 167200766.77713013 0 0 0 0 57815037.036407471 145691480.32861328 0 145691480.32861328 129830492.99938965 0 0 0 0 -30236073.996614695 40663952.228149414 0 40663952.228149414 -83580167.461303711 0 0 0 0 -20462595.605567932 47354086.63079834 0 47354086.63079834 -93089562.357788086 0 0 0 0 17724894.000730515 -46459779.594970703 0 -46459779.594970703 80435225.639038086 0 0 0 0 170528312.5093689 83791053.399688721 0 83791053.399688721 44259198.770202637 0 0 0 0 21867510.340986967 -10843962.84412384 0 -10843962.84412384 -68064883.073242188 0 0 0 0 26009706.349912643 5030973.2623901367 0 5030973.2623901367 -77416658.627410889 0 0 0 0 204478044.79916382 -116711695.35400391 0 -116711695.35400391 18736947.567016602 0 0 0 0 259070648.93364334 -21197009.025009155 0 -21197009.025009155 -10679807.459960938 0 0 0 0 10616026.960600853 24049832.295532227 0 24049832.295532227 -128044781.16241455 0 0 0 0 9755559.3701057434 7918300.1069335938 0 7918300.1069335938 -131959971.37850952 0 0 0 0 5471905.456073761 21740560.377349854 0 21740560.377349854 -114621616.39904785 0 0 0 0 107749267.98223877 -150797393.51281738 0 -150797393.51281738 52280064.360961914 0 0 0 0 -32645212.584883571 -50064470.997719288 0 -50064470.997719288 -5727528.5417480469 0 0 0 0 -32877974.684745789 -76475172.362304688 0 -76475172.362304688 72591342.557006836 0 0 0 0 72732554.125595093 -98909178.559753418 0 -98909178.559753418 -44060269.528991699 0 0 0 0 -26255917.063468933 -85975132.135131836 0 -85975132.135131836 48837579.544006348 0 0 0 0 51742506.174499512 -148830010.29980469 0 -148830010.29980469 61351837.789260864 0 0 0 0 71225494.998413086 -76786605.891273499 0 -76786605.891273499 7528139.9318847656 0 0 0 0 85938058.911750793 -22872175.101348877 0 -22872175.101348877 -10466782.116699219 0 0 0 0 131098732.26931 -72757931.339477539 0 -72757931.339477539 -31655465.680175781 0 0 0 0 27543435.545295715 -45029996.710632324 0 -45029996.710632324 -32185767.193284035 0 0 0 0 86206415.481258392 -24592176.092041016 0 -24592176.092041016 -130809708.27307129 0 0 0 0 13397489.531654358 -10011066.990844727 0 -10011066.990844727 -47691683.241376877 0 0 0 0 22553044.527786255 44672261.454742432 0 44672261.454742432 39890586.329162598 0 0 0 0 138811867.81416321 5102691.581237793 0 5102691.581237793 -48885056.474685669 0 0 0 0 15861173.245315552 -53160756.017913818 0 -53160756.017913818 -258172960.94030762 0 0 0 0 66194868.677913666 28120635.147872925 0 28120635.147872925 -407602585.20996094 0 0 0 0 3664045.7023696899 8816773.5014343262 0 8816773.5014343262 -138675079.3144989 0 0 0 0 56278955.935073853 -48915235.190505981 0 -48915235.190505981 -189762572.70849609 0 0 0 0 24284809.118904114 17059362.785614014 0 17059362.785614014 -228094795.99714661 0 0 0 0 51389311.598247528 13587442.21232605 0 13587442.21232605 -368777377.39501953 0 0 0 0 7667309.3353118896 -73956396.775512695 0 -73956396.775512695 -31468231.891662598 0 0 0 0 -7663413.3304138184 -21080427.458648682 0 -21080427.458648682 -94673148.380615234 0 0 0 0 -1419448.5238418579 2179395.8739013672 0 2179395.8739013672 -143296154.68597412 0 0 0 0 -11012667.607999802 -16360445.237457275 0 -16360445.237457275 -7512315.4826660156 0 0 0 0 7720151.9303207397 21731452.939208984 0 21731452.939208984 -165630441.78509521 0 0 0 0 -39383.278038024902 37210175.543212891 0 37210175.543212891 -136524143.70087433 0 0 0 0 74813857.123218536 102308309.29360962 0 102308309.29360962 -516241823.32269287 0 0 0 0 60684805.757389069 109169339.60925293 0 109169339.60925293 -391769714.76204681 0 0 0 0 50822122.521327972 25057961.980453491 0 25057961.980453491 -408150231.20050049 0 0 0 0 107688499.52375412 67045200.511825562 0 67045200.511825562 -660497867.2460022 0 0 0 0 160540239.82826424 74386512.283050537 0 74386512.283050537 -61744407.914428711 0 0 0 0 26283559.768478394 56476212.455078125 0 56476212.455078125 -56677051.173156738 0 0 0 0 58352189.894332886 101522032.81884766 0 101522032.81884766 -122786718.55508423 0 0 0 0 88152904.306182861 17988414.053894043 0 17988414.053894043 -99684506.57194519 0 0 0 0 112914391.58364487 144537933.0010376 0 144537933.0010376 42016490.983276367 0 0 0 0 87205121.767127991 99975319.694702148 0 99975319.694702148 -35210763.714477539 0 0 0 0 19818969.186935425 83453979.786499023 0 83453979.786499023 28092940.146118164 0 0 0 0 4300371.2448387146 104380559.22938538 0 104380559.22938538 70584400.516723633 0 0 0 0 -25465684.656106949 80134107.774978638 0 80134107.774978638 28126280.061645508 0 0 0 0 -12877975.485122681 50311738.644287109 0 50311738.644287109 -12416742.220703125 0 0 0 0 -20342993.575027466 65540060.876190186 0 65540060.876190186 -104551818.06225586 0 0 0 0 -28095287.073364258 36140721.468139648 0 36140721.468139648 -21980445.915893555 0 0 0 0 19767787.273410797 83351240.235473633 0 83351240.235473633 -136248533.87921143 0 0 0 0 -8674719.6861495972 91462593.958129883 0 91462593.958129883 -132151873.37164307 0 0 0 0 2366020.1388988495 106489503.19775391 0 106489503.19775391 -24049657.471923828 0 0 0 0 38528207.198928833 136595776.6053772 0 136595776.6053772 -283438560.7878418 0 0 0 0 19433833.02797699 120289211.70477295 0 120289211.70477295 -307230428.24775696 0 0 0 0 29229012.729202271 121034182.31793213 0 121034182.31793213 -307336062.25158691 0 0 0 0 51663259.883327484 169065653.45257568 0 169065653.45257568 -477885407.60351562 0 0 0 0 -2931713.897567749 142716462.55496216 0 142716462.55496216 -278879663.77362061 0 0 0 0 -13126694.373703003 243691347.56762695 0 243691347.56762695 -415345490.23269653 0 0 0 0 -55044231.066577911 190475865.2678833 0 190475865.2678833 -253171216.92971802 0 0 0 0 -27446584.188224792 125192598.85308838 0 125192598.85308838 -103148863.21102905 0 0 0 0 2687654.2356109619 49161246.561248779 0 49161246.561248779 -90787641.448127747 0 0 0 0 -132445168.55849075 328952374.05529785 0 328952374.05529785 -459973255.55822754 0 0 0 0 4724970.9997458458 151203911.16444206 0 151203911.16444206 -362819131.21643066 0 0 0 0 67508148.259586334 213545842.72697449 0 213545842.72697449 -581127918.59283447 0 0 0 0 43969362.378860474 197475419.13922119 0 197475419.13922119 -473423249.21425629 0 0 0 0 27818996.2995224 320195849.54928589 0 320195849.54928589 -613275231.51160431 0 0 0 0 132928406.14988899 327448416.72740173 0 327448416.72740173 -919398463.69897461 0 0 0 0 187070741.58557129 359715484.18786621 0 359715484.18786621 -907996010.66184235 0 0 0 0 32504954.265359879 340200443.1344223 0 340200443.1344223 -728504316.36914062 0 0 0 0 -42256613.008934021 481451088.26364136 0 481451088.26364136 -739427282.25069237 0 0 0 0 153729338.11403942 120863585.94908142 0 120863585.94908142 -852287402.44775391 0 0 0 0 126956657.27536201 105914589.29493713 0 105914589.29493713 -641741121.23156738 0 0 0 0 136657234.5991478 205132689.46624756 0 205132689.46624756 -670283767.65283203 0 0 0 0 162114396.07299805 212004515.45254517 0 212004515.45254517 -871124618.22671509 0 0 0 0 83887964.427354813 237083501.21936798 0 237083501.21936798 -629516098.49920654 0 0 0 0 255010133.41838074 192394109.04211426 0 192394109.04211426 -898703854.73612976 0 0 0 0 230215021.02758408 370252308.22175598 0 370252308.22175598 -1174085668.8345032 0 0 0 0 271498677.34698677 160675755.33368683 0 160675755.33368683 -1268749327.5097961 0 0 0 0 369603646.3688755 352900384.20484924 0 352900384.20484924 -1296963189.6781921 0 0 0 0 336790713.34739232 330809018.1348381 0 330809018.1348381 -1311800484.1695557 0 0 0 0 345913991.36351013 393088000.46087646 0 393088000.46087646 -1266020272.5845337 0 0 0 0 334856530.73314285 343715374.72385693 0 343715374.72385693 -1230944645.105835 0 0 0 0 356087406.44366837 369508423.00294495 0 369508423.00294495 -1316424556.6795349 0 0 0 0 75165207.407123566 552892209.53015137 0 552892209.53015137 -1159114861.0116997 0 0 0 0 78206653.382137775 542303591.46884346 0 542303591.46884346 -1172555943.3274841 0 0 0 0 153088816.34624672 460374540.88459778 0 460374540.88459778 -1141011697.7811584 0 0 0 0 291114480.31056976 292856297.22973633 0 292856297.22973633 -1390090011.0967941 0 0 0 0 325887118.83839226 465497213.01816177 0 465497213.01816177 -1482440841.3435974 0 0 0 0 -7564605.882938385 797181542.11146545 0 797181542.11146545 -1437156035.9124451 0 0 0 0 -60233708.447315216 1061720234.9667053 0 1061720234.9667053 -2765508235.9471283 0 0 0 0 -317165326.29158688 241601409.74444962 0 241601409.74444962 -485000627.4307251 0 0 0 0 -1070353968.0038071 1103112649.3386536 0 1103112649.3386536 -627754165.82418823 0 0 0 0 -138414506.29574203 661541655.76631927 0 661541655.76631927 -1076610359.2425537 0 0 0 0 -138445434.87738669 -42866501.895318985 0 -42866501.895318985 -208682407.4538269 0 0 0 0 -469035937.3333931 475350815.23615265 0 475350815.23615265 -510802384.60626221 0 0 0 0 -109647101.93582463 213400385.9763279 0 213400385.9763279 -309315751.47784424 0 0 0 0 -88582868.440414429 171953073.44084167 0 171953073.44084167 -431345443.1901474 0 0 0 0 -38285267.36157608 -122318068.54669189 0 -122318068.54669189 -16470127.633171082 0 0 0 0 -436533500.49634552 287562826.55340576 0 287562826.55340576 -182723430.64148712 0 0 0 0 -55807489.721754074 -75904008.565567017 0 -75904008.565567017 -44370324.357025146 0 0 0 0 -595345336.24491501 339134059.31755066 0 339134059.31755066 388556317.47415924 0 0 0 0 -3429699.0514634512 2185677.2518392354 0 2185677.2518392354 -1443061.3391274754 0 0 0 0 489871534.14394188 694920964.58760071 0 694920964.58760071 -4374366728.3998795 0 0 0 0 235208752.07771981 -64652516.94947505 0 -64652516.94947505 -2903967138.7210388 0 0 0 0 -170421452.03907013 178477384.47566223 0 178477384.47566223 -2043922415.7342587 0 0 0 0 -229017611.14118576 1112175196.3275909 0 1112175196.3275909 -1632669641.4155579 0 0 0 0 -44339547.176973343 49323623.545814514 0 49323623.545814514 -1450279987.7061157 0 0 0 0 -172742575.56392288 -372286989.66294861 0 -372286989.66294861 -2638416733.2195091 0 0 0 0 -1728017768.2441101 1193743137.2003174 0 1193743137.2003174 -2230311043.559494 0 0 0 0 -836103.79602442775 1061713.5747371912 0 1061713.5747371912 -445040.58290857822 0 0 0 0 -237328196.28138924 -364898627.90391541 0 -364898627.90391541 -699275774.00891113 0 0 0 0 68132330.587181091 -102595146.82080078 0 -102595146.82080078 -1531658251.9790649 0 0 0 0 -290785807.53737259 -105103147.82099915 0 -105103147.82099915 -165886559.22756958 0 0 0 0 -225381124.23993111 -227093672.23099422 0 -227093672.23099422 36458323.784851074 0 0 0 0 -74297061.281621933 133322002.87286377 0 133322002.87286377 -64539233.297386169 0 0 0 0 -222196133.21408653 -2191314.4055786133 0 -2191314.4055786133 -33910356.391540527 0 0 0 0 -239455101.51584625 78016427.557052612 0 78016427.557052612 -176072003.20187378 0 0 0 0 101952282.6122551 -23673384.434684753 0 -23673384.434684753 -14466474.629150391 0 0 0 0 -118660777.13866222 -81065241.433160305 0 -81065241.433160305 -522145976.94424438 0 0 0 0 -488067.63595749717 3660477.9999609888 0 3660477.9999609888 -2360361.3655929267 0 0 0 0 -4819324.17445755 77136369.65221405 0 77136369.65221405 -24621191.781381607 0 0 0 0 768988.45158514986 3054845.1757967845 0 3054845.1757967845 -7683264.0012102723 0 0 0 0 -2982085006.0429497 2028051027.7363586 0 2028051027.7363586 -2141286499.8311157 0 0 0 0 -4607005.9429740906 -14994931.903060913 0 -14994931.903060913 -46796792.400009155 0 0 0 0 -200552483.60728645 59747575.894851685 0 59747575.894851685 -22137499.317077637 0 0 0 0 -310344.14991868846 1668749.2590869367 0 1668749.2590869367 -3404470.531846039 0 0 0 0 -222236183.40401268 -71104727.274452209 0 -71104727.274452209 20425265.51020813 0 0 0 0 682575667.28053904 -2870887257.5873413 0 -2870887257.5873413 358817295.25134277 0 0 0 0 -1182219.9828622236 2678898.3378738798 0 2678898.3378738798 -5968033.2753167897 0 0 0 0 -771468677.26092052 617505587.2518158 0 617505587.2518158 614471358.77264404 0 0 0 0 -775718049.10829926 1221936383.1416321 0 1221936383.1416321 -342916492.29696655 0 0 0 0 -735637715.3198719 1051850388.7575989 0 1051850388.7575989 58455160.872955322 0 0 0 0 16343550.221487045 1243618071.5850372 0 1243618071.5850372 -1608989155.6213379 0 0 0 0 707567715.177145 257281296.61825562 0 257281296.61825562 -423600246.67761993 0 0 0 0 -17320210.632831573 105771128.27642822 0 105771128.27642822 47465073.415527344 0 0 0 0 -17611246.610712066 73182811.175375581 0 73182811.175375581 140911906.07342529 0 0 0 0 -734326147.11631966 378400439.04510498 0 378400439.04510498 -48828853.608688354 0 0 0 0 -595795259.89295197 -161247222.93743134 0 -161247222.93743134 14826314.734741211 0 0 0 0 -452895139.7360816 60731942.914295197 0 60731942.914295197 116100340.25915527 0 0 0 0 -250352095.08400917 218230942.29950714 0 218230942.29950714 131146855.44876099 0 0 0 0 -420238677.1482811 -29901008.373352051 0 -29901008.373352051 75034288.984893799 0 0 0 0 -302467668.36218262 -9574685.7425994873 0 -9574685.7425994873 78536870.863395691 0 0 0 0 -367115127.81373596 76525778.914726257 0 76525778.914726257 118891224.131073 0 0 0 0 -168592740.42166901 153732980.87654114 0 153732980.87654114 -26492635.55279541 0 0 0 0 108463695.79896355 123700870.12208557 0 123700870.12208557 -6106529.1608123779 0 0 0 0 -149761698.35323715 95964806.923248291 0 95964806.923248291 57917563.394348145 0 0 0 0 237516339.12751389 348286501.28791809 0 348286501.28791809 213738950.75326538 0 0 0 0 472950385.75976753 303347809.70626068 0 303347809.70626068 -663554152.712677 0 0 0 0 94116050.091571808 371450891.44515991 0 371450891.44515991 -102535196.11572266 0 0 0 0 -256778251.84067917 -8545813.8854217529 0 -8545813.8854217529 -166036996.82936096 0 0 0 0 -46430373.453115463 63924744.366439819 0 63924744.366439819 -556732944.82144165 0 0 0 0 -160008474.22887421 -121393137.08294678 0 -121393137.08294678 -763749302.09117889 0 0 0 0 -111468425.83755684 112288773.75655365 0 112288773.75655365 -310113238.05541992 0 0 0 0 39978630.68775177 15962224.111038208 0 15962224.111038208 -804345010.62318039 0 0 0 0 144916825.90475941 -2399568.8593215942 0 -2399568.8593215942 -1226704694.1072083 0 0 0 0 202364796.08416367 312392183.04855347 0 312392183.04855347 -734880163.76005554 0 0 0 0 347037788.30374527 355031244.12882996 0 355031244.12882996 -1332316683.1366272 0 0 0 0 287594014.20661163 219025304.45567322 0 219025304.45567322 -2202307442.7061768 0 0 0 0 188260159.10069084 422065004.75462341 0 422065004.75462341 -993003119.94399261 0 0 0 0 236333052.70882559 121880483.61253357 0 121880483.61253357 -736695804.20425415 0 0 0 0 376639862.63801336 282792550.52666283 0 282792550.52666283 -1311478125.5100403 0 0 0 0 213469660.22540855 370726766.31497192 0 370726766.31497192 -975133354.08670044 0 0 0 0 -279768293.71304512 234707574.01025391 0 234707574.01025391 -300262612.39453125 0 0 0 0 -369104110.12346268 555085521.43998718 0 555085521.43998718 -590320247.69161987 0 0 0 0 -42456923.492967606 119144691.38504028 0 119144691.38504028 -345384870.28438759 0 0 0 0 859504536.81821251 357302356.83954239 0 357302356.83954239 73021637.88444519 0 0 0 0 -2971977.2788514253 -1596149.6562670544 0 -1596149.6562670544 -2466969.2139548957 0 0 0 0 -33548366.814609528 40909706.014736176 0 40909706.014736176 -153878705.16523743 0 0 0 0 413964318.32634926 188523914.54572678 0 188523914.54572678 61106400.480407715 0 0 0 0 350679.08037222736 -1431077.1461618766 0 -1431077.1461618766 -2833118.7692711614 0 0 0 0 -2165214.5090429103 -8390670.3769876547 0 -8390670.3769876547 -11940192.243400365 0 0 0 0 -6108456.1676120758 -8958743.2624549866 0 -8958743.2624549866 -11206926.059768677 0 0 0 0 -3198225.8707962036 -22000252.00466156 0 -22000252.00466156 -27759287.125686646 0 0 0 0 1112988.2573887333 -2620444.3027617186 0 -2620444.3027617186 -3864615.2153735012 0 0 0 0 699150005.98687899 468806753.34539294 0 468806753.34539294 84311990.182373047 0 0 0 0 -6450675.8759155124 -9595983.693765521 0 -9595983.693765521 -11808460.757522583 0 0 0 0 -8708440.8774591871 -9249390.2890196964 0 -9249390.2890196964 -5714407.610718295 0 0 0 0 -6575986.6575517654 -6881252.8526000977 0 -6881252.8526000977 -11480546.586715698 0 0 0 0 -41055313.531967163 291920257.69290161 0 291920257.69290161 260301914.72669983 0 0 0 0 -5712772.0100698471 -8602322.3570556641 0 -8602322.3570556641 -13840924.197494507 0 0 0 0 -9546071.4247939363 -6782008.9310126826 0 -6782008.9310126826 -4510802.1390640363 0 0 0 0 -178793406.13895988 35541508.029594421 0 35541508.029594421 522047295.09181213 0 0 0 0 -12998838.24584198 181221773.26927185 0 181221773.26927185 650009491.55693054 0 0 0 0 -1076629576.2610512 334058004.59915924 0 334058004.59915924 629453782.59214401 0 0 0 0 -391123825.61434746 -240027657.24298477 0 -240027657.24298477 5406215.794631958 0 0 0 0 31034225.046909332 905595866.44887543 0 905595866.44887543 80024019.128463745 0 0 0 0 -1667669470.7075787 817931351.05223083 0 817931351.05223083 117697390.94174194 0 0 0 0 -2190619421.5704904 -1044558577.3498306 0 -1044558577.3498306 -303380556.48561096 0 0 0 0 -277363991.04495621 1828609452.6936264 0 1828609452.6936264 -3706082826.4064941 0 0 0 0 -1988502440.7479992 1189135700.725975 0 1189135700.725975 -89566720.798370361 0 0 0 0 -722077.11472233199 3970809.3673505923 0 3970809.3673505923 -6846920.5112709254 0 0 0 0 -1654670673.9551611 2248076192.16679 0 2248076192.16679 -1369754121.2648315 0 0 0 0 -637026188.23187256 -30323220.800582886 0 -30323220.800582886 645215487.43553162 0 0 0 0 -728419406.16546249 1118029106.4474716 0 1118029106.4474716 -460832323.6763916 0 0 0 0 -1148403377.176075 1012230194.4808044 0 1012230194.4808044 -150035124.71566772 0 0 0 0 -437497663.87903976 -1212579317.0920525 0 -1212579317.0920525 -2627364116.7716064 0 0 0 0 -714224465.5546608 -495588818.9647522 0 -495588818.9647522 -194026031.51797485 0 0 0 0 -374847.58406332508 104254.70587912574 0 104254.70587912574 -2357956.1967453063 0 0 0 0 2261123948.6334362 -447555309.94491577 0 -447555309.94491577 -3827609401.7857666 0 0 0 0 470063798.26881409 -58597058.80380249 0 -58597058.80380249 -3169340410.8846741 0 0 0 0 -1006293065.4283118 1529172783.35215 0 1529172783.35215 -2026434110.3049011 0 0 0 0 384522324.57379532 364281162.82803345 0 364281162.82803345 -1807332440.3151321 0 0 0 0 -78319125.678440094 834755402.85784912 0 834755402.85784912 -1364034994.0136719 0 0 0 0 238046504.76900864 42216835.434371948 0 42216835.434371948 -1410091676.490921 0 0 0 0 264275761.71674728 27167224.220687866 0 27167224.220687866 -1431092363.2340851 0 0 0 0 36575027.691530228 -287057588.31896591 0 -287057588.31896591 -804581628.98608398 0 0 0 0 217120982.85556602 42249175.610160828 0 42249175.610160828 -925101498.81130981 0 0 0 0 -167012858.40349579 -962278127.61535645 0 -962278127.61535645 -2112689905.8050995 0 0 0 0 237147373.37617683 138635705.54671478 0 138635705.54671478 -1829083589.1604919 0 0 0 0 8126490.5403900146 -498691302.09181213 0 -498691302.09181213 -1502888258.3374329 0 0 0 0 17613129.92634201 -259461993.66188049 0 -259461993.66188049 -655601739.58947754 0 0 0 0 -202101813.1823349 -349109678.39351654 0 -349109678.39351654 -584402096.30960083 0 0 0 0 -37312237.288555145 -308745395.16159058 0 -308745395.16159058 -630367313.10696411 0 0 0 0 -187725823.56280708 -352645213.00604248 0 -352645213.00604248 -4416485.0294494629 0 0 0 0 -130185060.16716528 -243835542.57144165 0 -243835542.57144165 -382518268.28823853 0 0 0 0 -174657308.30470276 -112747821.30795288 0 -112747821.30795288 -84153694.261260986 0 0 0 0 -97320448.715370178 -82265073.362182617 0 -82265073.362182617 -136659169.21463013 0 0 0 0 -108888824.88893127 -66799750.358642578 0 -66799750.358642578 -84232063.866088867 0 0 0 0 -115197141.52206421 34261437.088348389 0 34261437.088348389 27595414.369598389 0 0 0 0 -160380193.5486269 118404688.49359131 0 118404688.49359131 245068239.00012207 0 0 0 0 173222901.75933456 190431699.00213623 0 190431699.00213623 25711858.409118652 0 0 0 0 78283835.227321625 -70359564.08416748 0 -70359564.08416748 -714737767.12243652 0 0 0 0 -3753456.2804088593 -41481364.139091492 0 -41481364.139091492 -429862827.85888672 0 0 0 0 20892929.62417984 -116003417.05453491 0 -116003417.05453491 -599236699.27968597 0 0 0 0 46835566.119064331 -134010834.06509399 0 -134010834.06509399 -770037619.83726501 0 0 0 0 -97598126.601056099 -72568337.239498138 0 -72568337.239498138 -153125713.1293335 0 0 0 0 -78984449.201396942 -18031518.117584229 0 -18031518.117584229 -180039835.45930481 0 0 0 0 6226601.2032546997 -65268764.937988281 0 -65268764.937988281 -424297167.08343506 0 0 0 0 -14081300.727372169 16875388.80683136 0 16875388.80683136 -182461286.73608398 0 0 0 0 6494613.3644034872 -3776257.7968517691 0 -3776257.7968517691 -17316098.141499624 0 0 0 0 -81949539.245666504 17729687.095336914 0 17729687.095336914 156863536.47164917 0 0 0 0 10562715.935173035 -8874335.2976989746 0 -8874335.2976989746 -44623739.701934814 0 0 0 0 -63885705.56438446 -29740296.255981445 0 -29740296.255981445 151388704.82758713 0 0 0 0 -53283743.602600098 44138309.733520508 0 44138309.733520508 65732414.050537109 0 0 0 0 2631841.3083992004 7425645.5377807617 0 7425645.5377807617 -27465413.759460449 0 0 0 0 18726683.756858826 44723756.428194046 0 44723756.428194046 -48347195.420532227 0 0 0 0 -12053520.753349304 -32755250.318878174 0 -32755250.318878174 -158549981.38647461 0 0 0 0 -78110633.477161407 4581260.1346435547 0 4581260.1346435547 -21142398.52557373 0 0 0 0 -85783800.993286133 -918396.3525390625 0 -918396.3525390625 85046030.54019165 0 0 0 0 -58961721.564628601 6246308.5543823242 0 6246308.5543823242 -20998992.321350098 0 0 0 0 -80667072.838012695 12825535.924255371 0 12825535.924255371 69938488.701385498 0 0 0 0 -88039761.110456467 15173417.965919495 0 15173417.965919495 51293778.914794922 0 0 0 0 -69525881.630157471 -11760054.781005859 0 -11760054.781005859 57964651.975234985 0 0 0 0 -95663455.546630859 -10473904.703918457 0 -10473904.703918457 60532519.107391357 0 0 0 0 -52186234.90851593 6865359.5960388184 0 6865359.5960388184 -127794805.05046082 0 0 0 0 -86125596.653995514 -24260889.354797363 0 -24260889.354797363 -3069770.7922363281 0 0 0 0 -77335475.436922073 26804748.634515762 0 26804748.634515762 -7476326.46484375 0 0 0 0 -67982611.17300415 -5631431.0872497559 0 -5631431.0872497559 88032305.638061523 0 0 0 0 -51119166.62348938 14957256.188522339 0 14957256.188522339 48705342.740112305 0 0 0 0 -82824838.260803223 -8992318.1332092285 0 -8992318.1332092285 83794162.079467773 0 0 0 0 -59548838.584396362 -8782758.7621154785 0 -8782758.7621154785 83334630.817871094 0 0 0 0 -82810476.489120483 -29891171.311157227 0 -29891171.311157227 114101598.22705078 0 0 0 0 -98895304.514572144 133421.67678833008 0 133421.67678833008 111282304.43267822 0 0 0 0 -5695366.2640762329 75381630.809661865 0 75381630.809661865 136489394.67327881 0 0 0 0 65518710.218204498 49153386.196075439 0 49153386.196075439 -763458.92837524414 0 0 0 0 89113362.088412285 56891151.993368149 0 56891151.993368149 -33903337.975585938 0 0 0 0 12201050.189527988 75158769.087554932 0 75158769.087554932 12164413.499084473 0 0 0 0 81618017.845153809 96234628.841339111 0 96234628.841339111 3826226.5705871582 0 0 0 0 -41324989.397754669 94932833.290313721 0 94932833.290313721 29951537.698913574 0 0 0 0 -22355449.934646606 38460463.139526367 0 38460463.139526367 -12448578.104766846 0 0 0 0 -53776910.131835938 -7667600.0422973633 0 -7667600.0422973633 34709193.184082031 0 0 0 0 -49062611.096153259 61063539.481872559 0 61063539.481872559 28673363.498382568 0 0 0 0 19121659.509617805 36769964.366691589 0 36769964.366691589 30168869.918395996 0 0 0 0 14766770.804138184 36279339.944396973 0 36279339.944396973 30516910.236328125 0 0 0 0 38188057.498847961 -42111059.905151367 0 -42111059.905151367 83928419.136322021 0 0 0 0 43933367.202865601 21610924.099243164 0 21610924.099243164 37537815.766357422 0 0 0 0 -6694432.6601867676 -10415244.124389648 0 -10415244.124389648 60750632.146606445 0 0 0 0 -21082201.451667786 2891152.469543457 0 2891152.469543457 57340410.871826172 0 0 0 0 -21239755.854660034 -29955721.171142578 0 -29955721.171142578 96284496.621917725 0 0 0 0 37367750.266921997 -9323250.2844848633 0 -9323250.2844848633 56301183.899799347 0 0 0 0 36891270.855869293 37556628.624893188 0 37556628.624893188 43181039.424072266 0 0 0 0 89475617.395851135 -6965675.416595459 0 -6965675.416595459 51092540.435272217 0 0 0 0 85869535.158454895 34470532.661773682 0 34470532.661773682 34890564.455413818 0 0 0 0 26478222.112251282 16450417.433181763 0 16450417.433181763 43458139.157714844 0 0 0 0 65150287.47636795 45496400.70854187 0 45496400.70854187 33035613.993530273 0 0 0 0 59278508.300655365 55051531.094573975 0 55051531.094573975 17742287.812133789 0 0 0 0 6398105.7897877675 -691950.37773716636 0 -691950.37773716636 -14123625.992528632 0 0 0 0 1653324459.4393425 -114691924.53504944 0 -114691924.53504944 22591622.151321411 0 0 0 0 7201971.796076742 3763574.3084309995 0 3763574.3084309995 -20415035.063533306 0 0 0 0 1091135043.5432587 -271163896.27913666 0 -271163896.27913666 215101382.23789978 0 0 0 0 -344300761.2070713 505671561.73130798 0 505671561.73130798 -332609146.65609741 0 0 0 0 1683100139.6050229 -579642034.82701564 0 -579642034.82701564 12877652.660614014 0 0 0 0 -153154231.82265472 524461675.98219299 0 524461675.98219299 -531456683.41793823 0 0 0 0 3881772.2665416896 3819404.5124655738 0 3819404.5124655738 -3421411.7337226644 0 0 0 0 -219370716.92278671 536614773.57751465 0 536614773.57751465 -504039396.10400009 0 0 0 0 -440983560.46469688 443300244.3837204 0 443300244.3837204 61302706.975708008 0 0 0 0 899545098.26461983 -219743523.09759903 0 -219743523.09759903 -302368747.68484497 0 0 0 0 46890954.579376221 439288621.61965942 0 439288621.61965942 -477855019.88932037 0 0 0 0 1131573.6274852585 8969265.2485093251 0 8969265.2485093251 -19342182.858599752 0 0 0 0 1090059807.7776451 405984310.03392029 0 405984310.03392029 -417274838.0267334 0 0 0 0 127050241.65591431 124315852.09078217 0 124315852.09078217 70443905.592773438 0 0 0 0 106240129.76311874 309302760.67330933 0 309302760.67330933 -278858330.54522324 0 0 0 0 316668676.73436356 24859926.693511963 0 24859926.693511963 -29972715.017024994 0 0 0 0 2159588.2033711886 3116043.4256711341 0 3116043.4256711341 -2366746.9682791233 0 0 0 0 17485445.452615976 963129.20967102051 0 963129.20967102051 -28374879.874008179 0 0 0 0 9952491.1284942627 4359520.4728851318 0 4359520.4728851318 -22772706.689910889 0 0 0 0 12510684.195747375 3957727.4834899902 0 3957727.4834899902 -17233965.625793457 0 0 0 0 12174053.503247738 1508230.362991333 0 1508230.362991333 -33270932.636627197 0 0 0 0 8256453.6180763245 14067427.985244751 0 14067427.985244751 -45478059.595596313 0 0 0 0 12283888.924758911 5322817.1044845581 0 5322817.1044845581 -27097433.122833252 0 0 0 0 8616301.37981987 483888.58647155762 0 483888.58647155762 -33310389.543914795 0 0 0 0 1566045825.6723437 -188153595.46798432 0 -188153595.46798432 669745301.53057861 0 0 0 0 9223803.5395573713 4462302.9522211086 0 4462302.9522211086 -28532680.990420163 0 0 0 0 1477784287.5685482 -466257827.94487 0 -466257827.94487 -118496547.14685059 0 0 0 0 1348284495.0134106 153555840.08267975 0 153555840.08267975 -36535111.311958313 0 0 0 0 6844026.0613009809 5835029.9232194275 0 5835029.9232194275 -6314619.4614339843 0 0 0 0 1522874265.9253459 -1752863871.8772221 0 -1752863871.8772221 792090276.00323486 0 0 0 0 610530.28307688423 1142072.5928264819 0 1142072.5928264819 -4037350.3979467954 0 0 0 0 -201972705.68042946 276444047.78229523 0 276444047.78229523 36506252.268753052 0 0 0 0 1142183134.8725853 -768982642.5707016 0 -768982642.5707016 236173386.52537537 0 0 0 0 7988230.5561685562 386346.52388763428 0 386346.52388763428 -9005113.7304840088 0 0 0 0 683682.56161403656 -3862773.8128890991 0 -3862773.8128890991 -822320.53894042969 0 0 0 0 5400405.4074744489 4399365.6017999202 0 4399365.6017999202 -21917879.728659131 0 0 0 0 -303531.22831821442 -9149021.5046234131 0 -9149021.5046234131 -12766414.083587646 0 0 0 0 23551868.199322224 8362515.3896255493 0 8362515.3896255493 5806020.2204971313 0 0 0 0 7824657.9620864177 6151827.110373579 0 6151827.110373579 -27408352.388649568 0 0 0 0 7339618.177893715 9214115.0704140067 0 9214115.0704140067 -29248915.268231668 0 0 0 0 68143268.002056122 47950493.61416626 0 47950493.61416626 33535404.609680176 0 0 0 0 10651668.832418442 6926148.7447509766 0 6926148.7447509766 -43578474.591905594 0 0 0 0 14005746.889090061 9897997.6985168457 0 9897997.6985168457 -48616477.711929321 0 0 0 0 9080691.9736733437 3544336.2162628174 0 3544336.2162628174 -49658756.070495605 0 0 0 0 13883188.758528113 9255391.1629447937 0 9255391.1629447937 -51857366.755310059 0 0 0 0 2657336.8143515587 6618434.8971862793 0 6618434.8971862793 -38832297.540130615 0 0 0 0 494541.69475197257 1695467.5066528022 0 1695467.5066528022 1106171.7136412859 0 0 0 0 -218133.20878100395 -10083446.304103851 0 -10083446.304103851 -32127035.090789795 0 0 0 0 13965449.581888199 65189848.873641968 0 65189848.873641968 -13261754.615112305 0 0 0 0 -46730634.519878387 -35951207.923461914 0 -35951207.923461914 -10117766.064182281 0 0 0 0 -28851791.080875397 38022430.625350952 0 38022430.625350952 -48895052.281364441 0 0 0 0 7895370.7866134644 4774530.8059997559 0 4774530.8059997559 -56432646.519714355 0 0 0 0 -4772985.9678249359 12347480.861709595 0 12347480.861709595 -22592782.541107178 0 0 0 0 -451536.7112197876 6209574.5104293823 0 6209574.5104293823 -4910414.8563995361 0 0 0 0 7658600.9765310287 5105902.1747665405 0 5105902.1747665405 -20556473.618209839 0 0 0 0 44847654.35752821 -1308291.7821807861 0 -1308291.7821807861 -22484191.465782166 0 0 0 0 5435656.3977065086 19262151.273197174 0 19262151.273197174 -34018339.585571289 0 0 0 0 2679657.2232650905 13813532.448815059 0 13813532.448815059 -20731780.457606882 0 0 0 0 3713509.0586743606 7283601.0199109688 0 7283601.0199109688 -17502069.120578971 0 0 0 0 -149996933.54410267 113236213.5568924 0 113236213.5568924 160090797.60606194 0 0 0 0 9345393.2931973934 -216217015.25254822 0 -216217015.25254822 -119346292.8331604 0 0 0 0 53356868.729887724 85858241.89220047 0 85858241.89220047 238022081.59619904 0 0 0 0 187878340.11130929 -324092760.26695251 0 -324092760.26695251 -61516105.408889771 0 0 0 0 6872481.4253234863 9283857.3940963745 0 9283857.3940963745 -23270400.299087524 0 0 0 0 2720935.0838403478 6115335.9989190847 0 6115335.9989190847 -14241000.218059946 0 0 0 0 3088588.9470405579 13155024.337158203 0 13155024.337158203 -27130093.432983398 0 0 0 0 1762727179.79251 -667605574.04391479 0 -667605574.04391479 -154019799.14335632 0 0 0 0 8431382.445729319 -809583.03516350873 0 -809583.03516350873 -29770104.961492226 0 0 0 0 6022505.9328022003 8442833.7021484375 0 8442833.7021484375 -23922663.493732452 0 0 0 0 -1214007070.2423031 1187805057.3612099 0 1187805057.3612099 117462259.75265503 0 0 0 0 623287360.7590369 -779523992.77842331 0 -779523992.77842331 -1714461560.9552002 0 0 0 0 -158072546.02757168 591945650.21104431 0 591945650.21104431 -463103805.31176758 0 0 0 0 5998025.341819833 10895729.291810853 0 10895729.291810853 -24597824.662244156 0 0 0 0 899844341.11125529 -264705462.4132843 0 -264705462.4132843 -329383056.82803345 0 0 0 0 628451912.67808819 -142358065.96932983 0 -142358065.96932983 -195937777.97897339 0 0 0 0 631217.09321991634 1389221.1064601969 0 1389221.1064601969 -3569642.4143352583 0 0 0 0 1052357609.4337244 -657275097.07393646 0 -657275097.07393646 -194039463.38613892 0 0 0 0 598289132.92127085 -512993747.20883942 0 -512993747.20883942 -145375221.91702271 0 0 0 0 170640804.75291777 -109618706.79000854 0 -109618706.79000854 -76319250.000415802 0 0 0 0 388195951.2685113 -510785450.61594391 0 -510785450.61594391 410071859.84494019 0 0 0 0 -162436371.73175526 16548869.588775635 0 16548869.588775635 -205092433.26789856 0 0 0 0 185472694.63415486 -159382744.33235252 0 -159382744.33235252 -265358291.77740479 0 0 0 0 192427887.38320887 -245534509.58908463 0 -245534509.58908463 -619504720.51928711 0 0 0 0 182074058.88893604 404522320.21962738 0 404522320.21962738 -1703570887.0883026 0 0 0 0 -25691554.726734102 350369472.48777771 0 350369472.48777771 -583891771.09046936 0 0 0 0 935236323.63375974 162468619.09344482 0 162468619.09344482 -974842848.90264893 0 0 0 0 424320495.03631628 477274195.38744354 0 477274195.38744354 -113498128.96730042 0 0 0 0 412861490.50792873 193889369.47691345 0 193889369.47691345 -1201890091.1432495 0 0 0 0 -242055564.10089606 1181515547.8858719 0 1181515547.8858719 -1220805682.7972302 0 0 0 0 -65264283.199900866 266432878.10628033 0 266432878.10628033 -328305299.24243164 0 0 0 0 458731982.62078309 990808697.71495056 0 990808697.71495056 -3343221096.7529602 0 0 0 0 306037057.85189557 525168803.36597443 0 525168803.36597443 -1645758731.7020264 0 0 0 0 1051381568.3085433 1156401538.2293396 0 1156401538.2293396 -5355671769.003561 0 0 0 0 558615751.24509358 1682199648.7342262 0 1682199648.7342262 -3212441500.7425766 0 0 0 0 309469803.03652185 2421358833.8094444 0 2421358833.8094444 -5346260821.8573761 0 0 0 0 781037634.91131473 118885532.75355721 0 118885532.75355721 -5354562517.6731491 0 0 0 0 898718146.13399506 681428151.09532166 0 681428151.09532166 -3667786684.8178864 0 0 0 0 498263091.35625553 423548265.92785645 0 423548265.92785645 -3763135535.535923 0 0 0 0 -357590743.36586249 -284451801.45057392 0 -284451801.45057392 -511528443.96426392 0 0 0 0 -199786653.33898783 -691140539.00785828 0 -691140539.00785828 -1822654375.1941757 0 0 0 0 -188631936.92610043 193232662.3067286 0 193232662.3067286 -713101011.97521973 0 0 0 0 -157973413.5088594 -246918787.30341339 0 -246918787.30341339 -825865056.83678436 0 0 0 0 -168516452.12180495 -207581533.44082642 0 -207581533.44082642 -182448671.24363708 0 0 0 0 199566908.6429764 -121196815.18957901 0 -121196815.18957901 91215650.926437378 0 0 0 0 167648534.05644092 200550840.03545761 0 200550840.03545761 -619527280.05827332 0 0 0 0 -1813614.7513942495 11277849.213622581 0 11277849.213622581 -9513219.349258557 0 0 0 0 -126533787.42567158 -432044299.8557663 0 -432044299.8557663 -151855560.11913681 0 0 0 0 -349367.63214169769 3186727.1231920198 0 3186727.1231920198 -5310434.0692320466 0 0 0 0 -796062048.92520499 1282853898.7032623 0 1282853898.7032623 -915511913.81149292 0 0 0 0 -284104802.55454457 -1652417736.1625862 0 -1652417736.1625862 -4278717727.8628082 0 0 0 0 -1394734395.8499165 49900083.147052765 0 49900083.147052765 -5354073560.2153397 0 0 0 0 -237642724.07669741 953357375.77044678 0 953357375.77044678 -5246841180.5726662 0 0 0 0 472536323.31115961 -23274978.407610893 0 -23274978.407610893 -5354135907.5378265 0 0 0 0 122268286.90552315 -1017507710.7330093 0 -1017507710.7330093 -5196756329.6727753 0 0 0 0 79122311.165847257 796571751.03675842 0 796571751.03675842 -2324600877.5420151 0 0 0 0 254362643.2337496 801388757.07284546 0 801388757.07284546 -5595695039.2538738 0 0 0 0 1038106260.0869819 -338585935.10802841 0 -338585935.10802841 -5192094765.8134384 0 0 0 0 223201577.97674838 478711430.76867282 0 478711430.76867282 -1493878109.7978058 0 0 0 0 235443085.24624515 -21209943.655254364 0 -21209943.655254364 -1521503490.9555817 0 0 0 0 -613841734.00362837 320302664.40644073 0 320302664.40644073 346453451.79151154 0 0 0 0 12041453.376339972 16181296.016662598 0 16181296.016662598 -53349582.005828857 0 0 0 0 -75522.463763398817 79288.35612360388 0 79288.35612360388 81723.589650295675 0 0 0 0 37272501.234067768 -27821443.570053935 0 -27821443.570053935 -24248701.075576782 0 0 0 0 35884600.11931181 12807316.543487549 0 12807316.543487549 -38536572.972503662 0 0 0 0 569104.68215513229 12622741.943847656 0 12622741.943847656 -33181764.4634552 0 0 0 0 13047684.435865223 12636421.093854904 0 12636421.093854904 -40865014.866989136 0 0 0 0 945073.12705986295 11511518.717779808 0 11511518.717779808 -11521633.882819865 0 0 0 0 5043854.0919911116 11571914.090992242 0 11571914.090992242 -18120192.332375042 0 0 0 0 634748.31907320023 14044626.017959595 0 14044626.017959595 -39383617.667419434 0 0 0 0 580511.34666848183 11989799.568397522 0 11989799.568397522 -34394275.616088867 0 0 0 0 2047647.4308071136 7574242.7190437317 0 7574242.7190437317 -46690089.931518555 0 0 0 0 -1971024.801974535 16739781.8943367 0 16739781.8943367 -43707604.104064941 0 0 0 0 -10243352.029849529 10147709.574234009 0 10147709.574234009 -45471968.38949585 0 0 0 0 -5496398.0111649036 9797621.6669616699 0 9797621.6669616699 -45995930.006530762 0 0 0 0 -4305819.7486987114 11679577.58354187 0 11679577.58354187 -34130192.077545166 0 0 0 0 -4529523.1595234871 18106201.395004272 0 18106201.395004272 -30263119.157531738 0 0 0 0 -5328753.0659914017 16759991.391235352 0 16759991.391235352 -50216832.286865234 0 0 0 0 669393.03561878204 3890930.0730285645 0 3890930.0730285645 -59866906.190689087 0 0 0 0 -3282573.7554428577 11386400.292514801 0 11386400.292514801 -62937551.295837402 0 0 0 0 -11715060.974574804 2663849.7079315186 0 2663849.7079315186 -65182928.155456543 0 0 0 0 -2585181.3056764603 12934419.757904053 0 12934419.757904053 -87466550.84753418 0 0 0 0 -771833.22580337524 -2824643.8941650391 0 -2824643.8941650391 -103279221.11022949 0 0 0 0 1230589.0360660553 -7767948.7780151367 0 -7767948.7780151367 -123780778.88735962 0 0 0 0 7890697.1419765949 8975003.3629302979 0 8975003.3629302979 -69676835.619018555 0 0 0 0 -4729235.4831566811 13119863.346130371 0 13119863.346130371 -75287658.071716309 0 0 0 0 -17960069.092042923 -11041158.173553467 0 -11041158.173553467 -82101518.248718262 0 0 0 0 -2044604.1975040436 11482428.734985352 0 11482428.734985352 -67400266.680755615 0 0 0 0 4409584.6246185303 -3782202.8285522461 0 -3782202.8285522461 -59170709.580596924 0 0 0 0 -981365.61060142517 9268273.5841140747 0 9268273.5841140747 -66212116.481567383 0 0 0 0 -2605494.8754107952 9526902.3982620239 0 9526902.3982620239 -62548882.469390869 0 0 0 0 -6411525.9306459427 16791819.823394775 0 16791819.823394775 -66385276.891967773 0 0 0 0 -1517598.6431980133 9896278.4168548584 0 9896278.4168548584 -87404636.770996094 0 0 0 0 -5346262.3009896278 8432823.230178833 0 8432823.230178833 -76226978.963989258 0 0 0 0 43550.354152679443 18011995.813598633 0 18011995.813598633 -101165307.49145508 0 0 0 0 -3286099.0933804512 19098798.662155151 0 19098798.662155151 -80285555.797668457 0 0 0 0 -5614533.6332006454 17277189.763702393 0 17277189.763702393 -75292300.739746094 0 0 0 0 -2563799.8422746658 19485983.485992432 0 19485983.485992432 -73803803.964111328 0 0 0 0 -1116893.4677038193 21416464.456237793 0 21416464.456237793 -90299597.776184082 0 0 0 0 6243939.2066290379 9215116.0807342529 0 9215116.0807342529 -49055231.989624023 0 0 0 0 3099440.4309825897 14205000.338287354 0 14205000.338287354 -76003649.380310059 0 0 0 0 520455.02264773846 11441514.736465454 0 11441514.736465454 -62796831.763061523 0 0 0 0 10273308.26602602 7871397.9027404785 0 7871397.9027404785 -64363868.355903625 0 0 0 0 2672759.6607451439 17088281.151931763 0 17088281.151931763 -58078888.606994629 0 0 0 0 10288812.03402853 14804858.886230469 0 14804858.886230469 -73732174.059829712 0 0 0 0 20477743.232907295 11709436.180023193 0 11709436.180023193 -65238207.289810181 0 0 0 0 14881995.353667557 1668519.3591346741 0 1668519.3591346741 -36280763.10546875 0 0 0 0 10619901.252636433 7199986.4521789551 0 7199986.4521789551 -67293222.191696167 0 0 0 0 13431465.586462379 -10339161.992771149 0 -10339161.992771149 -23133685.904876709 0 0 0 0 35300089.128446579 2843385.1328887939 0 2843385.1328887939 -50406001.066711426 0 0 0 0 1193525.4480705261 9581307.7402954102 0 9581307.7402954102 -36841700.597816467 0 0 0 0 -85689.048747378634 127208.56203067303 0 127208.56203067303 98792.07947973907 0 0 0 0 2568401.5532819033 32555651.659385681 0 32555651.659385681 -74439334.764923096 0 0 0 0 12120472.261278033 12312607.524436951 0 12312607.524436951 -63989051.001680851 0 0 0 0 11396586.009593308 9999134.0902709961 0 9999134.0902709961 -71382612.037338257 0 0 0 0 -62726.15747000603 76515.167275756598 0 76515.167275756598 62420.835449531674 0 0 0 0 32720461.088695168 -16343652.049179077 0 -16343652.049179077 -42846805.984527588 0 0 0 0 26550852.0638026 28532164.341133118 0 28532164.341133118 -67306295.219390869 0 0 0 0 470549.39585417509 37697476.675491333 0 37697476.675491333 -60530361.502548218 0 0 0 0 9507189.7588231564 17374787.717773438 0 17374787.717773438 -53897291.637390137 0 0 0 0 -2201777.3616989851 24721982.213596344 0 24721982.213596344 -50046120.943161011 0 0 0 0 7224681.061194919 28909571.104103535 0 28909571.104103535 -48431790.413452148 0 0 0 0 7232980.1310373545 25853155.132858276 0 25853155.132858276 -44730213.317276001 0 0 0 0 -5198850.3692693114 28046986.335479736 0 28046986.335479736 -27948863.384735107 0 0 0 0 2023578.2204941511 25820118.741485596 0 25820118.741485596 -27713687.001159668 0 0 0 0 866394.69996738434 19545317.355010986 0 19545317.355010986 -10723012.570983887 0 0 0 0 1026484.8871996403 15487793.996948242 0 15487793.996948242 -37609855.779846191 0 0 0 0 4958681.4278467894 28932989.860992432 0 28932989.860992432 -25991284.824005127 0 0 0 0 -6824875.2112412453 22700709.109481812 0 22700709.109481812 -8221675.4056091309 0 0 0 0 11765731.322211027 11288161.774749756 0 11288161.774749756 -28060853.993530273 0 0 0 0 5167304.2229294181 29165749.155086517 0 29165749.155086517 -40961680.504333496 0 0 0 0 -6556750.0708642006 21210110.063430786 0 21210110.063430786 -19638029.597686768 0 0 0 0 -4902223.9171774387 17603304.522460938 0 17603304.522460938 -20620700.341556549 0 0 0 0 -12704253.959633827 60976687.345718384 0 60976687.345718384 -77442784.953430176 0 0 0 0 -22007152.190816998 21199809.409835815 0 21199809.409835815 -43054578.365203857 0 0 0 0 -12133200.043947577 30209616.770309448 0 30209616.770309448 -10119281.627655029 0 0 0 0 -455043.90700019873 12683389.89936313 0 12683389.89936313 -10392796.822276073 0 0 0 0 -145650222.07249999 57104185.169921875 0 57104185.169921875 61725803.215278625 0 0 0 0 -369043258.83240795 -9263109.1610679626 0 -9263109.1610679626 117115463.91572571 0 0 0 0 587228.9668668845 12954427.948561199 0 12954427.948561199 -12789003.61880118 0 0 0 0 -3038873.2593463659 5324820.9975204468 0 5324820.9975204468 16333483.182525635 0 0 0 0 448029328.99157953 -9053108.6450500488 0 -9053108.6450500488 -1493267307.7386627 0 0 0 0 222124234.02326179 -398475489.04114532 0 -398475489.04114532 -1484348826.3669689 0 0 0 0 658612633.19271803 -577739551.48245239 0 -577739551.48245239 -3138517092.8796082 0 0 0 0 951643051.59040785 -558548947.31233215 0 -558548947.31233215 -3178237397.849453 0 0 0 0 357643753.86683708 -1396024291.8959541 0 -1396024291.8959541 -2602495585.7232666 0 0 0 0 332583803.44713879 -633505569.79376221 0 -633505569.79376221 -2356941198.5736084 0 0 0 0 1043276847.0115155 -1144907853.4702072 0 -1144907853.4702072 -5356108647.2870941 0 0 0 0 -3462970634.6706114 -1732921589.3007889 0 -1732921589.3007889 -234070876.5035553 0 0 0 0 -2693867.952229376 346803.35072840005 0 346803.35072840005 -6703440.2371295094 0 0 0 0 225092414.28332195 -1660752500.0491867 0 -1660752500.0491867 -3098171375.8542938 0 0 0 0 -958903892.49118543 -3723713135.3563843 0 -3723713135.3563843 -5345013556.9130096 0 0 0 0 -322519142.07502365 102820635.50308228 0 102820635.50308228 -136007049.26272583 0 0 0 0 -158375154.82021904 -474584012.82691193 0 -474584012.82691193 -745031419.71108055 0 0 0 0 -2279920723.7729235 -1356074527.7943878 0 -1356074527.7943878 -612473093.39614868 0 0 0 0 2079614.0635821293 11041057.042450219 0 11041057.042450219 -12607060.585377969 0 0 0 0 -136939932.56301618 25036022.197135925 0 25036022.197135925 -84525375.132926941 0 0 0 0 5944237.992305994 14307629.136199951 0 14307629.136199951 -41008345.701599121 0 0 0 0 -405532211.67870945 -741100713.95040512 0 -741100713.95040512 -809762862.46603394 0 0 0 0 -12730519.328569412 26364387.667175293 0 26364387.667175293 28467381.185684204 0 0 0 0 7989164.8356105387 25100739.641312599 0 25100739.641312599 -7882450.1858520508 0 0 0 0 -1396834.0132211493 65064.498673722148 0 65064.498673722148 3282009.514503181 0 0 0 0 -5140981.8880398273 29382566.409210205 0 29382566.409210205 32995195.665481567 0 0 0 0 235758.46699768989 364377.10501720011 0 364377.10501720011 -2575816.6205864176 0 0 0 0 9114679.9894698858 32930223.512390137 0 32930223.512390137 4847520.2106323242 0 0 0 0 6098370.2005398571 9537755.0656366348 0 9537755.0656366348 11835662.881164551 0 0 0 0 8975175.3744485378 22528753.442443848 0 22528753.442443848 -10833055.271241188 0 0 0 0 -4648247.8242428303 21365285.467224121 0 21365285.467224121 8872957.1282958984 0 0 0 0 -279861.84456300735 17006242.918785095 0 17006242.918785095 -3223147.9635620117 0 0 0 0 -5946458.6864849329 21039756.416915894 0 21039756.416915894 -6061990.959197998 0 0 0 0 -10796254.980334759 13094281.257354736 0 13094281.257354736 -2318263.9017333984 0 0 0 0 -4531240.0709300041 15149929.695541382 0 15149929.695541382 -1755997.9521484375 0 0 0 0 -5252513.9764118195 15531240.15171814 0 15531240.15171814 -1442272.8376464844 0 0 0 0 -1098151.6856036186 21597133.606384277 0 21597133.606384277 -1351657.1116943359 0 0 0 0 4411688.0744341016 21922636.495803833 0 21922636.495803833 -11073606.917236328 0 0 0 0 -9248796.3436789513 9294882.1669311523 0 9294882.1669311523 703371.96252441406 0 0 0 0 -15599200.456281602 11829947.710983276 0 11829947.710983276 -260137.09285736084 0 0 0 0 608438.65862910985 3947838.5664951056 0 3947838.5664951056 -5401463.0942942128 0 0 0 0 -2879799.5474661589 10722739.723617554 0 10722739.723617554 713547.94598388672 0 0 0 0 -1653609.96102033 12360747.058990479 0 12360747.058990479 -16710206.39440918 0 0 0 0 -1673233.8203666173 -1022375.6516265869 0 -1022375.6516265869 -25747241.776245117 0 0 0 0 1265028.610275246 3907266.0206612498 0 3907266.0206612498 -5059805.579359889 0 0 0 0 4060634.9584636847 8308637.0375672877 0 8308637.0375672877 -15228938.775736459 0 0 0 0 -3178513.7027050257 14541322.812164307 0 14541322.812164307 5832823.920755744 0 0 0 0 30540621.62458694 386154055.85418701 0 386154055.85418701 609268.33460998535 0 0 0 0 -2775624.4872559309 14720824.79536438 0 14720824.79536438 3762767.1514282227 0 0 0 0 -1482334.7438154221 11236156.878814697 0 11236156.878814697 5855771.9678039551 0 0 0 0 5274893.8504053578 6622395.9930467606 0 6622395.9930467606 -8679688.4872436523 0 0 0 0 -1678005.7360185385 12963576.980041504 0 12963576.980041504 -1593637.633649826 0 0 0 0 402396442.5922184 -293946917.84384155 0 -293946917.84384155 -371038680.9310379 0 0 0 0 -84701898.539028034 -645162030.54741669 0 -645162030.54741669 -976503712.77990723 0 0 0 0 -41748.501061113981 -757302.11273987219 0 -757302.11273987219 -16903119.186831981 0 0 0 0 36980208.918426394 -34050051.670200348 0 -34050051.670200348 40175191.125457764 0 0 0 0 2147955.3900288809 1734980.4236679077 0 1734980.4236679077 -4855436.2156524658 0 0 0 0 2649892.9385265736 3385307.5226925611 0 3385307.5226925611 -15689604.464664042 0 0 0 0 19043049.433944225 3180064.1695251465 0 3180064.1695251465 -13677723.935668945 0 0 0 0 104103081.757972 41797976.125213623 0 41797976.125213623 1211834847.3257141 0 0 0 0 276303.38486006821 36629.810349412262 0 36629.810349412262 -373406.00167994201 0 0 0 0 303967.995128387 1173381.0541624576 0 1173381.0541624576 -6126193.8669670671 0 0 0 0 39461588.061730504 572316825.5375061 0 572316825.5375061 264664651.11871338 0 0 0 0 -820552344.83374357 -769406948.25592041 0 -769406948.25592041 -633765775.13916016 0 0 0 0 -380295368.38549638 309713339.8069458 0 309713339.8069458 315399758.5422821 0 0 0 0 357635580.36187065 231333185.12860107 0 231333185.12860107 13749915.601257324 0 0 0 0 -474919278.36306864 -740089606.32901001 0 -740089606.32901001 -842634438.38095093 0 0 0 0 367361.6288296358 2441781.718020834 0 2441781.718020834 -4763560.7563683093 0 0 0 0 776782605.56543982 -484975053.47163391 0 -484975053.47163391 -5336676362.7731628 0 0 0 0 -507668591.68919295 1844006046.5503235 0 1844006046.5503235 -2502467605.9583435 0 0 0 0 -220296599.99744871 -1073663415.2940979 0 -1073663415.2940979 -1250967827.325592 0 0 0 0 -432926598.17431003 1674312796.5112915 0 1674312796.5112915 -5345449561.8224869 0 0 0 0 -594858.57520049089 -30887160.711658478 0 -30887160.711658478 -475692609.63623047 0 0 0 0 56437238.688546754 1090614631.5773315 0 1090614631.5773315 -4992856327.2303848 0 0 0 0 170808320.94112793 188338801.40068054 0 188338801.40068054 136907184.17956543 0 0 0 0 -248719.61436012681 643975.56382437795 0 643975.56382437795 -1813719.1533609331 0 0 0 0 -861506505.11172605 1457623086.3448334 0 1457623086.3448334 -2456441927.3308716 0 0 0 0 816590531.35581315 -811727897.40853882 0 -811727897.40853882 -5746634895.1957817 0 0 0 0 147386.72607914452 1298010.7467827573 0 1298010.7467827573 -4597685.8357464373 0 0 0 0 1477551.8801710038 2670502.0642260946 0 2670502.0642260946 -6884924.1531252414 0 0 0 0 142572176.59043062 98881334.4478302 0 98881334.4478302 -114116631.63143921 0 0 0 0 116875421.36606491 -33850001.431488037 0 -33850001.431488037 -56127861.206123352 0 0 0 0 116883317.02999842 119682395.96424866 0 119682395.96424866 62906973.155822754 0 0 0 0 144291896.29921162 -61629526.088897705 0 -61629526.088897705 -173985167.89209747 0 0 0 0 -72324489.066859677 18461179.76018858 0 18461179.76018858 72039657.627807617 0 0 0 0 -64106108.737988256 -113255584.6163106 0 -113255584.6163106 59846909.407348633 0 0 0 0 -301079.36500359268 1867749.4796998799 0 1867749.4796998799 -4579590.0861621499 0 0 0 0 232306.33533991795 1518359.8234514929 0 1518359.8234514929 -1040871.4816996157 0 0 0 0 -25009186.674562469 43475943.147144318 0 43475943.147144318 42650144.361938477 0 0 0 0 -5567761.5581671493 329641.21892547607 0 329641.21892547607 -8867034.3668518066 0 0 0 0 -206744.90210125409 -4703002.8996505737 0 -4703002.8996505737 -33298687.563903809 0 0 0 0 -566784.18332693621 1603078.9505708963 0 1603078.9505708963 -3606041.7765713632 0 0 0 0 24913425.297958806 51030419.130996704 0 51030419.130996704 24923403.365905762 0 0 0 0 48800.462654631709 3960871.7480892646 0 3960871.7480892646 -42943601.682861328 0 0 0 0 8206200.9250532612 -12783050.812576294 0 -12783050.812576294 182387.6947517395 0 0 0 0 6715359.9012036398 31038991.099945068 0 31038991.099945068 -34177504.881347656 0 0 0 0 -27168395.342680246 32224623.981826782 0 32224623.981826782 3275494.8570251465 0 0 0 0 -7827812.1296433508 1648147.8363037109 0 1648147.8363037109 673390.65139770508 0 0 0 0 -21595540.403856192 -41760057.797241211 0 -41760057.797241211 -87923418.291564941 0 0 0 0 -263711.55578035495 788242.34884566814 0 788242.34884566814 -722658.65893141925 0 0 0 0 -24720901.056473136 7474173.9997253418 0 7474173.9997253418 9729112.5257720947 0 0 0 0 -9553439.6572148204 14033285.977828979 0 14033285.977828979 -5813284.211730957 0 0 0 0 -18147364.00625807 15466283.438247681 0 15466283.438247681 -4981529.5418395996 0 0 0 0 -15075561.193825632 19202100.461227417 0 19202100.461227417 -16221056.9375 0 0 0 0 -5739199.2151225805 15978033.219985962 0 15978033.219985962 -8591947.7876968384 0 0 0 0 -9241945.8543155789 24123444.418823242 0 24123444.418823242 -22039928.705871582 0 0 0 0 -2830059.3113129735 29480775.171768188 0 29480775.171768188 -40218718.441436768 0 0 0 0 -11409332.068601102 24549414.759468079 0 24549414.759468079 -21798905.874938965 0 0 0 0 -19254251.230284899 36878099.40145874 0 36878099.40145874 -37812679.365722656 0 0 0 0 -9651222.9176009893 30809554.188049316 0 30809554.188049316 -40135120.865292549 0 0 0 0 -17924771.591300666 18468459.383811951 0 18468459.383811951 -30477122.892410278 0 0 0 0 -31673359.224675357 22344024.671539307 0 22344024.671539307 -14378089.033050537 0 0 0 0 -44146654.917196006 31587274.953765869 0 31587274.953765869 -35104594.29977417 0 0 0 0 -19798500.967694566 26261124.941390991 0 26261124.941390991 -71889615.28503418 0 0 0 0 -41323584.7058056 41712914.0806427 0 41712914.0806427 -51294580.813095093 0 0 0 0 5426279.5442069173 52031234.987228394 0 52031234.987228394 -91233242.614135742 0 0 0 0 -7217808.7868978977 29503852.35093689 0 29503852.35093689 -46968022.853088379 0 0 0 0 -7349960.1202334166 75155283.351593018 0 75155283.351593018 -167475045.34528017 0 0 0 0 49220058.117796302 10886670.579540253 0 10886670.579540253 -98287714.889526367 0 0 0 0 -105056633.91764039 33604908.535049438 0 33604908.535049438 -66640220.51133728 0 0 0 0 -44287333.065510519 -35641170.476425171 0 -35641170.476425171 -161996074.51365662 0 0 0 0 -566901.64671677351 -10040423.624290466 0 -10040423.624290466 -109918084.8218689 0 0 0 0 -43619.282260423555 18663925.197374813 0 18663925.197374813 -58472580.157073975 0 0 0 0 -13969093.173715308 3491455.7919387817 0 3491455.7919387817 -66860590.871307373 0 0 0 0 -12136257.770397168 16538046.150356293 0 16538046.150356293 -78258260.888519287 0 0 0 0 86330777.225043535 292792422.35373878 0 292792422.35373878 412460660.66156673 0 0 0 0 -14686150.217184456 30231404.946799729 0 30231404.946799729 -42100615.661041968 0 0 0 0 316842172.0457058 406961309.4494381 0 406961309.4494381 268684145.44550848 0 0 0 0 -17831642.86371994 -927000410.86591053 0 -927000410.86591053 -644783055.24974632 0 0 0 0 314164778.44505882 129144190.35020828 0 129144190.35020828 143235744.35830593 0 0 0 0 1890879725.9582291 148769094.81046724 0 148769094.81046724 -291741342.77831888 0 0 0 0 435880157.97400284 482137933.59904242 0 482137933.59904242 670123771.03508854 0 0 0 0 538899743.27245712 472093766.91094589 0 472093766.91094589 152119850.98097992 0 0 0 0 410033173.03478241 91572626.980712891 0 91572626.980712891 -50178321.814159393 0 0 0 0 -5305700.043587463 8486767.3422979545 0 8486767.3422979545 4591618.329846737 0 0 0 0 634491837.81031418 331698277.95869064 0 331698277.95869064 -219596239.12957001 0 0 0 0 375974347.77294159 107912916.1674881 0 107912916.1674881 -49160908.118408203 0 0 0 0 405644018.02371216 56292416.008026123 0 56292416.008026123 -500554298.03059387 0 0 0 0 230219598.75388575 86915144.95142746 0 86915144.95142746 -677047627.43685913 0 0 0 0 250078331.56743622 204693314.11308289 0 204693314.11308289 -205813087.4107666 0 0 0 0 120145385.37945557 528763084.82328796 0 528763084.82328796 404718037.86345291 0 0 0 0 179314743.41902733 232333967.62634659 0 232333967.62634659 276782605.30680084 0 0 0 0 222073565.150033 206396389.41905594 0 206396389.41905594 -206477328.91711426 0 0 0 0 187858851.14630699 532636422.25704575 0 532636422.25704575 -33585177.931518555 0 0 0 0 548010375.65776062 148430273.98077774 0 148430273.98077774 -229143028.97580338 0 0 0 0 238387062.48423624 209407065.22059047 0 209407065.22059047 -1077975460.8917599 0 0 0 0 -17016682.863943543 23006536.424769562 0 23006536.424769562 -27045751.699869651 0 0 0 0 119233837.69904745 -489941738.31971222 0 -489941738.31971222 -903750200.83498383 0 0 0 0 621842580.49687958 776358616.4805069 0 776358616.4805069 183734451.60656357 0 0 0 0 -370121706.19551396 -1017520174.2950153 0 -1017520174.2950153 -1648129255.4213696 0 0 0 0 -427070924.57723808 45923523.940919876 0 45923523.940919876 -933066631.71972084 0 0 0 0 -644052132.54947615 -878551934.27051687 0 -878551934.27051687 -1452645429.6720867 0 0 0 0 -251064642.81897545 -1451033396.7059326 0 -1451033396.7059326 -1865467357.7698696 0 0 0 0 172111471.24908352 -1017255475.9523039 0 -1017255475.9523039 -2304867643.4693422 0 0 0 0 -108767561.00671196 -1826411831.5317421 0 -1826411831.5317421 -1844647101.7543526 0 0 0 0 4455256.8934044885 -70377.898256580345 0 -70377.898256580345 -2922098.4085302902 0 0 0 0 145608973.32742691 -230659332.92768669 0 -230659332.92768669 -1210499097.0506043 0 0 0 0 296345278.23916054 -440496861.51544952 0 -440496861.51544952 -2228435403.7646074 0 0 0 0 634960030.53966808 -385533952.59555864 0 -385533952.59555864 -1058108974.5713615 0 0 0 0 308239454.50303268 -764429630.79933071 0 -764429630.79933071 -1818666597.8559952 0 0 0 0 -112110266.96274185 -494931350.84189129 0 -494931350.84189129 -996465269.86892891 0 0 0 0 -625862617.59319305 -570436535.44292879 0 -570436535.44292879 -853265743.45745659 0 0 0 0 -523594364.14591122 -782087538.67059731 0 -782087538.67059731 -3142945045.205646 0 0 0 0 -191141708.76477432 -162605512.29202747 0 -162605512.29202747 -1754591304.0098267 0 0 0 0 -477281621.54412556 -1008490306.1400738 0 -1008490306.1400738 -3626976073.2207718 0 0 0 0 -463842491.09525871 -1868958103.5697975 0 -1868958103.5697975 -489864583.4257431 0 0 0 0 -342354141.83130264 -2628382717.1125526 0 -2628382717.1125526 -1316151726.7557907 0 0 0 0 142162711.09947586 -1853851078.7832756 0 -1853851078.7832756 -1108120079.0349045 0 0 0 0 -418040035.92476451 -1950116619.1381578 0 -1950116619.1381578 -296071314.8052063 0 0 0 0 -158332916.66609955 -1270121076.9925766 0 -1270121076.9925766 74305982.495317459 0 0 0 0 943115520.34181786 -899448892.15071106 0 -899448892.15071106 305571527.04358864 0 0 0 0 380602846.96168137 175671199.38638639 0 175671199.38638639 -4721079127.5902596 0 0 0 0 -2700104.9470067415 -181524.57225808362 0 -181524.57225808362 -1252190.824998551 0 0 0 0 -115965062.37866211 -236118931.51397789 0 -236118931.51397789 -2149856246.0179167 0 0 0 0 -254075358.84370518 -208692572.39745808 0 -208692572.39745808 -1694675938.510612 0 0 0 0 -170035712.14613438 57145236.616217732 0 57145236.616217732 -1541564982.1791146 0 0 0 0 2299568.6700819517 -122815.71423712303 0 -122815.71423712303 -1594559.3902740935 0 0 0 0 -184470266.48016405 -1061367002.4053661 0 -1061367002.4053661 -1465292846.3717513 0 0 0 0 -61185366.884756088 126606335.50253725 0 126606335.50253725 -2027697196.9088473 0 0 0 0 -37622272.10074234 55588753.828145891 0 55588753.828145891 -1956930147.7550087 0 0 0 0 -76068654.841831207 147069763.51991606 0 147069763.51991606 -1818863612.1556265 0 0 0 0 71363195.33842659 70683705.148292661 0 70683705.148292661 -2483312530.0197058 0 0 0 0 -7188896.4903702214 -4541884.4554836825 0 -4541884.4554836825 -5015347.0834447788 0 0 0 0 -107010634.91565037 -91282357.901676178 0 -91282357.901676178 -1625601060.5396633 0 0 0 0 -120451187.47013474 41401453.483545542 0 41401453.483545542 -1727737530.5642624 0 0 0 0 -48138964.276804924 -77084162.863147199 0 -77084162.863147199 -1917860102.5988009 0 0 0 0 -95543564.228366852 77836244.05322513 0 77836244.05322513 -1771917138.9067283 0 0 0 0 -116163382.96034718 100389783.40596265 0 100389783.40596265 -1581968074.2266474 0 0 0 0 -157387443.58085823 -3711436.0426127296 0 -3711436.0426127296 -1106820402.410604 0 0 0 0 -217592333.98617363 -107890036.80914938 0 -107890036.80914938 -1145130302.3584464 0 0 0 0 232320670.00609303 232384089.56841823 0 232384089.56841823 -1202043758.5727644 0 0 0 0 -213070189.19831586 -1000545739.452999 0 -1000545739.452999 -875819740.88606453 0 0 0 0 -780657221.81871986 -641317789.15030098 0 -641317789.15030098 -873957683.46563506 0 0 0 0 -585900134.55100441 86374814.799045444 0 86374814.799045444 -1203328174.3272316 0 0 0 0 582591768.90313148 641797184.92277408 0 641797184.92277408 -1470430618.4485693 0 0 0 0 552328211.26655769 1327060125.3473539 0 1327060125.3473539 -587983121.34748363 0 0 0 0 -1129360474.8250635 -352994806.22036815 0 -352994806.22036815 233000838.96020603 0 0 0 0 -3356155.1279407418 1744455.3088604985 0 1744455.3088604985 -1745901.8997315059 0 0 0 0 -484290087.87578225 29396576.830109119 0 29396576.830109119 35387837.755443573 0 0 0 0 -225543901.51071644 360730052.6962738 0 360730052.6962738 334216764.16092324 0 0 0 0 104946714.41401291 550393657.85651398 0 550393657.85651398 -199973230.89927292 0 0 0 0 -69385284.251081944 -352214784.08600324 0 -352214784.08600324 -402298342.79285115 0 0 0 0 -9585790.5585157648 4429090.6464725193 0 4429090.6464725193 -5524546.3726225151 0 0 0 0 433169242.88869953 374713340.99771565 0 374713340.99771565 -281842334.23857152 0 0 0 0 -100883079.92640591 43004775.865128845 0 43004775.865128845 153514908.47777212 0 0 0 0 -17349423.341933437 4959111.6027387157 0 4959111.6027387157 -9179728.870013237 0 0 0 0 96736329.093505859 612092630.07027698 0 612092630.07027698 122729635.81385589 0 0 0 0 -65848365.825380206 41535323.229929805 0 41535323.229929805 -19469875.548526764 0 0 0 0 -44139704.149182081 46469180.246656418 0 46469180.246656418 -23187310.782167435 0 0 0 0 -67679947.810804844 14382137.177982807 0 14382137.177982807 -30907261.622135162 0 0 0 0 256564556.60843658 361041239.87900829 0 361041239.87900829 427173882.37560844 0 0 0 0 -3583699.184437382 673862.37500350922 0 673862.37500350922 1678806.2685799212 0 0 0 0 138295733.37970734 23177299.055737495 0 23177299.055737495 -88545536.895812988 0 0 0 0 49203550.688898087 141677973.39399147 0 141677973.39399147 -205183524.39620894 0 0 0 0 -98529303.212303162 48564897.221078873 0 48564897.221078873 5069487.2088594437 0 0 0 0 -130348030.79022026 105069540.69594288 0 105069540.69594288 -16957893.121448517 0 0 0 0 -87064842.776442528 108053753.82080555 0 108053753.82080555 37004843.993053436 0 0 0 0 -71579738.353347778 94474739.939548492 0 94474739.939548492 -84221667.364509583 0 0 0 0 -147801653.54408836 207754315.15711212 0 207754315.15711212 -90426701.455307961 0 0 0 0 -41492105.619777679 70344902.314868927 0 70344902.314868927 -3790258.2827758789 0 0 0 0 -25484536.855098248 26518245.991179466 0 26518245.991179466 41984109.564315796 0 0 0 0 54392919.60974884 57377707.83259201 0 57377707.83259201 -58482151.063987732 0 0 0 0 123481554.59009933 -97563958.888011932 0 -97563958.888011932 78782437.17565155 0 0 0 0 -194526891.26410294 61775246.159963608 0 61775246.159963608 470627343.32682037 0 0 0 0 -402764673.49230957 823551763.37981415 0 823551763.37981415 40560702.708229065 0 0 0 0 -277105229.99575424 -463389885.08325958 0 -463389885.08325958 1148329571.9316254 0 0 0 0 500276.79902937915 2176883.1217691619 0 2176883.1217691619 -3334476.9202157315 0 0 0 0 87645463.161886692 47651197.310434341 0 47651197.310434341 -66850837.613586426 0 0 0 0 14654259.420012912 -416347.41083019599 0 -416347.41083019599 -22963428.745186936 0 0 0 0 155906683.64491272 -261549172.26286507 0 -261549172.26286507 204891945.65697479 0 0 0 0 1428369.6197509766 10065193.678276062 0 10065193.678276062 -5824023.7652206421 0 0 0 0 20785322.530857086 63305606.091472626 0 63305606.091472626 -211709594.34632874 0 0 0 0 5708900.9369226638 18450137.703181881 0 18450137.703181881 -35757595.916521214 0 0 0 0 5492089.3114643097 27454962.462654114 0 27454962.462654114 -7607094.5591201782 0 0 0 0 5837979.2421685001 14365575.388756355 0 14365575.388756355 -25283403.797419462 0 0 0 0 80464509.91109848 -2134701.7137107849 0 -2134701.7137107849 -141334233.25552368 0 0 0 0 22869789.603219036 -1120500.9210604876 0 -1120500.9210604876 -27956976.959359359 0 0 0 0 153174164.19852066 -51448687.455795288 0 -51448687.455795288 -186574540.83731079 0 0 0 0 130622093.26526642 -23467981.130867004 0 -23467981.130867004 -210362958.90338135 0 0 0 0 163713837.76025391 27673041.107406616 0 27673041.107406616 -216813255.01021767 0 0 0 0 223422207.11385345 -16019805.360519409 0 -16019805.360519409 -209790492.05775833 0 0 0 0 83012552.737524986 321031106.9278779 0 321031106.9278779 -418883742.07625198 0 0 0 0 184696498.68846893 13770929.191543579 0 13770929.191543579 -209985450.8263855 0 0 0 0 2214032.3352309 9752017.4384430535 0 9752017.4384430535 -10330726.165310688 0 0 0 0 -3283420.5990780876 30939197.232965413 0 30939197.232965413 -52990569.099258378 0 0 0 0 179812509.71514797 40056427.498886585 0 40056427.498886585 -93060033.483224869 0 0 0 0 183782603.60020828 15537253.854976654 0 15537253.854976654 -193832068.50302124 0 0 0 0 184816629.06554413 -78144337.391616821 0 -78144337.391616821 -231519943.34397888 0 0 0 0 338353212.22471046 -24446562.505695343 0 -24446562.505695343 -262938686.98007202 0 0 0 0 295889825.73078156 101837584.40882874 0 101837584.40882874 -140019166.34663391 0 0 0 0 455894031.95063019 98960701.880828857 0 98960701.880828857 -210138880.60832214 0 0 0 0 -13216502.906163491 37805451.323583774 0 37805451.323583774 -48937715.679835908 0 0 0 0 162610642.26646805 -53938398.453654289 0 -53938398.453654289 -179570719.28686333 0 0 0 0 12396642.284110315 -3252272.293357153 0 -3252272.293357153 -11404697.524860535 0 0 0 0 484236043.76925659 1490129041.7518449 0 1490129041.7518449 47914537.156393528 0 0 0 0 227601546.50173187 -138995540.17280579 0 -138995540.17280579 -368222668.71421814 0 0 0 0 222183720.36571503 -235446376.88168335 0 -235446376.88168335 -932345172.07966614 0 0 0 0 236651257.28283691 -152022854.78898239 0 -152022854.78898239 -351542141.89442444 0 0 0 0 299599273.37031555 -38658364.503601074 0 -38658364.503601074 -233616741.86629105 0 0 0 0 334066885.29991913 -106869380.10371399 0 -106869380.10371399 -359150465.09571838 0 0 0 0 453688076.55529213 38531726.494945526 0 38531726.494945526 -299420404.51095581 0 0 0 0 212235393.88184357 -139194257.04409027 0 -139194257.04409027 -254011275.28936768 0 0 0 0 118327655.22144318 -192914731.15924835 0 -192914731.15924835 -271508915.53236008 0 0 0 0 175840455.19722176 -248565000.32506752 0 -248565000.32506752 -434385675.39941406 0 0 0 0 -12627165.938201904 -305323387.53836823 0 -305323387.53836823 -260190142.14828491 0 0 0 0 -18321693.693689346 -192648350.4671936 0 -192648350.4671936 -150369696.7767334 0 0 0 0 95715864.270744324 -196730489.64424896 0 -196730489.64424896 -160115258.00733948 0 0 0 0 76019729.959579468 -123936221.21148682 0 -123936221.21148682 -105560455.17205811 0 0 0 0 77994134.559646606 -108609445.17196655 0 -108609445.17196655 -208609835.97342944 0 0 0 0 203229088.94234467 -101306620.54407501 0 -101306620.54407501 -208750413.16740417 0 0 0 0 80272036.477958679 -126034672.80555725 0 -126034672.80555725 -171644160.39346313 0 0 0 0 15706121.103092246 -6128773.4554181024 0 -6128773.4554181024 -15570086.388744203 0 0 0 0 84141762.568244934 17879126.428131104 0 17879126.428131104 -80020138.644180298 0 0 0 0 29714501.122200012 -49183818.835884094 0 -49183818.835884094 -184942242.55642319 0 0 0 0 29785541.037451163 -114164911.2100457 0 -114164911.2100457 -161784108.36856079 0 0 0 0 8651746.6318161599 92268.124168045819 0 92268.124168045819 -10310618.796326399 0 0 0 0 10741098.766442403 -6535357.4457390681 0 -6535357.4457390681 -11256442.931177538 0 0 0 0 -10591232.580467224 -41537505.072677612 0 -41537505.072677612 -36278448.370285034 0 0 0 0 -34433229.58990097 -100256437.23814011 0 -100256437.23814011 -75941074.793762207 0 0 0 0 21697436.372238159 -52573751.89201355 0 -52573751.89201355 -59026687.113265991 0 0 0 0 -20782169.137872696 -66986053.918533325 0 -66986053.918533325 4385109.9062957764 0 0 0 0 -24054189.163280487 -39857495.145370483 0 -39857495.145370483 -19036061.815322876 0 0 0 0 943193.18494639825 -3938876.6303891018 0 -3938876.6303891018 2532425.4363951683 0 0 0 0 87721052.614328384 2494387.9267959595 0 2494387.9267959595 8384809.7522583008 0 0 0 0 195555199.14225006 5191486.1143341064 0 5191486.1143341064 -36144735.319839478 0 0 0 0 125510.44752869196 -268629.88896174729 0 -268629.88896174729 -619036.02548890468 0 0 0 0 -276962.16155628115 -366274.8735834267 0 -366274.8735834267 1469787.569813028 0 0 0 0 -149345617.73322868 -62643840.278003693 0 -62643840.278003693 471002309.51733398 0 0 0 0 -51021110.069621563 -124439234.57769203 0 -124439234.57769203 -12610949.975097656 0 0 0 0 -189954712.14906311 -208682339.71555328 0 -208682339.71555328 -54071226.136535645 0 0 0 0 -336821721.61436081 -88630944.181640625 0 -88630944.181640625 92765069.013771057 0 0 0 0 358175110.1258316 -228238802.49511719 0 -228238802.49511719 71430789.544410706 0 0 0 0 62419225.507591248 -6532846.3372039795 0 -6532846.3372039795 83630512.162918091 0 0 0 0 30841462.558769226 149811503.25775146 0 149811503.25775146 169282346.75977516 0 0 0 0 -319266333.59732437 193887483.3527832 0 193887483.3527832 154553821.42034912 0 0 0 0 -243146799.89530182 1487013.5264472961 0 1487013.5264472961 123963961.54318237 0 0 0 0 -628790383.89601898 260145126.80462646 0 260145126.80462646 141855876.99719238 0 0 0 0 -521340830.10331535 78646163.909812927 0 78646163.909812927 218839673.09777832 0 0 0 0 -685140159.44853592 331444084.9666214 0 331444084.9666214 125770616.95040131 0 0 0 0 -658920694.90978432 267395035.80047607 0 267395035.80047607 256101781.01124573 0 0 0 0 -985710651.2999649 514642462.56242371 0 514642462.56242371 70503893.224243164 0 0 0 0 -758040055.67720604 308856022.87000275 0 308856022.87000275 256344632.31077576 0 0 0 0 -383956122.42665625 86705236.844277382 0 86705236.844277382 191960844.65220642 0 0 0 0 -890070248.10427475 87921003.205825806 0 87921003.205825806 349968918.75678253 0 0 0 0 -1133334282.4220314 424415609.30561829 0 424415609.30561829 40420695.824501038 0 0 0 0 -1117373572.8001614 144357788.76536751 0 144357788.76536751 -269043227.83422852 0 0 0 0 -1709231483.5123177 601926516.56687927 0 601926516.56687927 -426983430.01802826 0 0 0 0 -663172752.35746002 323019131.84085083 0 323019131.84085083 -218310944.29883575 0 0 0 0 -580649413.59083557 395773789.13250732 0 395773789.13250732 -252816728.17599487 0 0 0 0 -852267127.59491062 706652266.74211693 0 706652266.74211693 -976586133.08273315 0 0 0 0 -245567405.51096916 329018322.74951172 0 329018322.74951172 -757076070.77268982 0 0 0 0 -288799869.28014565 -271867601.43998718 0 -271867601.43998718 -565539300.12515259 0 0 0 0 -382400599.70731068 -352270244.28927422 0 -352270244.28927422 -1853092074.353714 0 0 0 0 -370301092.0226984 -182454389.72710419 0 -182454389.72710419 -638402270.86694336 0 0 0 0 158395618.05041695 436657799.43940353 0 436657799.43940353 -1664660888.5478287 0 0 0 0 -1314974782.2635155 668405135.46865845 0 668405135.46865845 -1239414268.04216 0 0 0 0 -1075847530.2419205 1028767740.3662872 0 1028767740.3662872 -1213708013.4324493 0 0 0 0 -1748275775.8232498 -305003384.13883591 0 -305003384.13883591 -740330916.27496338 0 0 0 0 -225854498.90023422 152041345.53581238 0 152041345.53581238 -2349576745.4298935 0 0 0 0 -1335664870.0274467 1144364167.2119064 0 1144364167.2119064 -1523727927.3196869 0 0 0 0 -121855476.80192566 273092042.6359787 0 273092042.6359787 -1427859592.2146072 0 0 0 0 -105225491.92105484 48430456.619560242 0 48430456.619560242 -541858459.18386078 0 0 0 0 -316718415.55486679 -234691853.96903229 0 -234691853.96903229 -812198046.78561401 0 0 0 0 -2627712.49817276 -471195523.28821564 0 -471195523.28821564 -329973783.83822632 0 0 0 0 -5919517.9064804316 -300125907.0770874 0 -300125907.0770874 -1006492004.4513397 0 0 0 0 -15284497.243794441 -281730735.10793638 0 -281730735.10793638 -27893712.346679688 0 0 0 0 40975652.782142639 -880985688.71133423 0 -880985688.71133423 -84633428.564056396 0 0 0 0 -830619213.5133543 -368659695.02256584 0 -368659695.02256584 576242394.46881104 0 0 0 0 -164441793.33031464 407878124.31172943 0 407878124.31172943 -427169905.5450592 0 0 0 0 171422259.94258785 -520277029.93220901 0 -520277029.93220901 564719905.41253662 0 0 0 0 51333695.044639587 -21506631.558815002 0 -21506631.558815002 -28527405.605026245 0 0 0 0 -3076506.6532177189 -12986927.561356982 0 -12986927.561356982 -19007187.523585454 0 0 0 0 -1266819.3466486931 -10726241.381580353 0 -10726241.381580353 -9125214.9693145752 0 0 0 0 22334571.656478882 -4330232.541595459 0 -4330232.541595459 -7109487.2423095703 0 0 0 0 4204910.1312581543 -6686614.7260262407 0 -6686614.7260262407 -10213043.102152813 0 0 0 0 -133925.21535251848 -3367366.2730231136 0 -3367366.2730231136 -3666952.0009714179 0 0 0 0 4113904.6655969033 3940416.8930882309 0 3940416.8930882309 -2136403.2988078743 0 0 0 0 -10131928.468672752 24322117.875289917 0 24322117.875289917 -22346108.872009277 0 0 0 0 49634696.297243118 13886379.839797974 0 13886379.839797974 -57326287.628143311 0 0 0 0 87055767.693325996 79877089.298435211 0 79877089.298435211 60303304.657348633 0 0 0 0 -3198833.1896057129 170506124.54255676 0 170506124.54255676 -30270028.516326904 0 0 0 0 -160055606.87696075 -103334798.96243286 0 -103334798.96243286 -69332230.618347168 0 0 0 0 2636390.0253181458 2090550.3591918945 0 2090550.3591918945 265303.25144958496 0 0 0 0 1712454.6378432149 653453.96855973452 0 653453.96855973452 -1613811.4486446902 0 0 0 0 -726819474.71444035 253384412.79971123 0 253384412.79971123 219558527.24630737 0 0 0 0 -254350907.54018021 78364316.590530396 0 78364316.590530396 221622454.63143194 0 0 0 0 -452574538.93621063 211384750.08368683 0 211384750.08368683 8605304.0938415527 0 0 0 0 -647630196.60482121 382395083.94774628 0 382395083.94774628 8674292.6617584229 0 0 0 0 -91919013.197957993 281963933.98726654 0 281963933.98726654 -278291703.26004028 0 0 0 0 -106608062.65063858 51977083.753799438 0 51977083.753799438 -209554452.63806152 0 0 0 0 -101510642.18361855 -98134904.375411987 0 -98134904.375411987 -436167352.28669739 0 0 0 0 -70532133.592260361 -214128583.56379318 0 -214128583.56379318 -33723255.187347412 0 0 0 0 189439244.84277344 224359875.57669449 0 224359875.57669449 -292223809.43855286 0 0 0 0 1172896.6127109849 1095611.0481932312 0 1095611.0481932312 -578643.16305868328 0 0 0 0 18525625.201468468 189526252.45745087 0 189526252.45745087 -129896599.32351685 0 0 0 0 52490648.003715515 14339708.8072052 0 14339708.8072052 3813811.7648067474 0 0 0 0 478107931.02340508 -69242475.270118713 0 -69242475.270118713 -276094893.26431274 0 0 0 0 -1979725.2841200251 -10157702.19190892 0 -10157702.19190892 -18960143.936211661 0 0 0 0 101680465.1472919 -65009455.439616203 0 -65009455.439616203 -17998976.548843384 0 0 0 0 933954700.40843105 -1251197997.9421997 0 -1251197997.9421997 -179673097.39476013 0 0 0 0 79217006.054481506 -35930895.087661743 0 -35930895.087661743 184960225.75196075 0 0 0 0 -433362482.02222729 -125011012.44337463 0 -125011012.44337463 709929637.72834778 0 0 0 0 -816804448.70347595 1352737230.9124603 0 1352737230.9124603 -681453296.7688942 0 0 0 0 -114434495.0520215 1403486732.0632687 0 1403486732.0632687 -1380124535.5682068 0 0 0 0 -107468999.25488281 1185912991.8185883 0 1185912991.8185883 -1308083932.5649834 0 0 0 0 64816324.057689667 -572775377.00673676 0 -572775377.00673676 -3595178904.0555115 0 0 0 0 69650212.553117156 -680339581.66235876 0 -680339581.66235876 -1333975949.7579956 0 0 0 0 368761330.65546608 1081300775.5319138 0 1081300775.5319138 -2088993231.3554688 0 0 0 0 497568098.58081174 509350425.00130653 0 509350425.00130653 -815632297.66583252 0 0 0 0 957720756.0960207 498908525.46084595 0 498908525.46084595 -1145004663.8298035 0 0 0 0 259083954.92242718 1035824080.9612732 0 1035824080.9612732 -1254642418.8551712 0 0 0 0 -8298489.0346038342 1080679145.0127659 0 1080679145.0127659 -994492537.61700439 0 0 0 0 218887153.69375116 349868922.20636797 0 349868922.20636797 -316342514.22103882 0 0 0 0 -349079691.08799553 896855935.58795166 0 896855935.58795166 -762068324.26145172 0 0 0 0 -275606706.33892715 842322172.85285568 0 842322172.85285568 -1739523779.8838806 0 0 0 0 1206691447.8425994 -220768471.61571503 0 -220768471.61571503 -752081905.498703 0 0 0 0 233410790.68367767 -260050543.67990875 0 -260050543.67990875 -283449891.13628387 0 0 0 0 231805525.54694557 -298034659.32800293 0 -298034659.32800293 74078397.745071411 0 0 0 0 -33909.012008533813 -6134135.810131317 0 -6134135.810131317 -15458883.217218742 0 0 0 0 -549043614.2833519 -290261560.95824432 0 -290261560.95824432 258234336.15883636 0 0 0 0 22696413.191272736 -133870410.46691895 0 -133870410.46691895 -81247641.612213135 0 0 0 0 -367903128.97814941 -450393149.15983582 0 -450393149.15983582 -282781369.47932053 0 0 0 0 -1146843254.4318371 -228416874.58328247 0 -228416874.58328247 333330242.21408463 0 0 0 0 736895.18155135307 -1657938.3641213104 0 -1657938.3641213104 -6589509.2182138115 0 0 0 0 -198301864.61929321 -1733438752.2684937 0 -1733438752.2684937 -1778979890.7379608 0 0 0 0 -1069762956.5083778 -236185204.26306915 0 -236185204.26306915 -1748759649.8803711 0 0 0 0 -2525195886.094295 -347063220.31941891 0 -347063220.31941891 -650481866.83303833 0 0 0 0 -2812086331.2618151 1042325659.6391792 0 1042325659.6391792 1052429950.8193665 0 0 0 0 -918217981.11925983 1566488814.9377365 0 1566488814.9377365 -2490346.4034538269 0 0 0 0 -1350763384.1211472 852884971.42387772 0 852884971.42387772 -347600590.02099609 0 0 0 0 -1386988037.1642914 479241033.9808197 0 479241033.9808197 -74686405.794113159 0 0 0 0 -853064427.20452023 249711064.09352112 0 249711064.09352112 -993934685.03123474 0 0 0 0 -406218437.74880505 640508407.92541504 0 640508407.92541504 -653095494.84288788 0 0 0 0 -271411838.38545609 489986668.60414124 0 489986668.60414124 -1089360433.2545586 0 0 0 0 -74224566.92686367 1061291179.4287109 0 1061291179.4287109 -980385692.64742661 0 0 0 0 -336086808.31118441 535859864.4572525 0 535859864.4572525 -1042832716.9767151 0 0 0 0 47731702.216500282 891217573.17410278 0 891217573.17410278 -1260724050.0730591 0 0 0 0 -178206054.88807774 621962019.00777435 0 621962019.00777435 -996049626.20324707 0 0 0 0 -179032087.04576516 634488071.26270962 0 634488071.26270962 -634937715.24206543 0 0 0 0 -123833579.59240723 650872054.09561157 0 650872054.09561157 -636358019.64364624 0 0 0 0 -25081525.167327881 415570738.00393677 0 415570738.00393677 -443914532.21166992 0 0 0 0 -162975177.75221634 578756131.04272461 0 578756131.04272461 -570665423.65371704 0 0 0 0 -225613251.99069595 608296309.04672241 0 608296309.04672241 -542567452.1459198 0 0 0 0 -189224570.08450508 570983026.08246613 0 570983026.08246613 -506206933.94360352 0 0 0 0 -127263684.6520195 699730366.55540466 0 699730366.55540466 -846788638.81765747 0 0 0 0 -281936791.86930847 972055369.60876465 0 972055369.60876465 -777271711.175354 0 0 0 0 -305038426.18189621 963488745.52459717 0 963488745.52459717 -595971863.9377594 0 0 0 0 -653321845.68803978 811028096.47517776 0 811028096.47517776 -416967465.38354492 0 0 0 0 -1355897298.5339236 -178608957.60640717 0 -178608957.60640717 -62281235.858505249 0 0 0 0 -845110217.76672745 75319591.0443573 0 75319591.0443573 -57304547.572250605 0 0 0 0 -920403986.70737267 148645813.19929504 0 148645813.19929504 183921206.20509338 0 0 0 0 -461634900.32272339 418037459.72011566 0 418037459.72011566 -146670330.64529705 0 0 0 0 -260998841.99743652 129338120.22204971 0 129338120.22204971 138628806.09591675 0 0 0 0 -427622363.31817245 97839392.122283936 0 97839392.122283936 -175719041.30294991 0 0 0 0 -320524633.62545013 459519045.88288879 0 459519045.88288879 -321471478.48371887 0 0 0 0 -831255350.67253494 253132542.69406891 0 253132542.69406891 -563740589.43978882 0 0 0 0 -2352452750.459137 504569709.63421631 0 504569709.63421631 -245715216.48719788 0 0 0 0 -973096374.16724396 622672483.30615234 0 622672483.30615234 -592437613.14665222 0 0 0 0 -1138250.4402143923 4203867.8963395106 0 4203867.8963395106 -3677632.7670537531 0 0 0 0 60511761.365968704 -98905582.268821716 0 -98905582.268821716 -55697383.171798706 0 0 0 0 -472738.17573842267 915571.14607255161 0 915571.14607255161 -1643020.3843933418 0 0 0 0 -790534915.0282135 -784727970.99401855 0 -784727970.99401855 -698524362.51628113 0 0 0 0 -780803702.14510918 -705744826.67599487 0 -705744826.67599487 -86260076.135620117 0 0 0 0 -718614171.80003357 -600318138.71779251 0 -600318138.71779251 59557689.56237793 0 0 0 0 -527272019.70723343 -706412228.52648926 0 -706412228.52648926 -726552192.7992115 0 0 0 0 -414800513.24070168 -439760315.2741394 0 -439760315.2741394 -98279956.209075928 0 0 0 0 -624661481.79873514 -646863694.00444794 0 -646863694.00444794 -103469481.41659546 0 0 0 0 -126524150.29284382 -211351000.79367828 0 -211351000.79367828 94331982.729064941 0 0 0 0 824432835.08307076 -105443381.83748627 0 -105443381.83748627 -410270339.06208801 0 0 0 0 -1237284.0707051996 2735270.1610101666 0 2735270.1610101666 -4001234.3832263499 0 0 0 0 22714148.923992157 79260586.349525452 0 79260586.349525452 72684850.317310333 0 0 0 0 445179926.03636742 -53989988.704349518 0 -53989988.704349518 -126550971.41638947 0 0 0 0 235732788.4531498 -289451222.18651581 0 -289451222.18651581 -94032432.190605164 0 0 0 0 -1937413.2661629268 8803804.888690047 0 8803804.888690047 -11800103.83686161 0 0 0 0 -469105722.6058917 -287525412.03209686 0 -287525412.03209686 -146503830.60054016 0 0 0 0 -1407971.8784603786 2712568.0348928664 0 2712568.0348928664 -1824273.6634780243 0 0 0 0 -206596835.92668343 134957748.43232155 0 134957748.43232155 221272939.27882385 0 0 0 0 -152908063.75101471 433010567.81719589 0 433010567.81719589 188655231.45529556 0 0 0 0 -713860267.37108421 8270432.3852558136 0 8270432.3852558136 101948531.70638275 0 0 0 0 -385066535.06790161 290126083.3078804 0 290126083.3078804 125066025.50110054 0 0 0 0 -939237166.56016159 96467269.097352982 0 96467269.097352982 212524307.21876526 0 0 0 0 -413067867.65417862 448319510.37394333 0 448319510.37394333 336299254.38300514 0 0 0 0 79786300.195235252 97941243.619321823 0 97941243.619321823 512978067.18054199 0 0 0 0 -410360853.76294708 510340943.77622223 0 510340943.77622223 429870950.26729345 0 0 0 0 -11899766.489031896 13433244.862406958 0 13433244.862406958 -15211758.431324916 0 0 0 0 -292327957.73410273 -1329319652.7114334 0 -1329319652.7114334 -634506407.16856384 0 0 0 0 -381178252.88457203 -585334825.22051811 0 -585334825.22051811 -1073698870.3643074 0 0 0 0 -1314990116.3218746 -851547732.87520027 0 -851547732.87520027 -917349013.90416718 0 0 0 0 -541692931.90342903 -917212490.40626526 0 -917212490.40626526 -1380396155.7816467 0 0 0 0 -4554441.6946310569 4078586.0514348783 0 4078586.0514348783 -4461290.3309422098 0 0 0 0 -1324284765.6719325 -1215221067.5676289 0 -1215221067.5676289 -2054395330.008358 0 0 0 0 -1658364525.6463585 -1171006890.2859039 0 -1171006890.2859039 1423337097.9236469 0 0 0 0 -413764380.7549299 456062003.50374341 0 456062003.50374341 350328455.22356415 0 0 0 0 -204002640.03679276 560538238.74282455 0 560538238.74282455 400717414.92543793 0 0 0 0 -1906209.4704205934 10593278.553535065 0 10593278.553535065 -19869281.636255667 0 0 0 0 -38632764.254491329 532467674.22860336 0 532467674.22860336 242551207.40332794 0 0 0 0 655094175.48698616 238669574.77970505 0 238669574.77970505 -521407927.09120178 0 0 0 0 308242475.33613968 -161296548.71871567 0 -161296548.71871567 -838325476.56118011 0 0 0 0 -1437208547.3834496 986284068.55711746 0 986284068.55711746 9852339.2858810425 0 0 0 0 1957664221.7748129 498426518.32844877 0 498426518.32844877 -4676365370.3395844 0 0 0 0 -477677926.76434898 646300962.95144653 0 646300962.95144653 -136180590.39360809 0 0 0 0 -2147500700.0391188 1399365630.7343102 0 1399365630.7343102 283857652.52046967 0 0 0 0 -1601916.3730713099 8354063.1060298672 0 8354063.1060298672 -21679218.249684751 0 0 0 0 -1957364244.6838779 -29704634.852462769 0 -29704634.852462769 314773232.144104 0 0 0 0 -1968735464.8339453 1171997653.8833737 0 1171997653.8833737 -88309678.844436646 0 0 0 0 -4101107657.2109704 1108939048.8166733 0 1108939048.8166733 -288631419.35079575 0 0 0 0 -1712284061.5760355 804655101.26712799 0 804655101.26712799 -619237225.29129791 0 0 0 0 -1039073.0937199554 2775474.7719543902 0 2775474.7719543902 -9840695.7803393453 0 0 0 0 -1924153004.4970732 -2096914922.5012054 0 -2096914922.5012054 117988835.08746338 0 0 0 0 -1473593915.2084103 -2286895825.2475758 0 -2286895825.2475758 -1786220177.8442307 0 0 0 0 -1488457108.5750184 -621431282.73805237 0 -621431282.73805237 -2033679327.2568588 0 0 0 0 -1325261692.3781672 -544068691.75368881 0 -544068691.75368881 -1073586792.3823376 0 0 0 0 -1561830552.971302 -697167921.88201141 0 -697167921.88201141 -1130627835.6784821 0 0 0 0 -1033981622.9172565 -253948269.36348343 0 -253948269.36348343 -972628933.51644897 0 0 0 0 -735321442.71693707 -745369278.77439499 0 -745369278.77439499 -990789201.21500087 0 0 0 0 -1235719094.7757311 -381124039.81374073 0 -381124039.81374073 -1166767041.6151428 0 0 0 0 -1231758307.1457283 -351405428.31233501 0 -351405428.31233501 -984317645.97743988 0 0 0 0 -2380167301.1731739 -308076884.92880249 0 -308076884.92880249 1362075742.5168438 0 0 0 0 -1283660125.4389076 361354576.85476685 0 361354576.85476685 -2477211143.5622015 0 0 0 0 -2324722057.057107 -237287598.94776154 0 -237287598.94776154 -864714587.15645981 0 0 0 0 491956502.7669239 344083737.61339569 0 344083737.61339569 -107117570.00611877 0 0 0 0 685362796.87210846 -92933366.473064423 0 -92933366.473064423 -254620441.3062973 0 0 0 0 155593201.59010696 -112190351.99931335 0 -112190351.99931335 53608410.931442261 0 0 0 0 32019998.299316406 412855329.5451889 0 412855329.5451889 -456566114.2769165 0 0 0 0 37277971.476581573 418959959.43600464 0 418959959.43600464 -544905437.12362671 0 0 0 0 -13689367.952003479 289018099.46914673 0 289018099.46914673 -159058375.1940155 0 0 0 0 357902721.67474937 211517739.65915298 0 211517739.65915298 -347530859.73748779 0 0 0 0 153124297.83322811 414407673.63079834 0 414407673.63079834 -346341735.38960266 0 0 0 0 -140823551.16663074 391230345.76203156 0 391230345.76203156 -322382005.53620911 0 0 0 0 -203424602.78516132 675694619.86427975 0 675694619.86427975 -512978779.12840271 0 0 0 0 -265825505.86151224 436946639.38745117 0 436946639.38745117 -360975765.0982132 0 0 0 0 172373934.86604214 629019704.58535767 0 629019704.58535767 -376778620.57884979 0 0 0 0 277462719.65188503 176178898.80522156 0 176178898.80522156 -233910300.83603287 0 0 0 0 -232890759.97793245 525640787.84893799 0 525640787.84893799 -108649324.31227112 0 0 0 0 -739979239.18918014 872549671.50428009 0 872549671.50428009 -89737929.944763184 0 0 0 0 -211023797.65705132 547894114.34375 0 547894114.34375 -305248213.14890766 0 0 0 0 -637843446.42972565 811747359.84181213 0 811747359.84181213 -336466486.14400768 0 0 0 0 -662271938.90425134 461969849.57601929 0 461969849.57601929 -566271135.46471024 0 0 0 0 -875271261.57202721 878173618.88006973 0 878173618.88006973 -561536543.07455444 0 0 0 0 -803551815.74250174 592501132.59514999 0 592501132.59514999 -583475517.2434845 0 0 0 0 -1516207656.1780024 497857510.11602783 0 497857510.11602783 -189059523.36338806 0 0 0 0 -1699618489.6387982 696389814.53577423 0 696389814.53577423 260244457.40859985 0 0 0 0 -1336041895.3638856 1291398512.5273638 0 1291398512.5273638 -291720026.25269318 0 0 0 0 -1563695915.4427538 779662248.63945007 0 779662248.63945007 268473350.62116814 0 0 0 0 -1647670481.8671761 1117126380.6802635 0 1117126380.6802635 -177900418.51840401 0 0 0 0 -260523301.93612081 954240967.23050666 0 954240967.23050666 -1313355364.7609177 0 0 0 0 -221634682.63481051 472060409.99674606 0 472060409.99674606 -2212527.3124542236 0 0 0 0 139956476.90923285 1063138097.8993835 0 1063138097.8993835 -563622498.31378174 0 0 0 0 -661432648.75425637 652036264.68478012 0 652036264.68478012 20360005.559104919 0 0 0 0 509563140.93730736 205655011.03437424 0 205655011.03437424 30371138.57982254 0 0 0 0 617845918.4856987 530302583.46125031 0 530302583.46125031 -333186046.05381775 0 0 0 0 1161886118.8618195 -454559271.17232513 0 -454559271.17232513 621826307.51107407 0 0 0 0 1132782943.5149746 565810273.13722229 0 565810273.13722229 -135273356.03692627 0 0 0 0 1303357047.1483517 -105338797.07937622 0 -105338797.07937622 478147078.64731216 0 0 0 0 6526511.0431424445 4295985.8616072778 0 4295985.8616072778 -6791835.2304396331 0 0 0 0 1714830574.3778334 -247974464.07964325 0 -247974464.07964325 -228701010.63716888 0 0 0 0 1455786294.2343006 -719785319.53905487 0 -719785319.53905487 236744754.0765686 0 0 0 0 577864214.7850709 -162907378.89302552 0 -162907378.89302552 228259985.42285156 0 0 0 0 -374424174.2162472 20190698.865722656 0 20190698.865722656 -469348796.44982719 0 0 0 0 1127316.5287435437 3064876.1196170207 0 3064876.1196170207 -7997978.7331836894 0 0 0 0 1286202.8181133387 967887.81920625828 0 967887.81920625828 -14347142.775194526 0 0 0 0 -1072311672.1946359 586347447.79630947 0 586347447.79630947 -228366173.25930786 0 0 0 0 1801162712.0262594 -1186157815.5967789 0 -1186157815.5967789 -524993532.8532753 0 0 0 0 3470332.4676229418 4771074.8319680318 0 4771074.8319680318 -20159773.494353876 0 0 0 0 4072364.3996486561 1064060.1590871802 0 1064060.1590871802 -5325989.5454604477 0 0 0 0 3293640890.5425344 -899009526.2793045 0 -899009526.2793045 -740136346.86600494 0 0 0 0 1268773350.2095788 52978814.245101929 0 52978814.245101929 1173867277.6039352 0 0 0 0 2118375391.785944 711431874.18950272 0 711431874.18950272 -332853921.38139343 0 0 0 0 2357221443.3988452 -1494208891.4562263 0 -1494208891.4562263 -1645759583.3017349 0 0 0 0 -389482762.34597301 -1137445356.422184 0 -1137445356.422184 1332674678.7822876 0 0 0 0 -333349880.77379835 -1770540004.5015182 0 -1770540004.5015182 -2264847898.9518814 0 0 0 0 169548597.85849088 -315581806.34251404 0 -315581806.34251404 -194265066.78274536 0 0 0 0 1203927825.9896824 618322207.33493686 0 618322207.33493686 -887446499.03764343 0 0 0 0 121887634.15510762 -32059888.169448853 0 -32059888.169448853 -1848984437.4841537 0 0 0 0 -1027806596.7743177 157661742.39519501 0 157661742.39519501 -932648334.59946823 0 0 0 0 -1199463232.4890878 -1266117478.6819077 0 -1266117478.6819077 -588886327.75273895 0 0 0 0 -1041654885.4372648 -1495773819.927587 0 -1495773819.927587 -3780627426.9693718 0 0 0 0 -656814443.16233838 -2318525009.7454114 0 -2318525009.7454114 -3775005708.0764999 0 0 0 0 -628424260.54413116 -2576082193.6939898 0 -2576082193.6939898 -1657945404.338913 0 0 0 0 -562106854.21761954 -2827010399.481164 0 -2827010399.481164 -3555717317.2061234 0 0 0 0 -217691493.98910999 -2457056129.0322304 0 -2457056129.0322304 -4134717487.6469955 0 0 0 0 -262999333.02234837 -3921287007.269989 0 -3921287007.269989 -5341933739.3577957 0 0 0 0 249536124.1466518 -3096127751.4807549 0 -3096127751.4807549 -3675628128.4395332 0 0 0 0 24749798.486581773 -3178004964.6033268 0 -3178004964.6033268 -1322963469.7471466 0 0 0 0 594507.76601463149 -1120437.4788242485 0 -1120437.4788242485 -1506798.3768495545 0 0 0 0 990420145.43558323 210888600.371418 0 210888600.371418 2011143593.855072 0 0 0 0 -903780098.89487481 1447575459.8580456 0 1447575459.8580456 -5311965072.4609375 0 0 0 0 -631110934.75885034 -3811230276.6706085 0 -3811230276.6706085 -4401434891.3536377 0 0 0 0 -187784.68004475386 317788.98717570119 0 317788.98717570119 -6010594.8601952046 0 0 0 0 863926.34595061257 4439939.3393252138 0 4439939.3393252138 -5817659.622639969 0 0 0 0 -2446953139.0813465 3067710422.4410858 0 3067710422.4410858 -2564082007.572937 0 0 0 0 -35770021.250698745 -617471952.83872032 0 -617471952.83872032 -472208936.87612915 0 0 0 0 -971309290.42232418 1176225227.3014908 0 1176225227.3014908 -198748671.23881531 0 0 0 0 -1881473284.7302694 514606537.04640579 0 514606537.04640579 -3850919905.1973648 0 0 0 0 -76362958.129169255 365472067.0014801 0 365472067.0014801 -3771643949.8530045 0 0 0 0 -874287309.00552654 -561192671.30080605 0 -561192671.30080605 -2621901894.2284088 0 0 0 0 -649479976.96303594 -69389978.549074173 0 -69389978.549074173 -2271229400.4647446 0 0 0 0 -776845557.96010065 16891942.485499382 0 16891942.485499382 -4348162782.5124741 0 0 0 0 -805685664.59143543 -1981577278.9550171 0 -1981577278.9550171 -3322705491.555336 0 0 0 0 -2902412559.9134231 2087162171.8016224 0 2087162171.8016224 -1999915930.9457016 0 0 0 0 -1199401125.4421175 976450190.32607937 0 976450190.32607937 -3988019810.7820129 0 0 0 0 -2613132565.8353605 -1797047813.9295673 0 -1797047813.9295673 -2696348817.4048157 0 0 0 0 -3259071220.3834858 -543337068.46963501 0 -543337068.46963501 -3576863696.6730957 0 0 0 0 -1268975864.8640335 -1674938816.5013638 0 -1674938816.5013638 -5356162417.1432228 0 0 0 0 -1153628949.0267718 -1091548199.3305435 0 -1091548199.3305435 -3524660790.8753319 0 0 0 0 -1017289304.6658036 -631760486.72049332 0 -631760486.72049332 -5353189024.3051796 0 0 0 0 -594835705.59449112 -186127680.64030457 0 -186127680.64030457 -4343479850.225502 0 0 0 0 64064402.759532444 -5627603.2236213684 0 -5627603.2236213684 -5354796488.0183792 0 0 0 0 -520900016.67815793 78986041.407489777 0 78986041.407489777 -4372706194.1116409 0 0 0 0 269697243.64764225 480772592.73440361 0 480772592.73440361 -4205455026.6567841 0 0 0 0 657990229.01043034 718787167.12369823 0 718787167.12369823 -5353717438.4167671 0 0 0 0 82000524.73690027 887489822.29538345 0 887489822.29538345 -3394697175.5833054 0 0 0 0 -257358772.92197648 249723560.97075653 0 249723560.97075653 -4280036960.210516 0 0 0 0 1282313645.7781079 1722691889.3660984 0 1722691889.3660984 -5355560066.7247849 0 0 0 0 923516352.20463192 1354093219.0643969 0 1354093219.0643969 -4013333413.4168129 0 0 0 0 957180177.91482639 767860962.31435776 0 767860962.31435776 -4080338451.8518052 0 0 0 0 479318644.38151705 1295737779.2756033 0 1295737779.2756033 -1870634859.6130028 0 0 0 0 874588.74631782831 -219963.20701862406 0 -219963.20701862406 -3517063.5770754758 0 0 0 0 1555386005.824955 -2191223854.7690563 0 -2191223854.7690563 -837913430.12247896 0 0 0 0 1064018239.0575427 -762922976.94050741 0 -762922976.94050741 -4395215416.9169617 0 0 0 0 -624123366.0936265 -1741911401.803524 0 -1741911401.803524 -2719511350.7799969 0 0 0 0 -911910378.06985474 -496790016.17671204 0 -496790016.17671204 -11207267.46723938 0 0 0 0 170633359.21175623 -335831994.93461704 0 -335831994.93461704 -3151978129.4244576 0 0 0 0 -887801908.03509617 2036571354.3586311 0 2036571354.3586311 -3454942086.5999718 0 0 0 0 -3444110.2477047443 -219024939.73558235 0 -219024939.73558235 -3684084789.2220726 0 0 0 0 1439320.3654720485 428142.9662039401 0 428142.9662039401 -4870432.4389181193 0 0 0 0 958013927.3010006 1157219397.0005751 0 1157219397.0005751 -1357669509.4694519 0 0 0 0 747012895.73299623 1430815579.6033649 0 1430815579.6033649 635359443.19396973 0 0 0 0 -609474377.41216433 166709524.57739544 0 166709524.57739544 -899951160.91867828 0 0 0 0 758908887.75073671 513092575.02468872 0 513092575.02468872 -3088914340.6467705 0 0 0 0 -286106198.80407286 -145524962.78593445 0 -145524962.78593445 -1176054992.930254 0 0 0 0 -832947485.47861362 -597997348.16407013 0 -597997348.16407013 -602525522.69533539 0 0 0 0 -228460506.79933393 -646293509.39663696 0 -646293509.39663696 -925818852.62088394 0 0 0 0 -700767829.15807509 -642882640.90996552 0 -642882640.90996552 -732965645.5363884 0 0 0 0 -16794703.511535168 -822275927.00799751 0 -822275927.00799751 -697185359.81325722 0 0 0 0 -4031200.8066830635 -431114939.25677681 0 -431114939.25677681 -31781377.762447357 0 0 0 0 -237781251.27178419 -528697077.475124 0 -528697077.475124 -308682818.68106079 0 0 0 0 396984119.28474069 -146320159.03346658 0 -146320159.03346658 -289117148.1704483 0 0 0 0 444066762.57560205 -481501421.95917511 0 -481501421.95917511 -613044792.62967682 0 0 0 0 -286234197.35155457 -142073948.00596297 0 -142073948.00596297 243174063.01017761 0 0 0 0 1184918748.3978062 308393461.45768023 0 308393461.45768023 -273294776.38473892 0 0 0 0 2899592.4001799785 41556.690132081509 0 41556.690132081509 -8584047.1074561328 0 0 0 0 1131350425.7449589 -400001234.44331741 0 -400001234.44331741 -520325521.17507172 0 0 0 0 -27298864.008758679 -546354398.94748855 0 -546354398.94748855 -5712843.4565086365 0 0 0 0 -59927256.69593668 423584703.73414612 0 423584703.73414612 -427918002.40895844 0 0 0 0 710286099.98108482 72899121.788635254 0 72899121.788635254 115873232.95005035 0 0 0 0 538428225.78406334 -269957469.52153015 0 -269957469.52153015 79936824.009394407 0 0 0 0 743524284.67670727 -304361211.43183899 0 -304361211.43183899 -481060325.0471611 0 0 0 0 482666476.38285279 -191741708.15777588 0 -191741708.15777588 11062649.787223816 0 0 0 0 -601176251.56987619 -1021053665.7696609 0 -1021053665.7696609 234088813.63378906 0 0 0 0 -1296281.9305072771 -920611.29903028719 0 -920611.29903028719 -397744.41466489434 0 0 0 0 -3897754.8688701391 -242304118.02768207 0 -242304118.02768207 -414352692.31811142 0 0 0 0 822365.29998376034 -14688.896395810414 0 -14688.896395810414 -1914914.1247229036 0 0 0 0 -1707819.067448115 -2410080.3833800275 0 -2410080.3833800275 -2561119.3842805997 0 0 0 0 44765507.471498489 173510427.97513771 0 173510427.97513771 -257837872.83320236 0 0 0 0 -27252196.728633881 -40827963.368682861 0 -40827963.368682861 -149053431.37814331 0 0 0 0 1684335113.9353046 -20613933.584070206 0 -20613933.584070206 -423854964.59329605 0 0 0 0 350104020.28460741 565274685.12916279 0 565274685.12916279 489065127.56079865 0 0 0 0 -23899106.552938461 -819254913.15201283 0 -819254913.15201283 -649943484.7647934 0 0 0 0 1417773821.4937325 -1392073658.5485115 0 -1392073658.5485115 -15853413.094240189 0 0 0 0 -220150197.12725258 -1156261406.0953369 0 -1156261406.0953369 1216804310.4537354 0 0 0 0 -220224964.19422746 -235576876.99588203 0 -235576876.99588203 -2008678811.9081345 0 0 0 0 -114242330.67853737 157738171.63512993 0 157738171.63512993 -591405911.62451935 0 0 0 0 -884088104.50527668 -1110461580.0948677 0 -1110461580.0948677 -1234259601.843914 0 0 0 0 -426940609.12959099 -1245593261.0110016 0 -1245593261.0110016 -1022769134.0979414 0 0 0 0 -584589091.34374714 -991418854.62832642 0 -991418854.62832642 -1429901194.710125 0 0 0 0 2517873.0471972292 422805.47460038215 0 422805.47460038215 -1808101.0291018309 0 0 0 0 -752160265.7357564 -382702990.30949378 0 -382702990.30949378 -1162223699.3260117 0 0 0 0 -595019101.03029466 -872367540.98861885 0 -872367540.98861885 -1841353.2828483582 0 0 0 0 90889804.523060322 -1384917887.0876865 0 -1384917887.0876865 -1016605144.2362871 0 0 0 0 -252455896.65678641 -1162659923.4935493 0 -1162659923.4935493 -1118021752.314043 0 0 0 0 -581649038.75588679 -987357317.9474473 0 -987357317.9474473 -901236795.71802521 0 0 0 0 -304488620.81436419 -973936881.7028656 0 -973936881.7028656 -1038861743.3146477 0 0 0 0 -267054452.5074178 -832091584.28386879 0 -832091584.28386879 -502556491.32538605 0 0 0 0 -318705926.42071819 -1541342122.0027447 0 -1541342122.0027447 -934617758.10966921 0 0 0 0 -175391199.13687181 -1347871110.1584549 0 -1347871110.1584549 -673920766.72831345 0 0 0 0 151598106.13064703 -197834247.02208138 0 -197834247.02208138 131921781.66804504 0 0 0 0 132359222.47555959 -262221994.09981823 0 -262221994.09981823 305467197.17592621 0 0 0 0 327846373.25500679 -336920869.86412239 0 -336920869.86412239 138591704.2633934 0 0 0 0 125943357.72512031 -196587916.32693291 0 -196587916.32693291 144353290.24198914 0 0 0 0 126562312.6221652 -138489033.42059135 0 -138489033.42059135 33235139.31819725 0 0 0 0 147114349.76722836 -80412072.593257546 0 -80412072.593257546 -60699704.415351868 0 0 0 0 141122278.01107541 -134559139.82619858 0 -134559139.82619858 20694781.76486969 0 0 0 0 46294063.051375017 -19526621.692244291 0 -19526621.692244291 28105412.265472412 0 0 0 0 52041857.248964727 -70163203.518913269 0 -70163203.518913269 130723068.16317368 0 0 0 0 16965438.586281974 -9790928.9105282165 0 -9790928.9105282165 -11629606.972857235 0 0 0 0 37505806.440978765 8179822.9066963196 0 8179822.9066963196 29614462.535301208 0 0 0 0 -828883.04323786125 -256415.06892704964 0 -256415.06892704964 73771562.263397217 0 0 0 0 118432888.36670876 -72428209.200645447 0 -72428209.200645447 87419880.008796692 0 0 0 0 13619592.504269278 -715601.5168454079 0 -715601.5168454079 -8598390.6111841109 0 0 0 0 -22979268.27003479 -80999566.221878052 0 -80999566.221878052 -17622584.10990715 0 0 0 0 10987369.439562201 -90175060.217340469 0 -90175060.217340469 221623368.54345894 0 0 0 0 170341073.34622002 154826037.95494175 0 154826037.95494175 34994333.216247559 0 0 0 0 1340786.8895139694 28010724.944313049 0 28010724.944313049 402138055.66177368 0 0 0 0 -16851640.950487137 -114258702.42821693 0 -114258702.42821693 1008343021.4468651 0 0 0 0 688265900.96056366 -1293554314.8550568 0 -1293554314.8550568 1376011399.3761444 0 0 0 0 1523049661.8410587 -394528934.35810471 0 -394528934.35810471 222974184.25042343 0 0 0 0 101461843.22757721 -631963132.26298714 0 -631963132.26298714 1856754640.579052 0 0 0 0 4777647.5487716971 63414.527214712463 0 63414.527214712463 -2380827.3642183649 0 0 0 0 1324101137.9943213 -1447638252.3904991 0 -1447638252.3904991 648113837.30451965 0 0 0 0 850012653.93713474 -142113933.00813484 0 -142113933.00813484 2245411.4721107483 0 0 0 0 1152852483.7053003 -897680493.8176899 0 -897680493.8176899 -114101090.17316818 0 0 0 0 667726926.44795227 -321330008.94447899 0 -321330008.94447899 -120529094.27683866 0 0 0 0 226988901.62495661 -370968554.26506615 0 -370968554.26506615 348708257.10796356 0 0 0 0 241217170.87164402 -349801211.59793472 0 -349801211.59793472 372279565.7840507 0 0 0 0 415185349.1994648 -613600013.69009018 0 -613600013.69009018 614159171.17458534 0 0 0 0 420643645.80066872 -579126053.52313232 0 -579126053.52313232 809503468.2897892 0 0 0 0 706197054.97730398 -405016811.29088116 0 -405016811.29088116 56133038.395141602 0 0 0 0 406513961.86958313 -485657329.3208847 0 -485657329.3208847 318112242.67538166 0 0 0 0 481703931.51879299 -336491796.58703613 0 -336491796.58703613 28140872.63312912 0 0 0 0 359447886.07188296 -423054698.23571587 0 -423054698.23571587 45250059.947994232 0 0 0 0 489294679.46171713 -347542017.18331528 0 -347542017.18331528 41941931.926300049 0 0 0 0 549099328.40731239 -167821340.39914513 0 -167821340.39914513 15716510.705479622 0 0 0 0 606024661.1275692 -299028527.7387743 0 -299028527.7387743 45913774.613889694 0 0 0 0 1797959.7362702079 660584.68128320575 0 660584.68128320575 -3340056.4331995919 0 0 0 0 -172185788.66300869 583110240.16523361 0 583110240.16523361 -787982623.75327015 0 0 0 0 481792288.32033443 -310105632.03838158 0 -310105632.03838158 132462958.80094337 0 0 0 0 571127896.41810417 -787150634.17708397 0 -787150634.17708397 125438851.54108858 0 0 0 0 564450.53765289742 -93891.19685376063 0 -93891.19685376063 -1502139.6557541862 0 0 0 0 544885394.21799755 -591774058.04086304 0 -591774058.04086304 -659272150.63972664 0 0 0 0 361182930.67680329 -361353977.29554176 0 -361353977.29554176 -126530886.96590424 0 0 0 0 441388768.3568486 -288034215.08292007 0 -288034215.08292007 -499853287.01951027 0 0 0 0 314043445.53023756 -422041094.96558189 0 -422041094.96558189 -119742191.21953964 0 0 0 0 308101272.68988323 -350056927.37009048 0 -350056927.37009048 -26681773.751564503 0 0 0 0 224441459.9100225 -255853782.94971848 0 -255853782.94971848 -11754818.098686218 0 0 0 0 263330607.28599581 -306030538.54011881 0 -306030538.54011881 44073864.664741516 0 0 0 0 261282492.00397158 -345072531.19855499 0 -345072531.19855499 149152392.37788486 0 0 0 0 238162022.92870808 -232209154.59117889 0 -232209154.59117889 -62404928.594350815 0 0 0 0 287768659.31690586 -291724291.20238113 0 -291724291.20238113 -191645357.75838661 0 0 0 0 251056056.16219997 -218012741.67455482 0 -218012741.67455482 -89906965.412899017 0 0 0 0 403092454.77669787 -254472848.23489189 0 -254472848.23489189 -226196934.98807144 0 0 0 0 431385825.64692605 -246262931.96895969 0 -246262931.96895969 -229232946.9084053 0 0 0 0 602027098.07059431 -104263132.50201416 0 -104263132.50201416 -371634905.21996307 0 0 0 0 469002297.12583303 202700.15003585815 0 202700.15003585815 -244318396.23852158 0 0 0 0 508667407.88053328 -233634395.15161419 0 -233634395.15161419 -468414008.16991806 0 0 0 0 427862976.51131046 15643171.850365162 0 15643171.850365162 -1184155766.799057 0 0 0 0 442027383.42671114 124816750.28653526 0 124816750.28653526 -811553634.44385338 0 0 0 0 283120916.18439484 317696464.91480637 0 317696464.91480637 -457838321.61764526 0 0 0 0 299420624.80606163 442303506.88000965 0 442303506.88000965 -689213944.3717041 0 0 0 0 263151217.13782856 362097660.36009026 0 362097660.36009026 -212288252.89608574 0 0 0 0 769396909.71247375 501203995.56737947 0 501203995.56737947 -124407880.32071114 0 0 0 0 728645931.97823918 74221411.590911508 0 74221411.590911508 -117616210.24753189 0 0 0 0 530071322.35555983 215155390.49180794 0 215155390.49180794 151875443.51588821 0 0 0 0 635400273.23687935 143391012.16860771 0 143391012.16860771 -427525299.01448059 0 0 0 0 315241101.19856465 -32573641.00067997 0 -32573641.00067997 -1881096714.0964451 0 0 0 0 145975178.74953365 498360071.8005724 0 498360071.8005724 -1971972285.6658623 0 0 0 0 242354019.46256447 157792810.38019276 0 157792810.38019276 -827734920.67057991 0 0 0 0 295456054.71687174 401425898.34284937 0 401425898.34284937 -1158204916.6647606 0 0 0 0 204521110.86036301 896168153.90174484 0 896168153.90174484 -869994245.77809715 0 0 0 0 -470266135.02060628 550770949.00683284 0 550770949.00683284 -1231912157.5862312 0 0 0 0 1205609656.5209522 698889545.7362895 0 698889545.7362895 -2881952255.1139107 0 0 0 0 -155665195.71342278 815052948.53016949 0 815052948.53016949 -1310514643.6922138 0 0 0 0 2749767.7428522841 309278.96679229476 0 309278.96679229476 -8081066.5637082085 0 0 0 0 -85201679.627783418 597747814.50486064 0 597747814.50486064 -946862393.81004333 0 0 0 0 3696872.0851034648 1832653.4604848512 0 1832653.4604848512 -8121066.1107941438 0 0 0 0 -1166337255.8836784 3348205928.0570164 0 3348205928.0570164 -5349045016.9494915 0 0 0 0 963969010.10386455 -276188616.27616644 0 -276188616.27616644 -377116362.81682825 0 0 0 0 -27377243.880349372 1697759726.1629715 0 1697759726.1629715 -2973164295.0987568 0 0 0 0 950348865.15885568 414933655.53584909 0 414933655.53584909 -146806008.58968735 0 0 0 0 788844642.20519257 -375510498.16134834 0 -375510498.16134834 610272503.26611006 0 0 0 0 1091608575.7099955 -40412026.770281792 0 -40412026.770281792 100022867.69508314 0 0 0 0 -1226976746.6881514 948254728.03868866 0 948254728.03868866 664451869.6775775 0 0 0 0 1070944042.4664869 795564549.58926964 0 795564549.58926964 842973697.57853603 0 0 0 0 321118.39485282544 377656.44395113317 0 377656.44395113317 -816313.52946391492 0 0 0 0 -243006875.53250733 524228162.38284302 0 524228162.38284302 -2174733.7585449219 0 0 0 0 -131988461.96365881 804062550.12173843 0 804062550.12173843 -194266656.71427727 0 0 0 0 34182303.730183363 1038800678.4479475 0 1038800678.4479475 -939072320.10714531 0 0 0 0 -105076127.5819819 783281988.83618164 0 783281988.83618164 -192487698.46517181 0 0 0 0 -1249752302.5475421 1933246713.4146786 0 1933246713.4146786 -257647198.14329094 0 0 0 0 439681721.41477937 3097565265.5571384 0 3097565265.5571384 -5328455641.2732983 0 0 0 0 1212400982.3260539 494585523.54192114 0 494585523.54192114 -1526843010.3424072 0 0 0 0 831495431.35107195 1318213258.6660399 0 1318213258.6660399 -3303958744.6650848 0 0 0 0 -1833731848.9028568 1720323378.4713562 0 1720323378.4713562 -956498660.73927307 0 0 0 0 2013885.2823453329 -3296719.7591395746 0 -3296719.7591395746 -8535622.3959444277 0 0 0 0 -121607277.23900524 -1453176887.4077132 0 -1453176887.4077132 -5344539688.6632862 0 0 0 0 101086550.96143423 -182624305.35504341 0 -182624305.35504341 -2993394793.0052066 0 0 0 0 6617968.3909216952 -2761806.4475571434 0 -2761806.4475571434 -11090562.477675321 0 0 0 0 24050945.545238495 17181047.900870323 0 17181047.900870323 -47791133.419676781 0 0 0 0 22089084.818711281 596064.21195030212 0 596064.21195030212 -30536477.043203354 0 0 0 0 23927497.970679998 2599100.5731871128 0 2599100.5731871128 -77778277.156017303 0 0 0 0 268894560.67259026 552246766.11688614 0 552246766.11688614 -5356109862.4164686 0 0 0 0 -6634547.523349762 -19338135.978527069 0 -19338135.978527069 -43099274.588421822 0 0 0 0 4399851.8907172875 -3628507.3753086319 0 -3628507.3753086319 -7408135.3829575665 0 0 0 0 36126182.871178254 743949554.32458496 0 743949554.32458496 -4899652136.0047274 0 0 0 0 -255815661.4885084 1191638867.6215591 0 1191638867.6215591 -5356468216.3402729 0 0 0 0 15429843.639276505 52774090.693857193 0 52774090.693857193 -148114596.79524231 0 0 0 0 26687170.438682556 35328536.531070709 0 35328536.531070709 -141683372.03136826 0 0 0 0 -616779.87887394102 -1775955.9857770111 0 -1775955.9857770111 496225.12454315508 0 0 0 0 -29289891.135525703 61200451.215036392 0 61200451.215036392 -139394251.39929962 0 0 0 0 -76256694.680089951 46878781.936279297 0 46878781.936279297 -73859442.364179611 0 0 0 0 -24381110.812383652 55253188.794530869 0 55253188.794530869 -54379370.571736336 0 0 0 0 -27230583.964227676 2365662.0695838928 0 2365662.0695838928 -310605.5806081295 0 0 0 0 -3218855.249123212 9823434.6062343493 0 9823434.6062343493 2022927.4979521055 0 0 0 0 56903.11717247963 53776173.167561769 0 53776173.167561769 -67816134.019533157 0 0 0 0 -15474406.574004173 40589010.104053497 0 40589010.104053497 -44994936.950018883 0 0 0 0 -367730.20018291473 22896159.573894501 0 22896159.573894501 -11914023.34422493 0 0 0 0 -3596589.3288468891 7823350.7672676723 0 7823350.7672676723 5733429.9195362851 0 0 0 0 -186156.4360742569 29021687.428311348 0 29021687.428311348 -14135343.000736237 0 0 0 0 -1925003.8626876043 12002251.748378217 0 12002251.748378217 -17889516.647606716 0 0 0 0 516358008.89012289 -89132194.448469162 0 -89132194.448469162 -60226182.6914711 0 0 0 0 609914915.98270106 19845227.988730907 0 19845227.988730907 -140245545.66057968 0 0 0 0 -869303.61936719157 11283297.759002186 0 11283297.759002186 -20040355.445964627 0 0 0 0 419492946.63840151 -55171811.638431549 0 -55171811.638431549 -835428973.89424586 0 0 0 0 602602125.20401025 -167921422.58514786 0 -167921422.58514786 -1501142437.7117233 0 0 0 0 426500596.23277009 -332367962.43490982 0 -332367962.43490982 -1550738707.0621872 0 0 0 0 1298725080.1492002 -615055549.91546059 0 -615055549.91546059 -5357810284.4983978 0 0 0 0 925837964.95946145 493828533.40120506 0 493828533.40120506 -4008699906.8782196 0 0 0 0 1219025347.0158336 -606862955.07575989 0 -606862955.07575989 -3001795371.01828 0 0 0 0 459757636.79734111 -817015468.53938293 0 -817015468.53938293 -3024064738.4470215 0 0 0 0 688866677.15409911 -2264199898.1283779 0 -2264199898.1283779 -5343553922.4359436 0 0 0 0 30327384.614153385 37751627.994449615 0 37751627.994449615 -7170567.4484100342 0 0 0 0 -1178601480.0657449 -1037155992.0291481 0 -1037155992.0291481 -510678487.18630219 0 0 0 0 -311189023.31096667 -448278965.55892563 0 -448278965.55892563 -391721716.5939064 0 0 0 0 -32966165.260748267 178934711.14265823 0 178934711.14265823 -227463150.56011581 0 0 0 0 73259278.821656227 221155417.13783455 0 221155417.13783455 -276884367.07885361 0 0 0 0 -6999813.2642092705 36628925.583221436 0 36628925.583221436 -52478901.872283936 0 0 0 0 1816573.9056645255 3030406.4863543482 0 3030406.4863543482 -2973291.1344101951 0 0 0 0 268211915.23435065 -966561550.14927673 0 -966561550.14927673 -5350828253.7467575 0 0 0 0 -1834747765.8048139 -1447753548.0918961 0 -1447753548.0918961 -708016795.49575806 0 0 0 0 -2801422.544949899 189071.0706124641 0 189071.0706124641 -5910122.5088755228 0 0 0 0 338528996.89814484 827288891.09130669 0 827288891.09130669 -4816038217.6314116 0 0 0 0 1632046.3931382734 -1636269.251909378 0 -1636269.251909378 -3043012.6910852119 0 0 0 0 -380324734.48284435 40950577.34866333 0 40950577.34866333 -75922659.717926025 0 0 0 0 -113198730.81908229 110313709.29574203 0 110313709.29574203 -151531322.39044952 0 0 0 0 -149877129.95570114 785467061.53651428 0 785467061.53651428 -5810480112.5552883 0 0 0 0 -2924123.4195394479 -3122466.9839819279 0 -3122466.9839819279 -13843088.588377833 0 0 0 0 31902715.761284113 -550911.19247245789 0 -550911.19247245789 -37636246.139549255 0 0 0 0 -37941312.440556683 29988459.615389824 0 29988459.615389824 -81398954.040744781 0 0 0 0 -3951575.8503795266 13516991.204750722 0 13516991.204750722 -4076969.4821211006 0 0 0 0 2241662.7986569405 16199065.970930815 0 16199065.970930815 -45221038.633370399 0 0 0 0 -9255800.2423558235 28130089.282604456 0 28130089.282604456 -45425007.787139893 0 0 0 0 85852777.713251829 -65516693.476739883 0 -65516693.476739883 -48852053.843238831 0 0 0 0 108815599.71502876 -32837577.872896194 0 -32837577.872896194 -29911733.198501587 0 0 0 0 9576906.2374331467 -877256.96495657554 0 -877256.96495657554 -34678808.353547484 0 0 0 0 103002547.13296413 -122898755.62533951 0 -122898755.62533951 127158426.23241138 0 0 0 0 4381127.0181387234 3831545.6014211662 0 3831545.6014211662 -10463571.660195909 0 0 0 0 213267469.60891962 -104717424.31124878 0 -104717424.31124878 -111457186.83107758 0 0 0 0 64091388.522624016 80037163.288881302 0 80037163.288881302 -213368815.35653687 0 0 0 0 -684973217.55216503 727183129.91223907 0 727183129.91223907 -517220681.26689148 0 0 0 0 -32879028.387089968 206027800.67392921 0 206027800.67392921 -735435561.58908844 0 0 0 0 -330665429.4510746 621366243.7400589 0 621366243.7400589 -755233197.25549316 0 0 0 0 622481291.06519079 -434592947.41706848 0 -434592947.41706848 835837636.60476685 0 0 0 0 1304474.5632460723 841272.95903146453 0 841272.95903146453 -3109320.7873517806 0 0 0 0 493058237.9757719 -629898974.03779221 0 -629898974.03779221 558175873.80158997 0 0 0 0 774367.66812601732 203763.81938776374 0 203763.81938776374 -1764523.6962679774 0 0 0 0 135773288.8853569 186166749.30224228 0 186166749.30224228 213134480.96070099 0 0 0 0 603331105.33962393 -693084747.65496063 0 -693084747.65496063 806305116.0406189 0 0 0 0 912196626.12267017 -154011188.36505127 0 -154011188.36505127 -830661194.81415367 0 0 0 0 -64380794.653301477 22801958.870073318 0 22801958.870073318 -128905180.3658905 0 0 0 0 -43538764.681391478 172822444.16992402 0 172822444.16992402 -117302496.58547211 0 0 0 0 -3344773.9636061778 4931040.3478055699 0 4931040.3478055699 -1524092.8231897745 0 0 0 0 -14881503.084905148 59323366.022607803 0 59323366.022607803 53186516.502052307 0 0 0 0 -13429230.734995842 56606435.640872955 0 56606435.640872955 -48435391.53411293 0 0 0 0 18286069.760145903 43646683.906011581 0 43646683.906011581 -49884722.476638794 0 0 0 0 59476439.648674965 34432559.173635483 0 34432559.173635483 -89865265.804897308 0 0 0 0 8602968.8830258101 -3824527.2780078463 0 -3824527.2780078463 -33873010.365638927 0 0 0 0 80333812.669999123 -8905623.2720346451 0 -8905623.2720346451 -58856243.332597733 0 0 0 0 89611488.16084075 -26602002.260297775 0 -26602002.260297775 -42206863.012496948 0 0 0 0 -2172530.2942438126 22316850.903977394 0 22316850.903977394 -38515881.899299622 0 0 0 0 175860275.1000309 368053536.82137918 0 368053536.82137918 -1314946989.7388878 0 0 0 0 163356568.5845356 298589793.52958345 0 298589793.52958345 -1680308710.7287416 0 0 0 0 206291482.74292082 50119203.010497093 0 50119203.010497093 -1112379046.4445381 0 0 0 0 -1217226.8593352532 4882149.2906754557 0 4882149.2906754557 -3570098.1904064333 0 0 0 0 -252464924.35064888 370621768.24120998 0 370621768.24120998 -996979314.7890358 0 0 0 0 357319103.98291719 280698640.02909565 0 280698640.02909565 -1889838124.8962479 0 0 0 0 -83813574.560050011 234608594.48446846 0 234608594.48446846 -1766674507.3799076 0 0 0 0 61548205.031764507 715020360.76117039 0 715020360.76117039 -2778315718.4219913 0 0 0 0 -781640574.47046185 1120450066.8326321 0 1120450066.8326321 -2891405503.5315552 0 0 0 0 471017787.53094864 -384583402.32743263 0 -384583402.32743263 -2838732085.171854 0 0 0 0 270734550.44224107 857051364.81794906 0 857051364.81794906 -890679660.80210495 0 0 0 0 -213153896.41800499 -955612051.67519379 0 -955612051.67519379 -110644710.72760391 0 0 0 0 -411399618.06739807 4966792.5374832153 0 4966792.5374832153 -142038714.33405685 0 0 0 0 -75504108.701558113 240888839.73442459 0 240888839.73442459 -548435082.63294983 0 0 0 0 148019408.0097847 -72612659.915973663 0 -72612659.915973663 -636161026.73051548 0 0 0 0 -44493838.643966675 41352342.955060959 0 41352342.955060959 -507630889.25730896 0 0 0 0 -74033611.472324371 28881148.309446335 0 28881148.309446335 -41967184.412929535 0 0 0 0 -88996375.617681503 -29761023.911510468 0 -29761023.911510468 -147091559.60378933 0 0 0 0 -133836002.74406624 81475296.556251526 0 81475296.556251526 -77758007.930625916 0 0 0 0 67884415.472824097 44664657.089118958 0 44664657.089118958 -195036264.80255127 0 0 0 0 62956177.10521698 76044873.364757538 0 76044873.364757538 -254348824.67894745 0 0 0 0 133427808.45013428 -47699035.775787354 0 -47699035.775787354 -99837135.302013397 0 0 0 0 135741847.06278658 -21182149.448841095 0 -21182149.448841095 -133887728.45983505 0 0 0 0 275727475.13283068 -156397437.15949011 0 -156397437.15949011 -176500551.83126068 0 0 0 0 236791937.85851717 -105680129.06476402 0 -105680129.06476402 -242512783.56923676 0 0 0 0 39452432.718715668 48120291.528022766 0 48120291.528022766 -239530952.16234398 0 0 0 0 258392638.80840302 -79989752.722141266 0 -79989752.722141266 -260640928.61329842 0 0 0 0 160217073.66454124 49111707.232437134 0 49111707.232437134 -415512853.23630524 0 0 0 0 180031884.82499599 -221973465.10429764 0 -221973465.10429764 -22445859.92243576 0 0 0 0 287507532.53223515 -27677055.325031281 0 -27677055.325031281 9023829.5118751526 0 0 0 0 168235330.1163578 -160158532.63331604 0 -160158532.63331604 -304705762.25157928 0 0 0 0 457734241.56065965 -107757345.23490477 0 -107757345.23490477 -171951037.76235962 0 0 0 0 283288034.01686001 -38344621.489894867 0 -38344621.489894867 -191527128.10562897 0 0 0 0 310101283.68291998 -193084034.1046257 0 -193084034.1046257 -221084203.91404819 0 0 0 0 -88236921.756917953 63717438.776964188 0 63717438.776964188 -53447134.476192474 0 0 0 0 -245493730.96859074 194564687.19638252 0 194564687.19638252 -86840200.759326935 0 0 0 0 -157864202.24099159 -190800785.06637955 0 -190800785.06637955 -299377188.60021973 0 0 0 0 -2743771.0224272097 2599194.1132989917 0 2599194.1132989917 1967885.1431873702 0 0 0 0 -6346.5419122120366 512611.99106847495 0 512611.99106847495 -997614.19815435261 0 0 0 0 -32249107.888227463 111978841.71234322 0 111978841.71234322 -144265557.68719101 0 0 0 0 -51508953.343139291 36652678.655372858 0 36652678.655372858 -104357182.94974899 0 0 0 0 45095291.764331818 58203965.110502243 0 58203965.110502243 -91871729.297281265 0 0 0 0 118098224.62256718 -93080867.705978394 0 -93080867.705978394 -64024622.740177155 0 0 0 0 54295513.737707138 -61887326.675796509 0 -61887326.675796509 -15298933.894577026 0 0 0 0 40068953.691138268 -15745300.516780853 0 -15745300.516780853 -226588720.93794632 0 0 0 0 24193561.216825485 -13895005.985402107 0 -13895005.985402107 -58009878.160938263 0 0 0 0 -60085161.759954453 -117612387.87249184 0 -117612387.87249184 -53819572.763050079 0 0 0 0 113062927.48797131 -55678829.130784988 0 -55678829.130784988 -89807111.655986786 0 0 0 0 497160.18603134155 -36233974.775575638 0 -36233974.775575638 44172299.772350311 0 0 0 0 11364176.485460892 -9036430.479081789 0 -9036430.479081789 -19389400.931868173 0 0 0 0 662057.67410564423 -112503176.09518623 0 -112503176.09518623 95688344.539193153 0 0 0 0 -167109498.88917351 417806088.24247169 0 417806088.24247169 -971909418.36242104 0 0 0 0 10168805.053346068 -6585458.1108355671 0 -6585458.1108355671 -33577861.370352365 0 0 0 0 1714331.6261591231 5429445.6601775829 0 5429445.6601775829 -7993505.7700951938 0 0 0 0 27212753.22185421 2664022.2879219055 0 2664022.2879219055 -56181730.004112244 0 0 0 0 117038.86318556126 -52729.537901314907 0 -52729.537901314907 87051.405903629027 0 0 0 0 71340668.894352436 605321713.62398863 0 605321713.62398863 -1754836678.6617565 0 0 0 0 -256093528.62039948 695566896.0585022 0 695566896.0585022 -1027953127.2687016 0 0 0 0 -180457808.7553978 381574918.11615181 0 381574918.11615181 -902297243.39603806 0 0 0 0 4800879.7771320343 -896252.71878814697 0 -896252.71878814697 -318327676.14143562 0 0 0 0 -663597813.63768005 368090639.42233849 0 368090639.42233849 -306599982.38227463 0 0 0 0 71238320.683677673 238312373.96539116 0 238312373.96539116 -747751069.96780968 0 0 0 0 -841857995.72708893 1280017906.0155954 0 1280017906.0155954 -1412475675.0673294 0 0 0 0 14454251.416385515 -10344838.515041891 0 -10344838.515041891 -14419058.879683468 0 0 0 0 -353301803.65384102 304370540.10927868 0 304370540.10927868 126533703.44417286 0 0 0 0 137888334.34579468 -16682900.308367729 0 -16682900.308367729 -129190604.4763155 0 0 0 0 158873909.74664307 -15852188.667696953 0 -15852188.667696953 -144341639.18773651 0 0 0 0 -36965829.998359442 -27681810.437925339 0 -27681810.437925339 127263435.28840256 0 0 0 0 18852605.39249447 24548112.048457384 0 24548112.048457384 49568183.014507294 0 0 0 0 -92081101.038971424 -32691073.556659698 0 -32691073.556659698 27063803.608503342 0 0 0 0 7153158.6176714897 20611034.094528198 0 20611034.094528198 -51794606.472610474 0 0 0 0 42048702.690381527 -11183923.791938782 0 -11183923.791938782 19382286.854320526 0 0 0 0 -3220872.4648661613 50586077.041210175 0 50586077.041210175 -39465095.965307236 0 0 0 0 42649803.344378471 -7427014.1268730164 0 -7427014.1268730164 26397979.530323029 0 0 0 0 21545683.129367828 5320408.1867771149 0 5320408.1867771149 29879866.829294205 0 0 0 0 27381228.319113016 -7493749.7416496277 0 -7493749.7416496277 51333520.92375946 0 0 0 0 -7964413.8733704602 3697587.3502943637 0 3697587.3502943637 -7415297.0207233466 0 0 0 0 -51619363.688339233 59717392.754573822 0 59717392.754573822 -18131649.790008545 0 0 0 0 -122938657.22216988 115849145.11748111 0 115849145.11748111 -1947975042.0418687 0 0 0 0 -30470183.383663177 97668839.029022381 0 97668839.029022381 -2030108068.8099091 0 0 0 0 -64302482.954035759 111385594.45957004 0 111385594.45957004 -1968680980.5771039 0 0 0 0 -2869538.4382771701 97235.346583176171 0 97235.346583176171 -2219259.7915422111 0 0 0 0 -125262728.28134918 -39936246.776720881 0 -39936246.776720881 -2507818741.2566071 0 0 0 0 105943534.90928268 441836073.08972454 0 441836073.08972454 -3628362604.9164915 0 0 0 0 -336695724.74201965 194858461.02470338 0 194858461.02470338 -1238465725.463625 0 0 0 0 -345463300.96074927 604894305.48253179 0 604894305.48253179 -1905629373.7761719 0 0 0 0 -313095299.55409873 208235545.68781841 0 208235545.68781841 -1904310341.2115154 0 0 0 0 -206059514.95558929 38322347.23169145 0 38322347.23169145 -1263876151.739387 0 0 0 0 -287693766.89388275 298336897.03878164 0 298336897.03878164 -1835961084.6005001 0 0 0 0 -363311363.46302319 188925296.64117688 0 188925296.64117688 -1100960682.1104274 0 0 0 0 -157253104.25798991 -326049427.13489389 0 -326049427.13489389 -621633774.62124813 0 0 0 0 -315471719.14310169 164272158.69791472 0 164272158.69791472 -1254292837.2622685 0 0 0 0 -526734471.88358307 3882464.7491894066 0 3882464.7491894066 -396669284.26089442 0 0 0 0 704299004.26960564 126117111.79633904 0 126117111.79633904 -777886082.21278763 0 0 0 0 -1405498.2461790061 -5629587.453352835 0 -5629587.453352835 -8134733.8068362027 0 0 0 0 108903833.6053932 -616392518.3795644 0 -616392518.3795644 239760056.34854078 0 0 0 0 123311304.41975689 161649561.47430587 0 161649561.47430587 -375441917.55156446 0 0 0 0 -216291544.93521118 -154011569.91895103 0 -154011569.91895103 -588435286.20397234 0 0 0 0 159640233.33363628 279897612.8363086 0 279897612.8363086 -250086743.12567198 0 0 0 0 -26823034.010358095 135093613.8911171 0 135093613.8911171 -1258012473.5980902 0 0 0 0 322348601.77634335 248404471.99977255 0 248404471.99977255 -1221330003.2804227 0 0 0 0 126106248.75901127 266154273.47112656 0 266154273.47112656 -1863396691.9682531 0 0 0 0 86620529.244288445 268936459.44850278 0 268936459.44850278 -1181211339.8485422 0 0 0 0 -698860851.98105049 368652443.82688332 0 368652443.82688332 -1141189764.7412105 0 0 0 0 -705518930.02454185 1074416791.6406507 0 1074416791.6406507 -2401537817.3775463 0 0 0 0 -886220855.60363424 220083327.18488294 0 220083327.18488294 -1764414220.7169695 0 0 0 0 160625096.99106145 484954824.12262559 0 484954824.12262559 -1683698824.5743961 0 0 0 0 228308135.9899826 427535735.08316565 0 427535735.08316565 -2506617924.598135 0 0 0 0 327327198.87148857 401499727.26176071 0 401499727.26176071 -1804067150.686193 0 0 0 0 282702450.52814198 250338605.80698013 0 250338605.80698013 -1323420273.3133411 0 0 0 0 158242767.7507658 479914859.77204609 0 479914859.77204609 -1586643721.3233914 0 0 0 0 26139671.202397823 403651611.15146971 0 403651611.15146971 -1316701304.8677282 0 0 0 0 -1812532.9902658195 -3771775.8564826483 0 -3771775.8564826483 -5817519.1694410341 0 0 0 0 71556590.949712694 442682249.8045491 0 442682249.8045491 -1321978073.6178799 0 0 0 0 16378943.72858429 5422043.786796093 0 5422043.786796093 -454675701.5747565 0 0 0 0 63496588.530570507 488051595.28725505 0 488051595.28725505 -1099845772.7951117 0 0 0 0 -820207905.80358291 1496675577.8532934 0 1496675577.8532934 174919482.66983414 0 0 0 0 -321539862.84013748 1404289113.4610558 0 1404289113.4610558 -2716692432.5444345 0 0 0 0 40710.983192657353 -894375.68250938505 0 -894375.68250938505 -2421664.0828522444 0 0 0 0 -495614287.0660212 951772911.22467041 0 951772911.22467041 -1882609994.9624352 0 0 0 0 -630653592.5384407 325942690.50086021 0 325942690.50086021 544056661.1589489 0 0 0 0 -699636314.19710255 18095501.97991848 0 18095501.97991848 311837828.2782917 0 0 0 0 392205.08897125121 -1186292.5355103605 0 -1186292.5355103605 -10382707.964382617 0 0 0 0 1031154831.6316538 -115919370.0796814 0 -115919370.0796814 -303204497.02449989 0 0 0 0 255109052.19465351 -425238036.38443947 0 -425238036.38443947 -61924798.671191692 0 0 0 0 233901033.9418273 296297423.45221043 0 296297423.45221043 124161398.08460236 0 0 0 0 98191966.875246048 60069192.017296791 0 60069192.017296791 202844661.49509621 0 0 0 0 93189287.434277534 162584199.41572863 0 162584199.41572863 -1551653199.6742229 0 0 0 0 933565673.11670494 -74991465.21655941 0 -74991465.21655941 -523506769.53056717 0 0 0 0 267309.95675297151 -1411786.9828778899 0 -1411786.9828778899 -7922734.1294921543 0 0 0 0 -1168538423.2219648 -1917949812.9617491 0 -1917949812.9617491 169673282.08283043 0 0 0 0 -2923832.4298195932 -6433861.6283580242 0 -6433861.6283580242 -8472126.5044823941 0 0 0 0 375682391.36601162 -318918325.75251955 0 -318918325.75251955 -519180370.42578757 0 0 0 0 -466752599.40902328 1032043290.4211349 0 1032043290.4211349 41096106.527243614 0 0 0 0 -796117832.93084908 -1033789052.377655 0 -1033789052.377655 -867156608.09394073 0 0 0 0 -344512.195876054 -1407775.0857500401 0 -1407775.0857500401 -5382019.4419752117 0 0 0 0 -1492825973.2948012 -588100245.65964031 0 -588100245.65964031 -135496335.63586426 0 0 0 0 919478245.84558344 795442502.989851 0 795442502.989851 -1372961638.5193996 0 0 0 0 -242741370.80644751 833971607.34939301 0 833971607.34939301 -714823794.03124428 0 0 0 0 479265339.19738841 78655076.742157936 0 78655076.742157936 -113541791.01918077 0 0 0 0 -602098986.45275235 -770731736.64718819 0 -770731736.64718819 -176532446.10940933 0 0 0 0 -702808245.76412392 -181089308.74912071 0 -181089308.74912071 35286528.173286438 0 0 0 0 -120031960.60346413 -76502415.608140945 0 -76502415.608140945 25430990.813419342 0 0 0 0 51016803.594171524 -173868487.15132141 0 -173868487.15132141 -199223098.43778992 0 0 0 0 754783150.14937806 -98219987.987664759 0 -98219987.987664759 -463264795.69843006 0 0 0 0 -1417300.7224368639 -5752804.8060244676 0 -5752804.8060244676 -14333556.115492083 0 0 0 0 -23709941.311757088 -19076656.430191994 0 -19076656.430191994 -27516896.04309845 0 0 0 0 128204827.3512764 -172590521.85222244 0 -172590521.85222244 43685908.838653564 0 0 0 0 1729314.7134345761 249219.95692308061 0 249219.95692308061 -2221126.5763328355 0 0 0 0 430159083.9780767 -173099390.04375005 0 -173099390.04375005 291318447.52520394 0 0 0 0 -158993204.03534031 -348884294.4725132 0 -348884294.4725132 115814120.83089828 0 0 0 0 -249341871.78289604 -718483632.87255478 0 -718483632.87255478 -116130010.38262177 0 0 0 0 -170579737.51907635 -601483944.72197914 0 -601483944.72197914 -570485850.00603867 0 0 0 0 28109607.616916656 -88352624.384059906 0 -88352624.384059906 -1362974752.7765923 0 0 0 0 -120740783.85810852 -307266421.0319252 0 -307266421.0319252 -531789791.86570358 0 0 0 0 -264903646.26673985 -669791975.610672 0 -669791975.610672 -220409894.48565292 0 0 0 0 -25253.288089736132 -988207.03574088239 0 -988207.03574088239 -3065281.8487444632 0 0 0 0 -165987311.10749102 -855449750.92800522 0 -855449750.92800522 -605759584.50257111 0 0 0 0 -183020395.84806824 294534870.60097003 0 294534870.60097003 -719512736.2244873 0 0 0 0 156440584.64495993 -786018849.06045532 0 -786018849.06045532 -1533199998.3848877 0 0 0 0 -805270620.9242487 394480746.76293945 0 394480746.76293945 -64411484.955970764 0 0 0 0 -73828251.287312508 -223870644.52515411 0 -223870644.52515411 226532046.19508934 0 0 0 0 21124096.035272956 -64034754.714282036 0 -64034754.714282036 -231655993.82442856 0 0 0 0 4693153.9710559845 100069747.7714386 0 100069747.7714386 -331108100.25188446 0 0 0 0 137449223.4168005 -78739494.852275848 0 -78739494.852275848 63802258.023030281 0 0 0 0 -175435499.35320473 177753641.85714912 0 177753641.85714912 -79017652.680122375 0 0 0 0 5783939.3319625854 3327152.553024292 0 3327152.553024292 28942857.448810577 0 0 0 0 -66657889.561916351 28833647.175228119 0 28833647.175228119 75831790.433746338 0 0 0 0 -305356576.39642429 33249110.287532806 0 33249110.287532806 145616882.65749359 0 0 0 0 -73921728.931444883 -113289635.14627266 0 -113289635.14627266 -153221832.55928993 0 0 0 0 -1702363.5798656931 -2091653.5512922904 0 -2091653.5512922904 2937617.6260575578 0 0 0 0 263811563.07461786 -259605593.33444595 0 -259605593.33444595 43969922.397499084 0 0 0 0 -9433902.1044025421 -24321073.587084293 0 -24321073.587084293 18768825.296897888 0 0 0 0 -4222366.0196460243 -7503488.2563104285 0 -7503488.2563104285 955825.81733830646 0 0 0 0 74066708.985149384 15194564.672998428 0 15194564.672998428 -75753391.622074127 0 0 0 0 45693751.323890686 19208801.079418182 0 19208801.079418182 -9091124.8057632446 0 0 0 0 85589936.357899189 84022479.626112938 0 84022479.626112938 -192142590.23963165 0 0 0 0 -65043577.940128326 126489252.69981766 0 126489252.69981766 -67357515.671813965 0 0 0 0 127708780.50943094 -81913878.508990288 0 -81913878.508990288 -168649944.64115143 0 0 0 0 20255934.044486523 36924856.367549896 0 36924856.367549896 -89458047.969116211 0 0 0 0 -1226468.0629400318 -1058037.9964146959 0 -1058037.9964146959 1184983.9111148864 0 0 0 0 -46834817.656684875 69229950.611818314 0 69229950.611818314 -5217536.0612869263 0 0 0 0 -22097440.678863525 14171645.931945801 0 14171645.931945801 -14539164.173233032 0 0 0 0 -46224912.389209986 4724100.7786207199 0 4724100.7786207199 19344327.496520996 0 0 0 0 5648816.7223777771 -2094885.4476547241 0 -2094885.4476547241 -1863514.5974006653 0 0 0 0 1337109.9260915518 -61630246.525921464 0 -61630246.525921464 29303450.929592133 0 0 0 0 480813868.68656778 -766089295.75207663 0 -766089295.75207663 244190932.44103289 0 0 0 0 -4228840.0032373266 -9144653.3236431964 0 -9144653.3236431964 -17351433.438576527 0 0 0 0 616369508.51561737 -364597797.17137522 0 -364597797.17137522 7935069.9392261505 0 0 0 0 35008692.143344879 -347443436.892138 0 -347443436.892138 140297989.98919576 0 0 0 0 -176024992.01531124 -233254503.98785567 0 -233254503.98785567 642349892.59331465 0 0 0 0 -773575777.1619091 -291640877.5534125 0 -291640877.5534125 240999924.05528095 0 0 0 0 -70523654.105381012 -304808799.76520979 0 -304808799.76520979 235200677.13934994 0 0 0 0 105251960.74116898 -474878444.29631019 0 -474878444.29631019 -620337132.24626577 0 0 0 0 34496487.652165413 -210872676.31510544 0 -210872676.31510544 445441852.32667971 0 0 0 0 -11104886.239002427 -13566956.807555445 0 -13566956.807555445 -16573594.212639505 0 0 0 0 -907071.84751796722 -577673771.74652433 0 -577673771.74652433 634820923.10018134 0 0 0 0 -155344530.88233757 -75380632.41918993 0 -75380632.41918993 354371587.33595181 0 0 0 0 -139980564.26429749 74553254.085157394 0 74553254.085157394 501748258.73491383 0 0 0 0 -515714869.30806732 -200092760.21112418 0 -200092760.21112418 487202076.00182021 0 0 0 0 -86355577.574804306 -60513185.435741425 0 -60513185.435741425 373324511.34018016 0 0 0 0 45575454.026580811 499570309.25240278 0 499570309.25240278 533029498.05059052 0 0 0 0 127386150.25828552 415367487.85378647 0 415367487.85378647 -33608340.086296618 0 0 0 0 -82214672.499130249 55696144.491406441 0 55696144.491406441 481090436.95390296 0 0 0 0 -438353511.79424667 33089233.855824709 0 33089233.855824709 570565728.37377548 0 0 0 0 -71168768.918126881 401899034.60002708 0 401899034.60002708 714370600.86465645 0 0 0 0 62757712.413684845 117653465.70618987 0 117653465.70618987 384706047.04805243 0 0 0 0 -13920192.53259182 262181167.6021499 0 262181167.6021499 118395352.19098902 0 0 0 0 -562176966.39479828 441344776.11984664 0 441344776.11984664 69687270.99989748 0 0 0 0 -384730216.81075764 -56883489.782890707 0 -56883489.782890707 -278256476.8011933 0 0 0 0 -281030838.9129734 17364022.740784526 0 17364022.740784526 249790064.04685974 0 0 0 0 -671778064.82075119 -167039951.09762752 0 -167039951.09762752 236535119.06688312 0 0 0 0 -1634382496.5347652 -403916335.55920857 0 -403916335.55920857 -287199409.94507104 0 0 0 0 -243002862.19615555 342188312.98699248 0 342188312.98699248 -1139388905.7091377 0 0 0 0 -24845212.418584824 -14202203.615490437 0 -14202203.615490437 -652760527.23970199 0 0 0 0 -559253423.3399229 -560968273.50106514 0 -560968273.50106514 -718372144.52776694 0 0 0 0 -615515284.21224117 -473023565.31817776 0 -473023565.31817776 388822839.94019777 0 0 0 0 -249207902.30359411 959111762.58239818 0 959111762.58239818 -1992955751.6241119 0 0 0 0 -25798.558655995876 -2073775.9701875034 0 -2073775.9701875034 -3532705.7561074896 0 0 0 0 -66911256.44061026 175980592.54359174 0 175980592.54359174 -770138397.36234856 0 0 0 0 473338911.62395358 294241064.45144343 0 294241064.45144343 -989543808.13645124 0 0 0 0 175896317.14432287 -372003456.93360424 0 -372003456.93360424 -548520529.26136804 0 0 0 0 464164772.6961236 -287969581.38436091 0 -287969581.38436091 -559825722.31126189 0 0 0 0 -120812347.31322908 42131518.65251302 0 42131518.65251302 -599661793.42850637 0 0 0 0 -100459658.6642952 -582393451.68761301 0 -582393451.68761301 -1939852899.1969974 0 0 0 0 82215217.512071609 51277631.64081192 0 51277631.64081192 -194947154.89706135 0 0 0 0 -2726922.6140041351 -53403961.005098343 0 -53403961.005098343 19939736.869075775 0 0 0 0 -49744440.633289754 164602062.10034633 0 164602062.10034633 -29480091.216514587 0 0 0 0 17341958.605639696 11560244.324969292 0 11560244.324969292 -64220551.923961639 0 0 0 0 7659318.986477715 5473355.3139532143 0 5473355.3139532143 -5326778.6502615772 0 0 0 0 11332902.879735947 8522483.9529876709 0 8522483.9529876709 -46465549.415458679 0 0 0 0 3418995.2776317596 4903805.8228473663 0 4903805.8228473663 -44387366.468818665 0 0 0 0 -68519835.014932632 169261983.49571609 0 169261983.49571609 -174640356.40283966 0 0 0 0 77016907.090684891 -222002.82058048248 0 -222002.82058048248 -156283292.70912933 0 0 0 0 13144760.403746674 7189673.3152268259 0 7189673.3152268259 -16212899.567917036 0 0 0 0 -3858134.1705141705 -6110863.2443549382 0 -6110863.2443549382 -22218093.856669746 0 0 0 0 94214774.813943148 141331622.16816711 0 141331622.16816711 -195011160.59955215 0 0 0 0 -142797157.19517821 116062284.03032351 0 116062284.03032351 -84709711.081733704 0 0 0 0 22148242.045230865 -98992629.641830444 0 -98992629.641830444 31102143.488382339 0 0 0 0 -178918216.5262838 231266216.41920567 0 231266216.41920567 -227390896.62678528 0 0 0 0 -6654949.3184654359 -6309861.2374439295 0 -6309861.2374439295 -12448331.653530039 0 0 0 0 -71481047.56314373 103127600.44211578 0 103127600.44211578 -235768926.66602325 0 0 0 0 -161735642.83514309 136114808.5579834 0 136114808.5579834 -236928481.57851028 0 0 0 0 110627671.82630181 9768319.0187568665 0 9768319.0187568665 -191494317.16679764 0 0 0 0 -64581722.470495939 114893269.65933037 0 114893269.65933037 -245367109.94136047 0 0 0 0 55110867.776424527 29824711.376756668 0 29824711.376756668 -249808048.10144043 0 0 0 0 5545571.6371412277 64976841.429252625 0 64976841.429252625 -303850720.0899353 0 0 0 0 -16169311.261455774 125672555.35176468 0 125672555.35176468 -340521927.6869278 0 0 0 0 -237222572.40221828 325314148.32112885 0 325314148.32112885 -394881110.61408234 0 0 0 0 -58216978.826202393 186243121.69915009 0 186243121.69915009 -371274384.05099773 0 0 0 0 -5910916.2976476327 -5159987.0568317641 0 -5159987.0568317641 -7661719.0285228714 0 0 0 0 247108588.4304409 -127448388.9993515 0 -127448388.9993515 10323351.971110821 0 0 0 0 177193173.25330472 29670592.83489418 0 29670592.83489418 -139928905.01809311 0 0 0 0 178793648.29545116 -302295743.44304466 0 -302295743.44304466 89132411.841220856 0 0 0 0 143872715.4207592 -153159840.6719799 0 -153159840.6719799 -124558716.00338364 0 0 0 0 -259476518.80051476 -401656346.98873138 0 -401656346.98873138 -277653126.66180801 0 0 0 0 -266074114.90790772 -445168109.45825481 0 -445168109.45825481 -118486859.63986969 0 0 0 0 703977233.4678514 449757976.02288055 0 449757976.02288055 -263522259.9737854 0 0 0 0 477255747.61997896 -667776940.69182587 0 -667776940.69182587 -2030074501.9276085 0 0 0 0 282108721.10460377 30067380.014339447 0 30067380.014339447 -589045638.68606758 0 0 0 0 284634752.37573147 142834812.09107208 0 142834812.09107208 -33151047.172454834 0 0 0 0 169173613.71316814 -169971273.25129509 0 -169971273.25129509 -22590017.859485626 0 0 0 0 -5261531.6000563772 -5052193.2097969064 0 -5052193.2097969064 -2295160.5705762729 0 0 0 0 -923180424.44274235 -363830280.354702 0 -363830280.354702 130368960.95835114 0 0 0 0 -403659463.42217445 113952533.77077866 0 113952533.77077866 150565781.22682095 0 0 0 0 -1346830800.9597549 -1097787087.796772 0 -1097787087.796772 -509181057.84285736 0 0 0 0 378037.89604055695 764714.83250296116 0 764714.83250296116 -522248.0898636831 0 0 0 0 370357337.71017551 797609416.1633873 0 797609416.1633873 -971338193.4801712 0 0 0 0 -2169153809.9454308 -860407072.71228027 0 -860407072.71228027 -1669090697.6692047 0 0 0 0 -1305366884.1928482 -124049501.54280663 0 -124049501.54280663 110063264.59176302 0 0 0 0 -2542925.7717546215 -1645088.9489779659 0 -1645088.9489779659 -246766.3475200031 0 0 0 0 69447100.814650059 -683338046.36320686 0 -683338046.36320686 -533133432.8434391 0 0 0 0 -221957074.90634203 -224834336.39698601 0 -224834336.39698601 3875939.8620166779 0 0 0 0 -157209673.68538809 -482460596.95468521 0 -482460596.95468521 -611775856.69862366 0 0 0 0 -17046185.383928299 160264792.09327316 0 160264792.09327316 -475801514.98623562 0 0 0 0 -38286089.880497456 36490190.26112175 0 36490190.26112175 -103491647.70854568 0 0 0 0 -76128236.777153969 -211309834.40055084 0 -211309834.40055084 42962813.223640442 0 0 0 0 -11752822.439543724 144687670.92079544 0 144687670.92079544 -117704104.27296829 0 0 0 0 52904356.433729649 84697925.36621666 0 84697925.36621666 -66216698.195983887 0 0 0 0 -117518155.69342947 138688388.280653 0 138688388.280653 -11354791.149345398 0 0 0 0 -193321424.37999058 159015463.00962639 0 159015463.00962639 -108116743.2086792 0 0 0 0 -64883709.060520649 17270752.424129486 0 17270752.424129486 6431188.3437614441 0 0 0 0 105812521.77231711 272253217.2321167 0 272253217.2321167 -4128781.0006866455 0 0 0 0 3054285.5047431327 2905588.6790159801 0 2905588.6790159801 -1713736.5348506309 0 0 0 0 19094366.67048645 -15286948.338371277 0 -15286948.338371277 -23145960.498836517 0 0 0 0 50892508.757971764 98383499.510551453 0 98383499.510551453 -60585614.102845192 0 0 0 0 120716522.83948708 56715608.982849121 0 56715608.982849121 -115439701.35713959 0 0 0 0 30951932.848637581 20879765.458141327 0 20879765.458141327 -31385490.159103394 0 0 0 0 25729811.30757618 97283466.833862305 0 97283466.833862305 -115753359.88594055 0 0 0 0 181606.57518336806 -37980.308922156692 0 -37980.308922156692 -178529.83899546042 0 0 0 0 -49363663.766469002 21335842.183637619 0 21335842.183637619 -29407574.398784637 0 0 0 0 -23457930.916595221 28267097.023378372 0 28267097.023378372 -35805657.212490082 0 0 0 0 350060.3921155259 -106190.43963948637 0 -106190.43963948637 -381880.55822071992 0 0 0 0 -15414662.884607553 64366748.525549889 0 64366748.525549889 -14457774.962852478 0 0 0 0 -31480018.329630852 35700605.937744141 0 35700605.937744141 -34689084.219894409 0 0 0 0 -45480943.74163723 35327397.786352158 0 35327397.786352158 -18604118.390510559 0 0 0 0 -65696170.901843786 1957745.9811439514 0 1957745.9811439514 -49655453.579605103 0 0 0 0 65375406.805709243 48276690.469864607 0 48276690.469864607 -19420077.910682678 0 0 0 0 -65431054.277837276 90603694.706907272 0 90603694.706907272 30045166.8800354 0 0 0 0 -55373313.262657166 101119798.51322937 0 101119798.51322937 -47952321.783494949 0 0 0 0 -54122408.783194542 43513544.457178116 0 43513544.457178116 -25689620.641994476 0 0 0 0 -57327067.822673798 51755712.204250336 0 51755712.204250336 16015167.723554611 0 0 0 0 -36811552.586484671 85312560.597943306 0 85312560.597943306 70783967.437992096 0 0 0 0 640630909.29231369 569591481.25589705 0 569591481.25589705 302419104.90680695 0 0 0 0 -23155266.231298447 -7408540.2978630066 0 -7408540.2978630066 19361398.808202744 0 0 0 0 -67677985.811698914 36850226.096824646 0 36850226.096824646 -24561836.699893951 0 0 0 0 -253579904.54832339 -584762731.45922184 0 -584762731.45922184 -713822998.99713516 0 0 0 0 -3255042.778079744 309385.4679664541 0 309385.4679664541 -595269.33356873598 0 0 0 0 -188792463.51806021 251714821.28614426 0 251714821.28614426 68913471.673109531 0 0 0 0 74180313.088234842 -639311998.81472588 0 -639311998.81472588 -1834886147.2498703 0 0 0 0 -181404658.08238268 -1624137423.9898567 0 -1624137423.9898567 -1512136454.121254 0 0 0 0 -1763053731.5289202 -180741602.18177032 0 -180741602.18177032 2186926328.6911087 0 0 0 0 -15119969.305800438 3040815.9490623474 0 3040815.9490623474 -103590704.05010986 0 0 0 0 -10802155.986185074 11916674.581684113 0 11916674.581684113 -100489682.29013062 0 0 0 0 -109277100.6901021 -32066613.152519226 0 -32066613.152519226 -56235286.312934875 0 0 0 0 -6429014.2496937104 -1126931.4456298072 0 -1126931.4456298072 -2405467.4748377856 0 0 0 0 -20843567.644640446 -20547380.565666199 0 -20547380.565666199 -168865481.58027649 0 0 0 0 -1041329327.6183538 623761773.30435181 0 623761773.30435181 659656665.10731602 0 0 0 0 90691686.845898986 -61095440.496910095 0 -61095440.496910095 -202722641.52009773 0 0 0 0 -4002652.5625089835 -2567005.708942065 0 -2567005.708942065 -5909519.4025962185 0 0 0 0 795981.28922080994 5826097.7215538025 0 5826097.7215538025 -130444761.88255882 0 0 0 0 -7141887.0886185169 9598130.6531243324 0 9598130.6531243324 -111693409.63609314 0 0 0 0 -1443327.3556699753 26547971.040214539 0 26547971.040214539 -111396560.01203129 0 0 0 0 -16466370.136644125 16160015.763745308 0 16160015.763745308 -66579559.998714447 0 0 0 0 -8708836.3136978149 4856308.6546287537 0 4856308.6546287537 -63537643.416456223 0 0 0 0 333589.69566370081 -148539.10805374943 0 -148539.10805374943 -421083.85151096433 0 0 0 0 9813700.6956896782 5475332.8523766994 0 5475332.8523766994 -37022307.567943573 0 0 0 0 5428062.4476747513 10377119.950628281 0 10377119.950628281 -38616390.13224411 0 0 0 0 -31357828.608412981 21274570.227428436 0 21274570.227428436 -21479275.05532074 0 0 0 0 -9920903.3345584869 32469636.013111115 0 32469636.013111115 -64405900.821391732 0 0 0 0 4966869.3627328873 2852534.9029808044 0 2852534.9029808044 -40527060.042528152 0 0 0 0 13585700.223727942 9404751.9680089951 0 9404751.9680089951 -49104008.899284363 0 0 0 0 10333946.713980198 7678461.5229330063 0 7678461.5229330063 -41138829.778331757 0 0 0 0 10589364.833030641 9141605.7880551815 0 9141605.7880551815 -40293925.635437012 0 0 0 0 11515241.68292141 -18190199.315914154 0 -18190199.315914154 -5602539.683839798 0 0 0 0 176042.85496097617 -85243.600254015997 0 -85243.600254015997 -227222.32330830209 0 0 0 0 13419998.573239326 -12876951.902549744 0 -12876951.902549744 -62843938.915660858 0 0 0 0 14234573.174331188 850423.01506996155 0 850423.01506996155 -91362596.545734406 0 0 0 0 1439859.6195235252 3908887.2875156403 0 3908887.2875156403 -90039724.884204865 0 0 0 0 2336848.7112631798 -1198038.7002124786 0 -1198038.7002124786 -106542947.2636261 0 0 0 0 -201684.67810249329 5531210.6404724121 0 5531210.6404724121 -124320176.40458298 0 0 0 0 -1151143.9296324253 27045622.232923985 0 27045622.232923985 -142758986.60911179 0 0 0 0 -6989615.6277923584 9899515.2383346558 0 9899515.2383346558 -117149210.79105377 0 0 0 0 -328105188.42622375 21747879.286346436 0 21747879.286346436 -318370631.13337326 0 0 0 0 1199740.1038640584 -2499464.2612363137 0 -2499464.2612363137 -12920261.955489345 0 0 0 0 -92038.487882614136 12539463.107059479 0 12539463.107059479 -122997457.20855713 0 0 0 0 2741880.0033855438 10374193.24192524 0 10374193.24192524 -97058979.153762817 0 0 0 0 1091152.1740531921 18298728.901187897 0 18298728.901187897 -112711228.79220581 0 0 0 0 13561512.626283646 14732198.227501869 0 14732198.227501869 -130258712.0020752 0 0 0 0 -350003123.99960995 384292102.30121613 0 384292102.30121613 -225890156.86170959 0 0 0 0 1449317.4124746555 4198310.7079635374 0 4198310.7079635374 -8848423.257359229 0 0 0 0 -9489533.55311203 40842682.655265808 0 40842682.655265808 -146788801.17848206 0 0 0 0 -53954863.817304611 85341809.947399139 0 85341809.947399139 -126380933.85984039 0 0 0 0 -183468291.0444085 547470421.60716057 0 547470421.60716057 -483833010.52424622 0 0 0 0 -201317661.52673602 449482706.1716361 0 449482706.1716361 -362043323.68389893 0 0 0 0 -347758864.20511818 380664190.23907089 0 380664190.23907089 -325674849.20337868 0 0 0 0 -98905367.624068975 259106452.94307184 0 259106452.94307184 -339195348.13672638 0 0 0 0 -166415038.38393414 68689903.541101098 0 68689903.541101098 -536658886.58631897 0 0 0 0 1247162.3870346858 1491747.5571030844 0 1491747.5571030844 -3520434.9336066246 0 0 0 0 -163975705.76009607 166754662.44468689 0 166754662.44468689 -293271097.89605379 0 0 0 0 139582340.13438129 -128323921.56310654 0 -128323921.56310654 -444958766.19185257 0 0 0 0 243143152.65475225 89214466.275169373 0 89214466.275169373 -677584815.96382141 0 0 0 0 379894090.15078402 1362003.650806427 0 1362003.650806427 -1264024947.4486084 0 0 0 0 140649250.48033524 97347796.909973145 0 97347796.909973145 -672750141.44117928 0 0 0 0 80578858.522226334 193093526.39380646 0 193093526.39380646 -688876702.6749115 0 0 0 0 356313230.35182142 -291951664.70293045 0 -291951664.70293045 -538378477.10214233 0 0 0 0 417916497.9990344 1146673656.8790436 0 1146673656.8790436 -2111048924.5098419 0 0 0 0 295326798.74412298 755132566.71959877 0 755132566.71959877 -1063654864.2600098 0 0 0 0 421995041.79766297 941493534.68298149 0 941493534.68298149 -1127489129.2095032 0 0 0 0 297369881.54460728 634470487.56937408 0 634470487.56937408 -1236778388.2529597 0 0 0 0 76360018.103616714 588025433.19994736 0 588025433.19994736 -907345926.65398407 0 0 0 0 17700072.69735527 444222340.80720139 0 444222340.80720139 -533630434.44939995 0 0 0 0 99558538.900226593 732422215.48351288 0 732422215.48351288 -694557213.00358582 0 0 0 0 -171855493.77157545 852173377.6769104 0 852173377.6769104 -278953738.38070679 0 0 0 0 -139614040.73029733 911858983.4148941 0 911858983.4148941 -692516712.01080203 0 0 0 0 -477933100.24034405 839087608.44519806 0 839087608.44519806 -275774025.13624573 0 0 0 0 14488884.857982635 1417029503.9511833 0 1417029503.9511833 -428354419.87435913 0 0 0 0 32979053.250426292 1149192462.1029282 0 1149192462.1029282 -376783168.85267639 0 0 0 0 63623804.573165894 1194590186.0508194 0 1194590186.0508194 -1151185016.2722845 0 0 0 0 -153483919.29513264 1187324796.1840858 0 1187324796.1840858 -352621151.56655502 0 0 0 0 -155788328.84528589 1199005168.4161987 0 1199005168.4161987 -120474698.5242157 0 0 0 0 39064463.735569 1390053346.9083176 0 1390053346.9083176 -181289356.05940247 0 0 0 0 34535965.582546234 1271367307.7971382 0 1271367307.7971382 -434075931.39703369 0 0 0 0 -220383831.36486411 1154779332.97019 0 1154779332.97019 95864875.525276184 0 0 0 0 -157342911.12870312 1300173141.6053505 0 1300173141.6053505 136309191.73620605 0 0 0 0 252113556.10089207 930559194.39522552 0 930559194.39522552 31398194.871124268 0 0 0 0 -403003386.14829767 914590537.95270157 0 914590537.95270157 -81843803.31814003 0 0 0 0 -463741999.68804932 896414272.28961945 0 896414272.28961945 -199228287.06806946 0 0 0 0 -552286387.82887745 891078508.69846725 0 891078508.69846725 -55073870.399475098 0 0 0 0 -388612344.37655067 1088268730.1823616 0 1088268730.1823616 -8485629.7329483032 0 0 0 0 -774533401.4715662 812480393.62187958 0 812480393.62187958 -52798680.63756609 0 0 0 0 -569884188.54846668 831957332.70542908 0 831957332.70542908 -144790383.56878662 0 0 0 0 -701405689.93230247 573786856.99428558 0 573786856.99428558 -42349944.524105072 0 0 0 0 -610022294.7416563 589380625.85029221 0 589380625.85029221 -112764481.25766754 0 0 0 0 -1010402796.6318636 549367872.06474304 0 549367872.06474304 -26506128.441963196 0 0 0 0 -618397258.80388832 255740307.6713829 0 255740307.6713829 -14291376.852142334 0 0 0 0 -812032940.70678425 356904450.47741318 0 356904450.47741318 -34727797.839355469 0 0 0 0 -487752839.53358459 339292132.84034348 0 339292132.84034348 -105972860.8609314 0 0 0 0 -506389458.5165987 408267094.67749405 0 408267094.67749405 -206445390.11667633 0 0 0 0 -325962182.35274029 577400111.54391479 0 577400111.54391479 -311831488.58672333 0 0 0 0 -330925128.64249134 683970576.61685181 0 683970576.61685181 -446158443.36792564 0 0 0 0 -468761349.08208418 550652755.18057871 0 550652755.18057871 -173095328.59132385 0 0 0 0 -2165254113.4939642 -48343428.072629929 0 -48343428.072629929 -1199855815.3017349 0 0 0 0 -9538437.6437099241 1607629786.0480967 0 1607629786.0480967 -3413142717.061161 0 0 0 0 562756156.25102139 -489065842.07504368 0 -489065842.07504368 -3756839571.353035 0 0 0 0 -696196937.13900423 1184165303.2750893 0 1184165303.2750893 -3201902375.2829666 0 0 0 0 561296867.72635305 -766894826.06821823 0 -766894826.06821823 -1999602953.8465881 0 0 0 0 60203.544198840973 -827605.80347540951 0 -827605.80347540951 -5512611.7878218181 0 0 0 0 667695053.46318531 310218291.74376488 0 310218291.74376488 -1720044928.9655609 0 0 0 0 535851842.49836159 1162173451.2965679 0 1162173451.2965679 -1535006317.3781738 0 0 0 0 825418552.61209011 170787193.38458729 0 170787193.38458729 -2929250575.6091309 0 0 0 0 415922670.33527136 117052053.3029213 0 117052053.3029213 -1527602543.6071501 0 0 0 0 442918617.37784243 759277988.45257092 0 759277988.45257092 -1875727498.4651031 0 0 0 0 1098874524.6601882 253795461.18113899 0 253795461.18113899 -3026208589.5172005 0 0 0 0 -154315941.23177338 -1474770243.9581566 0 -1474770243.9581566 -2298080228.5316677 0 0 0 0 836020.49949704565 1683660.7444551266 0 1683660.7444551266 -5826873.8757283166 0 0 0 0 1114545555.0667317 302099725.0586338 0 302099725.0586338 -3871053777.3025589 0 0 0 0 -2901978827.2410975 1765239593.8689003 0 1765239593.8689003 -712264097.67913055 0 0 0 0 585574632.45879316 1283645510.8189263 0 1283645510.8189263 -3089590348.6561546 0 0 0 0 -2248891139.2634826 -1064728719.7246323 0 -1064728719.7246323 -1061992455.60569 0 0 0 0 774139033.82338333 328077774.03172684 0 328077774.03172684 -4410095403.1635056 0 0 0 0 391204240.43990517 361246633.30847549 0 361246633.30847549 -1577800564.8435631 0 0 0 0 633630904.93896866 -591971809.14283562 0 -591971809.14283562 -2431989226.389122 0 0 0 0 -439272157.68304062 2359192188.7719421 0 2359192188.7719421 -3267627233.1469116 0 0 0 0 129205225.73684597 1279356194.800415 0 1279356194.800415 -1216791408.9520111 0 0 0 0 151265347.92204952 1414291949.1733017 0 1414291949.1733017 -1213512318.0284257 0 0 0 0 -477791683.22275352 1358094794.7566872 0 1358094794.7566872 -347001650.8061142 0 0 0 0 52659960.669309616 380343797.70842743 0 380343797.70842743 -247750853.22039032 0 0 0 0 1118458451.3319244 -103345199.26974392 0 -103345199.26974392 -195316071.81181335 0 0 0 0 673953735.35283852 1382707715.6421967 0 1382707715.6421967 74882565.184860229 0 0 0 0 576976488.16328335 1162866938.3372498 0 1162866938.3372498 -338389866.82793427 0 0 0 0 53291154.177754402 1069433449.2863312 0 1069433449.2863312 384296964.85739136 0 0 0 0 1739432939.6063547 778327086.96853638 0 778327086.96853638 -105840493.78105545 0 0 0 0 509491847.5243454 992983299.22760773 0 992983299.22760773 -7358875.5769500732 0 0 0 0 248540499.32886219 807842840.85763931 0 807842840.85763931 592522078.0292511 0 0 0 0 537478163.08239615 639278800.58600044 0 639278800.58600044 1202158574.1531677 0 0 0 0 1703543615.2138987 735958260.56079483 0 735958260.56079483 294006981.62540245 0 0 0 0 184214905.48909497 -31881640.017612457 0 -31881640.017612457 -49402690.02532959 0 0 0 0 181068.29489424959 9531017.7268968131 0 9531017.7268968131 -7615063.5521291979 0 0 0 0 283311.42950037867 1165331.9733116943 0 1165331.9733116943 -886481.27125024982 0 0 0 0 6405942.8919072263 -397.71108418703079 0 -397.71108418703079 -68161160.734863281 0 0 0 0 7574277.5203704834 378375783.1814003 0 378375783.1814003 -215556175.2681427 0 0 0 0 3021417.1239940496 5235315.2858016677 0 5235315.2858016677 -15776835.572787765 0 0 0 0 2737119.3855257411 8328383.4555202331 0 8328383.4555202331 -3710070.6950055007 0 0 0 0 33812740.13376686 407802255.61247063 0 407802255.61247063 -410719191.19926834 0 0 0 0 61241435.427942157 -111809215.01990318 0 -111809215.01990318 -60010899.477210999 0 0 0 0 11744073.279575706 -107784527.54611588 0 -107784527.54611588 131541585.31230736 0 0 0 0 -95545278.827075005 111930539.28979874 0 111930539.28979874 -42840129.078937531 0 0 0 0 -241922317.95934939 1590401.0355987549 0 1590401.0355987549 -120136517.63805389 0 0 0 0 -83467286.697693557 -111618326.9613831 0 -111618326.9613831 191120807.26520157 0 0 0 0 -839866314.23968494 -214920401.79148006 0 -214920401.79148006 817762072.99669838 0 0 0 0 -2489851.3394763237 6485048.4982829038 0 6485048.4982829038 -1175373.3064010218 0 0 0 0 -436992792.76399994 303543874.64324951 0 303543874.64324951 -437124355.33820534 0 0 0 0 -302010228.98738289 342204404.84937286 0 342204404.84937286 -485764635.42141724 0 0 0 0 -333742575.0531342 260063841.24910259 0 260063841.24910259 -252667261.71785736 0 0 0 0 -675053838.3358984 334459278.8561821 0 334459278.8561821 -357164285.73810577 0 0 0 0 -476952725.45084047 440624919.6848793 0 440624919.6848793 -372894707.21798706 0 0 0 0 -332318895.76193875 244266353.39738548 0 244266353.39738548 -388210804.12115479 0 0 0 0 -216533449.77583885 277446273.3609314 0 277446273.3609314 -438391590.24401855 0 0 0 0 -181838693.13204056 54586336.498216629 0 54586336.498216629 -158010736.73887634 0 0 0 0 67926059.731214881 -107800666.05648994 0 -107800666.05648994 -69133606.548980713 0 0 0 0 -132795151.02182414 115905948.04793254 0 115905948.04793254 -16468628.290466309 0 0 0 0 -64306730.758458912 98925908.174949646 0 98925908.174949646 -166981254.26732826 0 0 0 0 -129121588.41744792 251831020.24437714 0 251831020.24437714 -365836627.03994751 0 0 0 0 11524833.453202724 258406100.09187508 0 258406100.09187508 -289623184.592453 0 0 0 0 3151785084.072175 987313178.25203705 0 987313178.25203705 -690725224.0504303 0 0 0 0 1041306.2182487259 5464772.8099561092 0 5464772.8099561092 -9336754.6894192994 0 0 0 0 1261590619.0729303 1004303292.7500648 0 1004303292.7500648 -30021755.653663635 0 0 0 0 598382668.5312314 932042894.58047104 0 932042894.58047104 181701543.5350647 0 0 0 0 1580892255.4160566 80960116.910135269 0 80960116.910135269 -272443714.35596466 0 0 0 0 1225854234.5713329 31058410.147648096 0 31058410.147648096 295277222.83220673 0 0 0 0 1277685776.3776441 -474310773.94727898 0 -474310773.94727898 -2452237048.5140228 0 0 0 0 2542166605.4813819 -862704745.31531143 0 -862704745.31531143 -5344666369.7246284 0 0 0 0 -1194911411.2057829 2323792566.0752935 0 2323792566.0752935 -5225246761.1161041 0 0 0 0 1868304643.7231433 -2043202018.3492661 0 -2043202018.3492661 -2595032271.1514206 0 0 0 0 1209343.9366408573 2336511.2017678502 0 2336511.2017678502 -4569780.1863056645 0 0 0 0 -246659122.61953998 185254882.61723137 0 185254882.61723137 -239521094.39947128 0 0 0 0 -404106741.70040727 429773955.82937622 0 429773955.82937622 -327421058.91355705 0 0 0 0 2304732.6546114115 1541845.6265021861 0 1541845.6265021861 -5561649.0491202921 0 0 0 0 -208680163.73552737 2040656205.6604309 0 2040656205.6604309 -5345123137.1291847 0 0 0 0 -398501719.34421527 290757675.90192127 0 290757675.90192127 -289157023.9186554 0 0 0 0 246425257.0655213 718092886.56964684 0 718092886.56964684 -1502502582.7496185 0 0 0 0 1659351.0418937351 570287.22260886431 0 570287.22260886431 -4582902.7151951343 0 0 0 0 -391127558.58370805 452425722.60292435 0 452425722.60292435 -404219903.8320694 0 0 0 0 516612105.81114388 -742411955.16182685 0 -742411955.16182685 -1568582149.7715988 0 0 0 0 583814122.50212193 -335903555.95743752 0 -335903555.95743752 -1130842733.9332504 0 0 0 0 -833714445.68806434 878744696.39429092 0 878744696.39429092 -637306586.74906921 0 0 0 0 -1877426200.7013164 1269039743.5682487 0 1269039743.5682487 -671984653.08470106 0 0 0 0 -1285353235.6350918 653082391.98519135 0 653082391.98519135 -535961955.60768127 0 0 0 0 -1360270712.5330415 465525649.07096863 0 465525649.07096863 -120962481.99094391 0 0 0 0 -1121064076.186882 294336095.85616112 0 294336095.85616112 26728961.728561401 0 0 0 0 -949319364.35633683 559000725.93207359 0 559000725.93207359 -102645758.28639221 0 0 0 0 -1272002176.2153745 928667356.55070591 0 928667356.55070591 -275796984.24681091 0 0 0 0 -944369620.48221779 708337813.56933594 0 708337813.56933594 -127928628.75669098 0 0 0 0 -809707565.47140479 838277395.71979141 0 838277395.71979141 -56101818.799255371 0 0 0 0 -825540810.98288918 734946214.47465134 0 734946214.47465134 -297622852.07314682 0 0 0 0 -514151431.00680822 1026938583.0751381 0 1026938583.0751381 -88079639.821403503 0 0 0 0 -852241068.10618281 985025957.6080122 0 985025957.6080122 -39378237.682060242 0 0 0 0 500677458.02861691 697975002.61050797 0 697975002.61050797 -217804180.94829178 0 0 0 0 417596920.80473113 932178648.12558365 0 932178648.12558365 -752373154.60368347 0 0 0 0 -465744080.24597132 1251509714.5762405 0 1251509714.5762405 -464310141.46195221 0 0 0 0 176597645.45546007 477899996.59744644 0 477899996.59744644 -1018770914.1936207 0 0 0 0 -309238769.02794975 1398590329.8739605 0 1398590329.8739605 -2605250235.4401321 0 0 0 0 1727415904.2616267 -328514388.57006836 0 -328514388.57006836 -2581665764.8931427 0 0 0 0 1361890427.3988552 679879361.86961937 0 679879361.86961937 -5357290316.9013214 0 0 0 0 -190501474.44479632 1275643652.3917351 0 1275643652.3917351 -2615423214.4486847 0 0 0 0 -650317368.97489703 2451671769.4971457 0 2451671769.4971457 -5343471576.5504227 0 0 0 0 -1460078999.0950882 509237435.43807983 0 509237435.43807983 -643540486.05252838 0 0 0 0 -5345059824.2627182 2620507793.1234818 0 2620507793.1234818 -1305895226.5190811 0 0 0 0 -726180541.03566313 -3010715253.305027 0 -3010715253.305027 -5343936626.60923 0 0 0 0 -2417128664.067049 -2970002888.4722748 0 -2970002888.4722748 -2953117559.1405945 0 0 0 0 -5095607.7642757418 1987500.3748277966 0 1987500.3748277966 -8938321.2704412639 0 0 0 0 -1105796729.7134008 -2190523279.4063263 0 -2190523279.4063263 -3071933285.5350342 0 0 0 0 177048613.42419785 -1646919973.1718445 0 -1646919973.1718445 -4130545610.4186401 0 0 0 0 178462099.83001453 -1614999111.3432226 0 -1614999111.3432226 -3913309337.3003235 0 0 0 0 210495030.76618743 -694810567.33721161 0 -694810567.33721161 -2992421836.4545288 0 0 0 0 -520678512.49209082 -1507375171.2727814 0 -1507375171.2727814 -2624897737.915741 0 0 0 0 -369268824.80543625 -965811709.14950562 0 -965811709.14950562 -1236014383.3463745 0 0 0 0 -504842579.21604967 -713415683.12103271 0 -713415683.12103271 -1430386916.2194519 0 0 0 0 -116727875.83211562 -1326221213.3948307 0 -1326221213.3948307 -2214653295.5919647 0 0 0 0 -717889.18872140488 -406843.0748537858 0 -406843.0748537858 459897.52194276452 0 0 0 0 -1995990819.7732229 357200860.07727623 0 357200860.07727623 655189677.00482178 0 0 0 0 -1917379934.733665 -1837714273.7912064 0 -1837714273.7912064 -1815244762.9395752 0 0 0 0 -1604737276.6639585 -1191087412.8311996 0 -1191087412.8311996 -481571833.27749634 0 0 0 0 -905431110.01421487 52082286.055595398 0 52082286.055595398 738700189.2191925 0 0 0 0 335394320.25234866 353864467.40582275 0 353864467.40582275 -185457922.49190521 0 0 0 0 -1684285205.5788116 302755379.34820747 0 302755379.34820747 -50578867.733512878 0 0 0 0 -4339509.95149092 5570786.1245259242 0 5570786.1245259242 -25025532.270064525 0 0 0 0 -3349264.298086531 6840927.6056938842 0 6840927.6056938842 4580337.0278349295 0 0 0 0 -279254579.96706748 -212898292.30796814 0 -212898292.30796814 -488889824.51052856 0 0 0 0 246235257.27047849 -248308059.7728157 0 -248308059.7728157 -1485700869.9611816 0 0 0 0 -279215651.92338347 10212543.416130066 0 10212543.416130066 -21607464.154571533 0 0 0 0 -146130888.68813896 -81538387.937332153 0 -81538387.937332153 41645227.919189453 0 0 0 0 1149032.6897303909 5125559.5226849765 0 5125559.5226849765 -6159890.3818519935 0 0 0 0 21184301.499366045 -9761707.6365585327 0 -9761707.6365585327 -38021012.375595093 0 0 0 0 -12000154.703225613 19656965.991607666 0 19656965.991607666 89143182.3879776 0 0 0 0 -3873994.4100429099 11430607.609207608 0 11430607.609207608 -14093858.20350685 0 0 0 0 -718317109.35931015 17584316.733222961 0 17584316.733222961 -25320362.126913548 0 0 0 0 -393987431.11060357 154449996.02210999 0 154449996.02210999 -143935241.71583557 0 0 0 0 -5176045.3494541841 8062122.9343826137 0 8062122.9343826137 -11783392.957414731 0 0 0 0 -62999630.531500816 -30495369.955673218 0 -30495369.955673218 -23477145.169052124 0 0 0 0 -86214457.893790901 36724566.08455658 0 36724566.08455658 -28824427.97303772 0 0 0 0 20954218.138530374 6561830.9563674927 0 6561830.9563674927 -61711012.756225586 0 0 0 0 -7535117.5591928959 39456002.5063591 0 39456002.5063591 -98547060.527557373 0 0 0 0 39727699.127632976 -774744223.81434631 0 -774744223.81434631 -1723349328.0322723 0 0 0 0 -187221232.39074415 199899432.97174072 0 199899432.97174072 -173388164.19687653 0 0 0 0 -227886.36675410793 466293.5701671131 0 466293.5701671131 -1078559.6963753067 0 0 0 0 -121597791.22511962 1835426.5237913132 0 1835426.5237913132 17339543.932495117 0 0 0 0 -63560640.65138562 -422556158.35724258 0 -422556158.35724258 -3070837956.9118576 0 0 0 0 38695738.378604591 -171381612.7522316 0 -171381612.7522316 -2462441937.2574615 0 0 0 0 276257252.02275002 -980530034.65057373 0 -980530034.65057373 -3198568738.2875824 0 0 0 0 740004018.698843 -264074947.20575714 0 -264074947.20575714 -3592773916.8686523 0 0 0 0 865351166.64478016 -1007123998.0822144 0 -1007123998.0822144 -5359307702.2227802 0 0 0 0 630045247.73099172 506389904.77735519 0 506389904.77735519 -5341613433.827713 0 0 0 0 387431634.01908726 1245059308.0890999 0 1245059308.0890999 -2087596941.4782715 0 0 0 0 902015.24699018616 1429837.6182270013 0 1429837.6182270013 -5432119.7805998102 0 0 0 0 -176856356.52181381 936624993.96488953 0 936624993.96488953 10398387.549118042 0 0 0 0 -467403407.4951753 -1758302193.4669189 0 -1758302193.4669189 -5353850100.9413595 0 0 0 0 286982857.61595464 -361828385.84921265 0 -361828385.84921265 -979861313.31033325 0 0 0 0 402042615.3211301 192485363.60585022 0 192485363.60585022 -1742587379.8487701 0 0 0 0 472112098.91615397 -167273329.6353302 0 -167273329.6353302 -2074208748.7023926 0 0 0 0 436375451.25116998 -245933498.94577026 0 -245933498.94577026 -2541989083.7839584 0 0 0 0 -156295053.95092162 -567689940.22403717 0 -567689940.22403717 -2175643439.9020004 0 0 0 0 1015009230.0568738 864383047.9709034 0 864383047.9709034 -452954635.71646118 0 0 0 0 327618777.67209905 -397988673.72110748 0 -397988673.72110748 -3027468336.411499 0 0 0 0 391507282.23213011 -272702971.65961933 0 -272702971.65961933 -2179657356.3412476 0 0 0 0 1619966009.5896151 -7107690.1748962402 0 -7107690.1748962402 -5353346217.1670532 0 0 0 0 6614.4973674503854 2305533.3401550911 0 2305533.3401550911 -5083717.9432257898 0 0 0 0 299859545.46864146 85568868.798704147 0 85568868.798704147 -2119167442.3634033 0 0 0 0 -37649715.103274345 121253755.45368195 0 121253755.45368195 -1926790564.014534 0 0 0 0 -395125.76839216083 1001338.2205288783 0 1001338.2205288783 -2019315.2454698496 0 0 0 0 654637619.19993269 22714786.703369141 0 22714786.703369141 -6016226435.6118011 0 0 0 0 128468664.80263579 2891524643.5249023 0 2891524643.5249023 318268321.4392128 0 0 0 0 -184316862.42311859 -671898493.33953857 0 -671898493.33953857 -3305642820.3626251 0 0 0 0 -41611935.708195448 -148693977.04965973 0 -148693977.04965973 -589663321.82255554 0 0 0 0 -190523636.55956936 1504226790.1420212 0 1504226790.1420212 -1736712073.9816895 0 0 0 0 229018397.46241224 -203716314.4311676 0 -203716314.4311676 -1711968932.3524017 0 0 0 0 2733505.2793027163 1188875.7127227783 0 1188875.7127227783 -9017999.3734207153 0 0 0 0 -1944082.8927202499 2045195.5960155353 0 2045195.5960155353 -3842141.4959528223 0 0 0 0 -264277902.50322711 423618874.5691185 0 423618874.5691185 -793921166.62446594 0 0 0 0 211942836.44576794 -233476780.50767517 0 -233476780.50767517 -116998530.84695435 0 0 0 0 -385910823.00120175 95139686.864486694 0 95139686.864486694 132702965.91253662 0 0 0 0 -928977.59981461056 468766.23902112246 0 468766.23902112246 -911128.7187285535 0 0 0 0 -548576099.38028598 -225288980.30511475 0 -225288980.30511475 1773839.7233886719 0 0 0 0 268865.71604788356 704606.85184300318 0 704606.85184300318 -3432988.1145807952 0 0 0 0 227021842.70891249 -174767608.7390213 0 -174767608.7390213 -2119412898.8805695 0 0 0 0 -983152.48783596512 1502161.5681473985 0 1502161.5681473985 -2729796.4157068059 0 0 0 0 158123609.31542274 -115218627.91761017 0 -115218627.91761017 -2043676661.9498749 0 0 0 0 3885940.3388125896 910466.07350921631 0 910466.07350921631 -11729708.812576294 0 0 0 0 3052306.8300415277 -914348.69858551025 0 -914348.69858551025 -15429826.521690369 0 0 0 0 3189408.9858671427 17659123.042556763 0 17659123.042556763 839690.30181884766 0 0 0 0 11877584.008547708 12643133.919200897 0 12643133.919200897 -25212539.098602295 0 0 0 0 -6856907.8436881602 -17157741.650810242 0 -17157741.650810242 -36599397.975357056 0 0 0 0 -2202292.5703568012 -14071071.565567017 0 -14071071.565567017 -49605025.249023438 0 0 0 0 -23352351.015264243 -4094526.4111671448 0 -4094526.4111671448 -19631546.266784668 0 0 0 0 -10754826.338874668 -5245187.7963256836 0 -5245187.7963256836 -14442112.045593262 0 0 0 0 -18185148.619942725 -12582992.798614502 0 -12582992.798614502 -19143306.265869141 0 0 0 0 -9968907.1121984124 -10692262.81678772 0 -10692262.81678772 -10237516.995330811 0 0 0 0 2036652.8242101073 -591604.37462615967 0 -591604.37462615967 -15047784.65057373 0 0 0 0 660188.05167287588 -5660860.7650375366 0 -5660860.7650375366 -4913183.5677642822 0 0 0 0 2622946.0710556507 -2427544.1213760376 0 -2427544.1213760376 -13759888.947296143 0 0 0 0 -826925.79970121384 -10875191.788063049 0 -10875191.788063049 -22155539.187088013 0 0 0 0 47423428.083833694 -69150859.768920898 0 -69150859.768920898 -30608363.278259277 0 0 0 0 588553.56009400263 -15220202.904428482 0 -15220202.904428482 -10392991.651794434 0 0 0 0 -3707811.8781291153 -5448571.4559228159 0 -5448571.4559228159 -3544308.8133194149 0 0 0 0 883328.52814393118 -10402447.884502411 0 -10402447.884502411 2967519.8925170898 0 0 0 0 67110.895609178551 -84199.560102969408 0 -84199.560102969408 -875425.78581939638 0 0 0 0 6411286.2036251426 -16404178.692047119 0 -16404178.692047119 -13410804.268356323 0 0 0 0 -2919929.8935738206 -4572922.7333221436 0 -4572922.7333221436 -9506580.5530090332 0 0 0 0 -11136080.604547799 -7551935.918762207 0 -7551935.918762207 -2861568.1723022461 0 0 0 0 -18797196.375056192 -6018906.7911605835 0 -6018906.7911605835 -6585104.1753234863 0 0 0 0 -11129397.1749685 -7137907.0634498596 0 -7137907.0634498596 -8746746.7554016113 0 0 0 0 -10873869.779234767 -11123300.217910767 0 -11123300.217910767 -11834115.548492432 0 0 0 0 1821905.8710456789 -12585325.059440613 0 -12585325.059440613 -13827374.610900879 0 0 0 0 -89462531.45110178 -23956360.727462769 0 -23956360.727462769 153932863.07913208 0 0 0 0 518320806.65744269 -119445021.63341522 0 -119445021.63341522 -75109976.967468262 0 0 0 0 231039871.2910428 171551840.27068329 0 171551840.27068329 252465890.9703064 0 0 0 0 -1848033.1450210423 -2960349.8815950714 0 -2960349.8815950714 -4292348.8774334043 0 0 0 0 2993546.4530949593 -898293.63948059082 0 -898293.63948059082 -10287369.53237915 0 0 0 0 -52321398.431173682 121057502.37510109 0 121057502.37510109 136083461.38526917 0 0 0 0 -14544675.555150986 -177717249.64702606 0 -177717249.64702606 42194287.372005463 0 0 0 0 36870720.044988394 -130188501.60433102 0 -130188501.60433102 -176552210.03988647 0 0 0 0 76770899.312728882 32717486.192092896 0 32717486.192092896 -172895400.36949515 0 0 0 0 -8274085.2730493546 -126470945.01571655 0 -126470945.01571655 392212460.25528717 0 0 0 0 -32548615.113140821 148043261.87773895 0 148043261.87773895 -327964458.01031494 0 0 0 0 -793199.46280835627 192386.63522430137 0 192386.63522430137 -762970.662199907 0 0 0 0 -5887128.1183041334 -21900839.912963867 0 -21900839.912963867 -6612322.2158432007 0 0 0 0 1503583.0406928062 -132004294.75139618 0 -132004294.75139618 -193880906.20577621 0 0 0 0 -27961532.520064473 -50098238.89383316 0 -50098238.89383316 79280445.20904541 0 0 0 0 26313.043727673125 -95603.009191587567 0 -95603.009191587567 1151446.5763497166 0 0 0 0 2501657.9949879646 -44927.499420166016 0 -44927.499420166016 -17813023.080177307 0 0 0 0 2392833.0285214377 -14213379.462294705 0 -14213379.462294705 -6204970.6311071329 0 0 0 0 1893143.4970689826 -1518430.9946441576 0 -1518430.9946441576 -10983559.364910431 0 0 0 0 -157661019.88612866 74123248.635452271 0 74123248.635452271 124361000.02819824 0 0 0 0 -14074770.461295843 -39301318.928863525 0 -39301318.928863525 132654.68176269531 0 0 0 0 2139527.4107101359 -16107704.347608417 0 -16107704.347608417 -1904640.2565089986 0 0 0 0 -26883070.254374981 -29437288.897598267 0 -29437288.897598267 12224113.618736267 0 0 0 0 11633335.54851234 -47082533.267105103 0 -47082533.267105103 -94762891.901351929 0 0 0 0 -6026555.1172529161 -7882175.6285858154 0 -7882175.6285858154 -12398011.989494324 0 0 0 0 61202.672364473343 -1053458.9740600586 0 -1053458.9740600586 -12420196.373977661 0 0 0 0 -2312292.2523757489 -4310713.4798923917 0 -4310713.4798923917 -9498061.0932553783 0 0 0 0 -7893039.1359713525 -7892676.343963623 0 -7892676.343963623 -11991397.597991943 0 0 0 0 -12032068.300598204 -8594685.3589324951 0 -8594685.3589324951 -7262843.4723815918 0 0 0 0 -1969994.2602972984 788980.72673034668 0 788980.72673034668 -9941395.4669265747 0 0 0 0 2205659.25137161 -2841249.2045587823 0 -2841249.2045587823 -9719075.4858113974 0 0 0 0 63262490.158829689 75149982.409576416 0 75149982.409576416 50861895.890892029 0 0 0 0 23826780.537925959 -28507060.416893005 0 -28507060.416893005 -86991772.650436401 0 0 0 0 8147221.8278179169 -35423459.243728638 0 -35423459.243728638 -35802779.745635986 0 0 0 0 4218104.3712315559 -12520595.145107478 0 -12520595.145107478 -19892426.990017429 0 0 0 0 2904600.0873603821 -6772849.0759429932 0 -6772849.0759429932 -22472800.802581787 0 0 0 0 -3511459.2444519075 524868.50027691573 0 524868.50027691573 -24807182.349978924 0 0 0 0 3683171.8802498681 -13205009.052892841 0 -13205009.052892841 -26681694.307061866 0 0 0 0 -8141349.2772216797 164757.55313873291 0 164757.55313873291 -17113997.965911865 0 0 0 0 -16505327.583952308 -39875.906394958496 0 -39875.906394958496 -12310369.249526978 0 0 0 0 -7273425.1132283211 -3386391.3596515656 0 -3386391.3596515656 -13356473.66418457 0 0 0 0 -12500995.956852406 -3326225.3948364258 0 -3326225.3948364258 -9653444.9034118652 0 0 0 0 -13670089.333458543 7334484.886756897 0 7334484.886756897 -15057599.702171326 0 0 0 0 -11907056.257835865 3125670.3315505981 0 3125670.3315505981 -11213381.911026001 0 0 0 0 -2837865.5240132194 3029877.715553619 0 3029877.715553619 -24818545.048065301 0 0 0 0 -8411851.9831042252 4547111.3865907192 0 4547111.3865907192 -19769183.127029419 0 0 0 0 11655853.132928371 327020.99377441406 0 327020.99377441406 -45059970.907348633 0 0 0 0 -3399513.4667892456 -43501.993305206299 0 -43501.993305206299 -20586659.951141357 0 0 0 0 4396164.3858764172 6140162.1939544678 0 6140162.1939544678 -37954851.721466064 0 0 0 0 -5798385.5872058868 6663907.6900634766 0 6663907.6900634766 -46817905.742523193 0 0 0 0 11025839.574489594 583726.15042114258 0 583726.15042114258 -16221260.581066132 0 0 0 0 5474205.5559568405 -11754425.911804199 0 -11754425.911804199 -19799340.139884949 0 0 0 0 136400079.45922852 -7198877.6918258667 0 -7198877.6918258667 -98965471.192337036 0 0 0 0 5149005.8576973956 -3225979.1741081914 0 -3225979.1741081914 -34553836.167464674 0 0 0 0 -82111.968014689162 629549.88581929356 0 629549.88581929356 -1505917.7411972154 0 0 0 0 -1141718.3209185852 -15837705.287793798 0 -15837705.287793798 -16752783.168346368 0 0 0 0 32845687.913911819 -22850611.365244865 0 -22850611.365244865 -45525680.929077148 0 0 0 0 -3124494.8547741426 15752701.151857633 0 15752701.151857633 -39092167.028379709 0 0 0 0 5159149.5882720947 -15273293.663139343 0 -15273293.663139343 -45412429.115060806 0 0 0 0 14275777.98260498 -31709016.780395508 0 -31709016.780395508 -49537267.195800781 0 0 0 0 9080775.2663912252 -4102242.3957443051 0 -4102242.3957443051 -27448591.675388917 0 0 0 0 1741878.5251093376 -614441.08282787492 0 -614441.08282787492 -2297621.922768658 0 0 0 0 52845968.754951477 12300082.128341675 0 12300082.128341675 -67038695.656143188 0 0 0 0 11205580.068984985 -5348905.2189483643 0 -5348905.2189483643 -126405945.76623821 0 0 0 0 6986644.1064072847 -1513923.0207936093 0 -1513923.0207936093 -28274114.634436395 0 0 0 0 -8267487.6342926025 9307985.3991775513 0 9307985.3991775513 -114072918.10433578 0 0 0 0 37811633.060256958 -25782110.706008911 0 -25782110.706008911 -110171275.73531342 0 0 0 0 5377498.8125228882 -26692671.311698914 0 -26692671.311698914 -106145055.46807861 0 0 0 0 -3710327.9302902222 -6851108.9163398743 0 -6851108.9163398743 -94176987.72467041 0 0 0 0 23019945.431884766 -32114923.318405151 0 -32114923.318405151 -71654150.965873718 0 0 0 0 -41917760.546478271 2144985.4821929932 0 2144985.4821929932 -62367492.35446167 0 0 0 0 -23483083.455871582 -10704256.14213562 0 -10704256.14213562 -54140359.606513977 0 0 0 0 -8443075.9314689636 9262257.6908226013 0 9262257.6908226013 -79201150.478607178 0 0 0 0 -12381218.019500732 19510087.454811096 0 19510087.454811096 -101962126.79145432 0 0 0 0 64784.151123046875 -4030030.5763320923 0 -4030030.5763320923 -97747331.644477844 0 0 0 0 36870051.194374084 30022534.551143646 0 30022534.551143646 -98487688.895385742 0 0 0 0 -2419108.4299358213 5808969.5541878846 0 5808969.5541878846 961344.71599121764 0 0 0 0 -8255075.2988598347 21485212.802440405 0 21485212.802440405 -101040030.32667542 0 0 0 0 -10943994.483184814 36948344.799034119 0 36948344.799034119 -121441614.84505653 0 0 0 0 -11093766.061735153 41555728.160980225 0 41555728.160980225 -72320617.128753662 0 0 0 0 -23067690.343475342 19597564.172775269 0 19597564.172775269 -85173105.693115234 0 0 0 0 -63880139.302642822 96555851.036697388 0 96555851.036697388 -129115230.57685852 0 0 0 0 17170223.030265808 55176782.700824738 0 55176782.700824738 -129888849.41166687 0 0 0 0 -6064633.2069625854 36894882.729530334 0 36894882.729530334 -90304765.515550613 0 0 0 0 1033884.7066345215 34346162.716487885 0 34346162.716487885 -90981777.844696045 0 0 0 0 -1360333.7510757446 44703892.587409973 0 44703892.587409973 -120385768.3978281 0 0 0 0 -43622070.352314949 44703733.27241993 0 44703733.27241993 -67054077.083862305 0 0 0 0 93786859.813718677 8210659.2168540955 0 8210659.2168540955 -3477496.737487793 0 0 0 0 95693409.13993454 30360493.836677551 0 30360493.836677551 -8980347.177734375 0 0 0 0 18962841.458633423 191947812.39429092 0 191947812.39429092 -34979360.945692062 0 0 0 0 -1479504.0917070173 4557483.8753330093 0 4557483.8753330093 -12479724.601714976 0 0 0 0 -427290.92448731838 1542951.4135003849 0 1542951.4135003849 -22063301.475764088 0 0 0 0 -8163417.904376626 6863402.3478164673 0 6863402.3478164673 -15612542.072654724 0 0 0 0 49439885.082378387 -112538814.28141022 0 -112538814.28141022 -33573591.483352661 0 0 0 0 -277464763.15166473 -121193598.26643753 0 -121193598.26643753 88730849.358184814 0 0 0 0 72590284.09195137 25167985.053016663 0 25167985.053016663 -8676057.1788330078 0 0 0 0 1966413.1099580829 965727.02611662354 0 965727.02611662354 -18571800.37099456 0 0 0 0 -3760699.4486680031 7105620.8303184509 0 7105620.8303184509 -16343699.9324646 0 0 0 0 6759732.0516741276 13729781.371822357 0 13729781.371822357 -24615508.087265015 0 0 0 0 -15670610.475875854 34766689.16835022 0 34766689.16835022 -39947348.443832397 0 0 0 0 1496459.5059033399 8399636.1910511795 0 8399636.1910511795 -16342988.879487403 0 0 0 0 -23626786.442687988 13842852.580207825 0 13842852.580207825 -23356922.108520508 0 0 0 0 -25601751.403129578 39734198.97354126 0 39734198.97354126 -28195791.898578644 0 0 0 0 17925876.195018768 -3046952.2541236877 0 -3046952.2541236877 -34305198.315826416 0 0 0 0 -15012109.300361633 40939409.316452026 0 40939409.316452026 -48257314.68649292 0 0 0 0 -34117294.466339111 38759248.906463623 0 38759248.906463623 41985500.443687439 0 0 0 0 -8806431.7127865031 15312955.319501685 0 15312955.319501685 -11176950.554889843 0 0 0 0 1530380.6496723485 -1765790.8486793679 0 -1765790.8486793679 -1294250.1773315668 0 0 0 0 -457073464.82238936 133905360.36712408 0 133905360.36712408 -62337178.864547729 0 0 0 0 13716386.061120987 9290514.9689826965 0 9290514.9689826965 263405.65307617188 0 0 0 0 72416430.302015305 13395413.218528748 0 13395413.218528748 -3251641.8266601562 0 0 0 0 2100558.7734250524 22431868.406391896 0 22431868.406391896 -28799442.370658077 0 0 0 0 -656098809.82519913 191802843.35264587 0 191802843.35264587 -42870276.15255928 0 0 0 0 -4051559.4637755156 14998371.925018311 0 14998371.925018311 -22264014.595024109 0 0 0 0 -4788739.1481792927 12605858.505088806 0 12605858.505088806 -22906137.535827637 0 0 0 0 -34674891.283680797 36450446.390678406 0 36450446.390678406 -41074528.657001495 0 0 0 0 -34793213.431552455 9077520.0461196005 0 9077520.0461196005 -14303563.800827026 0 0 0 0 -36747440.119813919 -2935412.4765853882 0 -2935412.4765853882 -8282992.9190063477 0 0 0 0 -30429087.31305486 9999818.1643447876 0 9999818.1643447876 -14387441.603630066 0 0 0 0 -17432288.546694368 -3528728.3972320557 0 -3528728.3972320557 -9293730.5777549744 0 0 0 0 -22756389.553192332 -2216322.7313966751 0 -2216322.7313966751 -7547449.5746154785 0 0 0 0 -21374562.707207024 5898573.6378030777 0 5898573.6378030777 -11663876.432098389 0 0 0 0 -19043118.750378966 16842424.411346436 0 16842424.411346436 -19809008.414402008 0 0 0 0 -25788184.394371271 5967880.6874084473 0 5967880.6874084473 -10884773.751693726 0 0 0 0 -31826051.025827587 -468444590.88401413 0 -468444590.88401413 -2559970858.6814041 0 0 0 0 -1763730.7915766446 -208228348.54597002 0 -208228348.54597002 -986019779.04086304 0 0 0 0 -351661664.31840682 -82441739.29728508 0 -82441739.29728508 -171898372.2429657 0 0 0 0 186772.57216605567 44234.294889338315 0 44234.294889338315 -1247618.3819254041 0 0 0 0 562675853.20442629 -1745512599.4075584 0 -1745512599.4075584 -5338851031.2794418 0 0 0 0 -388322515.85502481 -1099581046.197403 0 -1099581046.197403 -2321940384.7443771 0 0 0 0 -1236458127.6992645 -2813610602.3869781 0 -2813610602.3869781 -1722683648.0988007 0 0 0 0 -3032117.0354367266 -1555691.9355652146 0 -1555691.9355652146 -5503309.615183264 0 0 0 0 -1545092849.5436676 -1943520784.1223431 0 -1943520784.1223431 130784753.59701538 0 0 0 0 -205462396.95403075 116765429.92166996 0 116765429.92166996 288939071.93005371 0 0 0 0 -243104934.63876307 334991730.37042236 0 334991730.37042236 -116982909.60055542 0 0 0 0 265887.19103306404 92283.517069362104 0 92283.517069362104 -797972.53215885162 0 0 0 0 -125111005.19741195 250449662.96164703 0 250449662.96164703 -1015141637.5669098 0 0 0 0 -43638891.437532663 -110003.60278320312 0 -110003.60278320312 -162545521.81467056 0 0 0 0 -380228757.17165637 -196581851.94817352 0 -196581851.94817352 -219944345.61773682 0 0 0 0 496182550.25135708 57615502.861022949 0 57615502.861022949 -284763980.06016159 0 0 0 0 82723106.983130455 51494154.51222229 0 51494154.51222229 -284379986.1005764 0 0 0 0 318663843.95792365 97064488.394569397 0 97064488.394569397 85198184.008026123 0 0 0 0 1099512.9373037016 -844871.47799851745 0 -844871.47799851745 -21143881.820175037 0 0 0 0 619160905.78032684 -204809874.3245163 0 -204809874.3245163 -202283004.02114868 0 0 0 0 -41071945.252089888 21905906.176067352 0 21905906.176067352 33404863.673034668 0 0 0 0 58074183.498508662 -35482932.744476318 0 -35482932.744476318 -45556434.321792603 0 0 0 0 982412625.7186451 23037653.26751709 0 23037653.26751709 -517306943.6771698 0 0 0 0 1092102616.3024173 -693558506.95191956 0 -693558506.95191956 59040101.618991613 0 0 0 0 -3603978.4003147734 -3906246.080001656 0 -3906246.080001656 -12478669.965011477 0 0 0 0 149963483.62322602 1413594724.7828217 0 1413594724.7828217 -5346958505.6083984 0 0 0 0 586775780.19748855 -626095703.76112747 0 -626095703.76112747 -5347605040.9203644 0 0 0 0 326995074.82275033 363527374.77013779 0 363527374.77013779 -1438642770.6659851 0 0 0 0 -336402607.67766708 -674751070.14399719 0 -674751070.14399719 -791465505.72502136 0 0 0 0 -251128949.91805837 400808896.27302504 0 400808896.27302504 98068179.355957031 0 0 0 0 -395832515.69429398 222585138.98756409 0 222585138.98756409 378585530.35713959 0 0 0 0 -3678706218.9088101 2894658268.6822605 0 2894658268.6822605 -1160059587.3425903 0 0 0 0 -846258265.02100754 -1489014372.8454819 0 -1489014372.8454819 -1767244044.156044 0 0 0 0 -1352180.8100683137 3314960.9301442434 0 3314960.9301442434 -6625495.9179070294 0 0 0 0 -239274099.62044829 3395684091.0847778 0 3395684091.0847778 -5346080247.437501 0 0 0 0 975119202.18627429 1229838418.3408394 0 1229838418.3408394 -2875708365.8497467 0 0 0 0 716755458.22263789 3046165980.9520874 0 3046165980.9520874 -1323572950.1082001 0 0 0 0 -984860680.38762414 3750672200.021698 0 3750672200.021698 -1614988305.3498383 0 0 0 0 -2165398761.0320239 1654194555.4200439 0 1654194555.4200439 -204656318.94717407 0 0 0 0 -834832577.00704265 1340771461.9930725 0 1340771461.9930725 -2314461014.615509 0 0 0 0 -1380368768.7835827 1187263438.3900757 0 1187263438.3900757 -1824086677.5186157 0 0 0 0 -1872317965.5764837 1839571964.4814758 0 1839571964.4814758 -2193070321.2954712 0 0 0 0 -322487055.01255292 253788874.18354702 0 253788874.18354702 -2884793085.0726929 0 0 0 0 292705.63585719047 142193.64234557375 0 142193.64234557375 -1737476.7180096209 0 0 0 0 6593378.0890388489 -66715552.097747803 0 -66715552.097747803 -26559354.082609177 0 0 0 0 -679243662.24960876 432095774.76337433 0 432095774.76337433 -60137427.473236084 0 0 0 0 -237863334.21703649 -705897666.76229477 0 -705897666.76229477 -1135627072.3494263 0 0 0 0 170864859.13240981 177863662.0490036 0 177863662.0490036 142873297.54728699 0 0 0 0 -176640.66868386205 3271992.5906414627 0 3271992.5906414627 -16331825.283181489 0 0 0 0 1100086196.5071859 -48336113.751670837 0 -48336113.751670837 -1375965686.0449677 0 0 0 0 2078265.7056549934 1184538.7536254711 0 1184538.7536254711 -3587785.0847400129 0 0 0 0 88352467.353175402 98936038.321880341 0 98936038.321880341 226088040.45507812 0 0 0 0 11639981.29234761 12274249.84740448 0 12274249.84740448 -21800418.897251129 0 0 0 0 1231043.9758945501 -5921925.9440537971 0 -5921925.9440537971 -18503694.966252729 0 0 0 0 25901244.676483512 30955781.782539368 0 30955781.782539368 -23728957.185089111 0 0 0 0 3340070.9408548968 3599678.9770692475 0 3599678.9770692475 -9942274.5847875476 0 0 0 0 497722989.16521776 278453748.08830166 0 278453748.08830166 -17400457.667114258 0 0 0 0 400600089.99850178 -675779100.59875488 0 -675779100.59875488 527770108.47557449 0 0 0 0 -171056856.79560184 598660763.00680542 0 598660763.00680542 873890777.63053131 0 0 0 0 63830317.590509176 -55478810.69519043 0 -55478810.69519043 -68654725.676467896 0 0 0 0 -17541378.897190094 75321724.599655151 0 75321724.599655151 -108481758.53649902 0 0 0 0 -588020457.17599368 -1053914968.0792694 0 -1053914968.0792694 442750107.52175903 0 0 0 0 -585683.02983694279 1043559.7799487635 0 1043559.7799487635 -3855006.6241152734 0 0 0 0 -18857069.343813896 -8015445.7020690441 0 -8015445.7020690441 -2461021.2469329834 0 0 0 0 3853281.4415745428 3878736.6365561299 0 3878736.6365561299 -7300130.012740545 0 0 0 0 2476399.3320953217 -3750896.2095164265 0 -3750896.2095164265 -33023376.776377872 0 0 0 0 32855144.982489914 47054723.749175549 0 47054723.749175549 -75212893.945846558 0 0 0 0 74743549.726296902 14875578.431144714 0 14875578.431144714 -136836269.35416031 0 0 0 0 -27477511.073394418 35199974.667780399 0 35199974.667780399 -77658154.134765625 0 0 0 0 -18078079.710671529 -104175977.45731163 0 -104175977.45731163 -34038741.672607422 0 0 0 0 32122946.218780518 -22926680.899124146 0 -22926680.899124146 -35211905.916389465 0 0 0 0 33924908.939380169 -33494914.81427002 0 -33494914.81427002 -137992853.79471588 0 0 0 0 4272383.7068251371 -30125261.05380249 0 -30125261.05380249 -135012.37438201904 0 0 0 0 9730308.2502148151 -16921174.328907013 0 -16921174.328907013 -26179390.713592529 0 0 0 0 717993.6516909413 -13413575.493412547 0 -13413575.493412547 1804945.6846231744 0 0 0 0 -43653762.40269804 -37765559.166015625 0 -37765559.166015625 52637335.437805176 0 0 0 0 -57112.622438156512 -638008.84114733338 0 -638008.84114733338 -1275355.5057453662 0 0 0 0 36130210.47527957 -154245028.23916817 0 -154245028.23916817 367884066.35986328 0 0 0 0 -220625.71088644682 -1795784.0937894986 0 -1795784.0937894986 -186555.75699812174 0 0 0 0 41723616.968743801 -27739220.094299316 0 -27739220.094299316 -41520347.855457306 0 0 0 0 5272654.003026044 -2075546.4126005452 0 -2075546.4126005452 -31795164.063486114 0 0 0 0 258632853.09140587 29195469.204627991 0 29195469.204627991 -34718474.38684082 0 0 0 0 416657682.93186843 -48677250.591591835 0 -48677250.591591835 -97593052.861633301 0 0 0 0 156620775.88127375 -24855694.241760254 0 -24855694.241760254 -173137089.05145264 0 0 0 0 154439445.91429424 -24299726.855987549 0 -24299726.855987549 183845575.83792114 0 0 0 0 665218057.55007744 66432459.259765625 0 66432459.259765625 -44762325.723449707 0 0 0 0 -64754029.082603931 110395019.9793396 0 110395019.9793396 -68213657.31003952 0 0 0 0 201602926.19689536 -50349640.67350769 0 -50349640.67350769 -112159746.55783081 0 0 0 0 163142754.4808352 71225539.035610199 0 71225539.035610199 63705700.682983398 0 0 0 0 318019361.6867103 -8076959.8618273735 0 -8076959.8618273735 597324.71905517578 0 0 0 0 291842497.93831396 -36257117.226821899 0 -36257117.226821899 -29568090.114739418 0 0 0 0 324889030.1622529 -2327180.7939147949 0 -2327180.7939147949 -9721164.419380188 0 0 0 0 320440.83915248932 404044.69529155642 0 404044.69529155642 -727846.13452409208 0 0 0 0 359753205.86229527 135513733.04478455 0 135513733.04478455 76841283.778289795 0 0 0 0 30101465.953063697 -84902202.937820435 0 -84902202.937820435 -71635631.793640137 0 0 0 0 71483469.912874818 186625448.29011536 0 186625448.29011536 40067115.200218201 0 0 0 0 230834.27392683737 818479.09289258718 0 818479.09289258718 -1232468.3236274049 0 0 0 0 55143859.881868362 113570060.24986267 0 113570060.24986267 64899352.656860352 0 0 0 0 93502768.897421837 5716336.8223114014 0 5716336.8223114014 15789035.593460083 0 0 0 0 14469346.346801758 59972428.467727661 0 59972428.467727661 5041203.7641448975 0 0 0 0 74007843.035102248 60551419.249404907 0 60551419.249404907 -228410291.72601318 0 0 0 0 47212089.935777426 149463320.05286407 0 149463320.05286407 -344380497.29924011 0 0 0 0 -128286181.85375404 218372310.27067566 0 218372310.27067566 -228456809.50770921 0 0 0 0 -8711876.35815835 242116475.96240234 0 242116475.96240234 -422243849.52981567 0 0 0 0 5651125.2492232323 4829232.6339797974 0 4829232.6339797974 -6410627.9859161377 0 0 0 0 69513.090982814028 450968.76561062783 0 450968.76561062783 -669205.51605457067 0 0 0 0 67915238.798135355 133020554.03898621 0 133020554.03898621 -480704530.61726379 0 0 0 0 -139073105.51875353 333840938.3094101 0 333840938.3094101 -392091345.2888031 0 0 0 0 -229758193.86234707 283958124.85946655 0 283958124.85946655 -83807967.901947021 0 0 0 0 277953.31589404994 312453534.91308665 0 312453534.91308665 -460754922.16751099 0 0 0 0 -794372.49303171923 312378768.81330109 0 312378768.81330109 -460725905.52990723 0 0 0 0 -140704662.40465048 -231602052.04304504 0 -231602052.04304504 -304102832.06497955 0 0 0 0 -140629535.6470612 313689068.2327652 0 313689068.2327652 -71524098.849952698 0 0 0 0 117212656.84106216 -46208466.179541588 0 -46208466.179541588 -235616103.84350586 0 0 0 0 -156314308.10211 -298422368.23124695 0 -298422368.23124695 -283437846.21322632 0 0 0 0 96648.087017343933 -211578.74431207031 0 -211578.74431207031 -1050638.4625086486 0 0 0 0 6834523.5898221657 23959480.233657837 0 23959480.233657837 -118739295.52734375 0 0 0 0 4045113.4752279148 31141854.014343262 0 31141854.014343262 -131542994.08633423 0 0 0 0 16021.388499006192 26878015.51134491 0 26878015.51134491 -119790681.31791687 0 0 0 0 -35045.327810248324 23874399.97153246 0 23874399.97153246 -101744896.28433228 0 0 0 0 131781.96015324746 613840.33207861334 0 613840.33207861334 -427355.20491693914 0 0 0 0 -5532272.526836969 33859272.163780212 0 33859272.163780212 -112478064.86325836 0 0 0 0 -5477305.7615440544 39256051.364275873 0 39256051.364275873 -118830949.59819031 0 0 0 0 1071555.7237831533 744786.11314514279 0 744786.11314514279 -701835.22025617957 0 0 0 0 -132078349.46136379 389860207.37301636 0 389860207.37301636 -501869061.14344788 0 0 0 0 -176143118.4121334 152741955.95029736 0 152741955.95029736 -333514481.38822937 0 0 0 0 -11628937.102744527 53993760.19479847 0 53993760.19479847 -107824866.92732239 0 0 0 0 -11203673.257974267 43497027.273391724 0 43497027.273391724 -121967805.18733215 0 0 0 0 9016004.7403286695 37632390.665222168 0 37632390.665222168 -123150766.41666222 0 0 0 0 1845496.4395269305 51479206.448135376 0 51479206.448135376 -147537450.84185791 0 0 0 0 20222078.548815012 28841238.763763428 0 28841238.763763428 -143771494.26693535 0 0 0 0 42972053.299294233 46006896.084831238 0 46006896.084831238 -184035754.5377388 0 0 0 0 -55162516.110914856 88801593.298500061 0 88801593.298500061 7020113.5225067139 0 0 0 0 1816634.9204997851 -185910.73494376242 0 -185910.73494376242 -2490875.7589597553 0 0 0 0 5113490.9767999351 67010820.570083618 0 67010820.570083618 -120765849.2623291 0 0 0 0 -4844341.6913964152 90724516.227676392 0 90724516.227676392 -176750528.51026058 0 0 0 0 -14972575.155757427 400729841.59416199 0 400729841.59416199 -744268619.45578003 0 0 0 0 1801690.8006923343 490043.6079961434 0 490043.6079961434 -1375685.6940127239 0 0 0 0 237613202.6197691 248701413.6675415 0 248701413.6675415 -335439449.7048645 0 0 0 0 60160436.400502205 191620696.85894775 0 191620696.85894775 -81080299.868896484 0 0 0 0 511024666.59838998 234616252.85198593 0 234616252.85198593 -91907092.968688965 0 0 0 0 599630209.16483116 -397157809.73660278 0 -397157809.73660278 160810591.4727478 0 0 0 0 275060357.61328411 -160228589.42054749 0 -160228589.42054749 -158210187.25720215 0 0 0 0 218934685.81012321 22314614.590667725 0 22314614.590667725 -644314555.62280273 0 0 0 0 -169935837.16494191 163359695.99132538 0 163359695.99132538 -340958388.61767578 0 0 0 0 9770789.7279005051 313063762.60040283 0 313063762.60040283 -790438389.73655701 0 0 0 0 -85495911.916279316 72652313.800567627 0 72652313.800567627 -406884018.77136993 0 0 0 0 71543893.353971004 -59091578.208393097 0 -59091578.208393097 -378489489.13418579 0 0 0 0 275669769.56303024 -140649323.85089111 0 -140649323.85089111 -202469479.77609253 0 0 0 0 -13345264.119742632 79229107.063659668 0 79229107.063659668 -333867303.01971436 0 0 0 0 251282281.86866474 -74317020.900024414 0 -74317020.900024414 -193534066.51171875 0 0 0 0 -25694479.441588014 8861911.1989555359 0 8861911.1989555359 139527455.57965088 0 0 0 0 251905896.66539764 -82287394.726531982 0 -82287394.726531982 -109317783.89428711 0 0 0 0 20925880.190361351 -21868420.276405334 0 -21868420.276405334 -112685880.75720215 0 0 0 0 -16489260.105726242 -75201954.133758545 0 -75201954.133758545 -109113679.62677002 0 0 0 0 14081522.438403308 -27156619.287433624 0 -27156619.287433624 -388579606.51307678 0 0 0 0 -4908263.030406177 23885038.501205444 0 23885038.501205444 -323579387.42771912 0 0 0 0 1209510.8332839415 -880418.21904953569 0 -880418.21904953569 -4219862.0126156658 0 0 0 0 -18679228.851018667 159427739.16638947 0 159427739.16638947 -520451779.1244812 0 0 0 0 -70180306.250462681 189679940.68079758 0 189679940.68079758 -237354490.65336609 0 0 0 0 -218487383.48407304 -53319505.522884369 0 -53319505.522884369 54820482.58921814 0 0 0 0 115192135.10744101 34996782.571075439 0 34996782.571075439 -580851659.11514282 0 0 0 0 -112007304.70567858 388147841.48950958 0 388147841.48950958 -577053252.77145386 0 0 0 0 43988101.416490048 96969216.760620117 0 96969216.760620117 -421269515.91435242 0 0 0 0 -149154.57323691249 -165190401.74148941 0 -165190401.74148941 -310864513.92190552 0 0 0 0 -48947790.192005239 -80998397.724578857 0 -80998397.724578857 -125033471.19924927 0 0 0 0 -4146576.4182832241 8574855.2512207031 0 8574855.2512207031 -17802965.8046875 0 0 0 0 -90794796.03292197 -122126504.8437233 0 -122126504.8437233 -35488555.852325439 0 0 0 0 465723.69126750622 336838.79942039773 0 336838.79942039773 -2186429.7854402661 0 0 0 0 54702511.270424873 1224928.4049339294 0 1224928.4049339294 -42913486.87612915 0 0 0 0 8092977.7656311989 4457308.7807617188 0 4457308.7807617188 -26692903.994995117 0 0 0 0 39930182.696513414 6188977.9038848877 0 6188977.9038848877 -37095570.277893066 0 0 0 0 12016217.409879684 11629489.880569458 0 11629489.880569458 -19567643.053771973 0 0 0 0 42146659.034440875 578927.95429992676 0 578927.95429992676 -19399130.72479248 0 0 0 0 -15664237.573464569 -9445996.4307794571 0 -9445996.4307794571 -32522705.424530029 0 0 0 0 29117796.272460818 3431277.3262176514 0 3431277.3262176514 -25994196.190750122 0 0 0 0 -17213161.904864907 3735551.1774139404 0 3735551.1774139404 -13426670.499450684 0 0 0 0 15258784.836655527 -1416143.4553184509 0 -1416143.4553184509 -35685746.952392578 0 0 0 0 -20768822.840365335 -26452322.215461731 0 -26452322.215461731 -61940513.960693359 0 0 0 0 -28024992.741894364 2504134.6958465576 0 2504134.6958465576 -29262947.839004517 0 0 0 0 -62880174.967372358 -25755639.37701416 0 -25755639.37701416 -22238807.931518555 0 0 0 0 8643063.7039363645 -6010879.6948013306 0 -6010879.6948013306 -48396716.396881104 0 0 0 0 -26163129.321175039 -25943168.897125244 0 -25943168.897125244 -61640176.325256348 0 0 0 0 -17528730.125008181 -14412409.661148071 0 -14412409.661148071 -75646644.684570312 0 0 0 0 -26245123.77175045 -44339613.592376709 0 -44339613.592376709 -88632462.854530334 0 0 0 0 -26247552.128141344 -6031317.5012969971 0 -6031317.5012969971 -33245636.692382812 0 0 0 0 -27895180.57178998 5635604.1392822266 0 5635604.1392822266 -20477176.44140625 0 0 0 0 -12517171.747552693 683316.81976318359 0 683316.81976318359 -51567639.603870392 0 0 0 0 -16586293.15520981 -6111339.4624023438 0 -6111339.4624023438 -50816576.002812386 0 0 0 0 -4179825.2993722335 -15524464.172801971 0 -15524464.172801971 -85419485.047775269 0 0 0 0 3900707.8173354194 -26263740.145786285 0 -26263740.145786285 -134508884.74475098 0 0 0 0 21065829.924173951 7162211.4660491943 0 7162211.4660491943 -178412133.00517273 0 0 0 0 4996081.3102594912 -26630609.261901855 0 -26630609.261901855 -182896704.50215149 0 0 0 0 -1173197.2532690167 -18772377.419822693 0 -18772377.419822693 -126476380.3813324 0 0 0 0 20560974.889125749 37116246.788986206 0 37116246.788986206 -166869118.09260559 0 0 0 0 13796547.313150324 26549016.306777954 0 26549016.306777954 -142264600.97172546 0 0 0 0 19007718.933206111 8484715.8096389771 0 8484715.8096389771 -116062585.36431885 0 0 0 0 4606370.555576548 2427399.8876342773 0 2427399.8876342773 -97162234.252822876 0 0 0 0 11101046.565793052 -4915999.599395752 0 -4915999.599395752 -119732242.16693497 0 0 0 0 -920750.94356796145 3113759.6962356567 0 3113759.6962356567 -56812460.178421021 0 0 0 0 2527969.287300244 -9544392.4989013672 0 -9544392.4989013672 -69313416.535346985 0 0 0 0 8697841.413818866 7765362.4019088745 0 7765362.4019088745 -86314861.509933472 0 0 0 0 9260947.1773865707 424383.91171789169 0 424383.91171789169 -85502550.736022949 0 0 0 0 4845683.9212102965 8178299.0318756104 0 8178299.0318756104 -66144446.679092407 0 0 0 0 7347025.737429373 -1871224.2839508057 0 -1871224.2839508057 -59447957.630111694 0 0 0 0 5684.4535317593954 8028648.88331604 0 8028648.88331604 -55102305.0443573 0 0 0 0 8404655.322343288 368093.84177589417 0 368093.84177589417 -79157360.595794678 0 0 0 0 4978.8952034226659 13148730.699989319 0 13148730.699989319 -84118227.783996582 0 0 0 0 13473381.783399325 9754581.969909668 0 9754581.969909668 -111367656.40159607 0 0 0 0 5627431.6786814332 15033056.487808228 0 15033056.487808228 -109112096.78559494 0 0 0 0 16049940.269929418 17721830.003404617 0 17721830.003404617 -121944495.73782349 0 0 0 0 10511.374933899049 22659194.799062762 0 22659194.799062762 -117615277.59667969 0 0 0 0 23475280.746149063 -89197101.321311951 0 -89197101.321311951 -265305698.29983115 0 0 0 0 192219152.47641468 -31153947.516330719 0 -31153947.516330719 -410082788.49551392 0 0 0 0 -1182834.0672203393 3518375.5380600789 0 3518375.5380600789 -38163456.002573222 0 0 0 0 2456013.723598199 -996513.0511399433 0 -996513.0511399433 -8438934.2829837054 0 0 0 0 -422974661.28778696 -620539021.31475067 0 -620539021.31475067 152086969.71368408 0 0 0 0 332154903.5455966 -225526039.45042419 0 -225526039.45042419 61300248.352203369 0 0 0 0 63874725.491101384 -16191168.194290161 0 -16191168.194290161 -81372920.790679932 0 0 0 0 -698911718.20068645 288084208.66963196 0 288084208.66963196 128998240.4203949 0 0 0 0 1036197257.5626183 -50647640.172363281 0 -50647640.172363281 -264367603.52996826 0 0 0 0 -135534256.50998902 101867948.52005005 0 101867948.52005005 -248003125.5211792 0 0 0 0 34614574.354047656 -518078355.06883049 0 -518078355.06883049 -1129695083.5194702 0 0 0 0 -584553229.31857491 -758836349.61567593 0 -758836349.61567593 -583646690.74136353 0 0 0 0 332514623.70490044 -47629947.522696406 0 -47629947.522696406 -312831485.20629883 0 0 0 0 15342767.123284817 196895212.62420654 0 196895212.62420654 -108338260.31887817 0 0 0 0 266604168.32345438 -12304512.307830811 0 -12304512.307830811 -277276027.03604126 0 0 0 0 25556589.74784404 15119321.414398193 0 15119321.414398193 -103583389.60990906 0 0 0 0 281374356.11374712 20154799.366943359 0 20154799.366943359 -209379822.97361755 0 0 0 0 7984133.7207406051 -1222274.7626261078 0 -1222274.7626261078 -63254382.184440546 0 0 0 0 5683818.3543960182 7801689.0687221363 0 7801689.0687221363 -30205246.318818182 0 0 0 0 11986059.623739123 6462195.7792205811 0 6462195.7792205811 -90030092.036903381 0 0 0 0 8548754.7090973854 14063953.482444763 0 14063953.482444763 -97589186.84942627 0 0 0 0 4563483.1900228262 28899676.474266052 0 28899676.474266052 -152556410.56529236 0 0 0 0 450104.45860438654 6265073.2320844419 0 6265073.2320844419 -25225272.442863617 0 0 0 0 7091963.6838035583 30264381.177894592 0 30264381.177894592 -156911853.62494659 0 0 0 0 9626750.3384456635 -1007862.1929016113 0 -1007862.1929016113 -37779105.01184082 0 0 0 0 7893911.2564156167 -1564233.504985448 0 -1564233.504985448 -33251666.706410632 0 0 0 0 6862672.5453004837 -1933774.4322242737 0 -1933774.4322242737 -61224756.256016493 0 0 0 0 7364080.8264721632 -2156254.3217616081 0 -2156254.3217616081 -61198429.971725464 0 0 0 0 4812449.8310213089 8903822.1918563843 0 8903822.1918563843 -29186999.581550598 0 0 0 0 9550822.1108961515 1047728.7862823028 0 1047728.7862823028 -50802426.502091184 0 0 0 0 8526100.2326631546 -1304677.9452018738 0 -1304677.9452018738 -24450677.556749344 0 0 0 0 11674492.060272932 -1134567.478313446 0 -1134567.478313446 -85210199.213653564 0 0 0 0 5422791.2809801102 -2288601.2698860168 0 -2288601.2698860168 -85270046.895172119 0 0 0 0 10554844.671807522 -2907113.2436630866 0 -2907113.2436630866 -45962937.087022305 0 0 0 0 12658039.911004663 2145834.2439427376 0 2145834.2439427376 -85880223.9948349 0 0 0 0 7896184.7807998657 2261850.9686164856 0 2261850.9686164856 -85882832.837556601 0 0 0 0 9749710.1428947449 10417913.201080322 0 10417913.201080322 -100244763.64609098 0 0 0 0 12607785.846390724 7081424.6376686096 0 7081424.6376686096 -101361999.6711731 0 0 0 0 12327320.025046408 1545051.7702041864 0 1545051.7702041864 -91979200.391166687 0 0 0 0 7144322.0783824921 13084162.005077362 0 13084162.005077362 -94415352.550758362 0 0 0 0 39972801.793830872 -1651644.5231323242 0 -1651644.5231323242 -6987898.8599853516 0 0 0 0 45028646.332550049 4485164.6607055664 0 4485164.6607055664 -3270069.4197387695 0 0 0 0 13742762.408194035 -19639972.759312652 0 -19639972.759312652 -37770478.2047408 0 0 0 0 8486148.9522514343 489096.49140548706 0 489096.49140548706 -83166407.759994507 0 0 0 0 5635958.3364229202 10078544.414497375 0 10078544.414497375 -82802922.253982544 0 0 0 0 -2019321.0047524413 -5486911.9048258215 0 -5486911.9048258215 -7363928.8136605769 0 0 0 0 13846859.996501923 -4601941.7910614014 0 -4601941.7910614014 -11908323.912322998 0 0 0 0 7209458.3570060469 2235752.6952443961 0 2235752.6952443961 -43479619.22530733 0 0 0 0 682887.82152195903 -8109458.3371928968 0 -8109458.3371928968 -10908891.963902652 0 0 0 0 13254343.962772369 -8682979.4071044922 0 -8682979.4071044922 -19848045.558761597 0 0 0 0 16861423.857415199 2765506.3710632324 0 2765506.3710632324 -68389886.541938305 0 0 0 0 11473971.741039991 -7984533.5460777283 0 -7984533.5460777283 -20121776.40802002 0 0 0 0 12188616.940127373 -5380949.1567077637 0 -5380949.1567077637 -29687734.45199585 0 0 0 0 -692579.77195930481 -8002273.1290512085 0 -8002273.1290512085 -12974240.185058594 0 0 0 0 10268254.069375545 -12118117.494952679 0 -12118117.494952679 -14278105.060272217 0 0 0 0 7582672.8881485844 -8373800.7471331395 0 -8373800.7471331395 -39055192.200552724 0 0 0 0 10509582.263756275 -6259756.3472137451 0 -6259756.3472137451 -15247271.74307251 0 0 0 0 5811376.714018167 -19473506.964965895 0 -19473506.964965895 -29471608.196127146 0 0 0 0 7222065.9820468388 -11717018.809686409 0 -11717018.809686409 -12640573.905143976 0 0 0 0 4921337.7382600382 -12438188.01363316 0 -12438188.01363316 -9271536.7419210821 0 0 0 0 68068254.519142151 10118121.486419678 0 10118121.486419678 52675776.095703125 0 0 0 0 40082633.650838852 -1988191.0983276367 0 -1988191.0983276367 -7930532.37890625 0 0 0 0 6005188.4674763801 -3834423.2679599524 0 -3834423.2679599524 -31882744.697378069 0 0 0 0 26293145.971696854 -4448115.2157897949 0 -4448115.2157897949 -17261802.163696289 0 0 0 0 -7517036.1806621552 -10987244.884246826 0 -10987244.884246826 -51699978.992797852 0 0 0 0 -382802.4704618603 7679063.3162322305 0 7679063.3162322305 -44417039.782080166 0 0 0 0 8351392.6071236441 14590662.448145293 0 14590662.448145293 -65454566.346946493 0 0 0 0 13654926.709467411 -15392881.614784241 0 -15392881.614784241 -71892657.368667603 0 0 0 0 40705029.736391068 10098835.160339355 0 10098835.160339355 -68705336.427764893 0 0 0 0 55674785.492670059 12319405.527679443 0 12319405.527679443 -74747793.293884277 0 0 0 0 32035507.099915147 -19922746.905418396 0 -19922746.905418396 -78275906.05480957 0 0 0 0 19190509.412622452 -27456928.837791443 0 -27456928.837791443 -58343172.386779785 0 0 0 0 28019050.477231503 -12000859.024803162 0 -12000859.024803162 -75093885.764801025 0 0 0 0 18003316.141793013 -21691550.482648849 0 -21691550.482648849 -72138512.87387085 0 0 0 0 14171904.039672852 -20744042.884078979 0 -20744042.884078979 -70708300.544418335 0 0 0 0 18720887.954407692 -9384068.0110321045 0 -9384068.0110321045 -119322968.94863892 0 0 0 0 4954195.2543170452 -20937880.104194641 0 -20937880.104194641 -83299987.643249512 0 0 0 0 25624211.046969175 37971816.315071106 0 37971816.315071106 -203738858.44290161 0 0 0 0 -11412571.889031887 32183040.404037476 0 32183040.404037476 -114714850.29503441 0 0 0 0 3389592.8125281334 6616059.1261825562 0 6616059.1261825562 -74411940.538223267 0 0 0 0 10330104.161637902 -596229.83577346802 0 -596229.83577346802 -98067753.466339111 0 0 0 0 -10425060.376166582 -9360830.9270172119 0 -9360830.9270172119 -108967454.25675964 0 0 0 0 22186618.410887361 -22772355.080543518 0 -22772355.080543518 -172014197.56393433 0 0 0 0 31267839.201356888 22419209.312728882 0 22419209.312728882 -165630104.27871895 0 0 0 0 39550389.974869967 7683080.2785720825 0 7683080.2785720825 -309570604.14900208 0 0 0 0 -6927726.6681618094 -51007968.294471741 0 -51007968.294471741 -174497750.13635254 0 0 0 0 -29961556.924057484 47437645.552764893 0 47437645.552764893 -279261285.33535004 0 0 0 0 -73922273.190186501 -70555042.843597412 0 -70555042.843597412 134847929.28671265 0 0 0 0 535403.05803409533 -864892.41456965357 0 -864892.41456965357 -7228410.87781775 0 0 0 0 102264805.33572701 77926015.775665283 0 77926015.775665283 -363795595.82929993 0 0 0 0 115610361.80548914 -91317387.799468338 0 -91317387.799468338 -226717005.77392578 0 0 0 0 -82050929.016186476 80749605.932823181 0 80749605.932823181 -110884344.30911255 0 0 0 0 -21507160.751718521 -13481762.9792099 0 -13481762.9792099 -6285243.8198547363 0 0 0 0 4680329.6913638115 141160743.81547546 0 141160743.81547546 -231088484.24848938 0 0 0 0 3460282.5158405304 130437476.87184143 0 130437476.87184143 -92901044.95526123 0 0 0 0 -15411648.526997089 264590297.70196533 0 264590297.70196533 -239689527.92172241 0 0 0 0 141680783.26544678 184499640.64016724 0 184499640.64016724 -237226034.46530151 0 0 0 0 -173669701.30391216 217968242.41085815 0 217968242.41085815 -132517282.42918396 0 0 0 0 -431792.49459538376 -572778.50580187887 0 -572778.50580187887 -7119228.2310480922 0 0 0 0 798084374.60843468 283321619.25158691 0 283321619.25158691 -1551250265.3339233 0 0 0 0 -159617008.7670908 86052160.19581604 0 86052160.19581604 -41144896.896282196 0 0 0 0 958342475.97258806 1248480204.3166199 0 1248480204.3166199 -1115150237.559082 0 0 0 0 136115821.42183065 852554697.93583679 0 852554697.93583679 126739691.54440308 0 0 0 0 57485707.768803596 -88012104.360153198 0 -88012104.360153198 -182499970.46699524 0 0 0 0 1407319.4040780216 128781495.29023838 0 128781495.29023838 -218479410.87469482 0 0 0 0 -581955259.04382133 -963099559.8581543 0 -963099559.8581543 -478196872.62186813 0 0 0 0 4082903.2265292499 1951.872660048306 0 1951.872660048306 -7564898.0118301734 0 0 0 0 282193.69278472941 629782.9145577997 0 629782.9145577997 -13360617.231303334 0 0 0 0 -105182868.22803307 -285311970.2350769 0 -285311970.2350769 -11808407.491508484 0 0 0 0 -1734291.2293720245 -789239468.80551147 0 -789239468.80551147 -767937161.37820435 0 0 0 0 -168680571.29133797 343333544.26135254 0 343333544.26135254 -421205789.51239777 0 0 0 0 -176525337.26243401 405610007.59029388 0 405610007.59029388 -915565940.51837158 0 0 0 0 -18712673.703859329 205799590.93035889 0 205799590.93035889 -305401793.61125183 0 0 0 0 -3654027.0005521774 158907292.04295349 0 158907292.04295349 -207523851.65718079 0 0 0 0 91858867.933979034 75644125.579483032 0 75644125.579483032 -214861098.14352417 0 0 0 0 142528498.5822525 93035145.092010498 0 93035145.092010498 -252062661.11621094 0 0 0 0 76179539.017471313 153797278.67276001 0 153797278.67276001 -261292851.03369141 0 0 0 0 102290555.04521942 133724297.11523438 0 133724297.11523438 -269396941.7230835 0 0 0 0 90928172.663124084 110585683.0741272 0 110585683.0741272 -237268244.75015259 0 0 0 0 49297085.096975327 276947359.25772095 0 276947359.25772095 -433946546.79840088 0 0 0 0 83752554.448868752 230067170.11721802 0 230067170.11721802 -483958383.99179077 0 0 0 0 -297359052.93713522 342769537.03681946 0 342769537.03681946 479875964.86016846 0 0 0 0 374742153.08995771 328787668.69836426 0 328787668.69836426 -1786562651.3896637 0 0 0 0 32595753.787163258 322760810.78765869 0 322760810.78765869 -533435512.49964905 0 0 0 0 180837322.79283714 339000732.92401123 0 339000732.92401123 -536436078.58977127 0 0 0 0 51810049.135042667 -20258769.472427368 0 -20258769.472427368 51871168.090576172 0 0 0 0 -1627508.9196577072 1930683973.4708557 0 1930683973.4708557 -552696984.32687378 0 0 0 0 121084557.72227669 -1352351063.222229 0 -1352351063.222229 -3015929560.4448242 0 0 0 0 -179387946.55229425 -427827661.83337402 0 -427827661.83337402 -975138895.7628479 0 0 0 0 -388127340.61686993 273860839.43230057 0 273860839.43230057 -150371713.66278076 0 0 0 0 -318772224.97633553 100205298.24938965 0 100205298.24938965 5663474.8003387451 0 0 0 0 -2358838.6091292975 3183308.7058387138 0 3183308.7058387138 -226581.07638218999 0 0 0 0 -192683005.75154209 -91107397.853164673 0 -91107397.853164673 -64570799.842895508 0 0 0 0 1045386.3332686261 698074.03350870311 0 698074.03350870311 -1427314.7726859152 0 0 0 0 3065111.2676977515 151234980.46408844 0 151234980.46408844 -373493763.70922852 0 0 0 0 3558123.9030199051 26677109.882141113 0 26677109.882141113 -137119816.73674774 0 0 0 0 156596738.51708344 -95478546.936311722 0 -95478546.936311722 -604146644.46575928 0 0 0 0 123967243.14498308 208486946.28651047 0 208486946.28651047 -475706023.37176514 0 0 0 0 125526024.64845896 214781265.83868408 0 214781265.83868408 -795031230.07788086 0 0 0 0 155122945.75000858 -113607411.76989746 0 -113607411.76989746 -811201474.69798088 0 0 0 0 11038632.323504925 -839639.04580688477 0 -839639.04580688477 -140989485.84153366 0 0 0 0 2981390.5803889548 1714744.748134464 0 1714744.748134464 -8129705.9720960557 0 0 0 0 59849242.122834474 -19443690.366054535 0 -19443690.366054535 -24170680.367767334 0 0 0 0 8299604.7703624964 1749107.5084381104 0 1749107.5084381104 -12543749.274597168 0 0 0 0 40161892.638753906 3546733.7579059601 0 3546733.7579059601 -9587486.945892334 0 0 0 0 1407903.7236980395 2259920.5393454619 0 2259920.5393454619 -11398240.329403937 0 0 0 0 2883624.5065436126 7330120.2952481136 0 7330120.2952481136 -7080391.2352486998 0 0 0 0 2248723.6751818657 16843788.959095001 0 16843788.959095001 -16266772.933013916 0 0 0 0 -38871180.406550884 -3333729.0235824585 0 -3333729.0235824585 -13300828.482145309 0 0 0 0 3827665.9341341569 3639659.2956991382 0 3639659.2956991382 -5855097.9251485318 0 0 0 0 41288825.528687 -417158.75148773193 0 -417158.75148773193 -38598364.7605896 0 0 0 0 5173754.9551024437 5042392.8698348999 0 5042392.8698348999 12991664.066558838 0 0 0 0 48410805.687727928 16647207.049255371 0 16647207.049255371 -21311577.306564331 0 0 0 0 5735182.1248552203 13087482.183237076 0 13087482.183237076 74296709.262115479 0 0 0 0 1649089.4565193299 2563134.6836140975 0 2563134.6836140975 -14344460.321939543 0 0 0 0 25769397.824501753 107371905.50792503 0 107371905.50792503 -152163954.72192383 0 0 0 0 19290457.702116966 85516278.728088379 0 85516278.728088379 -188263790.9486084 0 0 0 0 -94351282.03442955 107204952.96970367 0 107204952.96970367 -61837924.102737427 0 0 0 0 -520972.23144704243 3933374.5300255939 0 3933374.5300255939 -13298685.186073542 0 0 0 0 -29326858.622709274 34553431.532104492 0 34553431.532104492 -29501165.359161377 0 0 0 0 -34106603.455206394 31728041.895160675 0 31728041.895160675 1916066.4876556396 0 0 0 0 -25747657.079169273 25706351.95375824 0 25706351.95375824 -26077302.972045898 0 0 0 0 -2334685.7661968968 17440319.115823649 0 17440319.115823649 -49380281.916438103 0 0 0 0 77273995.841828585 69633083.436059952 0 69633083.436059952 -105473445.44590759 0 0 0 0 40192373.972547531 45088595.242225647 0 45088595.242225647 -106212711.49921417 0 0 0 0 40632374.53272295 35537951.111959457 0 35537951.111959457 -130082808.62151337 0 0 0 0 19831094.882927895 52290697.759113312 0 52290697.759113312 -112610184.59928894 0 0 0 0 -955277.29931235313 55264771.196923256 0 55264771.196923256 -120444039.82051086 0 0 0 0 19099855.839342594 88328636.61190033 0 88328636.61190033 -172260753.03277969 0 0 0 0 13479224.651689887 88582048.766643524 0 88582048.766643524 -160262299.68826294 0 0 0 0 21382447.519626617 58413298.977523804 0 58413298.977523804 -109156558.30278397 0 0 0 0 27801799.566682816 22996869.401405334 0 22996869.401405334 -199082431.33514404 0 0 0 0 176907.49485561112 23493873.009715825 0 23493873.009715825 -55690307.2144977 0 0 0 0 10385211.526730565 4857507.7925682366 0 4857507.7925682366 -25001499.106153339 0 0 0 0 62531738.133361816 40418783.415126801 0 40418783.415126801 -242325427.19126892 0 0 0 0 97716745.785768509 56745935.95199585 0 56745935.95199585 -246699511.05632019 0 0 0 0 -2268363.9876708984 47085205.069885254 0 47085205.069885254 -175450472.65704346 0 0 0 0 16316473.361005604 63357980.844777107 0 63357980.844777107 -244097924.0479126 0 0 0 0 124975.54780828953 100157504.86469841 0 100157504.86469841 -239477505.20256042 0 0 0 0 5303741.3104551965 -13644221.789016094 0 -13644221.789016094 -32836962.276213814 0 0 0 0 6650847.4785658121 13154990.965232849 0 13154990.965232849 -152265166.13811874 0 0 0 0 2276965.9489135742 -1173938.3264160156 0 -1173938.3264160156 -13929860.941833496 0 0 0 0 -1349261.0578983319 16611126.006978005 0 16611126.006978005 -13538545.842050198 0 0 0 0 -1818410.6991204068 3779551.1919953898 0 3779551.1919953898 -31373526.46155943 0 0 0 0 9094107.7515581865 -832196.93150087446 0 -832196.93150087446 -66908430.910104208 0 0 0 0 17293445.613446578 -1928483.3580131531 0 -1928483.3580131531 -136416662.16866302 0 0 0 0 185090097.99203938 120181199.11222839 0 120181199.11222839 -79643997.723693848 0 0 0 0 8788725.255169563 10078480.851799011 0 10078480.851799011 -97475164.516418457 0 0 0 0 -100389593.37954664 139731252.25927734 0 139731252.25927734 417095117.38659668 0 0 0 0 22688940.74820292 -23374360.083947182 0 -23374360.083947182 -190156555.6993866 0 0 0 0 5791796.6673004637 2189278.2174121737 0 2189278.2174121737 -29723577.471360728 0 0 0 0 -33797491.133577704 -70196613.395141602 0 -70196613.395141602 -434627703.87860107 0 0 0 0 21164558.234787941 33610446.130897522 0 33610446.130897522 -182861906.73199463 0 0 0 0 -17237571.003259897 31109155.716640472 0 31109155.716640472 -151045498.56648254 0 0 0 0 36522468.100784957 -3482735.6068477631 0 -3482735.6068477631 -138258052.98536682 0 0 0 0 13940725.442326784 3720495.055021286 0 3720495.055021286 -135549084.29240417 0 0 0 0 6858424.1490073334 -6798962.9558004737 0 -6798962.9558004737 -137822250.3687439 0 0 0 0 9954056.191498518 -1265029.3434906006 0 -1265029.3434906006 -130972076.16134644 0 0 0 0 16845599.573367834 -13123895.833396912 0 -13123895.833396912 -135443655.07803345 0 0 0 0 6138743.4423058033 -8599918.2725448608 0 -8599918.2725448608 -135896960.43637943 0 0 0 0 1091825.6914782398 2399074.3662941679 0 2399074.3662941679 -27043462.395129688 0 0 0 0 8140571.6600708961 800226.59667205811 0 800226.59667205811 -154570294.42948914 0 0 0 0 432326.25423823413 1035810.9041236751 0 1035810.9041236751 -10688677.69851489 0 0 0 0 48030745.358528376 -38552743.641506195 0 -38552743.641506195 -117114652.88454437 0 0 0 0 122336747.90782142 -8059027.6130332947 0 -8059027.6130332947 -168169846.09305 0 0 0 0 63312485.153828621 162405922.13370132 0 162405922.13370132 -135613741.78289795 0 0 0 0 150419435.93909383 118305361.10428238 0 118305361.10428238 -226934010.40444183 0 0 0 0 104533546.05465984 92286987.012367249 0 92286987.012367249 -241678605.38411713 0 0 0 0 13208891.693841696 84009445.300613403 0 84009445.300613403 -150737051.50468445 0 0 0 0 -7261490.7757787704 105518271.10332489 0 105518271.10332489 -163446402.45652771 0 0 0 0 -8050644.2640566826 70146179.774051666 0 70146179.774051666 -172064383.30455017 0 0 0 0 62217683.575883389 113701728.79182434 0 113701728.79182434 -162514784.43600464 0 0 0 0 31462651.750831604 55478471.720859528 0 55478471.720859528 -158534497.29415894 0 0 0 0 62548305.553179741 40319232.344203949 0 40319232.344203949 -169924997.77080536 0 0 0 0 81500133.031675816 45326481.028173447 0 45326481.028173447 -264825087.77537537 0 0 0 0 75108963.648859739 43436472.223110199 0 43436472.223110199 -218919301.74087143 0 0 0 0 80029208.59098053 -34972273.890918732 0 -34972273.890918732 -232230341.85837936 0 0 0 0 51856751.897596061 -26239846.152216911 0 -26239846.152216911 -172901546.16758728 0 0 0 0 49531499.376584053 -21220414.548416138 0 -21220414.548416138 -145573942.92263031 0 0 0 0 46960429.606205463 7821663.3618469238 0 7821663.3618469238 -184732906.55628586 0 0 0 0 43748803.184942961 -1297089.4108982086 0 -1297089.4108982086 -155385036.59080505 0 0 0 0 58132092.55495286 -8380089.9381103516 0 -8380089.9381103516 -163202098.56755066 0 0 0 0 59054255.532360077 -8797162.9622974396 0 -8797162.9622974396 -132018684.12718201 0 0 0 0 7002103.8117637634 -7565032.1387176514 0 -7565032.1387176514 -130745020.63504601 0 0 0 0 55995303.098388195 -69724153.445404053 0 -69724153.445404053 -131527187.15437698 0 0 0 0 13968485.479754925 -34208884.872795105 0 -34208884.872795105 -99564834.578052521 0 0 0 0 24868823.500980377 -33147863.671958923 0 -33147863.671958923 -277614800.73656464 0 0 0 0 1033361.3241719913 646738.5036354214 0 646738.5036354214 -3709606.217596984 0 0 0 0 9409424.7526912689 -86639552.770893097 0 -86639552.770893097 -30376734.917137146 0 0 0 0 33461858.046951294 -95464317.201263428 0 -95464317.201263428 -372437472.16082001 0 0 0 0 -352226623.43048477 -34413295.112854004 0 -34413295.112854004 -351898629.53718567 0 0 0 0 -60388773.580389023 -40802899.688110352 0 -40802899.688110352 -135436739.03337097 0 0 0 0 677698.92184380954 -7037244.0935975425 0 -7037244.0935975425 -6918896.006142877 0 0 0 0 3106960.913735467 1642251.5034908727 0 1642251.5034908727 -12646830.567225793 0 0 0 0 6433341.4334888458 8701925.9580001831 0 8701925.9580001831 -171915940.66975403 0 0 0 0 4587090.2768573761 -16521813.460212708 0 -16521813.460212708 -149681126.11703491 0 0 0 0 22854962.566527367 -39558862.684230804 0 -39558862.684230804 -120948777.46737671 0 0 0 0 1577353.8298282232 -5545604.1622954272 0 -5545604.1622954272 -13879350.455427054 0 0 0 0 -236770.13100624084 -3928545.8233261108 0 -3928545.8233261108 -21017648.557449341 0 0 0 0 -4829677.7659378052 -16054758.432304382 0 -16054758.432304382 -110383187.68815804 0 0 0 0 1473785.2921924591 -3280529.7689743042 0 -3280529.7689743042 -19958799.334854126 0 0 0 0 83774.576127529144 -4752834.2362709045 0 -4752834.2362709045 -20497005.613616943 0 0 0 0 1169119.1755447388 -3658654.2721405029 0 -3658654.2721405029 -20219218.448394775 0 0 0 0 2282265.6633405685 -3509443.1218566895 0 -3509443.1218566895 -20953915.148086548 0 0 0 0 21738612.198097229 -23078933.801208496 0 -23078933.801208496 -14567216.206542969 0 0 0 0 8202177.9662475586 -7843006.9962387085 0 -7843006.9962387085 -14921933.411254883 0 0 0 0 29230093.561271667 -20384283.583648682 0 -20384283.583648682 -19045922.268798828 0 0 0 0 29246181.210141659 -19899259.031115532 0 -19899259.031115532 -8923192.2799987793 0 0 0 0 25051280.278492928 -31876832.040178299 0 -31876832.040178299 5838995.5553588867 0 0 0 0 29936882.116891861 -22042824.33675766 0 -22042824.33675766 -15453969.411743164 0 0 0 0 31961298.88747406 -30864876.395233154 0 -30864876.395233154 -545866.54949951172 0 0 0 0 33158600.870391846 -15278791.054626465 0 -15278791.054626465 -17047240.420166016 0 0 0 0 31424329.108909607 -16304222.129943848 0 -16304222.129943848 -12925727.61505127 0 0 0 0 39691561.2563591 -15148657.245483398 0 -15148657.245483398 -19728556.746032715 0 0 0 0 348662.20250791078 -10067787.364614263 0 -10067787.364614263 -26586105.739418555 0 0 0 0 17137279.906424522 6717203.5598068237 0 6717203.5598068237 -26010145.095703125 0 0 0 0 26084324.560144424 4308247.4565048218 0 4308247.4565048218 -34303154.542327881 0 0 0 0 40996299.727386475 -5805163.1830444336 0 -5805163.1830444336 -44340889.469207764 0 0 0 0 -4414247.2388634626 -3130356.5171843413 0 -3130356.5171843413 7156521.6605354771 0 0 0 0 8137908.4920257926 -35085253.518978834 0 -35085253.518978834 -126144435.42076111 0 0 0 0 58712287.773780823 -29059209.951049805 0 -29059209.951049805 52577046.820068359 0 0 0 0 14124470.247550456 -14608369.536866017 0 -14608369.536866017 -29461892.218219757 0 0 0 0 8449089.6735019684 -26209873.922164917 0 -26209873.922164917 -117017479.19766235 0 0 0 0 -32331521.873149872 -57533525.073181152 0 -57533525.073181152 -106098576.04199219 0 0 0 0 -4208200.706931591 -47271995.36723423 0 -47271995.36723423 -128035325.82324219 0 0 0 0 -2059869.1656799316 -34162624.240875244 0 -34162624.240875244 -105480419.15983582 0 0 0 0 25821234.332500458 -93394272.430679321 0 -93394272.430679321 -71807239.890396118 0 0 0 0 -44270545.561449051 -47682674.059822083 0 -47682674.059822083 30631715.343353271 0 0 0 0 15323906.701560974 31202750.878112793 0 31202750.878112793 -47807392.892272949 0 0 0 0 -19777701.09431076 4801010.5261001587 0 4801010.5261001587 -67583815.698814392 0 0 0 0 38635920.121965408 21526047.452636719 0 21526047.452636719 -77036605.961730957 0 0 0 0 -22974655.740953445 15854939.605110168 0 15854939.605110168 -105225767.47237396 0 0 0 0 -19005396.748287201 -35351414.787567139 0 -35351414.787567139 -76208718.344284058 0 0 0 0 -15328073.081394196 -29468989.54681015 0 -29468989.54681015 -104676860.43278503 0 0 0 0 11734713.547515869 79478.086479187012 0 79478.086479187012 -94132658.551116943 0 0 0 0 5019815.4261509329 2946032.1832327005 0 2946032.1832327005 -26833318.735106312 0 0 0 0 29866479.57641983 3202165.2809753418 0 3202165.2809753418 -99013511.447235107 0 0 0 0 38282803.284157276 9350430.9681594372 0 9350430.9681594372 -95109871.361801147 0 0 0 0 6998924.0982573237 -5663199.7847037148 0 -5663199.7847037148 -32471823.904314764 0 0 0 0 28137547.908473969 -16887967.073486328 0 -16887967.073486328 -12717315.663909912 0 0 0 0 28656428.427452087 -16154625.767425537 0 -16154625.767425537 -14396049.958984375 0 0 0 0 29240628.254699707 -12761085.475471497 0 -12761085.475471497 1582596.9365234375 0 0 0 0 10795217.727758436 -4090195.946066767 0 -4090195.946066767 -38422295.93916297 0 0 0 0 7483864.9001159668 -1724781.8190307617 0 -1724781.8190307617 -7069905.4316291809 0 0 0 0 -2657827.7630293989 9935498.7002514303 0 9935498.7002514303 -43534937.736357957 0 0 0 0 -9707809.772395134 1065688.6701164246 0 1065688.6701164246 -91002251.137947083 0 0 0 0 6950428.4958271403 1747819.8439330049 0 1747819.8439330049 -26180912.29172527 0 0 0 0 62801481.459498167 -11165928.291126251 0 -11165928.291126251 -97498558.609355927 0 0 0 0 -369696.97220653831 -2963609.085210437 0 -2963609.085210437 -5944542.0755605847 0 0 0 0 4738453.1458292333 -219604.50448356941 0 -219604.50448356941 -34720653.709037185 0 0 0 0 1257496.869741587 -228054.79890521988 0 -228054.79890521988 -7033186.3866401929 0 0 0 0 -30946236.656960249 -25627733.94808197 0 -25627733.94808197 -81253602.050331116 0 0 0 0 39442892.282681406 52278080.523652554 0 52278080.523652554 -52046747.438850403 0 0 0 0 26047536.681002617 17682967.33984375 0 17682967.33984375 -128002138.90243292 0 0 0 0 29306136.437966824 -63343632.221000671 0 -63343632.221000671 -195902206.96114349 0 0 0 0 14354231.377106696 32831078.910497189 0 32831078.910497189 -49134129.536857605 0 0 0 0 -9030841.7975076437 -50255556.257059097 0 -50255556.257059097 -81912964.917121887 0 0 0 0 7386057.3971605301 4536932.9750289917 0 4536932.9750289917 -130179669.18961716 0 0 0 0 1846800.205493927 33152544.880819321 0 33152544.880819321 -29796263.085266113 0 0 0 0 601934.80258666724 891819.6134192571 0 891819.6134192571 -1149102.9293996394 0 0 0 0 92894325.655686378 -13370982.147842407 0 -13370982.147842407 -66740691.03994751 0 0 0 0 -65821773.654532433 -4383080.3973617554 0 -4383080.3973617554 74958425.298919678 0 0 0 0 -5912461.9810199738 42220681.216964722 0 42220681.216964722 3203614.165222168 0 0 0 0 81405150.513978004 29036613.969116211 0 29036613.969116211 -92225322.675933838 0 0 0 0 -12721768.995275497 -30712657.61038208 0 -30712657.61038208 -113056346.08257294 0 0 0 0 -11906520.524608612 57833.896545410156 0 57833.896545410156 -119876959.14897156 0 0 0 0 92372127.636418462 -68109358.908082962 0 -68109358.908082962 -82679761.795837402 0 0 0 0 -60564742.646747589 16878793.16784668 0 16878793.16784668 -47949630.317901611 0 0 0 0 282005.97089008056 5083694.7679720595 0 5083694.7679720595 -28839277.014828466 0 0 0 0 -12040113.624845505 -37672162.797149658 0 -37672162.797149658 -119166012.51098633 0 0 0 0 -12602408.559337616 -6537110.8271484375 0 -6537110.8271484375 -70099457.072235107 0 0 0 0 1708630.2081972575 4666917.1836781278 0 4666917.1836781278 -28842490.242784508 0 0 0 0 46124482.471977711 -65973012.011863708 0 -65973012.011863708 17113160.16557312 0 0 0 0 26589669.136256218 -8212922.1301956177 0 -8212922.1301956177 -76587618.83807373 0 0 0 0 9848298.2810878754 -20849934.625747681 0 -20849934.625747681 10984742.796539307 0 0 0 0 18354971.69951725 -19499768.580566406 0 -19499768.580566406 -4768785.436050415 0 0 0 0 5980791.6648874283 -4302072.4393310547 0 -4302072.4393310547 20865322.68838501 0 0 0 0 -8442511.9369907379 -4942766.6766357422 0 -4942766.6766357422 25606025.265029907 0 0 0 0 -55139441.827943802 44034556.05557251 0 44034556.05557251 -81587175.4323349 0 0 0 0 11176665.200124741 25124848.178817749 0 25124848.178817749 -77652793.330627441 0 0 0 0 10255757.915206909 23976383.671264648 0 23976383.671264648 -87847850.166168213 0 0 0 0 23047932.505531311 33694237.616241455 0 33694237.616241455 -83826839.22265625 0 0 0 0 -6099251.3544549942 26509208.491462708 0 26509208.491462708 -36322438.125091553 0 0 0 0 10401404.756069183 10649117.20639801 0 10649117.20639801 -44386097.901947021 0 0 0 0 17492750.572809696 38083951.233039856 0 38083951.233039856 -78519181.043304443 0 0 0 0 13370936.11945343 39950817.159561157 0 39950817.159561157 -75870196.193603516 0 0 0 0 12456058.548504829 49159914.07861805 0 49159914.07861805 -53345927.629547119 0 0 0 0 48905944.050221264 43105265.647084236 0 43105265.647084236 -127086696.07855225 0 0 0 0 46832245.83154583 11520329.504058838 0 11520329.504058838 -62681491.412460327 0 0 0 0 -3234526.0055923462 15736695.496284485 0 15736695.496284485 -46484096.391845703 0 0 0 0 14298803.451108932 33626422.709655762 0 33626422.709655762 -65993179.114440918 0 0 0 0 11163509.638232708 9765724.1056442261 0 9765724.1056442261 -92851059.204833984 0 0 0 0 1408053.3139371872 13037017.352096558 0 13037017.352096558 -68082642.648719788 0 0 0 0 -1381162.1396594441 -1542507.3637264818 0 -1542507.3637264818 -11115454.322592236 0 0 0 0 -13052823.030872107 -10755436.350955963 0 -10755436.350955963 -60795698.971069336 0 0 0 0 -4212865.5793600082 -23313783.553527832 0 -23313783.553527832 -69413894.657745361 0 0 0 0 17133758.834017754 18456699.353500366 0 18456699.353500366 -83787622.206054688 0 0 0 0 -32614431.514782906 -62858798.934890747 0 -62858798.934890747 -81736929.423553467 0 0 0 0 16979763.638936996 22193188.354001999 0 22193188.354001999 -167268916.71685791 0 0 0 0 -6290605.3969738483 -9233439.5710449219 0 -9233439.5710449219 -15961070.053894043 0 0 0 0 -5293668.0014979839 -10432762.09046936 0 -10432762.09046936 -19701992.267272949 0 0 0 0 -6319283.3033976555 -10885841.360305786 0 -10885841.360305786 -16582120.174102783 0 0 0 0 -15473543.20500946 -18217700.714691162 0 -18217700.714691162 -39309876.068178177 0 0 0 0 -5944456.5658745766 -12367484.317485809 0 -12367484.317485809 -25220799.911911011 0 0 0 0 -969595.22520537861 -810964.75308584422 0 -810964.75308584422 -5324620.5863053501 0 0 0 0 -8412576.5804581642 -18154539.19078064 0 -18154539.19078064 -57535452.802154541 0 0 0 0 2030576.5244669504 -923845.39551088214 0 -923845.39551088214 -30193588.362500787 0 0 0 0 1668281.5937232971 -12235787.485488892 0 -12235787.485488892 -11301636.009140015 0 0 0 0 -17740691.842226028 -24317610.985031128 0 -24317610.985031128 -111176600.30270004 0 0 0 0 1343782.9860795802 -16706505.14467508 0 -16706505.14467508 -10591917.550998047 0 0 0 0 1846586.6079864502 -11118908.773124695 0 -11118908.773124695 -19405524.912619591 0 0 0 0 807534.51255325228 -5095375.1777094007 0 -5095375.1777094007 -20652070.745305683 0 0 0 0 1013790.0183067322 -1888557.4844207764 0 -1888557.4844207764 -7828660.9836425781 0 0 0 0 83310.399397752248 -1102059.4759703651 0 -1102059.4759703651 -4202307.173152769 0 0 0 0 33597081.39438343 -29193671.971572876 0 -29193671.971572876 -134664446.36134338 0 0 0 0 12316362.160452843 31469472.65171814 0 31469472.65171814 -203980447.51976013 0 0 0 0 2282939.6994904606 583940.28432743624 0 583940.28432743624 -3685951.4906341881 0 0 0 0 -5365782.4723715782 -9482107.5246353149 0 -9482107.5246353149 -17525278.302246094 0 0 0 0 -3560527.967125209 -9182239.9549726918 0 -9182239.9549726918 -8616387.0795563757 0 0 0 0 -5649677.067295148 -11897045.851918221 0 -11897045.851918221 -16161065.585403442 0 0 0 0 1533559.3600082397 -10191111.868751526 0 -10191111.868751526 -10425093.267024994 0 0 0 0 -1845866.8869013134 -16518441.125794314 0 -16518441.125794314 -6969859.3683858365 0 0 0 0 16559396.6925354 -21983715.551383972 0 -21983715.551383972 -5209031.0757904053 0 0 0 0 -7139494.797892645 -6621672.3934860229 0 -6621672.3934860229 -19970158.022155762 0 0 0 0 -18249551.954482086 -31204077.313117981 0 -31204077.313117981 -8560945.6620178223 0 0 0 0 -354359.69262450613 -5101189.2935883235 0 -5101189.2935883235 -2284320.3959271014 0 0 0 0 -8159693.9604054689 -8828550.5210571289 0 -8828550.5210571289 -15958238.374710083 0 0 0 0 -5270223.9989554733 -6819920.2444763184 0 -6819920.2444763184 -25353971.937316895 0 0 0 0 -6625605.6903839111 -8577295.4051818848 0 -8577295.4051818848 -19894128.41934967 0 0 0 0 -6064478.5696719885 -9616878.8501472473 0 -9616878.8501472473 -21467256.947937012 0 0 0 0 -8576899.1931967735 -11828917.464172363 0 -11828917.464172363 -17091981.965026855 0 0 0 0 -14415198.343430519 -21215944.331619263 0 -21215944.331619263 -31378412.583183289 0 0 0 0 -29625326.223039329 -8697496.6581802368 0 -8697496.6581802368 -4211770.2763977051 0 0 0 0 -11234556.522317886 -14804380.305114746 0 -14804380.305114746 -21968259.925354004 0 0 0 0 -6032018.6583442688 -7835385.0946273804 0 -7835385.0946273804 -24005065.82043457 0 0 0 0 -7872169.5813260078 -7328602.3691482544 0 -7328602.3691482544 -21923569.968978882 0 0 0 0 -10500609.20682168 -11117593.153633118 0 -11117593.153633118 -20265430.820281982 0 0 0 0 -5641890.3336799145 -8664360.5674743652 0 -8664360.5674743652 -22278297.823486328 0 0 0 0 -6115941.5734848976 -9437085.4725341797 0 -9437085.4725341797 -22663197.479393005 0 0 0 0 -8707398.7336614132 -11257377.433425903 0 -11257377.433425903 -19147351.051513672 0 0 0 0 -6409817.2762247324 -9887282.2250900269 0 -9887282.2250900269 -19447826.496459961 0 0 0 0 -5514815.9777441025 -9427836.9507141113 0 -9427836.9507141113 -19214789.370925903 0 0 0 0 -5698693.2088983655 -12069551.313567162 0 -12069551.313567162 -14135290.045318604 0 0 0 0 -1568934.7921085358 -11300592.309936523 0 -11300592.309936523 -18340024.085723877 0 0 0 0 -5632256.2273409367 -11758569.087654114 0 -11758569.087654114 -17158215.508735657 0 0 0 0 583600.11117577553 -13521153.7602005 0 -13521153.7602005 -18178940.246459961 0 0 0 0 -3232420.593101263 -13204223.628525496 0 -13204223.628525496 -17520564.325469971 0 0 0 0 -3141751.3274576217 -10560088.691101551 0 -10560088.691101551 -17909966.291748047 0 0 0 0 -9626225.4584581852 -8981050.7608947754 0 -8981050.7608947754 -15496495.124237061 0 0 0 0 -5923047.7855257988 -9426392.2561187744 0 -9426392.2561187744 -17948338.049835205 0 0 0 0 -2028338.7718625069 -10737348.37840271 0 -10737348.37840271 -15207182.234283447 0 0 0 0 -6193895.1436705589 -7919700.7460479736 0 -7919700.7460479736 -15471262.374923706 0 0 0 0 -3616096.2276101112 -7830369.1476974487 0 -7830369.1476974487 -17391292.741760254 0 0 0 0 -4546450.5535950661 -6489272.6289520264 0 -6489272.6289520264 -19631991.978347778 0 0 0 0 -211097.56634783745 -11428767.395202637 0 -11428767.395202637 -18496546.278808594 0 0 0 0 -655257.13682556152 -10150663.120635986 0 -10150663.120635986 -16366905.391677856 0 0 0 0 -13173649.733672738 -7020727.076171875 0 -7020727.076171875 -6451549.0004577637 0 0 0 0 -14445320.980266929 181677.81651306152 0 181677.81651306152 -3382153.4786834717 0 0 0 0 -14169588.78004241 -2342581.668838501 0 -2342581.668838501 -1157343.1951904297 0 0 0 0 -12591529.9914639 -12341049.579193115 0 -12341049.579193115 -17000711.485488892 0 0 0 0 -19774952.659954309 -10771486.557857513 0 -10771486.557857513 -8181149.7951965332 0 0 0 0 -7600703.2689496875 -1431206.2802276611 0 -1431206.2802276611 -11117820.215923309 0 0 0 0 -13301833.291843399 -8472095.5488615036 0 -8472095.5488615036 -18744570.238189697 0 0 0 0 -12768405.277256489 -4385587.8265991211 0 -4385587.8265991211 -16845842.584442139 0 0 0 0 19193386.113443613 14298449.124298096 0 14298449.124298096 -25768307.390037537 0 0 0 0 -10017504.891112536 6893738.1629295349 0 6893738.1629295349 2877873.1677856445 0 0 0 0 -695974.2994594574 28474327.694671631 0 28474327.694671631 8322043.6817626953 0 0 0 0 -17041980.266382337 13285262.617324829 0 13285262.617324829 -2070557.1197662354 0 0 0 0 -34029910.355738401 16067021.598251343 0 16067021.598251343 20980230.174407959 0 0 0 0 -32553703.90300107 -1456969.9680786133 0 -1456969.9680786133 40334219.63583374 0 0 0 0 -17357122.658599675 11949431.584727287 0 11949431.584727287 20406231.618713379 0 0 0 0 -15324028.903826952 331794.91520690918 0 331794.91520690918 10307106.06288147 0 0 0 0 -14228710.901758492 1716337.2847080231 0 1716337.2847080231 6649347.6940002441 0 0 0 0 -1663422.3314745426 -12691256.558364868 0 -12691256.558364868 8728098.206237793 0 0 0 0 -18944277.311424613 -4776577.691116333 0 -4776577.691116333 17545691.893096924 0 0 0 0 -10284061.458063245 -5002686.0541229248 0 -5002686.0541229248 2636121.0198669434 0 0 0 0 -13525701.962899685 -7344804.3708190918 0 -7344804.3708190918 4264088.5487289429 0 0 0 0 -1441790.0878310204 -12960020.285858154 0 -12960020.285858154 5791389.7031898499 0 0 0 0 4229970.7154431343 -19568616.463470459 0 -19568616.463470459 12117609.791183472 0 0 0 0 -12990609.991187334 -13860997.224510193 0 -13860997.224510193 31312580.876068115 0 0 0 0 -26112825.495289326 -4452831.2979736328 0 -4452831.2979736328 27863221.011703491 0 0 0 0 -8724472.4560630322 -26573443.129066467 0 -26573443.129066467 44371272.20199585 0 0 0 0 9219280.2744064331 -31520530.341079712 0 -31520530.341079712 27842564.134307861 0 0 0 0 -63452187.56040287 -19091716.406188965 0 -19091716.406188965 53874213.761169434 0 0 0 0 -860834.8793592453 -15545935.578964233 0 -15545935.578964233 41473701.92149353 0 0 0 0 55331399.022964478 -46594327.196655273 0 -46594327.196655273 -14378230.523208618 0 0 0 0 101841618.46256384 41187699.611160278 0 41187699.611160278 51133524.626968384 0 0 0 0 -5620646.4846283142 -3146174.7772784084 0 -3146174.7772784084 87533.818698272109 0 0 0 0 65145739.580495834 -66720273.147949219 0 -66720273.147949219 -24173771.32598877 0 0 0 0 56362034.249054909 -41750214.269989014 0 -41750214.269989014 127184601.7449646 0 0 0 0 -2364077.8068221705 -11860861.575461525 0 -11860861.575461525 -21644755.080693759 0 0 0 0 108749487.57136059 -135684004.63572693 0 -135684004.63572693 93555378.167068481 0 0 0 0 15207687.195781708 -16079867.632575989 0 -16079867.632575989 -20919677.156570435 0 0 0 0 26977886.39311409 -133814292.22598267 0 -133814292.22598267 131283042.29503918 0 0 0 0 42953872.382558823 -121201977.81089783 0 -121201977.81089783 96761415.977050781 0 0 0 0 5953330.877491951 -37033370.072921753 0 -37033370.072921753 94753864.047348022 0 0 0 0 101774476.38133812 -44197374.257080078 0 -44197374.257080078 94325876.40368557 0 0 0 0 -5809367.4270081595 -3059308.0668933019 0 -3059308.0668933019 4805422.7733280212 0 0 0 0 -8308697.6331726322 -5444683.785465382 0 -5444683.785465382 -936895.43915905058 0 0 0 0 87174027.819429398 -68013444.321281433 0 -68013444.321281433 39526187.361755371 0 0 0 0 6551697.123003006 -32377847.298446655 0 -32377847.298446655 106133792.40722656 0 0 0 0 156164243.47612762 21441535.391830444 0 21441535.391830444 86272331.682281494 0 0 0 0 182335632.11269188 -24202263.699920654 0 -24202263.699920654 56561841.406982422 0 0 0 0 -119107513.93663788 -8726634.912109375 0 -8726634.912109375 190789039.72073364 0 0 0 0 -40947915.261737823 -210938404.44153976 0 -210938404.44153976 -65412851.400817871 0 0 0 0 69006218.392372131 -120047445.90661621 0 -120047445.90661621 -140183806.93641663 0 0 0 0 3720568.8469829559 -11042151.513641357 0 -11042151.513641357 -15876928.421195984 0 0 0 0 -3327509.8162488937 -7329624.37525177 0 -7329624.37525177 -17821254.476585388 0 0 0 0 10494024.210976601 -9002493.5399551392 0 -9002493.5399551392 -22045352.851104736 0 0 0 0 3436341.2268009186 -3000345.5689544678 0 -3000345.5689544678 -22811156.833046913 0 0 0 0 7207370.9499502182 -4268621.2176055908 0 -4268621.2176055908 -22942801.375701904 0 0 0 0 3301026.5946369171 -5978921.143951416 0 -5978921.143951416 -21968809.082685471 0 0 0 0 3284325.0949273109 -6149237.4048690796 0 -6149237.4048690796 -20260527.424285889 0 0 0 0 -897105.01156234741 -5568736.9954833984 0 -5568736.9954833984 -20306816.701250076 0 0 0 0 2392201.8190142214 -4475093.9947693348 0 -4475093.9947693348 -20844500.85256958 0 0 0 0 2443252.8030788898 -3478003.1677696705 0 -3478003.1677696705 -20954261.245544434 0 0 0 0 -1148411.1419868469 -3151825.0800170898 0 -3151825.0800170898 -20635182.035110474 0 0 0 0 -2429676.18897613 -9864197.5770285837 0 -9864197.5770285837 -14719196.171134718 0 0 0 0 -3834423.068772316 -3018436.3095626831 0 -3018436.3095626831 -19186980.51751709 0 0 0 0 20205591.946170807 -34059892.54598999 0 -34059892.54598999 -37665583.208862305 0 0 0 0 13937106.17117691 -158205592.25927734 0 -158205592.25927734 -33465192.134033203 0 0 0 0 -6173398.8817346096 -4487640.2489982694 0 -4487640.2489982694 9582712.5731042624 0 0 0 0 54183805.74005127 -84349246.4140625 0 -84349246.4140625 -123072727.13221741 0 0 0 0 11803890.986084938 -31211478.521072388 0 -31211478.521072388 59235128.300354004 0 0 0 0 94656897.092704773 -60080870.318206787 0 -60080870.318206787 66978116.985961914 0 0 0 0 9723702.2198810577 -30257592.064712524 0 -30257592.064712524 98660995.356567383 0 0 0 0 62878219.109794617 -129485395.78134155 0 -129485395.78134155 -8485184.8160400391 0 0 0 0 30377375.427391052 -51574969.463165283 0 -51574969.463165283 6854361.1065063477 0 0 0 0 50803585.836395264 -98834484.39440918 0 -98834484.39440918 -6252694.1508178711 0 0 0 0 45342112.988826752 -80325672.341278076 0 -80325672.341278076 -44610771.96484375 0 0 0 0 31783484.293792725 -91629337.464599609 0 -91629337.464599609 50045994.702758789 0 0 0 0 20324348.755973816 -65240969.450866699 0 -65240969.450866699 66510767.782897949 0 0 0 0 30718344.636039495 -60659949.381022453 0 -60659949.381022453 65784003.087280273 0 0 0 0 9769552.2695465088 -69729947.316894531 0 -69729947.316894531 67607433.831375122 0 0 0 0 45987241.703300476 -21251601.361236572 0 -21251601.361236572 -43865433.403921127 0 0 0 0 -7477462.1387939453 -32674115.249816895 0 -32674115.249816895 122935405.7477417 0 0 0 0 -10218609.38628006 -50732365.750778198 0 -50732365.750778198 124513410.2925415 0 0 0 0 -25486008.50252533 -76434467.536224365 0 -76434467.536224365 109265325.26190186 0 0 0 0 2114586.3919121176 994629.35280636698 0 994629.35280636698 -4916459.7639073357 0 0 0 0 3265626.0866699219 -48032000.505187988 0 -48032000.505187988 73734746.804260254 0 0 0 0 19912960.696166992 -61015714.297485352 0 -61015714.297485352 70479447.489562988 0 0 0 0 44495857.742176056 -45407856.309326172 0 -45407856.309326172 904554.95223999023 0 0 0 0 57620566.90196991 -39885238.418151855 0 -39885238.418151855 -20060578.452125549 0 0 0 0 37480765.864112854 -27759723.3150177 0 -27759723.3150177 898102.77967834473 0 0 0 0 -16933395.975140452 -27788356.71295929 0 -27788356.71295929 -262548.52005004883 0 0 0 0 34395192.501117706 -41381710.76361084 0 -41381710.76361084 42896091.204162598 0 0 0 0 -11135092.675337741 -11333311.953526076 0 -11333311.953526076 -4390534.0130266398 0 0 0 0 115145836.88242722 -3408812.685546875 0 -3408812.685546875 -116833083.18884277 0 0 0 0 64850630.872489929 15351976.499450684 0 15351976.499450684 34483061.822338104 0 0 0 0 31652777.523361206 -39424101.650543213 0 -39424101.650543213 8264421.2124328613 0 0 0 0 48120882.400150299 -49968152.664123535 0 -49968152.664123535 -49483614.171386719 0 0 0 0 57101272.841896057 -93486043.128509521 0 -93486043.128509521 -104973165.99835205 0 0 0 0 -10311131.409682393 -9375506.0728759766 0 -9375506.0728759766 4148946.6161804199 0 0 0 0 4158716.3857543021 -9909604.9181613922 0 -9909604.9181613922 -4469923.737121582 0 0 0 0 -85778297.844064713 -12167680.519790649 0 -12167680.519790649 44129840.810028076 0 0 0 0 -9370927.8038612381 -7913046.0847805142 0 -7913046.0847805142 -2812574.5957210734 0 0 0 0 2650727.0626120567 -17174884.900115967 0 -17174884.900115967 4408135.8973808289 0 0 0 0 -5679017.0601056349 -3195985.606585186 0 -3195985.606585186 4244231.5681686848 0 0 0 0 76824064.548646927 -132090521.56964111 0 -132090521.56964111 -29306184.122619629 0 0 0 0 73399331.459533691 -134001588.54803467 0 -134001588.54803467 -95860367.139190674 0 0 0 0 3559.9729740930188 995898.61031341553 0 995898.61031341553 -11666277.703567505 0 0 0 0 1825995.241295482 205966.64782953262 0 205966.64782953262 -12236244.013092041 0 0 0 0 6718520.2281673588 -1368177.8707885742 0 -1368177.8707885742 -19847982.619049072 0 0 0 0 1804318.2277719334 -2454921.2783203125 0 -2454921.2783203125 -13906580.444702148 0 0 0 0 5627686.6506475033 -1448488.0487518311 0 -1448488.0487518311 -12067275.066772461 0 0 0 0 5723246.9090938615 -693752.82791805267 0 -693752.82791805267 -13626590.743804932 0 0 0 0 5218808.5730696348 3619636.7728118896 0 3619636.7728118896 -10420607.716934204 0 0 0 0 -594.90226278996806 5423042.6721878052 0 5423042.6721878052 -25997054.048950195 0 0 0 0 2456821.2863115119 -3771155.6840820312 0 -3771155.6840820312 -1792717.8497009277 0 0 0 0 4632561.6005826155 -6593723.4052257538 0 -6593723.4052257538 -36014291.563140869 0 0 0 0 1319862.1370464712 4037431.8703956604 0 4037431.8703956604 -34484696.085906982 0 0 0 0 -1968394.3791223951 5350031.9520721436 0 5350031.9520721436 -5743188.6534423828 0 0 0 0 2301957.3358412329 -2836649.1535339355 0 -2836649.1535339355 -12646680.621444702 0 0 0 0 8431962.4045072924 5185428.9048156738 0 5185428.9048156738 -35479460.265304565 0 0 0 0 28181.0907240784 3987.9552947059274 0 3987.9552947059274 -58839.331871280447 0 0 0 0 1862578.8716700021 -1339965.5774383545 0 -1339965.5774383545 -14502319.65385437 0 0 0 0 1464780.9073151201 1834973.2948074341 0 1834973.2948074341 -37434894.655181885 0 0 0 0 6027481.1795661002 -2761521.9587860107 0 -2761521.9587860107 -40685886.213897705 0 0 0 0 3346978.543496795 4712336.8643074036 0 4712336.8643074036 -45251251.270751953 0 0 0 0 4936833.6589447111 -5993238.8922424316 0 -5993238.8922424316 -35503952.609893799 0 0 0 0 7686269.1161241233 -3738091.1450958252 0 -3738091.1450958252 -41800573.675292969 0 0 0 0 -6776971.1951953173 -7469301.1577606201 0 -7469301.1577606201 -42642273.971206665 0 0 0 0 98823.028512274192 -7798.0923842415214 0 -7798.0923842415214 -194467.38006525859 0 0 0 0 1205657.076796269 879434.80407714844 0 879434.80407714844 -8531491.0767669678 0 0 0 0 -2857579.1730460916 2763320.1729736328 0 2763320.1729736328 -8792989.5890808105 0 0 0 0 -3573741.8073991537 819518.94013977051 0 819518.94013977051 -15362024.186203003 0 0 0 0 -2845216.2830529241 3158453.0635910034 0 3158453.0635910034 -6129006.1547241211 0 0 0 0 -12346.565063795211 210214.26028317213 0 210214.26028317213 -765127.13412375003 0 0 0 0 -1645839.7537571359 6310321.5529174805 0 6310321.5529174805 -15135907.141113281 0 0 0 0 5016035.2012101607 -7512031.6815052032 0 -7512031.6815052032 -6052150.1493530273 0 0 0 0 -296505.69468145445 -743628.02322387695 0 -743628.02322387695 -6453925.6950731277 0 0 0 0 2701327.0035752282 202854.9296875 0 202854.9296875 -11068096.716308594 0 0 0 0 3759491.0970321 2406812.0908432007 0 2406812.0908432007 -12301874.263061523 0 0 0 0 3395623.9697232023 2865594.8195800781 0 2865594.8195800781 -11967175.598617554 0 0 0 0 693926.26133669913 4850372.4454345703 0 4850372.4454345703 -7066732.3729248047 0 0 0 0 503644.79325033008 387784.25419373065 0 387784.25419373065 -3434415.0963434801 0 0 0 0 -563182.89309649169 -829228.55128479004 0 -829228.55128479004 -8202533.1346740723 0 0 0 0 114393.64703002013 5107091.1226158142 0 5107091.1226158142 -4947706.1690063477 0 0 0 0 2059557.8117967476 785573.27955417708 0 785573.27955417708 -14261492.908011869 0 0 0 0 -18221.081598856515 3444269.3568227682 0 3444269.3568227682 744663.42215293646 0 0 0 0 2779415.2854977846 4407691.1158599854 0 4407691.1158599854 4336695.0677947998 0 0 0 0 5731487.5188952535 20195945.758337021 0 20195945.758337021 13105447.088653564 0 0 0 0 4220551.5319496077 3676201.8554795682 0 3676201.8554795682 -13191155.947946444 0 0 0 0 3044661.0241941214 -7893749.2192382812 0 -7893749.2192382812 5825195.4289245605 0 0 0 0 -142892.94503811747 3504381.4984436035 0 3504381.4984436035 -3243976.7442626953 0 0 0 0 913639.24681788683 330527.42083740234 0 330527.42083740234 -3893306.0834617615 0 0 0 0 215822.94715705514 2995092.6340942383 0 2995092.6340942383 -6999017.7922878265 0 0 0 0 158650.77712020278 112119.25654602051 0 112119.25654602051 -2817520.9538726807 0 0 0 0 -13013493.658659279 4336953.3680114746 0 4336953.3680114746 -14984399.820251465 0 0 0 0 204586.99301789748 -78355.454548381269 0 -78355.454548381269 -403286.21818897687 0 0 0 0 321386.86354897171 609794.43765258789 0 609794.43765258789 -2219829.2186126709 0 0 0 0 374064.90751062334 10409206.390827179 0 10409206.390827179 -29114092.290008545 0 0 0 0 -5951589.6350218058 710082.38540649414 0 710082.38540649414 -39024254.941741943 0 0 0 0 -7733675.7957892586 7596543.1864151955 0 7596543.1864151955 -43064092.326293945 0 0 0 0 -26863221.381423354 4310235.6691589355 0 4310235.6691589355 -32131931.997741699 0 0 0 0 -26034873.735040188 14176898.763519287 0 14176898.763519287 -33671040.668205261 0 0 0 0 15663048.712112188 -14513350.51159668 0 -14513350.51159668 -39615617.59129715 0 0 0 0 -13564986.686548203 15021979.3671875 0 15021979.3671875 -41764677.199462891 0 0 0 0 -25894556.545219839 12937406.354106903 0 12937406.354106903 -24077516.484130859 0 0 0 0 247015.84800474506 1288298.3716044556 0 1288298.3716044556 189897.90843079984 0 0 0 0 -23940436.318881422 39196920.831249237 0 39196920.831249237 -60570158.261901855 0 0 0 0 -17559202.872473001 -13638360.322937012 0 -13638360.322937012 -13617760.032165527 0 0 0 0 -36500.359975816566 107726.23194667697 0 107726.23194667697 41509.545422112569 0 0 0 0 -15329136.911500871 -1688690.4060630798 0 -1688690.4060630798 11755357.474609375 0 0 0 0 1029601.542071294 737981.25670623779 0 737981.25670623779 -3151363.7088470459 0 0 0 0 16235.583925203027 72631.072382425889 0 72631.072382425889 10845.976367652416 0 0 0 0 48757056.243895411 62157698.607254028 0 62157698.607254028 -2886883.8153381348 0 0 0 0 -40734560.301511839 69544381.65760231 0 69544381.65760231 10214344.699920654 0 0 0 0 1813353.7533252975 1931320.655495543 0 1931320.655495543 -14285002.38683708 0 0 0 0 -38650639.202462077 12103203.381652832 0 12103203.381652832 -11690668.639099121 0 0 0 0 -44348058.469088197 40391040.849075317 0 40391040.849075317 -50919834.196502686 0 0 0 0 36895901.839353502 -23835545.375946045 0 -23835545.375946045 -17655074.786560059 0 0 0 0 -28324911.320145011 11019580.331268311 0 11019580.331268311 -25442648.344543457 0 0 0 0 -15440508.909345627 -12512426.549743652 0 -12512426.549743652 -7700412.4506835938 0 0 0 0 1735084.0386346388 2458679.6526098624 0 2458679.6526098624 -14449660.470449701 0 0 0 0 77931941.110018015 45219184.580795288 0 45219184.580795288 -23963110.793334961 0 0 0 0 -66756107.877962112 210891838.09829712 0 210891838.09829712 -354703808.53326416 0 0 0 0 18477531.991184741 18920432.285591125 0 18920432.285591125 7481387.2362976074 0 0 0 0 82012698.715959072 -43454978.659080505 0 -43454978.659080505 -127348378.91073608 0 0 0 0 -3004349.0672464371 83000837.953018188 0 83000837.953018188 -105546084.20812988 0 0 0 0 -5938897.4660237432 62495354.433968544 0 62495354.433968544 -35302102.267486572 0 0 0 0 359965.80755329132 -175159084.46414185 0 -175159084.46414185 170306653.71514893 0 0 0 0 39624524.624479294 64822410.614654541 0 64822410.614654541 -169957742.74177551 0 0 0 0 -363692.70854205592 -882099.88903627545 0 -882099.88903627545 -1300593.9062065333 0 0 0 0 211600.44602203369 71361799.221817017 0 71361799.221817017 -73637219.944473267 0 0 0 0 -11172570.132121086 47931938.646148682 0 47931938.646148682 -46769705.165649414 0 0 0 0 -8740259.2140827179 15556671.454528809 0 15556671.454528809 -12431054.188415527 0 0 0 0 -8113110.3746395111 7426192.2887878418 0 7426192.2887878418 -28730703.716949463 0 0 0 0 367528.75324249268 -15804529.200683594 0 -15804529.200683594 29450858.305870056 0 0 0 0 -9648425.2127095461 37005134.81029892 0 37005134.81029892 15795883.241546631 0 0 0 0 -111183798.04177189 76362471.909942627 0 76362471.909942627 -49031208.419311523 0 0 0 0 109738.93052084139 -4428349.4807526395 0 -4428349.4807526395 -6006133.8896825761 0 0 0 0 61678562.596744537 -17383275.473999023 0 -17383275.473999023 -32650731.851776123 0 0 0 0 -29659145.146541595 -31043192.985092163 0 -31043192.985092163 -15855059.017272949 0 0 0 0 21146570.617397308 4275749.5615844727 0 4275749.5615844727 -43063061.539728165 0 0 0 0 46126747.184513092 5241689.8576049805 0 5241689.8576049805 -41319335.634277344 0 0 0 0 38358270.986625671 -61426654.532699585 0 -61426654.532699585 -26599821.622558594 0 0 0 0 3384866.7595405579 -5968463.3823242188 0 -5968463.3823242188 -42121790.189025879 0 0 0 0 95768982.79463768 4167298.6209869385 0 4167298.6209869385 -53349992.441696167 0 0 0 0 883754.55342483521 -20741268.96572876 0 -20741268.96572876 -23862894.654785156 0 0 0 0 19693131.513228416 -24290630.843704224 0 -24290630.843704224 -62137300.971206665 0 0 0 0 -14980047.169035673 -10249272.951095581 0 -10249272.951095581 -15961790.144958496 0 0 0 0 25456805.978981972 -8321059.5918884277 0 -8321059.5918884277 -56708351.028182983 0 0 0 0 -7528405.401509285 -15872776.675308228 0 -15872776.675308228 -26976208.278320312 0 0 0 0 -266824.024525546 -196212.69018654525 0 -196212.69018654525 -1644615.863813892 0 0 0 0 5777100.0506334305 -1240986.0583953857 0 -1240986.0583953857 -77289576.96484375 0 0 0 0 5138345.1627388 -38100431.872161865 0 -38100431.872161865 20393721.811246872 0 0 0 0 -3690472.5135269165 -8707738.9974212646 0 -8707738.9974212646 -19074397.810333252 0 0 0 0 -61999247.340034485 78435270.824584961 0 78435270.824584961 45227533.031005859 0 0 0 0 21144401.192934036 5199017.3960571289 0 5199017.3960571289 -18929412.246063232 0 0 0 0 -8078064.0941239595 50912359.973630905 0 50912359.973630905 -47722220.105529785 0 0 0 0 151948236.485672 -246368022.0927124 0 -246368022.0927124 -10944531.278694153 0 0 0 0 1046074.305992703 -452748.179043293 0 -452748.179043293 -1816055.1755298972 0 0 0 0 208458.92510809109 -2948003.4115966577 0 -2948003.4115966577 -827250.92101071775 0 0 0 0 6248181.9339389801 6154728.1066436768 0 6154728.1066436768 30189396.060302734 0 0 0 0 -4598955.7976585831 -5616624.2011599317 0 -5616624.2011599317 -9784450.7461752221 0 0 0 0 35438553.396886349 -10580545.516906738 0 -10580545.516906738 -18833826.622314453 0 0 0 0 1034169.8185039815 -1668131.9397746958 0 -1668131.9397746958 -14698981.213050753 0 0 0 0 3769968.9986791611 -7132952.0088500977 0 -7132952.0088500977 -16166113.314689636 0 0 0 0 -6709068.2157888412 -11651029.512420654 0 -11651029.512420654 -10102714.602935791 0 0 0 0 -4913085.4514102936 -9152104.3740234375 0 -9152104.3740234375 -19590506.933807373 0 0 0 0 -1965313.3344817162 -13443680.352539062 0 -13443680.352539062 -17660131.657348633 0 0 0 0 557455.81970119476 -18933380.835144043 0 -18933380.835144043 -12165609.668479919 0 0 0 0 8359891.7640604973 -13815430.924873352 0 -13815430.924873352 -19670125.138977051 0 0 0 0 717588.90935349464 -12716003.258422852 0 -12716003.258422852 -19807762.064178467 0 0 0 0 1537609.4621686935 -13638019.410118103 0 -13638019.410118103 -21856307.790466309 0 0 0 0 1371647.9836816788 -8854584.0556335449 0 -8854584.0556335449 -19966386.694541931 0 0 0 0 1538937.3590680361 -8111037.6598272324 0 -8111037.6598272324 -27845691.951782227 0 0 0 0 -3291398.966180563 -7669207.6038284302 0 -7669207.6038284302 -26102756.356811523 0 0 0 0 -1873325.2469577789 -544948.15357971191 0 -544948.15357971191 -17029041.2159729 0 0 0 0 -4273774.121295929 -4786818.3728485107 0 -4786818.3728485107 -18672303.090810776 0 0 0 0 462888.27910804749 -15616352.848052979 0 -15616352.848052979 -25233767.569786072 0 0 0 0 -1924420.923735857 -5197815.1526317596 0 -5197815.1526317596 -18264376.369567871 0 0 0 0 -86200.976770155597 -409827.63353507966 0 -409827.63353507966 -1960069.4717932139 0 0 0 0 5134168.9234857559 -7964336.5554733276 0 -7964336.5554733276 -19592215.954483032 0 0 0 0 1354411.6142694836 -2857092.3750476539 0 -2857092.3750476539 -14839962.77454856 0 0 0 0 63889303.696674466 13911635.28515625 0 13911635.28515625 -19854922.340270996 0 0 0 0 85943531.949638605 25201914.828460693 0 25201914.828460693 -94193258.675109863 0 0 0 0 59143979.311359406 -52384030.788970947 0 -52384030.788970947 -110404249.00683594 0 0 0 0 -108986909.70228541 84741595.336669922 0 84741595.336669922 161236892.31628418 0 0 0 0 -74497243.151493192 -102039775.26870728 0 -102039775.26870728 -15559368.82623291 0 0 0 0 -35556326.12591958 -131265894.45446777 0 -131265894.45446777 -174028433.13513184 0 0 0 0 58806938.894038007 56044297.197776794 0 56044297.197776794 113753885.37719727 0 0 0 0 135507087.97392339 54975577.55809021 0 54975577.55809021 -219727731.67132568 0 0 0 0 1739563.2984197326 -498883.83066982031 0 -498883.83066982031 -7647918.7031764276 0 0 0 0 8599285.7514668405 -18555793.133544922 0 -18555793.133544922 21202519.637969971 0 0 0 0 824385.58997349255 -2808111.5892186314 0 -2808111.5892186314 -6085064.1100486368 0 0 0 0 1555611.0021896362 -2128227.5030822754 0 -2128227.5030822754 -3039597.5675125122 0 0 0 0 743506.74143310322 -1513606.3376293946 0 -1513606.3376293946 -9528453.5447791815 0 0 0 0 -140420491.58072111 -152480088.72058868 0 -152480088.72058868 -80060844.346984863 0 0 0 0 -416503.88214863488 -437937.01173351705 0 -437937.01173351705 -3987966.0962150246 0 0 0 0 -38809421.9195292 15473856.961959839 0 15473856.961959839 -22291233.474964142 0 0 0 0 1259751.4578665653 -29964.068238481879 0 -29964.068238481879 -2433231.2383761257 0 0 0 0 -11652356.471420325 -5894550.1271591187 0 -5894550.1271591187 -15115124.35005188 0 0 0 0 -249842896.02126268 -102363738.20843506 0 -102363738.20843506 29916078.691070557 0 0 0 0 -94585.289538718222 -686611.72321326844 0 -686611.72321326844 -571392.83924125135 0 0 0 0 -42793260.521779284 68653350.409042358 0 68653350.409042358 -8771965.065612793 0 0 0 0 -107541050.96409599 26004624.643493652 0 26004624.643493652 6683955.7496948242 0 0 0 0 -8099986.6771807298 14812986.428260803 0 14812986.428260803 -18739042.575531006 0 0 0 0 -21047439.823658325 -3063663.7049503326 0 -3063663.7049503326 -10465086.951049805 0 0 0 0 -9344935.4416528717 16301734.746322632 0 16301734.746322632 -13922132.079528809 0 0 0 0 -212340.87525387801 -2352367.7118443446 0 -2352367.7118443446 -1975469.8767071068 0 0 0 0 -3125716.2892666981 10176810.28314209 0 10176810.28314209 -21182272.283660889 0 0 0 0 -8502375.4562157653 11962088.794807434 0 11962088.794807434 -21384777.306610107 0 0 0 0 -7793575.3971461952 3333734.2038421631 0 3333734.2038421631 -13670848.795928955 0 0 0 0 -20488690.826113582 8576165.3336029053 0 8576165.3336029053 -13940071.093017578 0 0 0 0 -9505628.0917407386 13484246.099876404 0 13484246.099876404 -14703326.987792969 0 0 0 0 -41102927.567265034 -62671912.667541504 0 -62671912.667541504 24664235.04019165 0 0 0 0 23625018.862908304 -14390676.514644623 0 -14390676.514644623 -27617550.680328369 0 0 0 0 93709589.615227103 -19422838.954200745 0 -19422838.954200745 -118319682.75520325 0 0 0 0 226855.38894730387 -1306396.4163540006 0 -1306396.4163540006 -1122457.312151894 0 0 0 0 -45746848.972963482 -20773289.567825317 0 -20773289.567825317 7288769.8890075684 0 0 0 0 -11331419.114444971 -63298424.532836914 0 -63298424.532836914 6717663.4580078125 0 0 0 0 -24515103.914059639 -34366481.948059082 0 -34366481.948059082 36337599.342773438 0 0 0 0 -41435015.998113155 -46462572.389129639 0 -46462572.389129639 28802527.497924805 0 0 0 0 8040955.2774219513 -20451710.709472656 0 -20451710.709472656 -14347398.138183594 0 0 0 0 868597.94953497616 -4281232.4003227688 0 -4281232.4003227688 -3768277.7846443653 0 0 0 0 -9759010.8736720085 -11189035.715148926 0 -11189035.715148926 1586598.5202026367 0 0 0 0 10082556.903084755 -7542053.1983642578 0 -7542053.1983642578 -14661655.026000977 0 0 0 0 -2943406.0561469626 -5543125.7033201233 0 -5543125.7033201233 -14773554.382860661 0 0 0 0 -5620938.920324564 -5987054.1043395996 0 -5987054.1043395996 -10740925.721313477 0 0 0 0 -1013071.0759784033 -4047397.7295958474 0 -4047397.7295958474 -2176116.3781424016 0 0 0 0 2510216.7627501879 -800257.55958270654 0 -800257.55958270654 -5323432.0006113797 0 0 0 0 -6748400.4806389809 -20156558.552093506 0 -20156558.552093506 -11241320.646240234 0 0 0 0 4414377.6742329597 -1406007.915512085 0 -1406007.915512085 -3629079.1334838867 0 0 0 0 -149025.16795671917 258078.32747650146 0 258078.32747650146 -9559340.9041442871 0 0 0 0 -3315255.2838078253 2935574.7865371704 0 2935574.7865371704 -10476172.70413208 0 0 0 0 -2462652.98397021 1581789.6599731445 0 1581789.6599731445 -10586348.514221191 0 0 0 0 -4461262.2336160541 5552623.9557495117 0 5552623.9557495117 -12410901.987915039 0 0 0 0 -4249199.0609712303 -397776.35101318359 0 -397776.35101318359 -6793908.866394043 0 0 0 0 -8196402.0494597852 4507460.4797210693 0 4507460.4797210693 -5952577.8921508789 0 0 0 0 263020.03883404715 -348028.33377462998 0 -348028.33377462998 -526645.22010092437 0 0 0 0 3207708.2493954897 6843945.189453125 0 6843945.189453125 -20188517.592010498 0 0 0 0 1501666.1724344045 4135578.4711914062 0 4135578.4711914062 -16406654.153823853 0 0 0 0 1735845.4978328645 5117490.9066314697 0 5117490.9066314697 -15964753.35572052 0 0 0 0 2511187.8101935983 2105465.4986724854 0 2105465.4986724854 -12359785.100280762 0 0 0 0 5275864.5626256559 3724668.2329330444 0 3724668.2329330444 -18641748.185089111 0 0 0 0 7343906.3092989884 661819.52606201172 0 661819.52606201172 -14111245.468666077 0 0 0 0 8503618.0227416288 5355543.6771974564 0 5355543.6771974564 -12244814.545440674 0 0 0 0 9994006.7815951984 -7692202.8062362671 0 -7692202.8062362671 -31534885.931945801 0 0 0 0 18802407.964766458 2178795.1262512207 0 2178795.1262512207 -27082901.05619812 0 0 0 0 5239668.5482181907 16397106.611488342 0 16397106.611488342 -41979465.086547852 0 0 0 0 81313898.952021599 18837590.107940674 0 18837590.107940674 -42020687.654483795 0 0 0 0 16750546.212493733 -14025381.404632568 0 -14025381.404632568 -46293725.641464233 0 0 0 0 -2514655.9357466251 -17490678.563789368 0 -17490678.563789368 -42428150.901641846 0 0 0 0 -479984.06740520464 41722.556239426136 0 41722.556239426136 -2234647.6756330468 0 0 0 0 5774119.1678752862 -11135071.044593811 0 -11135071.044593811 -40572854.712890625 0 0 0 0 3379988.1318278015 -10283821.656600952 0 -10283821.656600952 -39819377.595733643 0 0 0 0 8005943.519211635 -4241681.7786712646 0 -4241681.7786712646 -32183814.334609985 0 0 0 0 196511.01742308587 -1974848.5650558472 0 -1974848.5650558472 -33742005.85667038 0 0 0 0 1293986.9148919759 -1810457.9162597656 0 -1810457.9162597656 -38736099.881156921 0 0 0 0 10942.410878318424 -5999137.7987631327 0 -5999137.7987631327 -43348640.830688477 0 0 0 0 -20884.39246165091 -5220761.5783081055 0 -5220761.5783081055 -33652312.76651001 0 0 0 0 1923.3376909293465 -2312.6117338612676 0 -2312.6117338612676 -21001.190709769726 0 0 0 0 1882898.5283389734 -6337125.9711990356 0 -6337125.9711990356 -35960432.465087891 0 0 0 0 4263167.261040858 -3010319.5489845276 0 -3010319.5489845276 -14867810.69317627 0 0 0 0 2493305.1111155096 -9194571.7059707642 0 -9194571.7059707642 -30886453.512424469 0 0 0 0 -1205.9236274223158 683.16337775439024 0 683.16337775439024 -10591.002442628145 0 0 0 0 -1768613.9747618409 -8995172.9911346436 0 -8995172.9911346436 -17835633.607860565 0 0 0 0 -2599.9309006377443 91196.798492431641 0 91196.798492431641 -6018210.4109039307 0 0 0 0 181475.6633586087 -3632133.3357048035 0 -3632133.3357048035 -10240751.51159668 0 0 0 0 28848543.963191479 -21387872.572174072 0 -21387872.572174072 -196891233.6677475 0 0 0 0 -15606759.396645337 -75738332.445999146 0 -75738332.445999146 5915313.6966247559 0 0 0 0 31630444.758018643 -30029219.952842712 0 -30029219.952842712 -354082836.13751221 0 0 0 0 8585513.6232297122 -22516315.695129395 0 -22516315.695129395 -195524939.37043762 0 0 0 0 -87334328.526416063 19316839.961273193 0 19316839.961273193 140094573.35336304 0 0 0 0 -57422629.409947872 -185688873.36096191 0 -185688873.36096191 -607407822.23962402 0 0 0 0 -46419475.718841314 -36964063.380508423 0 -36964063.380508423 -196537460.36218262 0 0 0 0 -205514519.12470365 17049812.339782715 0 17049812.339782715 -346171402.86889648 0 0 0 0 -35209562.431343079 -2206904.3245239258 0 -2206904.3245239258 -349516823.9703064 0 0 0 0 -277797255.91931915 -140027727.980896 0 -140027727.980896 -287943822.96914673 0 0 0 0 -137302788.44688535 -152388049.00299072 0 -152388049.00299072 -292867065.99697876 0 0 0 0 -21797996.349816114 -6900297.6343917847 0 -6900297.6343917847 -188134613.80200195 0 0 0 0 -16591246.233684182 -132843216.50296021 0 -132843216.50296021 -114555667.54016113 0 0 0 0 -3981942.9223632812 13830754.536590576 0 13830754.536590576 -180802046.49985504 0 0 0 0 940757.37689796567 -21069.269660241902 0 -21069.269660241902 -1583095.9080301151 0 0 0 0 -140296337.44471312 293802299.59603882 0 293802299.59603882 -408692426.82718277 0 0 0 0 88597657.476093233 -46327527.507232666 0 -46327527.507232666 14188895.231666565 0 0 0 0 37200204.50327228 -236273057.03002167 0 -236273057.03002167 193612396.86193848 0 0 0 0 -8209129.0405449569 3848736.0353088379 0 3848736.0353088379 119392261.70295715 0 0 0 0 4560.9972361744603 -78481173.84316729 0 -78481173.84316729 -7375935.7272644043 0 0 0 0 -168046977.79462743 412323411.56463623 0 412323411.56463623 -751658955.32747006 0 0 0 0 54766.422704701268 -83087229.304900631 0 -83087229.304900631 174030418.16543579 0 0 0 0 395640.1794435624 113672.51399825513 0 113672.51399825513 -1059417.2101561874 0 0 0 0 -1432034.0322196849 228732418.68127841 0 228732418.68127841 -749022535.62054443 0 0 0 0 -108905030.52381063 220208159.50994873 0 220208159.50994873 -730759351.59477234 0 0 0 0 -184684.21229243054 166969.13394956291 0 166969.13394956291 -1650649.1495148726 0 0 0 0 82930333.097288013 33386967.452354431 0 33386967.452354431 -552521140.3744812 0 0 0 0 -74958308.784553289 213432479.1505127 0 213432479.1505127 -423877768.5561676 0 0 0 0 -237848516.3641358 278279740.18457413 0 278279740.18457413 -440028036.55244446 0 0 0 0 -62160383.71629145 120607683.64379787 0 120607683.64379787 -317241031.65185547 0 0 0 0 -61847130.776095271 45853169.82925415 0 45853169.82925415 -159811961.43658447 0 0 0 0 1920972.9993555397 -7804423.7312889099 0 -7804423.7312889099 -111014818.80319214 0 0 0 0 25936202.76815635 43044925.636230469 0 43044925.636230469 -285293365.98443604 0 0 0 0 -54380623.69761312 146023035.47828674 0 146023035.47828674 -271806211.47671509 0 0 0 0 -16204845.057592511 99016404.877113342 0 99016404.877113342 -243272550.21496582 0 0 0 0 -779525.53794783354 116153473.41855621 0 116153473.41855621 -310326353.7399292 0 0 0 0 -64762236.499026537 160949618.25816345 0 160949618.25816345 -283046358.5854187 0 0 0 0 -76525580.906057358 146342723.83187866 0 146342723.83187866 -286404322.90203857 0 0 0 0 -25679431.557109892 131543047.41814423 0 131543047.41814423 -276921958.01565552 0 0 0 0 -171021724.87091005 214527245.54615784 0 214527245.54615784 -310848649.84359169 0 0 0 0 154004644.38135839 135635053.52078247 0 135635053.52078247 -13565333.923271179 0 0 0 0 -476764.34532336041 -62719.530323557556 0 -62719.530323557556 -60754.872904494405 0 0 0 0 46170210.861204386 -280740225.99740601 0 -280740225.99740601 -559036058.00484657 0 0 0 0 76789223.165735483 -190371033.48379517 0 -190371033.48379517 -80468458.914886475 0 0 0 0 273106265.57212353 75862402.922515869 0 75862402.922515869 -347079220.17425537 0 0 0 0 149775217.42779064 -178343048.40302658 0 -178343048.40302658 -554008203.6920166 0 0 0 0 1839058.2083982639 201434.4307930246 0 201434.4307930246 -1985488.6739092767 0 0 0 0 -78101610.640420198 180470391.63188171 0 180470391.63188171 -290769694.65201187 0 0 0 0 -86906623.396482378 159807295.38703537 0 159807295.38703537 -248312335.50262451 0 0 0 0 -27006681.639947355 123139939.73843384 0 123139939.73843384 -265627400.92370605 0 0 0 0 -56800048.608867049 115055300.19685364 0 115055300.19685364 -182094967.25460541 0 0 0 0 -5706828.7120917439 111625634.23088074 0 111625634.23088074 -304861971.35892487 0 0 0 0 -18327416.520653777 95712782.699981689 0 95712782.699981689 -215663294.43676758 0 0 0 0 -54277295.267512247 157711409.47973633 0 157711409.47973633 -276848883.4744873 0 0 0 0 -29465462.255103707 128004654.46678925 0 128004654.46678925 -242396077.20025635 0 0 0 0 -79836840.790300101 91550810.539642334 0 91550810.539642334 -241164921.79309082 0 0 0 0 -56696751.070252486 100464265.37368774 0 100464265.37368774 -250452892.43981934 0 0 0 0 -11726280.61220992 100466547.91598892 0 100466547.91598892 -271026857.50415039 0 0 0 0 -27973737.297089875 126254642.28845978 0 126254642.28845978 -263615687.45080566 0 0 0 0 -27835156.23151058 129510554.00865173 0 129510554.00865173 -272194328.7150116 0 0 0 0 -312560.91413271427 109671857.02722168 0 109671857.02722168 -283031887.95149231 0 0 0 0 -569113.23572683334 96232447.126708984 0 96232447.126708984 -252315407.21355438 0 0 0 0 -14544575.521463901 111925051.3319397 0 111925051.3319397 -249160179.29962158 0 0 0 0 -16277362.307300195 81112122.805831909 0 81112122.805831909 -193153387.93746948 0 0 0 0 -24056104.928132191 100566702.4493103 0 100566702.4493103 -186336840.98657227 0 0 0 0 -11888941.733935177 111633583.19659424 0 111633583.19659424 -225850919.68792725 0 0 0 0 -24155515.731979907 44984502.406723022 0 44984502.406723022 -100028796.4977417 0 0 0 0 238550.70989155769 15123066.113357544 0 15123066.113357544 -69813966.707336426 0 0 0 0 6746986.596216321 45318371.4894104 0 45318371.4894104 -233527020.20383453 0 0 0 0 -38165274.977495283 56744374.619537354 0 56744374.619537354 -85577459.40020752 0 0 0 0 -17380160.195649404 27009625.883850098 0 27009625.883850098 -73966832.133422852 0 0 0 0 43514868.465519279 -4584738.6261901855 0 -4584738.6261901855 -52486085.150085449 0 0 0 0 158254.26327283986 -1976186.7355635408 0 -1976186.7355635408 -4101280.9159933329 0 0 0 0 12836940.651049435 -21525058.100997925 0 -21525058.100997925 -42193325.371520996 0 0 0 0 19278567.158074558 -21308547.959793091 0 -21308547.959793091 -27878738.491210938 0 0 0 0 -33341887.777249191 27213911.578887939 0 27213911.578887939 -32711262.026092529 0 0 0 0 -50349113.494989797 92936157.724304199 0 92936157.724304199 -90287277.461540222 0 0 0 0 -104291720.60856628 41800377.780700684 0 41800377.780700684 35991602.560546875 0 0 0 0 -139042381.57264373 133996390.91555786 0 133996390.91555786 -71209939.064605713 0 0 0 0 -178490.89539299658 -934788.95986306947 0 -934788.95986306947 -396784.12572559714 0 0 0 0 58219122.051441602 -61313717.613807678 0 -61313717.613807678 -119345628.21966553 0 0 0 0 -42130684.264244951 74257797.205154419 0 74257797.205154419 -101054392.03961182 0 0 0 0 -80388684.377783954 170572510.37451172 0 170572510.37451172 -179845180.58654785 0 0 0 0 -35412959.94830481 89754443.542503357 0 89754443.542503357 -301843753.42437744 0 0 0 0 -24658381.826035209 117795477.43963623 0 117795477.43963623 -246633287.47619629 0 0 0 0 -73744516.147286639 118670530.53252983 0 118670530.53252983 -189739087.7182312 0 0 0 0 -32280571.080639422 56887714.506858826 0 56887714.506858826 -39337765.115722656 0 0 0 0 19001136.042521119 67273663.469787598 0 67273663.469787598 -227396600.16748047 0 0 0 0 -60513240.727123141 7489409.7216949463 0 7489409.7216949463 19394527.868621826 0 0 0 0 -1596653.6923316321 -4101062.1972593144 0 -4101062.1972593144 -4113710.6898465827 0 0 0 0 -1478247.8544122847 -1456878.0160557032 0 -1456878.0160557032 -960422.59605383873 0 0 0 0 -31275.587362289429 -472904.41225719452 0 -472904.41225719452 -150610.13339233398 0 0 0 0 -4685883.3882102966 -8264363.2904205322 0 -8264363.2904205322 -15169416.184944153 0 0 0 0 -2207108.5375550985 -6513522.7892036438 0 -6513522.7892036438 -11675672.963775635 0 0 0 0 -1589048.2946047243 -5420795.8402758911 0 -5420795.8402758911 -2859101.0882597808 0 0 0 0 -1483144.6385965347 -6487309.721786499 0 -6487309.721786499 -18767162.335291862 0 0 0 0 -1108402.1195088904 196199.83648390323 0 196199.83648390323 2162515.894564122 0 0 0 0 -33081122.870158046 -22360718.942943573 0 -22360718.942943573 -16593433.783630371 0 0 0 0 6662815.7660040259 55776271.261947632 0 55776271.261947632 -127368162.22628784 0 0 0 0 -88596199.88807261 138997645.57936096 0 138997645.57936096 -179231025.57926941 0 0 0 0 -60014816.53179884 62491091.891288757 0 62491091.891288757 -137216897.22189331 0 0 0 0 -54120639.323182106 65083712.339614868 0 65083712.339614868 -111146746.7346344 0 0 0 0 -79095373.627397567 141905743.11959839 0 141905743.11959839 -209583179.24802399 0 0 0 0 -33687434.764150381 124122980.99031067 0 124122980.99031067 -221345765.38842773 0 0 0 0 -139388974.1814658 254095580.02119446 0 254095580.02119446 -300538918.55395508 0 0 0 0 -45635928.490156829 123306863.55661011 0 123306863.55661011 -255057017.84057617 0 0 0 0 -104247184.75465983 155073263.57763672 0 155073263.57763672 -229336639.35986328 0 0 0 0 -112710401.36255717 169875690.29190063 0 169875690.29190063 -177232997.37417603 0 0 0 0 -135908272.07538468 305048143.81124878 0 305048143.81124878 -293270869.83905029 0 0 0 0 -90828262.374778867 251385387.84945679 0 251385387.84945679 -244141463.82959366 0 0 0 0 -77727973.348012969 200268576.63421631 0 200268576.63421631 325853445.56207275 0 0 0 0 12538573.857501417 105910024.29406738 0 105910024.29406738 -638954253.27607727 0 0 0 0 -81499.098482781657 154268.85182359815 0 154268.85182359815 -219406.40051835403 0 0 0 0 97564095.228209287 29154928.282516479 0 29154928.282516479 -61408801.442489624 0 0 0 0 -69122041.369971037 313573822.95808411 0 313573822.95808411 -75386209.065643311 0 0 0 0 70097169.625911698 43844826.207847357 0 43844826.207847357 -250558381.24816895 0 0 0 0 68673658.714246988 106343505.70369244 0 106343505.70369244 -126830145.63522339 0 0 0 0 -29095446.224685311 115050509.61803436 0 115050509.61803436 -297012403.29446411 0 0 0 0 -40741837.26446797 54531649.760129929 0 54531649.760129929 -440191348.33325195 0 0 0 0 120584011.09306526 -54442360.578964233 0 -54442360.578964233 -866755601.84060669 0 0 0 0 -56916074.437143981 -296974409.63995361 0 -296974409.63995361 -720101436.23374939 0 0 0 0 112225545.07299054 -79124961.107437134 0 -79124961.107437134 -291319924.52168274 0 0 0 0 106403445.7496106 -122298240.56813812 0 -122298240.56813812 -587505932.76057434 0 0 0 0 62054566.554674551 -67498959.146728516 0 -67498959.146728516 -229830809.52880859 0 0 0 0 63754703.163468674 -166528323.28575516 0 -166528323.28575516 -842664510.45039368 0 0 0 0 132512.47489477566 -182719.33416154236 0 -182719.33416154236 -240533.93351876736 0 0 0 0 187723.38023102345 -260482.76453170925 0 -260482.76453170925 -349286.44524370693 0 0 0 0 -11871144.117541619 39870444.395893097 0 39870444.395893097 -239878325.4352417 0 0 0 0 37244781.390990525 14928833.487426758 0 14928833.487426758 -346577169.26055908 0 0 0 0 43410356.47529763 -5974358.4477844238 0 -5974358.4477844238 -233710675.82583046 0 0 0 0 -14152613.619668819 19430072.027679443 0 19430072.027679443 -115357766.06515503 0 0 0 0 5454396.9819633365 -17995835.24395752 0 -17995835.24395752 -44027593.795135498 0 0 0 0 136387837.66650379 38363520.651855469 0 38363520.651855469 -324802911.63731766 0 0 0 0 81882051.76010713 55031020.121078491 0 55031020.121078491 -164586840.97344971 0 0 0 0 65871571.18969059 11043416.536483765 0 11043416.536483765 -113952996.59030151 0 0 0 0 68600.555980057703 645886.97513564676 0 645886.97513564676 -775994.45595080405 0 0 0 0 36578810.536667287 57617399.21862793 0 57617399.21862793 81166347.192138672 0 0 0 0 -23951478.105003744 80300048.723342896 0 80300048.723342896 -216049348.56230164 0 0 0 0 -4891.3158240591292 75222.239420756698 0 75222.239420756698 -144604.87799812108 0 0 0 0 93623084.241628289 122836509.3752594 0 122836509.3752594 -32284512.414047241 0 0 0 0 15783242.716926139 65440684.132492065 0 65440684.132492065 -249992999.29302979 0 0 0 0 -2519204.6532565188 991590.26217723638 0 991590.26217723638 197654.47356483713 0 0 0 0 2229301.6255121254 981484.2559531033 0 981484.2559531033 -1562871.5618575662 0 0 0 0 -29974632.72572571 60990023.8230896 0 60990023.8230896 -182040841.95309809 0 0 0 0 -16575900.121161938 79197456.355178833 0 79197456.355178833 -232361920.71913147 0 0 0 0 33724534.031582832 21937396.940002441 0 21937396.940002441 6924807.1144104004 0 0 0 0 -3884796.1548800468 57428234.97088623 0 57428234.97088623 103564236.42863464 0 0 0 0 91416572.642967939 140909534.08169556 0 140909534.08169556 158375350.33319092 0 0 0 0 128591768.66390122 155332609.11061096 0 155332609.11061096 156118669.65170288 0 0 0 0 157746674.15894961 100963274.35513306 0 100963274.35513306 143774051.82220459 0 0 0 0 -938822.5582353113 92172.763218954206 0 92172.763218954206 142000.05822277069 0 0 0 0 157709982.38503554 145092553.15948486 0 145092553.15948486 156469402.88411713 0 0 0 0 5739549.4876399375 18915077.288768768 0 18915077.288768768 -323585847.57823181 0 0 0 0 -36110111.941568762 5845154.3857345581 0 5845154.3857345581 -119774795.26724243 0 0 0 0 17496690.24570404 -13765905.356697083 0 -13765905.356697083 -244174863.18429565 0 0 0 0 -68964243.072337225 16445836.673477173 0 16445836.673477173 -238084704.76281738 0 0 0 0 11011451.41839068 -186224870.66504669 0 -186224870.66504669 -368378719.58615112 0 0 0 0 -10601633.727186322 -216764221.04431152 0 -216764221.04431152 151666628.93003845 0 0 0 0 -76154383.534772024 -172733206.46768188 0 -172733206.46768188 131098733.09695435 0 0 0 0 40718348.14370653 -88785572.489204407 0 -88785572.489204407 -209847828.00351715 0 0 0 0 52595.392718315925 -61839.001845158637 0 -61839.001845158637 -134974.57348015532 0 0 0 0 -28717297.139878191 53102076.009731293 0 53102076.009731293 -270850525.58859253 0 0 0 0 196384700.51286799 -3650151.5854949951 0 -3650151.5854949951 -393846236.55387878 0 0 0 0 403348240.08704257 73676330.897918701 0 73676330.897918701 -114345385.10569763 0 0 0 0 155864.03330966114 303399.37725751474 0 303399.37725751474 -2776734.7993646264 0 0 0 0 371555413.92745417 -184257975.92905426 0 -184257975.92905426 -261522863.75610352 0 0 0 0 344996996.7227183 -29451572.000946045 0 -29451572.000946045 101844752.9911499 0 0 0 0 60662444.300763249 -145949961.70899963 0 -145949961.70899963 55930432.888275146 0 0 0 0 84366122.199928284 -104419754.12696838 0 -104419754.12696838 -97901255.723377228 0 0 0 0 183815546.76961976 -50569123.242111206 0 -50569123.242111206 -90264066.913543701 0 0 0 0 222822.76484879071 -151554.12479482219 0 -151554.12479482219 -2309917.0414223969 0 0 0 0 -15695.284156849326 -12692247.268249512 0 -12692247.268249512 9201806.0523681641 0 0 0 0 14619.750515471558 -6377538.3550033569 0 -6377538.3550033569 4877202.4888000488 0 0 0 0 16514344.376869479 -6781485.4382553101 0 -6781485.4382553101 333464.17819213867 0 0 0 0 12172661.076307459 -12580372.12399292 0 -12580372.12399292 7749629.9027862549 0 0 0 0 8086601.939124505 -178203.38166809082 0 -178203.38166809082 -3045087.209777832 0 0 0 0 93519023.586336389 81495900.211975098 0 81495900.211975098 -289198822.04917145 0 0 0 0 -179661362.29889095 -170471176.45213318 0 -170471176.45213318 587904399.25 0 0 0 0 207370619.65175545 139615777.37051392 0 139615777.37051392 117774849.26397705 0 0 0 0 254656141.44128788 258829366.99630737 0 258829366.99630737 -2784624.2396240234 0 0 0 0 -20055300.146286607 584310621.4251709 0 584310621.4251709 -302093849.66259766 0 0 0 0 202184807.53583473 91040230.604431152 0 91040230.604431152 144280582.79020691 0 0 0 0 284983895.96196151 211668757.62362671 0 211668757.62362671 27221019.759765625 0 0 0 0 -99819.342415684208 865703.40424831957 0 865703.40424831957 -1961574.9167886078 0 0 0 0 207062680.07656384 121762274.37341309 0 121762274.37341309 125713575.8961792 0 0 0 0 266046288.98159221 109758714.5368042 0 109758714.5368042 115287153.71231079 0 0 0 0 182437418.12295622 150873769.78380585 0 150873769.78380585 96028848.95526123 0 0 0 0 -15277.376286832136 30152.567568292841 0 30152.567568292841 -57222.457471072674 0 0 0 0 -51750041.522335291 -94599355.910644531 0 -94599355.910644531 -311215572.10562134 0 0 0 0 -91324871.249964952 -273676693.03875732 0 -273676693.03875732 -694314847.75292969 0 0 0 0 -37402.458852295196 -97374107.525718689 0 -97374107.525718689 -284070058.58880615 0 0 0 0 -163116.93453366013 -320195.87638615817 0 -320195.87638615817 -780536.63231991231 0 0 0 0 1427297.6422019156 -914847.22650527954 0 -914847.22650527954 -1403257.7449645996 0 0 0 0 13144350.657575181 -94951753.533981323 0 -94951753.533981323 -318115944.87107086 0 0 0 0 -107566582.84597945 -31406152.28175354 0 -31406152.28175354 -163850781.60302734 0 0 0 0 -77683313.265564442 -5688360.3768005371 0 -5688360.3768005371 -46724254.82352829 0 0 0 0 -172003065.16793585 -54225119.003509521 0 -54225119.003509521 -52506263.195556641 0 0 0 0 -150116558.36054993 -14067946.683059692 0 -14067946.683059692 -14312027.41053009 0 0 0 0 -52458696.551840305 24525906.710266113 0 24525906.710266113 -36879462.462463379 0 0 0 0 -178580015.62676334 -20262967.306015015 0 -20262967.306015015 -163513635.45829773 0 0 0 0 -159121762.4319768 -124224058.3380127 0 -124224058.3380127 -318366558.82752991 0 0 0 0 -174508531.33739877 -68601967.731121063 0 -68601967.731121063 -141503047.134552 0 0 0 0 -146225066.88699722 -18683926.187545776 0 -18683926.187545776 -181241805.26507568 0 0 0 0 -110448117.59471703 -100675703.848526 0 -100675703.848526 -278207589.83966064 0 0 0 0 -58959475.735735416 -50354851.335960388 0 -50354851.335960388 -271608143.30950928 0 0 0 0 -109236783.90320015 -46593818.787078857 0 -46593818.787078857 -321438143.24090576 0 0 0 0 -60922744.374603748 -94073304.667114258 0 -94073304.667114258 -413137189.53683472 0 0 0 0 -123307511.18595457 -67647082.298957825 0 -67647082.298957825 -101027774.32473755 0 0 0 0 -48385611.494615555 -55423489.57434082 0 -55423489.57434082 -271547639.59249878 0 0 0 0 -104213064.36386776 -78118771.621963501 0 -78118771.621963501 -102131178.26575089 0 0 0 0 -103469245.2873106 -132631755.34570312 0 -132631755.34570312 -11533477.626098633 0 0 0 0 -99572976.946969032 -45734976.360641479 0 -45734976.360641479 -174278662.46140671 0 0 0 0 -117685811.70580292 -102346374.17608643 0 -102346374.17608643 -126236025.1802063 0 0 0 0 -122270278.94384193 -60528435.02243042 0 -60528435.02243042 -73574792.156433105 0 0 0 0 -123923570.59009933 -32753176.045082092 0 -32753176.045082092 5454514.9071044922 0 0 0 0 -66785451.565890074 -101199547.1929245 0 -101199547.1929245 -48385005.64642334 0 0 0 0 -62376605.365501404 -75351286.822479248 0 -75351286.822479248 61769316.640258789 0 0 0 0 -26976826.100538015 -37908693.510604858 0 -37908693.510604858 5273162.6379089355 0 0 0 0 -124623700.83181112 -163699625.75959778 0 -163699625.75959778 -34659347.141723633 0 0 0 0 -21608388.848565102 -51135052.072753906 0 -51135052.072753906 -1682806.709487915 0 0 0 0 -5618765.0724844933 -150887582.18321228 0 -150887582.18321228 -71466316.715820312 0 0 0 0 -30509978.607141495 -193141063.14750671 0 -193141063.14750671 -138698331.32287598 0 0 0 0 -92199264.743905067 14557000.960006714 0 14557000.960006714 78036485.628326416 0 0 0 0 57068318.505617142 5797516.8493804932 0 5797516.8493804932 -60579498.281860352 0 0 0 0 -1410653.9290952932 -677096.78140991926 0 -677096.78140991926 1156617.5600908846 0 0 0 0 80128367.770485878 -101880081.88386536 0 -101880081.88386536 24838297.989379883 0 0 0 0 32665547.154058456 -103102709.91238403 0 -103102709.91238403 52358734.38495636 0 0 0 0 -34881094.88388586 -42670243.998970032 0 -42670243.998970032 48539721.059448242 0 0 0 0 68383403.818162918 -37510749.306108475 0 -37510749.306108475 31029478.888092041 0 0 0 0 -50601846.53053236 -9925544.5957336426 0 -9925544.5957336426 47728543.795928955 0 0 0 0 -41196390.812110901 7198477.9874687195 0 7198477.9874687195 34237676.968994141 0 0 0 0 -65747640.090843678 3561125.2623443604 0 3561125.2623443604 36307797.513504028 0 0 0 0 -17952795.111219406 -25095041.407157898 0 -25095041.407157898 38347095.308074951 0 0 0 0 -79272897.131847858 -17911086.686096191 0 -17911086.686096191 41155990.879150391 0 0 0 0 -111640754.81716871 -15215482.39200592 0 -15215482.39200592 8531649.6338500977 0 0 0 0 -57012233.351431727 11029227.369842529 0 11029227.369842529 19409558.814544678 0 0 0 0 -94239664.382312059 42798424.032791138 0 42798424.032791138 13979435.482635498 0 0 0 0 -46265441.496411324 28406041.527374268 0 28406041.527374268 16700496.035324097 0 0 0 0 -56901550.99819684 34086323.634094238 0 34086323.634094238 27484108.232803345 0 0 0 0 -29404866.007518947 24194069.757387161 0 24194069.757387161 28811721.420013428 0 0 0 0 -27185064.136624701 32689177.378559113 0 32689177.378559113 15672726.479827881 0 0 0 0 -2640760.3593658209 39417186.342819214 0 39417186.342819214 16281408.67829895 0 0 0 0 1766661.5199948251 47356989.871231079 0 47356989.871231079 17355748.426513672 0 0 0 0 35485069.000637531 29199911.659057617 0 29199911.659057617 4998042.2444000244 0 0 0 0 22725542.835846901 36820427.001586914 0 36820427.001586914 1250307.2789916992 0 0 0 0 -1493624.4491997063 25149038.414112091 0 25149038.414112091 -4242690.8563842773 0 0 0 0 13172814.628340006 16843606.560897827 0 16843606.560897827 -9614719.5685119629 0 0 0 0 60645275.215557098 2328081.7917480469 0 2328081.7917480469 -24887008.879394531 0 0 0 0 16242306.496104479 19931324.082389832 0 19931324.082389832 11622587.540771484 0 0 0 0 -130004.68176910991 -2425989.7621108578 0 -2425989.7621108578 -290117.39099484682 0 0 0 0 -7283962.2798688561 -15257556.580761909 0 -15257556.580761909 -11055079.768768311 0 0 0 0 -9202.9499969341559 -84958.048697896302 0 -84958.048697896302 -215799.23235975951 0 0 0 0 36816973.731427431 12110865.693511963 0 12110865.693511963 13274209.731559753 0 0 0 0 56610260.527799845 29041797.315643311 0 29041797.315643311 24770221.100479126 0 0 0 0 1934567.6202206751 -534157.2562815249 0 -534157.2562815249 -11501756.016489089 0 0 0 0 120777695.93929851 31600551.011894226 0 31600551.011894226 -16339626.500900269 0 0 0 0 66717693.927557468 76477252.020126343 0 76477252.020126343 5783276.925201416 0 0 0 0 30577981.669244528 -18411475.966789246 0 -18411475.966789246 -11977893.537719727 0 0 0 0 -55588523.418230847 42484260.441110611 0 42484260.441110611 20581555.187469482 0 0 0 0 -46158981.332367145 44888089.294508696 0 44888089.294508696 25569189.734802246 0 0 0 0 3081886.5211981535 56299723.561950684 0 56299723.561950684 6673851.5679626465 0 0 0 0 24691677.866351292 28878883.863708496 0 28878883.863708496 13043675.171936035 0 0 0 0 893422.00644826889 -9623077.9399414062 0 -9623077.9399414062 -16465778.671421051 0 0 0 0 -7477028.3694982529 -7752858.1994628906 0 -7752858.1994628906 -2043665.5930633545 0 0 0 0 397580.53888293705 -4652465.1891617998 0 -4652465.1891617998 -2506352.4097368196 0 0 0 0 6572941.322678566 -13125001.752944946 0 -13125001.752944946 3075868.8678131104 0 0 0 0 800139.50749335065 -5450284.7666254044 0 -5450284.7666254044 -12049161.13671875 0 0 0 0 -13272985.128689051 3510739.3910369873 0 3510739.3910369873 14189825.870742798 0 0 0 0 -6765584.9996759892 -21449670.324501038 0 -21449670.324501038 -693535.93312072754 0 0 0 0 -73326997.852401495 76888632.127990723 0 76888632.127990723 -81469859.320030212 0 0 0 0 -20362114.467587352 -9069986.0259628296 0 -9069986.0259628296 -25351414.468536377 0 0 0 0 -10178052.285030365 568515.63327026367 0 568515.63327026367 -17692589.505172729 0 0 0 0 77333722.004007578 875143.19526672363 0 875143.19526672363 -59608520.513916016 0 0 0 0 -2708832.4734870195 -21907844.231426239 0 -21907844.231426239 4536756.9599304199 0 0 0 0 -66347805.156032801 -23795962.423728943 0 -23795962.423728943 19305659.898529053 0 0 0 0 -115528848.39713359 111512393.2276001 0 111512393.2276001 -98339123.644340515 0 0 0 0 -86500898.529227197 114333236.18185806 0 114333236.18185806 -149721169.91043091 0 0 0 0 24867882.820367306 38165162.307891846 0 38165162.307891846 -39549624.22052002 0 0 0 0 229613541.45890364 67835590.590095997 0 67835590.590095997 -74535450.597290039 0 0 0 0 986846.2072331924 116430.72665336821 0 116430.72665336821 -9523641.6539546847 0 0 0 0 24784692.719860077 25438393.110427856 0 25438393.110427856 36897707.322311401 0 0 0 0 -52170584.287784971 26731613.044769287 0 26731613.044769287 68185909.605621338 0 0 0 0 -63506834.481715448 -107150722.44132996 0 -107150722.44132996 -167005186.11399841 0 0 0 0 -83545851.559322178 61534740.124668121 0 61534740.124668121 -23240284.563598633 0 0 0 0 446722.18960042589 34545.758348007221 0 34545.758348007221 -7032163.1571733654 0 0 0 0 274013489.20211601 7335947.7584991455 0 7335947.7584991455 -214168560.1578064 0 0 0 0 -346610126.80407941 -193241929.36433411 0 -193241929.36433411 115994087.76818848 0 0 0 0 -504769432.78711581 -748014733.91605377 0 -748014733.91605377 -765999756.95674133 0 0 0 0 72819.283881736235 -91908.05032782536 0 -91908.05032782536 -2797112.6343270391 0 0 0 0 -90982764.452108562 -371394020.6828804 0 -371394020.6828804 -788571448.75588989 0 0 0 0 -127749995.50292182 -353061719.24975204 0 -353061719.24975204 -425070648.51055908 0 0 0 0 -197787874.7861855 227387441.31806183 0 227387441.31806183 -120840169.53389549 0 0 0 0 43269459.773743957 58870942.638989925 0 58870942.638989925 -118008497.3432312 0 0 0 0 -572187229.54832339 548529411.59199524 0 548529411.59199524 -549610353.49945068 0 0 0 0 -407645057.09777236 78844043.997138977 0 78844043.997138977 113430265.22904968 0 0 0 0 -246067500.00511622 374958057.77889252 0 374958057.77889252 -475896003.39788818 0 0 0 0 -84583696.23145324 152004477.10443115 0 152004477.10443115 -594080207.52069092 0 0 0 0 -109939064.24793851 66496120.680664062 0 66496120.680664062 -661448627.96556473 0 0 0 0 -65666171.421900153 364715191.93875122 0 364715191.93875122 -1587843280.4831543 0 0 0 0 -358762109.72694755 -553514025.65252304 0 -553514025.65252304 -1213459735.7616577 0 0 0 0 -832240426.67886508 -241495221.90859222 0 -241495221.90859222 -673606403.78896451 0 0 0 0 -131068363.01658225 -217448115.24992371 0 -217448115.24992371 -773546916.42244148 0 0 0 0 36101962.577804923 -426211909.86161041 0 -426211909.86161041 -1090102231.4161987 0 0 0 0 -40608794.729009703 -419399064.58995056 0 -419399064.58995056 -779322685.24728966 0 0 0 0 147832890.16665757 -218741527.06567383 0 -218741527.06567383 -1292350518.3776855 0 0 0 0 -22986961.980655432 -575012911.31506729 0 -575012911.31506729 -1665269058.2229004 0 0 0 0 -329233869.82538331 189850628.11853409 0 189850628.11853409 -1537375114.8183746 0 0 0 0 -170866756.63031667 -138911505.03008652 0 -138911505.03008652 -984731222.51092529 0 0 0 0 7685795.3965018354 -168053512.06203794 0 -168053512.06203794 -904339200.85076904 0 0 0 0 160531601.81013703 -286978185.45944214 0 -286978185.45944214 -1151217233.3184204 0 0 0 0 132880950.02672338 -254311631.86756897 0 -254311631.86756897 -1147348371.9564285 0 0 0 0 68406794.320903301 -439852029.41449738 0 -439852029.41449738 -1005552802.9243469 0 0 0 0 200074971.4559741 -265328997.14128876 0 -265328997.14128876 -1336430196.3250427 0 0 0 0 82677786.353896141 -173478820.47977448 0 -173478820.47977448 -1031957242.5437622 0 0 0 0 -51216108.552812099 54664920.794013977 0 54664920.794013977 -1415629722.807373 0 0 0 0 137733939.23462772 -219567445.70376587 0 -219567445.70376587 -1208579565.3903656 0 0 0 0 -27979590.555147886 -203787928.76376343 0 -203787928.76376343 -834434515.51789093 0 0 0 0 -31929259.270925522 -242304680.14239502 0 -242304680.14239502 -712236757.81234741 0 0 0 0 -67697788.462366104 -63779121.545959473 0 -63779121.545959473 -1035025290.9644299 0 0 0 0 -120826260.3864789 -166937208.68744278 0 -166937208.68744278 -765847061.62359619 0 0 0 0 -182019593.47973824 -60629647.830825806 0 -60629647.830825806 -653289738.4798584 0 0 0 0 -149561005.27669626 -158662530.92251134 0 -158662530.92251134 -521301711.76931763 0 0 0 0 -151488189.59071288 -42512416.611363888 0 -42512416.611363888 -538389674.87249756 0 0 0 0 -125767308.27436185 -161290076.98075867 0 -161290076.98075867 -380956367.06976318 0 0 0 0 -119489393.06576514 -33630112.117507935 0 -33630112.117507935 -252993951.50544739 0 0 0 0 -33804014.023777962 -157545402.79830933 0 -157545402.79830933 -695305675.79705811 0 0 0 0 -101715400.93673229 -113943683.20948792 0 -113943683.20948792 -551420832.37169266 0 0 0 0 -27821149.263842583 -119307025.91981506 0 -119307025.91981506 -580194345.61749268 0 0 0 0 4234864.4134645462 -100116840.03005981 0 -100116840.03005981 -577607245.07513428 0 0 0 0 -67202829.290655136 -114825832.78032684 0 -114825832.78032684 -551398325.07962036 0 0 0 0 -72331408.027592659 -84669182.904876709 0 -84669182.904876709 -414941651.45739746 0 0 0 0 -142427788.66366482 -124351246.75918579 0 -124351246.75918579 -380225182.11412048 0 0 0 0 -196753333.01076508 -55504519.974746704 0 -55504519.974746704 -356517606.49308777 0 0 0 0 -111702145.78326941 -109045131.47715759 0 -109045131.47715759 -506439681.38818359 0 0 0 0 -97491926.114683151 -151765024.03831482 0 -151765024.03831482 -698246794.30187988 0 0 0 0 -189196872.69756699 -106405236.57562256 0 -106405236.57562256 -505778511.00572968 0 0 0 0 -164440661.03846121 -144366053.17062378 0 -144366053.17062378 -698325176.40750122 0 0 0 0 -162192443.0702424 -156556375.86997986 0 -156556375.86997986 -666476856.98519897 0 0 0 0 -242411992.01989079 -83040371.770477295 0 -83040371.770477295 -732088924.95968628 0 0 0 0 -139165362.93595791 -65020751.625549316 0 -65020751.625549316 -993212229.2303772 0 0 0 0 -184541633.37974834 -223485004.87676239 0 -223485004.87676239 -904673364.20974731 0 0 0 0 -123578377.95092583 -260321900.33926392 0 -260321900.33926392 -874545502.53024292 0 0 0 0 19992577.245526314 -244328708.08255005 0 -244328708.08255005 -1012354881.368866 0 0 0 0 -60298823.695296288 -153928998.68537903 0 -153928998.68537903 -695796344.70111084 0 0 0 0 55984095.441856146 -158704402.43767166 0 -158704402.43767166 -811263852.96817017 0 0 0 0 49356609.232019424 -189240997.26889038 0 -189240997.26889038 -932410492.550354 0 0 0 0 -118479731.73554802 -411198760.580513 0 -411198760.580513 -1379459021.2331238 0 0 0 0 -35112315.604330063 -224245382.24255371 0 -224245382.24255371 -1008193298.3507423 0 0 0 0 151831000.19154549 -155333805.11729431 0 -155333805.11729431 -1339191367.6644592 0 0 0 0 -342492046.45372677 -61060275.30696106 0 -61060275.30696106 -993283839.23199844 0 0 0 0 -444334127.89308834 -196300846.44012451 0 -196300846.44012451 -904343278.65865326 0 0 0 0 -933970604.6544733 9934251.975402832 0 9934251.975402832 -1139120516.7797356 0 0 0 0 -290565896.32784462 -70230545.118919373 0 -70230545.118919373 -1130330562.2423706 0 0 0 0 -252312691.08425999 720335853.38339233 0 720335853.38339233 -1133003776.5387573 0 0 0 0 -66650470.707081318 201553805.92676544 0 201553805.92676544 -2069872264.9808655 0 0 0 0 -183517513.71023846 -501940024.6965332 0 -501940024.6965332 -2357882577.3710632 0 0 0 0 264776623.94040918 -705297046.33575439 0 -705297046.33575439 -1390969540.7974243 0 0 0 0 143396408.40386391 2157762.1172637939 0 2157762.1172637939 -1303243692.4676208 0 0 0 0 72334550.359573364 -29025542.097290039 0 -29025542.097290039 -1487477735.0776138 0 0 0 0 66641376.634747028 -31926313.358810425 0 -31926313.358810425 -1174469891.9942017 0 0 0 0 27588493.191446304 380335565.74285889 0 380335565.74285889 -1288946828.5106812 0 0 0 0 86334649.478010178 185590518.71328735 0 185590518.71328735 -838736936.45584106 0 0 0 0 197965055.14510345 8083003.2885894775 0 8083003.2885894775 -1025537059.6908112 0 0 0 0 99274918.355844975 208750489.80406189 0 208750489.80406189 -860378974.85302734 0 0 0 0 147755050.75630152 36048669.76424408 0 36048669.76424408 -1040654133.7788391 0 0 0 0 255837833.01854897 -106226164.12641907 0 -106226164.12641907 -953036864.21865845 0 0 0 0 190009110.74963808 3837793.5540771484 0 3837793.5540771484 -782201591.38195801 0 0 0 0 186389379.58443689 -159185100.68473816 0 -159185100.68473816 -865306860.559021 0 0 0 0 186556318.0134058 -93694783.107925415 0 -93694783.107925415 -660672735.9789505 0 0 0 0 248023488.89562917 -159172260.29984283 0 -159172260.29984283 -865354180.96469116 0 0 0 0 237467131.09611559 -25956090.578262329 0 -25956090.578262329 -942384461.81271362 0 0 0 0 273360658.37558413 -134065187.4387207 0 -134065187.4387207 -1051272025.9993286 0 0 0 0 331516843.4696207 -103396076.38012695 0 -103396076.38012695 -1050924726.8663025 0 0 0 0 300860906.31235027 -118322510.32365417 0 -118322510.32365417 -1054068138.3948669 0 0 0 0 269186991.30252457 -105152064.00338745 0 -105152064.00338745 -1024641080.7082825 0 0 0 0 240639748.92224693 -147517941.49494934 0 -147517941.49494934 -1075888948.1626892 0 0 0 0 204322412.54765606 -108315867.61004639 0 -108315867.61004639 -1040408721.0820007 0 0 0 0 151342533.09033126 -148343411.56245279 0 -148343411.56245279 -1062004712.0569458 0 0 0 0 238900913.52289677 -108827068.8863678 0 -108827068.8863678 -1178688677.8930664 0 0 0 0 250742033.21299887 -69641777.136581421 0 -69641777.136581421 -1049051317.1412048 0 0 0 0 -159907768.78556418 -420596854.76183319 0 -420596854.76183319 -601218411.15188599 0 0 0 0 -153306400.58006668 -418777124.98364258 0 -418777124.98364258 -601297443.0893755 0 0 0 0 293065494.17433929 -240453343.6835556 0 -240453343.6835556 -1059680330.5680847 0 0 0 0 303080701.18868983 -296988613.77110481 0 -296988613.77110481 -1257752305.5129395 0 0 0 0 336999066.83405304 -90608450.174682617 0 -90608450.174682617 -1215382821.0054016 0 0 0 0 242808362.65835667 -521145518.4720459 0 -521145518.4720459 -1744586636.4862061 0 0 0 0 -255943237.06796074 -709735066.15612793 0 -709735066.15612793 -1088585498.9349976 0 0 0 0 -268762630.27995527 -388240452.34525418 0 -388240452.34525418 -609445702.68548584 0 0 0 0 299572974.70739591 -210512033.23787689 0 -210512033.23787689 -2924573065.7964783 0 0 0 0 382934851.06610107 133579149.35493469 0 133579149.35493469 -1505289733.869915 0 0 0 0 143978743.51957798 242289549.54754639 0 242289549.54754639 -1097469602.3949709 0 0 0 0 271030416.06458235 22880455.207038879 0 22880455.207038879 -1118986604.6646271 0 0 0 0 271659298.82009268 35694236.870155334 0 35694236.870155334 -1064399126.4733276 0 0 0 0 177989766.60237598 107841533.51173401 0 107841533.51173401 -646243079.12268066 0 0 0 0 161750765.00300026 10313712.11050415 0 10313712.11050415 -601221764.18115234 0 0 0 0 -13340878.213769913 93135817.62538147 0 93135817.62538147 -385066823.21168518 0 0 0 0 41115527.590470314 4717898.302734375 0 4717898.302734375 -424640075.39023018 0 0 0 0 -183630955.90945402 26378486.857686043 0 26378486.857686043 -200739385.74957275 0 0 0 0 -195961608.27976131 334424795.49118042 0 334424795.49118042 -462881471.64389038 0 0 0 0 177409081.61246014 -88384122.39491272 0 -88384122.39491272 -851493592.27802277 0 0 0 0 178769369.94836617 -78861954.622344971 0 -78861954.622344971 -800298407.87409973 0 0 0 0 158612729.63874626 -186964607.38230133 0 -186964607.38230133 -1020402713.0131836 0 0 0 0 190238766.18903446 -116544136.41362 0 -116544136.41362 -864847552.6443634 0 0 0 0 259250808.58925772 -124767407.90057373 0 -124767407.90057373 -1035888470.5785522 0 0 0 0 281316366.34164095 -93937454.357780457 0 -93937454.357780457 -1000233635.9202576 0 0 0 0 252160028.38439465 -42717442.388153076 0 -42717442.388153076 -954980795.62718201 0 0 0 0 273496902.67204285 -25042519.456085205 0 -25042519.456085205 -953683207.15132141 0 0 0 0 182155725.25325334 7208844.4494342804 0 7208844.4494342804 -688239298.5574646 0 0 0 0 179625995.47746658 -32994469.526153564 0 -32994469.526153564 -671827061.19657898 0 0 0 0 230677866.16211796 90243584.294906616 0 90243584.294906616 -890795531.85372925 0 0 0 0 178989962.16438866 -39485039.459411621 0 -39485039.459411621 -489300836.58152771 0 0 0 0 139642644.23742414 59079336.269134521 0 59079336.269134521 -546501394.10302734 0 0 0 0 114530175.66279507 -60601721.204467773 0 -60601721.204467773 -562583982.14692688 0 0 0 0 94625245.554023981 -18241646.444946289 0 -18241646.444946289 -485559061.9173584 0 0 0 0 81361241.072888374 -124528004.87963867 0 -124528004.87963867 -792898760.71466064 0 0 0 0 92033140.230603695 -82257177.135848999 0 -82257177.135848999 -650046079.70852661 0 0 0 0 9040547.5668134689 -60342995.19380188 0 -60342995.19380188 -448187999.76516724 0 0 0 0 83938810.832613945 -79062303.174362183 0 -79062303.174362183 -649795899.31797218 0 0 0 0 19978400.710287094 -53525425.830200195 0 -53525425.830200195 -447813459.29445076 0 0 0 0 19045352.645052433 -25430342.6508255 0 -25430342.6508255 -308129519.15661621 0 0 0 0 97143186.606481552 -33328032.215789795 0 -33328032.215789795 -481935360.44530487 0 0 0 0 87885682.924584866 -31182382.144119263 0 -31182382.144119263 -359482077.66436768 0 0 0 0 44064950.170002937 -4495958.407585144 0 -4495958.407585144 -162125304.53265381 0 0 0 0 -46573161.060922146 -26920707.429656982 0 -26920707.429656982 -111860376.72271729 0 0 0 0 57568315.773620605 -11394325.76461792 0 -11394325.76461792 -307494489.85013103 0 0 0 0 -107556845.68968368 -88808011.974222183 0 -88808011.974222183 50245259.483703613 0 0 0 0 -32342752.50343895 -15165530.387451172 0 -15165530.387451172 -107030040.76190186 0 0 0 0 -28416296.107029915 9001434.6393661499 0 9001434.6393661499 28150296.172607422 0 0 0 0 156841093.26815224 20303094.857421875 0 20303094.857421875 -158262254.42977905 0 0 0 0 -135154927.40309334 -40758213.096038818 0 -40758213.096038818 200030860.72357178 0 0 0 0 43687618.495737076 44202075.858581543 0 44202075.858581543 43855296.431259155 0 0 0 0 67531804.661988258 125430502.15467834 0 125430502.15467834 203714791.92388916 0 0 0 0 -39304865.327518463 47153646.336669922 0 47153646.336669922 206241177.92836285 0 0 0 0 -40523283.447505951 58843407.754669189 0 58843407.754669189 288524956.0317688 0 0 0 0 -138774073.66558456 -95307720.278930664 0 -95307720.278930664 52709562.390655518 0 0 0 0 274275913.23642445 -57600746.408889771 0 -57600746.408889771 98222229.353881836 0 0 0 0 314488555.30859137 -175706337.04178619 0 -175706337.04178619 64328477.392150879 0 0 0 0 117817527.54621887 -162605503.52618408 0 -162605503.52618408 254724908.47741699 0 0 0 0 192607665.34090805 -168886789.66827393 0 -168886789.66827393 252444967.18469238 0 0 0 0 749466798.35014725 -225731808.90119934 0 -225731808.90119934 148059684.08008575 0 0 0 0 239091731.17066765 -111057066.52523804 0 -111057066.52523804 52704420.772338867 0 0 0 0 124704238.54942703 31966392.689178467 0 31966392.689178467 -49719021.738809586 0 0 0 0 383799581.22031021 44671628.002349854 0 44671628.002349854 -49204147.78125 0 0 0 0 264174996.4565773 -38025713.794189453 0 -38025713.794189453 -176908306.53118896 0 0 0 0 163420596.26546478 -100372778.30847168 0 -100372778.30847168 -57502119.958175659 0 0 0 0 278629200.7472744 -73041208.779205322 0 -73041208.779205322 -51021452.826416016 0 0 0 0 151216705.68583298 -121519251.50424194 0 -121519251.50424194 57361068.85345459 0 0 0 0 160661020.14465714 -30476003.909439087 0 -30476003.909439087 -155330477.97543335 0 0 0 0 131185466.39557648 -44180177.861034393 0 -44180177.861034393 -240839415.96325684 0 0 0 0 175567282.53745472 -86883057.601165771 0 -86883057.601165771 -226272708.1461792 0 0 0 0 147465966.65564537 31013590.703414917 0 31013590.703414917 -323209492.51425171 0 0 0 0 139852830.67891312 -43878657.668060303 0 -43878657.668060303 -260329272.61685181 0 0 0 0 156634554.5945456 9678208.8910598755 0 9678208.8910598755 -190267368.95477295 0 0 0 0 146710609.01452637 18016038.913391113 0 18016038.913391113 -497248080.0284729 0 0 0 0 124741517.90439558 -21218005.997787476 0 -21218005.997787476 -419724871.47479248 0 0 0 0 152542928.47500038 27670790.159423828 0 27670790.159423828 -399640298.33538818 0 0 0 0 98948322.937911987 40479118.971725464 0 40479118.971725464 -393039178.47773743 0 0 0 0 98118475.318164825 -76338159.482666016 0 -76338159.482666016 -260275156.24377441 0 0 0 0 42019115.826375008 -14301986.929168701 0 -14301986.929168701 -192744090.59013367 0 0 0 0 -33678048.581860542 -83172007.002197266 0 -83172007.002197266 -2383511.9090270996 0 0 0 0 -113139373.91859102 27761889.138664246 0 27761889.138664246 -124167691.5295105 0 0 0 0 26858649.803935051 -72866769.766311646 0 -72866769.766311646 -149982640.51037216 0 0 0 0 1995777.8270752728 -75335955.767055988 0 -75335955.767055988 13604112.366653442 0 0 0 0 -2671421.9955711365 -36704277.364990234 0 -36704277.364990234 105424668.09747314 0 0 0 0 -22139703.451620579 -76848487.424453735 0 -76848487.424453735 145420445.60317993 0 0 0 0 95870705.387071609 -109444318.6284256 0 -109444318.6284256 -38138085.837036133 0 0 0 0 23428164.690135956 -77772744.337646484 0 -77772744.337646484 27728329.015228271 0 0 0 0 112980864.14142752 -128611712.33364105 0 -128611712.33364105 -79644967.028442383 0 0 0 0 174978718.67775345 -141947623.21621704 0 -141947623.21621704 -25779339.823577881 0 0 0 0 8558538.296708107 -134498079.35241699 0 -134498079.35241699 14086001.207588196 0 0 0 0 56608110.513713837 -137040118.59841919 0 -137040118.59841919 121505738.56365967 0 0 0 0 117733363.29608917 -170448538.21630859 0 -170448538.21630859 131589844.59667969 0 0 0 0 21401912.525619507 -69074691.887939453 0 -69074691.887939453 200302691.68835449 0 0 0 0 -28048186.070817947 -43932125.846710205 0 -43932125.846710205 270354589.37615967 0 0 0 0 87525919.552194595 -199610046.58187866 0 -199610046.58187866 434746431.60339355 0 0 0 0 32196690.456207275 -89475299.894470215 0 -89475299.894470215 216130090.69232178 0 0 0 0 -30924223.509747505 -77044665.7394104 0 -77044665.7394104 436514423.12329102 0 0 0 0 -35391390.873329163 -69735752.184173584 0 -69735752.184173584 433664003.72705078 0 0 0 0 -4507711.3717407826 -17334979.037462883 0 -17334979.037462883 -11814357.948255878 0 0 0 0 -18744486.047074914 -37211384.184738159 0 -37211384.184738159 52468073.718414307 0 0 0 0 38986773.231792808 -56029297.939277649 0 -56029297.939277649 -8517582.0385131836 0 0 0 0 24994123.5354352 -31476884.428848267 0 -31476884.428848267 19733449.352935791 0 0 0 0 -57421067.894145124 5828530.5627317429 0 5828530.5627317429 97417135.25604248 0 0 0 0 -39022106.536123872 -57692892.404140472 0 -57692892.404140472 31867799.583770752 0 0 0 0 -45046366.103517532 -108762277.22293854 0 -108762277.22293854 -19355165.115478516 0 0 0 0 -10625742.437524796 -49731706.354644775 0 -49731706.354644775 13953474.418823242 0 0 0 0 -38579972.710820347 -126039418.51609802 0 -126039418.51609802 -168090169.81520081 0 0 0 0 17941675.236789227 -75796392.105594635 0 -75796392.105594635 -26843667.219467163 0 0 0 0 -13300897.729251385 -54564485.426330566 0 -54564485.426330566 8466128.7771530151 0 0 0 0 21309553.585186481 -39781971.807556152 0 -39781971.807556152 -47483920.427875519 0 0 0 0 19192943.709487438 -44205220.953613281 0 -44205220.953613281 12900680.453216553 0 0 0 0 32195299.967171669 -71225345.530687332 0 -71225345.530687332 -12097590.32421875 0 0 0 0 10848005.073170662 292095992.50923157 0 292095992.50923157 234063909.12148857 0 0 0 0 -121251546.06469274 -251995105.93332291 0 -251995105.93332291 171604076.04356384 0 0 0 0 29712389.010328293 -97478545.058166504 0 -97478545.058166504 -363629274.33544922 0 0 0 0 -2231244.236179796 -1012494.7301169261 0 -1012494.7301169261 393924.14774750173 0 0 0 0 -185362.32468175888 -235246184.70635986 0 -235246184.70635986 -88887704.747070312 0 0 0 0 -71174304.771642685 -424878360.09094238 0 -424878360.09094238 -456633026.09037018 0 0 0 0 -220767216.2686367 -348846813.47232056 0 -348846813.47232056 -48662785.255355835 0 0 0 0 -125562171.7641305 -186397930.40261698 0 -186397930.40261698 122875510.25152588 0 0 0 0 -468810630.06471348 -631661042.03727722 0 -631661042.03727722 -34273824.714477539 0 0 0 0 -268981733.93914413 -243625179.44837952 0 -243625179.44837952 477362216.27941895 0 0 0 0 -672974979.10324049 -148440759.97995377 0 -148440759.97995377 1058061716.618042 0 0 0 0 592567759.47579098 475782992.01112366 0 475782992.01112366 437526397.42605591 0 0 0 0 -2894619.6041055811 -17972854.729717355 0 -17972854.729717355 -28067865.638856649 0 0 0 0 262104908.06743336 -462540922.71337891 0 -462540922.71337891 -431648782.64233398 0 0 0 0 640354056.152771 397230251.1857605 0 397230251.1857605 250098768.6065979 0 0 0 0 330054449.59071922 -337408752.16238403 0 -337408752.16238403 458719075.06726074 0 0 0 0 133403583.93071365 -251397091.58465576 0 -251397091.58465576 582384047.11125946 0 0 0 0 1654115.513934711 -2522792.723933056 0 -2522792.723933056 -5102898.2474992499 0 0 0 0 -276325468.7168541 117518519.36253357 0 117518519.36253357 -127226088.54358673 0 0 0 0 268789203.51415634 -85642306.748550415 0 -85642306.748550415 -53706809.921081543 0 0 0 0 -37007386.623378754 830492939.18199158 0 830492939.18199158 377567729.00337219 0 0 0 0 -1053391758.6189651 -72151597.648925781 0 -72151597.648925781 692430871.22921753 0 0 0 0 -1143214496.3253403 -294932207.07232666 0 -294932207.07232666 451927829.99827957 0 0 0 0 -775720019.17554474 -20344428.543624878 0 -20344428.543624878 182578939.01075745 0 0 0 0 -791178145.63247681 71852931.363143921 0 71852931.363143921 438152025.20805883 0 0 0 0 -742215351.88037109 270092766.36869812 0 270092766.36869812 633044124.51119614 0 0 0 0 -376266010.90701866 91317783.334056854 0 91317783.334056854 146656080.88230896 0 0 0 0 -749068223.60815048 4686190.247795105 0 4686190.247795105 54164918.220169067 0 0 0 0 -682470752.0288887 210453001.74704361 0 210453001.74704361 -73117555.855667114 0 0 0 0 -585991941.48442841 66600777.758804321 0 66600777.758804321 140900885.76501465 0 0 0 0 -731976251.89373207 126556188.02185059 0 126556188.02185059 -261505591.17100525 0 0 0 0 -1535293258.5405159 -470682611.20031738 0 -470682611.20031738 219751525.06231689 0 0 0 0 -595719109.90492487 -314864703.81265199 0 -314864703.81265199 246315532.99780273 0 0 0 0 -594167301.28380585 127231202.23495483 0 127231202.23495483 142014089.70529938 0 0 0 0 777357824.1011734 -852306608.38786697 0 -852306608.38786697 -185157292.88104248 0 0 0 0 -253160565.41477203 -338019550.05314636 0 -338019550.05314636 144971476.0912323 0 0 0 0 -553900114.22660828 -1171636324.7062988 0 -1171636324.7062988 194957775.29693604 0 0 0 0 -789268843.31306076 -971414906.01954651 0 -971414906.01954651 120643871.79464722 0 0 0 0 -701428870.8243618 -916148043.72386169 0 -916148043.72386169 69337741.798339844 0 0 0 0 -2122110681.1864204 -1065369220.078476 0 -1065369220.078476 79907680.737930298 0 0 0 0 -3120290.9052995294 -1533672.3329140395 0 -1533672.3329140395 1654788.0825994462 0 0 0 0 -75026944.003519058 -604106016.89585876 0 -604106016.89585876 -26389647.071533203 0 0 0 0 -595887077.73588896 878508903.55078125 0 878508903.55078125 1372171427.9854736 0 0 0 0 150484267.77590853 -1718930781.8952789 0 -1718930781.8952789 755291583.36956787 0 0 0 0 412155648.00538063 -1647982757.8818283 0 -1647982757.8818283 26064284.169921875 0 0 0 0 -476412932.02985764 -1328283374.7486572 0 -1328283374.7486572 889360026.97473145 0 0 0 0 -503811138.57948875 -1580312778.9189796 0 -1580312778.9189796 -70235833.995483398 0 0 0 0 -83487014.885118484 -165698071.22373962 0 -165698071.22373962 1984704549.5702362 0 0 0 0 -230027584.42156982 -204869405.19915771 0 -204869405.19915771 188267470.9699707 0 0 0 0 -176928392.68534189 -43428070.151992798 0 -43428070.151992798 546300209.01940155 0 0 0 0 -268859530.31597459 -2205674032.9705405 0 -2205674032.9705405 -400648508.45222473 0 0 0 0 -29939308.65459878 103313127.06626892 0 103313127.06626892 335564635.61979675 0 0 0 0 -45897547.699637309 -10398882.296875 0 -10398882.296875 82270845.216880798 0 0 0 0 30376191.62782222 10325978.265773773 0 10325978.265773773 29895204.867622375 0 0 0 0 -1922268.8043115567 -10212629.443116402 0 -10212629.443116402 2476754.5752735361 0 0 0 0 -3708814.6044584522 -15660147.232237812 0 -15660147.232237812 -11925838.313604942 0 0 0 0 82060328.917262852 87350483.996376038 0 87350483.996376038 119617513.28939819 0 0 0 0 -417187942.59379005 -1022813269.0886993 0 -1022813269.0886993 742069266.53347015 0 0 0 0 418781891.17890871 260070968.1747818 0 260070968.1747818 -747330569.66203308 0 0 0 0 -142667250.86989021 51815028.316177368 0 51815028.316177368 99441916.607254028 0 0 0 0 115962613.07850122 32164523.094749451 0 32164523.094749451 -176897720.29893494 0 0 0 0 -4413549.1613802807 2018433.7325437889 0 2018433.7325437889 -5476142.9843992339 0 0 0 0 76908452.551040173 -71547777.180038452 0 -71547777.180038452 -12628946.065185547 0 0 0 0 4894786.4215044742 -11201559.705406062 0 -11201559.705406062 -29000731.807133645 0 0 0 0 241075804.59095812 35913438.345672607 0 35913438.345672607 -169858479.6309967 0 0 0 0 -4871246.3645310402 -91287540.797172546 0 -91287540.797172546 -14241188.045150757 0 0 0 0 -344071933.45847321 -195831262.14187622 0 -195831262.14187622 17769076.022476196 0 0 0 0 -105149154.00261188 -295746699.8479538 0 -295746699.8479538 -296352371.08929443 0 0 0 0 -261426147.86027718 -194871728.72572327 0 -194871728.72572327 -345142827.11608887 0 0 0 0 -632769524.08635712 -363342879.5355072 0 -363342879.5355072 -374606935.68663025 0 0 0 0 -643756303.97652435 -479388585.05932617 0 -479388585.05932617 -288224696.14961243 0 0 0 0 -997774449.85408783 -577228696.6991806 0 -577228696.6991806 -266125454.54107666 0 0 0 0 -451973087.40139389 -497277451.8421669 0 -497277451.8421669 -368882669.47186279 0 0 0 0 -883915814.63730621 348621057.72546387 0 348621057.72546387 1325444608.0137253 0 0 0 0 157704836.83018112 -183568161.99972534 0 -183568161.99972534 -645827603.54358673 0 0 0 0 -2706788.6711069737 2830473.4852706417 0 2830473.4852706417 -1160406.0133270118 0 0 0 0 -632562278.08279419 -400841854.51148987 0 -400841854.51148987 -306707435.6186142 0 0 0 0 -421033030.609375 -709383957.39008331 0 -709383957.39008331 -1104663544.4973297 0 0 0 0 -550103171.78726196 -614947818.11006546 0 -614947818.11006546 -356493749.90692139 0 0 0 0 -537124826.47978592 -517822742.82845306 0 -517822742.82845306 -1507656246.2817078 0 0 0 0 -1030708140.3600616 -1051338402.425766 0 -1051338402.425766 -698686529.01223755 0 0 0 0 -1673713129.3988266 -928313483.74583435 0 -928313483.74583435 148609368.72317505 0 0 0 0 406238578.35705566 -231583325.3342247 0 -231583325.3342247 -224518485.77650452 0 0 0 0 47963262.259562857 -6844342.6967805587 0 -6844342.6967805587 -105215302.53278561 0 0 0 0 -1055260640.9810448 -444630537.2131958 0 -444630537.2131958 -129616353.41796875 0 0 0 0 289348346.1567893 -49606419.041916609 0 -49606419.041916609 -120110144.05734253 0 0 0 0 -1093557573.3295403 -498295133.4834938 0 -498295133.4834938 -21725695.799621582 0 0 0 0 795782309.58961487 3575555.8367843628 0 3575555.8367843628 -313582756.49306488 0 0 0 0 233328658.60102844 951784154.85947227 0 951784154.85947227 696842088.27370071 0 0 0 0 -41673682.403999329 -361031263.45765305 0 -361031263.45765305 239843468.53365326 0 0 0 0 842483272.07952309 -240741183.17689323 0 -240741183.17689323 -537206519.31643677 0 0 0 0 -903646944.58280659 -135681739.01708984 0 -135681739.01708984 -701886983.46859741 0 0 0 0 -516649106.30701637 -481891290.90055084 0 -481891290.90055084 -688148635.24807739 0 0 0 0 -352157228.7838707 -757951786.55778503 0 -757951786.55778503 -703973226.57815552 0 0 0 0 -375079163.97516394 -643235089.72030258 0 -643235089.72030258 -555313226.00286865 0 0 0 0 -413058867.26628113 -493871159.65209961 0 -493871159.65209961 -676617667.87752914 0 0 0 0 -249611041.1517334 -553237805.68569946 0 -553237805.68569946 -730865261.33358765 0 0 0 0 375848201.62310791 1083203443.523056 0 1083203443.523056 -506696924.96118164 0 0 0 0 260773065.90875244 405798198.86304474 0 405798198.86304474 -1019607552.3049927 0 0 0 0 4245471.8771943524 900139.98738135397 0 900139.98738135397 -5927763.9216919392 0 0 0 0 47231485.917766467 -6011675.3086754493 0 -6011675.3086754493 -105637194.41101535 0 0 0 0 -218325569.54390717 -610334018.19908142 0 -610334018.19908142 -809278967.8112793 0 0 0 0 -177556229.88262177 -600148203.19750977 0 -600148203.19750977 -925445566.20922852 0 0 0 0 -229750009.32069016 -616083250.753685 0 -616083250.753685 -652438010.88995361 0 0 0 0 -581405185.4173584 708617354.37921143 0 708617354.37921143 -810978421.25164795 0 0 0 0 -613920102.69866943 -227451299.09382629 0 -227451299.09382629 462037069.14237213 0 0 0 0 1642208.0775756836 625154860.54151917 0 625154860.54151917 -1144060972.896225 0 0 0 0 167677823.73297119 452471501.51734161 0 452471501.51734161 -977433969.55778503 0 0 0 0 374528247.58813477 278390012.06903839 0 278390012.06903839 -943382317.8946228 0 0 0 0 164456937.24624634 438929963.49676514 0 438929963.49676514 -1027374289.28228 0 0 0 0 250807308.26989746 398370733.76583862 0 398370733.76583862 -1235481243.4359055 0 0 0 0 -35387162.450180054 487067775.81366348 0 487067775.81366348 -994287961.51408386 0 0 0 0 476750883.9150238 -89142078.061923981 0 -89142078.061923981 -439195087.74716187 0 0 0 0 2278080.5144384806 -5555592.3738764748 0 -5555592.3738764748 -18891474.553538784 0 0 0 0 96336514.571636915 -91742083.492183685 0 -91742083.492183685 -276058723.06680298 0 0 0 0 -334918073.69956589 -214711466.85314178 0 -214711466.85314178 -224750191.52578735 0 0 0 0 -1128939518.0729923 -662610771.16009521 0 -662610771.16009521 -189606708.44375515 0 0 0 0 -580684240.10291862 -502336143.27416992 0 -502336143.27416992 -264948543.24577332 0 0 0 0 -145871037.62040663 -648574046.40197372 0 -648574046.40197372 -1209484276.0973206 0 0 0 0 -410198928.14264965 -943816287.67280197 0 -943816287.67280197 -1027890094.9084473 0 0 0 0 -194825701.8637352 -551559342.78057861 0 -551559342.78057861 -792285076.85571289 0 0 0 0 -101008148.76183319 734101319.93276978 0 734101319.93276978 -224336650.38544846 0 0 0 0 -321921958.52985954 -483352550.95526123 0 -483352550.95526123 -1042093674.2269287 0 0 0 0 -184996594.53501892 -160086293.61712646 0 -160086293.61712646 -90346523.918762207 0 0 0 0 -112205425.2488699 -355754356.74290466 0 -355754356.74290466 -1341080700.4278564 0 0 0 0 242423347.34202957 759040428.41210938 0 759040428.41210938 -1009698081.4552307 0 0 0 0 -151046033.61639452 -1109430791.463707 0 -1109430791.463707 -3577793429.2844849 0 0 0 0 -498543042.29195023 -844646802.12049866 0 -844646802.12049866 -1747535787.6792145 0 0 0 0 -2027926758.5013371 -1625848063.3585815 0 -1625848063.3585815 -1220752154.4263306 0 0 0 0 -389254435.61579132 1034879295.9886703 0 1034879295.9886703 -1168162225.7467422 0 0 0 0 642279.94331200747 -2319866.7084702998 0 -2319866.7084702998 -6920591.3908424079 0 0 0 0 -1248048350.6285696 -1515494177.7303391 0 -1515494177.7303391 -1831855260.843277 0 0 0 0 -385869054.1765976 1372497143.0478668 0 1372497143.0478668 -4240911428.7864189 0 0 0 0 -573546972.00100708 -699543311.80319214 0 -699543311.80319214 -10619862.643768311 0 0 0 0 -2199281409.5724144 391195357.98500824 0 391195357.98500824 -732896750.37634277 0 0 0 0 294423744.77102661 276102295.31443405 0 276102295.31443405 -718256725.42140198 0 0 0 0 663500436.66867065 1370530105.1105499 0 1370530105.1105499 -1411142640.3488922 0 0 0 0 848674571.12764549 947161737.93951416 0 947161737.93951416 -1278706377.8485107 0 0 0 0 44589017.219444327 -1800308.0067886561 0 -1800308.0067886561 -99980216.481128678 0 0 0 0 1278653756.2453938 800856298.51712036 0 800856298.51712036 -1870925680.0293427 0 0 0 0 746071330.56489182 396009637.70010376 0 396009637.70010376 -2078954447.8778534 0 0 0 0 -136923932.44637489 581392715.10079956 0 581392715.10079956 -1910877050.5716553 0 0 0 0 837644546.65408301 1212032788.2542725 0 1212032788.2542725 -2158215764.7053833 0 0 0 0 278158049.85395813 596946025.86703491 0 596946025.86703491 -2905108304.4250031 0 0 0 0 160264497.82224083 1209904616.0630798 0 1209904616.0630798 -2052092717.0396729 0 0 0 0 175852275.17901611 297572184.11057281 0 297572184.11057281 -635608930.97808075 0 0 0 0 111736352.45733643 255519739.22274017 0 255519739.22274017 -575815586.93386459 0 0 0 0 858923211.21467543 1125523241.4693146 0 1125523241.4693146 1811766956.3112793 0 0 0 0 1245583552.4011736 224515658.55522156 0 224515658.55522156 24838304.15032959 0 0 0 0 10268561.758269215 2271360.0813151672 0 2271360.0813151672 -10945514.234123468 0 0 0 0 24784589.165224448 -16711514.561784998 0 -16711514.561784998 -94110633.914480507 0 0 0 0 415485212.69280624 566951706.73674011 0 566951706.73674011 -74778562.949035645 0 0 0 0 38254114.035678864 674536769.6971283 0 674536769.6971283 655058991.64167023 0 0 0 0 -98550463.717843115 82952150.79583168 0 82952150.79583168 -4539574.4776916504 0 0 0 0 -644556113.96561146 -502167469.54257202 0 -502167469.54257202 -422962362.16036987 0 0 0 0 43540393.338043213 257462302.07450485 0 257462302.07450485 -810289630.20625114 0 0 0 0 -33792734.021842957 158957951.76834297 0 158957951.76834297 -1058369029.1016312 0 0 0 0 10632089.3175354 292694095.03076172 0 292694095.03076172 -791882226.93510437 0 0 0 0 -57390844.310150146 447830830.88886261 0 447830830.88886261 -972713558.71395302 0 0 0 0 15595165.071971893 271221706.77680492 0 271221706.77680492 -750998741.49684143 0 0 0 0 15944567.9896698 248449859.64851379 0 248449859.64851379 -575156123.95227051 0 0 0 0 352777759.02789307 -16472481.654510498 0 -16472481.654510498 -688444384.60775757 0 0 0 0 67658552.581726074 249516797.08904266 0 249516797.08904266 -735160940.11619568 0 0 0 0 45894960.614517212 224387658.96710587 0 224387658.96710587 -645080687.83429718 0 0 0 0 167717019.66143799 186821023.81771851 0 186821023.81771851 -714725509.41346741 0 0 0 0 58078778.528823853 235918723.01115417 0 235918723.01115417 -782838600.65061951 0 0 0 0 55057625.049762726 177219220.19378424 0 177219220.19378424 -612751977.17681885 0 0 0 0 68825295.334915161 203493175.05746841 0 203493175.05746841 -597451664.09605408 0 0 0 0 38046189.380599976 229140158.63433695 0 229140158.63433695 -578087735.51834106 0 0 0 0 105270369.18334961 207467584.53448486 0 207467584.53448486 -669878490.00125122 0 0 0 0 -26151696.74256897 136743055.27845192 0 136743055.27845192 -681997274.01548386 0 0 0 0 -51239764.514511108 247210125.09940386 0 247210125.09940386 -792376067.70118713 0 0 0 0 -165413656.31694794 189790851.74362755 0 189790851.74362755 -796060129.65477753 0 0 0 0 -86472730.093227386 208534698.93190098 0 208534698.93190098 -809147450.39101028 0 0 0 0 -353217240.2061615 -64512799.551404953 0 -64512799.551404953 -904073287.8759079 0 0 0 0 -773135962.16297913 -140326654.95323944 0 -140326654.95323944 -775538066.10439682 0 0 0 0 -8778439.4900684357 -19665352.793374062 0 -19665352.793374062 -1008125183.3749161 0 0 0 0 -1051383392.8456154 -1194595435.0598221 0 -1194595435.0598221 -1394131773.1370239 0 0 0 0 -440299334.43887711 -497324573.50260258 0 -497324573.50260258 -698042143.01212692 0 0 0 0 -1738252003.5813522 -976458585.35675812 0 -976458585.35675812 -85474207.08124876 0 0 0 0 -74281945.136520386 -111756565.49555397 0 -111756565.49555397 -195367625.88242722 0 0 0 0 -3150494.0380378794 -2763735.0016447455 0 -2763735.0016447455 -431388.46989902109 0 0 0 0 -36996979.579761505 544973574.10873604 0 544973574.10873604 -1982216064.3771057 0 0 0 0 -20525921.027359009 -986667512.86740875 0 -986667512.86740875 -2473335500.4871778 0 0 0 0 -2006745022.7960014 -369495185.37038612 0 -369495185.37038612 -747616362.83828354 0 0 0 0 104199993.21018219 -223182277.0197525 0 -223182277.0197525 -2032440189.8084965 0 0 0 0 -812020954.67212296 273647174.23578262 0 273647174.23578262 321656069.99651337 0 0 0 0 1708525.690145947 6687736.9497876354 0 6687736.9497876354 -4739583.9795942605 0 0 0 0 166271566.28135681 -329867599.54248619 0 -329867599.54248619 -810042567.14336395 0 0 0 0 4819609.5269927979 -155681667.17562103 0 -155681667.17562103 -378525748.27556992 0 0 0 0 -1173878.5099945068 -137388928.21976471 0 -137388928.21976471 -416194335.70713997 0 0 0 0 -7201828.6044845581 153577752.19248581 0 153577752.19248581 -114816162.26098633 0 0 0 0 -137595815.50605011 -51054006.618319511 0 -51054006.618319511 39810005.69039917 0 0 0 0 163566652.29890442 427423952.30460358 0 427423952.30460358 430662322.33820915 0 0 0 0 307351794.59022522 49021415.555595398 0 49021415.555595398 -103330292.60878754 0 0 0 0 -229353166.5277977 -18396579.445890427 0 -18396579.445890427 -139673038.34002686 0 0 0 0 100225911.58408737 -253283616.36816216 0 -253283616.36816216 -621964767.15857697 0 0 0 0 -40882685.144508362 338805316.69203949 0 338805316.69203949 -655576185.60087967 0 0 0 0 1591470.7504747659 4087810.9484962588 0 4087810.9484962588 -2935684.6075890977 0 0 0 0 436212223.04299927 -72204371.144329071 0 -72204371.144329071 -971028119.40946579 0 0 0 0 -218405948.52791023 -131634043.98906136 0 -131634043.98906136 -390622011.88420105 0 0 0 0 -303572796.4403038 115886469.701931 0 115886469.701931 -19444130.633152008 0 0 0 0 -56431591.850639343 -37554524.129936218 0 -37554524.129936218 -446419381.28726196 0 0 0 0 1616511.5018630885 1629394.6621133881 0 1629394.6621133881 -3376657.4878400695 0 0 0 0 -175276237.13725281 -158646675.91933727 0 -158646675.91933727 -111999791.47578812 0 0 0 0 -229432854.17224312 -244055979.40526772 0 -244055979.40526772 -646898630.01548386 0 0 0 0 -226256218.37755585 -412013118.98536301 0 -412013118.98536301 -756308290.66428375 0 0 0 0 76306249.523826599 -216780794.18191147 0 -216780794.18191147 -813127757.59469938 0 0 0 0 -1006736.6884880066 -168664132.85565567 0 -168664132.85565567 -370205912.19142914 0 0 0 0 58135589.522041321 -140323536.20008659 0 -140323536.20008659 -161709564.12059021 0 0 0 0 -117440873.25847626 239625175.50224304 0 239625175.50224304 -279955400.00309563 0 0 0 0 36275000.455940247 -651652770.78466797 0 -651652770.78466797 -1135565865.8901463 0 0 0 0 104924147.42506409 1759924.0208053589 0 1759924.0208053589 -1500067960.367363 0 0 0 0 -225936075.18158531 -675146673.45541191 0 -675146673.45541191 -905551107.51522827 0 0 0 0 1424937.7167029604 5801576.1466742679 0 5801576.1466742679 -4278636.0370348431 0 0 0 0 -620402385.47786331 -426339900.78752708 0 -426339900.78752708 -101673776.80339813 0 0 0 0 1130484.2591073662 2947968.17600164 0 2947968.17600164 -2295259.4927385561 0 0 0 0 -270021518.3611393 -789764564.04149628 0 -789764564.04149628 -1111352049.2538223 0 0 0 0 -29075818.476028442 -579966994.8950386 0 -579966994.8950386 -971349340.24646759 0 0 0 0 -136341053.08014488 -293514142.77757454 0 -293514142.77757454 -663225994.83058167 0 0 0 0 -546545590.02974319 -572267997.8985672 0 -572267997.8985672 -647516366.30649042 0 0 0 0 -294746921.57768822 -421808251.41962433 0 -421808251.41962433 -486562155.69128799 0 0 0 0 -303150098.57892704 -365554441.1309185 0 -365554441.1309185 -720456141.22990417 0 0 0 0 -342592733.00930786 -545468522.66154099 0 -545468522.66154099 -618649592.51692963 0 0 0 0 -274895370.36354446 -518911995.8699379 0 -518911995.8699379 -624621939.76880264 0 0 0 0 -440505252.1329155 -482746426.54709053 0 -482746426.54709053 -603594437.39868164 0 0 0 0 -288801904.79464722 -552019552.51949883 0 -552019552.51949883 -702986113.60904694 0 0 0 0 -268607519.36323929 -214152345.73961639 0 -214152345.73961639 -261250106.75831604 0 0 0 0 26917062.788424015 -303082486.09675503 0 -303082486.09675503 -475436489.9254303 0 0 0 0 -59228784.826999664 -131754489.0820961 0 -131754489.0820961 -260402953.58401871 0 0 0 0 -58355696.125562668 -128046605.3636694 0 -128046605.3636694 -293064183.43891907 0 0 0 0 134055588.42970276 -87697631.704967499 0 -87697631.704967499 -345536830.89284134 0 0 0 0 80637727.82094574 -86557180.913757324 0 -86557180.913757324 -319780148.14393616 0 0 0 0 288398123.33590221 -77949693.84581852 0 -77949693.84581852 -379200254.5408783 0 0 0 0 423846319.58533478 341225946.72264862 0 341225946.72264862 90517837.86177063 0 0 0 0 482276792.01894379 -24971301.997749329 0 -24971301.997749329 -200419714.55269241 0 0 0 0 138859546.27028465 164437022.19026375 0 164437022.19026375 180528259.30784607 0 0 0 0 82417353.213882446 16575596.982521057 0 16575596.982521057 -112892347.65200806 0 0 0 0 135739214.24144745 -21566066.300979614 0 -21566066.300979614 -165495997.44130325 0 0 0 0 206129395.20162964 -45366771.359884262 0 -45366771.359884262 -442871060.92723083 0 0 0 0 -13386855.238882065 -276177824.85055923 0 -276177824.85055923 -570106430.59537506 0 0 0 0 -231477595.41226387 -305176240.63653946 0 -305176240.63653946 -374612918.69828796 0 0 0 0 70311940.543663025 188129119.14344788 0 188129119.14344788 -420031801.10020638 0 0 0 0 -215044031.156744 277930297.77259254 0 277930297.77259254 -1132534231.3006592 0 0 0 0 -263606201.91112328 -475189593.59293747 0 -475189593.59293747 -764077890.63874817 0 0 0 0 -558515959.89991474 -561657351.50327396 0 -561657351.50327396 -700771016.44425964 0 0 0 0 40776581.844573975 -363980755.58875275 0 -363980755.58875275 -505742397.30412292 0 0 0 0 120923168.93222427 345864135.66511536 0 345864135.66511536 184706438.93603516 0 0 0 0 4344404.0295725688 416089.44931047037 0 416089.44931047037 -5310593.3892573044 0 0 0 0 485261266.99554443 335631761.21591187 0 335631761.21591187 -256961947.33847046 0 0 0 0 202621136.94073486 44386232.492263794 0 44386232.492263794 64037185.944236755 0 0 0 0 9395320.2973937988 85019915.842086792 0 85019915.842086792 95922154.703338623 0 0 0 0 -82590022.728546143 140172658.09459686 0 140172658.09459686 118363773.79391479 0 0 0 0 582177913.03231049 209699963.13742828 0 209699963.13742828 -137689376.93688965 0 0 0 0 7132453.8119640201 1372767.626195359 0 1372767.626195359 -9790453.0939081684 0 0 0 0 208021768.03286743 138810324.5039978 0 138810324.5039978 -2601939.4973754883 0 0 0 0 38757579.812194824 178687584.81198883 0 178687584.81198883 16126155.655609131 0 0 0 0 293292998.22956514 79457143.034024954 0 79457143.034024954 -24771341.728637695 0 0 0 0 71310280.409507751 -111745307.77184296 0 -111745307.77184296 29906042.331710815 0 0 0 0 -81082596.068786621 -85444956.318576813 0 -85444956.318576813 -144402274.79600525 0 0 0 0 87560905.683418274 98363999.244018555 0 98363999.244018555 -187194138.48003769 0 0 0 0 41152298.900527954 30795585.379268646 0 30795585.379268646 -285439402.31108093 0 0 0 0 58203700.445308685 150019166.34387779 0 150019166.34387779 -278042261.86421204 0 0 0 0 36817387.515213013 -3620939.1029663086 0 -3620939.1029663086 -343194963.48792648 0 0 0 0 117578319.35623169 130026010.87709045 0 130026010.87709045 -130243023.56997681 0 0 0 0 117212713.35752869 69825826.528717041 0 69825826.528717041 -124352882.94027328 0 0 0 0 203084685.28276825 34717532.710090637 0 34717532.710090637 -288790766.65135002 0 0 0 0 227747150.76616383 107555132.13252354 0 107555132.13252354 -163612942.47877502 0 0 0 0 88385834.252918243 210103341.25214386 0 210103341.25214386 428614727.09251404 0 0 0 0 255584530.23173523 96675593.299064636 0 96675593.299064636 -160042075.85166931 0 0 0 0 166237618.89302444 197391118.18682861 0 197391118.18682861 117119792.70845032 0 0 0 0 54669573.585861206 69709127.069274902 0 69709127.069274902 158809802.87795258 0 0 0 0 -8891821.1670303345 44128821.648361206 0 44128821.648361206 122354025.10601807 0 0 0 0 6626248.7607231513 13244922.752866894 0 13244922.752866894 23291665.176331148 0 0 0 0 42444055.613586426 114530511.96398163 0 114530511.96398163 159663498.49024963 0 0 0 0 -90677136.66754818 48106027.606102943 0 48106027.606102943 -147842874.27668762 0 0 0 0 46948848.417250454 3462628.386658622 0 3462628.386658622 -87381096.480930924 0 0 0 0 72526914.383117676 233108946.44953918 0 233108946.44953918 -22236308.757156372 0 0 0 0 166578120.24093628 419573867.07604218 0 419573867.07604218 120166803.81139374 0 0 0 0 286743619.56326294 243524426.97993469 0 243524426.97993469 198046959.13166809 0 0 0 0 3515740.1886541396 4705037.3923031595 0 4705037.3923031595 5764968.3845489509 0 0 0 0 390067026.90316772 91587908.013504028 0 91587908.013504028 -759538974.87601471 0 0 0 0 9901207.919708252 172100220.85348511 0 172100220.85348511 -53710222.572395325 0 0 0 0 6088479.285118103 220113471.99798965 0 220113471.99798965 441456329.99703979 0 0 0 0 251579656.17514038 11903477.325408936 0 11903477.325408936 -306924146.81359863 0 0 0 0 -279850417.37428284 337080966.15386963 0 337080966.15386963 -139817004.24087524 0 0 0 0 49199552.030858077 -4683716.2871213835 0 -4683716.2871213835 -102332432.84467992 0 0 0 0 -525241427.1183691 -112117461.22673774 0 -112117461.22673774 -167901946.34442139 0 0 0 0 624320230.06455994 318915682.04322052 0 318915682.04322052 -352295640.63874817 0 0 0 0 688406118.33078003 -46391889.794334412 0 -46391889.794334412 -371840335.87391663 0 0 0 0 -591066920.0448761 -246135265.79542542 0 -246135265.79542542 -31929467.27671051 0 0 0 0 -65066790.967750549 -113458646.87052155 0 -113458646.87052155 -86846081.930503845 0 0 0 0 -363093366.20560455 -33441423.965568542 0 -33441423.965568542 -137879276.11920357 0 0 0 0 -389040027.55715942 -58483252.655410767 0 -58483252.655410767 -84399579.85419178 0 0 0 0 -424028344.68751526 55163711.434829712 0 55163711.434829712 -167241568.97067261 0 0 0 0 -421898524.92280579 12304210.388961792 0 12304210.388961792 -72856490.623687744 0 0 0 0 -214468349.43450928 32768756.031333923 0 32768756.031333923 -50820261.140846252 0 0 0 0 -17641852.68746905 -9488241.386467021 0 -9488241.386467021 -25320493.661015965 0 0 0 0 252547081.65290213 -98163107.163639069 0 -98163107.163639069 -712091268.99118042 0 0 0 0 97261543.139026642 28783260.386924744 0 28783260.386924744 -803415962.14662552 0 0 0 0 70487922.704494476 101563009.22516632 0 101563009.22516632 -519397576.05595398 0 0 0 0 -76309291.400129318 -127354478.14598846 0 -127354478.14598846 -479081685.4783783 0 0 0 0 40803733.014968872 -116487328.01104736 0 -116487328.01104736 -762900126.6992569 0 0 0 0 186768576.78827858 400573088.49412537 0 400573088.49412537 -1020739726.4376373 0 0 0 0 -413093.30206360901 -1138664.0165764671 0 -1138664.0165764671 -946382.72218293697 0 0 0 0 197336705.49941254 -436237597.57533264 0 -436237597.57533264 -1591889006.0184631 0 0 0 0 -131720831.16652966 -624726751.30467415 0 -624726751.30467415 -275346036.11380768 0 0 0 0 -179050491.67503071 -907168803.71094513 0 -907168803.71094513 -1238209056.5612793 0 0 0 0 70091871.946474075 -45903669.895160675 0 -45903669.895160675 90538225.19076252 0 0 0 0 111895043.28026581 53694850.531238556 0 53694850.531238556 73826366.639480591 0 0 0 0 50556535.29715088 28157979.29279713 0 28157979.29279713 -86743847.775718525 0 0 0 0 1927446.5249291062 -5811777.4152446352 0 -5811777.4152446352 -16312364.41870163 0 0 0 0 305125651.7324295 -30459153.589683533 0 -30459153.589683533 -139927997.62731743 0 0 0 0 -10676346.686693192 218882793.82213926 0 218882793.82213926 42877487.585365295 0 0 0 0 41333984.441375062 38991736.175871812 0 38991736.175871812 -52446554.762256682 0 0 0 0 -34155236.295495987 -279656181.09889603 0 -279656181.09889603 126699240.10198975 0 0 0 0 188022141.22640133 -46163427.276659012 0 -46163427.276659012 -907982668.45188141 0 0 0 0 -3036069.5067907893 9463146.6931850389 0 9463146.6931850389 10397586.5412402 0 0 0 0 -681696073.30980301 -196802982.57183075 0 -196802982.57183075 -1782577237.7642822 0 0 0 0 -798871611.91203976 -619118157.98245239 0 -619118157.98245239 -452777010.39324951 0 0 0 0 47778340.415554047 117845444.80231857 0 117845444.80231857 -96574912.125999451 0 0 0 0 -201024164.9318018 -8393024.8511161804 0 -8393024.8511161804 60084778.110778809 0 0 0 0 -429882041.85016537 -410829391.61061668 0 -410829391.61061668 -304388412.7612915 0 0 0 0 36225992.335418701 -48250464.925621033 0 -48250464.925621033 -134851333.26655579 0 0 0 0 24173805.697048187 -466847935.04879761 0 -466847935.04879761 -798808207.15214539 0 0 0 0 -126919521.39170456 -224693580.17556 0 -224693580.17556 -286946067.47231293 0 0 0 0 211438349.31307793 -213743579.58462906 0 -213743579.58462906 -536164258.60254669 0 0 0 0 228023374.26609778 -38510514.229094267 0 -38510514.229094267 -1385257622.9078979 0 0 0 0 -1414912.9610718135 429937.73444974422 0 429937.73444974422 -839828.99094920233 0 0 0 0 15302971.655553579 -110099599.69923019 0 -110099599.69923019 76212274.058662415 0 0 0 0 -62683379.107982635 -57415064.434509277 0 -57415064.434509277 66326143.652124405 0 0 0 0 -1611186.9067299543 -142415.45575159416 0 -142415.45575159416 748859.67888025567 0 0 0 0 -34791828.248799324 30639643.060582161 0 30639643.060582161 103282329.61637878 0 0 0 0 -1539812.809419632 -3164699.3261575699 0 -3164699.3261575699 2344062.6962356567 0 0 0 0 -7149.2382646929473 885984.63767213374 0 885984.63767213374 -1020231.9627053365 0 0 0 0 -77846202.500007629 10439587.802787781 0 10439587.802787781 64525928.223945618 0 0 0 0 94625.79027557373 539040.12620544434 0 539040.12620544434 4391759.3499450684 0 0 0 0 -2913860.8824365437 -1967607.1123094484 0 -1967607.1123094484 -1273971.0432816036 0 0 0 0 27227.625431060791 -1651240.5935134888 0 -1651240.5935134888 2182320.7110776901 0 0 0 0 100198230.8832283 -46971305.592224121 0 -46971305.592224121 133383735.70970917 0 0 0 0 -1838078.4705141746 -3955393.2055939082 0 -3955393.2055939082 -746314.33028737456 0 0 0 0 -73082008.141952515 -185966371.02048492 0 -185966371.02048492 261581525.51544952 0 0 0 0 5591991.2162322998 1212260.7492980957 0 1212260.7492980957 -17126274.213253021 0 0 0 0 -480.6916711255908 1002803.6700502634 0 1002803.6700502634 -1082326.4299564864 0 0 0 0 91391832.008357048 -129353897.54228592 0 -129353897.54228592 40524722.260665894 0 0 0 0 -20655651.030627251 -208570267.38900375 0 -208570267.38900375 -35058837.688735962 0 0 0 0 45691574.485115051 -34204565.917701721 0 -34204565.917701721 -157494427.91203308 0 0 0 0 -188939239.81090355 312010.16498565674 0 312010.16498565674 15219825.957740784 0 0 0 0 -105409546.13312078 -123928340.61799622 0 -123928340.61799622 -478491290.2432251 0 0 0 0 -112172960.44378281 -135705411.11808109 0 -135705411.11808109 -215811380.0213623 0 0 0 0 -816348.148558049 -2640369.4740412915 0 -2640369.4740412915 -2179139.0658132732 0 0 0 0 71028742.246484756 14927309.195156097 0 14927309.195156097 -83412018.898780823 0 0 0 0 71282401.007006526 18837550.486566424 0 18837550.486566424 -123207294.50672913 0 0 0 0 106602432.87641525 -211336716.31803131 0 -211336716.31803131 -49719932.585445404 0 0 0 0 283282225.67755508 -160418073.42072678 0 -160418073.42072678 -55484494.767074585 0 0 0 0 -238751011.70729113 299465778.37252903 0 299465778.37252903 129932018.15011597 0 0 0 0 98912398.492649078 155585098.0058136 0 155585098.0058136 -281899723.97872543 0 0 0 0 -212229202.5916481 17439391.307720184 0 17439391.307720184 -206960675.16845703 0 0 0 0 16676818.002640724 270051386.75100708 0 270051386.75100708 43252990.885467529 0 0 0 0 353836256.27907562 249645176.17292023 0 249645176.17292023 18769434.676628113 0 0 0 0 241476483.41358185 440803913.80872345 0 440803913.80872345 139140844.80870819 0 0 0 0 -223334431.29402256 669741708.45728874 0 669741708.45728874 -221796235.6370163 0 0 0 0 36597130.424736813 37401521.694904894 0 37401521.694904894 -60094383.201042607 0 0 0 0 198212942.22554779 297914822.6054287 0 297914822.6054287 109947523.69284058 0 0 0 0 231493517.78089523 299459849.75829315 0 299459849.75829315 -109555987.75189209 0 0 0 0 291376803.2405777 344823054.00201416 0 344823054.00201416 98562999.166740417 0 0 0 0 572154860.25746536 -307757654.96427155 0 -307757654.96427155 -663771431.3033905 0 0 0 0 -277288439.19639587 -364062990.06423187 0 -364062990.06423187 -667375810.51911545 0 0 0 0 164366090.04203033 276003801.11055374 0 276003801.11055374 -652429098.87330627 0 0 0 0 -47495847.33861351 -418945944.44632721 0 -418945944.44632721 -1057060738.4440308 0 0 0 0 -1225357.4398055989 229757.69318863377 0 229757.69318863377 246238.73863569647 0 0 0 0 46190929.752742767 -76597232.823875427 0 -76597232.823875427 161571887.02348328 0 0 0 0 3163010.4826602936 21475345.974731445 0 21475345.974731445 -310309673.83746338 0 0 0 0 -130749329.68617439 -54749654.42937088 0 -54749654.42937088 36205848.607795715 0 0 0 0 -118623165.04771423 -13810390.002281189 0 -13810390.002281189 39829863.765301228 0 0 0 0 -320006.81699432526 -2943575.1879222165 0 -2943575.1879222165 -4215192.8167850524 0 0 0 0 19942023.759469032 86516776.385974884 0 86516776.385974884 -73090580.318916321 0 0 0 0 -1432228038.9723053 503265742.79104614 0 503265742.79104614 -43868780.715309143 0 0 0 0 -281557751.73292542 -1103481999.6583786 0 -1103481999.6583786 -300405726.62867641 0 0 0 0 35068663.346355587 35707227.504184283 0 35707227.504184283 -63670120.45708409 0 0 0 0 58366947.038551331 375128994.46542358 0 375128994.46542358 470209359.23596191 0 0 0 0 -119374694.03134155 -32848376.52038765 0 -32848376.52038765 -195458250.70044518 0 0 0 0 13647127.254919052 20011565.51934433 0 20011565.51934433 238099521.68363953 0 0 0 0 180627159.68613243 271022502.14433289 0 271022502.14433289 99189769.553218842 0 0 0 0 -87673432.693244934 -61801154.913890839 0 -61801154.913890839 -91152556.790100098 0 0 0 0 -90863396.460582733 -62618114.262079239 0 -62618114.262079239 -48011698.014762878 0 0 0 0 -72379187.492835999 -79857374.927253723 0 -79857374.927253723 -83459738.079246521 0 0 0 0 -46843909.898180008 -80553351.46355629 0 -80553351.46355629 -171021980.53006744 0 0 0 0 -18838388.764858246 -48325926.502326965 0 -48325926.502326965 -178209187.20548248 0 0 0 0 -25690950.385550499 -85140560.780611515 0 -85140560.780611515 -260019899.71163559 0 0 0 0 -90025128.614477634 -136528996.85000181 0 -136528996.85000181 -205861951.68804169 0 0 0 0 -3498203.7191108577 -7853229.6760731507 0 -7853229.6760731507 -11729055.505248848 0 0 0 0 -188007988.33841133 -137620692.89040756 0 -137620692.89040756 -91650102.692286491 0 0 0 0 88282870.738674164 43561883.254989624 0 43561883.254989624 -45067598.06047821 0 0 0 0 -75144720.815917969 -38631317.646324158 0 -38631317.646324158 -33866958.652568817 0 0 0 0 55858926.284332275 1306956.7519226074 0 1306956.7519226074 31555503.418800354 0 0 0 0 53682839.847259521 -19674553.898971558 0 -19674553.898971558 24502798.831371307 0 0 0 0 52202074.725662231 -26742481.745834351 0 -26742481.745834351 1963774.8653869629 0 0 0 0 58667632.153717041 12762851.070922852 0 12762851.070922852 -14884687.77897644 0 0 0 0 55695057.389862061 24217078.498626709 0 24217078.498626709 13996872.283218384 0 0 0 0 58663516.638160706 25837168.122657776 0 25837168.122657776 1057045.6927337646 0 0 0 0 27472367.406353533 -8384757.891273737 0 -8384757.891273737 -74082072.943191528 0 0 0 0 61702808.554191589 12140044.355621338 0 12140044.355621338 -43151187.409225464 0 0 0 0 27504390.453384399 -6868094.1221313477 0 -6868094.1221313477 -13298995.133865356 0 0 0 0 51559233.419448853 -18683862.795158386 0 -18683862.795158386 -41554271.412002563 0 0 0 0 -20716833.640684128 2798038.1283531189 0 2798038.1283531189 -59153696.466064453 0 0 0 0 -11902494.039176941 16412980.256759644 0 16412980.256759644 -44616781.112312317 0 0 0 0 -11110421.864919662 32924453.320394516 0 32924453.320394516 -58662815.747238159 0 0 0 0 32380499.442855835 -2413506.7768173218 0 -2413506.7768173218 -39866906.175216675 0 0 0 0 -8656631.8345069885 25612786.879047394 0 25612786.879047394 -39621965.191790551 0 0 0 0 -60533704.858112335 -56413856.06999588 0 -56413856.06999588 34672176.617031097 0 0 0 0 104822216.38448048 -34031778.964562893 0 -34031778.964562893 -34226614.940307617 0 0 0 0 -73547158.283119202 -1322642.220664978 0 -1322642.220664978 50742497.244606018 0 0 0 0 -137083880.32515335 -22229185.891242981 0 -22229185.891242981 44227013.225429535 0 0 0 0 -105750222.22365952 -8007428.0650177002 0 -8007428.0650177002 29809346.449707031 0 0 0 0 -123728638.15401602 -86070683.739898205 0 -86070683.739898205 -39979935.042625427 0 0 0 0 -1369501.8054053849 -1211206.1091389339 0 -1211206.1091389339 1236006.6852083802 0 0 0 0 -136186336.02113533 -110453842.03235435 0 -110453842.03235435 -237035772.4405365 0 0 0 0 -114152683.03295898 64417637.131954193 0 64417637.131954193 -52544670.914726257 0 0 0 0 -32439463.251722336 51879952.059642792 0 51879952.059642792 -164837183.59264374 0 0 0 0 -191499854.29723167 93380549.201141357 0 93380549.201141357 252466908.41529846 0 0 0 0 -182994124.61325741 -49887247.7625103 0 -49887247.7625103 -15728462.804462433 0 0 0 0 -965218.438550408 -1776888.6297682468 0 -1776888.6297682468 446909.83490601555 0 0 0 0 -65558834.572147369 -91524191.714565277 0 -91524191.714565277 -143715477.14246559 0 0 0 0 -88249128.246002197 -624764.33557891846 0 -624764.33557891846 -1468811.3468093872 0 0 0 0 -53208872.739744186 -7798793.9466619492 0 -7798793.9466619492 19756367.629585266 0 0 0 0 -21792491.768354416 -22033268.685668945 0 -22033268.685668945 -861468.2267074585 0 0 0 0 -44102112.838726044 -31152364.464878082 0 -31152364.464878082 34607083.267250061 0 0 0 0 36507860.330589294 -43491079.858844757 0 -43491079.858844757 -19760139.350868225 0 0 0 0 27536167.705062866 -61460287.49420166 0 -61460287.49420166 -41120642.592590332 0 0 0 0 -37122527.059082985 -81050899.195301056 0 -81050899.195301056 -56691408.219100952 0 0 0 0 -5492874.1370773315 -44471907.511398315 0 -44471907.511398315 -16812830.07383728 0 0 0 0 9570810.8947219849 -50806402.972648621 0 -50806402.972648621 -60943293.064306259 0 0 0 0 -23405559.714403152 -27447491.56643486 0 -27447491.56643486 -50378722.769813538 0 0 0 0 20187810.901515961 -31296714.367462158 0 -31296714.367462158 -29809940.147781372 0 0 0 0 53866633.721504211 -27321485.244369507 0 -27321485.244369507 -38988242.931858063 0 0 0 0 -2299427.866060257 -6231655.4798049927 0 -6231655.4798049927 -5265609.5206298828 0 0 0 0 -1288167.3315500263 -9714716.3697584309 0 -9714716.3697584309 -16245694.993234774 0 0 0 0 73441184.058507919 -24513160.495204926 0 -24513160.495204926 -26968388.309654236 0 0 0 0 61743458.404312134 -41947097.577270508 0 -41947097.577270508 -22925400.324066162 0 0 0 0 -7905622.6260936093 -2561728.6240537893 0 -2561728.6240537893 -4565214.6467516273 0 0 0 0 -42922796.901306152 -23274981.688240051 0 -23274981.688240051 -54092630.575778961 0 0 0 0 -16447755.101320948 -10257797.440179603 0 -10257797.440179603 -6640968.1722139334 0 0 0 0 48753552.127422333 -33639373.261138916 0 -33639373.261138916 -4713518.8303375244 0 0 0 0 28839204.661481857 126535699.80619025 0 126535699.80619025 383378682.44048309 0 0 0 0 -9555986.4396476746 20782949.764704704 0 20782949.764704704 340574835.21867466 0 0 0 0 29668131.648790359 -60656491.651927948 0 -60656491.651927948 -11981214.943595886 0 0 0 0 -16254583.90866483 -17193233.473428618 0 -17193233.473428618 -17083353.816427618 0 0 0 0 -29578547.905244827 -22827248.496293783 0 -22827248.496293783 -50745821.85439682 0 0 0 0 -2510325.9955824101 -7136555.1968896743 0 -7136555.1968896743 -4017067.4464251343 0 0 0 0 -13025879.745295241 -3798912.9167748205 0 -3798912.9167748205 -214939.26068285853 0 0 0 0 -29180976.431787491 -170227205.15543032 0 -170227205.15543032 24899800.840582967 0 0 0 0 -14514395.080138968 -1132907.5731037189 0 -1132907.5731037189 -4506967.2082993686 0 0 0 0 -31488887.110862732 -29037619.907329559 0 -29037619.907329559 -26931226.541252136 0 0 0 0 -60953529.866271973 -51885590.799518585 0 -51885590.799518585 -34396883.836668015 0 0 0 0 -60071871.198085785 -30946464.46298027 0 -30946464.46298027 -57658085.870864868 0 0 0 0 -91833090.887130737 -9437856.8824615479 0 -9437856.8824615479 12625539.317935944 0 0 0 0 -44336589.959281921 -36890423.799898148 0 -36890423.799898148 -18159535.110439301 0 0 0 0 -33503499.242254734 5790229.3714705706 0 5790229.3714705706 -9604448.7077255249 0 0 0 0 -40103561.940011501 -51524527.554003239 0 -51524527.554003239 -77755955.112640381 0 0 0 0 -4393991.6638845112 794133.18025670387 0 794133.18025670387 3435177.9911980592 0 0 0 0 -3286475.899518013 -6428251.0077972412 0 -6428251.0077972412 22364883.342506409 0 0 0 0 -3845553.1355854692 -7994518.5504263872 0 -7994518.5504263872 -4835038.6075047553 0 0 0 0 6408168.3676042557 24547021.686319351 0 24547021.686319351 -43585355.969561577 0 0 0 0 48120764.170405388 -23154452.936782837 0 -23154452.936782837 -28359024.749988556 0 0 0 0 -8467137.7499465942 10280583.937812805 0 10280583.937812805 55201067.363643646 0 0 0 0 63670492.414989471 71853939.572086334 0 71853939.572086334 9024540.6045722961 0 0 0 0 -20243843.426604271 -19330395.184733868 0 -19330395.184733868 -5743498.160697937 0 0 0 0 36158389.35926342 1121326.2466182709 0 1121326.2466182709 -16335984.809715271 0 0 0 0 2258943.7531982074 1108605.6621996984 0 1108605.6621996984 -1039891.5702259243 0 0 0 0 31094456.753097534 -2770468.5832901001 0 -2770468.5832901001 -6168803.884262085 0 0 0 0 28278026.076568604 -73150546.906848907 0 -73150546.906848907 43649242.803676605 0 0 0 0 -27788442.129493713 64332237.164909363 0 64332237.164909363 -69751534.372791767 0 0 0 0 61823681.372504711 -19048573.783778191 0 -19048573.783778191 -78142546.74822998 0 0 0 0 50592176.042943954 -49860934.426353455 0 -49860934.426353455 -115590162.81725693 0 0 0 0 -38105835.291135788 -28182068.913337708 0 -28182068.913337708 -14051265.828605652 0 0 0 0 -1408455.1252874164 -90412.200839366764 0 -90412.200839366764 1436519.2400421239 0 0 0 0 -80742407.327384949 18886115.54214859 0 18886115.54214859 33598306.462165833 0 0 0 0 23213349.925285578 -123963653.32937622 0 -123963653.32937622 82813533.980270386 0 0 0 0 18665258.851621628 -18321428.40760994 0 -18321428.40760994 -25384132.944396973 0 0 0 0 5610135.8549556732 828729.24085235596 0 828729.24085235596 81159011.450529158 0 0 0 0 -2132177.8700845176 -219861.87220233493 0 -219861.87220233493 2319626.9850506 0 0 0 0 -10428838.822638035 -34007885.955825806 0 -34007885.955825806 79086964.539554596 0 0 0 0 108302784.76865053 -96872670.91746521 0 -96872670.91746521 44916676.931983948 0 0 0 0 46546699.416103363 14842331.822887421 0 14842331.822887421 -44571820.888189316 0 0 0 0 -40792606.05074501 -56351605.437665939 0 -56351605.437665939 11924678.061149597 0 0 0 0 -34354497.944957733 27210687.044307709 0 27210687.044307709 -5881369.8043842316 0 0 0 0 -2121430.688266864 -1858855.6539123524 0 -1858855.6539123524 1958342.0471532419 0 0 0 0 -82098609.938767433 59774909.153184891 0 59774909.153184891 26236804.129425049 0 0 0 0 41694025.577646255 -10608204.650947571 0 -10608204.650947571 -132727138.99700928 0 0 0 0 -2294867.2973748948 -4125568.3122082278 0 -4125568.3122082278 555920.97319347784 0 0 0 0 -40300500.324104309 -10835350.900705338 0 -10835350.900705338 28147289.027008057 0 0 0 0 33095661.589142799 -3915045.1098098755 0 -3915045.1098098755 47260711.548564911 0 0 0 0 -43770510.704334736 -11348677.326750755 0 -11348677.326750755 70198810.1015625 0 0 0 0 -25731245.422915459 27111470.835538864 0 27111470.835538864 41721415.886749268 0 0 0 0 -417819.78079082398 -294257.17136613093 0 -294257.17136613093 980690.78398954868 0 0 0 0 86054409.840982556 -111696406.21229315 0 -111696406.21229315 92866566.615383148 0 0 0 0 -14263385.82640624 -37742540.058431625 0 -37742540.058431625 99161288.822143555 0 0 0 0 26174939.033829451 -2493551.6068477631 0 -2493551.6068477631 -17925257.293895721 0 0 0 0 178758754.7790432 -13683227.825535774 0 -13683227.825535774 -71685133.405838013 0 0 0 0 -4798498.9040486123 -8561265.4615153447 0 -8561265.4615153447 -3263240.2348488644 0 0 0 0 -123846080.55421352 -91138804.536445618 0 -91138804.536445618 24140061.732374191 0 0 0 0 -225978091.64719832 -282781049.11317062 0 -282781049.11317062 -116655920.71389771 0 0 0 0 -520213313.45077276 -289389438.7730217 0 -289389438.7730217 142161416.9321785 0 0 0 0 -84879361.744273663 -205591257.24305153 0 -205591257.24305153 -107254248.92562103 0 0 0 0 161941171.2657032 6570269.1996192932 0 6570269.1996192932 -90790624.540534973 0 0 0 0 -81307784.424930573 -174216349.60473251 0 -174216349.60473251 -215414821.80921173 0 0 0 0 28818.490304729901 897541.85938104242 0 897541.85938104242 457097.27827799506 0 0 0 0 343934549.65215683 135972148.71643066 0 135972148.71643066 -280513673.19381428 0 0 0 0 16919502.174363613 70932162.286090851 0 70932162.286090851 126228674.86940002 0 0 0 0 92262461.757796288 137734314.54763412 0 137734314.54763412 92740488.852874756 0 0 0 0 -102920881.91779089 -61819006.418712616 0 -61819006.418712616 152619818.69618988 0 0 0 0 -193421980.31934738 536152793.55281067 0 536152793.55281067 -56475426.496292114 0 0 0 0 -518023302.25684166 250958961.17110443 0 250958961.17110443 88703485.074806213 0 0 0 0 83619227.195554733 49754236.587104797 0 49754236.587104797 -14414740.717453003 0 0 0 0 104796082.66695786 -6666008.7740478516 0 -6666008.7740478516 12491973.912147522 0 0 0 0 169455166.99336433 47235548.024808884 0 47235548.024808884 -26500040.767486572 0 0 0 0 -420898.16607751232 852812.04223064333 0 852812.04223064333 12598.749760434031 0 0 0 0 -26546416.290892124 420029.01912784576 0 420029.01912784576 18218373.031814575 0 0 0 0 -393476746.03632069 201113739.54262924 0 201113739.54262924 62236236.714035034 0 0 0 0 -1013888572.1577333 -5730156.5804347992 0 -5730156.5804347992 -635447.82517337799 0 0 0 0 -878831529.90926313 542889393.21031761 0 542889393.21031761 -22675572.662010193 0 0 0 0 -279351697.24408007 367448503.6628418 0 367448503.6628418 -890665201.15143585 0 0 0 0 -512277633.8967067 -254953375.64910889 0 -254953375.64910889 -644294139.40283203 0 0 0 0 -2290713.5373736951 -1299001.319952663 0 -1299001.319952663 -792353.01552379131 0 0 0 0 -458172459.79726499 611618294.00217628 0 611618294.00217628 -1317148385.6355515 0 0 0 0 -704763926.70374501 -478803230.45561886 0 -478803230.45561886 166771869.98450851 0 0 0 0 -294420546.85564232 -574054578.87016678 0 -574054578.87016678 -720088641.04118919 0 0 0 0 -468813420.77713192 -181628007.13267899 0 -181628007.13267899 233747106.25046158 0 0 0 0 -4662323.8916974952 -3486075.1112627098 0 -3486075.1112627098 -3890263.2134840004 0 0 0 0 -381062504.55067778 495813895.33815193 0 495813895.33815193 -522958277.59374237 0 0 0 0 33360454.105581045 314733336.6748333 0 314733336.6748333 -322931908.30869293 0 0 0 0 -376224092.80108976 250957372.563797 0 250957372.563797 -376419215.27713776 0 0 0 0 -56998221.765886307 182253071.54600525 0 182253071.54600525 -517113203.00391358 0 0 0 0 81658253.335459709 -40265059.645959854 0 -40265059.645959854 -217091610.79386902 0 0 0 0 -77797075.826569319 170439201.15707016 0 170439201.15707016 -361514879.66766357 0 0 0 0 153794266.18727207 6999507.7317123413 0 6999507.7317123413 -376731054.41116714 0 0 0 0 64859257.424139977 108642583.39323807 0 108642583.39323807 -428146042.51337051 0 0 0 0 361708439.58274174 -44995336.888290405 0 -44995336.888290405 -360152713.29332924 0 0 0 0 98372649.241965175 -166858367.43745041 0 -166858367.43745041 -199954605.79561615 0 0 0 0 70141146.391430378 -83140380.258792877 0 -83140380.258792877 -225523504.60011292 0 0 0 0 36651350.24892664 -135198933.01708984 0 -135198933.01708984 -183359833.32972717 0 0 0 0 71733743.225306749 -114156782.24451256 0 -114156782.24451256 -175244873.56506348 0 0 0 0 36555233.270751476 -127710820.12380219 0 -127710820.12380219 -121829480.83880234 0 0 0 0 53351096.865973949 -63678465.200881958 0 -63678465.200881958 -143768640.60883713 0 0 0 0 -123884672.74834061 -235702827.22744751 0 -235702827.22744751 -146926455.73217487 0 0 0 0 -1232628.1937256001 -570975.64689535461 0 -570975.64689535461 1387164.0856298804 0 0 0 0 60043762.443419456 888862589.05718994 0 888862589.05718994 -909055056.92422485 0 0 0 0 -37943029.441440582 -212624343.99854279 0 -212624343.99854279 -2793417.9005126953 0 0 0 0 456149291.4647826 -65676074.269307137 0 -65676074.269307137 -90337581.551330566 0 0 0 0 882332.06596977729 -553521.14646808803 0 -553521.14646808803 -2609526.3034196924 0 0 0 0 35577948.554389715 -234217589.78112793 0 -234217589.78112793 -219632933.94335175 0 0 0 0 392015019.76824999 62636654.016784668 0 62636654.016784668 15945881.14087677 0 0 0 0 -369487.99172901455 -5931996.8047617562 0 -5931996.8047617562 -8492558.6734354794 0 0 0 0 303306407.17607021 -16471030.394134521 0 -16471030.394134521 -27921812.411991119 0 0 0 0 273715017.53047991 -176295167.24703979 0 -176295167.24703979 -142375053.95825195 0 0 0 0 1260921.0707130432 -3012682.7209014893 0 -3012682.7209014893 -20123877.928848267 0 0 0 0 989170.47743085027 -3927302.6009674072 0 -3927302.6009674072 -16836763.285507202 0 0 0 0 2236512.3937740326 -2553778.5756561756 0 -2553778.5756561756 -19923876.923019409 0 0 0 0 -28637465.638512135 -204389890.14695358 0 -204389890.14695358 -411628578.95575333 0 0 0 0 12097177.384814978 215733857.48567963 0 215733857.48567963 -654947940.3702774 0 0 0 0 57343819.03342104 -40123990.565273285 0 -40123990.565273285 -121635668.60061646 0 0 0 0 416585054.76387739 -164206686.81560135 0 -164206686.81560135 -328984381.78210068 0 0 0 0 494864083.44911575 -142647984.90290833 0 -142647984.90290833 -160648298.84349823 0 0 0 0 11530469.975822449 -90570301.097419739 0 -90570301.097419739 -104421804.96346283 0 0 0 0 286614952.90281248 -324264022.08058929 0 -324264022.08058929 150452604.72665405 0 0 0 0 -207180603.57657337 -92078656.840805054 0 -92078656.840805054 -54657542.436515808 0 0 0 0 -372011475.54215634 31905016.187650681 0 31905016.187650681 -80574349.697883606 0 0 0 0 -47390883.485878706 71567165.720607758 0 71567165.720607758 91591025.715835571 0 0 0 0 -126315062.1436772 -100784172.60861206 0 -100784172.60861206 109123051.40278244 0 0 0 0 -792941.20203573396 331783.78887024149 0 331783.78887024149 1338173.1770683974 0 0 0 0 509372166.73317361 -296227781.98865819 0 -296227781.98865819 151520174.1529541 0 0 0 0 -1141657.1231324349 -5338107.8323519472 0 -5338107.8323519472 -7778505.8501072638 0 0 0 0 -7066227.786072731 9662039.5726394653 0 9662039.5726394653 -24750612.950164795 0 0 0 0 -24794968.31655097 20744002.114456177 0 20744002.114456177 -32419728.453399658 0 0 0 0 -8033850.4399728775 9039795.9591217041 0 9039795.9591217041 -24964481.947563171 0 0 0 0 517258202.28282523 -154441719.80848312 0 -154441719.80848312 211460411.76856995 0 0 0 0 544489494.67853713 -748836827.86657333 0 -748836827.86657333 123862952.67239809 0 0 0 0 4553036.4367692471 -1368400.3300018311 0 -1368400.3300018311 -20727360.395935059 0 0 0 0 8077385.4284543991 -438291.16617584229 0 -438291.16617584229 -24932298.370328903 0 0 0 0 1995566.5951976776 1857732.9662818909 0 1857732.9662818909 -24238935.697753906 0 0 0 0 -7896181.8957808018 6984364.9405822754 0 6984364.9405822754 -22098661.443008423 0 0 0 0 -1779035.7948536873 653749.9690284729 0 653749.9690284729 -17122522.285873413 0 0 0 0 10479004.856254101 7015772.3160476685 0 7015772.3160476685 -41224452.050621033 0 0 0 0 -4764034.6293542385 12260701.438251495 0 12260701.438251495 -31914646.6512146 0 0 0 0 2807460.2018659115 3662922.4072151184 0 3662922.4072151184 -27932345.450286865 0 0 0 0 3678016.7134056091 5183795.3582611084 0 5183795.3582611084 -26426228.479728699 0 0 0 0 14912928.160282135 -1503652.5111465454 0 -1503652.5111465454 -31970614.959373474 0 0 0 0 11834499.772959709 -7238519.3501586914 0 -7238519.3501586914 -24176108.90196228 0 0 0 0 5717693.7143235207 -2915217.5217056274 0 -2915217.5217056274 -23994518.599853516 0 0 0 0 10191888.425433427 -5014389.7823052406 0 -5014389.7823052406 -26285530.059799194 0 0 0 0 16110565.872075379 -9355783.6959371567 0 -9355783.6959371567 -27821973.876800537 0 0 0 0 17808633.00894165 -15555430.039245605 0 -15555430.039245605 -18707478.341415405 0 0 0 0 29138387.348227501 -10204492.942108154 0 -10204492.942108154 -39020924.317749023 0 0 0 0 9000706.5657396317 2516929.7746658325 0 2516929.7746658325 -34200935.749420166 0 0 0 0 5595055.1802549362 6451281.1568222046 0 6451281.1568222046 -38799675.093910217 0 0 0 0 19423590.833670497 4751129.3400421143 0 4751129.3400421143 -55264938.790847778 0 0 0 0 41517157.830771923 -16636147.912414551 0 -16636147.912414551 -42622851.781455994 0 0 0 0 32944865.099607706 -21876547.065994263 0 -21876547.065994263 -43731223.662582397 0 0 0 0 -3203349.1330198934 -14760964.17277452 0 -14760964.17277452 -25803579.659888595 0 0 0 0 45121342.821417093 -40415015.563983917 0 -40415015.563983917 -27610072.490036011 0 0 0 0 220589880.98757124 -236026395.81315613 0 -236026395.81315613 83693607.190109253 0 0 0 0 -1984282.4657504652 -4843470.3743196465 0 -4843470.3743196465 -6068816.8862141892 0 0 0 0 -24909632.909971237 26342395.597297668 0 26342395.597297668 -51952690.274261475 0 0 0 0 -23176540.269013405 13321654.584770203 0 13321654.584770203 -57447740.325500488 0 0 0 0 4073688.556201458 15343538.742149353 0 15343538.742149353 -55105337.892700195 0 0 0 0 -18345886.102311134 23928545.540229797 0 23928545.540229797 -57898038.450363159 0 0 0 0 20165297.397714972 -47570927.842948914 0 -47570927.842948914 -59739610.480537415 0 0 0 0 24058952.585504562 3910873.8404054642 0 3910873.8404054642 -92506403.139785767 0 0 0 0 -94051699.440896273 92493962.577941895 0 92493962.577941895 -135044816.61104584 0 0 0 0 10781765.643494844 -23359196.015205383 0 -23359196.015205383 -114243516.34020996 0 0 0 0 6827966.3462201357 -57125279.072826385 0 -57125279.072826385 -203276129.71517944 0 0 0 0 -47967591.606447458 -54245562.553070068 0 -54245562.553070068 -162310324.90985775 0 0 0 0 -3189352.8585994071 -3598300.2380768117 0 -3598300.2380768117 -1994228.1296693981 0 0 0 0 220724487.40353298 -134249202.30297852 0 -134249202.30297852 -873573802.57457542 0 0 0 0 -72383515.28782618 237952395.15870667 0 237952395.15870667 -523786304.64743042 0 0 0 0 1464876679.4390223 -886300971.16643524 0 -886300971.16643524 30487083.928207397 0 0 0 0 -88690791.814181805 -1060247182.6227875 0 -1060247182.6227875 240649326.30137539 0 0 0 0 -2236612.3574591135 605979.12481865287 0 605979.12481865287 2820163.1132710427 0 0 0 0 433028376.22227943 370177598.00580835 0 370177598.00580835 63035376.372070312 0 0 0 0 -2025457031.9570951 549841360.03846741 0 549841360.03846741 567323119.6400528 0 0 0 0 -544035818.42945862 1024071133.047081 0 1024071133.047081 315476653.90477753 0 0 0 0 -3564859369.7388153 -2546044871.9284058 0 -2546044871.9284058 -3348384764.3850098 0 0 0 0 -2354387.8914070125 353009.30546563864 0 353009.30546563864 2331654.5408160314 0 0 0 0 -176150186.23479071 755377768.12148738 0 755377768.12148738 431785906.09115601 0 0 0 0 111572590.18487453 844177245.30556107 0 844177245.30556107 -804081592.54566956 0 0 0 0 790296461.85193062 725748513.73034668 0 725748513.73034668 -307483638.64385986 0 0 0 0 760193907.51917481 851059577.5571785 0 851059577.5571785 645939496.0887146 0 0 0 0 -95302492.976831436 -539959132.96348572 0 -539959132.96348572 831177438.00253296 0 0 0 0 -34404628.712615967 -607697339.89796448 0 -607697339.89796448 -312783283.01826096 0 0 0 0 1881527693.2207489 3440610288.2793732 0 3440610288.2793732 840797171.19471741 0 0 0 0 -495214722.95446777 -1225902582.7079697 0 -1225902582.7079697 -1041740790.3825989 0 0 0 0 -1652472575.1288676 452096529.62058163 0 452096529.62058163 -375065167.67675781 0 0 0 0 -6568566.153811723 981106.35200936347 0 981106.35200936347 -6707703.1710289791 0 0 0 0 -343555307.23764229 -733529000.44545746 0 -733529000.44545746 -1917836711.5965977 0 0 0 0 266114131.56111908 834862821.99571228 0 834862821.99571228 -1515223450.6922359 0 0 0 0 -385918268.61981583 50247557.845781326 0 50247557.845781326 -368491402.2102356 0 0 0 0 -897508785.93134594 -305407040.9658699 0 -305407040.9658699 -247458444.37749481 0 0 0 0 113212134.14547825 -91102744.632667065 0 -91102744.632667065 -1085591050.7242737 0 0 0 0 -311230790.63823318 -454051326.90848541 0 -454051326.90848541 -930009867.13885498 0 0 0 0 -2145830263.9320602 -1002019274.9186592 0 -1002019274.9186592 -512435451.13937378 0 0 0 0 -795779281.02341652 -49481643.529560089 0 -49481643.529560089 -21037293.234798431 0 0 0 0 -683401028.7324295 142915478.02286911 0 142915478.02286911 162209468.51604462 0 0 0 0 -1266101146.0786648 111946264.78196335 0 111946264.78196335 203933116.80299377 0 0 0 0 -519580707.02003956 329145938.54836845 0 329145938.54836845 198440810.5983963 0 0 0 0 -487980789.379673 -153508091.4029007 0 -153508091.4029007 -67687383.044967651 0 0 0 0 -448996790.27492523 10874150.181129456 0 10874150.181129456 -35020860.104125977 0 0 0 0 -318228446.92654228 42512900.76285553 0 42512900.76285553 -48943952.647089005 0 0 0 0 -339194952.0904789 -115667468.2875824 0 -115667468.2875824 -74298819.665139198 0 0 0 0 -327538639.38717842 172649985.5603447 0 172649985.5603447 200765228.28409195 0 0 0 0 -332136241.71515179 150771851.12599945 0 150771851.12599945 152148484.35463715 0 0 0 0 -402333108.84926319 386269984.12963867 0 386269984.12963867 93549788.922405005 0 0 0 0 -518422085.45147014 254471187.19381332 0 254471187.19381332 86649331.883590698 0 0 0 0 -502110027.38866425 368460985.33542633 0 368460985.33542633 157336268.59064484 0 0 0 0 -129513360.11603785 287220564.23660278 0 287220564.23660278 62671183.650772095 0 0 0 0 -92449522.457925081 42616546.642646313 0 42616546.642646313 37601462.775314331 0 0 0 0 -485875949.81020451 60552499.154556274 0 60552499.154556274 84582155.348388672 0 0 0 0 158277383.64101124 103044346.94200897 0 103044346.94200897 4431200.6493988037 0 0 0 0 -233144184.33132839 148031476.84820175 0 148031476.84820175 -312895.98336029053 0 0 0 0 258512218.07761383 560702672.31002808 0 560702672.31002808 -33629160.646263123 0 0 0 0 -459398456.17667484 503591626.81498146 0 503591626.81498146 11333590.084075928 0 0 0 0 -571856864.62937164 383437618.48074341 0 383437618.48074341 155277293.32304382 0 0 0 0 
</DataArray>
<DataArray type="Float64" Name="cross_section_updated" format="ascii">
1 1 1 1 1 0.050488820810551498 1 1 1 1 1 1 1 0.04468496248377142 1 1 1 1 0.036604382846880695 1 1 0.045952658766055858 1 1 1 1 0.021055702006353136 1 1 1 1 0.052641330390907161 1 1 1 1 1 1 1 1 1 1 1 1 1 0.049472773177213533 1 1 0.050079389427226562 1 1 1 1 1 0.045859599100529155 1 1 1 1 1 1 1 0.0226929775068066 1 1 1 1 0.051399086059417703 1 1 1 1 1 1 1 1 1 0.052714206734994828 1 1 0.050887602658705677 1 1 0.048743532628312158 1 1 1 1 0.043113253543745525 1 1 1 1 1 1 1 0.050119128497315972 0.050015233308632445 0.049812058676096324 1 1 0.050223455174093254 1 1 1 1 1 0.050002369107315911 1 1 1 1 1 1 1 1 1 1 1 1 1 0.04997378301189466 1 1 1 0.044569248425884722 1 1 1 1 1 1 0.047648388080320687 1 1 1 1 1 1 1 1 1 1 1 1 1 1 1 1 1 1 1 1 1 1 1 1 1 0.050194281011796731 1 1 1 0.048150088791909948 1 1 0.048556116248784517 1 1 1 1 1 1 1 1 1 1 1 0.048046950692231243 1 1 1 1 1 1 1 1 0.045341553434731084 1 1 1 1 1 1 1 1 0.044700780104155673 1 1 1 1 1 1 1 1 1 0.049363842452121581 1 1 1 1 1 1 1 1 1 1 1 1 1 1 1 1 1 1 1 1 1 1 1 0.050004164984514425 1 1 1 0.024830812559369635 1 0.050092691756208861 1 0.033687029648598633 1 1 0.047124232305883605 1 1 1 0.043173676753617191 1 0.052565570541926586 1 0.051382587597522719 1 0.034034480741178763 0.051550706026027557 1 0.050859143199710612 1 1 0.051232800731903068 1 0.049377681612160516 1 1 1 0.042619820573275104 1 0.043956599777567371 0.049791823282620343 1 1 0.049499627148216915 1 1 1 0.045874359633667941 1 0.049843839664851265 0.048367770597862611 0.048234579236565781 1 0.049838906263945611 1 1 1 0.049951349376869805 1 0.04752775823551969 0.046323782652602737 0.050693785071151368 1 1 0.047806908601185284 0.046597802089298583 1 1 1 1 0.043658608189245905 1 0.050578095507728446 1 1 0.045624101158917629 1 1 1 0.049547863334674029 1 0.047677099926622182 0.048353936331282363 0.049186661722141575 1 1 1 0.050737217660001749 1 0.046874141020521981 0.043197998579259989 0.051417490863504667 0.048358449951217408 1 1 1 0.042705867151186371 0.049999875202745611 1 1 0.047613366858387726 0.044371312342947208 0.051166929563227159 1 0.051655413234985806 1 1 1 1 0.049992017343099729 1 1 1 1 1 1 1 0.049182242611882726 1 1 1 1 1 1 0.046307911450803318 0.049998782138309661 1 1 1 0.049781075292808313 1 1 1 0.049933847605867006 1 0.051025128446425233 1 0.054871884590111712 0.035569375774140065 1 1 1 1 0.051276897857763133 1 1 0.036757957679704051 1 1 1 1 0.049963620884932447 1 0.050018338890326836 1 1 1 1 1 0.043746509049275698 0.043244930955719914 1 1 1 1 1 1 1 1 0.049308987428426744 1 1 1 0.051094713040288765 1 1 0.03792389100350007 1 0.050009112279702436 1 1 1 1 1 1 1 1 1 1 1 0.038372498264775151 1 0.047334121132379212 1 0.039669345989497728 1 1 1 0.048251451692723851 1 0.049985633505840857 1 0.047264058469074909 1 1 1 1 1 1 0.042586775924698686 1 0.040484989059784593 1 1 1 0.042269068426108024 1 1 1 0.034717847803958257 1 0.046173427377966127 0.047484668628203865 1 1 1 1 0.034197088123738437 1 1 1 1 0.042817171308166535 0.047089278370391702 1 1 0.051775342548291678 1 0.044193144994268824 1 0.050894344078949383 0.051039609255598431 1 1 1 0.049881474518918334 1 1 1 1 0.040629133981490997 1 1 1 1 1 1 1 1 1 1 1 0.049996106066636355 1 1 1 1 0.046669308970154262 1 1 1 0.04500986724681133 1 0.046098683809940734 0.042987931822339759 0.050002315343730327 1 1 1 0.043214844840735803 0.028207081545855411 1 0.026908309753814898 1 1 0.0504324053272798 1 1 1 1 0.025677619570268387 1 1 1 1 1 1 1 1 1 1 1 0.02458558384756751 0.027817021785660714 1 1 0.044786097729016629 1 1 1 0.049981729943015453 1 1 1 1 1 1 0.017837868335367848 1 1 1 0.058379326266929855 1 1 1 0.038279769478179959 1 1 1 1 1 1 1 1 1 1 1 0.018889585889951405 1 1 1 0.020215474107244058 1 1 1 1 1 1 1 0.049560156767485888 1 1 1 1 1 0.048835155528409002 1 1 1 1 1 1 1 1 1 1 1 1 1 1 1 1 1 1 1 0.050638759792789187 1 1 1 1 0.050198955525648237 1 1 0.050002777486680083 1 1 1 1 1 1 1 0.049756879166448525 1 1 1 1 1 1 1 1 0.050004570192526784 1 0.049288118515765589 1 1 0.049813807092287048 1 1 1 0.050105300909698267 1 1 0.05108560460167566 1 1 1 0.044205939772486207 1 0.040689320863866271 1 1 0.049996798738741396 1 0.055210833678408511 1 1 1 1 1 1 1 1 1 1 1 1 1 1 1 1 1 1 1 1 1 1 0.049753837890751468 1 0.0502756563941789 1 0.050095894315166797 1 1 1 1 1 1 1 1 1 1 1 1 1 1 1 0.049875873683177557 1 1 1 1 1 1 1 1 1 0.049877964207573899 1 1 1 1 1 1 1 1 1 1 1 1 1 1 1 1 1 1 1 1 1 1 1 1 1 1 1 1 1 0.049996671159756659 1 1 0.050001394861241291 1 1 1 0.050295326635929408 0.047685088644694278 1 0.048285365647118772 1 1 1 1 1 0.049771597644486756 1 1 1 1 1 0.049261578580429913 1 1 1 1 1 1 1 1 1 1 1 1 1 1 1 1 1 1 1 1 1 1 1 1 1 1 1 1 1 1 1 1 1 1 1 1 1 1 1 1 1 1 1 1 1 1 1 1 1 0.050004815690804449 1 1 1 1 1 1 1 1 1 1 1 1 1 1 1 0.048915768089199722 1 1 1 1 0.049619943695335178 1 1 1 1 1 1 1 1 1 1 1 1 1 1 1 1 1 1 1 1 1 1 1 1 1 1 1 0.038706896715841363 1 1 0.046490114740736166 1 0.045325883410672903 0.049638889534476482 0.059579039742298834 0.026447380304303131 1 1 0.049960919273669802 1 1 1 1 1 1 1 1 1 1 1 1 1 1 1 1 1 0.045339548822884615 1 1 0.055391680474236316 1 0.04775912348944765 1 1 1 1 0.040064288236510016 1 0.050128948286087632 1 1 1 1 0.049725297681010659 1 1 1 0.042066541283729136 1 1 1 1 1 0.049617469744835725 1 0.05003616456577592 1 1 0.046421221942140656 0.043739774852886715 1 0.051514937869203054 1 1 1 1 1 1 1 1 1 1 1 0.021996979661895122 1 1 1 0.023447202999649655 1 1 1 0.047316368780893688 1 1 0.025241773731676721 0.050475509352836671 0.050153170718941778 1 1 1 1 1 1 1 1 1 1 1 0.049946544156076501 1 1 1 1 1 1 1 1 0.026740722895397598 0.034182623591972564 0.028314866322401697 1 1 1 1 1 1 1 1 0.036817778437269404 0.049934323651130624 1 1 1 0.051193715335517184 1 1 0.04815623428805306 1 1 1 1 1 1 1 1 1 1 1 0.049397928450160805 1 1 1 1 1 1 1 1 0.049828088052777011 1 1 1 1 1 1 1 1 1 1 0.050065879904876119 1 0.015380661203082693 0.056692616128018583 0.048692370953790129 1 1 1 1 1 1 1 0.023064879328317495 0.035428645451145081 1 0.048555740792022808 1 1 1 1 1 0.049819560515344447 1 0.050032200290633183 0.047834563195061533 1 1 1 0.048672984636453392 1 0.049541818754988212 1 1 1 1 0.049926926331292101 1 1 1 1 1 1 1 1 1 1 1 1 1 1 1 1 1 0.050744595251379573 1 1 1 0.048519265187249486 1 1 1 1 1 0.050253818655408164 1 1 1 1 1 1 0.048915317396432269 1 0.04958516283727922 1 1 1 1 1 1 1 1 0.049415081354545809 1 1 1 0.022697911049312312 1 1 1 1 1 1 1 1 1 1 1 1 1 1 1 1 1 1 1 1 1 1 1 1 1 0.048911410042005901 0.040689494160350323 0.041787680678475561 1 1 1 1 0.044283812655422763 1 1 1 1 0.045128320041967027 1 1 1 1 1 1 1 0.049878593703541869 1 1 1 1 1 1 1 1 0.049524926195832986 1 1 1 1 1 1 1 1 1 1 1 1 0.047917684999589386 1 1 1 1 1 1 0.050126323468033945 1 1 1 1 1 1 1 1 0.035755213655950011 1 1 1 0.044410135207454376 1 1 1 1 1 1 1 1 1 1 1 1 0.04964633249229114 1 1 1 1 1 1 1 1 1 1 1 1 1 1 1 1 1 1 1 1 1 1 1 1 1 1 1 1 1 1 1 1 1 1 1 1 1 1 1 1 1 1 1 1 1 1 1 0.049302135116163895 1 1 1 1 1 1 1 1 1 1 1 1 1 1 1 1 1 1 1 1 1 1 1 1 0.049681637624632582 1 1 1 1 1 1 1 1 1 1 0.050077860727985771 1 1 0.04913353649728535 1 1 1 1 1 1 1 1 1 0.050290789017994879 1 0.050539050075064415 1 1 1 1 0.048752877784952207 1 1 0.049930151968177239 1 0.049748841721316744 1 1 1 1 1 0.048769761549756672 1 1 1 1 1 1 1 1 0.051219195996643242 1 1 1 1 1 1 1 1 1 1 1 1 1 1 0.0482747648428586 1 0.049343166883962793 0.050025671816984127 1 1 1 1 1 0.049993398815222106 1 1 1 1 1 1 1 1 1 1 1 1 1 1 1 0.045278632273529448 1 1 1 1 1 1 1 1 1 1 1 1 1 1 1 1 0.047598649617783456 1 1 1 1 1 0.033873703560042157 0.049441866819534039 1 1 0.037578716682917047 1 1 1 1 1 1 1 1 1 1 0.04747275940569437 1 1 1 1 1 1 1 1 1 0.046430746483013527 1 0.012836462446927148 1 1 1 1 1 0.050744140982269037 1 1 1 1 0.0060045426915101077 1 1 1 0.052744083863319025 1 1 1 0.0084733277213917442 1 1 0.045592513018962763 1 1 1 1 1 1 1 1 1 1 1 1 1 1 1 1 0.048078674219110371 1 1 1 1 1 1 1 0.052092091617993469 1 1 1 1 1 1 1 1 1 1 1 1 1 1 1 1 1 1 1 1 1 1 1 1 1 1 1 0.037511170890574375 1 1 1 1 0.048552948997168298 1 1 1 0.019084841072808063 1 1 1 1 1 1 1 1 1 0.018630949454463433 1 0.050005316308907741 1 1 1 1 1 1 1 1 1 1 1 1 1 1 1 1 1 1 0.050030402233940043 0.040738356090565295 1 1 1 0.048927267651474281 1 1 0.043408225540530102 1 1 0.049467205506033937 1 1 1 0.04783839218961624 1 1 0.049621979795799111 1 1 1 1 1 1 1 1 1 1 1 1 1 1 1 1 1 1 1 1 0.045437041807399686 1 0.045015578507058535 1 1 1 1 1 1 1 1 1 1 1 0.036206017266961842 1 0.02899620792649462 1 1 1 0.011342728731819185 1 1 1 1 1 0.050153039155491616 1 1 1 1 1 1 0.064179290132897054 1 1 1 1 1 1 1 1 1 1 1 0.066517375556267952 1 1 1 1 1 1 1 1 0.013320208313771356 1 1 1 0.024508956899535812 1 1 0.069070742498892196 1 1 1 1 1 0.038745123452335661 1 1 1 1 1 1 1 1 1 0.049799839254448905 1 1 0.024086298213702909 1 0.036473895128129083 1 0.044370978649316023 0.037937803925731685 0.048583675505729673 1 0.050054447866779886 1 1 1 1 1 1 0.03017057884269006 1 1 1 1 1 1 0.049451249771757327 1 1 1 1 1 1 1 0.0360628217214767 1 1 1 1 0.042151695621023069 1 1 1 1 1 0.02611789495338164 1 0.050002304682625121 1 1 1 1 1 1 1 1 1 1 0.048607871789917087 1 1 1 1 1 1 1 0.032783664413236213 1 1 1 1 1 1 1 0.050003299605134124 1 0.048097256506363831 1 1 1 1 1 1 1 1 0.036390598490567222 1 1 1 0.020711232211589374 0.049922748845375065 1 1 1 1 1 0.038941786528937129 0.049929471856160999 1 0.041523501084738734 1 1 0.051094937925123221 1 1 0.03305180750765762 1 1 1 1 1 1 1 1 0.034788098213617225 1 1 1 1 1 0.0077158496224821807 1 1 1 1 0.01057577791863565 1 1 0.014973230521607305 1 1 1 1 1 1 1 1 1 1 1 1 1 1 1 1 1 1 1 1 1 1 1 1 1 1 1 1 1 1 1 1 1 1 1 1 1 1 1 1 1 0.049976836687527441 1 1 0.049743709727197737 1 1 1 1 1 0.048754649239698092 1 1 1 1 0.049560082281672309 1 1 1 1 1 1 1 1 1 1 1 1 1 1 1 1 1 1 1 1 1 1 1 1 0.048837938753837754 1 1 1 0.049469377486951391 1 1 1 1 1 1 0.049842178807646208 1 1 1 1 1 1 1 1 1 1 1 0.019302321173550914 1 0.040931176198511825 0.049346251319649974 1 1 0.040791304560741815 1 1 1 1 1 1 1 1 1 1 1 0.026288685789325913 1 1 0.046952957749534917 1 1 1 1 1 1 1 1 1 1 1 1 1 1 1 0.032244708314973169 1 1 1 1 1 1 1 0.050075901273134646 1 0.049281831272168716 1 1 1 1 0.034744207694243148 1 0.048352072263903159 1 1 1 1 1 1 1 1 1 0.04948848356765026 1 1 1 1 1 1 1 1 1 1 1 1 1 1 1 1 1 0.041376469141777152 1 1 1 1 1 1 1 1 1 1 1 1 1 1 1 1 1 1 1 1 1 1 1 1 1 0.049489875438083031 0.050059154997189416 1 1 1 1 1 1 1 1 1 1 1 0.048733114539530623 1 1 1 1 0.048768142911474618 1 1 1 1 0.048844833674624624 1 1 1 1 1 1 1 1 0.055313489147015504 1 1 1 1 1 1 1 1 1 0.051531363513944571 1 1 1 1 1 1 1 1 1 1 1 1 1 1 1 1 1 1 1 1 0.026694649219187079 1 1 1 1 1 1 1 1 1 1 1 1 1 1 0.021549981423238163 1 0.049808054849846163 1 1 1 1 1 1 1 1 0.02043066171181368 1 1 0.049650233657492368 1 1 1 1 1 1 1 1 1 1 1 1 1 1 1 1 1 1 1 1 1 1 1 1 1 1 1 1 1 1 1 1 1 1 1 1 0.049560147807695736 1 1 0.049881811028039708 1 1 1 1 0.041980347414680638 1 0.051935333906877365 1 1 0.052233506993294758 1 0.048177506578290862 1 1 1 1 1 0.049194178569049694 1 1 1 1 1 1 1 1 1 1 1 1 0.047044043275935178 1 1 1 0.041825858475043956 1 1 1 1 1 1 1 1 1 0.042500107948233751 1 1 1 1 0.043754971987967156 0.043516592631130988 1 1 1 1 1 1 1 1 0.049805163898892883 1 1 1 1 1 0.032151697005272865 1 1 1 0.032461494354488654 1 1 1 0.030246565991933639 1 1 1 1 0.022965912296578139 1 1 1 1 1 1 1 1 1 1 1 1 1 1 0.03609748114368258 1 1 1 1 1 1 0.041261211992356085 1 0.031054347426622872 0.049995454045017707 1 0.014690834064678644 1 0.048650231835155135 1 1 1 1 0.049735276280165656 1 1 1 1 0.049424140470915173 1 1 1 1 1 1 1 1 1 0.049175444058460027 1 1 1 1 1 1 1 1 1 1 1 1 1 1 0.048158772067701187 1 1 1 0.049610780971333937 1 1 1 0.048962203423685943 1 0.050003707937204919 1 1 1 1 1 1 1 1 1 1 1 1 1 1 1 1 0.048729151316782272 1 1 1 1 1 1 0.045931719539809478 1 1 1 1 1 1 1 1 1 1 1 1 1 1 1 1 1 1 0.041402132304594608 1 1 1 1 1 1 1 1 1 1 1 1 1 1 1 1 1 1 1 1 1 1 1 1 1 1 1 1 1 1 1 1 1 1 0.051451004065630766 1 1 1 1 0.050299945590856487 1 1 1 1 1 1 1 0.041517609084612023 1 1 1 1 1 1 1 1 1 0.051171045426638473 1 1 0.035252147508500142 1 1 1 1 1 0.050076100213836988 1 1 1 0.049236239477216427 1 1 0.044407919664368453 1 1 1 1 1 1 1 1 1 1 1 1 1 1 1 1 1 1 1 1 0.051766079245971305 1 1 1 1 1 1 1 1 1 1 0.03888778650022872 0.054224869700332169 1 0.037160879576647439 1 1 1 1 1 0.035418980669688793 1 1 1 1 0.043098525138972124 1 1 1 1 1 0.050136562601789503 1 0.050038594134569708 1 1 0.053012875843820403 1 1 1 1 1 1 1 1 0.05097351028571602 1 1 1 1 1 1 0.050009769081719696 1 1 1 1 1 1 0.050145778851070626 1 1 1 1 0.052332692346683002 1 1 0.045714966637602612 1 0.051927872640122545 1 1 0.049849478463144449 1 1 1 1 1 1 0.047565484654868019 1 1 1 1 0.049819426468541025 1 1 1 1 1 1 1 1 0.0348874655967851 0.054135963324999967 1 1 1 1 1 1 1 1 0.04207333412207958 1 1 1 1 1 1 0.046323498477717481 1 1 1 1 1 1 1 0.051048287793217371 1 1 1 0.046895099343088449 1 1 1 1 1 1 1 1 1 1 1 1 0.041543035756861836 1 1 1 1 0.039236323586286807 1 1 0.051801921418230805 1 1 1 1 0.045678084638862256 1 1 1 0.04991419404232926 0.043436791445646016 1 1 1 0.049287386540150704 1 1 1 0.038200281665933714 1 1 1 1 1 1 1 1 1 0.039956377408359722 1 1 1 0.050008600268463765 1 1 1 1 1 1 1 1 1 1 1 1 0.041616385220374572 1 0.049906414002877972 1 1 0.044181141628451971 1 1 0.046744476683923959 1 1 1 1 1 1 1 0.050005066714539304 1 1 1 1 1 0.049955774821966212 1 0.046563482676667226 1 1 1 0.048435538854359764 0.048250419502696901 1 0.045786013886949174 0.041816363296006354 1 0.045412305008961831 1 1 1 1 1 1 0.049269198331260269 1 0.029036763601959226 1 1 1 1 1 1 1 1 1 1 1 1 1 0.049933824159009904 1 1 0.042127450794923707 1 0.047684205438299869 1 1 0.032611168327536848 1 1 1 0.046469469560894802 0.052573603674481516 1 1 0.030690445319210884 1 1 1 1 1 1 1 1 1 1 1 1 1 1 1 1 1 1 1 1 1 1 1 0.046942494476903483 0.049843780428175499 1 0.051030004661141118 1 0.048919554294106084 1 1 0.049997030812063734 0.039149871567288275 1 1 0.050003247623665856 1 1 0.047714169067857672 1 1 0.038736924454309728 1 0.047574235129194835 1 1 1 1 0.049914167532548584 1 1 1 1 0.048926041439842458 1 0.046695440467751273 0.043576578808615513 1 0.043768806483486376 1 1 0.045318157714742839 0.047832026082574912 1 1 1 0.048746738523441045 1 1 1 1 0.042348717451424017 0.049255893139439122 1 1 1 1 1 0.048664935376230296 1 1 1 1 1 1 1 1 1 1 1 0.049182414361968921 1 0.044303693062239267 1 0.04002273131837783 1 1 0.04999706098526787 1 0.041350125688792316 1 1 1 1 1 1 1 1 0.048215047750712392 1 1 0.04657743352735088 1 1 1 1 0.049607651030210288 1 1 1 1 1 1 1 1 1 1 1 1 0.047283241871580048 1 1 1 1 1 1 1 1 1 1 1 0.050206274079270807 1 1 1 1 1 1 0.047631389379571343 1 0.048053399053846077 1 1 0.050113125206067297 1 1 1 1 1 1 1 1 1 1 1 1 1 1 1 1 1 0.049786663392553013 0.045059899934920052 1 1 1 0.05060822742377788 1 1 0.046360111469585089 1 1 1 1 1 1 1 1 1 1 1 1 1 1 1 1 1 1 1 1 1 1 1 1 1 0.05010380673136075 0.051456312804871257 1 1 1 1 1 1 1 1 1 1 1 0.055526092277550718 1 1 1 1 1 1 1 1 1 1 1 1 1 1 1 1 1 1 1 1 1 1 1 1 1 1 1 1 1 1 1 1 1 0.049936987395625215 1 1 1 1 1 0.050137480434217063 1 1 0.049577632485938675 1 1 0.052753925540266797 0.020550231311909632 1 1 1 1 1 1 1 1 1 1 1 1 1 0.021613129359901433 1 1 0.049855166222518739 1 1 1 1 1 1 0.049986673439188618 1 1 0.02436347292258172 1 1 1 1 1 1 1 1 1 1 1 1 1 0.038130103450894223 1 1 1 1 1 1 1 0.049869086731990267 1 1 1 1 1 1 1 1 1 1 1 1 0.045331944818511584 1 1 0.047700555438940223 1 1 1 1 1 1 1 1 1 1 1 1 1 1 1 1 1 1 1 1 0.040893414572646419 1 1 0.044212005271317287 1 0.042231831468744652 1 1 1 0.050854696061734747 1 1 0.049926868622440758 1 0.048281311991745554 1 1 1 0.048053851597145356 1 1 1 1 0.049996892047981766 1 1 1 1 1 1 1 0.049967299494415425 1 1 1 0.050727430726511369 1 1 1 1 1 1 1 1 1 1 1 1 0.046903706341162754 1 1 1 1 1 1 1 1 0.051003138085899735 1 1 1 1 1 1 1 1 1 1 1 0.050064721725086928 1 1 1 1 1 1 1 1 1 1 1 1 1 1 1 1 1 1 1 0.053048145244700223 0.048996461292842623 1 1 1 0.049629387393708327 1 1 1 1 1 1 1 1 1 1 1 1 0.049593537881229388 1 1 1 1 1 1 1 1 1 0.048860105744106194 1 1 1 1 1 1 1 1 1 1 1 1 1 1 1 1 0.048264243181289926 1 0.049542606693937064 1 1 1 1 1 0.048488663373968677 1 1 1 1 0.049999278734026556 1 1 1 0.050026808794243038 1 1 1 0.04901297577424419 1 1 1 1 1 1 1 1 1 0.049598607682678139 1 1 1 0.048926739966325065 1 1 0.049841901729620081 1 1 1 1 1 1 0.049905184282498079 1 1 1 1 1 1 1 1 0.049900149559000267 1 1 1 0.049911390507409295 1 1 1 1 1 1 1 1 1 1 1 1 1 1 1 1 1 1 1 1 1 1 1 1 1 1 1 0.049330305835292389 1 1 1 1 1 1 1 0.049745809635931573 1 1 1 1 1 1 1 1 1 1 1 1 1 1 1 1 1 1 1 1 1 1 1 1 1 0.048521437458241598 1 0.049499980808841722 1 1 1 1 1 1 0.047619788869398917 1 1 1 0.049125543360549723 1 1 0.047428099879451562 1 1 1 1 1 1 1 1 1 1 1 1 0.021862228910148516 1 1 1 1 1 0.023420084675711567 1 1 1 1 1 1 1 1 1 1 1 1 1 0.048598332219999034 1 1 1 0.049108666540976093 1 1 1 1 1 1 1 1 1 1 1 1 0.047445106023700077 0.03836106348181411 1 1 1 1 0.034651524609362765 1 1 1 1 1 1 1 1 1 0.049741736601376076 0.056090642758397577 1 1 1 1 1 0.057994490333304415 1 1 1 1 1 0.049971726926048524 1 1 1 1 1 0.050013961117992896 1 0.035428859501216541 1 1 1 1 0.050722446398928638 1 0.046073811020270042 1 0.039228382480078178 0.050027731345902063 1 1 1 1 1 1 1 0.049948986767236539 0.049912288220841455 1 1 1 1 1 1 0.049999926476839894 0.04803407781884559 0.049771763889730133 1 0.045021625363250793 0.044807258216626587 1 1 1 0.047659746480308615 1 1 1 1 1 0.043292568210255469 0.049724747314564964 0.050000065859208596 1 0.040579547932782317 1 1 1 0.050051152837468617 1 0.051490140274178552 0.049596098156118124 1 1 1 1 1 1 1 0.050283156713937099 0.047270509416126219 1 1 0.047339290326048479 0.048466673950572872 0.043529016265526979 1 1 1 1 1 1 1 1 1 1 1 1 1 1 1 1 1 1 1 1 1 1 1 1 1 1 1 1 1 1 1 1 1 1 1 1 1 1 1 1 0.049927464021393066 1 1 1 1 1 1 1 1 1 1 0.049132264974345322 1 1 1 1 1 1 0.047462397617452606 1 1 0.046042499297064318 1 1 1 1 1 1 1 1 1 1 1 1 1 0.045168504561014081 1 0.038402344678967998 1 1 1 1 0.050395164647458024 1 1 1 0.049929127475332818 1 1 0.052261472973237348 1 1 1 0.049998891408505108 1 1 0.039900206075643513 1 1 1 1 1 0.04155545303437376 1 1 1 1 1 1 1 0.046387085884354584 1 1 1 1 1 1 1 0.049866484632758376 1 1 0.048177368277532946 1 1 1 1 0.049345078626306299 1 0.048930164787413313 1 1 1 1 1 0.048065069474915331 1 1 1 1 0.049216298263056596 1 1 1 1 1 1 0.047709093691884377 0.051259107059276207 1 1 1 1 1 0.044321234105819174 1 1 0.038253724825067684 1 1 1 1 1 1 1 1 1 1 0.050373732494170452 1 1 1 1 1 1 1 1 1 1 1 1 1 1 1 1 1 1 0.050177042971070306 1 1 1 1 1 1 0.050050457808997063 1 1 1 1 1 1 1 0.034932489144159529 0.050025242121099676 1 1 1 1 0.049968128248090743 1 1 1 1 1 1 1 0.042810533405626142 1 1 0.048964914635690401 1 0.05032010801105935 0.046030837630488514 0.05222445281657459 1 1 1 1 1 1 0.049017815056664207 1 1 1 1 1 0.049995932429545593 1 1 1 1 0.050637381596848233 1 1 1 0.045080284238481358 1 1 1 0.045674325889202026 1 1 1 1 1 1 1 1 1 1 1 1 1 1 1 1 1 1 1 1 1 1 1 1 1 0.034567191103989994 1 1 1 1 1 1 1 0.046658247974974601 1 0.032327471965157978 1 1 1 1 1 1 0.046398100000666839 1 1 0.048740673317411963 1 1 1 0.050086300934795755 1 1 0.039764907933749809 1 1 1 1 1 0.053916887469764238 1 1 1 0.051150318599119983 0.045554218371988461 1 1 1 1 1 1 1 1 1 1 1 1 0.048375982877562125 1 1 1 1 1 1 1 1 1 0.046175610622910729 1 1 1 1 1 0.05000835341860628 0.048592150936938597 1 1 1 1 1 1 1 1 1 0.049807562963393656 1 1 1 1 1 1 1 1 0.047742142764308958 1 1 1 1 1 1 1 1 1 1 1 1 1 1 1 1 1 1 0.05051768841445705 1 1 1 1 0.051245119140968402 1 0.048836402500047366 1 0.04818741148622778 1 1 1 1 1 1 1 1 1 1 1 1 1 1 1 1 1 0.046457365597782005 1 1 1 1 1 0.050205731203265817 1 1 1 0.046669000022736946 0.050354244080466896 1 1 1 1 1 0.049350904516275745 1 1 1 1 0.04911886398940056 1 1 1 1 1 1 1 1 0.048272107991298073 1 1 1 1 1 1 1 0.048895587962682542 1 1 1 1 1 1 1 1 1 0.050024166984450787 1 1 1 1 1 1 1 1 1 1 1 1 1 1 1 1 1 1 0.049808063434847547 1 1 1 1 1 1 1 1 1 1 1 1 1 0.050481893023299126 1 1 1 1 1 1 0.049887276297345795 1 1 0.049988759051590982 1 1 0.049746238505852566 1 1 1 1 1 1 1 1 1 1 1 1 1 1 1 1 1 1 1 1 1 1 1 1 1 1 0.049942350653969528 1 0.057018545019050557 1 0.049998658312291576 0.041009178271187961 1 1 1 0.056699559547569396 1 1 1 1 1 1 1 1 1 0.049394458910924595 0.051421048222375962 1 0.024203064055819574 1 1 1 1 1 1 1 1 1 1 1 1 1 1 0.050007472885050447 1 0.035621095306264866 0.045607714386721045 1 0.040335301647279116 1 1 1 1 1 1 1 1 1 0.025635192745967997 0.050611409330919337 1 1 1 1 1 1 1 1 1 1 1 1 1 1 1 1 1 1 1 1 1 1 0.047964129583275464 1 1 1 1 1 0.050357238385612443 1 1 1 1 1 0.051186850603458262 1 1 1 0.043781137189282698 1 1 1 1 1 1 1 1 1 0.049833639624233449 1 1 1 1 0.025424226982780698 1 1 1 1 1 1 0.026210756669758452 1 1 1 1 1 1 1 0.049621337306852226 1 1 1 1 0.030230901654735021 1 1 1 1 1 1 1 1 1 1 0.049914642733614428 1 1 1 1 0.042895534510646371 1 1 1 0.043598481472372705 1 1 1 1 1 0.049556395936010189 1 1 1 1 1 1 1 1 1 1 1 1 1 1 0.048798683410546384 0.036691520631439073 1 1 0.040003183574831916 1 1 1 1 1 1 1 0.049450269564020932 1 1 1 1 1 1 0.049208661722352137 1 1 1 1 1 1 1 1 1 1 1 1 1 1 1 1 1 1 1 1 1 1 1 0.048162505375660795 1 1 1 1 1 1 1 1 0.049384073303141825 1 1 1 1 0.048225792842181744 1 1 1 1 1 0.047808475208786706 1 0.049984849406703946 1 0.045412995899819758 1 1 1 1 1 1 1 0.049977236106060099 1 1 1 0.052301727157197657 1 1 1 1 1 0.049584532043205884 1 1 1 1 1 0.049950749330479563 1 0.049999459275692479 1 1 0.050029252432216162 1 0.047382687262525244 1 1 1 1 1 0.049461483152571137 1 1 1 0.048884337024892532 1 1 1 1 1 1 1 1 1 1 0.049942138283813317 1 1 1 1 1 1 1 1 1 1 1 1 1 1 1 1 1 1 1 1 1 1 0.049756456268751317 1 1 1 1 1 1 1 1 1 1 1 1 1 1 1 1 1 1 0.04947013705988243 1 1 1 0.049441124950251075 1 1 1 1 1 1 0.052784681143812504 1 1 1 0.051723905197588613 0.047420407723724481 1 0.052492133530128798 1 0.048175006964420397 0.052346328753853234 1 0.053127999628946106 1 1 0.05000415715366717 1 1 0.049808421305265665 0.050041589446943299 1 1 1 1 1 1 1 1 0.050014214496878033 1 0.050001981844206636 1 1 1 1 1 1 1 1 1 1 1 1 1 1 1 1 1 1 1 1 1 1 0.044606369380534527 1 1 1 1 1 1 1 1 0.043849247459748025 1 1 0.04993418297551544 1 1 0.043196244200430348 0.049916706105509683 1 1 0.049966459861354541 1 1 1 1 1 1 1 1 1 1 1 1 1 1 1 1 1 1 1 1 1 1 1 1 1 1 1 1 1 1 1 1 1 1 1 1 1 1 1 0.05089142538167573 1 0.051816526793772237 1 1 1 1 1 1 1 1 1 1 1 1 1 1 1 1 1 1 1 1 1 1 1 1 1 1 1 1 1 1 1 1 1 1 1 1 1 1 1 1 0.049846787909837868 1 1 0.049956882078711032 1 1 1 1 1 0.049491444813634128 1 0.049542609078104302 1 1 0.046822386175033592 1 1 1 1 1 1 0.044765045146665891 1 1 1 1 1 1 1 1 1 1 1 0.05015529233366714 1 1 0.035938760142999689 0.050486946963257257 1 0.0490601708102456 1 1 0.041620597003383733 1 1 1 1 0.049993990160762558 1 1 1 1 1 1 1 1 1 0.049989367605156029 1 0.028862644255877257 1 1 1 1 1 1 1 0.050237805739827376 1 0.028810233732731699 1 1 1 1 1 1 1 1 1 0.049030686644991786 1 0.026481674288998128 1 1 1 1 1 1 1 1 1 1 0.046964665657423438 1 1 1 0.031647494390272327 1 1 0.050002959429345711 1 1 0.050390144171662377 1 1 1 1 0.050228458273090332 1 1 1 0.049858962208506788 1 1 1 1 1 1 1 1 1 1 1 1 1 1 0.050076780430612838 1 1 1 1 1 1 0.050582454005366165 1 0.049587753388572749 1 0.047559907450947812 1 1 1 0.050326195504681835 1 1 1 1 1 1 1 1 0.047366543324534591 1 1 1 1 1 0.050020601049487134 1 1 0.046757188207329117 1 1 1 1 1 1 1 1 1 0.048578707933058761 1 1 1 0.04935321196986913 1 1 1 1 1 1 0.048326387741906368 1 1 1 1 1 1 1 1 1 1 1 1 1 1 1 1 1 1 1 1 1 1 1 1 1 1 1 1 1 1 1 0.050071955072044566 1 1 1 1 1 0.050390043086365813 1 1 0.047340834255274786 0.049060645567752366 1 1 1 1 0.050946925432655325 1 1 1 1 1 0.047208278283445787 1 1 1 1 1 1 1 1 1 1 1 1 1 1 1 1 0.050155487699260981 1 1 1 1 1 1 1 1 0.049760763269628916 0.0494017270918925 1 1 1 1 1 1 0.049325301768156513 1 1 1 1 0.050167382757961766 1 1 1 1 1 1 1 1 1 1 1 1 1 1 1 1 1 1 1 1 1 1 1 1 0.04955390607384394 1 1 0.049637438701060382 1 1 1 1 1 1 1 1 1 1 1 1 1 1 1 1 1 1 1 1 1 1 1 1 1 1 1 0.049931430796336468 1 0.049744555132013715 1 1 1 1 1 0.049488097939846459 1 1 1 1 1 1 1 1 1 1 1 1 1 1 1 1 1 1 1 1 0.050192113590017393 0.049219104966016419 1 0.050054729265916767 1 1 1 1 1 1 1 1 1 1 1 1 1 1 1 1 0.050000550995685442 1 1 1 0.049993328664867033 1 1 1 1 1 1 1 1 1 1 1 1 1 0.049743542807832719 1 1 1 1 1 1 1 1 1 1 1 1 1 1 1 1 1 1 1 1 1 1 0.059516627021672597 1 1 1 1 1 1 1 1 1 1 1 1 1 0.052496126145596671 1 0.038223759416556397 1 1 0.051888013743050118 0.028522857426409184 1 1 1 1 1 1 1 1 1 1 1 1 1 1 1 1 1 1 1 1 0.045138867645302144 1 1 0.020280084853097277 1 1 1 0.049760633950244416 1 1 1 1 1 1 0.028160857810266025 1 1 1 0.05042479863179028 1 1 1 1 1 1 1 1 0.050022727066926238 1 1 0.057257075793942423 1 1 0.04142701430422259 1 0.039764164915996263 1 1 1 1 0.056709564681950896 0.059041666195421665 1 1 0.045953002723061145 0.058831519957375872 1 1 0.052584827549160072 1 1 1 1 0.047019603792634743 1 1 0.050136510540557983 0.035886467657812199 1 0.050014812810801598 1 1 1 1 1 1 1 1 1 1 1 1 1 1 1 1 1 1 1 1 0.04345606994656856 1 1 1 1 0.045465644932003557 1 1 1 1 0.049429250513232499 0.044897395749878694 1 1 1 1 1 1 1 1 1 1 1 1 0.048325146028355567 1 1 1 0.023067287636216863 1 1 1 1 1 1 1 0.028496581977452536 1 1 1 0.045691309572939105 1 1 0.04899626957464228 0.0469533385050179 1 1 1 0.033775791087821749 1 1 1 0.048990356018317513 1 1 1 1 1 1 1 1 1 1 1 1 1 1 1 1 1 1 0.050062360560053386 1 1 1 1 1 1 1 1 1 1 1 1 1 1 1 1 1 1 0.049910220974814117 0.05022984200696437 1 1 1 1 1 0.050409902673979559 0.049740999558872928 1 0.050524542775398001 1 1 1 1 1 1 1 1 1 0.048513444589153687 1 1 1 0.049454466954463719 1 1 1 1 1 1 1 1 1 1 1 1 1 1 0.048088395078859689 1 1 1 1 1 1 1 0.051159496820219148 1 1 0.050345597764261722 1 1 1 1 1 1 0.0310638365032853 1 1 1 1 0.029457366923061598 1 1 1 1 1 1 0.046402697556364149 1 1 1 1 1 1 1 1 0.049897862219676237 0.033092414662727054 1 1 1 0.051229751749872036 0.040221077901236774 1 1 1 1 1 0.050404779935245607 1 1 1 1 1 1 0.047099105124010623 1 1 1 1 0.050380567637296446 1 1 1 1 1 0.049080445818260758 1 1 1 1 0.044058158288039814 1 1 1 1 1 1 1 1 1 1 1 1 1 1 1 1 1 1 1 1 1 1 1 1 1 0.049661893323329501 1 1 1 1 0.054549924919982569 1 0.03832543677023284 1 0.059385347042497996 1 1 0.034450524075148529 1 1 0.042876045244984021 1 1 0.050597241232065326 1 1 1 1 1 1 0.031379152210756454 1 1 0.040476326184536213 1 0.049753616726319547 0.045247676106829046 0.043936682501654556 1 1 0.054662882406580945 1 0.050887925018298683 0.050913669283628366 1 1 1 0.048304577766605919 1 0.04995330305305113 1 1 1 1 1 1 0.047113428264612289 1 1 1 0.050056815966427373 1 1 1 1 1 1 1 0.044791245418468989 1 1 1 0.053604531110200832 1 0.013161225312268363 0.016371905173431053 1 1 1 1 1 1 1 0.049416456246945795 1 1 1 1 1 1 1 1 0.049733992621878415 0.051594330865320288 1 1 1 1 0.054488153888391747 1 1 0.054088542717862925 1 1 1 0.049999972289107214 1 1 1 0.052593416434862525 0.049304061430529796 1 1 1 1 0.049804715777424464 1 1 1 1 1 0.051364764979977329 0.05203268474915719 1 1 1 1 1 1 1 1 1 1 1 1 1 1 1 1 1 1 1 1 1 1 1 1 1 1 1 1 1 1 1 0.049800894506436544 1 1 1 0.050128440958348931 1 1 1 1 1 1 1 1 1 1 1 1 1 1 1 0.050851073100572103 1 0.049580691807577265 0.049942213833477134 1 1 0.051254679775799596 1 1 1 1 1 1 1 1 1 1 1 1 1 1 1 1 1 1 1 1 1 1 1 0.048996873596994846 1 1 0.052055133651716295 0.050095354064783076 1 1 1 1 1 1 1 0.051534365397280804 1 1 1 0.048350212208226634 1 1 1 1 0.049708089137628711 0.049900308346825774 1 1 1 1 1 1 1 0.053013672180447155 1 1 1 1 0.051581563116458569 1 1 1 1 0.050362696364706042 1 1 1 1 1 1 1 1 1 1 1 1 1 1 1 1 1 1 1 0.048806273200492814 1 1 1 1 1 1 1 1 1 1 1 1 1 1 1 1 0.046874311042472964 1 1 1 0.048897177370878023 1 1 1 1 1 1 1 1 1 0.050425347779842498 1 1 1 1 1 1 1 1 1 1 1 1 1 1 1 1 1 1 1 1 1 0.050596977840114694 1 1 1 1 1 1 1 1 1 1 1 1 1 1 1 1 1 0.051708347241730332 1 1 1 1 1 0.049947210060982836 1 1 1 1 1 1 1 1 1 1 1 1 1 1 1 1 1 1 1 1 1 1 1 1 1 1 1 0.049729002763332773 1 1 0.029977092176805636 1 1 1 0.028385963022300335 1 1 1 1 1 1 1 1 1 1 1 1 1 1 1 0.013596841804330177 1 0.057104115099604023 1 1 1 1 1 1 1 1 1 0.021320106378217327 1 1 1 1 1 1 1 1 1 0.045615833219882725 0.032109677522319371 1 1 1 1 1 1 1 1 1 1 1 1 1 1 1 1 1 1 1 1 1 1 1 1 1 1 1 1 1 1 1 1 1 1 1 1 1 1 1 1 1 1 1 1 1 1 1 1 1 1 1 1 1 1 1 1 1 1 1 1 1 1 1 1 1 1 1 1 1 1 1 0.045142924978457857 1 1 1 1 1 1 0.037370511243899465 1 1 1 1 1 1 1 1 1 0.044202301929565091 1 0.037843419485324319 1 1 1 1 1 1 1 1 1 1 1 1 1 1 1 1 1 1 1 1 1 1 1 1 1 1 1 1 1 1 1 1 1 1 0.049817685541844195 1 1 1 0.050330864091188185 0.050453010462152441 1 1 1 1 1 1 1 1 1 1 1 1 1 1 1 1 1 1 1 1 1 1 0.050204965417870569 0.05214161555160949 1 1 1 1 1 1 1 1 0.051310389005222445 1 1 1 1 1 1 0.051731231683657383 1 1 1 1 1 0.049611280255063964 1 1 1 1 0.049871140712065609 1 1 1 0.02052455251234106 1 1 1 0.026969105854960207 1 1 0.036352367671150645 1 1 1 1 1 1 1 1 1 1 1 1 1 0.050103010040720874 1 1 1 1 1 1 1 1 0.048482884488609504 1 1 1 1 1 1 1 1 1 1 1 0.042998136282535904 1 1 1 0.047532658109616224 1 1 1 1 0.051137800471576803 1 1 1 1 1 1 1 1 0.053763658503735233 1 0.035244465477953693 1 1 0.054993271139708373 1 1 1 1 1 0.036559110426232666 1 1 1 1 1 1 1 1 1 1 1 1 0.048484431013322608 1 1 1 1 1 1 1 1 1 0.051800372957834295 1 1 1 1 1 1 0.045857970866470713 1 1 1 1 1 1 1 0.047752988396271581 1 1 1 1 1 0.046237419409594194 1 1 1 1 1 1 1 1 1 1 1 1 1 1 1 1 1 1 1 1 1 1 1 1 1 1 1 1 1 1 1 1 1 1 1 1 1 1 1 1 1 1 1 1 1 1 1 0.045954225799156284 1 0.039665629655028331 1 1 1 1 1 1 1 1 1 1 1 1 1 1 0.050652870888536344 1 1 1 1 1 1 1 1 1 1 1 1 1 1 1 0.049361428783862626 1 1 0.047340179295257183 1 0.045116437530888218 1 1 1 1 1 0.042185678446600504 1 1 1 1 1 1 1 1 1 1 1 1 1 1 1 1 1 1 1 1 0.040489343247076884 1 1 1 1 1 1 1 1 1 1 1 0.038861950776545098 1 0.050019578572682133 1 1 0.037817132863248656 1 0.060672803755635524 1 1 1 1 1 1 1 0.049820462518532525 1 0.024916815599144358 1 1 1 1 0.018671818533716147 1 1 1 1 0.050082170888665428 0.043277331055712152 1 1 0.03554336734794715 1 1 1 1 1 1 1 1 1 1 1 1 1 1 1 1 0.048236392669556108 1 1 1 1 1 1 1 1 1 1 1 1 1 1 0.044861948221834189 1 0.04992602169950635 1 1 1 1 1 1 1 0.019849915613017334 1 0.0081621053105095411 1 1 1 1 1 1 1 1 1 0.049821726542375738 0.030417132959063432 1 1 1 0.03067761744784963 1 1 1 1 0.063442047919480452 1 0.04582318005808661 1 1 0.045791925217178987 1 0.082482419645522942 0.062875913828424584 0.052203148870520237 1 1 0.050026148458680406 1 1 1 0.068746709955463198 0.037918861112307647 0.039123960480553471 1 1 1 1 1 1 1 1 1 1 1 0.042404010719706849 1 1 1 1 1 1 0.02803753184843373 1 1 1 0.050646899191756647 1 1 1 1 1 1 1 1 0.045444212895000211 1 1 1 0.048431122056464201 1 1 1 1 1 1 1 1 1 1 1 1 1 1 1 1 1 1 1 1 1 1 1 1 1 1 1 1 1 1 1 1 1 1 1 1 1 1 1 1 1 1 1 1 1 1 1 1 1 1 1 1 1 1 1 1 1 1 1 1 0.050459438146730672 1 1 1 1 1 0.052198611588309754 1 1 1 1 0.050361703531620748 1 1 1 0.055709654520554042 1 1 1 1 1 1 1 1 1 1 1 1 1 1 1 1 1 1 1 1 1 1 1 1 1 1 1 1 1 1 1 1 1 1 1 1 1 1 1 1 0.049573065409508468 1 1 0.048845482394614038 1 1 1 1 1 1 1 0.05002547342244662 1 1 1 1 1 1 1 1 1 1 1 0.050082543068300525 1 1 0.049994516227404528 1 0.05096698057307647 1 1 1 0.048378473345629849 1 1 1 1 1 1 1 1 0.049887361422609869 1 1 1 1 0.049933721275716755 1 1 1 1 0.047479179913069561 1 0.050945388244938238 1 1 1 1 1 1 1 1 1 1 1 1 0.047679928291821841 1 0.047445643367938717 1 1 1 1 1 1 1 1 1 1 1 1 1 0.050219583505310188 1 1 1 1 1 1 1 1 1 0.050407257141413565 1 1 1 0.050187673636103318 1 1 1 1 1 1 1 1 1 1 1 1 1 1 1 1 1 1 1 1 1 1 1 1 1 1 1 1 1 1 1 1 1 1 1 0.050140466919582211 1 1 0.049980885558082791 1 1 1 1 0.049733934190568818 1 1 1 1 1 1 1 1 1 1 1 1 1 1 1 0.049710815201296568 1 1 1 1 1 1 1 1 1 0.049066428241663698 1 0.049795093976875052 1 1 1 1 1 1 1 0.05000214246573742 1 1 1 1 1 1 1 1 1 1 1 1 1 1 0.044849535531797158 1 1 1 1 1 1 1 1 1 1 1 0.036161542987171287 1 1 1 1 1 1 1 1 1 1 1 1 1 1 1 1 1 1 1 1 1 1 1 0.050401977457654498 1 0.049705738724172978 1 1 1 1 1 1 0.050960280515797471 1 0.044476876586828737 1 1 1 0.054009729406096649 1 1 1 0.033073311424913265 1 1 1 0.057131324249875208 1 1 0.039188920445908354 1 1 1 1 1 1 1 0.046278416053535804 1 1 1 1 1 1 1 0.030515065222457033 1 1 1 1 1 1 1 1 1 1 1 1 1 0.048202665912130696 1 1 1 1 1 1 1 1 0.035653217738439921 1 1 1 1 1 1 1 1 1 1 1 1 1 1 1 1 1 1 1 1 0.030536944027080987 1 1 1 1 1 1 1 1 1 1 1 1 1 1 1 1 1 1 1 1 1 1 1 1 1 1 1 1 1 1 1 1 1 1 1 1 1 1 1 1 1 1 1 1 1 1 1 1 1 1 0.049031029714965674 1 0.045490221604236214 1 1 1 0.05057877921633986 1 1 0.049982904222773808 0.043795867615757163 1 0.047424360253204276 1 1 1 1 1 1 1 1 1 1 1 1 1 1 1 1 1 1 1 1 1 1 1 1 1 1 1 1 1 1 1 1 1 1 1 0.049675240508323851 1 1 1 1 0.049114771098723836 1 1 0.13469478206510974 1 1 1 0.050085750723161654 1 1 1 1 0.048405577689590723 1 0.050016980464941713 0.050201505030434107 1 1 1 1 0.049941199249028054 1 1 1 0.048688371513815137 1 1 1 0.050159226421984275 1 1 1 1 1 1 0.049998624921244697 1 1 1 1 1 1 1 1 1 1 1 1 1 1 1 1 1 1 1 1 0.049312154443171163 1 1 1 1 1 1 1 1 1 1 1 1 1 1 1 1 1 1 0.049701555393519822 1 1 0.049196299009759886 1 1 0.04615288146144058 1 1 1 1 1 1 1 1 1 1 1 0.048804052037613593 1 1 1 1 0.048076145030887182 1 1 1 1 0.050791664447649695 1 1 1 0.049455906173890229 1 1 1 1 1 1 1 1 1 1 1 1 1 1 1 1 1 1 1 1 1 1 1 1 1 0.049883807692428977 1 1 1 1 1 1 1 1 0.049455850446360528 1 1 1 0.049064976171241004 1 1 1 1 1 1 1 1 1 1 1 1 1 1 1 1 1 1 1 1 1 1 1 1 0.054144161744474006 1 1 1 0.050503088950154831 1 1 1 1 1 1 1 1 0.053988538203159603 1 1 0.038927649493592051 1 1 1 1 0.045928263391502994 1 1 1 1 1 1 1 0.051987064456173487 1 0.040819205158675625 1 1 0.037521122439637018 1 1 0.053067736990730724 0.05003036751600301 1 1 1 1 1 1 1 1 1 1 1 1 1 1 1 1 1 1 1 1 1 0.049988352631944677 1 1 1 1 0.050859850440154585 1 1 1 1 1 1 1 1 1 1 1 1 1 0.051956863687771429 1 1 0.049920791264491615 1 1 1 1 1 1 1 1 1 1 1 1 1 1 1 1 1 1 1 1 1 1 1 1 1 1 1 1 1 1 1 1 1 1 1 1 1 1 1 1 1 1 1 1 1 1 1 1 1 1 1 1 1 1 1 1 1 1 1 1 1 1 1 1 1 1 1 1 1 1 1 1 1 1 1 1 1 1 1 1 1 1 1 1 1 1 1 1 1 1 1 1 1 1 1 1 1 1 1 1 1 1 1 1 1 1 1 1 1 1 1 1 1 1 1 1 1 1 1 1 1 1 1 1 1 1 1 1 0.046861318889201108 1 1 1 1 1 1 1 0.050285452649371655 1 1 1 1 1 1 1 1 1 0.051865035115138666 1 0.045508444199680656 1 1 1 0.04745703102241125 1 1 0.04436308908768978 1 1 1 1 1 1 1 1 1 1 1 1 1 1 1 1 1 1 1 1 1 1 1 1 1 1 1 1 1 1 1 1 1 1 1 1 1 0.04739851730577084 1 1 0.050689614780262036 0.037767506268368417 1 1 0.050506095339041351 1 1 0.046976498478028608 1 1 1 0.045606983656795753 1 1 1 1 1 1 1 1 1 0.043060361751402008 1 1 1 1 1 1 0.048269010665882323 1 1 1 1 1 1 1 1 1 1 1 1 1 1 1 1 1 1 1 1 1 1 1 1 1 1 1 1 1 1 1 0.052075840326286961 1 1 1 1 1 1 1 1 1 1 1 1 1 1 1 1 1 1 1 1 1 1 1 1 1 1 1 1 1 1 1 1 1 1 1 1 1 1 1 1 1 1 1 1 1 1 0.041442758463584889 1 0.038754905658052022 1 1 1 1 0.049858848233815853 1 1 1 1 0.031983115519177228 1 1 1 1 0.050283258931415345 1 1 1 1 1 1 1 1 0.033763656981932788 1 1 0.049100646090529915 1 0.050683050057382925 1 1 1 1 0.054468641574713907 1 1 0.029017450355811866 0.057482852395671365 1 1 1 1 1 1 0.049877891333221784 1 1 1 1 1 1 1 1 1 1 0.028494891901767391 0.050203148953962766 1 1 1 1 1 0.049864459432364172 1 1 0.029982802863410207 1 1 1 1 0.039600936817870039 1 1 0.047866154432722297 1 1 1 1 1 1 1 1 1 1 1 1 1 1 1 1 1 1 1 1 1 1 1 1 1 1 1 1 1 0.036936305242223154 1 0.044566508055224441 1 1 1 1 1 1 1 1 1 1 1 1 1 0.050030721993153116 1 1 1 1 0.047009155579861045 0.04994168210985285 1 1 1 1 1 1 1 1 1 1 1 1 1 1 1 1 1 1 1 1 1 1 1 1 1 1 1 1 1 1 1 1 1 1 1 1 1 1 1 1 1 1 0.050062607180465651 1 1 1 0.050031885187312594 1 1 1 1 1 1 1 1 1 1 1 1 1 1 1 1 1 1 1 1 0.045624600450264258 1 1 0.046274730372038123 1 1 1 1 1 1 1 1 1 0.045932278896348724 1 1 1 1 1 0.03995288983893832 1 1 1 1 1 0.04999065703266789 1 0.050000306296896141 1 1 1 1 1 1 1 1 1 1 1 1 1 0.051992814113317673 1 1 1 0.050434005767804269 0.042400678559589171 1 1 1 1 1 1 1 1 0.040220440056120438 1 1 0.045124621141095576 1 1 0.050111234332414781 0.047804417831875612 1 1 1 1 1 0.047595593086366142 1 1 1 1 1 1 1 0.048946679654333469 1 1 0.048001829002889157 0.046215310962652745 1 1 1 1 1 1 0.05018045531359315 0.049908088671435091 1 1 1 0.050040228566030714 1 1 1 1 1 1 1 0.050120958657943915 1 1 1 1 1 1 1 1 1 1 1 1 1 1 1 1 1 1 1 1 1 1 1 1 1 1 0.0021940630250493129 1 1 1 1 1 1 1 0.050742661134583499 1 1 1 1 1 1 1 1 1 1 1 0.013879983683484393 1 1 1 1 1 1 1 1 0.05280013416038587 1 1 1 1 1 1 1 1 1 1 1 1 1 1 1 1 0.047856873357051327 1 1 1 0.051482718317729576 1 1 1 1 1 0.042699418460795592 1 1 1 1 1 1 1 1 1 1 1 1 1 1 0.046904416871402281 1 1 1 1 0.041280936570844806 1 1 0.036929808814840807 1 1 1 1 1 0.05019129356124491 1 1 1 1 1 1 1 1 1 1 1 1 1 1 0.050520953830493695 1 0.061564777414531098 1 1 1 0.038854784147670865 1 0.026492144590317384 1 0.068029176549662437 1 1 1 1 1 1 0.049563527486588106 -1.3877787807814457e-17 1 1 1 1 1 1 0.00068556514244240028 1 0.051638067395601887 1 1 1 1 1 1 1 1 1 1 1 1 1 1 1 1 1 0.062070370826291771 1 1 1 0.050029717622018563 0.058116086271727194 1 1 1 1 1 0.053628036687068947 1 1 0.05008299089841322 0.051211953057076237 1 1 1 1 1 1 1 1 1 1 1 1 1 1 1 1 1 1 1 1 1 1 1 1 1 1 1 1 1 1 1 1 1 1 1 1 1 1 1 1 1 1 1 1 0.029183559989135993 1 1 0.055323980233902226 0.051104258530035078 0.050797597684218126 1 1 1 1 1 1 0.050267863993620029 1 1 1 1 1 1 1 1 1 0.050235153425181964 1 1 1 0.031449898969957438 1 1 1 1 1 1 1 1 1 1 1 1 1 1 1 1 1 1 1 1 0.036737481011433044 1 1 1 1 0.045186492564977282 1 1 1 1 1 1 1 1 1 1 1 1 1 1 1 1 1 1 1 1 1 1 1 1 1 1 1 1 1 1 1 1 1 1 0.04641910660380065 1 0.048391724343533324 1 1 1 1 1 1 1 1 0.045875232491869256 1 1 1 0.039286430584373137 1 0.047483508148335928 1 1 1 1 1 1 1 1 0.028500941724141263 1 1 1 1 0.043221857889462978 1 1 1 1 0.032659546368781454 1 1 1 1 1 1 1 0.031604958880257938 1 1 1 1 0.041812736492048967 1 1 1 1 1 1 1 1 1 1 1 1 1 1 1 1 1 1 1 1 1 1 1 1 1 1 1 1 1 1 1 1 1 1 1 1 1 1 1 1 1 1 1 1 1 1 0.047962828337542493 1 1 1 1 0.045188551279560986 0.040792003390424124 1 1 0.039079015877055187 0.047150560512802468 1 1 1 1 1 1 1 1 1 1 1 1 1 1 1 1 1 1 1 0.04842953003197404 1 1 1 0.046018082322545978 0.047313829234227257 1 1 1 1 1 1 1 1 1 1 1 1 1 1 1 1 1 1 1 1 1 1 1 1 1 1 1 0.04850572684286375 1 1 1 1 1 1 1 0.047530344754102054 1 1 1 1 1 1 1 1 1 1 1 1 1 1 1 0.046283426131427829 1 1 1 1 1 1 1 1 0.048589447846330118 1 0.0492367727394981 0.046401135990241829 1 1 1 1 1 1 1 1 1 1 1 1 0.051317415842656297 1 1 1 1 1 1 1 1 1 1 1 1 1 1 1 1 1 1 0.058471753823532709 1 1 1 0.060766291884901263 1 1 1 1 1 1 1 1 0.053735711055188741 1 1 1 1 1 1 1 1 1 1 1 1 1 1 1 0.049957107169321752 1 1 1 0.049571463446891589 1 1 1 1 1 1 1 1 1 1 1 1 1 1 1 1 1 1 1 1 1 1 1 1 1 1 1 1 1 1 1 1 1 0.047452912163301206 1 0.048945527051902624 1 1 1 1 1 1 1 1 0.050335855594883495 1 1 1 1 1 1 1 1 1 0.046116969363427851 1 1 0.053848299197555044 1 1 1 1 1 0.052004612483668299 1 1 1 1 0.049898878617617375 1 1 1 1 0.057266256766832682 1 1 1 0.05696058485225898 1 0.031017382842642292 1 1 0.030036561419431791 1 1 1 1 1 1 1 1 1 1 1 1 1 1 0.05040855323785598 1 1 0.046724485286248271 1 0.050644827964446991 1 1 1 0.04097943033854224 1 1 0.044025635425653471 1 1 1 1 0.029336920630314057 1 0.052463434975445054 1 1 1 1 1 1 0.050796432838073335 1 0.04952850707413059 1 1 1 1 1 0.049272438149661028 1 1 1 1 0.027767281126993473 1 1 1 1 1 1 0.05074778601055991 1 1 1 1 1 1 1 1 1 1 1 1 1 1 1 1 1 1 1 1 1 1 1 1 1 1 1 1 1 1 1 1 1 0.049663044575894599 0.050018330864997608 1 1 1 1 1 1 1 1 1 1 0.054207340036523444 1 1 0.026425170956328146 0.052935361555785682 1 0.050039942445724031 1 1 1 1 1 1 1 0.056258839468371083 1 1 1 1 1 1 1 1 1 1 1 1 0.043151251257127092 1 1 1 1 0.047712880458530726 1 1 1 1 1 1 1 1 1 1 1 1 0.042415474227797963 1 1 1 1 1 1 1 1 1 1 1 1 1 1 1 1 1 0.044384645557173093 1 1 1 1 1 0.048569120402067352 1 1 1 0.041659030208916731 1 1 1 1 1 1 0.043559564568683928 1 0.04095578230898915 1 1 1 0.045443137912570042 1 1 1 1 1 1 1 1 1 0.03716853785783221 1 1 0.050138813338591159 1 1 1 1 1 1 1 0.047441461796502209 1 1 1 1 1 1 1 1 1 1 1 1 1 0.051388271172607178 1 1 0.048029232063087533 1 1 1 1 1 1 0.0499944483977608 1 1 1 1 1 1 0.034661367136219326 1 1 1 1 1 1 1 0.028479779180651595 1 1 1 1 1 1 1 1 1 1 1 1 1 1 1 1 1 1 1 1 1 1 0.047275217073914549 1 1 1 1 1 1 1 1 1 1 0.057664770988001261 1 1 1 1 0.061410759564694009 0.033818982616799033 1 1 1 1 0.037136281682606881 1 1 1 1 1 1 1 1 1 0.040461680648370912 1 1 1 1 1 1 1 1 1 1 1 0.043001615603933216 1 1 1 0.050603723363295973 1 1 1 0.047595015591102664 1 1 1 1 1 1 1 1 1 1 1 1 0.053456911109355264 1 1 1 1 1 0.050027159421356431 1 1 0.05001877202449144 1 1 1 1 1 1 1 1 1 1 1 1 1 1 0.047464309429748677 1 1 1 1 1 1 1 0.044783288810154913 1 1 1 0.046514969465569142 1 1 1 1 1 0.049968947019783556 1 1 1 1 1 1 1 1 1 0.049977334416648547 1 1 1 1 1 1 1 1 0.050598890788685916 1 1 1 1 1 0.049142484985145826 1 1 1 1 1 1 1 0.049715415431557719 1 1 1 1 1 1 1 1 1 1 1 1 1 1 1 1 1 1 1 1 1 1 1 1 1 1 1 1 1 1 1 1 1 1 1 1 1 1 1 1 1 1 1 1 1 1 1 1 0.045540927436735018 1 1 1 1 1 1 1 0.045222221003119324 1 1 1 1 1 1 1 1 1 1 1 1 1 1 1 1 1 1 1 1 1 1 0.042984676920828899 0.050605526744073114 1 1 0.036995423510900551 0.054982278151236623 1 1 1 1 1 1 1 0.050507806239998274 1 1 1 1 1 1 1 1 1 1 1 1 1 1 0.042053304703539476 1 1 1 1 1 1 1 1 0.046148435609753735 1 1 0.049166682452239679 1 1 1 0.048700148987657933 1 1 1 1 1 1 1 1 1 1 1 1 1 1 1 1 1 1 1 1 1 1 1 1 1 1 1 1 0.042382506648957902 1 1 1 1 1 1 1 1 0.050422138357140239 1 1 1 1 1 1 0.029039175062186465 0.052431579999551607 1 1 1 1 0.051124119122580053 1 1 0.037008751429564758 1 1 0.038190661937041043 1 1 1 1 1 1 0.049500354724071785 1 1 1 1 1 1 1 1 0.049193580827107904 1 1 1 1 1 1 1 1 1 1 1 0.048136991207499466 1 1 0.048942131823922923 1 1 1 1 1 1 1 0.047230857385974746 1 1 1 0.049024154325748033 1 0.049089816226039355 1 0.048286004715187146 1 1 1 1 1 1 1 1 1 1 1 1 1 1 1 1 1 0.042850735303800479 1 0.050003143968765477 1 1 1 1 1 1 1 1 1 1 0.045100122173934949 1 1 1 1 1 1 1 0.049534891043408538 1 1 1 0.050020975108860999 1 0.047966952280486877 0.051011928835732447 1 1 0.059787546791388001 1 1 1 1 0.041522625606597488 1 1 1 0.052053072970159021 1 1 1 0.049512880806827489 1 0.046873431540616489 0.028791811550526084 1 1 1 1 1 1 0.048051675160593464 1 1 1 1 1 1 1 1 0.027781583540077551 0.050002260779800745 0.04259361838661796 1 0.015029259331088198 1 1 0.056569339224669113 0.049998985592409936 1 1 0.055215381667551154 1 1 1 1 1 1 1 1 1 1 1 0.049770284643014549 1 1 1 1 1 1 1 1 1 1 1 1 1 0.038976122213256609 0.033368183844493277 1 1 1 1 0.035699555587408477 1 1 1 0.048569098380837811 1 1 1 1 1 0.038611366132940188 0.049992236523563979 1 1 1 0.053145963690139443 1 1 1 1 1 1 1 1 1 1 1 1 1 1 1 0.049617605403092922 1 1 1 0.045123941599160999 1 1 1 0.049770657034726648 1 1 1 1 1 1 0.038502200977176056 1 1 1 1 1 0.039529908619130194 1 1 1 1 1 1 1 1 0.044481100795538825 1 1 1 1 1 1 1 1 1 0.049424237779314151 1 1 1 1 0.036804286787673446 1 0.050385650281087699 1 1 0.035841903568918462 1 0.050341284268929351 1 1 1 1 1 1 0.04909169581247743 1 0.050078904492281001 0.024173829047725859 1 1 1 1 1 1 1 1 0.057753069379019931 1 0.050168979025729823 1 0.049999087293320144 1 0.025014583148325581 1 1 1 1 1 1 1 1 1 1 1 0.049624999515376807 1 1 1 0.049108489079372694 1 1 1 1 1 1 1 1 0.049483489563995932 1 1 1 1 1 1 1 1 1 0.049846650476516187 1 1 1 1 0.050377035477981918 1 1 0.051064562487808704 1 1 1 1 1 1 1 1 1 0.050883173391906553 1 1 1 0.051356988646609349 1 1 1 1 1 1 1 1 1 1 1 1 1 1 1 1 1 1 1 0.049906501086483347 1 1 1 1 1 1 1 1 1 1 0.049258108480521076 1 1 1 1 1 1 1 1 1 1 1 1 1 1 1 1 1 1 1 1 1 1 1 1 1 1 1 1 1 1 1 1 1 1 1 1 1 1 1 1 1 1 1 1 1 0.019905552748579441 0.050469393907739551 1 1 1 1 1 1 1 1 1 1 1 1 1 0.0028538653034155537 0.055210438443032445 1 1 1 0.05120144397973804 1 1 0.036394921183987135 1 1 1 0.031059892665903227 1 1 1 0.016595315557257184 1 1 1 1 1 1 1 1 0.052507544531996457 1 1 0.046193629847251075 1 0.030573866567162787 0.045922529406025411 1 1 1 1 1 1 0.028309715839979877 1 0.05357408833381884 0.046814412623303228 0.049403683423185782 1 1 0.040279925691538807 1 1 0.035779315116078875 0.034653075881748499 1 1 1 1 1 1 1 1 1 1 1 1 1 1 1 1 1 1 1 1 1 0.049131636389006479 1 1 1 1 1 1 1 1 1 0.047018980985328737 1 1 1 1 1 1 1 0.052872990357220109 0.049113662021566445 1 1 1 1 1 1 1 1 1 1 1 1 1 1 1 1 1 1 1 1 1 1 1 0.047102998940878368 1 0.050100189518180974 1 1 1 1 1 1 1 0.047939480739238594 1 1 1 0.042138433503925862 0.052785751792883973 1 1 0.050805181925420273 1 1 1 1 0.04027856611224908 1 1 1 0.046064997494644627 1 1 1 0.0067097723525309377 1 1 1 1 1 1 1 1 1 -8.3266726846886741e-17 0.058631646507838836 1 1 1 1 1 0.041425362273386071 1 1 0.053699086707931699 0.024931023057004356 5.5511151231257827e-17 1 1 1 1 1 0.052003579575577968 1 1 1 1 1 1 1 1 1 0.050722110134296942 1 0.050313196331468427 1 1 1 1 1 1 1 1 1 1 1 1 1 1 1 1 1 1 1 1 1 1 1 1 0.050858100843938783 1 1 1 1 0.053731875802973283 0.052556514394967356 1 1 1 0.052443251988412709 1 1 1 1 1 1 1 1 1 1 1 1 1 1 1 1 0.028885724813779226 1 1 1 0.049954841772486762 1 1 0.063946548730849442 1 1 1 1 1 1 1 1 1 1 1 1 1 0.054141068627078175 1 1 0.031123915976139456 1 1 1 0.058204684305863882 1 0.013636358052745046 1 0.050075007337229742 1 0.046535350382846258 0.033721855713886854 0.050024531586680951 1 1 1 1 1 1 1 1 0.050250929705911315 1 1 1 1 1 1 1 1 0.03922108798232396 1 1 0.044378352248469935 1 1 1 1 1 1 1 1 1 1 1 1 1 1 1 1 1 1 1 1 1 0.048518305342793382 1 1 1 1 1 1 1 1 1 1 0.049129812411293321 1 0.047850096105863993 1 1 0.047637949641412256 1 0.050250535628875534 1 0.049982240394026364 1 1 0.049934164707481868 1 0.037904185223579703 1 1 0.050196545309575881 1 1 1 0.049968921434082228 1 1 1 1 1 1 1 1 1 1 1 1 1 1 1 1 1 1 1 1 1 1 1 1 1 1 1 1 1 1 1 1 1 1 1 1 1 1 1 1 1 1 1 1 1 1 1 1 1 1 1 1 1 1 1 1 1 1 1 1 1 0.045281223833343036 1 1 0.029325156957144521 1 1 1 1 1 1 0.05022591819801793 0.041976261567307847 1 1 1 1 1 1 1 1 1 1 1 1 1 1 1 1 1 1 0.034330591103187681 1 1 1 0.049718706658216705 1 1 1 1 1 1 1 1 1 1 1 1 1 1 1 1 0.050092336190063147 1 1 1 1 1 1 1 0.034813875418228619 1 1 1 1 1 1 1 1 0.038855286903109354 1 0.04980226454808831 1 1 1 1 1 1 1 1 1 1 1 1 1 1 1 1 0.050020883785190942 1 1 1 1 1 1 1 0.050077050441057737 1 1 1 1 0.050003067343026758 1 1 1 1 1 1 1 0.0500123313143509 1 1 0.041674005054094895 0.04973215731797577 1 1 0.052889739272251574 1 1 1 1 1 1 0.050170094649123913 1 1 1 1 1 1 1 1 1 0.04983610989307416 1 1 0.04995341660591969 1 1 0.049990913462008443 1 1 0.040795820979867767 1 1 1 1 1 0.040310592877155563 1 1 1 1 1 1 1 1 0.049662413253303173 1 1 1 1 1 1 1 0.048935892518920027 1 1 1 1 1 1 1 1 1 1 1 1 0.049720526309764812 1 1 1 1 1 1 1 0.050079500444232664 0.050000745338863964 1 0.041926546200030709 1 0.038936448138840646 1 1 1 1 1 1 1 1 1 1 1 1 1 1 1 0.049993668246768173 1 0.039090313157254405 1 1 1 1 1 1 1 1 0.051337419324240699 1 0.046978559873724401 1 0.042923353307092391 1 0.04970955973911291 1 0.050103484836994408 1 1 0.049724020360701726 1 1 1 1 1 0.049042826463695635 1 1 1 1 1 1 1 1 0.050132079880214286 1 1 1 1 1 0.050394340470089213 1 1 0.042215886745693348 1 0.051391067893044609 0.046123066475986491 1 1 1 1 1 1 1 1 0.050000107161437587 1 1 1 1 1 1 1 1 1 1 1 1 1 0.049580228997107054 1 1 1 1 1 1 1 0.049995118061522445 1 1 1 0.049995131605304589 1 1 1 1 1 1 1 1 1 1 1 1 1 1 1 1 1 0.049941085302040444 1 1 1 1 1 1 1 0.0499471710491073 1 1 0.049790875734349163 1 1 1 1 1 1 1 1 1 1 1 1 1 1 1 0.04971834157942262 1 1 1 1 0.05041987342287637 1 1 1 1 1 1 1 1 1 1 1 1 1 1 1 1 1 1 1 1 1 1 1 1 1 0.047239855044943796 1 1 1 1 1 1 0.049891839805842039 1 1 1 1 1 1 1 1 1 0.04515825514900592 0.049026050671660673 1 1 1 0.04946186345191847 1 0.050037414344416033 1 1 1 1 1 1 1 1 1 1 1 1 1 1 1 0.049874317877754738 1 1 1 1 1 1 1 1 1 1 1 1 0.050077371624237761 0.050109327564087938 1 1 1 1 1 1 1 1 0.049787690454267092 1 1 0.05001077293385553 1 1 0.047761738212336181 0.051344728884562138 1 1 1 1 1 1 1 0.049267911636879186 1 1 1 1 1 1 1 1 1 0.050031955939850201 1 1 1 0.047788750509418096 1 1 1 1 1 0.048280236738432528 1 1 1 1 1 1 1 1 1 1 1 1 0.048243185475180445 1 1 1 0.049946990246514458 1 1 1 0.049977749055871795 1 1 1 1 1 1 1 1 1 1 1 1 1 1 1 1 1 1 1 1 1 1 1 1 1 1 1 1 1 1 1 1 0.050089826868653375 1 1 1 1 1 1 1 1 1 1 1 1 1 1 1 1 1 1 1 1 1 1 1 1 0.049979677109753984 1 0.050002952330271952 1 1 0.040949434345723831 1 1 1 1 1 1 1 1 1 0.050925627796129344 1 1 1 1 1 1 1 1 1 1 1 1 1 1 0.042456273104058986 1 1 1 1 0.044433563774642887 1 1 1 0.047794773308018873 1 1 1 1 1 1 1 1 1 1 1 1 1 1 1 1 1 1 1 1 1 1 1 1 1 1 1 1 1 1 1 1 1 1 1 1 1 1 1 1 1 1 1 1 1 1 1 1 1 1 1 1 1 1 1 1 1 1 1 1 1 1 1 1 1 1 1 1 1 1 1 1 1 1 1 1 1 1 1 1 1 1 1 1 1 1 1 1 1 1 1 1 1 1 1 1 1 1 1 1 1 1 1 1 1 1 1 1 1 1 1 1 1 1 1 1 1 1 1 1 1 1 1 1 1 1 1 1 1 1 1 1 1 1 1 1 1 1 1 1 1 1 1 1 1 1 1 1 1 1 1 1 1 1 1 1 1 1 1 1 1 1 1 1 1 1 1 1 1 1 1 1 1 1 1 1 1 1 1 1 1 1 1 1 1 1 1 1 1 0.043881015195610565 1 1 1 1 1 1 1 1 1 1 1 1 1 1 1 1 0.048455296044070034 1 1 1 1 1 1 1 1 0.021260307715645715 1 1 1 1 0.050905513996967799 1 1 1 1 1 1 1 1 1 1 1 1 1 1 1 1 1 1 1 1 1 1 0.048512283660076851 1 1 1 1 1 1 1 1 1 1 1 1 1 0.053137799698347275 0.044749981332747303 1 1 1 1 1 0.046780526841437423 1 0.028435976855460732 1 1 1 1 1 1 1 1 1 1 1 0.048269045382616046 1 1 1 1 1 1 1 0.00096361935673622973 1 1 1 1 1 1 1 1 1 1 1 1 1 1 1 0.048448455212231949 1.3877787807814457e-17 1 1 1 1 1 1 1 1 1 1 1 1 0.035745898956149477 1 1 1 1 1 1 1 1 1 1 1 1 1 1 1 1 0.044810608020423137 1 1 1 1 1 1 1 2.0816681711721685e-17 1 1 1 1 1 1 1 1 1 1 0.050394932551226096 0.0098452575476312559 1 1 1 1 1 1 1 1 1 1 1 1 1 1 1 1 1 1 1 1 1 1 1 1 1 1 1 1 1 1 0.047417397931281115 1 1 1 1 1 0.047855917133014549 1 1 1 1 1 1 1 1 1 1 0.049081819946766268 1 1 1 1 0.049539865557189325 1 1 1 1 1 1 1 1 1 1 0.04808676872416523 1 0.049312671537916977 1 1 1 1 1 1 1 1 1 1 1 1 1 1 1 1 1 1 1 1 1 1 1 1 1 1 1 1 1 1 1 0.04912511901052382 1 1 1 1 1 0.047573574222755759 1 1 1 1 1 1 1 1 1 1 1 1 1 1 1 1 1 1 0.049685307103619215 1 1 0.0044143519564990158 1 1 1 0.04987751111458405 1 1 1 1 1 0.0014561533553661861 1 1 1 1 1 1 1 1 1 1 0.034840970487808688 1 1 1 1 1 1 0.048865124083545222 1 1 1 1 1 0.092848523674805075 0.050760569875510267 1 1 0.030098416360451772 1 1 0.049178046250840143 1 1 1 1 1 1 1 1 1 1 0.049068458609725474 1 1 0.049028889704645182 1 1 0.050282100506478924 1 1 0.046686094245015172 1 1 0.047949753668947666 1 1 0.050328481625499535 1 1 1 1 1 1 0.04738595544492015 1 1 1 1 1 1 1 1 1 1 1 0.026776923228893423 1 1 1 1 1 1 1 0.049423380859598763 1 1 1 1 0.048473590532900318 1 1 1 0.026298324781579854 1 1 1 1 1 1 1 1 1 1 1 0.045352167420323532 1 1 1 1 1 1 1 1 1 1 1 1 1 1 1 1 1 1 1 1 1 1 1 1 0.049918541266424997 1 1 1 1 1 0.049701343615608469 1 1 1 1 1 1 1 1 1 1 1 1 1 1 0.04329651746116453 1 1 0.047420849886208045 1 0.032387874562566192 1 1 1 1 0.023206126901227531 1 0.05051691675284254 0.049357219345937807 1 0.044691290225780306 1 1 1 1 1 1 1 0.04997598087998345 1 0.043351410126932007 1 1 1 1 1 1 0.051955901074948345 1 1 1 1 1 1 0.049948820676022562 1 1 1 1 0.0499146646148017 1 1 1 1 1 0.049912989664185788 1 1 0.048940410231519543 1 1 1 1 0.049994471361467729 1 1 1 1 0.044289585583051599 1 1 1 1 1 1 0.0506782971530194 1 1 1 1 1 1 1 1 1 0.050011304141697806 1 1 1 1 1 1 0.047840259824846854 1 1 1 1 0.043910717096218306 1 1 1 1 1 1 1 1 1 1 1 1 1 1 1 1 0.049776176450534268 1 1 1 0.050546352913063711 1 1 0.041329533024983739 1 1 1 1 1 1 1 1 1 1 1 1 1 1 1 1 0.050433006585953885 1 0.041864176013941212 1 1 1 1 1 1 1 1 1 1 1 1 1 1 1 1 1 1 1 1 1 1 1 1 1 1 0.024767532122899727 1 1 0.04275425410583987 1 1 1 1 1 1 1 1 1 1 0.045196412045409196 1 1 1 1 0.050601965438712627 1 1 1 1 0.050168958852758752 1 1 1 1 1 1 1 1 1 0.044902402481967141 1 1 1 1 1 1 1 1 1 1 1 1 1 1 1 1 1 1 1 1 1 1 1 1 1 1 1 1 
</DataArray>
</CellData>
</Piece>
</UnstructuredGrid>
</VTKFile>
